     Program PWSCF v.6.7GPU starts on  9Sep2021 at 12:20:54

     R & G space division:  proc/nbgrp/npool/nimage =      10
     Reading input from /storage/home/hcoda1/3/ntian30/research/carbon/CxH_vib/CH3_calc/ads_slab/CH3NHNH_a/out_0046/pw.inp
Warning: card &CELL ignored
Warning: card   CELL_DYNAMICS='IPI', ignored
Warning: card / ignored

     Current dimensions of program PWSCF are:
     Max number of different atomic species (ntypx) = 10
     Max number of k-points (npk) =  40000
     Max angular momentum in pseudopotentials (lmaxx) =  3
     Presently no symmetry can be used with electric field

     Message from routine cell_base_init:
     DEPRECATED: use true lattice parameter, not A to a.u. conversion factor

     IMPORTANT: XC functional enforced from input :
     Exchange-correlation= BEEF-VDW
                           (   1   4  43  14   2   0   0)
     Any further DFT definition will be discarded
     Please, verify this is what you really want

  @ DRIVER MODE: Connecting to
 qe_1139763_2767401.sched-torque.pace.gatech.eduloxtgeua_scratch
  using UNIX socket
  @ DRIVER MODE: Message from server: STATUS
  @ DRIVER MODE: Message from server: INIT
  @ DRIVER MODE: Receiving replica           0          -1
  @ DRIVER MODE: Receiving encoded integer          25
  @ DRIVER MODE:  SCF:  T  FORCE:  T  STRESS:  F  VC:  F  ENSEMBLE:  F
  @ DRIVER MODE:  SCF:  T  FORCE:  T  STRESS:  F  VC:  F  ENSEMBLE:  F

     Using Slab Decomposition

     bravais-lattice index     =            0
     lattice parameter (alat)  =       1.8897  a.u.
     unit-cell volume          =    6658.9804 (a.u.)^3
     number of atoms/cell      =           55
     number of atomic types    =            5
     number of electrons       =       397.00
     number of Kohn-Sham states=          208
     kinetic-energy cutoff     =      29.3995  Ry
     charge density cutoff     =     293.9946  Ry
     scf convergence threshold =      7.3E-08
     mixing beta               =       0.0500
     number of iterations used =            8  plain     mixing
     Exchange-correlation= BEEF-VDW
                           (   1   4  43  14   2   0   0)

     celldm(1)=   1.889726  celldm(2)=   0.000000  celldm(3)=   0.000000
     celldm(4)=   0.000000  celldm(5)=   0.000000  celldm(6)=   0.000000

     crystal axes: (cart. coord. in units of alat)
               a(1) = (   6.579727   0.000000   0.000000 )
               a(2) = (  -0.000775   5.961596   0.000000 )
               a(3) = (   0.000000   0.000000  25.155947 )

     reciprocal axes: (cart. coord. in units 2 pi/alat)
               b(1) = (  0.151982  0.000020  0.000000 )
               b(2) = (  0.000000  0.167740  0.000000 )
               b(3) = (  0.000000  0.000000  0.039752 )

     PseudoPot. # 1 for Ti read from file:
     /storage/coda1/p-amedford6/0/shared/rich_project_chbe-medford/medford-share/data/pseudos_module/espresso/nninc/pbe/van/Ti.UPF
     MD5 check sum: 8e4df49b7f0d34bbd5052bf3f5ea0213
     Pseudo is Ultrasoft, Zval = 12.0
     Generated by new atomic code, or converted to UPF format
     Using radial grid of  851 points,  6 beta functions with:
                l(1) =   0
                l(2) =   0
                l(3) =   1
                l(4) =   1
                l(5) =   2
                l(6) =   2
     Q(r) pseudized with  8 coefficients,  rinner =    1.000   1.000   1.000
                                                       1.000   1.000

     PseudoPot. # 2 for O  read from file:
     /storage/coda1/p-amedford6/0/shared/rich_project_chbe-medford/medford-share/data/pseudos_module/espresso/nninc/pbe/van/O.UPF
     MD5 check sum: 78c19812648e8988a0fe644b0f25305e
     Pseudo is Ultrasoft, Zval =  6.0
     Generated by new atomic code, or converted to UPF format
     Using radial grid of  737 points,  4 beta functions with:
                l(1) =   0
                l(2) =   0
                l(3) =   1
                l(4) =   1
     Q(r) pseudized with  8 coefficients,  rinner =    0.800   0.800   0.800

     PseudoPot. # 3 for N  read from file:
     /storage/coda1/p-amedford6/0/shared/rich_project_chbe-medford/medford-share/data/pseudos_module/espresso/nninc/pbe/van/N.UPF
     MD5 check sum: 90d10febe142ad51ac9d5be1deb811c4
     Pseudo is Ultrasoft, Zval =  5.0
     Generated by new atomic code, or converted to UPF format
     Using radial grid of  729 points,  4 beta functions with:
                l(1) =   0
                l(2) =   0
                l(3) =   1
                l(4) =   1
     Q(r) pseudized with  8 coefficients,  rinner =    0.800   0.800   0.800

     PseudoPot. # 4 for C  read from file:
     /storage/coda1/p-amedford6/0/shared/rich_project_chbe-medford/medford-share/data/pseudos_module/espresso/nninc/pbe/van/C.UPF
     MD5 check sum: 1a69bf6b8db32088f5b2163dbdb77a27
     Pseudo is Ultrasoft, Zval =  4.0
     Generated by new atomic code, or converted to UPF format
     Using radial grid of  721 points,  4 beta functions with:
                l(1) =   0
                l(2) =   0
                l(3) =   1
                l(4) =   1
     Q(r) pseudized with  8 coefficients,  rinner =    0.800   0.800   0.800

     PseudoPot. # 5 for H  read from file:
     /storage/coda1/p-amedford6/0/shared/rich_project_chbe-medford/medford-share/data/pseudos_module/espresso/nninc/pbe/van/H.UPF
     MD5 check sum: b5ee9d7bfd3a09ee7748110bda690ff7
     Pseudo is Ultrasoft, Zval =  1.0
     Generated by new atomic code, or converted to UPF format
     Using radial grid of  615 points,  1 beta functions with:
                l(1) =   0
     Q(r) pseudized with  8 coefficients,  rinner =    0.800

     atomic species   valence    mass     pseudopotential
        Ti1           12.00    47.86700     Ti( 1.00)
        O1             6.00    15.99900     O ( 1.00)
        N1             5.00    14.00700     N ( 1.00)
        C1             4.00    12.01100     C ( 1.00)
        H1             1.00     1.00800     H ( 1.00)

     No symmetry found

   Cartesian axes

     site n.     atom                  positions (alat units)
         1           Ti1 tau(   1) = (   0.0004258   2.9801865   6.0000000  )
         2           Ti1 tau(   2) = (   3.2906075   1.4906267   6.0002472  )
         3           O1  tau(   3) = (   0.0006271   0.0005054   7.9858123  )
         4           O1  tau(   4) = (   3.2906025   0.0005020   7.3038282  )
         5           O1  tau(   5) = (   4.5942328   1.4918067   9.2879030  )
         6           O1  tau(   6) = (   1.9868534   1.4903216   9.2879459  )
         7           Ti1 tau(   7) = (   3.2907910   2.8959150   9.1758416  )
         8           Ti1 tau(   8) = (   0.0015273   1.4827037   9.2680791  )
         9           O1  tau(   9) = (   3.2830128   5.9597860  11.3344455  )
        10           O1  tau(  10) = (   0.0116148   5.9584955  10.6183126  )
        11           O1  tau(  11) = (   1.2885291   1.4855062  12.6376555  )
        12           O1  tau(  12) = (   5.2724004   1.4911608  12.5936499  )
        13           Ti1 tau(  13) = (   0.0410009   3.0319447  12.6084003  )
        14           Ti1 tau(  14) = (   3.3739341   1.4916561  12.4823474  )
        15           O1  tau(  15) = (   6.4862162   0.0153916  14.6455093  )
        16           O1  tau(  16) = (   3.3439542   5.9611638  13.9051029  )
        17           O1  tau(  17) = (   4.4933269   1.5483200  16.1231154  )
        18           O1  tau(  18) = (   1.9964937   1.4536654  15.9127221  )
        19           Ti1 tau(  19) = (   3.1412959   3.0017366  15.7441667  )
        20           Ti1 tau(  20) = (   6.4823597   1.5369342  15.8006069  )
        21           O1  tau(  21) = (   3.2904802   0.0005063   4.7018136  )
        22           O1  tau(  22) = (   6.5709111   0.0522475  17.2082838  )
        23           O1  tau(  23) = (   1.3043587   1.4918075   6.0039043  )
        24           O1  tau(  24) = (   5.2767064   1.4903225   6.0039473  )
        25           Ti1 tau(  25) = (   0.0000382   5.9609847   6.0000000  )
        26           Ti1 tau(  26) = (   3.2902200   4.4714249   6.0002472  )
        27           O1  tau(  27) = (   0.0002396   2.9813036   7.9858123  )
        28           O1  tau(  28) = (   3.2902150   2.9813002   7.3038282  )
        29           O1  tau(  29) = (   4.5938453   4.4726049   9.2879030  )
        30           O1  tau(  30) = (   1.9864658   4.4711199   9.2879459  )
        31           Ti1 tau(  31) = (   3.2891106   5.8743827   9.1763621  )
        32           Ti1 tau(  32) = (   0.0006254   4.4649316   9.2693709  )
        33           O1  tau(  33) = (   3.2833609   2.9822938  11.3349093  )
        34           O1  tau(  34) = (   0.0092240   2.9805883  10.6323155  )
        35           O1  tau(  35) = (   1.2838611   4.4860338  12.6468719  )
        36           O1  tau(  36) = (   5.2760156   4.4607002  12.6015494  )
        37           Ti1 tau(  37) = (   0.0673138   0.0440259  12.5461749  )
        38           Ti1 tau(  38) = (   3.3712377   4.4654930  12.4933830  )
        39           O1  tau(  39) = (   6.5217465   2.9589972  14.6412948  )
        40           O1  tau(  40) = (   3.2809526   2.9956502  13.9333893  )
        41           O1  tau(  41) = (   4.4911989   4.4583117  16.1637052  )
        42           O1  tau(  42) = (   1.9937212   4.5427850  15.9740970  )
        43           Ti1 tau(  43) = (   3.2955853   0.0167752  15.6963065  )
        44           Ti1 tau(  44) = (   6.5082246   4.6715011  16.1069148  )
        45           O1  tau(  45) = (   3.2900926   2.9813045   4.7018136  )
        46           O1  tau(  46) = (   1.3039711   4.4726057   6.0039043  )
        47           O1  tau(  47) = (   5.2763189   4.4711207   6.0039473  )
        48           N1  tau(  48) = (   1.3945086   2.8365607  18.1849301  )
        49           N1  tau(  49) = (   0.1777896   2.9650562  17.4211889  )
        50           C1  tau(  50) = (   1.4118813   3.7128676  19.3556819  )
        51           H1  tau(  51) = (   0.5171711   3.5996102  19.9880000  )
        52           H1  tau(  52) = (   2.2935099   3.4681107  19.9517681  )
        53           H1  tau(  53) = (   1.4703795   4.7520035  19.0319817  )
        54           H1  tau(  54) = (   1.4579882   1.8621926  18.4823179  )
        55           H1  tau(  55) = (   5.9558665   2.8847675  18.0551794  )

     number of k points=    10  Fermi-Dirac smearing, width (Ry)=  0.0073
                       cart. coord. in units 2pi/alat
        k(    1) = (   0.0000000   0.0000000   0.0000000), wk =   0.1250000
        k(    2) = (   0.0000000   0.0419351   0.0000000), wk =   0.2500000
        k(    3) = (   0.0000000  -0.0838702   0.0000000), wk =   0.1250000
        k(    4) = (   0.0379955   0.0000049   0.0000000), wk =   0.2500000
        k(    5) = (   0.0379955   0.0419400   0.0000000), wk =   0.2500000
        k(    6) = (   0.0379955  -0.0838652   0.0000000), wk =   0.2500000
        k(    7) = (   0.0379955  -0.0419301   0.0000000), wk =   0.2500000
        k(    8) = (  -0.0759910  -0.0000099   0.0000000), wk =   0.1250000
        k(    9) = (  -0.0759910   0.0419252   0.0000000), wk =   0.2500000
        k(   10) = (  -0.0759910  -0.0838800   0.0000000), wk =   0.1250000

     Initial potential from superposition of free atoms

     starting charge  380.99914, renormalised to  397.00000

     negative rho (up, down):  1.540E-02 0.000E+00

     %%%%%%%%%%%%%%%%%%%%%%%%%%%%%%%%%%%%%%%%%%%%%%%%%%%%%%%%%%%%%%%%%%%%%%%%
     %                                                                      %
     % You are using vdW-DF, which was implemented by the Thonhauser group. %
     % Please cite the following two papers that made this development      %
     % possible and the two reviews that describe the various versions:     %
     %                                                                      %
     %   T. Thonhauser et al., PRL 115, 136402 (2015).                      %
     %   T. Thonhauser et al., PRB 76, 125112 (2007).                       %
     %   K. Berland et al., Rep. Prog. Phys. 78, 066501 (2015).             %
     %   D.C. Langreth et al., J. Phys.: Condens. Matter 21, 084203 (2009). %
     %                                                                      %
     %                                                                      %
     % If you are calculating the stress with vdW-DF, please also cite:     %
     %                                                                      %
     %   R. Sabatini et al., J. Phys.: Condens. Matter 24, 424209 (2012).   %
     %                                                                      %
     %%%%%%%%%%%%%%%%%%%%%%%%%%%%%%%%%%%%%%%%%%%%%%%%%%%%%%%%%%%%%%%%%%%%%%%%

     Adding external electric field

     Computed dipole along edir(3) :
        Dipole               -9.6180 Ry au,        -24.4465 Debye
        Dipole field         -0.0182 Ry au,

        Potential amp.        1.6825 Ry
        Total length         46.3494 bohr

     Starting wfcs are  301 atomic wfcs
  @ DRIVER MODE: Message from server: STATUS
  @ DRIVER MODE: Message from server: POSDATA
  @ DRIVER MODE: Reading and sharing cell
  @ DRIVER MODE: Reading and sharing positions
  @ DRIVER MODE: Received positions

     Self-consistent Calculation

     iteration #  1     ecut=    29.40 Ry     beta= 0.05
     Davidson diagonalization with overlap
     c_bands:  1 eigenvalues not converged
     c_bands:  1 eigenvalues not converged
     c_bands:  1 eigenvalues not converged
     c_bands:  1 eigenvalues not converged
     c_bands:  1 eigenvalues not converged
     c_bands:  1 eigenvalues not converged
     c_bands:  2 eigenvalues not converged
     ethr =  1.00E-05,  avg # of iterations = 18.8

[...]

     total energy              =   -2533.52124339 Ry
     estimated scf accuracy    <    4539.93666300 Ry

     iteration #  2     ecut=    29.40 Ry     beta= 0.05
     Davidson diagonalization with overlap
     ethr =  1.00E-02,  avg # of iterations = 25.2

[...]

     iteration # 56     ecut=    29.40 Ry     beta= 0.05
     Davidson diagonalization with overlap
     c_bands:  1 eigenvalues not converged
     ethr =  1.53E-07,  avg # of iterations = 14.5

[...]

     total energy              =   -2941.66157372 Ry
     estimated scf accuracy    <       0.00000008 Ry

     iteration # 73     ecut=    29.40 Ry     beta= 0.05
     Davidson diagonalization with overlap
     ethr =  1.89E-11,  avg # of iterations =  7.8

     negative rho (up, down):  1.607E-02 0.000E+00

     Adding external electric field

     Computed dipole along edir(3) :
        Dipole                0.9420 Ry au,          2.3943 Debye
        Dipole field          0.0018 Ry au,

        Potential amp.       -0.1648 Ry
        Total length         46.3494 bohr

     End of self-consistent calculation

          k = 0.0000 0.0000 0.0000 ( 18029 PWs)   bands (ev):

   -55.6869 -55.6697 -55.6528 -55.6331 -55.5924 -55.5383 -55.5312 -55.5012
   -55.4951 -55.4672 -55.4651 -55.4309 -55.2591 -55.0327 -54.6672 -54.6331
   -32.2206 -32.1700 -32.0428 -32.0327 -31.9995 -31.9848 -31.9797 -31.9554
   -31.9308 -31.8988 -31.8965 -31.8903 -31.8472 -31.8391 -31.8251 -31.8234
   -31.8067 -31.7919 -31.7828 -31.7476 -31.7440 -31.7368 -31.7213 -31.7176
   -31.6948 -31.6903 -31.6876 -31.6800 -31.6657 -31.6636 -31.6560 -31.6467
   -31.6412 -31.6316 -31.6181 -31.6087 -31.5772 -31.5093 -31.4653 -31.2996
   -31.2899 -31.2356 -31.0744 -30.9859 -30.9635 -30.8911 -30.8046 -30.6936
   -16.7743 -16.4172 -16.1625 -15.9332 -15.8421 -15.8116 -15.6592 -15.5276
   -15.4182 -15.3365 -15.2516 -15.2325 -15.2254 -15.2145 -15.1885 -15.1826
   -15.1355 -15.1309 -15.1115 -15.0986 -15.0485 -15.0318 -15.0283 -14.9336
   -14.8698 -14.8346 -14.8198 -14.7849 -14.7476 -14.3332 -13.1695 -13.0530
   -11.8110  -8.9860  -5.4288  -4.3738  -3.8427  -3.7887  -3.6446  -3.5943
    -3.5338  -3.4958  -3.3174  -3.2149  -2.9421  -2.8850  -2.8556  -2.8464
    -2.7896  -2.7580  -2.6014  -2.5753  -2.5046  -2.4952  -2.4803  -2.4512
    -2.4428  -2.4360  -2.3980  -2.3759  -2.3474  -2.2433  -2.1037  -2.0944
    -2.0714  -2.0381  -2.0007  -1.9520  -1.9355  -1.9154  -1.8969  -1.8844
    -1.8717  -1.7369  -1.7016  -1.5850  -1.4959  -1.4490  -1.3699  -1.2988
    -1.2672  -1.1580  -1.1182  -1.1052  -1.0915  -1.0809  -0.9812  -0.8756
    -0.8581  -0.8204  -0.7653  -0.7095  -0.6389  -0.5941  -0.5430  -0.4904
    -0.4667  -0.4512  -0.4483  -0.4131  -0.3226  -0.1805  -0.1286  -0.0942
    -0.0720   0.0046   0.0398   0.0960   0.1203   0.1437   0.1797   0.2326
     0.2762   0.2827   0.2962   0.3107   0.3154   0.4898   0.5393   0.5810
     0.6139   0.6604   0.8215   0.8438   0.9653   1.0383   1.1944   1.2806
     1.3551   1.4335   1.5469   1.6281   1.9264   1.9721   3.4440   3.5314
     3.5762   3.5901   3.6854   3.7272   3.8967   3.9274   3.9418   4.0018

[...]

          k = 0.0380-0.0419 0.0000 ( 17876 PWs)   bands (ev):

[...]

          k =-0.0760-0.0000 0.0000 ( 17886 PWs)   bands (ev):

[...]

          k =-0.0760-0.0839 0.0000 ( 17948 PWs)   bands (ev):

   -55.6701 -55.6694 -55.6550 -55.6476 -55.5864 -55.5441 -55.5186 -55.5078
   -55.4846 -55.4832 -55.4510 -55.4452 -55.2580 -55.0337 -54.6501 -54.6501
   -32.0298 -32.0201 -31.9856 -31.9850 -31.9654 -31.9646 -31.9444 -31.9379
   -31.8851 -31.8844 -31.8742 -31.8690 -31.8521 -31.8342 -31.8095 -31.8048
   -31.8003 -31.7968 -31.7902 -31.7900 -31.7890 -31.7885 -31.7846 -31.7450
   -31.7366 -31.7251 -31.7169 -31.7057 -31.6850 -31.6841 -31.6820 -31.6753
   -31.6653 -31.6613 -31.6581 -31.6556 -31.6147 -31.5118 -31.4620 -31.3616
   -31.2920 -31.2614 -30.9762 -30.9762 -30.8872 -30.8871 -30.8479 -30.8479
   -16.7482 -15.8645 -15.8034 -15.6455 -15.6103 -15.5907 -15.5558 -15.4950
   -15.4118 -15.3848 -15.3801 -15.3331 -15.3071 -15.2745 -15.2365 -15.2219
   -15.2148 -15.1960 -15.1839 -15.1498 -15.1403 -15.1287 -15.1215 -15.0460
   -15.0084 -15.0040 -14.9985 -14.8948 -14.7683 -14.5010 -13.1549 -13.1548
   -11.8173  -9.0002  -5.4431  -4.3608  -3.7675  -3.1572  -3.0702  -2.8954
    -2.8399  -2.8111  -2.7953  -2.6291  -2.6180  -2.6034  -2.5562  -2.5359
    -2.5259  -2.5172  -2.5085  -2.4875  -2.4747  -2.4401  -2.4302  -2.3947
    -2.3808  -2.3628  -2.3459  -2.3290  -2.3093  -2.2951  -2.2788  -2.2377
    -2.2182  -2.2074  -2.1862  -2.1429  -1.9323  -1.8822  -1.8359  -1.8324
    -1.8219  -1.8024  -1.7476  -1.7426  -1.7087  -1.6574  -1.5789  -1.4338
    -1.3886  -1.3721  -1.2790  -1.2573  -1.2047  -1.1327  -1.0870  -1.0699
    -1.0350  -0.9712  -0.9344  -0.8972  -0.8308  -0.8062  -0.8005  -0.7067
    -0.6857  -0.6497  -0.6431  -0.5645  -0.5137  -0.4509  -0.4356  -0.4192
    -0.3881  -0.3540  -0.3357  -0.2684  -0.1761  -0.1749  -0.1532  -0.0427
     0.0482   0.2762   0.3386   0.3759   0.4209   0.5145   0.5825   0.6076
     0.6235   0.6450   0.6645   0.7127   0.8397   0.8496   0.8839   0.9969
     1.0926   1.6442   1.7186   1.7194   1.7919   1.7920   3.7457   3.7639
     3.7845   3.8309   3.9501   3.9570   3.9791   3.9812   4.1048   4.1172

     the Fermi energy is     3.4456 ev

!    total energy              =   -2941.66159067 Ry
     estimated scf accuracy    <       0.00000005 Ry
     smearing contrib. (-TS)   =      -0.02151406 Ry
     internal energy E=F+TS    =   -2941.64007661 Ry

     The total energy is F=E-TS. E is the sum of the following terms:
     one-electron contribution =  -24276.05758343 Ry
     hartree contribution      =   12228.48803859 Ry
     xc contribution           =    -486.87374333 Ry
     ewald contribution        =    9592.80153703 Ry
     electric field correction =       0.00167453 Ry

     convergence has been achieved in  73 iterations

     Forces acting on atoms (cartesian axes, Ry/au):

     atom    1 type  1   force =     0.00017937   -0.00011772    0.09635015
     atom    2 type  1   force =    -0.00021702   -0.00063405   -0.17551227
     atom    3 type  2   force =    -0.00004241   -0.00003581   -0.02419029
     atom    4 type  2   force =     0.00005014   -0.00143865    0.05291176
     atom    5 type  2   force =    -0.01181072   -0.00049381    0.00396794
     atom    6 type  2   force =     0.01312034    0.00023219    0.00230344
     atom    7 type  1   force =    -0.00140119    0.00079953   -0.01148439
     atom    8 type  1   force =     0.00053366    0.00921321    0.02522427
     atom    9 type  2   force =    -0.00011024    0.00017221    0.00037787
     atom   10 type  2   force =    -0.00086353    0.00148236   -0.01581090
     atom   11 type  2   force =    -0.00018158   -0.00049645    0.00039226
     atom   12 type  2   force =    -0.00013915   -0.00026355    0.00002955
     atom   13 type  1   force =     0.00054753   -0.00091646    0.00008150
     atom   14 type  1   force =    -0.00008031   -0.00040365    0.00024091
     atom   15 type  2   force =     0.00017202    0.00012231   -0.00034478
     atom   16 type  2   force =     0.00006910    0.00024626    0.00005822
     atom   17 type  2   force =    -0.00053443    0.00035005    0.00043529
     atom   18 type  2   force =     0.00005554    0.00013503    0.00029764
     atom   19 type  1   force =     0.00009168   -0.00056545    0.00020293
     atom   20 type  1   force =     0.00007177    0.00033216    0.00082238
     atom   21 type  2   force =     0.00007463   -0.00008146    0.10322543
     atom   22 type  2   force =    -0.00042093   -0.00035072    0.00026289
     atom   23 type  2   force =    -0.07147116   -0.00018328   -0.02770135
     atom   24 type  2   force =     0.07139117    0.00024954   -0.02770241
     atom   25 type  1   force =     0.00003140   -0.00027340    0.09581130
     atom   26 type  1   force =    -0.00014742   -0.00023515   -0.17568685
     atom   27 type  2   force =     0.00009099   -0.00012651   -0.02329440
     atom   28 type  2   force =     0.00008001   -0.00129601    0.05333600
     atom   29 type  2   force =    -0.01193821   -0.00005778    0.00376515
     atom   30 type  2   force =     0.01318617    0.00042913    0.00214153
     atom   31 type  1   force =    -0.00141524    0.00344744   -0.01081112
     atom   32 type  1   force =     0.00064230   -0.01010207    0.02563614
     atom   33 type  2   force =    -0.00038984    0.00005279    0.00003619
     atom   34 type  2   force =     0.00074682    0.00090300   -0.02307592
     atom   35 type  2   force =    -0.00010351    0.00029792   -0.00001888
     atom   36 type  2   force =    -0.00023166    0.00059839   -0.00028675
     atom   37 type  1   force =    -0.00082080   -0.00101949   -0.00013618
     atom   38 type  1   force =    -0.00002600   -0.00010217   -0.00003589
     atom   39 type  2   force =    -0.00035790    0.00003932    0.00052190
     atom   40 type  2   force =     0.00048956    0.00025561    0.00027176
     atom   41 type  2   force =     0.00006598    0.00047498    0.00031577
     atom   42 type  2   force =     0.00014325    0.00029741   -0.00021316
     atom   43 type  1   force =     0.00019971    0.00009800   -0.00021855
     atom   44 type  1   force =    -0.00013383   -0.00056397   -0.00016893
     atom   45 type  2   force =     0.00007063   -0.00008832    0.10325086
     atom   46 type  2   force =    -0.07147760   -0.00016955   -0.02769928
     atom   47 type  2   force =     0.07140049    0.00030521   -0.02771622
     atom   48 type  3   force =    -0.00080622   -0.00017972   -0.00003612
     atom   49 type  3   force =     0.00142174    0.00055447   -0.00067627
     atom   50 type  4   force =     0.00072279   -0.00000701    0.00091691
     atom   51 type  5   force =     0.00112639    0.00037763   -0.00060373
     atom   52 type  5   force =    -0.00030801    0.00072465   -0.00066017
     atom   53 type  5   force =    -0.00022871   -0.00165710    0.00054265
     atom   54 type  5   force =    -0.00004588    0.00067704   -0.00041361
     atom   55 type  5   force =    -0.00107166   -0.00100853    0.00076786

     Total force =     0.367333     Total SCF correction =     0.000565
  @ DRIVER MODE: Message from server: STATUS
  @ DRIVER MODE: Message from server: GETFORCE
  @ DRIVER MODE: Returning v,forces,stress,ensemble

     Writing output data file ./calc.save/
  @ DRIVER MODE: Message from server: EXIT
  @ DRIVE MODE: Exiting

     General routines

     Parallel routines

   This run was terminated on:  12:40:52   9Sep2021

   JOB DONE.