     Program PWSCF v.6.7GPU starts on 12Oct2021 at 11:15:22

     R & G space division:  proc/nbgrp/npool/nimage =       8
     Reading input from /storage/home/hcoda1/3/ntian30/research/carbon/ACS_vib/ads_slab/HNNH2/out_0007/pw.inp
Warning: card &CELL ignored
Warning: card   CELL_DYNAMICS='IPI', ignored
Warning: card / ignored

     Current dimensions of program PWSCF are:
     Max number of different atomic species (ntypx) = 10
     Max number of k-points (npk) =  40000
     Max angular momentum in pseudopotentials (lmaxx) =  3
     Presently no symmetry can be used with electric field

     Message from routine cell_base_init:
     DEPRECATED: use true lattice parameter, not A to a.u. conversion factor

     IMPORTANT: XC functional enforced from input :
     Exchange-correlation= BEEF-VDW
                           (   1   4  43  14   2   0   0)
     Any further DFT definition will be discarded
     Please, verify this is what you really want

  @ DRIVER MODE: Connecting to
 qe_1139763_3181312.sched-torque.pace.gatech.edujouv9ibv_scratch
  using UNIX socket
  @ DRIVER MODE: Message from server: STATUS
  @ DRIVER MODE: Message from server: INIT
  @ DRIVER MODE: Receiving replica           0          -1
  @ DRIVER MODE: Receiving encoded integer          25
  @ DRIVER MODE:  SCF:  T  FORCE:  T  STRESS:  F  VC:  F  ENSEMBLE:  F
  @ DRIVER MODE:  SCF:  T  FORCE:  T  STRESS:  F  VC:  F  ENSEMBLE:  F

     Using Slab Decomposition

     bravais-lattice index     =            0
     lattice parameter (alat)  =       1.8897  a.u.
     unit-cell volume          =    6658.9804 (a.u.)^3
     number of atoms/cell      =           52
     number of atomic types    =            4
     number of electrons       =       391.00
     number of Kohn-Sham states=          205
     kinetic-energy cutoff     =      29.3995  Ry
     charge density cutoff     =     293.9946  Ry
     scf convergence threshold =      7.3E-08
     mixing beta               =       0.0500
     number of iterations used =            8  plain     mixing
     Exchange-correlation= BEEF-VDW
                           (   1   4  43  14   2   0   0)

     celldm(1)=   1.889726  celldm(2)=   0.000000  celldm(3)=   0.000000
     celldm(4)=   0.000000  celldm(5)=   0.000000  celldm(6)=   0.000000

     crystal axes: (cart. coord. in units of alat)
               a(1) = (   6.579727   0.000000   0.000000 )
               a(2) = (  -0.000775   5.961596   0.000000 )
               a(3) = (   0.000000   0.000000  25.155947 )

     reciprocal axes: (cart. coord. in units 2 pi/alat)
               b(1) = (  0.151982  0.000020  0.000000 )
               b(2) = (  0.000000  0.167740  0.000000 )
               b(3) = (  0.000000  0.000000  0.039752 )

     PseudoPot. # 1 for Ti read from file:
     /storage/coda1/p-amedford6/0/shared/rich_project_chbe-medford/medford-share/data/pseudos_module/espresso/nninc/pbe/van/Ti.UPF
     MD5 check sum: 8e4df49b7f0d34bbd5052bf3f5ea0213
     Pseudo is Ultrasoft, Zval = 12.0
     Generated by new atomic code, or converted to UPF format
     Using radial grid of  851 points,  6 beta functions with:
                l(1) =   0
                l(2) =   0
                l(3) =   1
                l(4) =   1
                l(5) =   2
                l(6) =   2
     Q(r) pseudized with  8 coefficients,  rinner =    1.000   1.000   1.000
                                                       1.000   1.000

     PseudoPot. # 2 for O  read from file:
     /storage/coda1/p-amedford6/0/shared/rich_project_chbe-medford/medford-share/data/pseudos_module/espresso/nninc/pbe/van/O.UPF
     MD5 check sum: 78c19812648e8988a0fe644b0f25305e
     Pseudo is Ultrasoft, Zval =  6.0
     Generated by new atomic code, or converted to UPF format
     Using radial grid of  737 points,  4 beta functions with:
                l(1) =   0
                l(2) =   0
                l(3) =   1
                l(4) =   1
     Q(r) pseudized with  8 coefficients,  rinner =    0.800   0.800   0.800

     PseudoPot. # 3 for H  read from file:
     /storage/coda1/p-amedford6/0/shared/rich_project_chbe-medford/medford-share/data/pseudos_module/espresso/nninc/pbe/van/H.UPF
     MD5 check sum: b5ee9d7bfd3a09ee7748110bda690ff7
     Pseudo is Ultrasoft, Zval =  1.0
     Generated by new atomic code, or converted to UPF format
     Using radial grid of  615 points,  1 beta functions with:
                l(1) =   0
     Q(r) pseudized with  8 coefficients,  rinner =    0.800

     PseudoPot. # 4 for N  read from file:
     /storage/coda1/p-amedford6/0/shared/rich_project_chbe-medford/medford-share/data/pseudos_module/espresso/nninc/pbe/van/N.UPF
     MD5 check sum: 90d10febe142ad51ac9d5be1deb811c4
     Pseudo is Ultrasoft, Zval =  5.0
     Generated by new atomic code, or converted to UPF format
     Using radial grid of  729 points,  4 beta functions with:
                l(1) =   0
                l(2) =   0
                l(3) =   1
                l(4) =   1
     Q(r) pseudized with  8 coefficients,  rinner =    0.800   0.800   0.800

     atomic species   valence    mass     pseudopotential
        Ti1           12.00    47.86700     Ti( 1.00)
        O1             6.00    15.99900     O ( 1.00)
        H1             1.00     1.00800     H ( 1.00)
        N1             5.00    14.00700     N ( 1.00)

     No symmetry found

   Cartesian axes

     site n.     atom                  positions (alat units)
         1           Ti1 tau(   1) = (   0.0004258   2.9801865   6.0000000  )
         2           Ti1 tau(   2) = (   3.2906075   1.4906267   6.0002472  )
         3           O1  tau(   3) = (   0.0006271   0.0005054   7.9858123  )
         4           O1  tau(   4) = (   3.2906025   0.0005020   7.3038282  )
         5           O1  tau(   5) = (   4.5942328   1.4918067   9.2879030  )
         6           O1  tau(   6) = (   1.9868534   1.4903216   9.2879459  )
         7           Ti1 tau(   7) = (   3.2908112   2.9011704   9.1816539  )
         8           Ti1 tau(   8) = (   0.0015097   1.3932332   9.2931702  )
         9           O1  tau(   9) = (   3.2819087   5.9526348  11.3504271  )
        10           O1  tau(  10) = (   6.5772260   5.9545827  10.6088576  )
        11           O1  tau(  11) = (   1.2874804   1.4832564  12.6509691  )
        12           O1  tau(  12) = (   5.2781146   1.4858874  12.6440994  )
        13           Ti1 tau(  13) = (   6.5585775   2.9503744  12.8030734  )
        14           Ti1 tau(  14) = (   3.2696126   1.4733128  12.4944632  )
        15           O1  tau(  15) = (   6.5513721   5.9458199  14.6768215  )
        16           O1  tau(  16) = (   3.2879482   5.9481552  13.9547078  )
        17           O1  tau(  17) = (   4.5181657   1.4884665  16.1124167  )
        18           O1  tau(  18) = (   2.0188244   1.4835402  16.0984261  )
        19           Ti1 tau(  19) = (   3.2766105   2.9578040  15.7125626  )
        20           Ti1 tau(  20) = (   0.0270592   1.3580474  16.0627221  )
        21           O1  tau(  21) = (   3.2904802   0.0005063   4.7018136  )
        22           O1  tau(  22) = (   0.0072818   5.9434210  17.2237418  )
        23           O1  tau(  23) = (   1.3043587   1.4918075   6.0039043  )
        24           O1  tau(  24) = (   5.2767064   1.4903225   6.0039473  )
        25           Ti1 tau(  25) = (   0.0000382   5.9609847   6.0000000  )
        26           Ti1 tau(  26) = (   3.2902200   4.4714249   6.0002472  )
        27           O1  tau(  27) = (   0.0002396   2.9813036   7.9858123  )
        28           O1  tau(  28) = (   3.2902150   2.9813002   7.3038282  )
        29           O1  tau(  29) = (   4.5938453   4.4726049   9.2879030  )
        30           O1  tau(  30) = (   1.9864658   4.4711199   9.2879459  )
        31           Ti1 tau(  31) = (   3.2900885   5.8829342   9.1674613  )
        32           Ti1 tau(  32) = (   0.0009626   4.3321112   9.3579051  )
        33           O1  tau(  33) = (   3.2805539   2.9674959  11.3464436  )
        34           O1  tau(  34) = (   6.5791951   2.9642230  10.5753725  )
        35           O1  tau(  35) = (   1.2880645   4.4660911  12.6414962  )
        36           O1  tau(  36) = (   5.2770833   4.4616490  12.6331305  )
        37           Ti1 tau(  37) = (   6.5652171   5.9330851  12.5680926  )
        38           Ti1 tau(  38) = (   3.2703904   4.4534766  12.4879229  )
        39           O1  tau(  39) = (   6.5642693   2.9891374  14.6930774  )
        40           O1  tau(  40) = (   3.2814391   2.9717942  13.9260038  )
        41           O1  tau(  41) = (   4.5200678   4.4336085  16.1105754  )
        42           O1  tau(  42) = (   2.0169658   4.4359636  16.1171003  )
        43           Ti1 tau(  43) = (   3.3139371   5.9425984  15.7429620  )
        44           Ti1 tau(  44) = (   0.0173840   4.5100783  16.0001754  )
        45           O1  tau(  45) = (   3.2900926   2.9813045   4.7018136  )
        46           O1  tau(  46) = (   1.3039711   4.4726057   6.0039043  )
        47           O1  tau(  47) = (   5.2763189   4.4711207   6.0039473  )
        48           H1  tau(  48) = (   5.5810648   2.9993886  17.8866560  )
        49           N1  tau(  49) = (   6.5084219   2.9788514  17.4915934  )
        50           N1  tau(  50) = (   0.8269126   2.9775512  18.6276789  )
        51           H1  tau(  51) = (   1.2125983   2.0437984  18.7562651  )
        52           H1  tau(  52) = (   1.5963704   3.6133177  18.4401992  )

     number of k points=    10  Fermi-Dirac smearing, width (Ry)=  0.0073
                       cart. coord. in units 2pi/alat
        k(    1) = (   0.0000000   0.0000000   0.0000000), wk =   0.1250000
        k(    2) = (   0.0000000   0.0419351   0.0000000), wk =   0.2500000
        k(    3) = (   0.0000000  -0.0838702   0.0000000), wk =   0.1250000
        k(    4) = (   0.0379955   0.0000049   0.0000000), wk =   0.2500000
        k(    5) = (   0.0379955   0.0419400   0.0000000), wk =   0.2500000
        k(    6) = (   0.0379955  -0.0838652   0.0000000), wk =   0.2500000
        k(    7) = (   0.0379955  -0.0419301   0.0000000), wk =   0.2500000
        k(    8) = (  -0.0759910  -0.0000099   0.0000000), wk =   0.1250000
        k(    9) = (  -0.0759910   0.0419252   0.0000000), wk =   0.2500000
        k(   10) = (  -0.0759910  -0.0838800   0.0000000), wk =   0.1250000

     Initial potential from superposition of free atoms

     starting charge  374.99920, renormalised to  391.00000

     negative rho (up, down):  1.966E-02 0.000E+00

     %%%%%%%%%%%%%%%%%%%%%%%%%%%%%%%%%%%%%%%%%%%%%%%%%%%%%%%%%%%%%%%%%%%%%%%%
     %                                                                      %
     % You are using vdW-DF, which was implemented by the Thonhauser group. %
     % Please cite the following two papers that made this development      %
     % possible and the two reviews that describe the various versions:     %
     %                                                                      %
     %   T. Thonhauser et al., PRL 115, 136402 (2015).                      %
     %   T. Thonhauser et al., PRB 76, 125112 (2007).                       %
     %   K. Berland et al., Rep. Prog. Phys. 78, 066501 (2015).             %
     %   D.C. Langreth et al., J. Phys.: Condens. Matter 21, 084203 (2009). %
     %                                                                      %
     %                                                                      %
     % If you are calculating the stress with vdW-DF, please also cite:     %
     %                                                                      %
     %   R. Sabatini et al., J. Phys.: Condens. Matter 24, 424209 (2012).   %
     %                                                                      %
     %%%%%%%%%%%%%%%%%%%%%%%%%%%%%%%%%%%%%%%%%%%%%%%%%%%%%%%%%%%%%%%%%%%%%%%%

     Adding external electric field

     Computed dipole along edir(3) :
        Dipole               -5.4650 Ry au,        -13.8907 Debye
        Dipole field         -0.0103 Ry au,

        Potential amp.        0.9560 Ry
        Total length         46.3494 bohr

     Starting wfcs are  295 atomic wfcs
  @ DRIVER MODE: Message from server: STATUS
  @ DRIVER MODE: Message from server: POSDATA
  @ DRIVER MODE: Reading and sharing cell
  @ DRIVER MODE: Reading and sharing positions
  @ DRIVER MODE: Received positions

     Self-consistent Calculation

     iteration #  1     ecut=    29.40 Ry     beta= 0.05
     Davidson diagonalization with overlap
     c_bands:  3 eigenvalues not converged
     c_bands:  1 eigenvalues not converged
     c_bands:  2 eigenvalues not converged
     c_bands:  3 eigenvalues not converged
     c_bands:  4 eigenvalues not converged
     c_bands:  2 eigenvalues not converged
     c_bands:  1 eigenvalues not converged
     c_bands:  1 eigenvalues not converged
     c_bands:  2 eigenvalues not converged
     ethr =  1.00E-05,  avg # of iterations = 19.9

[...]

     total energy              =   -2794.90441543 Ry
     estimated scf accuracy    <    1457.87475091 Ry

     iteration #  2     ecut=    29.40 Ry     beta= 0.05
     Davidson diagonalization with overlap
     ethr =  1.00E-02,  avg # of iterations = 17.3

[...]

     iteration # 50     ecut=    29.40 Ry     beta= 0.05
     Davidson diagonalization with overlap
     c_bands:  3 eigenvalues not converged
     ethr =  2.46E-10,  avg # of iterations = 14.4

[...]

     total energy              =   -2927.71105436 Ry
     estimated scf accuracy    <       0.00000009 Ry

     iteration # 56     ecut=    29.40 Ry     beta= 0.05
     Davidson diagonalization with overlap
     ethr =  2.38E-11,  avg # of iterations =  2.6

     negative rho (up, down):  1.935E-02 0.000E+00

     Adding external electric field

     Computed dipole along edir(3) :
        Dipole                0.4575 Ry au,          1.1627 Debye
        Dipole field          0.0009 Ry au,

        Potential amp.       -0.0800 Ry
        Total length         46.3494 bohr

     End of self-consistent calculation

          k = 0.0000 0.0000 0.0000 ( 18029 PWs)   bands (ev):

   -56.1413 -56.1260 -56.1055 -56.0898 -56.0432 -56.0098 -55.9695 -55.9452
   -55.8962 -55.8824 -55.8684 -55.8324 -55.7624 -55.7570 -55.0782 -55.0441
   -32.6975 -32.6011 -32.4827 -32.4711 -32.4604 -32.4284 -32.4026 -32.3848
   -32.3752 -32.3541 -32.3487 -32.3452 -32.3317 -32.3074 -32.3035 -32.2828
   -32.2769 -32.2556 -32.2242 -32.2128 -32.2093 -32.1916 -32.1601 -32.1543
   -32.1529 -32.1328 -32.1314 -32.1073 -32.1003 -32.0958 -32.0952 -32.0754
   -32.0739 -32.0404 -32.0182 -32.0169 -31.9808 -31.9775 -31.9689 -31.9559
   -31.9417 -31.8990 -31.4853 -31.3968 -31.3740 -31.3016 -31.2152 -31.1046
   -16.9033 -16.6503 -16.5201 -16.3485 -16.2629 -16.2425 -16.1855 -15.9071
   -15.8402 -15.7777 -15.7610 -15.7390 -15.7268 -15.6645 -15.6635 -15.6293
   -15.5853 -15.5508 -15.5400 -15.5103 -15.5032 -15.4543 -15.4289 -15.3992
   -15.3646 -15.2807 -15.2261 -15.1550 -15.1188 -15.0790 -13.5818 -13.4658
   -11.3220  -5.2436  -4.6044  -4.2502  -4.1363  -4.0499  -3.9986  -3.9317
    -3.7791  -3.7254  -3.5869  -3.3404  -3.3028  -3.2883  -3.2592  -3.2214
    -3.0336  -2.9838  -2.9478  -2.9259  -2.9201  -2.9130  -2.8754  -2.8431
    -2.8354  -2.8328  -2.7162  -2.6451  -2.5575  -2.5462  -2.4776  -2.4382
    -2.4152  -2.4116  -2.3700  -2.3482  -2.3272  -2.3091  -2.2810  -2.1809
    -2.1560  -2.0732  -1.9839  -1.8992  -1.7785  -1.7138  -1.7022  -1.5750
    -1.5151  -1.5129  -1.4792  -1.4579  -1.4180  -1.3405  -1.3029  -1.2555
    -1.1762  -1.1326  -1.0631  -1.0336  -1.0193  -0.9789  -0.9024  -0.8544
    -0.8476  -0.8364  -0.6311  -0.6037  -0.5939  -0.5795  -0.4614  -0.3803
    -0.3631  -0.3326  -0.3162  -0.3036  -0.2501  -0.1593  -0.1304  -0.1184
    -0.0991  -0.0134   0.0568   0.0642   0.0975   0.1857   0.2090   0.3254
     0.3901   0.5660   0.6015   0.7178   0.8627   0.9416   0.9754   1.1358
     1.5219   1.5553   1.5727   3.0552   3.0732   3.1105   3.1313   3.2675
     3.3780   3.3808   3.4796   3.5005   3.5527

[...]

          k = 0.0380-0.0419 0.0000 ( 17876 PWs)   bands (ev):

[...]

          k =-0.0760-0.0000 0.0000 ( 17886 PWs)   bands (ev):

[...]

          k =-0.0760-0.0839 0.0000 ( 17948 PWs)   bands (ev):

   -56.1291 -56.1175 -56.1086 -56.1070 -56.0389 -56.0053 -55.9736 -55.9497
   -55.8941 -55.8795 -55.8573 -55.8438 -55.7645 -55.7593 -55.0614 -55.0608
   -32.5013 -32.4978 -32.4342 -32.4246 -32.4174 -32.4116 -32.4015 -32.3999
   -32.3386 -32.3381 -32.3345 -32.3049 -32.3029 -32.2871 -32.2719 -32.2582
   -32.2503 -32.2489 -32.2358 -32.2338 -32.2213 -32.2100 -32.1955 -32.1852
   -32.1770 -32.1686 -32.1655 -32.1602 -32.1440 -32.1087 -32.0881 -32.0863
   -32.0851 -32.0674 -32.0670 -32.0605 -32.0495 -32.0223 -32.0199 -31.9921
   -31.9499 -31.9484 -31.3871 -31.3863 -31.2986 -31.2978 -31.2587 -31.2580
   -16.4933 -16.3603 -16.3141 -16.0824 -16.0670 -16.0245 -15.9464 -15.8941
   -15.8891 -15.8632 -15.8560 -15.7969 -15.7864 -15.7742 -15.7449 -15.6494
   -15.6476 -15.6360 -15.6170 -15.5555 -15.5400 -15.5059 -15.4749 -15.4659
   -15.4391 -15.4112 -15.3810 -15.3590 -15.2973 -15.2806 -13.5680 -13.5671
   -11.3301  -5.2422  -4.5651  -3.6888  -3.6474  -3.5994  -3.2953  -3.2775
    -3.2489  -3.1337  -3.0660  -3.0401  -3.0071  -2.9783  -2.9427  -2.9313
    -2.9163  -2.9120  -2.9037  -2.9010  -2.8696  -2.8397  -2.8209  -2.7772
    -2.7500  -2.7433  -2.7248  -2.7089  -2.7039  -2.6541  -2.6504  -2.6453
    -2.6367  -2.5167  -2.3867  -2.3696  -2.3317  -2.2127  -2.1891  -2.1832
    -2.1535  -2.1426  -2.1367  -2.0807  -1.9754  -1.8703  -1.8216  -1.8007
    -1.7768  -1.7147  -1.5977  -1.5477  -1.5365  -1.5057  -1.4434  -1.4241
    -1.3719  -1.3670  -1.2623  -1.2351  -1.2108  -1.1372  -1.0757  -1.0580
    -1.0358  -0.9772  -0.9293  -0.9088  -0.9022  -0.8546  -0.7541  -0.7453
    -0.6968  -0.6861  -0.6337  -0.6282  -0.5750  -0.4463  -0.2059  -0.1677
    -0.0949  -0.0726   0.0194   0.0512   0.0784   0.1731   0.2016   0.3031
     0.3434   0.4382   0.4451   0.4608   0.5034   0.6675   1.3064   1.3091
     1.3828   1.3891   1.5581   3.2116   3.2494   3.2738   3.3376   3.5178
     3.5416   3.5426   3.5572   3.5887   3.6515

     the Fermi energy is     3.0137 ev

!    total energy              =   -2927.71111201 Ry
     estimated scf accuracy    <       0.00000003 Ry
     smearing contrib. (-TS)   =      -0.02327465 Ry
     internal energy E=F+TS    =   -2927.68783736 Ry

     The total energy is F=E-TS. E is the sum of the following terms:
     one-electron contribution =  -24559.68004783 Ry
     hartree contribution      =   12363.01750215 Ry
     xc contribution           =    -481.65420393 Ry
     ewald contribution        =    9750.62851735 Ry
     electric field correction =       0.00039491 Ry

     convergence has been achieved in  56 iterations

     Forces acting on atoms (cartesian axes, Ry/au):

     atom    1 type  1   force =     0.00026595    0.00111121    0.11025383
     atom    2 type  1   force =     0.00006334    0.00172318   -0.17427630
     atom    3 type  2   force =     0.00010552    0.00666429   -0.03419000
     atom    4 type  2   force =     0.00001393   -0.00085813    0.05079978
     atom    5 type  2   force =    -0.01745405   -0.00134753    0.00575683
     atom    6 type  2   force =     0.01690481   -0.00101574    0.00538350
     atom    7 type  1   force =     0.00007248    0.00261278   -0.01785786
     atom    8 type  1   force =    -0.00001988    0.00012103    0.00030966
     atom    9 type  2   force =    -0.00001421    0.00009505   -0.00038988
     atom   10 type  2   force =    -0.00000354   -0.00050538   -0.00006726
     atom   11 type  2   force =     0.00009381   -0.00026065   -0.00005432
     atom   12 type  2   force =    -0.00009491   -0.00035965   -0.00022944
     atom   13 type  1   force =    -0.00039654   -0.00034993    0.00005150
     atom   14 type  1   force =    -0.00075156    0.00007496   -0.00011288
     atom   15 type  2   force =    -0.00039462   -0.00028477    0.00079414
     atom   16 type  2   force =     0.00010710   -0.00015103   -0.00031759
     atom   17 type  2   force =    -0.00017470   -0.00042169    0.00034908
     atom   18 type  2   force =     0.00080879   -0.00038039    0.00050353
     atom   19 type  1   force =     0.00010913    0.00033607    0.00010860
     atom   20 type  1   force =    -0.00022690   -0.00067276    0.00139125
     atom   21 type  2   force =     0.00009452    0.00006258    0.10313288
     atom   22 type  2   force =     0.00014820    0.00044031   -0.00168900
     atom   23 type  2   force =    -0.07113531    0.00062286   -0.03028625
     atom   24 type  2   force =     0.07110093    0.00103702   -0.03029515
     atom   25 type  1   force =     0.00005747   -0.00110768    0.11741839
     atom   26 type  1   force =     0.00004142   -0.00256026   -0.17411243
     atom   27 type  2   force =     0.00006872   -0.00281503   -0.02989841
     atom   28 type  2   force =     0.00002468   -0.00148736    0.05395975
     atom   29 type  2   force =    -0.01861230    0.00056918    0.00665455
     atom   30 type  2   force =     0.01809145    0.00124040    0.00629900
     atom   31 type  1   force =     0.00039155   -0.00271328   -0.01224395
     atom   32 type  1   force =    -0.00000235    0.00037805    0.00068806
     atom   33 type  2   force =     0.00002187   -0.00009052   -0.00044630
     atom   34 type  2   force =     0.00007464    0.00032072    0.00038271
     atom   35 type  2   force =     0.00000390    0.00007329   -0.00028778
     atom   36 type  2   force =     0.00006560    0.00001123   -0.00033266
     atom   37 type  1   force =    -0.00052559   -0.00042365    0.00092782
     atom   38 type  1   force =    -0.00069989    0.00003396   -0.00013294
     atom   39 type  2   force =     0.00005402   -0.00062195   -0.00044742
     atom   40 type  2   force =     0.00000920   -0.00009452   -0.00062856
     atom   41 type  2   force =    -0.00051018    0.00030888    0.00030969
     atom   42 type  2   force =     0.00057474    0.00023945    0.00010583
     atom   43 type  1   force =     0.00046654   -0.00016234    0.00000679
     atom   44 type  1   force =     0.00032016    0.00070925    0.00069915
     atom   45 type  2   force =     0.00007877    0.00013681    0.10306797
     atom   46 type  2   force =    -0.07142831   -0.00055252   -0.03021867
     atom   47 type  2   force =     0.07139250   -0.00010917   -0.03027042
     atom   48 type  3   force =    -0.01240435    0.00058769    0.00622277
     atom   49 type  4   force =     0.01994465   -0.00041911   -0.00187680
     atom   50 type  4   force =    -0.00460208   -0.00082760   -0.00305820
     atom   51 type  3   force =    -0.00073148    0.00057966   -0.00112142
     atom   52 type  3   force =    -0.00138764    0.00050271   -0.00073515

     Total force =     0.376879     Total SCF correction =     0.000394
  @ DRIVER MODE: Message from server: STATUS
  @ DRIVER MODE: Message from server: GETFORCE
  @ DRIVER MODE: Returning v,forces,stress,ensemble

     Writing output data file ./calc.save/
  @ DRIVER MODE: Message from server: EXIT
  @ DRIVE MODE: Exiting

     General routines

     Parallel routines

   This run was terminated on:  11:34:23  12Oct2021

   JOB DONE.