     Program PWSCF v.6.7GPU starts on 23Sep2021 at  2:27:58

     R & G space division:  proc/nbgrp/npool/nimage =       8
     Reading input from /storage/home/hcoda1/3/ntian30/research/carbon/CxH_vib/H2O_calc/ads_slab/CH2NHHO_a/out_0011/pw.inp
Warning: card &CELL ignored
Warning: card   CELL_DYNAMICS='IPI', ignored
Warning: card / ignored

     Current dimensions of program PWSCF are:
     Max number of different atomic species (ntypx) = 10
     Max number of k-points (npk) =  40000
     Max angular momentum in pseudopotentials (lmaxx) =  3
     Presently no symmetry can be used with electric field

     Message from routine cell_base_init:
     DEPRECATED: use true lattice parameter, not A to a.u. conversion factor

     IMPORTANT: XC functional enforced from input :
     Exchange-correlation= BEEF-VDW
                           (   1   4  43  14   2   0   0)
     Any further DFT definition will be discarded
     Please, verify this is what you really want

  @ DRIVER MODE: Connecting to
 qe_1139763_2941012.sched-torque.pace.gatech.edu8mxir6t__scratch
  using UNIX socket
  @ DRIVER MODE: Message from server: STATUS
  @ DRIVER MODE: Message from server: INIT
  @ DRIVER MODE: Receiving replica           0          -1
  @ DRIVER MODE: Receiving encoded integer          25
  @ DRIVER MODE:  SCF:  T  FORCE:  T  STRESS:  F  VC:  F  ENSEMBLE:  F
  @ DRIVER MODE:  SCF:  T  FORCE:  T  STRESS:  F  VC:  F  ENSEMBLE:  F

     Using Slab Decomposition

     bravais-lattice index     =            0
     lattice parameter (alat)  =       1.8897  a.u.
     unit-cell volume          =    6658.9804 (a.u.)^3
     number of atoms/cell      =           54
     number of atomic types    =            5
     number of electrons       =       397.00
     number of Kohn-Sham states=          208
     kinetic-energy cutoff     =      29.3995  Ry
     charge density cutoff     =     293.9946  Ry
     scf convergence threshold =      7.3E-08
     mixing beta               =       0.0500
     number of iterations used =            8  plain     mixing
     Exchange-correlation= BEEF-VDW
                           (   1   4  43  14   2   0   0)

     celldm(1)=   1.889726  celldm(2)=   0.000000  celldm(3)=   0.000000
     celldm(4)=   0.000000  celldm(5)=   0.000000  celldm(6)=   0.000000

     crystal axes: (cart. coord. in units of alat)
               a(1) = (   6.579727   0.000000   0.000000 )
               a(2) = (  -0.000775   5.961596   0.000000 )
               a(3) = (   0.000000   0.000000  25.155947 )

     reciprocal axes: (cart. coord. in units 2 pi/alat)
               b(1) = (  0.151982  0.000020  0.000000 )
               b(2) = (  0.000000  0.167740  0.000000 )
               b(3) = (  0.000000  0.000000  0.039752 )

     PseudoPot. # 1 for Ti read from file:
     /storage/coda1/p-amedford6/0/shared/rich_project_chbe-medford/medford-share/data/pseudos_module/espresso/nninc/pbe/van/Ti.UPF
     MD5 check sum: 8e4df49b7f0d34bbd5052bf3f5ea0213
     Pseudo is Ultrasoft, Zval = 12.0
     Generated by new atomic code, or converted to UPF format
     Using radial grid of  851 points,  6 beta functions with:
                l(1) =   0
                l(2) =   0
                l(3) =   1
                l(4) =   1
                l(5) =   2
                l(6) =   2
     Q(r) pseudized with  8 coefficients,  rinner =    1.000   1.000   1.000
                                                       1.000   1.000

     PseudoPot. # 2 for O  read from file:
     /storage/coda1/p-amedford6/0/shared/rich_project_chbe-medford/medford-share/data/pseudos_module/espresso/nninc/pbe/van/O.UPF
     MD5 check sum: 78c19812648e8988a0fe644b0f25305e
     Pseudo is Ultrasoft, Zval =  6.0
     Generated by new atomic code, or converted to UPF format
     Using radial grid of  737 points,  4 beta functions with:
                l(1) =   0
                l(2) =   0
                l(3) =   1
                l(4) =   1
     Q(r) pseudized with  8 coefficients,  rinner =    0.800   0.800   0.800

     PseudoPot. # 3 for N  read from file:
     /storage/coda1/p-amedford6/0/shared/rich_project_chbe-medford/medford-share/data/pseudos_module/espresso/nninc/pbe/van/N.UPF
     MD5 check sum: 90d10febe142ad51ac9d5be1deb811c4
     Pseudo is Ultrasoft, Zval =  5.0
     Generated by new atomic code, or converted to UPF format
     Using radial grid of  729 points,  4 beta functions with:
                l(1) =   0
                l(2) =   0
                l(3) =   1
                l(4) =   1
     Q(r) pseudized with  8 coefficients,  rinner =    0.800   0.800   0.800

     PseudoPot. # 4 for C  read from file:
     /storage/coda1/p-amedford6/0/shared/rich_project_chbe-medford/medford-share/data/pseudos_module/espresso/nninc/pbe/van/C.UPF
     MD5 check sum: 1a69bf6b8db32088f5b2163dbdb77a27
     Pseudo is Ultrasoft, Zval =  4.0
     Generated by new atomic code, or converted to UPF format
     Using radial grid of  721 points,  4 beta functions with:
                l(1) =   0
                l(2) =   0
                l(3) =   1
                l(4) =   1
     Q(r) pseudized with  8 coefficients,  rinner =    0.800   0.800   0.800

     PseudoPot. # 5 for H  read from file:
     /storage/coda1/p-amedford6/0/shared/rich_project_chbe-medford/medford-share/data/pseudos_module/espresso/nninc/pbe/van/H.UPF
     MD5 check sum: b5ee9d7bfd3a09ee7748110bda690ff7
     Pseudo is Ultrasoft, Zval =  1.0
     Generated by new atomic code, or converted to UPF format
     Using radial grid of  615 points,  1 beta functions with:
                l(1) =   0
     Q(r) pseudized with  8 coefficients,  rinner =    0.800

     atomic species   valence    mass     pseudopotential
        Ti1           12.00    47.86700     Ti( 1.00)
        O1             6.00    15.99900     O ( 1.00)
        N1             5.00    14.00700     N ( 1.00)
        C1             4.00    12.01100     C ( 1.00)
        H1             1.00     1.00800     H ( 1.00)

     No symmetry found

   Cartesian axes

     site n.     atom                  positions (alat units)
         1           Ti1 tau(   1) = (   0.0004258   2.9801865   6.0000000  )
         2           Ti1 tau(   2) = (   3.2906075   1.4906267   6.0002472  )
         3           O1  tau(   3) = (   0.0006271   0.0005054   7.9858123  )
         4           O1  tau(   4) = (   3.2906025   0.0005020   7.3038282  )
         5           O1  tau(   5) = (   4.5942328   1.4918067   9.2879030  )
         6           O1  tau(   6) = (   1.9868534   1.4903216   9.2879459  )
         7           Ti1 tau(   7) = (   3.2907910   2.8959150   9.1758416  )
         8           Ti1 tau(   8) = (   0.0015273   1.4827037   9.2680791  )
         9           O1  tau(   9) = (   3.2872377   5.9372537  11.3619719  )
        10           O1  tau(  10) = (   0.0116148   5.9584955  10.6183126  )
        11           O1  tau(  11) = (   1.2678424   1.4880610  12.6451974  )
        12           O1  tau(  12) = (   5.2928823   1.5036634  12.6399001  )
        13           Ti1 tau(  13) = (   6.5521701   2.9315368  12.5404127  )
        14           Ti1 tau(  14) = (   3.2895327   1.2997526  12.7137971  )
        15           O1  tau(  15) = (   6.5477037   0.0845492  14.6505624  )
        16           O1  tau(  16) = (   3.2827468   0.0880329  14.0175491  )
        17           O1  tau(  17) = (   4.5427558   1.5765460  16.1196870  )
        18           O1  tau(  18) = (   1.9971221   1.5491956  16.2097298  )
        19           Ti1 tau(  19) = (   3.2670693   3.0250103  15.6873951  )
        20           Ti1 tau(  20) = (   6.4806419   1.4532933  16.0069425  )
        21           O1  tau(  21) = (   3.2904802   0.0005063   4.7018136  )
        22           O1  tau(  22) = (   6.5100566   5.8635464  17.1664964  )
        23           O1  tau(  23) = (   1.3043587   1.4918075   6.0039043  )
        24           O1  tau(  24) = (   5.2767064   1.4903225   6.0039473  )
        25           Ti1 tau(  25) = (   0.0000382   5.9609847   6.0000000  )
        26           Ti1 tau(  26) = (   3.2902200   4.4714249   6.0002472  )
        27           O1  tau(  27) = (   0.0002396   2.9813036   7.9858123  )
        28           O1  tau(  28) = (   3.2902150   2.9813002   7.3038282  )
        29           O1  tau(  29) = (   4.5938453   4.4726049   9.2879030  )
        30           O1  tau(  30) = (   1.9864658   4.4711199   9.2879459  )
        31           Ti1 tau(  31) = (   3.2891106   5.8743827   9.1763621  )
        32           Ti1 tau(  32) = (   0.0006254   4.4649316   9.2693709  )
        33           O1  tau(  33) = (   3.2826969   3.0075535  11.3127327  )
        34           O1  tau(  34) = (   0.0092240   2.9805883  10.6323155  )
        35           O1  tau(  35) = (   1.2713698   4.4757098  12.6731835  )
        36           O1  tau(  36) = (   5.2977781   4.4601507  12.6712348  )
        37           Ti1 tau(  37) = (   0.0330522   5.9225719  12.5042524  )
        38           Ti1 tau(  38) = (   3.2990360   4.3766664  12.4405836  )
        39           O1  tau(  39) = (   0.0150134   2.9421642  14.8567636  )
        40           O1  tau(  40) = (   3.2596324   2.9836344  13.9148061  )
        41           O1  tau(  41) = (   4.5490916   4.3969069  16.0525170  )
        42           O1  tau(  42) = (   1.9960638   4.4622821  16.0939853  )
        43           Ti1 tau(  43) = (   3.1777156   0.0378257  16.2738330  )
        44           Ti1 tau(  44) = (   6.5243348   4.6462111  15.7996153  )
        45           O1  tau(  45) = (   3.2900926   2.9813045   4.7018136  )
        46           O1  tau(  46) = (   1.3039711   4.4726057   6.0039043  )
        47           O1  tau(  47) = (   5.2763189   4.4711207   6.0039473  )
        48           N1  tau(  48) = (   6.4646383   2.7559932  17.9272311  )
        49           C1  tau(  49) = (   0.7552072   2.7164238  18.8502713  )
        50           H1  tau(  50) = (   0.5916026   3.1878006  19.8266510  )
        51           H1  tau(  51) = (   1.6887153   2.1901376  18.6919226  )
        52           H1  tau(  52) = (   5.6107037   3.2511282  18.1874541  )
        53           O1  tau(  53) = (   3.4589997   5.9358250  18.1144358  )
        54           H1  tau(  54) = (   4.3999295   5.9567086  18.3589960  )

     number of k points=    10  Fermi-Dirac smearing, width (Ry)=  0.0073
                       cart. coord. in units 2pi/alat
        k(    1) = (   0.0000000   0.0000000   0.0000000), wk =   0.1250000
        k(    2) = (   0.0000000   0.0419351   0.0000000), wk =   0.2500000
        k(    3) = (   0.0000000  -0.0838702   0.0000000), wk =   0.1250000
        k(    4) = (   0.0379955   0.0000049   0.0000000), wk =   0.2500000
        k(    5) = (   0.0379955   0.0419400   0.0000000), wk =   0.2500000
        k(    6) = (   0.0379955  -0.0838652   0.0000000), wk =   0.2500000
        k(    7) = (   0.0379955  -0.0419301   0.0000000), wk =   0.2500000
        k(    8) = (  -0.0759910  -0.0000099   0.0000000), wk =   0.1250000
        k(    9) = (  -0.0759910   0.0419252   0.0000000), wk =   0.2500000
        k(   10) = (  -0.0759910  -0.0838800   0.0000000), wk =   0.1250000

     Initial potential from superposition of free atoms

     starting charge  380.99916, renormalised to  397.00000

     negative rho (up, down):  1.654E-02 0.000E+00

     %%%%%%%%%%%%%%%%%%%%%%%%%%%%%%%%%%%%%%%%%%%%%%%%%%%%%%%%%%%%%%%%%%%%%%%%
     %                                                                      %
     % You are using vdW-DF, which was implemented by the Thonhauser group. %
     % Please cite the following two papers that made this development      %
     % possible and the two reviews that describe the various versions:     %
     %                                                                      %
     %   T. Thonhauser et al., PRL 115, 136402 (2015).                      %
     %   T. Thonhauser et al., PRB 76, 125112 (2007).                       %
     %   K. Berland et al., Rep. Prog. Phys. 78, 066501 (2015).             %
     %   D.C. Langreth et al., J. Phys.: Condens. Matter 21, 084203 (2009). %
     %                                                                      %
     %                                                                      %
     % If you are calculating the stress with vdW-DF, please also cite:     %
     %                                                                      %
     %   R. Sabatini et al., J. Phys.: Condens. Matter 24, 424209 (2012).   %
     %                                                                      %
     %%%%%%%%%%%%%%%%%%%%%%%%%%%%%%%%%%%%%%%%%%%%%%%%%%%%%%%%%%%%%%%%%%%%%%%%

     Adding external electric field

     Computed dipole along edir(3) :
        Dipole               -9.2967 Ry au,        -23.6297 Debye
        Dipole field         -0.0175 Ry au,

        Potential amp.        1.6263 Ry
        Total length         46.3494 bohr

     Starting wfcs are  300 atomic wfcs
  @ DRIVER MODE: Message from server: STATUS
  @ DRIVER MODE: Message from server: POSDATA
  @ DRIVER MODE: Reading and sharing cell
  @ DRIVER MODE: Reading and sharing positions
  @ DRIVER MODE: Received positions

     Self-consistent Calculation

     iteration #  1     ecut=    29.40 Ry     beta= 0.05
     Davidson diagonalization with overlap
     c_bands:  1 eigenvalues not converged
     c_bands:  1 eigenvalues not converged
     c_bands:  2 eigenvalues not converged
     c_bands:  1 eigenvalues not converged
     c_bands:  1 eigenvalues not converged
     c_bands:  2 eigenvalues not converged
     c_bands:  1 eigenvalues not converged
     c_bands:  1 eigenvalues not converged
     c_bands:  3 eigenvalues not converged
     ethr =  1.00E-05,  avg # of iterations = 19.6

[...]

     total energy              =   -2534.82979290 Ry
     estimated scf accuracy    <    4638.87457769 Ry

     iteration #  2     ecut=    29.40 Ry     beta= 0.05
     Davidson diagonalization with overlap
     ethr =  1.00E-02,  avg # of iterations = 24.6

[...]

     iteration # 72     ecut=    29.40 Ry     beta= 0.05
     Davidson diagonalization with overlap
     c_bands:  1 eigenvalues not converged
     ethr =  5.75E-11,  avg # of iterations = 17.2

[...]

     total energy              =   -2952.74675893 Ry
     estimated scf accuracy    <       0.00000009 Ry

     iteration # 75     ecut=    29.40 Ry     beta= 0.05
     Davidson diagonalization with overlap
     ethr =  2.22E-11,  avg # of iterations =  9.1

     negative rho (up, down):  1.671E-02 0.000E+00

     Adding external electric field

     Computed dipole along edir(3) :
        Dipole                1.0881 Ry au,          2.7657 Debye
        Dipole field          0.0021 Ry au,

        Potential amp.       -0.1904 Ry
        Total length         46.3494 bohr

     End of self-consistent calculation

          k = 0.0000 0.0000 0.0000 ( 18029 PWs)   bands (ev):

   -55.6618 -55.6361 -55.6020 -55.4660 -55.4576 -55.4364 -55.4309 -55.4241
   -55.4106 -55.3962 -55.3470 -55.2402 -55.2284 -55.1729 -54.6018 -54.5678
   -32.1197 -31.9903 -31.9611 -31.9551 -31.9545 -31.9309 -31.9272 -31.8813
   -31.8799 -31.8678 -31.8342 -31.7884 -31.7531 -31.7417 -31.7325 -31.7312
   -31.7128 -31.6935 -31.6789 -31.6677 -31.6614 -31.6530 -31.6336 -31.6216
   -31.6171 -31.6074 -31.6006 -31.5876 -31.5863 -31.5807 -31.5726 -31.5676
   -31.5634 -31.5431 -31.5191 -31.5026 -31.4411 -31.4282 -31.4155 -31.3855
   -31.3830 -31.3785 -31.0073 -30.9222 -30.8997 -30.8250 -30.7387 -30.6268
   -16.7953 -16.4427 -16.2541 -16.0818 -15.8684 -15.7933 -15.7565 -15.5581
   -15.4724 -15.4065 -15.1795 -15.1683 -15.1629 -15.1358 -15.1099 -15.1024
   -15.0905 -15.0537 -15.0513 -15.0298 -15.0046 -14.9704 -14.9620 -14.9152
   -14.8669 -14.8524 -14.7667 -14.6944 -14.6484 -14.4477 -14.3279 -13.1001
   -12.9839  -9.3276  -6.3541  -4.7820  -3.9592  -3.6223  -3.5356  -3.5026
    -3.4315  -3.3768  -3.1418  -3.0070  -2.9615  -2.8754  -2.7664  -2.7407
    -2.6873  -2.6192  -2.5498  -2.5278  -2.4866  -2.4314  -2.4067  -2.3786
    -2.3684  -2.3387  -2.2835  -2.2279  -2.1595  -2.1357  -2.0802  -2.0022
    -1.9520  -1.9494  -1.9393  -1.9186  -1.8949  -1.8721  -1.8502  -1.8383
    -1.7363  -1.6842  -1.6637  -1.6097  -1.5616  -1.3023  -1.2305  -1.2190
    -1.1502  -1.1042  -1.0689  -1.0501  -1.0205  -0.9782  -0.9271  -0.8927
    -0.8114  -0.7572  -0.6993  -0.6836  -0.6373  -0.5658  -0.4786  -0.4230
    -0.4041  -0.3462  -0.3370  -0.3136  -0.1900  -0.1527  -0.1448  -0.0884
    -0.0620   0.0417   0.0863   0.1237   0.1559   0.2435   0.2672   0.3092
     0.3113   0.3459   0.3504   0.4409   0.4493   0.4768   0.5387   0.5644
     0.6430   0.7141   0.7213   0.8724   0.9217   1.0115   1.0488   1.1361
     1.3754   1.4248   1.4814   1.6186   1.9911   2.0361   3.4572   3.6023
     3.6198   3.7075   3.7166   3.8214   3.9329   3.9871   4.0286   4.1323

[...]

          k = 0.0380-0.0419 0.0000 ( 17876 PWs)   bands (ev):

[...]

          k =-0.0760-0.0000 0.0000 ( 17886 PWs)   bands (ev):

[...]

          k =-0.0760-0.0839 0.0000 ( 17948 PWs)   bands (ev):

   -55.6610 -55.6192 -55.6187 -55.4499 -55.4470 -55.4410 -55.4403 -55.4347
   -55.4113 -55.3896 -55.3537 -55.2360 -55.2298 -55.1770 -54.5852 -54.5843
   -31.9352 -31.9349 -31.9257 -31.9173 -31.9129 -31.9125 -31.8775 -31.8689
   -31.8050 -31.7739 -31.7725 -31.7631 -31.7580 -31.7390 -31.7384 -31.7326
   -31.7184 -31.7117 -31.6995 -31.6789 -31.6668 -31.6582 -31.6516 -31.6431
   -31.6425 -31.6406 -31.6327 -31.6208 -31.6136 -31.6095 -31.6071 -31.6069
   -31.5986 -31.5764 -31.5741 -31.5197 -31.5032 -31.4634 -31.4445 -31.4318
   -31.4242 -31.3827 -30.9127 -30.9121 -30.8209 -30.8197 -30.7823 -30.7816
   -16.7782 -16.4218 -15.8237 -15.7136 -15.5900 -15.5811 -15.4690 -15.3959
   -15.3644 -15.3337 -15.3167 -15.3079 -15.2820 -15.2456 -15.1942 -15.1761
   -15.1415 -15.1226 -15.1110 -15.0691 -15.0545 -15.0454 -15.0257 -14.9813
   -14.9680 -14.9373 -14.9244 -14.7983 -14.7406 -14.6414 -14.5643 -13.0860
   -13.0855  -9.3327  -6.3497  -4.7679  -3.9412  -3.0255  -2.9299  -2.7984
    -2.7049  -2.6816  -2.6365  -2.6192  -2.5831  -2.5401  -2.5221  -2.4723
    -2.4310  -2.4110  -2.4015  -2.3722  -2.3669  -2.3588  -2.3257  -2.3074
    -2.2972  -2.2857  -2.2619  -2.2503  -2.2341  -2.2100  -2.1962  -2.1691
    -2.1504  -2.1061  -1.9957  -1.9472  -1.9151  -1.7827  -1.7682  -1.7487
    -1.7338  -1.7160  -1.6963  -1.6796  -1.6128  -1.5949  -1.5680  -1.3934
    -1.3750  -1.2839  -1.2489  -1.2042  -1.1404  -1.1266  -1.0755  -1.0482
    -0.9974  -0.9713  -0.8794  -0.8230  -0.7909  -0.7560  -0.6323  -0.5798
    -0.5733  -0.5642  -0.5347  -0.5143  -0.4707  -0.4496  -0.4199  -0.3544
    -0.3235  -0.3064  -0.2631  -0.2522  -0.1271  -0.0096   0.0733   0.1179
     0.1805   0.1993   0.2392   0.3409   0.4195   0.4993   0.5448   0.5633
     0.5938   0.6862   0.7016   0.8396   0.8723   0.8747   0.9147   0.9462
     0.9755   1.0182   1.7880   1.7961   1.8563   1.8566   3.7058   3.8336
     3.9635   3.9840   3.9959   4.0290   4.0321   4.0567   4.1065   4.1403

     the Fermi energy is     3.4887 ev

!    total energy              =   -2952.74677133 Ry
     estimated scf accuracy    <       0.00000002 Ry
     smearing contrib. (-TS)   =      -0.02004907 Ry
     internal energy E=F+TS    =   -2952.72672226 Ry

     The total energy is F=E-TS. E is the sum of the following terms:
     one-electron contribution =  -23993.56725663 Ry
     hartree contribution      =   12088.29065828 Ry
     xc contribution           =    -488.03545189 Ry
     ewald contribution        =    9440.58309357 Ry
     electric field correction =       0.00223441 Ry

     convergence has been achieved in  75 iterations

     Forces acting on atoms (cartesian axes, Ry/au):

     atom    1 type  1   force =     0.00015619   -0.00026962    0.09474857
     atom    2 type  1   force =    -0.00000323    0.00039762   -0.17491379
     atom    3 type  2   force =    -0.00001214   -0.00013409   -0.02196250
     atom    4 type  2   force =     0.00006396   -0.00191860    0.05343066
     atom    5 type  2   force =    -0.00734753   -0.00240194    0.00311810
     atom    6 type  2   force =     0.00861416   -0.00197891    0.00183318
     atom    7 type  1   force =    -0.00058583   -0.00348503    0.00953094
     atom    8 type  1   force =     0.00060621    0.00468320    0.00857743
     atom    9 type  2   force =     0.00009353    0.00017696   -0.00011190
     atom   10 type  2   force =    -0.00268495   -0.00031052   -0.01294601
     atom   11 type  2   force =    -0.00037885   -0.00035652   -0.00007013
     atom   12 type  2   force =     0.00015814   -0.00018163    0.00034615
     atom   13 type  1   force =     0.00040457    0.00022355   -0.00089871
     atom   14 type  1   force =    -0.00014874    0.00008122   -0.00016800
     atom   15 type  2   force =     0.00024215   -0.00033742   -0.00022205
     atom   16 type  2   force =     0.00039571    0.00007334    0.00008061
     atom   17 type  2   force =    -0.00007987    0.00001283    0.00043511
     atom   18 type  2   force =    -0.00009323   -0.00084459   -0.00019909
     atom   19 type  1   force =     0.00030574    0.00039561   -0.00012183
     atom   20 type  1   force =    -0.00007300   -0.00023580   -0.00075491
     atom   21 type  2   force =     0.00010096    0.00008031    0.10310741
     atom   22 type  2   force =     0.00007144   -0.00039113    0.00026085
     atom   23 type  2   force =    -0.07212925   -0.00013859   -0.02736866
     atom   24 type  2   force =     0.07208427    0.00027351   -0.02739282
     atom   25 type  1   force =     0.00003513   -0.00009886    0.09451253
     atom   26 type  1   force =    -0.00007472   -0.00131933   -0.17508594
     atom   27 type  2   force =     0.00014912   -0.00019949   -0.02072661
     atom   28 type  2   force =     0.00002367   -0.00018795    0.04902273
     atom   29 type  2   force =    -0.00617046    0.00259124    0.00156268
     atom   30 type  2   force =     0.00739372    0.00321393    0.00012268
     atom   31 type  1   force =    -0.00055122    0.00715715   -0.00096853
     atom   32 type  1   force =     0.00055454   -0.00650599    0.00782859
     atom   33 type  2   force =     0.00025575   -0.00025904   -0.00028500
     atom   34 type  2   force =    -0.00212696    0.00146651   -0.01174445
     atom   35 type  2   force =    -0.00007886   -0.00001080    0.00022276
     atom   36 type  2   force =    -0.00023558    0.00010380    0.00034515
     atom   37 type  1   force =     0.00053221   -0.00011479   -0.00045807
     atom   38 type  1   force =    -0.00019375   -0.00012775    0.00021503
     atom   39 type  2   force =     0.00012853    0.00034212   -0.00015636
     atom   40 type  2   force =    -0.00015257    0.00029096   -0.00032784
     atom   41 type  2   force =     0.00030900    0.00037552   -0.00009611
     atom   42 type  2   force =    -0.00031846    0.00033641    0.00037191
     atom   43 type  1   force =    -0.00002972   -0.00089411   -0.00072030
     atom   44 type  1   force =     0.00014330    0.00085370   -0.00023036
     atom   45 type  2   force =     0.00010089   -0.00008900    0.10292408
     atom   46 type  2   force =    -0.07214940   -0.00005351   -0.02739433
     atom   47 type  2   force =     0.07215176    0.00039757   -0.02742427
     atom   48 type  3   force =    -0.00948503   -0.00030749   -0.01312090
     atom   49 type  4   force =     0.00689527    0.00468817    0.02477728
     atom   50 type  5   force =     0.00143371   -0.00380747   -0.00902404
     atom   51 type  5   force =     0.00182290   -0.00100348   -0.00293590
     atom   52 type  5   force =     0.00025774   -0.00026885   -0.00007447
     atom   53 type  2   force =    -0.00000008    0.00007669    0.00182849
     atom   54 type  5   force =    -0.00038082   -0.00005966   -0.00129908

     Total force =     0.363842     Total SCF correction =     0.000330
  @ DRIVER MODE: Message from server: STATUS
  @ DRIVER MODE: Message from server: GETFORCE
  @ DRIVER MODE: Returning v,forces,stress,ensemble

     Writing output data file ./calc.save/
  @ DRIVER MODE: Message from server: EXIT
  @ DRIVE MODE: Exiting

     General routines

     Parallel routines

   This run was terminated on:   2:52: 7  23Sep2021

   JOB DONE.