     Program PWSCF v.6.7GPU starts on 16Sep2021 at  0: 3:39

     R & G space division:  proc/nbgrp/npool/nimage =      10
     Reading input from /storage/home/hcoda1/3/ntian30/research/carbon/CxH_vib/H2O_calc/ads_slab/CHNH2O_a/out_0026/pw.inp
Warning: card &CELL ignored
Warning: card   CELL_DYNAMICS='IPI', ignored
Warning: card / ignored

     Current dimensions of program PWSCF are:
     Max number of different atomic species (ntypx) = 10
     Max number of k-points (npk) =  40000
     Max angular momentum in pseudopotentials (lmaxx) =  3
     Presently no symmetry can be used with electric field

     Message from routine cell_base_init:
     DEPRECATED: use true lattice parameter, not A to a.u. conversion factor

     IMPORTANT: XC functional enforced from input :
     Exchange-correlation= BEEF-VDW
                           (   1   4  43  14   2   0   0)
     Any further DFT definition will be discarded
     Please, verify this is what you really want

  @ DRIVER MODE: Connecting to
 qe_1139763_2852627.sched-torque.pace.gatech.edulaxcxake_scratch
  using UNIX socket
  @ DRIVER MODE: Message from server: STATUS
  @ DRIVER MODE: Message from server: INIT
  @ DRIVER MODE: Receiving replica           0          -1
  @ DRIVER MODE: Receiving encoded integer          25
  @ DRIVER MODE:  SCF:  T  FORCE:  T  STRESS:  F  VC:  F  ENSEMBLE:  F
  @ DRIVER MODE:  SCF:  T  FORCE:  T  STRESS:  F  VC:  F  ENSEMBLE:  F

     Using Slab Decomposition

     bravais-lattice index     =            0
     lattice parameter (alat)  =       1.8897  a.u.
     unit-cell volume          =    6658.9804 (a.u.)^3
     number of atoms/cell      =           53
     number of atomic types    =            5
     number of electrons       =       396.00
     number of Kohn-Sham states=          208
     kinetic-energy cutoff     =      29.3995  Ry
     charge density cutoff     =     293.9946  Ry
     scf convergence threshold =      7.3E-08
     mixing beta               =       0.0500
     number of iterations used =            8  plain     mixing
     Exchange-correlation= BEEF-VDW
                           (   1   4  43  14   2   0   0)

     celldm(1)=   1.889726  celldm(2)=   0.000000  celldm(3)=   0.000000
     celldm(4)=   0.000000  celldm(5)=   0.000000  celldm(6)=   0.000000

     crystal axes: (cart. coord. in units of alat)
               a(1) = (   6.579727   0.000000   0.000000 )
               a(2) = (  -0.000775   5.961596   0.000000 )
               a(3) = (   0.000000   0.000000  25.155947 )

     reciprocal axes: (cart. coord. in units 2 pi/alat)
               b(1) = (  0.151982  0.000020  0.000000 )
               b(2) = (  0.000000  0.167740  0.000000 )
               b(3) = (  0.000000  0.000000  0.039752 )

     PseudoPot. # 1 for Ti read from file:
     /storage/coda1/p-amedford6/0/shared/rich_project_chbe-medford/medford-share/data/pseudos_module/espresso/nninc/pbe/van/Ti.UPF
     MD5 check sum: 8e4df49b7f0d34bbd5052bf3f5ea0213
     Pseudo is Ultrasoft, Zval = 12.0
     Generated by new atomic code, or converted to UPF format
     Using radial grid of  851 points,  6 beta functions with:
                l(1) =   0
                l(2) =   0
                l(3) =   1
                l(4) =   1
                l(5) =   2
                l(6) =   2
     Q(r) pseudized with  8 coefficients,  rinner =    1.000   1.000   1.000
                                                       1.000   1.000

     PseudoPot. # 2 for O  read from file:
     /storage/coda1/p-amedford6/0/shared/rich_project_chbe-medford/medford-share/data/pseudos_module/espresso/nninc/pbe/van/O.UPF
     MD5 check sum: 78c19812648e8988a0fe644b0f25305e
     Pseudo is Ultrasoft, Zval =  6.0
     Generated by new atomic code, or converted to UPF format
     Using radial grid of  737 points,  4 beta functions with:
                l(1) =   0
                l(2) =   0
                l(3) =   1
                l(4) =   1
     Q(r) pseudized with  8 coefficients,  rinner =    0.800   0.800   0.800

     PseudoPot. # 3 for N  read from file:
     /storage/coda1/p-amedford6/0/shared/rich_project_chbe-medford/medford-share/data/pseudos_module/espresso/nninc/pbe/van/N.UPF
     MD5 check sum: 90d10febe142ad51ac9d5be1deb811c4
     Pseudo is Ultrasoft, Zval =  5.0
     Generated by new atomic code, or converted to UPF format
     Using radial grid of  729 points,  4 beta functions with:
                l(1) =   0
                l(2) =   0
                l(3) =   1
                l(4) =   1
     Q(r) pseudized with  8 coefficients,  rinner =    0.800   0.800   0.800

     PseudoPot. # 4 for C  read from file:
     /storage/coda1/p-amedford6/0/shared/rich_project_chbe-medford/medford-share/data/pseudos_module/espresso/nninc/pbe/van/C.UPF
     MD5 check sum: 1a69bf6b8db32088f5b2163dbdb77a27
     Pseudo is Ultrasoft, Zval =  4.0
     Generated by new atomic code, or converted to UPF format
     Using radial grid of  721 points,  4 beta functions with:
                l(1) =   0
                l(2) =   0
                l(3) =   1
                l(4) =   1
     Q(r) pseudized with  8 coefficients,  rinner =    0.800   0.800   0.800

     PseudoPot. # 5 for H  read from file:
     /storage/coda1/p-amedford6/0/shared/rich_project_chbe-medford/medford-share/data/pseudos_module/espresso/nninc/pbe/van/H.UPF
     MD5 check sum: b5ee9d7bfd3a09ee7748110bda690ff7
     Pseudo is Ultrasoft, Zval =  1.0
     Generated by new atomic code, or converted to UPF format
     Using radial grid of  615 points,  1 beta functions with:
                l(1) =   0
     Q(r) pseudized with  8 coefficients,  rinner =    0.800

     atomic species   valence    mass     pseudopotential
        Ti1           12.00    47.86700     Ti( 1.00)
        O1             6.00    15.99900     O ( 1.00)
        N1             5.00    14.00700     N ( 1.00)
        C1             4.00    12.01100     C ( 1.00)
        H1             1.00     1.00800     H ( 1.00)

     No symmetry found

   Cartesian axes

     site n.     atom                  positions (alat units)
         1           Ti1 tau(   1) = (   0.0004258   2.9801865   6.0000000  )
         2           Ti1 tau(   2) = (   3.2906075   1.4906267   6.0002472  )
         3           O1  tau(   3) = (   0.0006271   0.0005054   7.9858123  )
         4           O1  tau(   4) = (   3.2906025   0.0005020   7.3038282  )
         5           O1  tau(   5) = (   4.5942328   1.4918067   9.2879030  )
         6           O1  tau(   6) = (   1.9868534   1.4903216   9.2879459  )
         7           Ti1 tau(   7) = (   3.2907910   2.8959150   9.1758416  )
         8           Ti1 tau(   8) = (   0.0015273   1.4827037   9.2680791  )
         9           O1  tau(   9) = (   3.3001320   0.0223556  11.3750156  )
        10           O1  tau(  10) = (   0.0116148   5.9584955  10.6183126  )
        11           O1  tau(  11) = (   1.2984793   1.5070296  12.6822906  )
        12           O1  tau(  12) = (   5.3053048   1.5066133  12.6782214  )
        13           Ti1 tau(  13) = (   0.0240538   2.9928608  12.5236668  )
        14           Ti1 tau(  14) = (   3.3205759   1.5163330  12.5292614  )
        15           O1  tau(  15) = (   0.0116174   5.9170763  14.6754219  )
        16           O1  tau(  16) = (   3.3074613   5.9602333  14.0123823  )
        17           O1  tau(  17) = (   4.5729729   1.5428591  16.1031931  )
        18           O1  tau(  18) = (   2.0357456   1.5455963  16.0959954  )
        19           Ti1 tau(  19) = (   3.3038618   3.0179751  15.7376193  )
        20           Ti1 tau(  20) = (   0.0182819   1.3639466  15.8252938  )
        21           O1  tau(  21) = (   3.2904802   0.0005063   4.7018136  )
        22           O1  tau(  22) = (   0.0233993   0.1148627  17.2261141  )
        23           O1  tau(  23) = (   1.3043587   1.4918075   6.0039043  )
        24           O1  tau(  24) = (   5.2767064   1.4903225   6.0039473  )
        25           Ti1 tau(  25) = (   0.0000382   5.9609847   6.0000000  )
        26           Ti1 tau(  26) = (   3.2902200   4.4714249   6.0002472  )
        27           O1  tau(  27) = (   0.0002396   2.9813036   7.9858123  )
        28           O1  tau(  28) = (   3.2902150   2.9813002   7.3038282  )
        29           O1  tau(  29) = (   4.5938453   4.4726049   9.2879030  )
        30           O1  tau(  30) = (   1.9864658   4.4711199   9.2879459  )
        31           Ti1 tau(  31) = (   3.2891106   5.8743827   9.1763621  )
        32           Ti1 tau(  32) = (   0.0006254   4.4649316   9.2693709  )
        33           O1  tau(  33) = (   3.3008157   2.9919736  11.3713264  )
        34           O1  tau(  34) = (   0.0092240   2.9805883  10.6323155  )
        35           O1  tau(  35) = (   1.3007438   4.4795902  12.6508594  )
        36           O1  tau(  36) = (   5.3032704   4.4808111  12.6474791  )
        37           Ti1 tau(  37) = (   0.0257871   0.0021926  12.5000826  )
        38           Ti1 tau(  38) = (   3.3207303   4.5031034  12.5344522  )
        39           O1  tau(  39) = (   0.0087802   3.0322157  14.9253570  )
        40           O1  tau(  40) = (   3.3068524   3.0154938  13.9499554  )
        41           O1  tau(  41) = (   4.5633958   4.4699756  16.2119971  )
        42           O1  tau(  42) = (   2.0378630   4.4655417  16.1963084  )
        43           Ti1 tau(  43) = (   3.3121544   0.0541299  15.8353365  )
        44           Ti1 tau(  44) = (   0.0163097   4.5868159  16.0488687  )
        45           O1  tau(  45) = (   3.2900926   2.9813045   4.7018136  )
        46           O1  tau(  46) = (   1.3039711   4.4726057   6.0039043  )
        47           O1  tau(  47) = (   5.2763189   4.4711207   6.0039473  )
        48           N1  tau(  48) = (   0.0062226   3.2377968  17.9635855  )
        49           C1  tau(  49) = (   6.5597590   2.5083335  18.8557918  )
        50           H1  tau(  50) = (   6.5336154   1.7992569  19.6484373  )
        51           O1  tau(  51) = (   3.2480284   5.9531242  18.4006015  )
        52           H1  tau(  52) = (   3.9895166   5.3132839  18.3896481  )
        53           H1  tau(  53) = (   2.4340588   5.4237150  18.3412978  )

     number of k points=    10  Fermi-Dirac smearing, width (Ry)=  0.0073
                       cart. coord. in units 2pi/alat
        k(    1) = (   0.0000000   0.0000000   0.0000000), wk =   0.1250000
        k(    2) = (   0.0000000   0.0419351   0.0000000), wk =   0.2500000
        k(    3) = (   0.0000000  -0.0838702   0.0000000), wk =   0.1250000
        k(    4) = (   0.0379955   0.0000049   0.0000000), wk =   0.2500000
        k(    5) = (   0.0379955   0.0419400   0.0000000), wk =   0.2500000
        k(    6) = (   0.0379955  -0.0838652   0.0000000), wk =   0.2500000
        k(    7) = (   0.0379955  -0.0419301   0.0000000), wk =   0.2500000
        k(    8) = (  -0.0759910  -0.0000099   0.0000000), wk =   0.1250000
        k(    9) = (  -0.0759910   0.0419252   0.0000000), wk =   0.2500000
        k(   10) = (  -0.0759910  -0.0838800   0.0000000), wk =   0.1250000

     Initial potential from superposition of free atoms

     starting charge  379.99917, renormalised to  396.00000

     negative rho (up, down):  1.670E-02 0.000E+00

     %%%%%%%%%%%%%%%%%%%%%%%%%%%%%%%%%%%%%%%%%%%%%%%%%%%%%%%%%%%%%%%%%%%%%%%%
     %                                                                      %
     % You are using vdW-DF, which was implemented by the Thonhauser group. %
     % Please cite the following two papers that made this development      %
     % possible and the two reviews that describe the various versions:     %
     %                                                                      %
     %   T. Thonhauser et al., PRL 115, 136402 (2015).                      %
     %   T. Thonhauser et al., PRB 76, 125112 (2007).                       %
     %   K. Berland et al., Rep. Prog. Phys. 78, 066501 (2015).             %
     %   D.C. Langreth et al., J. Phys.: Condens. Matter 21, 084203 (2009). %
     %                                                                      %
     %                                                                      %
     % If you are calculating the stress with vdW-DF, please also cite:     %
     %                                                                      %
     %   R. Sabatini et al., J. Phys.: Condens. Matter 24, 424209 (2012).   %
     %                                                                      %
     %%%%%%%%%%%%%%%%%%%%%%%%%%%%%%%%%%%%%%%%%%%%%%%%%%%%%%%%%%%%%%%%%%%%%%%%

     Adding external electric field

     Computed dipole along edir(3) :
        Dipole               -9.4938 Ry au,        -24.1308 Debye
        Dipole field         -0.0179 Ry au,

        Potential amp.        1.6608 Ry
        Total length         46.3494 bohr

     Starting wfcs are  299 atomic wfcs
  @ DRIVER MODE: Message from server: STATUS
  @ DRIVER MODE: Message from server: POSDATA
  @ DRIVER MODE: Reading and sharing cell
  @ DRIVER MODE: Reading and sharing positions
  @ DRIVER MODE: Received positions

     Self-consistent Calculation

     iteration #  1     ecut=    29.40 Ry     beta= 0.05
     Davidson diagonalization with overlap
     c_bands:  1 eigenvalues not converged
     c_bands:  1 eigenvalues not converged
     c_bands:  2 eigenvalues not converged
     c_bands:  3 eigenvalues not converged
     c_bands:  3 eigenvalues not converged
     c_bands:  2 eigenvalues not converged
     c_bands:  3 eigenvalues not converged
     c_bands:  1 eigenvalues not converged
     c_bands:  2 eigenvalues not converged
     c_bands:  2 eigenvalues not converged
     ethr =  1.00E-05,  avg # of iterations = 20.0

[...]

     total energy              =   -2563.43001007 Ry
     estimated scf accuracy    <    4341.71925404 Ry

     iteration #  2     ecut=    29.40 Ry     beta= 0.05
     Davidson diagonalization with overlap
     ethr =  1.00E-02,  avg # of iterations = 24.4

[...]

     iteration # 75     ecut=    29.40 Ry     beta= 0.05
     Davidson diagonalization with overlap
     c_bands:  2 eigenvalues not converged
     ethr =  1.89E-11,  avg # of iterations = 15.8

[...]

     total energy              =   -2951.44733095 Ry
     estimated scf accuracy    <       0.00000009 Ry

     iteration # 77     ecut=    29.40 Ry     beta= 0.05
     Davidson diagonalization with overlap
     ethr =  1.89E-11,  avg # of iterations = 10.7

     negative rho (up, down):  1.629E-02 0.000E+00

     Adding external electric field

     Computed dipole along edir(3) :
        Dipole                1.4821 Ry au,          3.7670 Debye
        Dipole field          0.0028 Ry au,

        Potential amp.       -0.2593 Ry
        Total length         46.3494 bohr

     End of self-consistent calculation

          k = 0.0000 0.0000 0.0000 ( 18029 PWs)   bands (ev):

   -55.3162 -55.2803 -55.2793 -55.2452 -55.2267 -55.1943 -55.1570 -55.1386
   -55.1189 -55.1078 -55.1040 -55.0935 -55.0743 -55.0077 -54.3039 -54.2699
   -31.8759 -31.7709 -31.7114 -31.6832 -31.6351 -31.6274 -31.6126 -31.6119
   -31.5684 -31.5334 -31.5270 -31.5238 -31.5013 -31.4880 -31.4640 -31.4611
   -31.4568 -31.4546 -31.4374 -31.4313 -31.4029 -31.3923 -31.3866 -31.3742
   -31.3680 -31.3393 -31.3382 -31.3364 -31.3252 -31.3236 -31.3225 -31.3050
   -31.2970 -31.2909 -31.2869 -31.2635 -31.2522 -31.2410 -31.2360 -31.2179
   -31.2169 -31.1252 -30.7132 -30.6193 -30.5972 -30.5294 -30.4427 -30.3319
   -18.8653 -17.3409 -16.1219 -15.8671 -15.7141 -15.6135 -15.5146 -15.3731
   -15.3189 -15.2092 -15.1436 -15.0030 -14.9661 -14.9481 -14.9301 -14.9278
   -14.8829 -14.8557 -14.8496 -14.8163 -14.8137 -14.7876 -14.7516 -14.7426
   -14.7122 -14.6965 -14.6499 -14.5416 -14.4723 -14.4092 -14.1136 -12.8063
   -12.6890  -8.9833  -6.6246  -4.6249  -3.4669  -3.4320  -3.3273  -3.2216
    -3.2142  -3.1882  -3.1702  -3.0608  -3.0110  -2.7662  -2.7191  -2.6609
    -2.5715  -2.4991  -2.4859  -2.4480  -2.3201  -2.2774  -2.2371  -2.1670
    -2.1510  -2.1245  -2.1003  -2.0914  -2.0311  -2.0254  -2.0013  -1.8845
    -1.8434  -1.7759  -1.7265  -1.7098  -1.6568  -1.6356  -1.6046  -1.6037
    -1.5985  -1.5532  -1.5516  -1.4944  -1.4859  -1.3805  -1.3397  -1.1513
    -1.0572  -0.9976  -0.9546  -0.8876  -0.8734  -0.7998  -0.7599  -0.7049
    -0.7025  -0.6456  -0.5252  -0.4347  -0.4095  -0.3843  -0.2985  -0.2623
    -0.1992  -0.1837  -0.0963  -0.0832  -0.0767  -0.0693   0.0598   0.1088
     0.1896   0.1953   0.2448   0.2651   0.3429   0.3578   0.4282   0.4664
     0.5222   0.5663   0.6226   0.6308   0.6560   0.6762   0.6928   0.7827
     0.7961   0.8235   0.8977   1.0345   1.2244   1.2955   1.3175   1.6264
     1.6474   1.7189   1.9038   2.2946   2.3427   3.7777   3.8566   3.9190
     3.9284   3.9407   4.0136   4.2603   4.2774   4.2783   4.2937   4.3207

[...]

          k = 0.0380-0.0419 0.0000 ( 17876 PWs)   bands (ev):

[...]

          k =-0.0760-0.0000 0.0000 ( 17886 PWs)   bands (ev):

[...]

          k =-0.0760-0.0839 0.0000 ( 17948 PWs)   bands (ev):

   -55.2997 -55.2965 -55.2623 -55.2620 -55.2244 -55.1829 -55.1684 -55.1234
   -55.1187 -55.1159 -55.0957 -55.0915 -55.0908 -55.0105 -54.2870 -54.2867
   -31.6847 -31.6768 -31.6338 -31.5861 -31.5859 -31.5715 -31.5635 -31.5539
   -31.5536 -31.5271 -31.5165 -31.5139 -31.5042 -31.4723 -31.4558 -31.4515
   -31.4472 -31.4447 -31.4429 -31.4366 -31.4317 -31.3988 -31.3962 -31.3958
   -31.3818 -31.3817 -31.3792 -31.3752 -31.3627 -31.3559 -31.3495 -31.3436
   -31.3367 -31.3321 -31.3205 -31.3188 -31.3126 -31.2794 -31.2713 -31.2708
   -31.2246 -31.2164 -30.6100 -30.6098 -30.5258 -30.5256 -30.4861 -30.4860
   -18.8643 -17.3360 -15.6581 -15.5532 -15.4434 -15.3235 -15.3154 -15.2587
   -15.2110 -15.1307 -15.0894 -15.0770 -15.0563 -15.0421 -15.0113 -15.0075
   -14.9869 -14.9126 -14.9019 -14.8916 -14.8684 -14.8269 -14.8162 -14.8135
   -14.7963 -14.7708 -14.7667 -14.6719 -14.6690 -14.5742 -14.4498 -12.7905
   -12.7904  -8.9812  -6.6176  -4.6117  -3.3337  -3.2522  -2.9083  -2.8199
    -2.7758  -2.6844  -2.5348  -2.5052  -2.4343  -2.4282  -2.3613  -2.3091
    -2.2948  -2.2754  -2.1925  -2.1758  -2.1649  -2.1529  -2.1400  -2.1114
    -2.0884  -2.0412  -2.0380  -2.0357  -2.0275  -2.0060  -1.9708  -1.9512
    -1.9117  -1.9027  -1.8816  -1.8330  -1.7923  -1.7725  -1.7578  -1.6523
    -1.6259  -1.5194  -1.5147  -1.4148  -1.4101  -1.3799  -1.3577  -1.3481
    -1.2795  -1.2132  -1.0609  -1.0515  -1.0189  -0.9393  -0.9294  -0.8721
    -0.8651  -0.7802  -0.7622  -0.7349  -0.6397  -0.6097  -0.5058  -0.4922
    -0.4840  -0.3455  -0.3431  -0.2869  -0.2753  -0.2722  -0.2038  -0.1982
    -0.1921  -0.1108  -0.0766  -0.0496  -0.0385   0.0150   0.2033   0.2304
     0.2603   0.3832   0.4308   0.5711   0.6646   0.6698   0.7403   0.8029
     0.8215   0.8819   0.9791   0.9924   1.0487   1.0790   1.1275   1.1424
     1.1526   2.0760   2.0771   2.1626   2.1626   3.8936   3.9931   4.0606
     4.1110   4.1243   4.2139   4.2987   4.3275   4.3599   4.3620   4.4382

     the Fermi energy is     3.8354 ev

!    total energy              =   -2951.44734468 Ry
     estimated scf accuracy    <       0.00000002 Ry
     smearing contrib. (-TS)   =      -0.03730566 Ry
     internal energy E=F+TS    =   -2951.41003902 Ry

     The total energy is F=E-TS. E is the sum of the following terms:
     one-electron contribution =  -24060.93372485 Ry
     hartree contribution      =   12123.53189996 Ry
     xc contribution           =    -487.22140878 Ry
     ewald contribution        =    9473.20904959 Ry
     electric field correction =       0.00414505 Ry

     convergence has been achieved in  77 iterations

     Forces acting on atoms (cartesian axes, Ry/au):

     atom    1 type  1   force =    -0.00003886   -0.00026152    0.09359570
     atom    2 type  1   force =    -0.00016298   -0.00044508   -0.17785127
     atom    3 type  2   force =     0.00002596   -0.00025729   -0.02077282
     atom    4 type  2   force =    -0.00003103   -0.00179938    0.05842707
     atom    5 type  2   force =    -0.01030077   -0.00058780    0.00698468
     atom    6 type  2   force =     0.01196570    0.00004674    0.00669729
     atom    7 type  1   force =    -0.00013144    0.00222064   -0.01162953
     atom    8 type  1   force =    -0.00006994    0.00226513   -0.00162094
     atom    9 type  2   force =     0.00007350    0.00061023    0.00060922
     atom   10 type  2   force =    -0.00107261    0.00321805   -0.00394118
     atom   11 type  2   force =     0.00037887   -0.00031196   -0.00029340
     atom   12 type  2   force =    -0.00041455   -0.00031570   -0.00016856
     atom   13 type  1   force =     0.00001025    0.00014765    0.00023487
     atom   14 type  1   force =    -0.00000334   -0.00047417    0.00043637
     atom   15 type  2   force =    -0.00025053   -0.00067378    0.00065907
     atom   16 type  2   force =    -0.00001702    0.00043705    0.00019648
     atom   17 type  2   force =     0.00006295   -0.00026501   -0.00025715
     atom   18 type  2   force =     0.00016675   -0.00029518   -0.00050698
     atom   19 type  1   force =    -0.00046973   -0.00119947   -0.00014213
     atom   20 type  1   force =     0.00014996    0.00005016   -0.00084566
     atom   21 type  2   force =    -0.00001258   -0.00011861    0.10389229
     atom   22 type  2   force =    -0.00008028    0.00050029   -0.00036981
     atom   23 type  2   force =    -0.07054519   -0.00021181   -0.02695277
     atom   24 type  2   force =     0.07033912    0.00022256   -0.02700558
     atom   25 type  1   force =    -0.00001273   -0.00027637    0.09312912
     atom   26 type  1   force =    -0.00018953   -0.00052542   -0.17812236
     atom   27 type  2   force =     0.00007063   -0.00021209   -0.01971411
     atom   28 type  2   force =     0.00001702   -0.00155463    0.05763329
     atom   29 type  2   force =    -0.01083927   -0.00007764    0.00741957
     atom   30 type  2   force =     0.01236588    0.00025993    0.00709914
     atom   31 type  1   force =    -0.00009422    0.00572625   -0.01416491
     atom   32 type  1   force =    -0.00008717   -0.00266788   -0.00140694
     atom   33 type  2   force =     0.00010933   -0.00051788    0.00033586
     atom   34 type  2   force =    -0.00048327   -0.00029459   -0.00098732
     atom   35 type  2   force =    -0.00032285   -0.00017541   -0.00031543
     atom   36 type  2   force =     0.00032506   -0.00029961   -0.00010801
     atom   37 type  1   force =     0.00011563   -0.00043209    0.00057819
     atom   38 type  1   force =    -0.00002852   -0.00059654   -0.00027498
     atom   39 type  2   force =     0.00000540    0.00014575    0.00019012
     atom   40 type  2   force =    -0.00007350   -0.00014067   -0.00004664
     atom   41 type  2   force =     0.00013362    0.00014354    0.00038811
     atom   42 type  2   force =     0.00015842    0.00021921    0.00034071
     atom   43 type  1   force =    -0.00049839    0.00060910   -0.00021856
     atom   44 type  1   force =     0.00039236    0.00035697   -0.00046649
     atom   45 type  2   force =    -0.00002136   -0.00014817    0.10386870
     atom   46 type  2   force =    -0.07053096   -0.00016153   -0.02694652
     atom   47 type  2   force =     0.07033424    0.00027215   -0.02700390
     atom   48 type  3   force =    -0.00004675   -0.00105101    0.00085759
     atom   49 type  4   force =    -0.00008862    0.00035093   -0.00034772
     atom   50 type  5   force =    -0.00006469   -0.00122319   -0.00017121
     atom   51 type  2   force =     0.01117117   -0.00655859   -0.00065288
     atom   52 type  5   force =    -0.01192069    0.00769120   -0.00031362
     atom   53 type  5   force =     0.00053154   -0.00136346    0.00004593

     Total force =     0.366355     Total SCF correction =     0.000321
  @ DRIVER MODE: Message from server: STATUS
  @ DRIVER MODE: Message from server: GETFORCE
  @ DRIVER MODE: Returning v,forces,stress,ensemble

     Writing output data file ./calc.save/
  @ DRIVER MODE: Message from server: EXIT
  @ DRIVE MODE: Exiting

     General routines

     Parallel routines

   This run was terminated on:   0:23:36  16Sep2021

   JOB DONE.