     Program PWSCF v.6.7GPU starts on 23Sep2021 at  8:36:20

     R & G space division:  proc/nbgrp/npool/nimage =       8
     Reading input from /storage/home/hcoda1/3/ntian30/research/carbon/CxH_vib/H2O_calc/ads_slab/CH3NHNHHO_a/out_0026/pw.inp
Warning: card &CELL ignored
Warning: card   CELL_DYNAMICS='IPI', ignored
Warning: card / ignored

     Current dimensions of program PWSCF are:
     Max number of different atomic species (ntypx) = 10
     Max number of k-points (npk) =  40000
     Max angular momentum in pseudopotentials (lmaxx) =  3
     Presently no symmetry can be used with electric field

     Message from routine cell_base_init:
     DEPRECATED: use true lattice parameter, not A to a.u. conversion factor

     IMPORTANT: XC functional enforced from input :
     Exchange-correlation= BEEF-VDW
                           (   1   4  43  14   2   0   0)
     Any further DFT definition will be discarded
     Please, verify this is what you really want

  @ DRIVER MODE: Connecting to
 qe_1139763_2941006.sched-torque.pace.gatech.educ4nqr2cy_scratch
  using UNIX socket
  @ DRIVER MODE: Message from server: STATUS
  @ DRIVER MODE: Message from server: INIT
  @ DRIVER MODE: Receiving replica           0          -1
  @ DRIVER MODE: Receiving encoded integer          25
  @ DRIVER MODE:  SCF:  T  FORCE:  T  STRESS:  F  VC:  F  ENSEMBLE:  F
  @ DRIVER MODE:  SCF:  T  FORCE:  T  STRESS:  F  VC:  F  ENSEMBLE:  F

     Using Slab Decomposition

     bravais-lattice index     =            0
     lattice parameter (alat)  =       1.8897  a.u.
     unit-cell volume          =    6658.9804 (a.u.)^3
     number of atoms/cell      =           57
     number of atomic types    =            5
     number of electrons       =       404.00
     number of Kohn-Sham states=          212
     kinetic-energy cutoff     =      29.3995  Ry
     charge density cutoff     =     293.9946  Ry
     scf convergence threshold =      7.3E-08
     mixing beta               =       0.0500
     number of iterations used =            8  plain     mixing
     Exchange-correlation= BEEF-VDW
                           (   1   4  43  14   2   0   0)

     celldm(1)=   1.889726  celldm(2)=   0.000000  celldm(3)=   0.000000
     celldm(4)=   0.000000  celldm(5)=   0.000000  celldm(6)=   0.000000

     crystal axes: (cart. coord. in units of alat)
               a(1) = (   6.579727   0.000000   0.000000 )
               a(2) = (  -0.000775   5.961596   0.000000 )
               a(3) = (   0.000000   0.000000  25.155947 )

     reciprocal axes: (cart. coord. in units 2 pi/alat)
               b(1) = (  0.151982  0.000020  0.000000 )
               b(2) = (  0.000000  0.167740  0.000000 )
               b(3) = (  0.000000  0.000000  0.039752 )

     PseudoPot. # 1 for Ti read from file:
     /storage/coda1/p-amedford6/0/shared/rich_project_chbe-medford/medford-share/data/pseudos_module/espresso/nninc/pbe/van/Ti.UPF
     MD5 check sum: 8e4df49b7f0d34bbd5052bf3f5ea0213
     Pseudo is Ultrasoft, Zval = 12.0
     Generated by new atomic code, or converted to UPF format
     Using radial grid of  851 points,  6 beta functions with:
                l(1) =   0
                l(2) =   0
                l(3) =   1
                l(4) =   1
                l(5) =   2
                l(6) =   2
     Q(r) pseudized with  8 coefficients,  rinner =    1.000   1.000   1.000
                                                       1.000   1.000

     PseudoPot. # 2 for O  read from file:
     /storage/coda1/p-amedford6/0/shared/rich_project_chbe-medford/medford-share/data/pseudos_module/espresso/nninc/pbe/van/O.UPF
     MD5 check sum: 78c19812648e8988a0fe644b0f25305e
     Pseudo is Ultrasoft, Zval =  6.0
     Generated by new atomic code, or converted to UPF format
     Using radial grid of  737 points,  4 beta functions with:
                l(1) =   0
                l(2) =   0
                l(3) =   1
                l(4) =   1
     Q(r) pseudized with  8 coefficients,  rinner =    0.800   0.800   0.800

     PseudoPot. # 3 for N  read from file:
     /storage/coda1/p-amedford6/0/shared/rich_project_chbe-medford/medford-share/data/pseudos_module/espresso/nninc/pbe/van/N.UPF
     MD5 check sum: 90d10febe142ad51ac9d5be1deb811c4
     Pseudo is Ultrasoft, Zval =  5.0
     Generated by new atomic code, or converted to UPF format
     Using radial grid of  729 points,  4 beta functions with:
                l(1) =   0
                l(2) =   0
                l(3) =   1
                l(4) =   1
     Q(r) pseudized with  8 coefficients,  rinner =    0.800   0.800   0.800

     PseudoPot. # 4 for C  read from file:
     /storage/coda1/p-amedford6/0/shared/rich_project_chbe-medford/medford-share/data/pseudos_module/espresso/nninc/pbe/van/C.UPF
     MD5 check sum: 1a69bf6b8db32088f5b2163dbdb77a27
     Pseudo is Ultrasoft, Zval =  4.0
     Generated by new atomic code, or converted to UPF format
     Using radial grid of  721 points,  4 beta functions with:
                l(1) =   0
                l(2) =   0
                l(3) =   1
                l(4) =   1
     Q(r) pseudized with  8 coefficients,  rinner =    0.800   0.800   0.800

     PseudoPot. # 5 for H  read from file:
     /storage/coda1/p-amedford6/0/shared/rich_project_chbe-medford/medford-share/data/pseudos_module/espresso/nninc/pbe/van/H.UPF
     MD5 check sum: b5ee9d7bfd3a09ee7748110bda690ff7
     Pseudo is Ultrasoft, Zval =  1.0
     Generated by new atomic code, or converted to UPF format
     Using radial grid of  615 points,  1 beta functions with:
                l(1) =   0
     Q(r) pseudized with  8 coefficients,  rinner =    0.800

     atomic species   valence    mass     pseudopotential
        Ti1           12.00    47.86700     Ti( 1.00)
        O1             6.00    15.99900     O ( 1.00)
        N1             5.00    14.00700     N ( 1.00)
        C1             4.00    12.01100     C ( 1.00)
        H1             1.00     1.00800     H ( 1.00)

     No symmetry found

   Cartesian axes

     site n.     atom                  positions (alat units)
         1           Ti1 tau(   1) = (   0.0004258   2.9801865   6.0000000  )
         2           Ti1 tau(   2) = (   3.2906075   1.4906267   6.0002472  )
         3           O1  tau(   3) = (   0.0006271   0.0005054   7.9858123  )
         4           O1  tau(   4) = (   3.2906025   0.0005020   7.3038282  )
         5           O1  tau(   5) = (   4.5942328   1.4918067   9.2879030  )
         6           O1  tau(   6) = (   1.9868534   1.4903216   9.2879459  )
         7           Ti1 tau(   7) = (   3.2907910   2.8959150   9.1758416  )
         8           Ti1 tau(   8) = (   0.0015273   1.4827037   9.2680791  )
         9           O1  tau(   9) = (   3.2953096   5.9421394  11.2884464  )
        10           O1  tau(  10) = (   0.0116148   5.9584955  10.6183126  )
        11           O1  tau(  11) = (   1.3041449   1.4755329  12.6321863  )
        12           O1  tau(  12) = (   5.3089623   1.4871430  12.6059879  )
        13           Ti1 tau(  13) = (   6.5683417   3.1096339  12.6902584  )
        14           Ti1 tau(  14) = (   3.3171551   1.3050273  12.6602886  )
        15           O1  tau(  15) = (   6.5441980   0.0188234  14.6400653  )
        16           O1  tau(  16) = (   3.3305379   0.0354930  13.9003223  )
        17           O1  tau(  17) = (   4.5569828   1.5958521  16.0354584  )
        18           O1  tau(  18) = (   2.0254723   1.5302355  15.9749146  )
        19           Ti1 tau(  19) = (   3.2479256   3.0467527  15.6517507  )
        20           Ti1 tau(  20) = (   6.4631478   1.5268535  15.8454044  )
        21           O1  tau(  21) = (   3.2904802   0.0005063   4.7018136  )
        22           O1  tau(  22) = (   6.5640117   0.0389496  17.1838934  )
        23           O1  tau(  23) = (   1.3043587   1.4918075   6.0039043  )
        24           O1  tau(  24) = (   5.2767064   1.4903225   6.0039473  )
        25           Ti1 tau(  25) = (   0.0000382   5.9609847   6.0000000  )
        26           Ti1 tau(  26) = (   3.2902200   4.4714249   6.0002472  )
        27           O1  tau(  27) = (   0.0002396   2.9813036   7.9858123  )
        28           O1  tau(  28) = (   3.2902150   2.9813002   7.3038282  )
        29           O1  tau(  29) = (   4.5938453   4.4726049   9.2879030  )
        30           O1  tau(  30) = (   1.9864658   4.4711199   9.2879459  )
        31           Ti1 tau(  31) = (   3.2891106   5.8743827   9.1763621  )
        32           Ti1 tau(  32) = (   0.0006254   4.4649316   9.2693709  )
        33           O1  tau(  33) = (   3.2909858   3.0116154  11.2527998  )
        34           O1  tau(  34) = (   0.0092240   2.9805883  10.6323155  )
        35           O1  tau(  35) = (   1.2990260   4.4726261  12.6330189  )
        36           O1  tau(  36) = (   5.2946483   4.4606482  12.6134978  )
        37           Ti1 tau(  37) = (   0.0333947   0.1262769  12.6104238  )
        38           Ti1 tau(  38) = (   3.2900473   4.3917186  12.4086616  )
        39           O1  tau(  39) = (   6.5591047   2.9728048  14.6463482  )
        40           O1  tau(  40) = (   3.3071982   2.9909887  13.8663713  )
        41           O1  tau(  41) = (   4.5374868   4.4330245  16.1128471  )
        42           O1  tau(  42) = (   2.0037144   4.4952966  15.9584979  )
        43           Ti1 tau(  43) = (   3.1911318   0.0573200  16.2061952  )
        44           Ti1 tau(  44) = (   6.5299348   4.6473693  16.0672121  )
        45           O1  tau(  45) = (   3.2900926   2.9813045   4.7018136  )
        46           O1  tau(  46) = (   1.3039711   4.4726057   6.0039043  )
        47           O1  tau(  47) = (   5.2763189   4.4711207   6.0039473  )
        48           N1  tau(  48) = (   1.2509970   2.8552009  18.3001485  )
        49           N1  tau(  49) = (   0.1090600   2.9410495  17.4585617  )
        50           C1  tau(  50) = (   1.1117997   3.5424446  19.5707766  )
        51           H1  tau(  51) = (   0.2696121   3.1616043  20.1716506  )
        52           H1  tau(  52) = (   2.0414425   3.4001925  20.1392599  )
        53           H1  tau(  53) = (   0.9679189   4.6079482  19.3970517  )
        54           H1  tau(  54) = (   1.5306055   1.8840965  18.4148701  )
        55           H1  tau(  55) = (   5.8389999   2.9001924  18.0325661  )
        56           O1  tau(  56) = (   3.2424369   0.1001929  18.0579484  )
        57           H1  tau(  57) = (   3.9792659   5.6040190  18.4897823  )

     number of k points=    10  Fermi-Dirac smearing, width (Ry)=  0.0073
                       cart. coord. in units 2pi/alat
        k(    1) = (   0.0000000   0.0000000   0.0000000), wk =   0.1250000
        k(    2) = (   0.0000000   0.0419351   0.0000000), wk =   0.2500000
        k(    3) = (   0.0000000  -0.0838702   0.0000000), wk =   0.1250000
        k(    4) = (   0.0379955   0.0000049   0.0000000), wk =   0.2500000
        k(    5) = (   0.0379955   0.0419400   0.0000000), wk =   0.2500000
        k(    6) = (   0.0379955  -0.0838652   0.0000000), wk =   0.2500000
        k(    7) = (   0.0379955  -0.0419301   0.0000000), wk =   0.2500000
        k(    8) = (  -0.0759910  -0.0000099   0.0000000), wk =   0.1250000
        k(    9) = (  -0.0759910   0.0419252   0.0000000), wk =   0.2500000
        k(   10) = (  -0.0759910  -0.0838800   0.0000000), wk =   0.1250000

     Initial potential from superposition of free atoms

     starting charge  387.99913, renormalised to  404.00000

     negative rho (up, down):  1.467E-02 0.000E+00

     %%%%%%%%%%%%%%%%%%%%%%%%%%%%%%%%%%%%%%%%%%%%%%%%%%%%%%%%%%%%%%%%%%%%%%%%
     %                                                                      %
     % You are using vdW-DF, which was implemented by the Thonhauser group. %
     % Please cite the following two papers that made this development      %
     % possible and the two reviews that describe the various versions:     %
     %                                                                      %
     %   T. Thonhauser et al., PRL 115, 136402 (2015).                      %
     %   T. Thonhauser et al., PRB 76, 125112 (2007).                       %
     %   K. Berland et al., Rep. Prog. Phys. 78, 066501 (2015).             %
     %   D.C. Langreth et al., J. Phys.: Condens. Matter 21, 084203 (2009). %
     %                                                                      %
     %                                                                      %
     % If you are calculating the stress with vdW-DF, please also cite:     %
     %                                                                      %
     %   R. Sabatini et al., J. Phys.: Condens. Matter 24, 424209 (2012).   %
     %                                                                      %
     %%%%%%%%%%%%%%%%%%%%%%%%%%%%%%%%%%%%%%%%%%%%%%%%%%%%%%%%%%%%%%%%%%%%%%%%

     Adding external electric field

     Computed dipole along edir(3) :
        Dipole              -12.7315 Ry au,        -32.3602 Debye
        Dipole field         -0.0240 Ry au,

        Potential amp.        2.2272 Ry
        Total length         46.3494 bohr

     Starting wfcs are  306 atomic wfcs
  @ DRIVER MODE: Message from server: STATUS
  @ DRIVER MODE: Message from server: POSDATA
  @ DRIVER MODE: Reading and sharing cell
  @ DRIVER MODE: Reading and sharing positions
  @ DRIVER MODE: Received positions

     Self-consistent Calculation

     iteration #  1     ecut=    29.40 Ry     beta= 0.05
     Davidson diagonalization with overlap
     c_bands:  4 eigenvalues not converged
     c_bands:  5 eigenvalues not converged
     c_bands:  5 eigenvalues not converged
     c_bands:  5 eigenvalues not converged
     c_bands:  1 eigenvalues not converged
     c_bands:  3 eigenvalues not converged
     c_bands:  4 eigenvalues not converged
     c_bands:  4 eigenvalues not converged
     ethr =  1.00E-05,  avg # of iterations = 24.4

[...]

     total energy              =   -2345.48651389 Ry
     estimated scf accuracy    <    7121.28588336 Ry

     iteration #  2     ecut=    29.40 Ry     beta= 0.05
     Davidson diagonalization with overlap
     ethr =  1.00E-02,  avg # of iterations = 23.7

[...]

     iteration # 49     ecut=    29.40 Ry     beta= 0.05
     Davidson diagonalization with overlap
     c_bands:  2 eigenvalues not converged
     ethr =  2.99E-07,  avg # of iterations =  9.2

[...]

     total energy              =   -2975.25031196 Ry
     estimated scf accuracy    <       0.00000008 Ry

     iteration # 86     ecut=    29.40 Ry     beta= 0.05
     Davidson diagonalization with overlap
     ethr =  1.95E-11,  avg # of iterations =  5.1

     negative rho (up, down):  1.541E-02 0.000E+00

     Adding external electric field

     Computed dipole along edir(3) :
        Dipole                0.5357 Ry au,          1.3616 Debye
        Dipole field          0.0010 Ry au,

        Potential amp.       -0.0937 Ry
        Total length         46.3494 bohr

     End of self-consistent calculation

          k = 0.0000 0.0000 0.0000 ( 18029 PWs)   bands (ev):

   -56.4281 -56.3944 -55.7723 -55.7374 -55.5404 -55.4793 -55.3667 -55.2120
   -55.2076 -55.1391 -55.1042 -55.0908 -55.0569 -55.0511 -54.9850 -54.8660
   -32.8612 -32.7125 -32.6845 -32.5957 -32.5044 -32.4868 -32.2524 -32.0185
   -31.9917 -31.9689 -31.9160 -31.9105 -31.8809 -31.7685 -31.7565 -31.7466
   -31.7054 -31.6963 -31.6816 -31.6413 -31.6347 -31.6250 -31.5757 -31.5554
   -31.5148 -31.4830 -31.4812 -31.4307 -31.4182 -31.4109 -31.4066 -31.3869
   -31.3671 -31.3666 -31.3298 -31.3115 -31.3064 -31.3011 -31.2826 -31.2382
   -31.2348 -31.2182 -31.2053 -31.1848 -31.1143 -31.1101 -31.1065 -31.0592
   -16.6178 -16.5700 -16.1902 -16.1731 -15.8662 -15.8019 -15.7767 -15.7417
   -15.6801 -15.5569 -15.4389 -15.3934 -15.3854 -15.3372 -15.1778 -15.0805
   -14.9855 -14.9138 -14.9063 -14.8591 -14.8510 -14.8216 -14.8102 -14.8021
   -14.7361 -14.7013 -14.5932 -14.5484 -14.4522 -14.2575 -14.1790 -13.5887
   -13.4789 -11.5310  -8.6499  -5.0335  -4.2459  -4.1685  -3.7809  -3.6937
    -3.5236  -3.4471  -3.2936  -3.2629  -3.1755  -3.0738  -3.0121  -2.9549
    -2.9439  -2.8388  -2.6903  -2.6385  -2.6337  -2.6107  -2.6044  -2.5138
    -2.4450  -2.4115  -2.3440  -2.2741  -2.2421  -2.1559  -2.1502  -2.1255
    -2.1046  -2.0757  -2.0250  -1.9754  -1.9553  -1.9320  -1.8242  -1.7801
    -1.7548  -1.7109  -1.6788  -1.6046  -1.5689  -1.5224  -1.4443  -1.3839
    -1.2609  -1.2340  -1.1688  -1.1546  -1.1250  -0.9995  -0.9622  -0.9279
    -0.8667  -0.8329  -0.7678  -0.7444  -0.7123  -0.6744  -0.6658  -0.6256
    -0.5190  -0.4895  -0.3630  -0.3457  -0.2931  -0.2230  -0.2130  -0.1584
    -0.1368  -0.1006  -0.0553  -0.0196   0.0234   0.0923   0.1301   0.2175
     0.2607   0.3240   0.4196   0.4489   0.4706   0.5333   0.5511   0.5843
     0.6299   0.7236   0.7326   0.7934   0.8692   0.9142   0.9319   0.9931
     1.0528   1.0721   1.1705   1.1983   1.2095   1.2646   1.4720   1.5124
     1.6899   2.4464   2.8364   2.9830   3.2688   3.3005   3.5608   3.7956
     3.8256   3.8276   3.9102   4.0122

[...]

          k = 0.0380-0.0419 0.0000 ( 17876 PWs)   bands (ev):

[...]

          k =-0.0760-0.0000 0.0000 ( 17886 PWs)   bands (ev):

[...]

          k =-0.0760-0.0839 0.0000 ( 17948 PWs)   bands (ev):

   -56.4114 -56.4110 -55.7595 -55.7500 -55.5352 -55.4844 -55.3652 -55.2132
   -55.2029 -55.1435 -55.1020 -55.0743 -55.0732 -55.0497 -54.9872 -54.8673
   -32.6983 -32.6979 -32.6781 -32.6775 -32.5486 -32.5484 -32.0775 -32.0691
   -31.9536 -31.9462 -31.9424 -31.9400 -31.8384 -31.7996 -31.7626 -31.7543
   -31.7099 -31.7046 -31.6649 -31.6158 -31.5833 -31.5648 -31.5402 -31.5003
   -31.4876 -31.4851 -31.4346 -31.4328 -31.4200 -31.4191 -31.4175 -31.3966
   -31.3829 -31.3571 -31.3354 -31.3233 -31.3104 -31.2989 -31.2976 -31.2973
   -31.2604 -31.2594 -31.2418 -31.2354 -31.1918 -31.1764 -31.1154 -31.0906
   -16.5450 -16.1763 -15.9985 -15.9946 -15.9151 -15.9125 -15.7043 -15.6987
   -15.5280 -15.4988 -15.4242 -15.3060 -15.2544 -15.1979 -15.1900 -15.1476
   -15.0932 -15.0740 -15.0311 -15.0142 -14.9514 -14.9077 -14.8591 -14.8133
   -14.7944 -14.7555 -14.6346 -14.5855 -14.5787 -14.3920 -14.3599 -13.5828
   -13.5822 -11.5376  -8.6565  -5.0417  -4.2432  -3.7526  -3.4039  -3.1006
    -3.0825  -3.0370  -3.0279  -2.8123  -2.7916  -2.7661  -2.6929  -2.6802
    -2.6302  -2.6230  -2.5311  -2.4905  -2.4483  -2.4338  -2.4192  -2.3642
    -2.3365  -2.2927  -2.2892  -2.2537  -2.2188  -2.1851  -2.1604  -2.1184
    -2.0943  -2.0796  -2.0402  -2.0081  -1.9820  -1.9316  -1.9125  -1.8777
    -1.8713  -1.8474  -1.6925  -1.6381  -1.5824  -1.5389  -1.5083  -1.4427
    -1.4328  -1.3779  -1.3188  -1.2852  -1.2570  -1.2389  -1.1522  -1.1209
    -1.1045  -1.0689  -1.0269  -0.9662  -0.9078  -0.8594  -0.7824  -0.6881
    -0.6594  -0.6421  -0.6147  -0.6072  -0.5664  -0.5142  -0.4258  -0.3737
    -0.3215  -0.3046  -0.2612  -0.2553  -0.2249  -0.1879  -0.1182   0.0043
     0.0696   0.1057   0.1610   0.2170   0.2733   0.3378   0.3803   0.4619
     0.5410   0.5624   0.6483   0.6816   0.8057   0.8484   0.9640   1.0051
     1.0429   1.0874   1.1568   1.2541   1.2791   1.3231   1.3249   1.3417
     1.3562   2.4718   3.4032   3.4061   3.4566   3.4640   3.7385   3.7467
     3.8803   3.8821   4.0066   4.0192

     the Fermi energy is     2.7176 ev

!    total energy              =   -2975.25031540 Ry
     estimated scf accuracy    <       0.00000006 Ry
     smearing contrib. (-TS)   =      -0.00754933 Ry
     internal energy E=F+TS    =   -2975.24276606 Ry

     The total energy is F=E-TS. E is the sum of the following terms:
     one-electron contribution =  -23773.49979721 Ry
     hartree contribution      =   11982.37249239 Ry
     xc contribution           =    -494.80360404 Ry
     ewald contribution        =    9310.68760122 Ry
     electric field correction =       0.00054158 Ry

     convergence has been achieved in  86 iterations

     Forces acting on atoms (cartesian axes, Ry/au):

     atom    1 type  1   force =     0.00002366   -0.00034879    0.11619908
     atom    2 type  1   force =    -0.00014439    0.00031885   -0.16021083
     atom    3 type  2   force =     0.00004620    0.00032683   -0.05317849
     atom    4 type  2   force =     0.00007190   -0.00041589    0.02651067
     atom    5 type  2   force =    -0.00502251   -0.00226080   -0.01001534
     atom    6 type  2   force =     0.00670692   -0.00183343   -0.01074727
     atom    7 type  1   force =    -0.00038462   -0.00640440    0.04569653
     atom    8 type  1   force =     0.00056794    0.01079623    0.08183515
     atom    9 type  2   force =    -0.00001666    0.00036491   -0.00014613
     atom   10 type  2   force =    -0.00139937    0.00154937   -0.05454499
     atom   11 type  2   force =     0.00073788    0.00028895   -0.00024317
     atom   12 type  2   force =    -0.00115465    0.00021710    0.00018157
     atom   13 type  1   force =    -0.00023123   -0.00092263    0.00038285
     atom   14 type  1   force =     0.00046799    0.00124143   -0.00027827
     atom   15 type  2   force =     0.00000061   -0.00052045    0.00038931
     atom   16 type  2   force =    -0.00029966    0.00060207    0.00094691
     atom   17 type  2   force =    -0.00072259   -0.00045346    0.00018820
     atom   18 type  2   force =     0.00072279   -0.00019873    0.00021086
     atom   19 type  1   force =    -0.00059398   -0.00055811   -0.00044329
     atom   20 type  1   force =     0.00039240   -0.00039358   -0.00031261
     atom   21 type  2   force =     0.00007539    0.00015175    0.09916541
     atom   22 type  2   force =     0.00029279   -0.00041683    0.00080335
     atom   23 type  2   force =    -0.07948902   -0.00002332   -0.03161397
     atom   24 type  2   force =     0.07940940    0.00040597   -0.03164815
     atom   25 type  1   force =     0.00017899   -0.00036564    0.11647752
     atom   26 type  1   force =    -0.00008548   -0.00141802   -0.16034613
     atom   27 type  2   force =     0.00013483   -0.00011784   -0.05156063
     atom   28 type  2   force =     0.00003198    0.00129634    0.02170410
     atom   29 type  2   force =    -0.00383812    0.00422453   -0.01241638
     atom   30 type  2   force =     0.00542375    0.00483665   -0.01300878
     atom   31 type  1   force =    -0.00015178    0.00313596    0.03067213
     atom   32 type  1   force =     0.00051371   -0.01302378    0.08270080
     atom   33 type  2   force =     0.00018009   -0.00051901    0.00024604
     atom   34 type  2   force =    -0.00049628    0.00168265   -0.06790624
     atom   35 type  2   force =    -0.00044902   -0.00064856   -0.00010604
     atom   36 type  2   force =     0.00007519   -0.00003347   -0.00002384
     atom   37 type  1   force =    -0.00012506   -0.00121422   -0.00016779
     atom   38 type  1   force =     0.00047895   -0.00032956    0.00013822
     atom   39 type  2   force =     0.00015621    0.00034091   -0.00003772
     atom   40 type  2   force =    -0.00012553   -0.00024017    0.00020709
     atom   41 type  2   force =     0.00113857   -0.00002649    0.00019191
     atom   42 type  2   force =    -0.00105349   -0.00037830    0.00022991
     atom   43 type  1   force =     0.00010595   -0.00079763    0.00006679
     atom   44 type  1   force =     0.00041089    0.00062747   -0.00045691
     atom   45 type  2   force =     0.00007662   -0.00002910    0.09898554
     atom   46 type  2   force =    -0.07950233   -0.00001403   -0.03162712
     atom   47 type  2   force =     0.07944027    0.00043090   -0.03164982
     atom   48 type  3   force =    -0.00088943    0.00040325   -0.00071294
     atom   49 type  3   force =    -0.00109993    0.00026893   -0.00013158
     atom   50 type  4   force =     0.00802330   -0.00034598    0.00397616
     atom   51 type  5   force =    -0.00037465    0.00004782    0.00023551
     atom   52 type  5   force =    -0.00917676    0.00079040   -0.00422279
     atom   53 type  5   force =     0.00061835    0.00022088   -0.00055732
     atom   54 type  5   force =    -0.00010987   -0.00162403    0.00012475
     atom   55 type  5   force =    -0.00053183    0.00010035    0.00031745
     atom   56 type  2   force =     0.00111638   -0.00021995   -0.00003746
     atom   57 type  5   force =    -0.00015167    0.00142569   -0.00043185

     Total force =     0.399268     Total SCF correction =     0.000770
  @ DRIVER MODE: Message from server: STATUS
  @ DRIVER MODE: Message from server: GETFORCE
  @ DRIVER MODE: Returning v,forces,stress,ensemble

     Writing output data file ./calc.save/
  @ DRIVER MODE: Message from server: EXIT
  @ DRIVE MODE: Exiting

     General routines

     Parallel routines

   This run was terminated on:   9: 3:51  23Sep2021

   JOB DONE.