     Program PWSCF v.6.7GPU starts on 15Sep2021 at 16:13: 5

     R & G space division:  proc/nbgrp/npool/nimage =      10
     Reading input from /storage/home/hcoda1/3/ntian30/research/carbon/CxH_vib/H2O_calc/ads_slab/CH2OHH2O_a/out_0002/pw.inp
Warning: card &CELL ignored
Warning: card   CELL_DYNAMICS='IPI', ignored
Warning: card / ignored

     Current dimensions of program PWSCF are:
     Max number of different atomic species (ntypx) = 10
     Max number of k-points (npk) =  40000
     Max angular momentum in pseudopotentials (lmaxx) =  3
     Presently no symmetry can be used with electric field

     Message from routine cell_base_init:
     DEPRECATED: use true lattice parameter, not A to a.u. conversion factor

     IMPORTANT: XC functional enforced from input :
     Exchange-correlation= BEEF-VDW
                           (   1   4  43  14   2   0   0)
     Any further DFT definition will be discarded
     Please, verify this is what you really want

  @ DRIVER MODE: Connecting to
 qe_1139763_2852615.sched-torque.pace.gatech.eduy01et1tx_scratch
  using UNIX socket
  @ DRIVER MODE: Message from server: STATUS
  @ DRIVER MODE: Message from server: INIT
  @ DRIVER MODE: Receiving replica           0          -1
  @ DRIVER MODE: Receiving encoded integer          25
  @ DRIVER MODE:  SCF:  T  FORCE:  T  STRESS:  F  VC:  F  ENSEMBLE:  F
  @ DRIVER MODE:  SCF:  T  FORCE:  T  STRESS:  F  VC:  F  ENSEMBLE:  F

     Using Slab Decomposition

     bravais-lattice index     =            0
     lattice parameter (alat)  =       1.8897  a.u.
     unit-cell volume          =    6658.9804 (a.u.)^3
     number of atoms/cell      =           55
     number of atomic types    =            4
     number of electrons       =       399.00
     number of Kohn-Sham states=          209
     kinetic-energy cutoff     =      29.3995  Ry
     charge density cutoff     =     293.9946  Ry
     scf convergence threshold =      7.3E-08
     mixing beta               =       0.0500
     number of iterations used =            8  plain     mixing
     Exchange-correlation= BEEF-VDW
                           (   1   4  43  14   2   0   0)

     celldm(1)=   1.889726  celldm(2)=   0.000000  celldm(3)=   0.000000
     celldm(4)=   0.000000  celldm(5)=   0.000000  celldm(6)=   0.000000

     crystal axes: (cart. coord. in units of alat)
               a(1) = (   6.579727   0.000000   0.000000 )
               a(2) = (  -0.000775   5.961596   0.000000 )
               a(3) = (   0.000000   0.000000  25.155947 )

     reciprocal axes: (cart. coord. in units 2 pi/alat)
               b(1) = (  0.151982  0.000020  0.000000 )
               b(2) = (  0.000000  0.167740  0.000000 )
               b(3) = (  0.000000  0.000000  0.039752 )

     PseudoPot. # 1 for Ti read from file:
     /storage/coda1/p-amedford6/0/shared/rich_project_chbe-medford/medford-share/data/pseudos_module/espresso/nninc/pbe/van/Ti.UPF
     MD5 check sum: 8e4df49b7f0d34bbd5052bf3f5ea0213
     Pseudo is Ultrasoft, Zval = 12.0
     Generated by new atomic code, or converted to UPF format
     Using radial grid of  851 points,  6 beta functions with:
                l(1) =   0
                l(2) =   0
                l(3) =   1
                l(4) =   1
                l(5) =   2
                l(6) =   2
     Q(r) pseudized with  8 coefficients,  rinner =    1.000   1.000   1.000
                                                       1.000   1.000

     PseudoPot. # 2 for O  read from file:
     /storage/coda1/p-amedford6/0/shared/rich_project_chbe-medford/medford-share/data/pseudos_module/espresso/nninc/pbe/van/O.UPF
     MD5 check sum: 78c19812648e8988a0fe644b0f25305e
     Pseudo is Ultrasoft, Zval =  6.0
     Generated by new atomic code, or converted to UPF format
     Using radial grid of  737 points,  4 beta functions with:
                l(1) =   0
                l(2) =   0
                l(3) =   1
                l(4) =   1
     Q(r) pseudized with  8 coefficients,  rinner =    0.800   0.800   0.800

     PseudoPot. # 3 for C  read from file:
     /storage/coda1/p-amedford6/0/shared/rich_project_chbe-medford/medford-share/data/pseudos_module/espresso/nninc/pbe/van/C.UPF
     MD5 check sum: 1a69bf6b8db32088f5b2163dbdb77a27
     Pseudo is Ultrasoft, Zval =  4.0
     Generated by new atomic code, or converted to UPF format
     Using radial grid of  721 points,  4 beta functions with:
                l(1) =   0
                l(2) =   0
                l(3) =   1
                l(4) =   1
     Q(r) pseudized with  8 coefficients,  rinner =    0.800   0.800   0.800

     PseudoPot. # 4 for H  read from file:
     /storage/coda1/p-amedford6/0/shared/rich_project_chbe-medford/medford-share/data/pseudos_module/espresso/nninc/pbe/van/H.UPF
     MD5 check sum: b5ee9d7bfd3a09ee7748110bda690ff7
     Pseudo is Ultrasoft, Zval =  1.0
     Generated by new atomic code, or converted to UPF format
     Using radial grid of  615 points,  1 beta functions with:
                l(1) =   0
     Q(r) pseudized with  8 coefficients,  rinner =    0.800

     atomic species   valence    mass     pseudopotential
        Ti1           12.00    47.86700     Ti( 1.00)
        O1             6.00    15.99900     O ( 1.00)
        C1             4.00    12.01100     C ( 1.00)
        H1             1.00     1.00800     H ( 1.00)

     No symmetry found

   Cartesian axes

     site n.     atom                  positions (alat units)
         1           Ti1 tau(   1) = (   0.0004258   2.9801865   6.0000000  )
         2           Ti1 tau(   2) = (   3.2906075   1.4906267   6.0002472  )
         3           O1  tau(   3) = (   0.0006271   0.0005054   7.9858123  )
         4           O1  tau(   4) = (   3.2906025   0.0005020   7.3038282  )
         5           O1  tau(   5) = (   4.5942328   1.4918067   9.2879030  )
         6           O1  tau(   6) = (   1.9868534   1.4903216   9.2879459  )
         7           Ti1 tau(   7) = (   3.2434587   3.0186650   9.1693953  )
         8           Ti1 tau(   8) = (   6.5248695   1.5265067   9.2859949  )
         9           O1  tau(   9) = (   3.3238096   0.0077392  11.3399147  )
        10           O1  tau(  10) = (   0.0083103   0.0007143  10.5763085  )
        11           O1  tau(  11) = (   1.3076427   1.5153157  12.5877682  )
        12           O1  tau(  12) = (   5.3324098   1.4751673  12.6362968  )
        13           Ti1 tau(  13) = (   0.0822926   2.9518924  12.6100891  )
        14           Ti1 tau(  14) = (   3.3652580   1.6116561  12.6031695  )
        15           O1  tau(  15) = (   0.1623142   0.0003102  14.6136642  )
        16           O1  tau(  16) = (   3.2083997   0.0016335  13.9229753  )
        17           O1  tau(  17) = (   4.6427586   1.3635169  15.8692112  )
        18           O1  tau(  18) = (   2.0707938   1.5934636  16.1317492  )
        19           Ti1 tau(  19) = (   3.4055461   2.9583945  15.9219660  )
        20           Ti1 tau(  20) = (   0.0529163   1.3399360  15.9091509  )
        21           O1  tau(  21) = (   3.2904802   0.0005063   4.7018136  )
        22           O1  tau(  22) = (   0.1143047   5.9459637  17.1421970  )
        23           O1  tau(  23) = (   1.3043587   1.4918075   6.0039043  )
        24           O1  tau(  24) = (   5.2767064   1.4903225   6.0039473  )
        25           Ti1 tau(  25) = (   0.0000382   5.9609847   6.0000000  )
        26           Ti1 tau(  26) = (   3.2902200   4.4714249   6.0002472  )
        27           O1  tau(  27) = (   0.0002396   2.9813036   7.9858123  )
        28           O1  tau(  28) = (   3.2902150   2.9813002   7.3038282  )
        29           O1  tau(  29) = (   4.5938453   4.4726049   9.2879030  )
        30           O1  tau(  30) = (   1.9864658   4.4711199   9.2879459  )
        31           Ti1 tau(  31) = (   3.2519499   0.0415563   9.1803751  )
        32           Ti1 tau(  32) = (   6.5223785   4.4699269   9.2708698  )
        33           O1  tau(  33) = (   3.3249262   3.0006027  11.3427062  )
        34           O1  tau(  34) = (   6.5728067   2.9803724  10.5910131  )
        35           O1  tau(  35) = (   1.3048910   4.4590737  12.5876729  )
        36           O1  tau(  36) = (   5.3248012   4.5079456  12.6396186  )
        37           Ti1 tau(  37) = (   0.0305998   5.9348532  12.4502240  )
        38           Ti1 tau(  38) = (   3.3518916   4.5407868  12.4757475  )
        39           O1  tau(  39) = (   0.0741357   2.9755951  14.7167286  )
        40           O1  tau(  40) = (   3.3703583   2.9475192  13.9294239  )
        41           O1  tau(  41) = (   4.6408928   4.5782690  15.8216857  )
        42           O1  tau(  42) = (   2.0743197   4.3710070  16.0958311  )
        43           Ti1 tau(  43) = (   3.3271525   5.9323444  15.7323421  )
        44           Ti1 tau(  44) = (   0.0603002   4.5335970  15.7939964  )
        45           O1  tau(  45) = (   3.2900926   2.9813045   4.7018136  )
        46           O1  tau(  46) = (   1.3039711   4.4726057   6.0039043  )
        47           O1  tau(  47) = (   5.2763189   4.4711207   6.0039473  )
        48           C1  tau(  48) = (   4.6017920   3.0228413  17.9030398  )
        49           O1  tau(  49) = (   6.0625861   3.0006587  17.4562122  )
        50           H1  tau(  50) = (   0.0503952   3.1075262  18.2373115  )
        51           H1  tau(  51) = (   4.5265887   2.1706275  18.5876854  )
        52           H1  tau(  52) = (   4.4781653   3.9549082  18.4551422  )
        53           O1  tau(  53) = (   2.8659371   5.8926936  18.2031264  )
        54           H1  tau(  54) = (   3.0528466   0.8172038  18.5446680  )
        55           H1  tau(  55) = (   1.8959954   5.8777970  18.0521013  )

     number of k points=    10  Fermi-Dirac smearing, width (Ry)=  0.0073
                       cart. coord. in units 2pi/alat
        k(    1) = (   0.0000000   0.0000000   0.0000000), wk =   0.1250000
        k(    2) = (   0.0000000   0.0419351   0.0000000), wk =   0.2500000
        k(    3) = (   0.0000000  -0.0838702   0.0000000), wk =   0.1250000
        k(    4) = (   0.0379955   0.0000049   0.0000000), wk =   0.2500000
        k(    5) = (   0.0379955   0.0419400   0.0000000), wk =   0.2500000
        k(    6) = (   0.0379955  -0.0838652   0.0000000), wk =   0.2500000
        k(    7) = (   0.0379955  -0.0419301   0.0000000), wk =   0.2500000
        k(    8) = (  -0.0759910  -0.0000099   0.0000000), wk =   0.1250000
        k(    9) = (  -0.0759910   0.0419252   0.0000000), wk =   0.2500000
        k(   10) = (  -0.0759910  -0.0838800   0.0000000), wk =   0.1250000

     Initial potential from superposition of free atoms

     starting charge  382.99916, renormalised to  399.00000

     negative rho (up, down):  1.857E-02 0.000E+00

     %%%%%%%%%%%%%%%%%%%%%%%%%%%%%%%%%%%%%%%%%%%%%%%%%%%%%%%%%%%%%%%%%%%%%%%%
     %                                                                      %
     % You are using vdW-DF, which was implemented by the Thonhauser group. %
     % Please cite the following two papers that made this development      %
     % possible and the two reviews that describe the various versions:     %
     %                                                                      %
     %   T. Thonhauser et al., PRL 115, 136402 (2015).                      %
     %   T. Thonhauser et al., PRB 76, 125112 (2007).                       %
     %   K. Berland et al., Rep. Prog. Phys. 78, 066501 (2015).             %
     %   D.C. Langreth et al., J. Phys.: Condens. Matter 21, 084203 (2009). %
     %                                                                      %
     %                                                                      %
     % If you are calculating the stress with vdW-DF, please also cite:     %
     %                                                                      %
     %   R. Sabatini et al., J. Phys.: Condens. Matter 24, 424209 (2012).   %
     %                                                                      %
     %%%%%%%%%%%%%%%%%%%%%%%%%%%%%%%%%%%%%%%%%%%%%%%%%%%%%%%%%%%%%%%%%%%%%%%%

     Adding external electric field

     Computed dipole along edir(3) :
        Dipole               -9.7304 Ry au,        -24.7321 Debye
        Dipole field         -0.0184 Ry au,

        Potential amp.        1.7022 Ry
        Total length         46.3494 bohr

     Starting wfcs are  301 atomic wfcs
  @ DRIVER MODE: Message from server: STATUS
  @ DRIVER MODE: Message from server: POSDATA
  @ DRIVER MODE: Reading and sharing cell
  @ DRIVER MODE: Reading and sharing positions
  @ DRIVER MODE: Received positions

     Self-consistent Calculation

     iteration #  1     ecut=    29.40 Ry     beta= 0.05
     Davidson diagonalization with overlap
     c_bands:  1 eigenvalues not converged
     c_bands:  2 eigenvalues not converged
     c_bands:  3 eigenvalues not converged
     c_bands:  5 eigenvalues not converged
     c_bands:  3 eigenvalues not converged
     c_bands:  2 eigenvalues not converged
     c_bands:  3 eigenvalues not converged
     c_bands:  2 eigenvalues not converged
     ethr =  1.00E-05,  avg # of iterations = 19.8

[...]

     total energy              =   -2478.51676955 Ry
     estimated scf accuracy    <    5415.85448206 Ry

     iteration #  2     ecut=    29.40 Ry     beta= 0.05
     Davidson diagonalization with overlap
     ethr =  1.00E-02,  avg # of iterations = 24.6

[...]

     iteration # 74     ecut=    29.40 Ry     beta= 0.05
     Davidson diagonalization with overlap
     c_bands:  1 eigenvalues not converged
     ethr =  6.38E-10,  avg # of iterations = 10.4

[...]

     total energy              =   -2966.15817207 Ry
     estimated scf accuracy    <       0.00000010 Ry

     iteration # 82     ecut=    29.40 Ry     beta= 0.05
     Davidson diagonalization with overlap
     ethr =  2.41E-11,  avg # of iterations = 10.4

     negative rho (up, down):  1.797E-02 0.000E+00

     Adding external electric field

     Computed dipole along edir(3) :
        Dipole                1.0037 Ry au,          2.5513 Debye
        Dipole field          0.0019 Ry au,

        Potential amp.       -0.1756 Ry
        Total length         46.3494 bohr

     End of self-consistent calculation

          k = 0.0000 0.0000 0.0000 ( 18029 PWs)   bands (ev):

   -55.6893 -55.6528 -55.5823 -55.5735 -55.5174 -55.5148 -55.5089 -55.5061
   -55.4782 -55.4611 -55.4538 -55.4428 -55.4275 -55.3352 -54.6588 -54.6248
   -32.1806 -32.1654 -32.0553 -32.0256 -32.0031 -31.9765 -31.9550 -31.9442
   -31.9304 -31.8718 -31.8436 -31.8368 -31.8334 -31.8244 -31.7979 -31.7874
   -31.7841 -31.7646 -31.7595 -31.7484 -31.7373 -31.7323 -31.6982 -31.6929
   -31.6904 -31.6836 -31.6781 -31.6703 -31.6652 -31.6604 -31.6528 -31.6359
   -31.6320 -31.6305 -31.6243 -31.6209 -31.6124 -31.6115 -31.5868 -31.5642
   -31.5509 -31.4206 -31.0659 -30.9774 -30.9549 -30.8826 -30.7962 -30.6850
   -19.4519 -18.7443 -16.3749 -16.1782 -15.9733 -15.8600 -15.8399 -15.6589
   -15.5350 -15.3887 -15.3371 -15.3072 -15.2865 -15.2171 -15.2103 -15.1953
   -15.1601 -15.1552 -15.1188 -15.0991 -15.0930 -15.0652 -15.0138 -14.9922
   -14.9426 -14.8823 -14.8138 -14.7937 -14.7848 -14.7094 -14.6189 -13.1596
   -13.0430  -9.4393  -6.5101  -6.3105  -4.0934  -3.8700  -3.6929  -3.6457
    -3.6118  -3.5756  -3.4203  -3.3043  -3.1250  -3.0232  -2.9535  -2.9070
    -2.8662  -2.7890  -2.7471  -2.6230  -2.5993  -2.5501  -2.5169  -2.4806
    -2.4738  -2.4525  -2.4074  -2.3919  -2.3751  -2.2176  -2.2076  -2.1746
    -2.1086  -2.0774  -2.0500  -2.0128  -1.9913  -1.9641  -1.9457  -1.8996
    -1.8810  -1.8098  -1.8015  -1.7576  -1.6904  -1.6568  -1.3930  -1.3134
    -1.2954  -1.2564  -1.1935  -1.0965  -1.0928  -1.0862  -1.0857  -1.0283
    -1.0051  -0.8637  -0.8491  -0.8338  -0.7544  -0.6751  -0.5959  -0.5595
    -0.4948  -0.4438  -0.4112  -0.3838  -0.3573  -0.3004  -0.2328  -0.2115
    -0.1399  -0.0665  -0.0330   0.0197   0.0452   0.0902   0.1203   0.1971
     0.2357   0.2696   0.2973   0.3155   0.3254   0.3684   0.3889   0.4783
     0.5555   0.5835   0.5907   0.6641   0.7909   0.8731   0.9853   1.0770
     1.2996   1.3652   1.4176   1.5536   1.5807   1.9371   1.9876   3.4521
     3.5213   3.5807   3.5814   3.6160   3.6965   3.8995   3.9475   4.0033
     4.0376

[...]

          k = 0.0380-0.0419 0.0000 ( 17876 PWs)   bands (ev):

[...]

          k =-0.0760-0.0000 0.0000 ( 17886 PWs)   bands (ev):

[...]

          k =-0.0760-0.0839 0.0000 ( 17948 PWs)   bands (ev):

   -55.6776 -55.6644 -55.5770 -55.5688 -55.5220 -55.5134 -55.5113 -55.5026
   -55.4631 -55.4600 -55.4572 -55.4463 -55.4427 -55.3367 -54.6418 -54.6417
   -32.0995 -31.9868 -31.9759 -31.9741 -31.9518 -31.9014 -31.8747 -31.8545
   -31.8467 -31.8420 -31.8386 -31.8159 -31.8147 -31.8001 -31.7984 -31.7890
   -31.7882 -31.7798 -31.7783 -31.7752 -31.7724 -31.7629 -31.7411 -31.7356
   -31.7297 -31.7181 -31.7110 -31.7047 -31.7019 -31.6875 -31.6734 -31.6653
   -31.6640 -31.6626 -31.6607 -31.6542 -31.6529 -31.6508 -31.6489 -31.6463
   -31.6269 -31.4228 -30.9676 -30.9675 -30.8791 -30.8783 -30.8396 -30.8391
   -19.4456 -18.7431 -15.9934 -15.6537 -15.6408 -15.6357 -15.6049 -15.4839
   -15.4596 -15.4372 -15.3916 -15.3615 -15.3557 -15.3326 -15.2883 -15.2317
   -15.2126 -15.2048 -15.1951 -15.1427 -15.1284 -15.1175 -15.0718 -15.0313
   -15.0292 -15.0050 -14.9789 -14.9733 -14.9731 -14.9453 -14.8795 -13.1463
   -13.1432  -9.4453  -6.5109  -6.2904  -4.0514  -3.7719  -3.1617  -3.0433
    -2.8716  -2.8495  -2.7986  -2.7770  -2.7232  -2.6546  -2.6258  -2.6143
    -2.6126  -2.5787  -2.5159  -2.4821  -2.4781  -2.4388  -2.4208  -2.4129
    -2.3926  -2.3673  -2.3429  -2.3242  -2.3176  -2.2820  -2.2698  -2.2551
    -2.2490  -2.2371  -2.2193  -2.1785  -2.0700  -1.9481  -1.9145  -1.8786
    -1.8392  -1.7803  -1.7739  -1.7601  -1.7256  -1.7248  -1.7087  -1.6302
    -1.4683  -1.4048  -1.3429  -1.3210  -1.2485  -1.2355  -1.2197  -1.1758
    -1.1352  -1.0862  -1.0397  -1.0203  -0.9651  -0.9211  -0.7898  -0.7375
    -0.6536  -0.6485  -0.6260  -0.6108  -0.5568  -0.5319  -0.5073  -0.4625
    -0.4274  -0.3833  -0.3516  -0.3431  -0.3210  -0.2592  -0.1596  -0.1108
    -0.0487  -0.0420   0.0383   0.1695   0.3550   0.3853   0.4434   0.4945
     0.5834   0.6062   0.6551   0.6748   0.7324   0.7595   0.8010   0.8611
     0.9219   0.9502   1.5462   1.7288   1.7351   1.7983   1.8077   3.7437
     3.8310   3.9238   3.9375   3.9724   3.9843   3.9897   4.0195   4.0773
     4.1144

     the Fermi energy is     3.4496 ev

!    total energy              =   -2966.15817900 Ry
     estimated scf accuracy    <       0.00000004 Ry
     smearing contrib. (-TS)   =      -0.02139168 Ry
     internal energy E=F+TS    =   -2966.13678732 Ry

     The total energy is F=E-TS. E is the sum of the following terms:
     one-electron contribution =  -24755.73452401 Ry
     hartree contribution      =   12470.37439679 Ry
     xc contribution           =    -490.96285167 Ry
     ewald contribution        =    9810.18429027 Ry
     electric field correction =       0.00190129 Ry

     convergence has been achieved in  82 iterations

     Forces acting on atoms (cartesian axes, Ry/au):

     atom    1 type  1   force =     0.00075795   -0.00018955    0.09534067
     atom    2 type  1   force =     0.00024634   -0.00220065   -0.17570159
     atom    3 type  2   force =    -0.00066043   -0.00040954   -0.03009510
     atom    4 type  2   force =    -0.00084965    0.00063436    0.05234432
     atom    5 type  2   force =    -0.01387258   -0.00099616    0.00146032
     atom    6 type  2   force =     0.01582216    0.00241113    0.00318564
     atom    7 type  1   force =     0.00034010    0.00039194   -0.00028054
     atom    8 type  1   force =    -0.00036140    0.00139859    0.00066606
     atom    9 type  2   force =     0.00011895   -0.00001877    0.00022932
     atom   10 type  2   force =     0.00017374    0.00016888   -0.00057686
     atom   11 type  2   force =    -0.00023375    0.00024889    0.00018831
     atom   12 type  2   force =    -0.00037366    0.00008465    0.00008178
     atom   13 type  1   force =     0.00021967   -0.00018465   -0.00068282
     atom   14 type  1   force =    -0.00101963   -0.00000228    0.00029167
     atom   15 type  2   force =     0.00007549   -0.00112017   -0.00005226
     atom   16 type  2   force =    -0.00001990   -0.00006891   -0.00021150
     atom   17 type  2   force =    -0.00020916   -0.00046573   -0.00019723
     atom   18 type  2   force =     0.00023209   -0.00033319    0.00019137
     atom   19 type  1   force =     0.00090616    0.00038188    0.00088893
     atom   20 type  1   force =     0.00033102    0.00048604   -0.00022121
     atom   21 type  2   force =     0.00014589    0.00019766    0.10301134
     atom   22 type  2   force =     0.00012907   -0.00115162    0.00027147
     atom   23 type  2   force =    -0.07126786    0.00094162   -0.02828721
     atom   24 type  2   force =     0.07132163    0.00133441   -0.02832229
     atom   25 type  1   force =     0.00021735    0.00038921    0.10640428
     atom   26 type  1   force =    -0.00000600    0.00253002   -0.17558111
     atom   27 type  2   force =    -0.00037818    0.00013298   -0.02787383
     atom   28 type  2   force =    -0.00096156    0.00076073    0.05165136
     atom   29 type  2   force =    -0.01302163   -0.00123267    0.00106904
     atom   30 type  2   force =     0.01546367    0.00037037    0.00295319
     atom   31 type  1   force =     0.00051829    0.00002768   -0.00002381
     atom   32 type  1   force =    -0.00040969   -0.00140623    0.00019275
     atom   33 type  2   force =    -0.00017239   -0.00031715    0.00019624
     atom   34 type  2   force =     0.00000484    0.00010595   -0.00013347
     atom   35 type  2   force =    -0.00062193   -0.00020167    0.00066898
     atom   36 type  2   force =     0.00003571   -0.00037256    0.00024628
     atom   37 type  1   force =     0.00059202    0.00026816    0.00049000
     atom   38 type  1   force =    -0.00091315    0.00015959    0.00046821
     atom   39 type  2   force =    -0.00018823    0.00063816    0.00039243
     atom   40 type  2   force =     0.00001214   -0.00051435   -0.00054120
     atom   41 type  2   force =     0.00132538    0.00006296   -0.00011912
     atom   42 type  2   force =    -0.00101574   -0.00015044    0.00025825
     atom   43 type  1   force =     0.00028139   -0.00099811    0.00002349
     atom   44 type  1   force =    -0.00024830    0.00074022   -0.00065449
     atom   45 type  2   force =     0.00012263    0.00015550    0.10328449
     atom   46 type  2   force =    -0.07119263   -0.00125871   -0.02827990
     atom   47 type  2   force =     0.07126175   -0.00086250   -0.02832099
     atom   48 type  3   force =    -0.00809977    0.00035874    0.00081322
     atom   49 type  2   force =     0.00337118    0.00003159    0.00063717
     atom   50 type  4   force =     0.00087067   -0.00041815   -0.00047397
     atom   51 type  4   force =     0.00044493    0.00016340   -0.00051736
     atom   52 type  4   force =     0.00090156   -0.00083826   -0.00124264
     atom   53 type  2   force =     0.00148940   -0.00040979    0.00080392
     atom   54 type  4   force =    -0.00019428    0.00042905    0.00010342
     atom   55 type  4   force =    -0.00144167    0.00011746   -0.00041742

     Total force =     0.367438     Total SCF correction =     0.000576
  @ DRIVER MODE: Message from server: STATUS
  @ DRIVER MODE: Message from server: GETFORCE
  @ DRIVER MODE: Returning v,forces,stress,ensemble

     Writing output data file ./calc.save/
  @ DRIVER MODE: Message from server: EXIT
  @ DRIVE MODE: Exiting

     General routines

     Parallel routines

   This run was terminated on:  16:35:12  15Sep2021

   JOB DONE.