     Program PWSCF v.6.7GPU starts on 24Aug2021 at  9:17:17

     R & G space division:  proc/nbgrp/npool/nimage =       6
     Reading input from /storage/home/hcoda1/3/ntian30/research/carbon/CH_vib/ads_slab/CHNNHHH_a/out_0039/pw.inp
Warning: card &CELL ignored
Warning: card   CELL_DYNAMICS='IPI', ignored
Warning: card / ignored

     Current dimensions of program PWSCF are:
     Max number of different atomic species (ntypx) = 10
     Max number of k-points (npk) =  40000
     Max angular momentum in pseudopotentials (lmaxx) =  3
     Presently no symmetry can be used with electric field

     Message from routine cell_base_init:
     DEPRECATED: use true lattice parameter, not A to a.u. conversion factor

     IMPORTANT: XC functional enforced from input :
     Exchange-correlation= BEEF-VDW
                           (   1   4  43  14   2   0   0)
     Any further DFT definition will be discarded
     Please, verify this is what you really want

  @ DRIVER MODE: Connecting to
 qe_1139763_2632795.sched-torque.pace.gatech.edunh6np3ym_scratch
  using UNIX socket
  @ DRIVER MODE: Message from server: STATUS
  @ DRIVER MODE: Message from server: INIT
  @ DRIVER MODE: Receiving replica           0          -1
  @ DRIVER MODE: Receiving encoded integer          25
  @ DRIVER MODE:  SCF:  T  FORCE:  T  STRESS:  F  VC:  F  ENSEMBLE:  F
  @ DRIVER MODE:  SCF:  T  FORCE:  T  STRESS:  F  VC:  F  ENSEMBLE:  F

     Using Slab Decomposition

     bravais-lattice index     =            0
     lattice parameter (alat)  =       1.8897  a.u.
     unit-cell volume          =    6658.9804 (a.u.)^3
     number of atoms/cell      =           54
     number of atomic types    =            5
     number of electrons       =       396.00
     number of Kohn-Sham states=          208
     kinetic-energy cutoff     =      29.3995  Ry
     charge density cutoff     =     293.9946  Ry
     scf convergence threshold =      7.3E-08
     mixing beta               =       0.0500
     number of iterations used =            8  plain     mixing
     Exchange-correlation= BEEF-VDW
                           (   1   4  43  14   2   0   0)

     celldm(1)=   1.889726  celldm(2)=   0.000000  celldm(3)=   0.000000
     celldm(4)=   0.000000  celldm(5)=   0.000000  celldm(6)=   0.000000

     crystal axes: (cart. coord. in units of alat)
               a(1) = (   6.579727   0.000000   0.000000 )
               a(2) = (  -0.000775   5.961596   0.000000 )
               a(3) = (   0.000000   0.000000  25.155947 )

     reciprocal axes: (cart. coord. in units 2 pi/alat)
               b(1) = (  0.151982  0.000020  0.000000 )
               b(2) = (  0.000000  0.167740  0.000000 )
               b(3) = (  0.000000  0.000000  0.039752 )

     PseudoPot. # 1 for Ti read from file:
     /storage/coda1/p-amedford6/0/shared/rich_project_chbe-medford/medford-share/data/pseudos_module/espresso/nninc/pbe/van/Ti.UPF
     MD5 check sum: 8e4df49b7f0d34bbd5052bf3f5ea0213
     Pseudo is Ultrasoft, Zval = 12.0
     Generated by new atomic code, or converted to UPF format
     Using radial grid of  851 points,  6 beta functions with:
                l(1) =   0
                l(2) =   0
                l(3) =   1
                l(4) =   1
                l(5) =   2
                l(6) =   2
     Q(r) pseudized with  8 coefficients,  rinner =    1.000   1.000   1.000
                                                       1.000   1.000

     PseudoPot. # 2 for O  read from file:
     /storage/coda1/p-amedford6/0/shared/rich_project_chbe-medford/medford-share/data/pseudos_module/espresso/nninc/pbe/van/O.UPF
     MD5 check sum: 78c19812648e8988a0fe644b0f25305e
     Pseudo is Ultrasoft, Zval =  6.0
     Generated by new atomic code, or converted to UPF format
     Using radial grid of  737 points,  4 beta functions with:
                l(1) =   0
                l(2) =   0
                l(3) =   1
                l(4) =   1
     Q(r) pseudized with  8 coefficients,  rinner =    0.800   0.800   0.800

     PseudoPot. # 3 for N  read from file:
     /storage/coda1/p-amedford6/0/shared/rich_project_chbe-medford/medford-share/data/pseudos_module/espresso/nninc/pbe/van/N.UPF
     MD5 check sum: 90d10febe142ad51ac9d5be1deb811c4
     Pseudo is Ultrasoft, Zval =  5.0
     Generated by new atomic code, or converted to UPF format
     Using radial grid of  729 points,  4 beta functions with:
                l(1) =   0
                l(2) =   0
                l(3) =   1
                l(4) =   1
     Q(r) pseudized with  8 coefficients,  rinner =    0.800   0.800   0.800

     PseudoPot. # 4 for C  read from file:
     /storage/coda1/p-amedford6/0/shared/rich_project_chbe-medford/medford-share/data/pseudos_module/espresso/nninc/pbe/van/C.UPF
     MD5 check sum: 1a69bf6b8db32088f5b2163dbdb77a27
     Pseudo is Ultrasoft, Zval =  4.0
     Generated by new atomic code, or converted to UPF format
     Using radial grid of  721 points,  4 beta functions with:
                l(1) =   0
                l(2) =   0
                l(3) =   1
                l(4) =   1
     Q(r) pseudized with  8 coefficients,  rinner =    0.800   0.800   0.800

     PseudoPot. # 5 for H  read from file:
     /storage/coda1/p-amedford6/0/shared/rich_project_chbe-medford/medford-share/data/pseudos_module/espresso/nninc/pbe/van/H.UPF
     MD5 check sum: b5ee9d7bfd3a09ee7748110bda690ff7
     Pseudo is Ultrasoft, Zval =  1.0
     Generated by new atomic code, or converted to UPF format
     Using radial grid of  615 points,  1 beta functions with:
                l(1) =   0
     Q(r) pseudized with  8 coefficients,  rinner =    0.800

     atomic species   valence    mass     pseudopotential
        Ti1           12.00    47.86700     Ti( 1.00)
        O1             6.00    15.99900     O ( 1.00)
        N1             5.00    14.00700     N ( 1.00)
        C1             4.00    12.01100     C ( 1.00)
        H1             1.00     1.00800     H ( 1.00)

     No symmetry found

   Cartesian axes

     site n.     atom                  positions (alat units)
         1           Ti1 tau(   1) = (   0.0004258   2.9801865   6.0000000  )
         2           Ti1 tau(   2) = (   3.2906075   1.4906267   6.0002472  )
         3           O1  tau(   3) = (   0.0006271   0.0005054   7.9858123  )
         4           O1  tau(   4) = (   3.2906025   0.0005020   7.3038282  )
         5           O1  tau(   5) = (   4.5942328   1.4918067   9.2879030  )
         6           O1  tau(   6) = (   1.9868534   1.4903216   9.2879459  )
         7           Ti1 tau(   7) = (   3.2907910   2.8959150   9.1758416  )
         8           Ti1 tau(   8) = (   0.0015273   1.4827037   9.2680791  )
         9           O1  tau(   9) = (   3.3116888   5.9365513  11.3741315  )
        10           O1  tau(  10) = (   0.0116148   5.9584955  10.6183126  )
        11           O1  tau(  11) = (   1.3152863   1.4773744  12.6583839  )
        12           O1  tau(  12) = (   5.3185463   1.4781915  12.6604289  )
        13           Ti1 tau(  13) = (   0.0312267   2.9553392  12.5172039  )
        14           Ti1 tau(  14) = (   3.3247105   1.4628205  12.5237724  )
        15           O1  tau(  15) = (   0.0176705   0.0150782  14.7085838  )
        16           O1  tau(  16) = (   3.3263678   5.9469243  13.9928752  )
        17           O1  tau(  17) = (   4.5829619   1.4750097  16.2211409  )
        18           O1  tau(  18) = (   2.0801478   1.4636096  16.1819230  )
        19           Ti1 tau(  19) = (   3.3264833   2.9461821  15.7545810  )
        20           Ti1 tau(  20) = (   0.0064452   1.3478264  16.0581623  )
        21           O1  tau(  21) = (   3.2904802   0.0005063   4.7018136  )
        22           O1  tau(  22) = (   0.0393124   5.8647722  17.2449945  )
        23           O1  tau(  23) = (   1.3043587   1.4918075   6.0039043  )
        24           O1  tau(  24) = (   5.2767064   1.4903225   6.0039473  )
        25           Ti1 tau(  25) = (   0.0000382   5.9609847   6.0000000  )
        26           Ti1 tau(  26) = (   3.2902200   4.4714249   6.0002472  )
        27           O1  tau(  27) = (   0.0002396   2.9813036   7.9858123  )
        28           O1  tau(  28) = (   3.2902150   2.9813002   7.3038282  )
        29           O1  tau(  29) = (   4.5938453   4.4726049   9.2879030  )
        30           O1  tau(  30) = (   1.9864658   4.4711199   9.2879459  )
        31           Ti1 tau(  31) = (   3.2891106   5.8743827   9.1763621  )
        32           Ti1 tau(  32) = (   0.0006254   4.4649316   9.2693709  )
        33           O1  tau(  33) = (   3.3126387   2.9639063  11.3704323  )
        34           O1  tau(  34) = (   0.0092240   2.9805883  10.6323155  )
        35           O1  tau(  35) = (   1.3140505   4.4512041  12.6779488  )
        36           O1  tau(  36) = (   5.3186431   4.4503656  12.6784002  )
        37           Ti1 tau(  37) = (   0.0306983   5.9434578  12.5012515  )
        38           Ti1 tau(  38) = (   3.3249252   4.4426326  12.5284913  )
        39           O1  tau(  39) = (   0.0332616   2.9308952  14.9693926  )
        40           O1  tau(  40) = (   3.3269026   2.9510973  13.9662216  )
        41           O1  tau(  41) = (   4.5816979   4.4256876  16.1885362  )
        42           O1  tau(  42) = (   2.0739833   4.4348339  16.1471384  )
        43           Ti1 tau(  43) = (   3.3139036   5.9323143  15.7909994  )
        44           Ti1 tau(  44) = (   0.0257917   4.5791344  15.8913375  )
        45           O1  tau(  45) = (   3.2900926   2.9813045   4.7018136  )
        46           O1  tau(  46) = (   1.3039711   4.4726057   6.0039043  )
        47           O1  tau(  47) = (   5.2763189   4.4711207   6.0039473  )
        48           N1  tau(  48) = (   0.2611162   2.7486399  18.0384573  )
        49           C1  tau(  49) = (   1.0666652   3.1333113  18.7681872  )
        50           H1  tau(  50) = (   1.9496291   3.4674532  19.3170853  )
        51           N1  tau(  51) = (   3.9312863   3.7371558  19.5917579  )
        52           H1  tau(  52) = (   4.2637485   4.0673035  20.4913501  )
        53           H1  tau(  53) = (   4.3024207   4.3757745  18.8906580  )
        54           H1  tau(  54) = (   4.4024832   2.8418033  19.4177320  )

     number of k points=    10  Fermi-Dirac smearing, width (Ry)=  0.0073
                       cart. coord. in units 2pi/alat
        k(    1) = (   0.0000000   0.0000000   0.0000000), wk =   0.1250000
        k(    2) = (   0.0000000   0.0419351   0.0000000), wk =   0.2500000
        k(    3) = (   0.0000000  -0.0838702   0.0000000), wk =   0.1250000
        k(    4) = (   0.0379955   0.0000049   0.0000000), wk =   0.2500000
        k(    5) = (   0.0379955   0.0419400   0.0000000), wk =   0.2500000
        k(    6) = (   0.0379955  -0.0838652   0.0000000), wk =   0.2500000
        k(    7) = (   0.0379955  -0.0419301   0.0000000), wk =   0.2500000
        k(    8) = (  -0.0759910  -0.0000099   0.0000000), wk =   0.1250000
        k(    9) = (  -0.0759910   0.0419252   0.0000000), wk =   0.2500000
        k(   10) = (  -0.0759910  -0.0838800   0.0000000), wk =   0.1250000

     Initial potential from superposition of free atoms

     starting charge  379.99915, renormalised to  396.00000

     negative rho (up, down):  1.480E-02 0.000E+00

     %%%%%%%%%%%%%%%%%%%%%%%%%%%%%%%%%%%%%%%%%%%%%%%%%%%%%%%%%%%%%%%%%%%%%%%%
     %                                                                      %
     % You are using vdW-DF, which was implemented by the Thonhauser group. %
     % Please cite the following two papers that made this development      %
     % possible and the two reviews that describe the various versions:     %
     %                                                                      %
     %   T. Thonhauser et al., PRL 115, 136402 (2015).                      %
     %   T. Thonhauser et al., PRB 76, 125112 (2007).                       %
     %   K. Berland et al., Rep. Prog. Phys. 78, 066501 (2015).             %
     %   D.C. Langreth et al., J. Phys.: Condens. Matter 21, 084203 (2009). %
     %                                                                      %
     %                                                                      %
     % If you are calculating the stress with vdW-DF, please also cite:     %
     %                                                                      %
     %   R. Sabatini et al., J. Phys.: Condens. Matter 24, 424209 (2012).   %
     %                                                                      %
     %%%%%%%%%%%%%%%%%%%%%%%%%%%%%%%%%%%%%%%%%%%%%%%%%%%%%%%%%%%%%%%%%%%%%%%%

     Adding external electric field

     Computed dipole along edir(3) :
        Dipole              -10.3171 Ry au,        -26.2235 Debye
        Dipole field         -0.0195 Ry au,

        Potential amp.        1.8048 Ry
        Total length         46.3494 bohr

     Starting wfcs are  300 atomic wfcs
  @ DRIVER MODE: Message from server: STATUS
  @ DRIVER MODE: Message from server: POSDATA
  @ DRIVER MODE: Reading and sharing cell
  @ DRIVER MODE: Reading and sharing positions
  @ DRIVER MODE: Received positions

     Self-consistent Calculation

     iteration #  1     ecut=    29.40 Ry     beta= 0.05
     Davidson diagonalization with overlap
     c_bands:  1 eigenvalues not converged
     c_bands:  2 eigenvalues not converged
     c_bands:  2 eigenvalues not converged
     c_bands:  1 eigenvalues not converged
     c_bands:  3 eigenvalues not converged
     c_bands:  2 eigenvalues not converged
     c_bands:  3 eigenvalues not converged
     c_bands:  2 eigenvalues not converged
     c_bands:  2 eigenvalues not converged
     c_bands:  2 eigenvalues not converged
     ethr =  1.00E-05,  avg # of iterations = 20.0

[...]

     total energy              =   -2522.14756922 Ry
     estimated scf accuracy    <    4678.84515120 Ry

     iteration #  2     ecut=    29.40 Ry     beta= 0.05
     Davidson diagonalization with overlap
     ethr =  1.00E-02,  avg # of iterations = 23.2

[...]

     iteration # 52     ecut=    29.40 Ry     beta= 0.05
     Davidson diagonalization with overlap
     c_bands:  1 eigenvalues not converged
     ethr =  1.25E-07,  avg # of iterations = 13.8

[...]

     total energy              =   -2940.41296095 Ry
     estimated scf accuracy    <       0.00000009 Ry

     iteration # 68     ecut=    29.40 Ry     beta= 0.05
     Davidson diagonalization with overlap
     ethr =  2.18E-11,  avg # of iterations =  4.1

     negative rho (up, down):  1.578E-02 0.000E+00

     Adding external electric field

     Computed dipole along edir(3) :
        Dipole                1.4877 Ry au,          3.7813 Debye
        Dipole field          0.0028 Ry au,

        Potential amp.       -0.2602 Ry
        Total length         46.3494 bohr

     End of self-consistent calculation

          k = 0.0000 0.0000 0.0000 ( 18029 PWs)   bands (ev):

   -55.2551 -55.2192 -55.2066 -55.1724 -55.1322 -55.1240 -55.1002 -55.0969
   -55.0727 -55.0534 -55.0384 -55.0356 -55.0019 -54.9851 -54.2345 -54.2005
   -31.8237 -31.7033 -31.6989 -31.6199 -31.5644 -31.5623 -31.5537 -31.5409
   -31.4954 -31.4827 -31.4638 -31.4606 -31.4511 -31.4263 -31.4102 -31.4057
   -31.3914 -31.3798 -31.3708 -31.3695 -31.3590 -31.3466 -31.3203 -31.3178
   -31.3100 -31.3033 -31.2752 -31.2735 -31.2638 -31.2623 -31.2539 -31.2349
   -31.2339 -31.2258 -31.2220 -31.2203 -31.1866 -31.1866 -31.1687 -31.1635
   -31.1466 -31.0950 -30.6438 -30.5498 -30.5278 -30.4603 -30.3735 -30.2625
   -16.7727 -16.0800 -15.8103 -15.6679 -15.5619 -15.4507 -15.3357 -15.3154
   -15.1785 -15.1145 -15.0900 -14.9712 -14.9205 -14.9019 -14.8875 -14.8735
   -14.8671 -14.7959 -14.7908 -14.7673 -14.7471 -14.7343 -14.6914 -14.6896
   -14.6491 -14.6283 -14.5819 -14.4928 -14.4100 -14.3407 -14.0183 -12.7372
   -12.6197  -7.9748  -5.2295  -5.0231  -4.0117  -3.4189  -3.2685  -3.1726
    -3.1463  -3.1303  -3.0009  -2.8536  -2.8438  -2.7480  -2.6393  -2.5879
    -2.5054  -2.4569  -2.4445  -2.4262  -2.2430  -2.2261  -2.1731  -2.1251
    -2.0952  -2.0593  -2.0389  -2.0197  -2.0025  -1.9932  -1.9291  -1.8155
    -1.7797  -1.7276  -1.6762  -1.6508  -1.5969  -1.5763  -1.5403  -1.5342
    -1.5338  -1.4856  -1.4595  -1.4363  -1.3591  -1.2732  -1.1587  -1.1074
    -0.9524  -0.8901  -0.8338  -0.8214  -0.7579  -0.7382  -0.7081  -0.6320
    -0.6240  -0.5914  -0.4727  -0.3778  -0.3386  -0.3230  -0.2716  -0.2354
    -0.2081  -0.1610  -0.0649  -0.0328  -0.0160  -0.0116   0.1386   0.1524
     0.2215   0.2688   0.2905   0.2912   0.4043   0.4207   0.4931   0.5301
     0.5661   0.6394   0.6793   0.6952   0.6979   0.7315   0.7354   0.8264
     0.8485   0.8569   0.9291   1.0786   1.3051   1.3530   1.3608   1.6945
     1.6962   1.7882   1.9719   2.3641   2.4123   3.8435   3.9150   3.9893
     3.9957   4.0215   4.0816   4.3232   4.3335   4.3461   4.3492   4.3906

[...]

          k = 0.0380-0.0419 0.0000 ( 17876 PWs)   bands (ev):

[...]

          k =-0.0760-0.0000 0.0000 ( 17886 PWs)   bands (ev):

[...]

          k =-0.0760-0.0839 0.0000 ( 17948 PWs)   bands (ev):

   -55.2371 -55.2369 -55.1896 -55.1893 -55.1193 -55.1186 -55.1105 -55.0974
   -55.0578 -55.0565 -55.0541 -55.0192 -55.0185 -54.9879 -54.2175 -54.2174
   -31.6274 -31.6269 -31.6264 -31.5260 -31.5141 -31.5139 -31.5134 -31.4808
   -31.4807 -31.4623 -31.4551 -31.4495 -31.4451 -31.3943 -31.3896 -31.3875
   -31.3863 -31.3862 -31.3807 -31.3751 -31.3511 -31.3476 -31.3370 -31.3280
   -31.3270 -31.3208 -31.3122 -31.3093 -31.3091 -31.3026 -31.2896 -31.2870
   -31.2821 -31.2696 -31.2670 -31.2504 -31.2489 -31.2449 -31.1998 -31.1993
   -31.1937 -31.1872 -30.5404 -30.5404 -30.4563 -30.4562 -30.4169 -30.4169
   -16.7639 -15.6123 -15.4960 -15.4549 -15.2672 -15.2587 -15.2278 -15.2157
   -15.1228 -15.0646 -15.0373 -15.0272 -15.0143 -14.9627 -14.9566 -14.9511
   -14.9296 -14.8586 -14.8501 -14.8482 -14.8311 -14.7651 -14.7603 -14.7559
   -14.7450 -14.7020 -14.6991 -14.6048 -14.6028 -14.5087 -14.3851 -12.7212
   -12.7212  -7.9715  -5.2236  -5.0346  -3.9990  -2.7973  -2.7700  -2.7227
    -2.7142  -2.6977  -2.4787  -2.4559  -2.4188  -2.3688  -2.3074  -2.2562
    -2.2479  -2.2312  -2.1641  -2.1253  -2.1088  -2.0953  -2.0770  -2.0614
    -2.0469  -2.0214  -1.9790  -1.9714  -1.9503  -1.9299  -1.9000  -1.8917
    -1.8605  -1.8396  -1.8244  -1.8070  -1.6923  -1.6685  -1.6100  -1.5708
    -1.5295  -1.4572  -1.4520  -1.3548  -1.3474  -1.2932  -1.2815  -1.2552
    -1.1623  -1.0633  -1.0012  -0.9947  -0.9883  -0.8621  -0.8239  -0.7996
    -0.7628  -0.7346  -0.6752  -0.5972  -0.5757  -0.5412  -0.4570  -0.4486
    -0.3918  -0.3086  -0.2771  -0.2468  -0.2172  -0.2097  -0.2000  -0.1466
    -0.1402  -0.0691  -0.0191   0.0142   0.0254   0.0594   0.2642   0.2808
     0.3338   0.4321   0.5049   0.6250   0.6828   0.7041   0.7753   0.8155
     0.8594   0.9219   1.0243   1.0546   1.0575   1.1323   1.1640   1.2059
     1.2099   2.1452   2.1456   2.2321   2.2324   3.9875   4.0814   4.1035
     4.1517   4.2431   4.2781   4.3611   4.3793   4.4288   4.4306   4.5004

     the Fermi energy is     3.9065 ev

!    total energy              =   -2940.41298649 Ry
     estimated scf accuracy    <       0.00000005 Ry
     smearing contrib. (-TS)   =      -0.03731451 Ry
     internal energy E=F+TS    =   -2940.37567198 Ry

     The total energy is F=E-TS. E is the sum of the following terms:
     one-electron contribution =  -23553.09777287 Ry
     hartree contribution      =   11869.23781147 Ry
     xc contribution           =    -485.96143345 Ry
     ewald contribution        =    9229.44154635 Ry
     electric field correction =       0.00417651 Ry

     convergence has been achieved in  68 iterations

     Forces acting on atoms (cartesian axes, Ry/au):

     atom    1 type  1   force =    -0.00002721   -0.00018217    0.09331677
     atom    2 type  1   force =    -0.00015036   -0.00021946   -0.17810394
     atom    3 type  2   force =     0.00006457   -0.00020822   -0.02048829
     atom    4 type  2   force =     0.00000425   -0.00194882    0.05846241
     atom    5 type  2   force =    -0.01028950   -0.00135092    0.00735713
     atom    6 type  2   force =     0.01228690   -0.00075416    0.00785090
     atom    7 type  1   force =     0.00036274    0.00278071   -0.01405921
     atom    8 type  1   force =    -0.00055770    0.00107127   -0.00335350
     atom    9 type  2   force =     0.00003961    0.00049760   -0.00008214
     atom   10 type  2   force =    -0.00055234   -0.00103374   -0.00005621
     atom   11 type  2   force =     0.00008997    0.00011317    0.00004491
     atom   12 type  2   force =    -0.00025581    0.00016369   -0.00006739
     atom   13 type  1   force =    -0.00002354    0.00089893   -0.00028900
     atom   14 type  1   force =     0.00010140    0.00024941   -0.00017635
     atom   15 type  2   force =    -0.00013473    0.00011504    0.00096735
     atom   16 type  2   force =     0.00004599    0.00011302   -0.00005291
     atom   17 type  2   force =     0.00027238   -0.00032008    0.00003519
     atom   18 type  2   force =    -0.00021828   -0.00047073   -0.00047306
     atom   19 type  1   force =    -0.00062943   -0.00018767    0.00009651
     atom   20 type  1   force =    -0.00021457    0.00070470    0.00003890
     atom   21 type  2   force =    -0.00001906    0.00000656    0.10387777
     atom   22 type  2   force =    -0.00028995   -0.00065624   -0.00102865
     atom   23 type  2   force =    -0.07044576   -0.00007896   -0.02687927
     atom   24 type  2   force =     0.07028603    0.00035521   -0.02693426
     atom   25 type  1   force =     0.00004109   -0.00005398    0.09293929
     atom   26 type  1   force =    -0.00016934   -0.00018779   -0.17814518
     atom   27 type  2   force =     0.00012364   -0.00033377   -0.01950235
     atom   28 type  2   force =     0.00003337   -0.00168020    0.05803438
     atom   29 type  2   force =    -0.01040236   -0.00125002    0.00692824
     atom   30 type  2   force =     0.01228762   -0.00092230    0.00743896
     atom   31 type  1   force =     0.00034622    0.00516800   -0.01508403
     atom   32 type  1   force =    -0.00046836   -0.00162427   -0.00358071
     atom   33 type  2   force =    -0.00019490   -0.00021677   -0.00019700
     atom   34 type  2   force =     0.00029171   -0.00052542    0.00104490
     atom   35 type  2   force =    -0.00040353    0.00005596    0.00023830
     atom   36 type  2   force =     0.00033573   -0.00002677    0.00029890
     atom   37 type  1   force =    -0.00012127   -0.00043101   -0.00005065
     atom   38 type  1   force =     0.00013469    0.00033390   -0.00030511
     atom   39 type  2   force =    -0.00034580   -0.00043124    0.00115781
     atom   40 type  2   force =     0.00006764    0.00007103   -0.00018305
     atom   41 type  2   force =    -0.00002423    0.00025670   -0.00033329
     atom   42 type  2   force =    -0.00014120    0.00001435   -0.00040416
     atom   43 type  1   force =    -0.00080661   -0.00017510    0.00008530
     atom   44 type  1   force =     0.00009484    0.00049546    0.00001473
     atom   45 type  2   force =    -0.00000967    0.00000750    0.10386206
     atom   46 type  2   force =    -0.07047220   -0.00005032   -0.02688357
     atom   47 type  2   force =     0.07029733    0.00039004   -0.02695393
     atom   48 type  3   force =     0.00008666   -0.00080622    0.00016224
     atom   49 type  4   force =    -0.00077024    0.00051604   -0.00065145
     atom   50 type  5   force =     0.00014610    0.00000080    0.00080214
     atom   51 type  3   force =     0.00475946   -0.01247247   -0.00281789
     atom   52 type  5   force =     0.00101588    0.00044797    0.00089794
     atom   53 type  5   force =     0.00074093   -0.00042514   -0.00073560
     atom   54 type  5   force =    -0.00621879    0.01419692    0.00191913

     Total force =     0.366549     Total SCF correction =     0.000507
  @ DRIVER MODE: Message from server: STATUS
  @ DRIVER MODE: Message from server: GETFORCE
  @ DRIVER MODE: Returning v,forces,stress,ensemble

     Writing output data file ./calc.save/
  @ DRIVER MODE: Message from server: EXIT
  @ DRIVE MODE: Exiting

     General routines

     Parallel routines

   This run was terminated on:   9:47:55  24Aug2021

   JOB DONE.