     Program PWSCF v.6.7GPU starts on 26Sep2021 at 13:13:48

     R & G space division:  proc/nbgrp/npool/nimage =       8
     Reading input from /storage/home/hcoda1/3/ntian30/research/carbon/CxH_vib/CH_calc/ads_slab/CHONHNH_a/out_0004/pw.inp
Warning: card &CELL ignored
Warning: card   CELL_DYNAMICS='IPI', ignored
Warning: card / ignored

     Current dimensions of program PWSCF are:
     Max number of different atomic species (ntypx) = 10
     Max number of k-points (npk) =  40000
     Max angular momentum in pseudopotentials (lmaxx) =  3
     Presently no symmetry can be used with electric field

     Message from routine cell_base_init:
     DEPRECATED: use true lattice parameter, not A to a.u. conversion factor

     IMPORTANT: XC functional enforced from input :
     Exchange-correlation= BEEF-VDW
                           (   1   4  43  14   2   0   0)
     Any further DFT definition will be discarded
     Please, verify this is what you really want

  @ DRIVER MODE: Connecting to
 qe_1139763_2982671.sched-torque.pace.gatech.edukmcf4qyf_scratch
  using UNIX socket
  @ DRIVER MODE: Message from server: STATUS
  @ DRIVER MODE: Message from server: INIT
  @ DRIVER MODE: Receiving replica           0          -1
  @ DRIVER MODE: Receiving encoded integer          25
  @ DRIVER MODE:  SCF:  T  FORCE:  T  STRESS:  F  VC:  F  ENSEMBLE:  F
  @ DRIVER MODE:  SCF:  T  FORCE:  T  STRESS:  F  VC:  F  ENSEMBLE:  F

     Using Slab Decomposition

     bravais-lattice index     =            0
     lattice parameter (alat)  =       1.8897  a.u.
     unit-cell volume          =    6658.9804 (a.u.)^3
     number of atoms/cell      =           54
     number of atomic types    =            5
     number of electrons       =       401.00
     number of Kohn-Sham states=          210
     kinetic-energy cutoff     =      29.3995  Ry
     charge density cutoff     =     293.9946  Ry
     scf convergence threshold =      7.3E-08
     mixing beta               =       0.0500
     number of iterations used =            8  plain     mixing
     Exchange-correlation= BEEF-VDW
                           (   1   4  43  14   2   0   0)

     celldm(1)=   1.889726  celldm(2)=   0.000000  celldm(3)=   0.000000
     celldm(4)=   0.000000  celldm(5)=   0.000000  celldm(6)=   0.000000

     crystal axes: (cart. coord. in units of alat)
               a(1) = (   6.579727   0.000000   0.000000 )
               a(2) = (  -0.000775   5.961596   0.000000 )
               a(3) = (   0.000000   0.000000  25.155947 )

     reciprocal axes: (cart. coord. in units 2 pi/alat)
               b(1) = (  0.151982  0.000020  0.000000 )
               b(2) = (  0.000000  0.167740  0.000000 )
               b(3) = (  0.000000  0.000000  0.039752 )

     PseudoPot. # 1 for O  read from file:
     /storage/coda1/p-amedford6/0/shared/rich_project_chbe-medford/medford-share/data/pseudos_module/espresso/nninc/pbe/van/O.UPF
     MD5 check sum: 78c19812648e8988a0fe644b0f25305e
     Pseudo is Ultrasoft, Zval =  6.0
     Generated by new atomic code, or converted to UPF format
     Using radial grid of  737 points,  4 beta functions with:
                l(1) =   0
                l(2) =   0
                l(3) =   1
                l(4) =   1
     Q(r) pseudized with  8 coefficients,  rinner =    0.800   0.800   0.800

     PseudoPot. # 2 for Ti read from file:
     /storage/coda1/p-amedford6/0/shared/rich_project_chbe-medford/medford-share/data/pseudos_module/espresso/nninc/pbe/van/Ti.UPF
     MD5 check sum: 8e4df49b7f0d34bbd5052bf3f5ea0213
     Pseudo is Ultrasoft, Zval = 12.0
     Generated by new atomic code, or converted to UPF format
     Using radial grid of  851 points,  6 beta functions with:
                l(1) =   0
                l(2) =   0
                l(3) =   1
                l(4) =   1
                l(5) =   2
                l(6) =   2
     Q(r) pseudized with  8 coefficients,  rinner =    1.000   1.000   1.000
                                                       1.000   1.000

     PseudoPot. # 3 for N  read from file:
     /storage/coda1/p-amedford6/0/shared/rich_project_chbe-medford/medford-share/data/pseudos_module/espresso/nninc/pbe/van/N.UPF
     MD5 check sum: 90d10febe142ad51ac9d5be1deb811c4
     Pseudo is Ultrasoft, Zval =  5.0
     Generated by new atomic code, or converted to UPF format
     Using radial grid of  729 points,  4 beta functions with:
                l(1) =   0
                l(2) =   0
                l(3) =   1
                l(4) =   1
     Q(r) pseudized with  8 coefficients,  rinner =    0.800   0.800   0.800

     PseudoPot. # 4 for C  read from file:
     /storage/coda1/p-amedford6/0/shared/rich_project_chbe-medford/medford-share/data/pseudos_module/espresso/nninc/pbe/van/C.UPF
     MD5 check sum: 1a69bf6b8db32088f5b2163dbdb77a27
     Pseudo is Ultrasoft, Zval =  4.0
     Generated by new atomic code, or converted to UPF format
     Using radial grid of  721 points,  4 beta functions with:
                l(1) =   0
                l(2) =   0
                l(3) =   1
                l(4) =   1
     Q(r) pseudized with  8 coefficients,  rinner =    0.800   0.800   0.800

     PseudoPot. # 5 for H  read from file:
     /storage/coda1/p-amedford6/0/shared/rich_project_chbe-medford/medford-share/data/pseudos_module/espresso/nninc/pbe/van/H.UPF
     MD5 check sum: b5ee9d7bfd3a09ee7748110bda690ff7
     Pseudo is Ultrasoft, Zval =  1.0
     Generated by new atomic code, or converted to UPF format
     Using radial grid of  615 points,  1 beta functions with:
                l(1) =   0
     Q(r) pseudized with  8 coefficients,  rinner =    0.800

     atomic species   valence    mass     pseudopotential
        O1             6.00    15.99900     O ( 1.00)
        Ti1           12.00    47.86700     Ti( 1.00)
        N1             5.00    14.00700     N ( 1.00)
        C1             4.00    12.01100     C ( 1.00)
        H1             1.00     1.00800     H ( 1.00)

     No symmetry found

   Cartesian axes

     site n.     atom                  positions (alat units)
         1           O1  tau(   1) = (   3.2904802   0.0005063   4.7018136  )
         2           O1  tau(   2) = (   3.2900926   2.9813045   4.7018136  )
         3           Ti1 tau(   3) = (   0.0004258   2.9801865   6.0000000  )
         4           Ti1 tau(   4) = (   0.0000382   5.9609847   6.0000000  )
         5           Ti1 tau(   5) = (   3.2906075   1.4906267   6.0002472  )
         6           Ti1 tau(   6) = (   3.2902200   4.4714249   6.0002472  )
         7           O1  tau(   7) = (   1.3043587   1.4918075   6.0039043  )
         8           O1  tau(   8) = (   1.3039711   4.4726057   6.0039043  )
         9           O1  tau(   9) = (   5.2767064   1.4903225   6.0039473  )
        10           O1  tau(  10) = (   5.2763189   4.4711207   6.0039473  )
        11           O1  tau(  11) = (   3.2906025   0.0005020   7.3038282  )
        12           O1  tau(  12) = (   3.2902150   2.9813002   7.3038282  )
        13           O1  tau(  13) = (   0.0006271   0.0005054   7.9858123  )
        14           O1  tau(  14) = (   0.0002396   2.9813036   7.9858123  )
        15           Ti1 tau(  15) = (   3.2907910   2.8959150   9.1758416  )
        16           Ti1 tau(  16) = (   3.2891106   5.8743827   9.1763621  )
        17           Ti1 tau(  17) = (   0.0015273   1.4827037   9.2680791  )
        18           Ti1 tau(  18) = (   0.0006254   4.4649316   9.2693709  )
        19           O1  tau(  19) = (   4.5942328   1.4918067   9.2879030  )
        20           O1  tau(  20) = (   4.5938453   4.4726049   9.2879030  )
        21           O1  tau(  21) = (   1.9868534   1.4903216   9.2879459  )
        22           O1  tau(  22) = (   1.9864658   4.4711199   9.2879459  )
        23           O1  tau(  23) = (   0.0116148   5.9584955  10.6183126  )
        24           O1  tau(  24) = (   0.0092240   2.9805883  10.6323155  )
        25           O1  tau(  25) = (   3.2531556   2.9620241  11.3322950  )
        26           O1  tau(  26) = (   3.2474763   5.9435521  11.3438280  )
        27           Ti1 tau(  27) = (   3.3237694   4.3814390  12.5572636  )
        28           Ti1 tau(  28) = (   0.0094504   0.0092305  12.5172013  )
        29           Ti1 tau(  29) = (   3.3224445   1.4452456  12.4745429  )
        30           Ti1 tau(  30) = (   0.0090234   2.9988230  12.5821063  )
        31           O1  tau(  31) = (   5.2496676   1.4726344  12.6006421  )
        32           O1  tau(  32) = (   5.2531746   4.4496067  12.6010712  )
        33           O1  tau(  33) = (   1.2410339   1.4659728  12.6671891  )
        34           O1  tau(  34) = (   1.2387123   4.4686174  12.6665250  )
        35           O1  tau(  35) = (   3.3067986   5.9564546  13.9007842  )
        36           O1  tau(  36) = (   3.2420318   3.0005841  13.9279729  )
        37           O1  tau(  37) = (   6.4209026   5.9439257  14.7021623  )
        38           O1  tau(  38) = (   6.4587925   2.9577525  14.6988961  )
        39           Ti1 tau(  39) = (   3.2423495   0.0283394  15.6829305  )
        40           Ti1 tau(  40) = (   6.4236859   1.5154006  15.7784978  )
        41           Ti1 tau(  41) = (   3.0799157   3.0146384  15.8599260  )
        42           O1  tau(  42) = (   1.9357555   1.4358950  15.9107064  )
        43           O1  tau(  43) = (   1.9271111   4.5447382  15.9660097  )
        44           Ti1 tau(  44) = (   6.4519450   4.6669281  16.1370820  )
        45           O1  tau(  45) = (   4.4443926   1.5071054  16.1134243  )
        46           O1  tau(  46) = (   4.4397279   4.4733020  16.1527106  )
        47           O1  tau(  47) = (   6.5167551   0.0277669  17.2715591  )
        48           N1  tau(  48) = (   0.3759035   2.6195042  18.6336219  )
        49           C1  tau(  49) = (   2.8136782   2.9081565  18.1516972  )
        50           H1  tau(  50) = (   0.1656462   1.5987175  18.7006542  )
        51           N1  tau(  51) = (   1.8163940   2.6652851  18.9293397  )
        52           H1  tau(  52) = (   3.7261332   2.9868749  18.7514029  )
        53           H1  tau(  53) = (   1.8928842   2.5952305  19.9427491  )
        54           O1  tau(  54) = (   0.0982553   2.9165792  17.3165359  )

     number of k points=    10  Fermi-Dirac smearing, width (Ry)=  0.0073
                       cart. coord. in units 2pi/alat
        k(    1) = (   0.0000000   0.0000000   0.0000000), wk =   0.1250000
        k(    2) = (   0.0000000   0.0419351   0.0000000), wk =   0.2500000
        k(    3) = (   0.0000000  -0.0838702   0.0000000), wk =   0.1250000
        k(    4) = (   0.0379955   0.0000049   0.0000000), wk =   0.2500000
        k(    5) = (   0.0379955   0.0419400   0.0000000), wk =   0.2500000
        k(    6) = (   0.0379955  -0.0838652   0.0000000), wk =   0.2500000
        k(    7) = (   0.0379955  -0.0419301   0.0000000), wk =   0.2500000
        k(    8) = (  -0.0759910  -0.0000099   0.0000000), wk =   0.1250000
        k(    9) = (  -0.0759910   0.0419252   0.0000000), wk =   0.2500000
        k(   10) = (  -0.0759910  -0.0838800   0.0000000), wk =   0.1250000

     Initial potential from superposition of free atoms

     starting charge  384.99916, renormalised to  401.00000

     negative rho (up, down):  1.631E-02 0.000E+00

     %%%%%%%%%%%%%%%%%%%%%%%%%%%%%%%%%%%%%%%%%%%%%%%%%%%%%%%%%%%%%%%%%%%%%%%%
     %                                                                      %
     % You are using vdW-DF, which was implemented by the Thonhauser group. %
     % Please cite the following two papers that made this development      %
     % possible and the two reviews that describe the various versions:     %
     %                                                                      %
     %   T. Thonhauser et al., PRL 115, 136402 (2015).                      %
     %   T. Thonhauser et al., PRB 76, 125112 (2007).                       %
     %   K. Berland et al., Rep. Prog. Phys. 78, 066501 (2015).             %
     %   D.C. Langreth et al., J. Phys.: Condens. Matter 21, 084203 (2009). %
     %                                                                      %
     %                                                                      %
     % If you are calculating the stress with vdW-DF, please also cite:     %
     %                                                                      %
     %   R. Sabatini et al., J. Phys.: Condens. Matter 24, 424209 (2012).   %
     %                                                                      %
     %%%%%%%%%%%%%%%%%%%%%%%%%%%%%%%%%%%%%%%%%%%%%%%%%%%%%%%%%%%%%%%%%%%%%%%%

     Adding external electric field

     Computed dipole along edir(3) :
        Dipole              -11.6315 Ry au,        -29.5642 Debye
        Dipole field         -0.0220 Ry au,

        Potential amp.        2.0347 Ry
        Total length         46.3494 bohr

     Starting wfcs are  303 atomic wfcs
  @ DRIVER MODE: Message from server: STATUS
  @ DRIVER MODE: Message from server: POSDATA
  @ DRIVER MODE: Reading and sharing cell
  @ DRIVER MODE: Reading and sharing positions
  @ DRIVER MODE: Received positions

     Self-consistent Calculation

     iteration #  1     ecut=    29.40 Ry     beta= 0.05
     Davidson diagonalization with overlap
     c_bands:  3 eigenvalues not converged
     c_bands:  3 eigenvalues not converged
     c_bands:  5 eigenvalues not converged
     c_bands:  4 eigenvalues not converged
     c_bands:  4 eigenvalues not converged
     c_bands:  3 eigenvalues not converged
     c_bands:  1 eigenvalues not converged
     c_bands:  3 eigenvalues not converged
     ethr =  1.00E-05,  avg # of iterations = 22.1

[...]

     total energy              =   -2394.32132509 Ry
     estimated scf accuracy    <    6495.11505456 Ry

     iteration #  2     ecut=    29.40 Ry     beta= 0.05
     Davidson diagonalization with overlap
     ethr =  1.00E-02,  avg # of iterations = 24.6

[...]

     iteration # 67     ecut=    29.40 Ry     beta= 0.05
     Davidson diagonalization with overlap
     c_bands:  2 eigenvalues not converged
     ethr =  1.88E-11,  avg # of iterations = 14.9

[...]

     total energy              =   -2971.36018725 Ry
     estimated scf accuracy    <       0.00000016 Ry

     iteration # 68     ecut=    29.40 Ry     beta= 0.05
     Davidson diagonalization with overlap
     ethr =  1.88E-11,  avg # of iterations = 10.2

     negative rho (up, down):  1.695E-02 0.000E+00

     Adding external electric field

     Computed dipole along edir(3) :
        Dipole                1.3740 Ry au,          3.4924 Debye
        Dipole field          0.0026 Ry au,

        Potential amp.       -0.2404 Ry
        Total length         46.3494 bohr

     End of self-consistent calculation

          k = 0.0000 0.0000 0.0000 ( 18029 PWs)   bands (ev):

   -55.3649 -55.3308 -55.2854 -55.2409 -55.2350 -55.2251 -55.1976 -55.1860
   -55.1521 -55.1438 -55.1313 -55.1085 -55.0365 -54.9966 -54.3444 -54.3103
   -31.8493 -31.8099 -31.7336 -31.6864 -31.6810 -31.6567 -31.6341 -31.6102
   -31.6015 -31.5703 -31.5420 -31.5172 -31.5038 -31.4972 -31.4711 -31.4680
   -31.4641 -31.4502 -31.4385 -31.4221 -31.4038 -31.4002 -31.3949 -31.3833
   -31.3795 -31.3788 -31.3747 -31.3654 -31.3432 -31.3421 -31.3351 -31.3257
   -31.3248 -31.3165 -31.2981 -31.2951 -31.2877 -31.2566 -31.2374 -31.2260
   -31.2108 -31.1811 -30.7512 -30.6634 -30.6410 -30.5683 -30.4819 -30.3704
   -20.2161 -17.3550 -16.0559 -15.8438 -15.6394 -15.5306 -15.4823 -15.2498
   -15.1324 -15.1028 -15.0161 -14.9451 -14.9290 -14.9047 -14.8937 -14.8749
   -14.8161 -14.8038 -14.7927 -14.7892 -14.7609 -14.7401 -14.7170 -14.7041
   -14.5834 -14.5699 -14.5410 -14.5088 -14.4866 -14.4257 -14.1685 -12.8453
   -12.7288 -12.7077  -9.0434  -7.2074  -5.7102  -4.9628  -3.4284  -3.3149
    -3.2866  -3.2714  -3.1870  -3.1460  -3.0232  -2.8074  -2.6596  -2.5590
    -2.5343  -2.4540  -2.3839  -2.3600  -2.3167  -2.2614  -2.2067  -2.1606
    -2.1361  -2.1116  -2.1034  -2.0978  -2.0044  -1.9854  -1.9449  -1.8944
    -1.8580  -1.7614  -1.7445  -1.6876  -1.6797  -1.6384  -1.6280  -1.6189
    -1.6100  -1.5915  -1.5082  -1.4926  -1.4451  -1.3681  -1.1775  -1.1248
    -1.0263  -0.9729  -0.8697  -0.8449  -0.8028  -0.7727  -0.7663  -0.7579
    -0.7117  -0.6180  -0.5751  -0.5230  -0.4616  -0.3839  -0.3149  -0.2751
    -0.1645  -0.1507  -0.1239  -0.1161  -0.0849   0.0581   0.1162   0.1662
     0.1911   0.2288   0.2952   0.3554   0.3697   0.4163   0.4395   0.5048
     0.5412   0.5606   0.5806   0.6086   0.6222   0.6510   0.6665   0.7156
     0.8409   0.8516   0.8998   0.9426   1.0043   1.1200   1.1278   1.2885
     1.3737   1.5547   1.6174   1.6795   1.7412   1.8711   2.2492   2.2949
     3.7407   3.8557   3.8879   3.9160   3.9996   4.0387   4.2091   4.2740
     4.2970   4.3353

[...]

          k = 0.0380-0.0419 0.0000 ( 17876 PWs)   bands (ev):

[...]

          k =-0.0760-0.0000 0.0000 ( 17886 PWs)   bands (ev):

[...]

          k =-0.0760-0.0839 0.0000 ( 17948 PWs)   bands (ev):

   -55.3480 -55.3475 -55.2794 -55.2324 -55.2322 -55.2307 -55.2062 -55.1691
   -55.1686 -55.1340 -55.1314 -55.1210 -55.0287 -55.0043 -54.3274 -54.3272
   -31.6647 -31.6643 -31.6512 -31.6424 -31.6419 -31.5922 -31.5694 -31.5505
   -31.5431 -31.5271 -31.5071 -31.4966 -31.4938 -31.4870 -31.4811 -31.4734
   -31.4675 -31.4673 -31.4646 -31.4610 -31.4573 -31.4408 -31.4392 -31.4319
   -31.4229 -31.4172 -31.4054 -31.3854 -31.3727 -31.3707 -31.3583 -31.3480
   -31.3475 -31.3448 -31.3428 -31.3418 -31.3387 -31.3334 -31.2647 -31.2514
   -31.2331 -31.2125 -30.6538 -30.6537 -30.5640 -30.5638 -30.5252 -30.5251
   -20.2111 -17.3524 -15.4877 -15.3752 -15.3716 -15.3047 -15.2510 -15.1792
   -15.1298 -15.0993 -15.0601 -15.0419 -15.0154 -14.9739 -14.9338 -14.9225
   -14.8977 -14.8889 -14.8674 -14.8235 -14.8146 -14.8068 -14.8005 -14.7738
   -14.7335 -14.7069 -14.6849 -14.6804 -14.6509 -14.5139 -14.3687 -12.8307
   -12.8306 -12.7124  -9.0372  -7.1485  -5.7211  -4.9834  -3.3260  -2.7526
    -2.6618  -2.5755  -2.5047  -2.4329  -2.3938  -2.3715  -2.3133  -2.3083
    -2.2784  -2.2193  -2.2000  -2.1840  -2.1685  -2.1382  -2.1302  -2.1080
    -2.0979  -2.0917  -2.0495  -2.0465  -2.0216  -2.0198  -1.9953  -1.9864
    -1.9569  -1.9282  -1.9074  -1.8693  -1.8243  -1.7234  -1.6387  -1.5672
    -1.5133  -1.5021  -1.4929  -1.4381  -1.4208  -1.3890  -1.3611  -1.3260
    -1.1925  -1.0529  -1.0418  -1.0082  -0.9426  -0.9115  -0.8738  -0.8517
    -0.7760  -0.7597  -0.7265  -0.6991  -0.6290  -0.5380  -0.4932  -0.4516
    -0.4225  -0.3664  -0.3387  -0.3191  -0.3020  -0.2882  -0.2533  -0.1853
    -0.1427  -0.1190  -0.0867  -0.0605  -0.0386  -0.0123   0.1582   0.1763
     0.2747   0.3429   0.3995   0.5365   0.6378   0.6764   0.7184   0.7776
     0.8453   0.8975   0.9312   0.9488   0.9669   1.0313   1.0869   1.1533
     1.1690   1.2016   1.2799   1.4411   2.0431   2.0455   2.1149   2.1151
     4.1119   4.1604   4.1845   4.1953   4.2628   4.2869   4.3041   4.3076
     4.4124   4.4326

     the Fermi energy is     3.7610 ev

!    total energy              =   -2971.36021932 Ry
     estimated scf accuracy    <       0.00000003 Ry
     smearing contrib. (-TS)   =      -0.02057452 Ry
     internal energy E=F+TS    =   -2971.33964480 Ry

     The total energy is F=E-TS. E is the sum of the following terms:
     one-electron contribution =  -24168.77863080 Ry
     hartree contribution      =   12180.02288935 Ry
     xc contribution           =    -492.42470821 Ry
     ewald contribution        =    9509.83724201 Ry
     electric field correction =       0.00356285 Ry

     convergence has been achieved in  68 iterations

     Forces acting on atoms (cartesian axes, Ry/au):

     atom    1 type  1   force =     0.00007469   -0.00011842    0.10310094
     atom    2 type  1   force =     0.00007691   -0.00010327    0.10314943
     atom    3 type  2   force =     0.00002349   -0.00020383    0.09528211
     atom    4 type  2   force =     0.00007728   -0.00049879    0.09487110
     atom    5 type  2   force =    -0.00020964   -0.00070811   -0.17563161
     atom    6 type  2   force =    -0.00004863   -0.00023922   -0.17575648
     atom    7 type  1   force =    -0.07168771   -0.00018579   -0.02756948
     atom    8 type  1   force =    -0.07167316   -0.00021236   -0.02749729
     atom    9 type  1   force =     0.07155616    0.00025866   -0.02757091
     atom   10 type  1   force =     0.07152701    0.00026273   -0.02754848
     atom   11 type  1   force =    -0.00007761   -0.00143944    0.05242303
     atom   12 type  1   force =    -0.00000238   -0.00150116    0.05288199
     atom   13 type  1   force =    -0.00013097   -0.00017679   -0.02268398
     atom   14 type  1   force =    -0.00005781   -0.00029268   -0.02180989
     atom   15 type  2   force =    -0.00221906    0.00205983   -0.00872524
     atom   16 type  2   force =    -0.00226355    0.00206967   -0.00152984
     atom   17 type  2   force =     0.00140211    0.00933091    0.01491670
     atom   18 type  2   force =     0.00155498   -0.01043339    0.01568745
     atom   19 type  1   force =    -0.01011403   -0.00094571    0.00484871
     atom   20 type  1   force =    -0.01049650   -0.00075617    0.00459498
     atom   21 type  1   force =     0.01028655   -0.00001163    0.00094342
     atom   22 type  1   force =     0.01056932   -0.00053668    0.00076081
     atom   23 type  1   force =    -0.00214308    0.00037388   -0.01185552
     atom   24 type  1   force =    -0.00061514   -0.00078555   -0.01485637
     atom   25 type  1   force =     0.00002677    0.00040476   -0.00000026
     atom   26 type  1   force =     0.00010734   -0.00026397   -0.00044903
     atom   27 type  2   force =     0.00053080   -0.00012110   -0.00071965
     atom   28 type  2   force =    -0.00021202   -0.00019035   -0.00004969
     atom   29 type  2   force =     0.00019964    0.00076994    0.00012214
     atom   30 type  2   force =    -0.00030872   -0.00028707   -0.00001623
     atom   31 type  1   force =     0.00024064    0.00057113    0.00025808
     atom   32 type  1   force =    -0.00064040    0.00047016    0.00004561
     atom   33 type  1   force =     0.00044326    0.00052187    0.00011623
     atom   34 type  1   force =     0.00071954    0.00023262   -0.00015309
     atom   35 type  1   force =    -0.00009535   -0.00034773   -0.00001761
     atom   36 type  1   force =     0.00081292    0.00057688   -0.00074302
     atom   37 type  1   force =     0.00038894    0.00037731    0.00024015
     atom   38 type  1   force =     0.00057496    0.00069581    0.00069172
     atom   39 type  2   force =     0.00039796   -0.00022414   -0.00023925
     atom   40 type  2   force =    -0.00021232   -0.00053434   -0.00006064
     atom   41 type  2   force =     0.00061252    0.00023889    0.00023879
     atom   42 type  1   force =     0.00033746    0.00016195    0.00004308
     atom   43 type  1   force =     0.00032728    0.00017815    0.00017048
     atom   44 type  2   force =    -0.00030938    0.00063973   -0.00056176
     atom   45 type  1   force =     0.00013940   -0.00004976   -0.00054103
     atom   46 type  1   force =     0.00016604    0.00069666    0.00019315
     atom   47 type  1   force =    -0.00024580    0.00069811    0.00025128
     atom   48 type  3   force =    -0.00462420   -0.01813211    0.00288270
     atom   49 type  4   force =     0.00033122   -0.00034714    0.00046110
     atom   50 type  5   force =     0.00175087    0.01326442    0.00017329
     atom   51 type  3   force =     0.00176841    0.00267113   -0.00200919
     atom   52 type  5   force =     0.00152743   -0.00054706    0.00070174
     atom   53 type  5   force =    -0.00055122   -0.00010113    0.00114869
     atom   54 type  1   force =     0.00038678    0.00276966   -0.00260336

     Total force =     0.365195     Total SCF correction =     0.000529
  @ DRIVER MODE: Message from server: STATUS
  @ DRIVER MODE: Message from server: GETFORCE
  @ DRIVER MODE: Returning v,forces,stress,ensemble

     Writing output data file ./calc.save/
  @ DRIVER MODE: Message from server: EXIT
  @ DRIVE MODE: Exiting

     General routines

     Parallel routines

   This run was terminated on:  13:43:17  26Sep2021

   JOB DONE.