     Program PWSCF v.6.7GPU starts on  9Sep2021 at 20:48: 1

     R & G space division:  proc/nbgrp/npool/nimage =      10
     Reading input from /storage/home/hcoda1/3/ntian30/research/carbon/CxH_vib/CH3_calc/ads_slab/CH3N2H2O_e/out_0001/pw.inp
Warning: card &CELL ignored
Warning: card   CELL_DYNAMICS='IPI', ignored
Warning: card / ignored

     Current dimensions of program PWSCF are:
     Max number of different atomic species (ntypx) = 10
     Max number of k-points (npk) =  40000
     Max angular momentum in pseudopotentials (lmaxx) =  3
     Presently no symmetry can be used with electric field

     Message from routine cell_base_init:
     DEPRECATED: use true lattice parameter, not A to a.u. conversion factor

     IMPORTANT: XC functional enforced from input :
     Exchange-correlation= BEEF-VDW
                           (   1   4  43  14   2   0   0)
     Any further DFT definition will be discarded
     Please, verify this is what you really want

  @ DRIVER MODE: Connecting to
 qe_1139763_2779715.sched-torque.pace.gatech.edu3ct820x3_scratch
  using UNIX socket
  @ DRIVER MODE: Message from server: STATUS
  @ DRIVER MODE: Message from server: INIT
  @ DRIVER MODE: Receiving replica           0          -1
  @ DRIVER MODE: Receiving encoded integer          25
  @ DRIVER MODE:  SCF:  T  FORCE:  T  STRESS:  F  VC:  F  ENSEMBLE:  F
  @ DRIVER MODE:  SCF:  T  FORCE:  T  STRESS:  F  VC:  F  ENSEMBLE:  F

     Using Slab Decomposition

     bravais-lattice index     =            0
     lattice parameter (alat)  =       1.8897  a.u.
     unit-cell volume          =    6658.9804 (a.u.)^3
     number of atoms/cell      =           56
     number of atomic types    =            5
     number of electrons       =       403.00
     number of Kohn-Sham states=          211
     kinetic-energy cutoff     =      29.3995  Ry
     charge density cutoff     =     293.9946  Ry
     scf convergence threshold =      7.3E-08
     mixing beta               =       0.0500
     number of iterations used =            8  plain     mixing
     Exchange-correlation= BEEF-VDW
                           (   1   4  43  14   2   0   0)

     celldm(1)=   1.889726  celldm(2)=   0.000000  celldm(3)=   0.000000
     celldm(4)=   0.000000  celldm(5)=   0.000000  celldm(6)=   0.000000

     crystal axes: (cart. coord. in units of alat)
               a(1) = (   6.579727   0.000000   0.000000 )
               a(2) = (  -0.000775   5.961596   0.000000 )
               a(3) = (   0.000000   0.000000  25.155947 )

     reciprocal axes: (cart. coord. in units 2 pi/alat)
               b(1) = (  0.151982  0.000020  0.000000 )
               b(2) = (  0.000000  0.167740  0.000000 )
               b(3) = (  0.000000  0.000000  0.039752 )

     PseudoPot. # 1 for Ti read from file:
     /storage/coda1/p-amedford6/0/shared/rich_project_chbe-medford/medford-share/data/pseudos_module/espresso/nninc/pbe/van/Ti.UPF
     MD5 check sum: 8e4df49b7f0d34bbd5052bf3f5ea0213
     Pseudo is Ultrasoft, Zval = 12.0
     Generated by new atomic code, or converted to UPF format
     Using radial grid of  851 points,  6 beta functions with:
                l(1) =   0
                l(2) =   0
                l(3) =   1
                l(4) =   1
                l(5) =   2
                l(6) =   2
     Q(r) pseudized with  8 coefficients,  rinner =    1.000   1.000   1.000
                                                       1.000   1.000

     PseudoPot. # 2 for O  read from file:
     /storage/coda1/p-amedford6/0/shared/rich_project_chbe-medford/medford-share/data/pseudos_module/espresso/nninc/pbe/van/O.UPF
     MD5 check sum: 78c19812648e8988a0fe644b0f25305e
     Pseudo is Ultrasoft, Zval =  6.0
     Generated by new atomic code, or converted to UPF format
     Using radial grid of  737 points,  4 beta functions with:
                l(1) =   0
                l(2) =   0
                l(3) =   1
                l(4) =   1
     Q(r) pseudized with  8 coefficients,  rinner =    0.800   0.800   0.800

     PseudoPot. # 3 for N  read from file:
     /storage/coda1/p-amedford6/0/shared/rich_project_chbe-medford/medford-share/data/pseudos_module/espresso/nninc/pbe/van/N.UPF
     MD5 check sum: 90d10febe142ad51ac9d5be1deb811c4
     Pseudo is Ultrasoft, Zval =  5.0
     Generated by new atomic code, or converted to UPF format
     Using radial grid of  729 points,  4 beta functions with:
                l(1) =   0
                l(2) =   0
                l(3) =   1
                l(4) =   1
     Q(r) pseudized with  8 coefficients,  rinner =    0.800   0.800   0.800

     PseudoPot. # 4 for C  read from file:
     /storage/coda1/p-amedford6/0/shared/rich_project_chbe-medford/medford-share/data/pseudos_module/espresso/nninc/pbe/van/C.UPF
     MD5 check sum: 1a69bf6b8db32088f5b2163dbdb77a27
     Pseudo is Ultrasoft, Zval =  4.0
     Generated by new atomic code, or converted to UPF format
     Using radial grid of  721 points,  4 beta functions with:
                l(1) =   0
                l(2) =   0
                l(3) =   1
                l(4) =   1
     Q(r) pseudized with  8 coefficients,  rinner =    0.800   0.800   0.800

     PseudoPot. # 5 for H  read from file:
     /storage/coda1/p-amedford6/0/shared/rich_project_chbe-medford/medford-share/data/pseudos_module/espresso/nninc/pbe/van/H.UPF
     MD5 check sum: b5ee9d7bfd3a09ee7748110bda690ff7
     Pseudo is Ultrasoft, Zval =  1.0
     Generated by new atomic code, or converted to UPF format
     Using radial grid of  615 points,  1 beta functions with:
                l(1) =   0
     Q(r) pseudized with  8 coefficients,  rinner =    0.800

     atomic species   valence    mass     pseudopotential
        Ti1           12.00    47.86700     Ti( 1.00)
        O1             6.00    15.99900     O ( 1.00)
        N1             5.00    14.00700     N ( 1.00)
        C1             4.00    12.01100     C ( 1.00)
        H1             1.00     1.00800     H ( 1.00)

     No symmetry found

   Cartesian axes

     site n.     atom                  positions (alat units)
         1           Ti1 tau(   1) = (   0.0004258   2.9801865   6.0000000  )
         2           Ti1 tau(   2) = (   3.2906075   1.4906267   6.0002472  )
         3           O1  tau(   3) = (   0.0006271   0.0005054   7.9858123  )
         4           O1  tau(   4) = (   3.2906025   0.0005020   7.3038282  )
         5           O1  tau(   5) = (   4.5942328   1.4918067   9.2879030  )
         6           O1  tau(   6) = (   1.9868534   1.4903216   9.2879459  )
         7           Ti1 tau(   7) = (   3.2907910   2.8959150   9.1758416  )
         8           Ti1 tau(   8) = (   0.0015273   1.4827037   9.2680791  )
         9           O1  tau(   9) = (   3.2823942   0.0140684  11.3428430  )
        10           O1  tau(  10) = (   0.0116148   5.9584955  10.6183126  )
        11           O1  tau(  11) = (   1.2742013   1.4978990  12.6323156  )
        12           O1  tau(  12) = (   5.2614901   1.5083079  12.6129891  )
        13           Ti1 tau(  13) = (   0.0550148   2.9595524  12.6160221  )
        14           Ti1 tau(  14) = (   3.3718896   1.5084997  12.4944496  )
        15           O1  tau(  15) = (   6.5380961   0.0278828  14.6255036  )
        16           O1  tau(  16) = (   3.2758616   0.0189586  13.9121306  )
        17           O1  tau(  17) = (   4.4976875   1.5333668  16.0433440  )
        18           O1  tau(  18) = (   1.9922867   1.5271532  16.0291573  )
        19           Ti1 tau(  19) = (   3.1858679   3.0241111  15.7732818  )
        20           Ti1 tau(  20) = (   6.4842391   1.5502874  15.8011710  )
        21           O1  tau(  21) = (   3.2904802   0.0005063   4.7018136  )
        22           O1  tau(  22) = (   6.5196731   0.0665875  17.1891134  )
        23           O1  tau(  23) = (   1.3043587   1.4918075   6.0039043  )
        24           O1  tau(  24) = (   5.2767064   1.4903225   6.0039473  )
        25           Ti1 tau(  25) = (   0.0000382   5.9609847   6.0000000  )
        26           Ti1 tau(  26) = (   3.2902200   4.4714249   6.0002472  )
        27           O1  tau(  27) = (   0.0002396   2.9813036   7.9858123  )
        28           O1  tau(  28) = (   3.2902150   2.9813002   7.3038282  )
        29           O1  tau(  29) = (   4.5938453   4.4726049   9.2879030  )
        30           O1  tau(  30) = (   1.9864658   4.4711199   9.2879459  )
        31           Ti1 tau(  31) = (   3.2891106   5.8743827   9.1763621  )
        32           Ti1 tau(  32) = (   0.0006254   4.4649316   9.2693709  )
        33           O1  tau(  33) = (   3.2807012   2.9937711  11.3380227  )
        34           O1  tau(  34) = (   0.0092240   2.9805883  10.6323155  )
        35           O1  tau(  35) = (   1.2734598   4.4826339  12.6318047  )
        36           O1  tau(  36) = (   5.2665626   4.4910389  12.6093644  )
        37           Ti1 tau(  37) = (   0.0550181   5.9329888  12.5453996  )
        38           Ti1 tau(  38) = (   3.3741151   4.4737790  12.4977360  )
        39           O1  tau(  39) = (   6.5373474   2.9946220  14.6524478  )
        40           O1  tau(  40) = (   3.2677173   3.0168568  13.9399215  )
        41           O1  tau(  41) = (   4.4884636   4.5316779  16.1079578  )
        42           O1  tau(  42) = (   1.9830865   4.5332738  16.0531499  )
        43           Ti1 tau(  43) = (   3.2469912   0.0413792  15.7000251  )
        44           Ti1 tau(  44) = (   6.5198411   4.7064707  16.0702691  )
        45           O1  tau(  45) = (   3.2900926   2.9813045   4.7018136  )
        46           O1  tau(  46) = (   1.3039711   4.4726057   6.0039043  )
        47           O1  tau(  47) = (   5.2763189   4.4711207   6.0039473  )
        48           N1  tau(  48) = (   0.0843371   2.6987919  18.6315974  )
        49           N1  tau(  49) = (   6.5718678   2.9345059  17.4339123  )
        50           C1  tau(  50) = (   0.1779456   3.8407003  19.5793842  )
        51           H1  tau(  51) = (   6.4148796   4.7858965  19.1557567  )
        52           H1  tau(  52) = (   6.1971438   3.5603257  20.4715321  )
        53           H1  tau(  53) = (   1.2306852   3.9282498  19.8556806  )
        54           O1  tau(  54) = (   3.3096034   3.0730741  18.2289406  )
        55           H1  tau(  55) = (   4.0988663   3.6297178  18.3192648  )
        56           H1  tau(  56) = (   3.5789210   2.1977314  18.5501991  )

     number of k points=    10  Fermi-Dirac smearing, width (Ry)=  0.0073
                       cart. coord. in units 2pi/alat
        k(    1) = (   0.0000000   0.0000000   0.0000000), wk =   0.1250000
        k(    2) = (   0.0000000   0.0419351   0.0000000), wk =   0.2500000
        k(    3) = (   0.0000000  -0.0838702   0.0000000), wk =   0.1250000
        k(    4) = (   0.0379955   0.0000049   0.0000000), wk =   0.2500000
        k(    5) = (   0.0379955   0.0419400   0.0000000), wk =   0.2500000
        k(    6) = (   0.0379955  -0.0838652   0.0000000), wk =   0.2500000
        k(    7) = (   0.0379955  -0.0419301   0.0000000), wk =   0.2500000
        k(    8) = (  -0.0759910  -0.0000099   0.0000000), wk =   0.1250000
        k(    9) = (  -0.0759910   0.0419252   0.0000000), wk =   0.2500000
        k(   10) = (  -0.0759910  -0.0838800   0.0000000), wk =   0.1250000

     Initial potential from superposition of free atoms

     starting charge  386.99914, renormalised to  403.00000

     negative rho (up, down):  1.477E-02 0.000E+00

     %%%%%%%%%%%%%%%%%%%%%%%%%%%%%%%%%%%%%%%%%%%%%%%%%%%%%%%%%%%%%%%%%%%%%%%%
     %                                                                      %
     % You are using vdW-DF, which was implemented by the Thonhauser group. %
     % Please cite the following two papers that made this development      %
     % possible and the two reviews that describe the various versions:     %
     %                                                                      %
     %   T. Thonhauser et al., PRL 115, 136402 (2015).                      %
     %   T. Thonhauser et al., PRB 76, 125112 (2007).                       %
     %   K. Berland et al., Rep. Prog. Phys. 78, 066501 (2015).             %
     %   D.C. Langreth et al., J. Phys.: Condens. Matter 21, 084203 (2009). %
     %                                                                      %
     %                                                                      %
     % If you are calculating the stress with vdW-DF, please also cite:     %
     %                                                                      %
     %   R. Sabatini et al., J. Phys.: Condens. Matter 24, 424209 (2012).   %
     %                                                                      %
     %%%%%%%%%%%%%%%%%%%%%%%%%%%%%%%%%%%%%%%%%%%%%%%%%%%%%%%%%%%%%%%%%%%%%%%%

     Adding external electric field

     Computed dipole along edir(3) :
        Dipole              -13.2300 Ry au,        -33.6274 Debye
        Dipole field         -0.0250 Ry au,

        Potential amp.        2.3144 Ry
        Total length         46.3494 bohr

     Starting wfcs are  305 atomic wfcs
  @ DRIVER MODE: Message from server: STATUS
  @ DRIVER MODE: Message from server: POSDATA
  @ DRIVER MODE: Reading and sharing cell
  @ DRIVER MODE: Reading and sharing positions
  @ DRIVER MODE: Received positions

     Self-consistent Calculation

     iteration #  1     ecut=    29.40 Ry     beta= 0.05
     Davidson diagonalization with overlap
     c_bands:  5 eigenvalues not converged
     c_bands:  2 eigenvalues not converged
     c_bands:  5 eigenvalues not converged
     c_bands:  5 eigenvalues not converged
     c_bands:  1 eigenvalues not converged
     c_bands:  1 eigenvalues not converged
     c_bands:  4 eigenvalues not converged
     c_bands:  2 eigenvalues not converged
     c_bands:  3 eigenvalues not converged
     ethr =  1.00E-05,  avg # of iterations = 26.9

[...]

     total energy              =   -2368.24355740 Ry
     estimated scf accuracy    <    6911.23867030 Ry

     iteration #  2     ecut=    29.40 Ry     beta= 0.05
     Davidson diagonalization with overlap
     ethr =  1.00E-02,  avg # of iterations = 22.4

[...]

     iteration # 67     ecut=    29.40 Ry     beta= 0.05
     Davidson diagonalization with overlap
     c_bands:  1 eigenvalues not converged
     ethr =  2.28E-09,  avg # of iterations = 11.1

[...]

     total energy              =   -2973.98647197 Ry
     estimated scf accuracy    <       0.00000008 Ry

     iteration # 78     ecut=    29.40 Ry     beta= 0.05
     Davidson diagonalization with overlap
     ethr =  1.97E-11,  avg # of iterations =  6.4

     negative rho (up, down):  1.505E-02 0.000E+00

     Adding external electric field

     Computed dipole along edir(3) :
        Dipole                0.9039 Ry au,          2.2975 Debye
        Dipole field          0.0017 Ry au,

        Potential amp.       -0.1581 Ry
        Total length         46.3494 bohr

     End of self-consistent calculation

          k = 0.0000 0.0000 0.0000 ( 18029 PWs)   bands (ev):

   -55.6044 -55.5703 -55.5685 -55.5327 -55.4999 -55.4497 -55.4398 -55.4157
   -55.4034 -55.3817 -55.3802 -55.3461 -55.0098 -54.8380 -54.5840 -54.5500
   -32.1134 -32.0870 -31.9602 -31.9438 -31.9143 -31.8973 -31.8825 -31.8699
   -31.8476 -31.8076 -31.7998 -31.7689 -31.7566 -31.7472 -31.7387 -31.7287
   -31.7089 -31.6995 -31.6971 -31.6616 -31.6575 -31.6471 -31.6342 -31.6086
   -31.6042 -31.5994 -31.5941 -31.5871 -31.5796 -31.5702 -31.5556 -31.5554
   -31.5466 -31.5330 -31.5224 -31.5100 -31.4919 -31.2870 -31.2005 -31.0986
   -31.0938 -31.0571 -30.9912 -30.9026 -30.8802 -30.8079 -30.7214 -30.6104
   -19.0403 -18.3145 -16.3190 -16.0780 -15.8759 -15.7609 -15.7200 -15.5275
   -15.4295 -15.3309 -15.2341 -15.1657 -15.1426 -15.1353 -15.1316 -15.1059
   -15.0807 -15.0693 -15.0479 -15.0314 -15.0166 -14.9569 -14.9433 -14.9343
   -14.8448 -14.7900 -14.7555 -14.7366 -14.6790 -14.6604 -14.1786 -13.0863
   -12.9698 -11.2862  -6.8784  -6.7277  -4.1995  -4.0599  -3.8040  -3.6893
    -3.5575  -3.5103  -3.4491  -3.4190  -3.2221  -3.1027  -3.0270  -2.8448
    -2.7876  -2.7600  -2.7304  -2.6589  -2.5228  -2.4725  -2.4207  -2.4150
    -2.4033  -2.3715  -2.3668  -2.3458  -2.2464  -2.2430  -2.1928  -2.1515
    -2.0806  -2.0025  -1.9834  -1.9362  -1.9174  -1.9051  -1.8770  -1.8540
    -1.8432  -1.8082  -1.7953  -1.7224  -1.6201  -1.5514  -1.5009  -1.4678
    -1.3989  -1.3860  -1.2190  -1.1542  -1.1094  -1.0727  -1.0539  -1.0334
    -0.9996  -0.9921  -0.8830  -0.7587  -0.7546  -0.6750  -0.6143  -0.5362
    -0.5277  -0.4499  -0.3933  -0.3748  -0.3625  -0.3515  -0.3237  -0.2495
    -0.1041  -0.0607  -0.0364  -0.0010   0.0283   0.0940   0.1375   0.2070
     0.2417   0.2829   0.3180   0.3420   0.3663   0.3739   0.3892   0.4013
     0.4205   0.6030   0.6630   0.6840   0.7492   0.7787   0.9216   0.9880
     1.0520   1.1587   1.3635   1.4382   1.5291   1.6304   2.0097   2.0555
     2.7740   3.5299   3.6148   3.6616   3.7036   3.7762   3.7939   3.9664
     3.9854   4.0282   4.1185

[...]

          k = 0.0380-0.0419 0.0000 ( 17876 PWs)   bands (ev):

[...]

          k =-0.0760-0.0000 0.0000 ( 17886 PWs)   bands (ev):

[...]

          k =-0.0760-0.0839 0.0000 ( 17948 PWs)   bands (ev):

   -55.5877 -55.5869 -55.5516 -55.5494 -55.4931 -55.4564 -55.4275 -55.4157
   -55.3993 -55.3976 -55.3660 -55.3605 -55.0082 -54.8395 -54.5670 -54.5668
   -31.9275 -31.9121 -31.9025 -31.9020 -31.8830 -31.8823 -31.8522 -31.8178
   -31.7954 -31.7917 -31.7827 -31.7626 -31.7597 -31.7407 -31.7193 -31.7147
   -31.7128 -31.7081 -31.7073 -31.7064 -31.7055 -31.7034 -31.6991 -31.6597
   -31.6484 -31.6353 -31.6252 -31.6116 -31.5990 -31.5982 -31.5963 -31.5888
   -31.5800 -31.5764 -31.5695 -31.5659 -31.4275 -31.2887 -31.2059 -31.1548
   -31.0998 -31.0830 -30.8930 -30.8928 -30.8041 -30.8039 -30.7647 -30.7646
   -19.0353 -18.3163 -15.7654 -15.6835 -15.5611 -15.5225 -15.4789 -15.4350
   -15.4150 -15.3219 -15.3022 -15.2928 -15.2413 -15.2270 -15.2048 -15.1611
   -15.1387 -15.1294 -15.1253 -15.0896 -15.0612 -15.0445 -15.0410 -15.0353
   -14.9729 -14.9241 -14.9220 -14.9172 -14.7904 -14.6615 -14.3572 -13.0716
   -13.0716 -11.2839  -6.8800  -6.7403  -4.1286  -3.8659  -3.7838  -3.2823
    -3.0503  -2.8890  -2.8189  -2.7286  -2.6992  -2.6918  -2.5483  -2.5158
    -2.4861  -2.4384  -2.4337  -2.4297  -2.4224  -2.4067  -2.4001  -2.3834
    -2.3322  -2.3195  -2.2951  -2.2820  -2.2745  -2.2570  -2.2352  -2.2250
    -2.2031  -2.1690  -2.1547  -2.1192  -2.1130  -2.0226  -1.8374  -1.8267
    -1.7802  -1.7471  -1.7329  -1.7079  -1.6708  -1.6573  -1.6492  -1.5975
    -1.4761  -1.4333  -1.3450  -1.2971  -1.2799  -1.2285  -1.1635  -1.1393
    -1.0692  -1.0249  -0.9882  -0.9658  -0.9429  -0.7986  -0.7864  -0.7330
    -0.7196  -0.6823  -0.6350  -0.5766  -0.5644  -0.5542  -0.5382  -0.5043
    -0.4357  -0.3666  -0.3550  -0.3267  -0.2756  -0.2592  -0.2157  -0.1279
    -0.1077  -0.0714   0.0266   0.1288   0.2204   0.3550   0.4408   0.4640
     0.5203   0.5974   0.6954   0.7052   0.7136   0.7498   0.7736   0.8339
     0.9274   0.9474   0.9744   1.0971   1.8017   1.8024   1.8751   1.8753
     2.8155   3.7907   3.8507   3.8963   3.9153   4.0078   4.0410   4.0629
     4.0654   4.1124   4.2023

     the Fermi energy is     3.5290 ev

!    total energy              =   -2973.98648297 Ry
     estimated scf accuracy    <       0.00000004 Ry
     smearing contrib. (-TS)   =      -0.02192394 Ry
     internal energy E=F+TS    =   -2973.96455903 Ry

     The total energy is F=E-TS. E is the sum of the following terms:
     one-electron contribution =  -23875.33265250 Ry
     hartree contribution      =   12032.11615437 Ry
     xc contribution           =    -494.08359148 Ry
     ewald contribution        =    9363.33398869 Ry
     electric field correction =       0.00154189 Ry

     convergence has been achieved in  78 iterations

     Forces acting on atoms (cartesian axes, Ry/au):

     atom    1 type  1   force =     0.00006762   -0.00017290    0.09643602
     atom    2 type  1   force =    -0.00015027   -0.00064117   -0.17546565
     atom    3 type  2   force =    -0.00003312    0.00002113   -0.02464322
     atom    4 type  2   force =     0.00005855   -0.00136705    0.05309721
     atom    5 type  2   force =    -0.01208901    0.00003739    0.00386658
     atom    6 type  2   force =     0.01330655    0.00071385    0.00206921
     atom    7 type  1   force =    -0.00148761    0.00063289   -0.01048461
     atom    8 type  1   force =     0.00072004    0.00972766    0.02662369
     atom    9 type  2   force =    -0.00040689    0.00009027   -0.00033198
     atom   10 type  2   force =    -0.00180508    0.00306570   -0.01774053
     atom   11 type  2   force =    -0.00014637   -0.00022676    0.00011307
     atom   12 type  2   force =    -0.00017530   -0.00029584   -0.00029689
     atom   13 type  1   force =    -0.00021619   -0.00021616   -0.00008035
     atom   14 type  1   force =    -0.00036571   -0.00017620   -0.00035962
     atom   15 type  2   force =     0.00004641   -0.00089383    0.00024334
     atom   16 type  2   force =     0.00006203    0.00015572   -0.00000933
     atom   17 type  2   force =    -0.00011839   -0.00058667    0.00013349
     atom   18 type  2   force =     0.00011701   -0.00037861    0.00047984
     atom   19 type  1   force =     0.00039260   -0.00016300   -0.00004428
     atom   20 type  1   force =     0.00029999   -0.00079306    0.00002591
     atom   21 type  2   force =     0.00008255   -0.00004682    0.10325468
     atom   22 type  2   force =     0.00050141   -0.00047827   -0.00030292
     atom   23 type  2   force =    -0.07148608   -0.00008571   -0.02774280
     atom   24 type  2   force =     0.07142369    0.00030042   -0.02774427
     atom   25 type  1   force =     0.00008018   -0.00029069    0.09590376
     atom   26 type  1   force =    -0.00024793   -0.00023359   -0.17572711
     atom   27 type  2   force =     0.00006780   -0.00008923   -0.02366629
     atom   28 type  2   force =     0.00006252   -0.00118781    0.05338219
     atom   29 type  2   force =    -0.01232320    0.00061812    0.00390470
     atom   30 type  2   force =     0.01348046    0.00110283    0.00207099
     atom   31 type  1   force =    -0.00130240    0.00372923   -0.00845921
     atom   32 type  1   force =     0.00084881   -0.01167493    0.02705141
     atom   33 type  2   force =    -0.00002223    0.00013260   -0.00011618
     atom   34 type  2   force =    -0.00128839    0.00169170   -0.02365005
     atom   35 type  2   force =    -0.00023950   -0.00003111    0.00004273
     atom   36 type  2   force =     0.00003864   -0.00002677    0.00017398
     atom   37 type  1   force =     0.00000969   -0.00019594    0.00016845
     atom   38 type  1   force =    -0.00056555   -0.00028464    0.00053786
     atom   39 type  2   force =     0.00017285   -0.00059568    0.00047960
     atom   40 type  2   force =    -0.00002073   -0.00009546    0.00018694
     atom   41 type  2   force =     0.00031530   -0.00056997   -0.00024760
     atom   42 type  2   force =     0.00030082   -0.00031349   -0.00054532
     atom   43 type  1   force =     0.00072787   -0.00042479    0.00018665
     atom   44 type  1   force =     0.00019348   -0.00017709   -0.00088547
     atom   45 type  2   force =     0.00008970   -0.00005683    0.10323865
     atom   46 type  2   force =    -0.07147718   -0.00007507   -0.02774470
     atom   47 type  2   force =     0.07142395    0.00035964   -0.02776126
     atom   48 type  3   force =     0.00173915   -0.00095013    0.00304578
     atom   49 type  3   force =    -0.00055418    0.00107237   -0.00230464
     atom   50 type  4   force =    -0.00223782    0.00121568   -0.00009430
     atom   51 type  5   force =     0.00155902   -0.00053384    0.00047184
     atom   52 type  5   force =     0.00031067    0.00062337   -0.00012101
     atom   53 type  5   force =     0.00000863   -0.00082986   -0.00035611
     atom   54 type  2   force =    -0.00072082   -0.00112297   -0.00009569
     atom   55 type  5   force =     0.00033740    0.00026280    0.00032276
     atom   56 type  5   force =     0.00063456    0.00072853   -0.00048996

     Total force =     0.367874     Total SCF correction =     0.000422
  @ DRIVER MODE: Message from server: STATUS
  @ DRIVER MODE: Message from server: GETFORCE
  @ DRIVER MODE: Returning v,forces,stress,ensemble

     Writing output data file ./calc.save/
  @ DRIVER MODE: Message from server: EXIT
  @ DRIVE MODE: Exiting

     General routines

     Parallel routines

   This run was terminated on:  21: 9:10   9Sep2021

   JOB DONE.