     Program PWSCF v.6.7GPU starts on 23Sep2021 at 13:23:44

     R & G space division:  proc/nbgrp/npool/nimage =      10
     Reading input from /storage/home/hcoda1/3/ntian30/research/carbon/CxH_vib/H2O_calc/ads_slab/CH3NNH3HO_a/out_0062/pw.inp
Warning: card &CELL ignored
Warning: card   CELL_DYNAMICS='IPI', ignored
Warning: card / ignored

     Current dimensions of program PWSCF are:
     Max number of different atomic species (ntypx) = 10
     Max number of k-points (npk) =  40000
     Max angular momentum in pseudopotentials (lmaxx) =  3
     Presently no symmetry can be used with electric field

     Message from routine cell_base_init:
     DEPRECATED: use true lattice parameter, not A to a.u. conversion factor

     IMPORTANT: XC functional enforced from input :
     Exchange-correlation= BEEF-VDW
                           (   1   4  43  14   2   0   0)
     Any further DFT definition will be discarded
     Please, verify this is what you really want

  @ DRIVER MODE: Connecting to
 qe_1139763_2937318.sched-torque.pace.gatech.edudu7luv5p_scratch
  using UNIX socket
  @ DRIVER MODE: Message from server: STATUS
  @ DRIVER MODE: Message from server: INIT
  @ DRIVER MODE: Receiving replica           0          -1
  @ DRIVER MODE: Receiving encoded integer          25
  @ DRIVER MODE:  SCF:  T  FORCE:  T  STRESS:  F  VC:  F  ENSEMBLE:  F
  @ DRIVER MODE:  SCF:  T  FORCE:  T  STRESS:  F  VC:  F  ENSEMBLE:  F

     Using Slab Decomposition

     bravais-lattice index     =            0
     lattice parameter (alat)  =       1.8897  a.u.
     unit-cell volume          =    6658.9804 (a.u.)^3
     number of atoms/cell      =           58
     number of atomic types    =            5
     number of electrons       =       405.00
     number of Kohn-Sham states=          212
     kinetic-energy cutoff     =      29.3995  Ry
     charge density cutoff     =     293.9946  Ry
     scf convergence threshold =      7.3E-08
     mixing beta               =       0.0500
     number of iterations used =            8  plain     mixing
     Exchange-correlation= BEEF-VDW
                           (   1   4  43  14   2   0   0)

     celldm(1)=   1.889726  celldm(2)=   0.000000  celldm(3)=   0.000000
     celldm(4)=   0.000000  celldm(5)=   0.000000  celldm(6)=   0.000000

     crystal axes: (cart. coord. in units of alat)
               a(1) = (   6.579727   0.000000   0.000000 )
               a(2) = (  -0.000775   5.961596   0.000000 )
               a(3) = (   0.000000   0.000000  25.155947 )

     reciprocal axes: (cart. coord. in units 2 pi/alat)
               b(1) = (  0.151982  0.000020  0.000000 )
               b(2) = (  0.000000  0.167740  0.000000 )
               b(3) = (  0.000000  0.000000  0.039752 )

     PseudoPot. # 1 for Ti read from file:
     /storage/coda1/p-amedford6/0/shared/rich_project_chbe-medford/medford-share/data/pseudos_module/espresso/nninc/pbe/van/Ti.UPF
     MD5 check sum: 8e4df49b7f0d34bbd5052bf3f5ea0213
     Pseudo is Ultrasoft, Zval = 12.0
     Generated by new atomic code, or converted to UPF format
     Using radial grid of  851 points,  6 beta functions with:
                l(1) =   0
                l(2) =   0
                l(3) =   1
                l(4) =   1
                l(5) =   2
                l(6) =   2
     Q(r) pseudized with  8 coefficients,  rinner =    1.000   1.000   1.000
                                                       1.000   1.000

     PseudoPot. # 2 for O  read from file:
     /storage/coda1/p-amedford6/0/shared/rich_project_chbe-medford/medford-share/data/pseudos_module/espresso/nninc/pbe/van/O.UPF
     MD5 check sum: 78c19812648e8988a0fe644b0f25305e
     Pseudo is Ultrasoft, Zval =  6.0
     Generated by new atomic code, or converted to UPF format
     Using radial grid of  737 points,  4 beta functions with:
                l(1) =   0
                l(2) =   0
                l(3) =   1
                l(4) =   1
     Q(r) pseudized with  8 coefficients,  rinner =    0.800   0.800   0.800

     PseudoPot. # 3 for N  read from file:
     /storage/coda1/p-amedford6/0/shared/rich_project_chbe-medford/medford-share/data/pseudos_module/espresso/nninc/pbe/van/N.UPF
     MD5 check sum: 90d10febe142ad51ac9d5be1deb811c4
     Pseudo is Ultrasoft, Zval =  5.0
     Generated by new atomic code, or converted to UPF format
     Using radial grid of  729 points,  4 beta functions with:
                l(1) =   0
                l(2) =   0
                l(3) =   1
                l(4) =   1
     Q(r) pseudized with  8 coefficients,  rinner =    0.800   0.800   0.800

     PseudoPot. # 4 for C  read from file:
     /storage/coda1/p-amedford6/0/shared/rich_project_chbe-medford/medford-share/data/pseudos_module/espresso/nninc/pbe/van/C.UPF
     MD5 check sum: 1a69bf6b8db32088f5b2163dbdb77a27
     Pseudo is Ultrasoft, Zval =  4.0
     Generated by new atomic code, or converted to UPF format
     Using radial grid of  721 points,  4 beta functions with:
                l(1) =   0
                l(2) =   0
                l(3) =   1
                l(4) =   1
     Q(r) pseudized with  8 coefficients,  rinner =    0.800   0.800   0.800

     PseudoPot. # 5 for H  read from file:
     /storage/coda1/p-amedford6/0/shared/rich_project_chbe-medford/medford-share/data/pseudos_module/espresso/nninc/pbe/van/H.UPF
     MD5 check sum: b5ee9d7bfd3a09ee7748110bda690ff7
     Pseudo is Ultrasoft, Zval =  1.0
     Generated by new atomic code, or converted to UPF format
     Using radial grid of  615 points,  1 beta functions with:
                l(1) =   0
     Q(r) pseudized with  8 coefficients,  rinner =    0.800

     atomic species   valence    mass     pseudopotential
        Ti1           12.00    47.86700     Ti( 1.00)
        O1             6.00    15.99900     O ( 1.00)
        N1             5.00    14.00700     N ( 1.00)
        C1             4.00    12.01100     C ( 1.00)
        H1             1.00     1.00800     H ( 1.00)

     No symmetry found

   Cartesian axes

     site n.     atom                  positions (alat units)
         1           Ti1 tau(   1) = (   0.0004258   2.9801865   6.0000000  )
         2           Ti1 tau(   2) = (   3.2906075   1.4906267   6.0002472  )
         3           O1  tau(   3) = (   0.0006271   0.0005054   7.9858123  )
         4           O1  tau(   4) = (   3.2906025   0.0005020   7.3038282  )
         5           O1  tau(   5) = (   4.5942328   1.4918067   9.2879030  )
         6           O1  tau(   6) = (   1.9868534   1.4903216   9.2879459  )
         7           Ti1 tau(   7) = (   3.2907910   2.8959150   9.1758416  )
         8           Ti1 tau(   8) = (   0.0015273   1.4827037   9.2680791  )
         9           O1  tau(   9) = (   3.2949357   5.9297256  11.2770696  )
        10           O1  tau(  10) = (   0.0116148   5.9584955  10.6183126  )
        11           O1  tau(  11) = (   1.2901270   1.4659759  12.6218969  )
        12           O1  tau(  12) = (   5.3029181   1.4690452  12.6271982  )
        13           Ti1 tau(  13) = (   6.5637346   3.0486055  12.7052252  )
        14           Ti1 tau(  14) = (   3.3207578   1.2909511  12.6638180  )
        15           O1  tau(  15) = (   0.0081040   5.9567798  14.6379979  )
        16           O1  tau(  16) = (   3.2944190   0.0149942  13.8863584  )
        17           O1  tau(  17) = (   4.5334936   1.5584448  16.0391558  )
        18           O1  tau(  18) = (   2.0244848   1.5379376  16.0854781  )
        19           Ti1 tau(  19) = (   3.2579824   3.0118882  15.6538344  )
        20           Ti1 tau(  20) = (   6.4918182   1.5199401  15.8876453  )
        21           O1  tau(  21) = (   3.2904802   0.0005063   4.7018136  )
        22           O1  tau(  22) = (   6.5166677   0.0216046  17.1949088  )
        23           O1  tau(  23) = (   1.3043587   1.4918075   6.0039043  )
        24           O1  tau(  24) = (   5.2767064   1.4903225   6.0039473  )
        25           Ti1 tau(  25) = (   0.0000382   5.9609847   6.0000000  )
        26           Ti1 tau(  26) = (   3.2902200   4.4714249   6.0002472  )
        27           O1  tau(  27) = (   0.0002396   2.9813036   7.9858123  )
        28           O1  tau(  28) = (   3.2902150   2.9813002   7.3038282  )
        29           O1  tau(  29) = (   4.5938453   4.4726049   9.2879030  )
        30           O1  tau(  30) = (   1.9864658   4.4711199   9.2879459  )
        31           Ti1 tau(  31) = (   3.2891106   5.8743827   9.1763621  )
        32           Ti1 tau(  32) = (   0.0006254   4.4649316   9.2693709  )
        33           O1  tau(  33) = (   3.2959121   3.0085915  11.2438341  )
        34           O1  tau(  34) = (   0.0092240   2.9805883  10.6323155  )
        35           O1  tau(  35) = (   1.2849535   4.4488585  12.6204231  )
        36           O1  tau(  36) = (   5.2878833   4.4365118  12.6243745  )
        37           Ti1 tau(  37) = (   0.0500071   0.0677371  12.6535751  )
        38           Ti1 tau(  38) = (   3.3027700   4.3871210  12.4110406  )
        39           O1  tau(  39) = (   6.5685058   2.9535060  14.6525041  )
        40           O1  tau(  40) = (   3.2696111   2.9719761  13.8704823  )
        41           O1  tau(  41) = (   4.5209813   4.4409030  16.0696701  )
        42           O1  tau(  42) = (   2.0131998   4.4599944  16.0916020  )
        43           Ti1 tau(  43) = (   3.2138439   0.0230873  16.3295100  )
        44           Ti1 tau(  44) = (   6.5234412   4.6200706  16.0754176  )
        45           O1  tau(  45) = (   3.2900926   2.9813045   4.7018136  )
        46           O1  tau(  46) = (   1.3039711   4.4726057   6.0039043  )
        47           O1  tau(  47) = (   5.2763189   4.4711207   6.0039473  )
        48           N1  tau(  48) = (   0.0251376   2.9556585  17.3246074  )
        49           N1  tau(  49) = (   6.3772498   2.5461882  22.2688425  )
        50           C1  tau(  50) = (   0.2111848   2.8484408  18.7116211  )
        51           H1  tau(  51) = (   0.3920758   3.8074029  19.2116250  )
        52           H1  tau(  52) = (   5.9044209   2.3708277  19.1722604  )
        53           H1  tau(  53) = (   1.0233575   2.1342068  18.9364007  )
        54           H1  tau(  54) = (   6.0930523   3.2289774  22.9628454  )
        55           H1  tau(  55) = (   0.2277240   1.7755739  22.7685771  )
        56           H1  tau(  56) = (   0.5282093   2.9785696  21.7129995  )
        57           O1  tau(  57) = (   3.3838229   0.0530270  18.1522483  )
        58           H1  tau(  58) = (   4.2818821   5.8932998  18.5223319  )

     number of k points=    10  Fermi-Dirac smearing, width (Ry)=  0.0073
                       cart. coord. in units 2pi/alat
        k(    1) = (   0.0000000   0.0000000   0.0000000), wk =   0.1250000
        k(    2) = (   0.0000000   0.0419351   0.0000000), wk =   0.2500000
        k(    3) = (   0.0000000  -0.0838702   0.0000000), wk =   0.1250000
        k(    4) = (   0.0379955   0.0000049   0.0000000), wk =   0.2500000
        k(    5) = (   0.0379955   0.0419400   0.0000000), wk =   0.2500000
        k(    6) = (   0.0379955  -0.0838652   0.0000000), wk =   0.2500000
        k(    7) = (   0.0379955  -0.0419301   0.0000000), wk =   0.2500000
        k(    8) = (  -0.0759910  -0.0000099   0.0000000), wk =   0.1250000
        k(    9) = (  -0.0759910   0.0419252   0.0000000), wk =   0.2500000
        k(   10) = (  -0.0759910  -0.0838800   0.0000000), wk =   0.1250000

     Initial potential from superposition of free atoms

     starting charge  388.99913, renormalised to  405.00000

     negative rho (up, down):  7.828E-03 0.000E+00

     %%%%%%%%%%%%%%%%%%%%%%%%%%%%%%%%%%%%%%%%%%%%%%%%%%%%%%%%%%%%%%%%%%%%%%%%
     %                                                                      %
     % You are using vdW-DF, which was implemented by the Thonhauser group. %
     % Please cite the following two papers that made this development      %
     % possible and the two reviews that describe the various versions:     %
     %                                                                      %
     %   T. Thonhauser et al., PRL 115, 136402 (2015).                      %
     %   T. Thonhauser et al., PRB 76, 125112 (2007).                       %
     %   K. Berland et al., Rep. Prog. Phys. 78, 066501 (2015).             %
     %   D.C. Langreth et al., J. Phys.: Condens. Matter 21, 084203 (2009). %
     %                                                                      %
     %                                                                      %
     % If you are calculating the stress with vdW-DF, please also cite:     %
     %                                                                      %
     %   R. Sabatini et al., J. Phys.: Condens. Matter 24, 424209 (2012).   %
     %                                                                      %
     %%%%%%%%%%%%%%%%%%%%%%%%%%%%%%%%%%%%%%%%%%%%%%%%%%%%%%%%%%%%%%%%%%%%%%%%

     Adding external electric field

     Computed dipole along edir(3) :
        Dipole              -15.1933 Ry au,        -38.6176 Debye
        Dipole field         -0.0287 Ry au,

        Potential amp.        2.6578 Ry
        Total length         46.3494 bohr

     Starting wfcs are  307 atomic wfcs
  @ DRIVER MODE: Message from server: STATUS
  @ DRIVER MODE: Message from server: POSDATA
  @ DRIVER MODE: Reading and sharing cell
  @ DRIVER MODE: Reading and sharing positions
  @ DRIVER MODE: Received positions

     Self-consistent Calculation

     iteration #  1     ecut=    29.40 Ry     beta= 0.05
     Davidson diagonalization with overlap
     c_bands:  4 eigenvalues not converged
     c_bands:  1 eigenvalues not converged
     c_bands:  1 eigenvalues not converged
     c_bands:  2 eigenvalues not converged
     c_bands:  1 eigenvalues not converged
     c_bands:  2 eigenvalues not converged
     ethr =  1.00E-05,  avg # of iterations = 31.5

[...]

     total energy              =   -2294.95101320 Ry
     estimated scf accuracy    <    7745.18068396 Ry

     iteration #  2     ecut=    29.40 Ry     beta= 0.05
     Davidson diagonalization with overlap
     ethr =  1.00E-02,  avg # of iterations = 23.1

[...]

     iteration # 51     ecut=    29.40 Ry     beta= 0.05
     Davidson diagonalization with overlap
     c_bands:  2 eigenvalues not converged
     ethr =  1.60E-05,  avg # of iterations =  9.3

[...]

     total energy              =   -2976.42342301 Ry
     estimated scf accuracy    <       0.00000022 Ry

     iteration # 84     ecut=    29.40 Ry     beta= 0.05
     Davidson diagonalization with overlap
     ethr =  3.26E-11,  avg # of iterations =  5.7

     negative rho (up, down):  9.591E-03 0.000E+00

     Adding external electric field

     Computed dipole along edir(3) :
        Dipole                0.6341 Ry au,          1.6117 Debye
        Dipole field          0.0012 Ry au,

        Potential amp.       -0.1109 Ry
        Total length         46.3494 bohr

     End of self-consistent calculation

          k = 0.0000 0.0000 0.0000 ( 18029 PWs)   bands (ev):

   -56.5656 -56.5321 -55.6411 -55.6060 -55.4253 -55.3587 -55.2275 -55.1166
   -55.0827 -55.0351 -55.0028 -54.9687 -54.9105 -54.8174 -54.7453 -54.6145
   -32.9844 -32.8361 -32.8080 -32.7450 -32.6548 -32.6114 -32.1229 -31.9001
   -31.8614 -31.8399 -31.7853 -31.7775 -31.7522 -31.6586 -31.6383 -31.5937
   -31.5618 -31.5439 -31.5221 -31.5100 -31.5020 -31.4942 -31.4636 -31.4594
   -31.4391 -31.4202 -31.3549 -31.3206 -31.2984 -31.2931 -31.2403 -31.2327
   -31.2154 -31.1931 -31.1815 -31.1661 -31.1591 -31.1289 -31.1234 -31.0915
   -31.0475 -31.0028 -31.0020 -30.9804 -30.9475 -30.8887 -30.8518 -30.8014
   -16.6689 -16.1099 -16.0340 -15.8821 -15.7595 -15.7539 -15.7110 -15.6406
   -15.4731 -15.4034 -15.3755 -15.3147 -15.1706 -15.0548 -14.9576 -14.7783
   -14.7042 -14.6986 -14.6800 -14.6721 -14.6557 -14.6349 -14.5760 -14.5172
   -14.4750 -14.4101 -14.3660 -14.2205 -14.0212 -13.9948 -13.9519 -13.6141
   -13.5072 -13.5030  -7.7382  -4.2443  -4.0318  -4.0127  -3.6675  -3.5774
    -3.4048  -3.2523  -3.2027  -3.1437  -3.0843  -3.0748  -2.9273  -2.9255
    -2.9138  -2.9066  -2.8288  -2.7702  -2.7053  -2.6183  -2.6028  -2.5081
    -2.4614  -2.3021  -2.2762  -2.1752  -2.1031  -2.0975  -2.0314  -2.0085
    -1.9613  -1.9162  -1.9067  -1.8721  -1.8285  -1.7817  -1.7634  -1.6520
    -1.6439  -1.5794  -1.5733  -1.5501  -1.4366  -1.4168  -1.3468  -1.2021
    -1.1805  -1.1772  -1.1299  -1.1126  -1.0309  -0.9352  -0.8673  -0.8410
    -0.7850  -0.6962  -0.6494  -0.6273  -0.5552  -0.5361  -0.4619  -0.4175
    -0.4053  -0.3849  -0.3417  -0.2284  -0.1415  -0.1087  -0.0548  -0.0295
     0.0032   0.0304   0.0489   0.0978   0.1680   0.2531   0.2746   0.4134
     0.4655   0.5029   0.5779   0.6121   0.6186   0.7083   0.7392   0.7688
     0.8152   0.8899   0.9046   0.9062   0.9645   1.0485   1.1027   1.1563
     1.1673   1.2037   1.2112   1.2630   1.3508   1.3716   1.4409   1.4959
     1.8195   1.8821   2.4841   2.7288   2.9003   3.1771   3.3692   3.6727
     3.7322   3.7327   4.0383   4.1538

[...]

          k = 0.0380-0.0419 0.0000 ( 17876 PWs)   bands (ev):

[...]

          k =-0.0760-0.0000 0.0000 ( 17886 PWs)   bands (ev):

[...]

          k =-0.0760-0.0839 0.0000 ( 17948 PWs)   bands (ev):

   -56.5495 -56.5481 -55.6287 -55.6183 -55.4206 -55.3633 -55.2266 -55.1002
   -55.0990 -55.0302 -55.0035 -54.9733 -54.9089 -54.8159 -54.7469 -54.6158
   -32.8226 -32.8211 -32.8023 -32.8009 -32.6991 -32.6980 -31.9474 -31.9382
   -31.8232 -31.8179 -31.8120 -31.8103 -31.7200 -31.6772 -31.6519 -31.6388
   -31.5891 -31.5874 -31.4987 -31.4718 -31.4615 -31.4526 -31.4517 -31.3686
   -31.3500 -31.3203 -31.3189 -31.3014 -31.2940 -31.2841 -31.2805 -31.2800
   -31.2517 -31.2328 -31.2145 -31.2000 -31.1964 -31.1582 -31.1579 -31.1019
   -31.0905 -31.0505 -31.0063 -30.9956 -30.9600 -30.9522 -30.8539 -30.8369
   -16.0273 -16.0254 -16.0185 -15.9819 -15.9804 -15.7186 -15.7141 -15.4637
   -15.4343 -15.2549 -15.1511 -15.1271 -15.0836 -15.0419 -14.9711 -14.9165
   -14.8867 -14.8546 -14.8283 -14.7667 -14.7368 -14.6325 -14.5998 -14.5524
   -14.5162 -14.4542 -14.4132 -14.3639 -14.1786 -14.1327 -13.9512 -13.6117
   -13.6112 -13.5279  -7.7373  -4.0425  -4.0128  -3.6588  -3.1575  -3.1033
    -3.0989  -3.0664  -3.0592  -2.9744  -2.8527  -2.8496  -2.7549  -2.6473
    -2.6209  -2.5980  -2.5374  -2.5281  -2.4279  -2.3782  -2.3734  -2.3590
    -2.3226  -2.2931  -2.2866  -2.2267  -2.0884  -2.0723  -2.0230  -1.9689
    -1.8945  -1.8860  -1.8767  -1.8396  -1.7981  -1.7729  -1.7617  -1.7346
    -1.7299  -1.7254  -1.6156  -1.5107  -1.4636  -1.3702  -1.3659  -1.3570
    -1.3193  -1.2919  -1.2587  -1.2522  -1.2235  -1.1433  -1.1171  -1.0472
    -0.9331  -0.9158  -0.8739  -0.8257  -0.7220  -0.7038  -0.6137  -0.5777
    -0.5661  -0.5074  -0.4777  -0.4614  -0.4030  -0.3634  -0.2318  -0.1927
    -0.1813  -0.1642  -0.1418  -0.1059  -0.0446   0.0168   0.0488   0.0510
     0.1553   0.2550   0.3421   0.4120   0.4215   0.4444   0.5311   0.6386
     0.6787   0.7026   0.7508   0.8736   0.9921   1.0215   1.1269   1.1526
     1.1619   1.2633   1.2812   1.2863   1.3063   1.3155   1.3505   1.4169
     1.4778   1.7641   2.3174   3.3213   3.3245   3.3827   3.3883   3.6990
     3.7014   3.8126   3.8176   4.1358

     the Fermi energy is     2.3941 ev

!    total energy              =   -2976.42344471 Ry
     estimated scf accuracy    <       0.00000006 Ry
     smearing contrib. (-TS)   =      -0.01083986 Ry
     internal energy E=F+TS    =   -2976.41260485 Ry

     The total energy is F=E-TS. E is the sum of the following terms:
     one-electron contribution =  -22707.44480351 Ry
     hartree contribution      =   11450.07951499 Ry
     xc contribution           =    -495.33534702 Ry
     ewald contribution        =    8776.28727192 Ry
     electric field correction =       0.00075878 Ry

     convergence has been achieved in  84 iterations

     Forces acting on atoms (cartesian axes, Ry/au):

     atom    1 type  1   force =     0.00001989   -0.00052192    0.12631545
     atom    2 type  1   force =    -0.00009639    0.00041185   -0.15467682
     atom    3 type  2   force =     0.00002650    0.00002660   -0.06830012
     atom    4 type  2   force =     0.00005834   -0.00010895    0.01704647
     atom    5 type  2   force =    -0.00487141   -0.00242627   -0.01324703
     atom    6 type  2   force =     0.00655415   -0.00180449   -0.01376405
     atom    7 type  1   force =    -0.00029471   -0.00661404    0.05922262
     atom    8 type  1   force =     0.00039138    0.00687336    0.10028743
     atom    9 type  2   force =    -0.00002370    0.00066202    0.00129008
     atom   10 type  2   force =    -0.00261467   -0.00001296   -0.06337848
     atom   11 type  2   force =     0.00043378   -0.00068740   -0.00028056
     atom   12 type  2   force =    -0.00084840   -0.00112367   -0.00109336
     atom   13 type  1   force =    -0.00029711    0.00070364   -0.00139552
     atom   14 type  1   force =    -0.00033447   -0.00039763   -0.00022192
     atom   15 type  2   force =    -0.00065952   -0.00039446   -0.00055169
     atom   16 type  2   force =     0.00019802    0.00091996   -0.00033109
     atom   17 type  2   force =     0.00086802    0.00011858   -0.00056717
     atom   18 type  2   force =    -0.00031787   -0.00011658   -0.00003334
     atom   19 type  1   force =    -0.00020090   -0.00012646   -0.00092055
     atom   20 type  1   force =     0.00068349    0.00094544   -0.00057551
     atom   21 type  2   force =     0.00006198    0.00015570    0.09780168
     atom   22 type  2   force =     0.00035446   -0.00029864    0.00163029
     atom   23 type  2   force =    -0.08275689    0.00005458   -0.03312875
     atom   24 type  2   force =     0.08269809    0.00050303   -0.03320438
     atom   25 type  1   force =     0.00006976   -0.00035683    0.12646318
     atom   26 type  1   force =    -0.00011310   -0.00149466   -0.15485490
     atom   27 type  2   force =     0.00011434   -0.00046888   -0.06667609
     atom   28 type  2   force =     0.00004812    0.00167358    0.01198612
     atom   29 type  2   force =    -0.00342201    0.00421977   -0.01622233
     atom   30 type  2   force =     0.00505076    0.00456331   -0.01662517
     atom   31 type  1   force =    -0.00015774    0.00217170    0.04255121
     atom   32 type  1   force =     0.00044287   -0.00893841    0.10085921
     atom   33 type  2   force =    -0.00048442   -0.00012973   -0.00040364
     atom   34 type  2   force =    -0.00212625   -0.00026402   -0.07624995
     atom   35 type  2   force =    -0.00009535    0.00070382    0.00086142
     atom   36 type  2   force =    -0.00049975    0.00052251    0.00038564
     atom   37 type  1   force =     0.00042812    0.00061911   -0.00019648
     atom   38 type  1   force =    -0.00042519   -0.00066072   -0.00065478
     atom   39 type  2   force =     0.00044693   -0.00032916   -0.00038630
     atom   40 type  2   force =     0.00036787   -0.00062917   -0.00003260
     atom   41 type  2   force =     0.00036446    0.00043226   -0.00007570
     atom   42 type  2   force =    -0.00028018   -0.00021727    0.00012629
     atom   43 type  1   force =     0.00064620    0.00133580   -0.00083702
     atom   44 type  1   force =    -0.00024910   -0.00119482    0.00069209
     atom   45 type  2   force =     0.00009288   -0.00001604    0.09764880
     atom   46 type  2   force =    -0.08280333    0.00003729   -0.03317819
     atom   47 type  2   force =     0.08271184    0.00045693   -0.03318525
     atom   48 type  3   force =     0.00001265    0.00040699    0.00038337
     atom   49 type  3   force =     0.00013251   -0.00003145   -0.00100426
     atom   50 type  4   force =     0.00074351    0.00034856    0.00059946
     atom   51 type  5   force =     0.00000137   -0.00029283   -0.00054789
     atom   52 type  5   force =     0.00009270    0.00092596   -0.00054825
     atom   53 type  5   force =    -0.00017048    0.00034049    0.00040763
     atom   54 type  5   force =    -0.00008923   -0.00004258    0.00005541
     atom   55 type  5   force =     0.00035118    0.00014037    0.00013256
     atom   56 type  5   force =     0.00013687   -0.00004294    0.00019944
     atom   57 type  2   force =     0.01362171   -0.00264293    0.00692985
     atom   58 type  5   force =    -0.01399258    0.00211268   -0.00652658

     Total force =     0.421225     Total SCF correction =     0.000478
  @ DRIVER MODE: Message from server: STATUS
  @ DRIVER MODE: Message from server: GETFORCE
  @ DRIVER MODE: Returning v,forces,stress,ensemble

     Writing output data file ./calc.save/
  @ DRIVER MODE: Message from server: EXIT
  @ DRIVE MODE: Exiting

     General routines

     Parallel routines

   This run was terminated on:  13:46: 3  23Sep2021

   JOB DONE.