     Program PWSCF v.6.7GPU starts on 24Aug2021 at 10:42:32

     R & G space division:  proc/nbgrp/npool/nimage =       6
     Reading input from /storage/home/hcoda1/3/ntian30/research/carbon/CH2_vib/ads_slab/CH2NNHHH_a/out_0041/pw.inp
Warning: card &CELL ignored
Warning: card   CELL_DYNAMICS='IPI', ignored
Warning: card / ignored

     Current dimensions of program PWSCF are:
     Max number of different atomic species (ntypx) = 10
     Max number of k-points (npk) =  40000
     Max angular momentum in pseudopotentials (lmaxx) =  3
     Presently no symmetry can be used with electric field

     Message from routine cell_base_init:
     DEPRECATED: use true lattice parameter, not A to a.u. conversion factor

     IMPORTANT: XC functional enforced from input :
     Exchange-correlation= BEEF-VDW
                           (   1   4  43  14   2   0   0)
     Any further DFT definition will be discarded
     Please, verify this is what you really want

  @ DRIVER MODE: Connecting to
 qe_1139763_2632806.sched-torque.pace.gatech.edu0z0fmuno_scratch
  using UNIX socket
  @ DRIVER MODE: Message from server: STATUS
  @ DRIVER MODE: Message from server: INIT
  @ DRIVER MODE: Receiving replica           0          -1
  @ DRIVER MODE: Receiving encoded integer          25
  @ DRIVER MODE:  SCF:  T  FORCE:  T  STRESS:  F  VC:  F  ENSEMBLE:  F
  @ DRIVER MODE:  SCF:  T  FORCE:  T  STRESS:  F  VC:  F  ENSEMBLE:  F

     Using Slab Decomposition

     bravais-lattice index     =            0
     lattice parameter (alat)  =       1.8897  a.u.
     unit-cell volume          =    6658.9804 (a.u.)^3
     number of atoms/cell      =           55
     number of atomic types    =            5
     number of electrons       =       397.00
     number of Kohn-Sham states=          208
     kinetic-energy cutoff     =      29.3995  Ry
     charge density cutoff     =     293.9946  Ry
     scf convergence threshold =      7.3E-08
     mixing beta               =       0.0500
     number of iterations used =            8  plain     mixing
     Exchange-correlation= BEEF-VDW
                           (   1   4  43  14   2   0   0)

     celldm(1)=   1.889726  celldm(2)=   0.000000  celldm(3)=   0.000000
     celldm(4)=   0.000000  celldm(5)=   0.000000  celldm(6)=   0.000000

     crystal axes: (cart. coord. in units of alat)
               a(1) = (   6.579727   0.000000   0.000000 )
               a(2) = (  -0.000775   5.961596   0.000000 )
               a(3) = (   0.000000   0.000000  25.155947 )

     reciprocal axes: (cart. coord. in units 2 pi/alat)
               b(1) = (  0.151982  0.000020  0.000000 )
               b(2) = (  0.000000  0.167740  0.000000 )
               b(3) = (  0.000000  0.000000  0.039752 )

     PseudoPot. # 1 for Ti read from file:
     /storage/coda1/p-amedford6/0/shared/rich_project_chbe-medford/medford-share/data/pseudos_module/espresso/nninc/pbe/van/Ti.UPF
     MD5 check sum: 8e4df49b7f0d34bbd5052bf3f5ea0213
     Pseudo is Ultrasoft, Zval = 12.0
     Generated by new atomic code, or converted to UPF format
     Using radial grid of  851 points,  6 beta functions with:
                l(1) =   0
                l(2) =   0
                l(3) =   1
                l(4) =   1
                l(5) =   2
                l(6) =   2
     Q(r) pseudized with  8 coefficients,  rinner =    1.000   1.000   1.000
                                                       1.000   1.000

     PseudoPot. # 2 for O  read from file:
     /storage/coda1/p-amedford6/0/shared/rich_project_chbe-medford/medford-share/data/pseudos_module/espresso/nninc/pbe/van/O.UPF
     MD5 check sum: 78c19812648e8988a0fe644b0f25305e
     Pseudo is Ultrasoft, Zval =  6.0
     Generated by new atomic code, or converted to UPF format
     Using radial grid of  737 points,  4 beta functions with:
                l(1) =   0
                l(2) =   0
                l(3) =   1
                l(4) =   1
     Q(r) pseudized with  8 coefficients,  rinner =    0.800   0.800   0.800

     PseudoPot. # 3 for N  read from file:
     /storage/coda1/p-amedford6/0/shared/rich_project_chbe-medford/medford-share/data/pseudos_module/espresso/nninc/pbe/van/N.UPF
     MD5 check sum: 90d10febe142ad51ac9d5be1deb811c4
     Pseudo is Ultrasoft, Zval =  5.0
     Generated by new atomic code, or converted to UPF format
     Using radial grid of  729 points,  4 beta functions with:
                l(1) =   0
                l(2) =   0
                l(3) =   1
                l(4) =   1
     Q(r) pseudized with  8 coefficients,  rinner =    0.800   0.800   0.800

     PseudoPot. # 4 for C  read from file:
     /storage/coda1/p-amedford6/0/shared/rich_project_chbe-medford/medford-share/data/pseudos_module/espresso/nninc/pbe/van/C.UPF
     MD5 check sum: 1a69bf6b8db32088f5b2163dbdb77a27
     Pseudo is Ultrasoft, Zval =  4.0
     Generated by new atomic code, or converted to UPF format
     Using radial grid of  721 points,  4 beta functions with:
                l(1) =   0
                l(2) =   0
                l(3) =   1
                l(4) =   1
     Q(r) pseudized with  8 coefficients,  rinner =    0.800   0.800   0.800

     PseudoPot. # 5 for H  read from file:
     /storage/coda1/p-amedford6/0/shared/rich_project_chbe-medford/medford-share/data/pseudos_module/espresso/nninc/pbe/van/H.UPF
     MD5 check sum: b5ee9d7bfd3a09ee7748110bda690ff7
     Pseudo is Ultrasoft, Zval =  1.0
     Generated by new atomic code, or converted to UPF format
     Using radial grid of  615 points,  1 beta functions with:
                l(1) =   0
     Q(r) pseudized with  8 coefficients,  rinner =    0.800

     atomic species   valence    mass     pseudopotential
        Ti1           12.00    47.86700     Ti( 1.00)
        O1             6.00    15.99900     O ( 1.00)
        N1             5.00    14.00700     N ( 1.00)
        C1             4.00    12.01100     C ( 1.00)
        H1             1.00     1.00800     H ( 1.00)

     No symmetry found

   Cartesian axes

     site n.     atom                  positions (alat units)
         1           Ti1 tau(   1) = (   0.0004258   2.9801865   6.0000000  )
         2           Ti1 tau(   2) = (   3.2906075   1.4906267   6.0002472  )
         3           O1  tau(   3) = (   0.0006271   0.0005054   7.9858123  )
         4           O1  tau(   4) = (   3.2906025   0.0005020   7.3038282  )
         5           O1  tau(   5) = (   4.5942328   1.4918067   9.2879030  )
         6           O1  tau(   6) = (   1.9868534   1.4903216   9.2879459  )
         7           Ti1 tau(   7) = (   3.2907910   2.8959150   9.1758416  )
         8           Ti1 tau(   8) = (   0.0015273   1.4827037   9.2680791  )
         9           O1  tau(   9) = (   3.2797308   5.9473376  11.3602069  )
        10           O1  tau(  10) = (   0.0116148   5.9584955  10.6183126  )
        11           O1  tau(  11) = (   1.2902197   1.4970218  12.6485984  )
        12           O1  tau(  12) = (   5.2825647   1.4998509  12.6204812  )
        13           Ti1 tau(  13) = (   6.5707130   2.9731531  12.5352273  )
        14           Ti1 tau(  14) = (   3.2824754   1.4851695  12.4964603  )
        15           O1  tau(  15) = (   6.5335774   0.0914421  14.6722524  )
        16           O1  tau(  16) = (   3.3157438   0.0180770  13.9903400  )
        17           O1  tau(  17) = (   4.5084513   1.5196572  16.2619966  )
        18           O1  tau(  18) = (   2.0062152   1.4815140  16.1839734  )
        19           Ti1 tau(  19) = (   3.2259906   2.9465836  15.7211513  )
        20           Ti1 tau(  20) = (   6.5090593   1.4075841  16.1508600  )
        21           O1  tau(  21) = (   3.2904802   0.0005063   4.7018136  )
        22           O1  tau(  22) = (   6.5630310   5.8123487  17.2302531  )
        23           O1  tau(  23) = (   1.3043587   1.4918075   6.0039043  )
        24           O1  tau(  24) = (   5.2767064   1.4903225   6.0039473  )
        25           Ti1 tau(  25) = (   0.0000382   5.9609847   6.0000000  )
        26           Ti1 tau(  26) = (   3.2902200   4.4714249   6.0002472  )
        27           O1  tau(  27) = (   0.0002396   2.9813036   7.9858123  )
        28           O1  tau(  28) = (   3.2902150   2.9813002   7.3038282  )
        29           O1  tau(  29) = (   4.5938453   4.4726049   9.2879030  )
        30           O1  tau(  30) = (   1.9864658   4.4711199   9.2879459  )
        31           Ti1 tau(  31) = (   3.2891106   5.8743827   9.1763621  )
        32           Ti1 tau(  32) = (   0.0006254   4.4649316   9.2693709  )
        33           O1  tau(  33) = (   3.2783824   2.9878764  11.3535400  )
        34           O1  tau(  34) = (   0.0092240   2.9805883  10.6323155  )
        35           O1  tau(  35) = (   1.2857266   4.4729298  12.7006550  )
        36           O1  tau(  36) = (   5.2845514   4.4687958  12.6640455  )
        37           Ti1 tau(  37) = (   6.5734551   0.0101047  12.5124135  )
        38           Ti1 tau(  38) = (   3.2852174   4.4611384  12.5175569  )
        39           O1  tau(  39) = (   6.5279837   2.9480221  14.9030702  )
        40           O1  tau(  40) = (   3.2956390   2.9588503  13.9390168  )
        41           O1  tau(  41) = (   4.4992944   4.4159585  16.2207858  )
        42           O1  tau(  42) = (   2.0104883   4.4624356  16.0673450  )
        43           Ti1 tau(  43) = (   3.2790961   0.0058003  15.7788240  )
        44           Ti1 tau(  44) = (   0.0606790   4.6093333  15.7554573  )
        45           O1  tau(  45) = (   3.2900926   2.9813045   4.7018136  )
        46           O1  tau(  46) = (   1.3039711   4.4726057   6.0039043  )
        47           O1  tau(  47) = (   5.2763189   4.4711207   6.0039473  )
        48           N1  tau(  48) = (   0.0403274   2.7191540  18.0026804  )
        49           C1  tau(  49) = (   0.9398849   2.4944932  18.9664025  )
        50           H1  tau(  50) = (   0.9073005   3.0183022  19.9142263  )
        51           H1  tau(  51) = (   1.7098349   1.7704235  18.7615287  )
        52           N1  tau(  52) = (   5.5765855   3.6054979  18.4816711  )
        53           H1  tau(  53) = (   5.9881759   4.5320851  18.7147717  )
        54           H1  tau(  54) = (   4.9344470   3.8465857  17.6510935  )
        55           H1  tau(  55) = (   5.0674124   3.1947177  19.2767304  )

     number of k points=    10  Fermi-Dirac smearing, width (Ry)=  0.0073
                       cart. coord. in units 2pi/alat
        k(    1) = (   0.0000000   0.0000000   0.0000000), wk =   0.1250000
        k(    2) = (   0.0000000   0.0419351   0.0000000), wk =   0.2500000
        k(    3) = (   0.0000000  -0.0838702   0.0000000), wk =   0.1250000
        k(    4) = (   0.0379955   0.0000049   0.0000000), wk =   0.2500000
        k(    5) = (   0.0379955   0.0419400   0.0000000), wk =   0.2500000
        k(    6) = (   0.0379955  -0.0838652   0.0000000), wk =   0.2500000
        k(    7) = (   0.0379955  -0.0419301   0.0000000), wk =   0.2500000
        k(    8) = (  -0.0759910  -0.0000099   0.0000000), wk =   0.1250000
        k(    9) = (  -0.0759910   0.0419252   0.0000000), wk =   0.2500000
        k(   10) = (  -0.0759910  -0.0838800   0.0000000), wk =   0.1250000

     Initial potential from superposition of free atoms

     starting charge  380.99914, renormalised to  397.00000

     negative rho (up, down):  1.589E-02 0.000E+00

     %%%%%%%%%%%%%%%%%%%%%%%%%%%%%%%%%%%%%%%%%%%%%%%%%%%%%%%%%%%%%%%%%%%%%%%%
     %                                                                      %
     % You are using vdW-DF, which was implemented by the Thonhauser group. %
     % Please cite the following two papers that made this development      %
     % possible and the two reviews that describe the various versions:     %
     %                                                                      %
     %   T. Thonhauser et al., PRL 115, 136402 (2015).                      %
     %   T. Thonhauser et al., PRB 76, 125112 (2007).                       %
     %   K. Berland et al., Rep. Prog. Phys. 78, 066501 (2015).             %
     %   D.C. Langreth et al., J. Phys.: Condens. Matter 21, 084203 (2009). %
     %                                                                      %
     %                                                                      %
     % If you are calculating the stress with vdW-DF, please also cite:     %
     %                                                                      %
     %   R. Sabatini et al., J. Phys.: Condens. Matter 24, 424209 (2012).   %
     %                                                                      %
     %%%%%%%%%%%%%%%%%%%%%%%%%%%%%%%%%%%%%%%%%%%%%%%%%%%%%%%%%%%%%%%%%%%%%%%%

     Adding external electric field

     Computed dipole along edir(3) :
        Dipole              -10.3114 Ry au,        -26.2091 Debye
        Dipole field         -0.0195 Ry au,

        Potential amp.        1.8038 Ry
        Total length         46.3494 bohr

     Starting wfcs are  301 atomic wfcs
  @ DRIVER MODE: Message from server: STATUS
  @ DRIVER MODE: Message from server: POSDATA
  @ DRIVER MODE: Reading and sharing cell
  @ DRIVER MODE: Reading and sharing positions
  @ DRIVER MODE: Received positions

     Self-consistent Calculation

     iteration #  1     ecut=    29.40 Ry     beta= 0.05
     Davidson diagonalization with overlap
     c_bands:  3 eigenvalues not converged
     c_bands:  2 eigenvalues not converged
     c_bands:  3 eigenvalues not converged
     c_bands:  2 eigenvalues not converged
     c_bands:  3 eigenvalues not converged
     c_bands:  2 eigenvalues not converged
     c_bands:  3 eigenvalues not converged
     c_bands:  2 eigenvalues not converged
     c_bands:  2 eigenvalues not converged
     c_bands:  3 eigenvalues not converged
     ethr =  1.00E-05,  avg # of iterations = 20.0

[...]

     total energy              =   -2480.08204393 Ry
     estimated scf accuracy    <    5159.07278239 Ry

     iteration #  2     ecut=    29.40 Ry     beta= 0.05
     Davidson diagonalization with overlap
     ethr =  1.00E-02,  avg # of iterations = 22.2

[...]

     iteration # 68     ecut=    29.40 Ry     beta= 0.05
     Davidson diagonalization with overlap
     c_bands:  1 eigenvalues not converged
     c_bands:  1 eigenvalues not converged
     ethr =  9.18E-11,  avg # of iterations = 13.5

[...]

     total energy              =   -2941.49082079 Ry
     estimated scf accuracy    <       0.00000008 Ry

     iteration # 70     ecut=    29.40 Ry     beta= 0.05
     Davidson diagonalization with overlap
     ethr =  2.01E-11,  avg # of iterations = 11.7

     negative rho (up, down):  1.346E-02 0.000E+00

     Adding external electric field

     Computed dipole along edir(3) :
        Dipole                1.3651 Ry au,          3.4697 Debye
        Dipole field          0.0026 Ry au,

        Potential amp.       -0.2388 Ry
        Total length         46.3494 bohr

     End of self-consistent calculation

          k = 0.0000 0.0000 0.0000 ( 18029 PWs)   bands (ev):

   -55.2839 -55.2452 -55.2449 -55.2111 -55.1597 -55.1578 -55.1212 -55.0943
   -55.0771 -55.0759 -55.0596 -55.0426 -54.9566 -54.7919 -54.2632 -54.2291
   -31.8562 -31.7360 -31.6462 -31.6111 -31.5841 -31.5818 -31.5791 -31.5349
   -31.5322 -31.4919 -31.4903 -31.4898 -31.4577 -31.4544 -31.4403 -31.4188
   -31.4038 -31.3989 -31.3945 -31.3934 -31.3575 -31.3522 -31.3385 -31.3249
   -31.3021 -31.2969 -31.2906 -31.2866 -31.2741 -31.2710 -31.2612 -31.2511
   -31.2443 -31.2392 -31.2093 -31.2048 -31.1982 -31.1857 -31.1487 -31.1057
   -31.0631 -30.9329 -30.6720 -30.5792 -30.5571 -30.4885 -30.4017 -30.2908
   -19.2018 -16.1267 -15.8660 -15.7377 -15.5445 -15.4781 -15.3829 -15.2455
   -15.1946 -15.1395 -15.0830 -15.0433 -15.0297 -14.9641 -14.9068 -14.8182
   -14.8165 -14.7996 -14.7897 -14.7781 -14.7743 -14.7120 -14.7096 -14.6822
   -14.6676 -14.6573 -14.5168 -14.4326 -14.3711 -14.2591 -14.0247 -12.7658
   -12.6486  -9.1392  -7.7792  -7.0219  -5.9957  -3.8149  -3.4637  -3.2907
    -3.2453  -3.2039  -3.1788  -3.0104  -2.9293  -2.6614  -2.5936  -2.5537
    -2.5065  -2.4951  -2.4696  -2.2976  -2.2667  -2.2280  -2.1917  -2.1678
    -2.1272  -2.0990  -2.0831  -2.0541  -2.0417  -2.0391  -1.8563  -1.7852
    -1.7630  -1.7019  -1.6850  -1.6690  -1.6113  -1.5824  -1.5694  -1.5670
    -1.5456  -1.5277  -1.5043  -1.4617  -1.3752  -1.2834  -1.2389  -1.2168
    -1.1041  -1.0408  -0.9155  -0.8756  -0.8594  -0.8317  -0.7599  -0.6940
    -0.6657  -0.6300  -0.4901  -0.4853  -0.4017  -0.3914  -0.3183  -0.3024
    -0.2615  -0.2159  -0.1059  -0.0709  -0.0491   0.0024   0.0631   0.0867
     0.1695   0.2233   0.2805   0.2945   0.3735   0.4142   0.4498   0.4733
     0.5602   0.6020   0.6616   0.6680   0.7049   0.7084   0.7338   0.8196
     0.8333   0.8531   0.8936   1.0629   1.2620   1.3152   1.3365   1.6693
     1.6884   1.7595   1.9447   2.3342   2.3817   3.8171   3.8825   3.9531
     3.9675   3.9769   4.0495   4.0950   4.2843   4.3135   4.3165   4.3382

[...]

          k = 0.0380-0.0419 0.0000 ( 17876 PWs)   bands (ev):

[...]

          k =-0.0760-0.0000 0.0000 ( 17886 PWs)   bands (ev):

[...]

          k =-0.0760-0.0839 0.0000 ( 17948 PWs)   bands (ev):

   -55.2718 -55.2568 -55.2283 -55.2280 -55.1560 -55.1460 -55.1330 -55.0807
   -55.0779 -55.0751 -55.0598 -55.0592 -54.9550 -54.7934 -54.2461 -54.2460
   -31.6657 -31.6527 -31.5791 -31.5512 -31.5510 -31.5474 -31.5204 -31.5202
   -31.4927 -31.4842 -31.4796 -31.4759 -31.4216 -31.4126 -31.4125 -31.4090
   -31.4070 -31.4028 -31.3963 -31.3812 -31.3690 -31.3584 -31.3541 -31.3476
   -31.3473 -31.3454 -31.3440 -31.3282 -31.3114 -31.3084 -31.2920 -31.2894
   -31.2848 -31.2829 -31.2828 -31.2517 -31.2401 -31.2389 -31.1661 -31.0925
   -31.0639 -31.0107 -30.5698 -30.5698 -30.4846 -30.4845 -30.4451 -30.4451
   -19.1980 -15.5924 -15.5161 -15.4599 -15.3749 -15.2910 -15.2712 -15.2615
   -15.2300 -15.1622 -15.1389 -15.0723 -15.0378 -14.9916 -14.9888 -14.9738
   -14.8891 -14.8698 -14.8548 -14.8506 -14.7894 -14.7880 -14.7611 -14.7386
   -14.7319 -14.7282 -14.6284 -14.6274 -14.4638 -14.4259 -14.1835 -12.7501
   -12.7501  -9.1263  -7.7890  -7.0058  -6.0062  -3.8385  -2.8525  -2.7660
    -2.6763  -2.5200  -2.4824  -2.4725  -2.4176  -2.3274  -2.3014  -2.2876
    -2.2676  -2.2599  -2.1875  -2.1826  -2.1379  -2.1161  -2.1056  -2.0993
    -2.0655  -2.0522  -2.0386  -2.0018  -1.9934  -1.9773  -1.9433  -1.9232
    -1.8990  -1.8709  -1.8567  -1.8276  -1.7050  -1.6755  -1.6315  -1.5715
    -1.5443  -1.4770  -1.4717  -1.3692  -1.3577  -1.3471  -1.3058  -1.2917
    -1.2710  -1.1102  -1.0648  -1.0295  -1.0171  -1.0117  -0.8560  -0.8390
    -0.7711  -0.7555  -0.7409  -0.6639  -0.6229  -0.6060  -0.5272  -0.4867
    -0.4573  -0.4363  -0.2938  -0.2816  -0.2565  -0.2408  -0.2344  -0.1424
    -0.1213  -0.0854  -0.0511  -0.0130   0.0033   0.0619   0.2138   0.2419
     0.2786   0.4232   0.4383   0.5221   0.5697   0.6981   0.7630   0.7653
     0.8467   0.9164   1.0187   1.0312   1.0500   1.1363   1.1824   1.1875
     1.1888   2.1175   2.1183   2.2017   2.2020   3.6947   3.9561   4.0783
     4.0849   4.1274   4.2500   4.3337   4.3572   4.3952   4.3976   4.4733

     the Fermi energy is     3.8720 ev

!    total energy              =   -2941.49083893 Ry
     estimated scf accuracy    <       0.00000007 Ry
     smearing contrib. (-TS)   =      -0.04237194 Ry
     internal energy E=F+TS    =   -2941.44846699 Ry

     The total energy is F=E-TS. E is the sum of the following terms:
     one-electron contribution =  -23922.48872603 Ry
     hartree contribution      =   12054.43376387 Ry
     xc contribution           =    -486.85706520 Ry
     ewald contribution        =    9413.46004388 Ry
     electric field correction =       0.00351649 Ry

     convergence has been achieved in  70 iterations

     Forces acting on atoms (cartesian axes, Ry/au):

     atom    1 type  1   force =     0.00016679   -0.00017156    0.09401644
     atom    2 type  1   force =    -0.00005119   -0.00042995   -0.17755811
     atom    3 type  2   force =     0.00006504   -0.00005051   -0.02100813
     atom    4 type  2   force =     0.00001712   -0.00180368    0.05731191
     atom    5 type  2   force =    -0.01085340   -0.00091081    0.00782656
     atom    6 type  2   force =     0.01206493   -0.00034250    0.00622275
     atom    7 type  1   force =    -0.00065873    0.00290078   -0.01528920
     atom    8 type  1   force =     0.00059444    0.00232342    0.00235150
     atom    9 type  2   force =    -0.00010348    0.00013225    0.00091674
     atom   10 type  2   force =    -0.00165300   -0.00049838   -0.00378719
     atom   11 type  2   force =    -0.00003856   -0.00023815    0.00022979
     atom   12 type  2   force =    -0.00020019   -0.00039873    0.00029334
     atom   13 type  1   force =     0.00043137    0.00108437    0.00058143
     atom   14 type  1   force =     0.00020556   -0.00062019    0.00031966
     atom   15 type  2   force =    -0.00020631    0.00030572    0.00052011
     atom   16 type  2   force =    -0.00013924   -0.00028745   -0.00109701
     atom   17 type  2   force =     0.00014045   -0.00020744    0.00016466
     atom   18 type  2   force =    -0.00073596   -0.00034701    0.00005981
     atom   19 type  1   force =    -0.00099448    0.00053019   -0.00066172
     atom   20 type  1   force =    -0.00033355    0.00121176   -0.00103852
     atom   21 type  2   force =     0.00010752   -0.00004225    0.10373840
     atom   22 type  2   force =     0.00009681    0.00023107    0.00036349
     atom   23 type  2   force =    -0.07062859   -0.00018049   -0.02707652
     atom   24 type  2   force =     0.07057082    0.00029292   -0.02711605
     atom   25 type  1   force =     0.00015394   -0.00024158    0.09334301
     atom   26 type  1   force =    -0.00001104   -0.00037420   -0.17777785
     atom   27 type  2   force =     0.00010991   -0.00039782   -0.02001530
     atom   28 type  2   force =     0.00003444   -0.00146582    0.05679675
     atom   29 type  2   force =    -0.01075465   -0.00066457    0.00674200
     atom   30 type  2   force =     0.01187175   -0.00017139    0.00509938
     atom   31 type  1   force =    -0.00063036    0.00410622   -0.01559285
     atom   32 type  1   force =     0.00067364   -0.00277850    0.00213179
     atom   33 type  2   force =     0.00015886   -0.00021889   -0.00059734
     atom   34 type  2   force =    -0.00109391    0.00272394   -0.00201381
     atom   35 type  2   force =     0.00009931    0.00019897    0.00011285
     atom   36 type  2   force =    -0.00034451    0.00033858   -0.00004712
     atom   37 type  1   force =     0.00046907   -0.00008113    0.00028848
     atom   38 type  1   force =     0.00007882    0.00089590    0.00009952
     atom   39 type  2   force =    -0.00008263   -0.00093653    0.00045899
     atom   40 type  2   force =    -0.00022280   -0.00040261    0.00072987
     atom   41 type  2   force =     0.00038515   -0.00063742    0.00067069
     atom   42 type  2   force =     0.00019877   -0.00000496    0.00026531
     atom   43 type  1   force =    -0.00037921   -0.00090891    0.00085673
     atom   44 type  1   force =     0.00036913   -0.00066709   -0.00146043
     atom   45 type  2   force =     0.00009500   -0.00008055    0.10372318
     atom   46 type  2   force =    -0.07064628   -0.00009228   -0.02708533
     atom   47 type  2   force =     0.07059911    0.00028724   -0.02712378
     atom   48 type  3   force =    -0.00011641   -0.00047629    0.00115353
     atom   49 type  4   force =     0.00019331   -0.00076128    0.00077251
     atom   50 type  5   force =     0.00078672    0.00006556   -0.00102273
     atom   51 type  5   force =    -0.00011804    0.00057700   -0.00012968
     atom   52 type  3   force =    -0.00333596    0.00142056   -0.00534894
     atom   53 type  5   force =     0.00001816   -0.00172248   -0.00092414
     atom   54 type  5   force =     0.00314731   -0.00035254    0.00647026
     atom   55 type  5   force =     0.00042924    0.00033945   -0.00085970

     Total force =     0.365810     Total SCF correction =     0.001112
  @ DRIVER MODE: Message from server: STATUS
  @ DRIVER MODE: Message from server: GETFORCE
  @ DRIVER MODE: Returning v,forces,stress,ensemble

     Writing output data file ./calc.save/
  @ DRIVER MODE: Message from server: EXIT
  @ DRIVE MODE: Exiting

     General routines

     Parallel routines

   This run was terminated on:  11:11:30  24Aug2021

   JOB DONE.