     Program PWSCF v.6.7GPU starts on 16Sep2021 at  4:32:22

     R & G space division:  proc/nbgrp/npool/nimage =      10
     Reading input from /storage/home/hcoda1/3/ntian30/research/carbon/CxH_vib/H2O_calc/ads_slab/CHNHHH2O_a/out_0040/pw.inp
Warning: card &CELL ignored
Warning: card   CELL_DYNAMICS='IPI', ignored
Warning: card / ignored

     Current dimensions of program PWSCF are:
     Max number of different atomic species (ntypx) = 10
     Max number of k-points (npk) =  40000
     Max angular momentum in pseudopotentials (lmaxx) =  3
     Presently no symmetry can be used with electric field

     Message from routine cell_base_init:
     DEPRECATED: use true lattice parameter, not A to a.u. conversion factor

     IMPORTANT: XC functional enforced from input :
     Exchange-correlation= BEEF-VDW
                           (   1   4  43  14   2   0   0)
     Any further DFT definition will be discarded
     Please, verify this is what you really want

  @ DRIVER MODE: Connecting to
 qe_1139763_2852629.sched-torque.pace.gatech.edueieck58b_scratch
  using UNIX socket
  @ DRIVER MODE: Message from server: STATUS
  @ DRIVER MODE: Message from server: INIT
  @ DRIVER MODE: Receiving replica           0          -1
  @ DRIVER MODE: Receiving encoded integer          25
  @ DRIVER MODE:  SCF:  T  FORCE:  T  STRESS:  F  VC:  F  ENSEMBLE:  F
  @ DRIVER MODE:  SCF:  T  FORCE:  T  STRESS:  F  VC:  F  ENSEMBLE:  F

     Using Slab Decomposition

     bravais-lattice index     =            0
     lattice parameter (alat)  =       1.8897  a.u.
     unit-cell volume          =    6658.9804 (a.u.)^3
     number of atoms/cell      =           55
     number of atomic types    =            5
     number of electrons       =       398.00
     number of Kohn-Sham states=          209
     kinetic-energy cutoff     =      29.3995  Ry
     charge density cutoff     =     293.9946  Ry
     scf convergence threshold =      7.3E-08
     mixing beta               =       0.0500
     number of iterations used =            8  plain     mixing
     Exchange-correlation= BEEF-VDW
                           (   1   4  43  14   2   0   0)

     celldm(1)=   1.889726  celldm(2)=   0.000000  celldm(3)=   0.000000
     celldm(4)=   0.000000  celldm(5)=   0.000000  celldm(6)=   0.000000

     crystal axes: (cart. coord. in units of alat)
               a(1) = (   6.579727   0.000000   0.000000 )
               a(2) = (  -0.000775   5.961596   0.000000 )
               a(3) = (   0.000000   0.000000  25.155947 )

     reciprocal axes: (cart. coord. in units 2 pi/alat)
               b(1) = (  0.151982  0.000020  0.000000 )
               b(2) = (  0.000000  0.167740  0.000000 )
               b(3) = (  0.000000  0.000000  0.039752 )

     PseudoPot. # 1 for Ti read from file:
     /storage/coda1/p-amedford6/0/shared/rich_project_chbe-medford/medford-share/data/pseudos_module/espresso/nninc/pbe/van/Ti.UPF
     MD5 check sum: 8e4df49b7f0d34bbd5052bf3f5ea0213
     Pseudo is Ultrasoft, Zval = 12.0
     Generated by new atomic code, or converted to UPF format
     Using radial grid of  851 points,  6 beta functions with:
                l(1) =   0
                l(2) =   0
                l(3) =   1
                l(4) =   1
                l(5) =   2
                l(6) =   2
     Q(r) pseudized with  8 coefficients,  rinner =    1.000   1.000   1.000
                                                       1.000   1.000

     PseudoPot. # 2 for O  read from file:
     /storage/coda1/p-amedford6/0/shared/rich_project_chbe-medford/medford-share/data/pseudos_module/espresso/nninc/pbe/van/O.UPF
     MD5 check sum: 78c19812648e8988a0fe644b0f25305e
     Pseudo is Ultrasoft, Zval =  6.0
     Generated by new atomic code, or converted to UPF format
     Using radial grid of  737 points,  4 beta functions with:
                l(1) =   0
                l(2) =   0
                l(3) =   1
                l(4) =   1
     Q(r) pseudized with  8 coefficients,  rinner =    0.800   0.800   0.800

     PseudoPot. # 3 for N  read from file:
     /storage/coda1/p-amedford6/0/shared/rich_project_chbe-medford/medford-share/data/pseudos_module/espresso/nninc/pbe/van/N.UPF
     MD5 check sum: 90d10febe142ad51ac9d5be1deb811c4
     Pseudo is Ultrasoft, Zval =  5.0
     Generated by new atomic code, or converted to UPF format
     Using radial grid of  729 points,  4 beta functions with:
                l(1) =   0
                l(2) =   0
                l(3) =   1
                l(4) =   1
     Q(r) pseudized with  8 coefficients,  rinner =    0.800   0.800   0.800

     PseudoPot. # 4 for C  read from file:
     /storage/coda1/p-amedford6/0/shared/rich_project_chbe-medford/medford-share/data/pseudos_module/espresso/nninc/pbe/van/C.UPF
     MD5 check sum: 1a69bf6b8db32088f5b2163dbdb77a27
     Pseudo is Ultrasoft, Zval =  4.0
     Generated by new atomic code, or converted to UPF format
     Using radial grid of  721 points,  4 beta functions with:
                l(1) =   0
                l(2) =   0
                l(3) =   1
                l(4) =   1
     Q(r) pseudized with  8 coefficients,  rinner =    0.800   0.800   0.800

     PseudoPot. # 5 for H  read from file:
     /storage/coda1/p-amedford6/0/shared/rich_project_chbe-medford/medford-share/data/pseudos_module/espresso/nninc/pbe/van/H.UPF
     MD5 check sum: b5ee9d7bfd3a09ee7748110bda690ff7
     Pseudo is Ultrasoft, Zval =  1.0
     Generated by new atomic code, or converted to UPF format
     Using radial grid of  615 points,  1 beta functions with:
                l(1) =   0
     Q(r) pseudized with  8 coefficients,  rinner =    0.800

     atomic species   valence    mass     pseudopotential
        Ti1           12.00    47.86700     Ti( 1.00)
        O1             6.00    15.99900     O ( 1.00)
        N1             5.00    14.00700     N ( 1.00)
        C1             4.00    12.01100     C ( 1.00)
        H1             1.00     1.00800     H ( 1.00)

     No symmetry found

   Cartesian axes

     site n.     atom                  positions (alat units)
         1           Ti1 tau(   1) = (   0.0004258   2.9801865   6.0000000  )
         2           Ti1 tau(   2) = (   3.2906075   1.4906267   6.0002472  )
         3           O1  tau(   3) = (   0.0006271   0.0005054   7.9858123  )
         4           O1  tau(   4) = (   3.2906025   0.0005020   7.3038282  )
         5           O1  tau(   5) = (   4.5942328   1.4918067   9.2879030  )
         6           O1  tau(   6) = (   1.9868534   1.4903216   9.2879459  )
         7           Ti1 tau(   7) = (   3.2907910   2.8959150   9.1758416  )
         8           Ti1 tau(   8) = (   0.0015273   1.4827037   9.2680791  )
         9           O1  tau(   9) = (   3.2943807   5.9438157  11.3430345  )
        10           O1  tau(  10) = (   0.0116148   5.9584955  10.6183126  )
        11           O1  tau(  11) = (   1.2953376   1.4759649  12.6292060  )
        12           O1  tau(  12) = (   5.2846356   1.4785235  12.6176154  )
        13           Ti1 tau(  13) = (   0.0556596   2.9564334  12.6140783  )
        14           Ti1 tau(  14) = (   3.3658323   1.4657407  12.4949608  )
        15           O1  tau(  15) = (   6.5664030   0.0209144  14.6477191  )
        16           O1  tau(  16) = (   3.3113265   5.9542485  13.9698242  )
        17           O1  tau(  17) = (   4.5454210   1.5146250  16.1225105  )
        18           O1  tau(  18) = (   2.0305911   1.5113983  16.0894517  )
        19           Ti1 tau(  19) = (   3.2587399   2.9544808  15.6767922  )
        20           Ti1 tau(  20) = (   6.5654577   1.5458692  15.9193722  )
        21           O1  tau(  21) = (   3.2904802   0.0005063   4.7018136  )
        22           O1  tau(  22) = (   0.0418464   5.8849155  17.2380659  )
        23           O1  tau(  23) = (   1.3043587   1.4918075   6.0039043  )
        24           O1  tau(  24) = (   5.2767064   1.4903225   6.0039473  )
        25           Ti1 tau(  25) = (   0.0000382   5.9609847   6.0000000  )
        26           Ti1 tau(  26) = (   3.2902200   4.4714249   6.0002472  )
        27           O1  tau(  27) = (   0.0002396   2.9813036   7.9858123  )
        28           O1  tau(  28) = (   3.2902150   2.9813002   7.3038282  )
        29           O1  tau(  29) = (   4.5938453   4.4726049   9.2879030  )
        30           O1  tau(  30) = (   1.9864658   4.4711199   9.2879459  )
        31           Ti1 tau(  31) = (   3.2891106   5.8743827   9.1763621  )
        32           Ti1 tau(  32) = (   0.0006254   4.4649316   9.2693709  )
        33           O1  tau(  33) = (   3.2978316   2.9705197  11.3397625  )
        34           O1  tau(  34) = (   0.0092240   2.9805883  10.6323155  )
        35           O1  tau(  35) = (   1.2936985   4.4655287  12.6460247  )
        36           O1  tau(  36) = (   5.2856521   4.4646452  12.6308247  )
        37           Ti1 tau(  37) = (   0.0515089   5.9379728  12.5308627  )
        38           Ti1 tau(  38) = (   3.3654372   4.4547101  12.4935900  )
        39           O1  tau(  39) = (   6.5748852   2.9443291  14.6951209  )
        40           O1  tau(  40) = (   3.2957406   2.9584624  13.8938737  )
        41           O1  tau(  41) = (   4.5486474   4.4154460  16.0876977  )
        42           O1  tau(  42) = (   2.0388008   4.4257786  16.0448984  )
        43           Ti1 tau(  43) = (   3.3137362   5.9209902  15.7922403  )
        44           Ti1 tau(  44) = (   0.0032603   4.6697478  15.9558853  )
        45           O1  tau(  45) = (   3.2900926   2.9813045   4.7018136  )
        46           O1  tau(  46) = (   1.3039711   4.4726057   6.0039043  )
        47           O1  tau(  47) = (   5.2763189   4.4711207   6.0039473  )
        48           N1  tau(  48) = (   5.6270067   3.1633449  18.6203826  )
        49           C1  tau(  49) = (   0.0237924   2.7940403  17.7774691  )
        50           H1  tau(  50) = (   0.9584034   2.6460975  18.3247808  )
        51           H1  tau(  51) = (   4.7713523   3.5531088  18.2436842  )
        52           H1  tau(  52) = (   5.8168525   3.4166350  19.5804594  )
        53           O1  tau(  53) = (   3.2115967   5.9081562  18.2546127  )
        54           H1  tau(  54) = (   3.8106726   0.6955978  18.4519937  )
        55           H1  tau(  55) = (   2.3006756   0.2828797  18.3268221  )

     number of k points=    10  Fermi-Dirac smearing, width (Ry)=  0.0073
                       cart. coord. in units 2pi/alat
        k(    1) = (   0.0000000   0.0000000   0.0000000), wk =   0.1250000
        k(    2) = (   0.0000000   0.0419351   0.0000000), wk =   0.2500000
        k(    3) = (   0.0000000  -0.0838702   0.0000000), wk =   0.1250000
        k(    4) = (   0.0379955   0.0000049   0.0000000), wk =   0.2500000
        k(    5) = (   0.0379955   0.0419400   0.0000000), wk =   0.2500000
        k(    6) = (   0.0379955  -0.0838652   0.0000000), wk =   0.2500000
        k(    7) = (   0.0379955  -0.0419301   0.0000000), wk =   0.2500000
        k(    8) = (  -0.0759910  -0.0000099   0.0000000), wk =   0.1250000
        k(    9) = (  -0.0759910   0.0419252   0.0000000), wk =   0.2500000
        k(   10) = (  -0.0759910  -0.0838800   0.0000000), wk =   0.1250000

     Initial potential from superposition of free atoms

     starting charge  381.99915, renormalised to  398.00000

     negative rho (up, down):  1.708E-02 0.000E+00

     %%%%%%%%%%%%%%%%%%%%%%%%%%%%%%%%%%%%%%%%%%%%%%%%%%%%%%%%%%%%%%%%%%%%%%%%
     %                                                                      %
     % You are using vdW-DF, which was implemented by the Thonhauser group. %
     % Please cite the following two papers that made this development      %
     % possible and the two reviews that describe the various versions:     %
     %                                                                      %
     %   T. Thonhauser et al., PRL 115, 136402 (2015).                      %
     %   T. Thonhauser et al., PRB 76, 125112 (2007).                       %
     %   K. Berland et al., Rep. Prog. Phys. 78, 066501 (2015).             %
     %   D.C. Langreth et al., J. Phys.: Condens. Matter 21, 084203 (2009). %
     %                                                                      %
     %                                                                      %
     % If you are calculating the stress with vdW-DF, please also cite:     %
     %                                                                      %
     %   R. Sabatini et al., J. Phys.: Condens. Matter 24, 424209 (2012).   %
     %                                                                      %
     %%%%%%%%%%%%%%%%%%%%%%%%%%%%%%%%%%%%%%%%%%%%%%%%%%%%%%%%%%%%%%%%%%%%%%%%

     Adding external electric field

     Computed dipole along edir(3) :
        Dipole              -10.1352 Ry au,        -25.7611 Debye
        Dipole field         -0.0191 Ry au,

        Potential amp.        1.7730 Ry
        Total length         46.3494 bohr

     Starting wfcs are  301 atomic wfcs
  @ DRIVER MODE: Message from server: STATUS
  @ DRIVER MODE: Message from server: POSDATA
  @ DRIVER MODE: Reading and sharing cell
  @ DRIVER MODE: Reading and sharing positions
  @ DRIVER MODE: Received positions

     Self-consistent Calculation

     iteration #  1     ecut=    29.40 Ry     beta= 0.05
     Davidson diagonalization with overlap
     c_bands:  2 eigenvalues not converged
     c_bands:  1 eigenvalues not converged
     c_bands:  1 eigenvalues not converged
     c_bands:  3 eigenvalues not converged
     c_bands:  1 eigenvalues not converged
     c_bands:  3 eigenvalues not converged
     c_bands:  3 eigenvalues not converged
     c_bands:  3 eigenvalues not converged
     c_bands:  1 eigenvalues not converged
     ethr =  1.00E-05,  avg # of iterations = 19.8

[...]

     total energy              =   -2497.73022692 Ry
     estimated scf accuracy    <    5094.08955073 Ry

     iteration #  2     ecut=    29.40 Ry     beta= 0.05
     Davidson diagonalization with overlap
     ethr =  1.00E-02,  avg # of iterations = 25.5

[...]

     iteration # 48     ecut=    29.40 Ry     beta= 0.05
     Davidson diagonalization with overlap
     c_bands:  1 eigenvalues not converged
     c_bands:  1 eigenvalues not converged
     c_bands:  1 eigenvalues not converged
     ethr =  4.56E-07,  avg # of iterations = 16.5

[...]

     total energy              =   -2953.88245692 Ry
     estimated scf accuracy    <       0.00000010 Ry

     iteration # 66     ecut=    29.40 Ry     beta= 0.05
     Davidson diagonalization with overlap
     ethr =  2.43E-11,  avg # of iterations =  6.2

     negative rho (up, down):  1.666E-02 0.000E+00

     Adding external electric field

     Computed dipole along edir(3) :
        Dipole                1.2951 Ry au,          3.2919 Debye
        Dipole field          0.0024 Ry au,

        Potential amp.       -0.2266 Ry
        Total length         46.3494 bohr

     End of self-consistent calculation

          k = 0.0000 0.0000 0.0000 ( 18029 PWs)   bands (ev):

   -55.4430 -55.4366 -55.4171 -55.4090 -55.4004 -55.2993 -55.2574 -55.2510
   -55.2354 -55.2337 -55.2164 -55.2003 -54.8592 -54.7668 -54.4297 -54.3956
   -31.9926 -31.9269 -31.8182 -31.7943 -31.7536 -31.7498 -31.7344 -31.7242
   -31.6856 -31.6842 -31.6543 -31.6383 -31.6272 -31.6167 -31.5960 -31.5832
   -31.5740 -31.5488 -31.5446 -31.5093 -31.5009 -31.4980 -31.4640 -31.4523
   -31.4460 -31.4436 -31.4355 -31.4347 -31.4344 -31.4087 -31.4084 -31.4029
   -31.3862 -31.3822 -31.3578 -31.3500 -31.3432 -31.1911 -31.0765 -31.0245
   -30.9653 -30.9288 -30.8372 -30.7478 -30.7254 -30.6538 -30.5673 -30.4563
   -19.0223 -16.4586 -16.2005 -15.9392 -15.7554 -15.6263 -15.5989 -15.4250
   -15.2900 -15.1880 -15.1258 -15.0692 -15.0491 -15.0013 -14.9988 -14.9866
   -14.9837 -14.9527 -14.9044 -14.8836 -14.8638 -14.8224 -14.8133 -14.7965
   -14.7473 -14.7087 -14.6139 -14.5820 -14.5557 -14.5155 -14.0307 -12.9322
   -12.8156  -9.0189  -6.8206  -6.6845  -4.2589  -3.5714  -3.4091  -3.3549
    -3.3456  -3.3209  -3.2345  -3.0919  -2.9548  -2.7214  -2.6592  -2.6232
    -2.5910  -2.5537  -2.4370  -2.3861  -2.3742  -2.3088  -2.2618  -2.2537
    -2.2409  -2.2196  -2.2043  -2.1435  -2.1304  -2.0296  -1.9877  -1.9175
    -1.8575  -1.8257  -1.7750  -1.7601  -1.7165  -1.7132  -1.6980  -1.6794
    -1.6655  -1.6492  -1.5889  -1.5301  -1.4524  -1.2674  -1.2346  -1.1186
    -1.0890  -1.0584  -1.0145  -0.9307  -0.9039  -0.8817  -0.8423  -0.7514
    -0.7256  -0.6786  -0.5900  -0.5003  -0.4530  -0.4283  -0.3490  -0.3139
    -0.2854  -0.2191  -0.2118  -0.2001  -0.1235  -0.0689   0.0377   0.0741
     0.1085   0.1241   0.1384   0.2233   0.2619   0.3191   0.3632   0.4162
     0.4523   0.4670   0.5031   0.5243   0.5390   0.5661   0.5780   0.7608
     0.8021   0.8312   0.8618   0.9470   1.0485   1.1155   1.1985   1.2682
     1.5152   1.5926   1.6457   1.7830   2.1648   2.2111   3.6280   3.7565
     3.7749   3.7931   3.8244   3.8871   3.9500   4.1392   4.1617   4.1831
     4.2114

[...]

          k = 0.0380-0.0419 0.0000 ( 17876 PWs)   bands (ev):

[...]

          k =-0.0760-0.0000 0.0000 ( 17886 PWs)   bands (ev):

[...]

          k =-0.0760-0.0839 0.0000 ( 17948 PWs)   bands (ev):

   -55.4266 -55.4253 -55.4202 -55.4170 -55.4150 -55.2904 -55.2661 -55.2370
   -55.2357 -55.2308 -55.2187 -55.2157 -54.8560 -54.7699 -54.4126 -54.4125
   -31.8021 -31.7915 -31.7426 -31.7417 -31.7268 -31.7203 -31.7191 -31.7028
   -31.6877 -31.6467 -31.6391 -31.6339 -31.6239 -31.6056 -31.5699 -31.5595
   -31.5550 -31.5549 -31.5525 -31.5466 -31.5461 -31.5454 -31.5419 -31.5031
   -31.4820 -31.4763 -31.4652 -31.4516 -31.4463 -31.4421 -31.4401 -31.4400
   -31.4332 -31.4299 -31.4108 -31.4055 -31.2520 -31.1930 -31.0699 -31.0425
   -31.0257 -30.9654 -30.7381 -30.7380 -30.6500 -30.6499 -30.6106 -30.6106
   -19.0212 -16.4483 -15.6904 -15.5611 -15.4324 -15.3748 -15.3692 -15.3107
   -15.3066 -15.1932 -15.1836 -15.1552 -15.1303 -15.1133 -15.0854 -15.0659
   -15.0040 -14.9834 -14.9800 -14.9498 -14.9206 -14.9078 -14.9030 -14.8882
   -14.8843 -14.8302 -14.7743 -14.7711 -14.6600 -14.5571 -14.1872 -12.9175
   -12.9171  -9.0285  -6.7986  -6.7096  -4.2263  -3.2398  -2.9745  -2.7937
    -2.6877  -2.6317  -2.5684  -2.5495  -2.3833  -2.3683  -2.3585  -2.3214
    -2.3049  -2.2839  -2.2735  -2.2687  -2.2424  -2.2305  -2.2124  -2.1803
    -2.1473  -2.1296  -2.1214  -2.1151  -2.0986  -2.0799  -2.0572  -2.0360
    -2.0314  -2.0049  -1.9651  -1.9414  -1.8818  -1.7447  -1.7092  -1.6686
    -1.5986  -1.5920  -1.5384  -1.5223  -1.4953  -1.4676  -1.4022  -1.3810
    -1.2327  -1.1683  -1.1522  -1.1361  -1.1218  -0.9998  -0.9592  -0.8907
    -0.8642  -0.7943  -0.7641  -0.7525  -0.7059  -0.6038  -0.5915  -0.5395
    -0.5279  -0.4307  -0.4085  -0.3972  -0.3623  -0.3178  -0.2496  -0.2087
    -0.1939  -0.1842  -0.1510  -0.1441  -0.1038   0.0164   0.0764   0.1379
     0.2091   0.3123   0.4238   0.4361   0.5852   0.6114   0.6254   0.7311
     0.8175   0.8480   0.8680   0.8955   0.8985   1.0237   1.0706   1.0803
     1.0819   1.2326   1.9547   1.9561   2.0306   2.0310   3.7361   3.9361
     3.9575   3.9994   4.0459   4.1774   4.1863   4.2206   4.2218   4.3059
     4.3379

     the Fermi energy is     3.6875 ev

!    total energy              =   -2953.88248316 Ry
     estimated scf accuracy    <       0.00000005 Ry
     smearing contrib. (-TS)   =      -0.03290602 Ry
     internal energy E=F+TS    =   -2953.84957713 Ry

     The total energy is F=E-TS. E is the sum of the following terms:
     one-electron contribution =  -24258.37463879 Ry
     hartree contribution      =   12222.74233073 Ry
     xc contribution           =    -488.83623277 Ry
     ewald contribution        =    9570.61579833 Ry
     electric field correction =       0.00316536 Ry

     convergence has been achieved in  66 iterations

     Forces acting on atoms (cartesian axes, Ry/au):

     atom    1 type  1   force =     0.00020774   -0.00020213    0.09615236
     atom    2 type  1   force =    -0.00011008   -0.00027097   -0.17605582
     atom    3 type  2   force =     0.00002766    0.00002237   -0.02491201
     atom    4 type  2   force =     0.00003483   -0.00159721    0.05416150
     atom    5 type  2   force =    -0.01177194   -0.00148690    0.00427962
     atom    6 type  2   force =     0.01353774   -0.00071064    0.00348817
     atom    7 type  1   force =    -0.00084013    0.00087767   -0.01026715
     atom    8 type  1   force =     0.00025344    0.01223557    0.02351849
     atom    9 type  2   force =    -0.00036102   -0.00008230   -0.00024710
     atom   10 type  2   force =    -0.00088110   -0.00044831   -0.01483218
     atom   11 type  2   force =     0.00042841    0.00008082    0.00018436
     atom   12 type  2   force =    -0.00040035   -0.00007699    0.00003502
     atom   13 type  1   force =    -0.00066331   -0.00007110   -0.00157048
     atom   14 type  1   force =     0.00058189    0.00018197    0.00033975
     atom   15 type  2   force =     0.00057586    0.00044091    0.00007476
     atom   16 type  2   force =    -0.00028444    0.00006383    0.00033853
     atom   17 type  2   force =    -0.00014544   -0.00021711   -0.00040725
     atom   18 type  2   force =     0.00012293   -0.00009727   -0.00007411
     atom   19 type  1   force =     0.00079041    0.00007285    0.00051075
     atom   20 type  1   force =    -0.00037357   -0.00065049    0.00012104
     atom   21 type  2   force =     0.00006088    0.00004236    0.10332463
     atom   22 type  2   force =     0.00038193    0.00077253   -0.00031942
     atom   23 type  2   force =    -0.07131343   -0.00007951   -0.02764053
     atom   24 type  2   force =     0.07127055    0.00035811   -0.02767736
     atom   25 type  1   force =    -0.00006453   -0.00014001    0.09567084
     atom   26 type  1   force =    -0.00020130   -0.00031659   -0.17599827
     atom   27 type  2   force =     0.00012411   -0.00040482   -0.02391808
     atom   28 type  2   force =     0.00009770   -0.00126860    0.05362221
     atom   29 type  2   force =    -0.01200590    0.00044657    0.00380842
     atom   30 type  2   force =     0.01365207    0.00068980    0.00309038
     atom   31 type  1   force =    -0.00061242    0.00370469   -0.01329794
     atom   32 type  1   force =     0.00020712   -0.01325430    0.02337746
     atom   33 type  2   force =    -0.00007995   -0.00005753   -0.00030077
     atom   34 type  2   force =    -0.00008565    0.00021479   -0.01830572
     atom   35 type  2   force =     0.00035077   -0.00048727    0.00025950
     atom   36 type  2   force =    -0.00030892   -0.00016323    0.00012136
     atom   37 type  1   force =    -0.00084051   -0.00023563   -0.00008853
     atom   38 type  1   force =     0.00047169    0.00009480    0.00066603
     atom   39 type  2   force =    -0.00001769    0.00082763   -0.00003316
     atom   40 type  2   force =    -0.00023283   -0.00018427   -0.00062868
     atom   41 type  2   force =     0.00032959    0.00042364    0.00004355
     atom   42 type  2   force =    -0.00076541    0.00019707    0.00008406
     atom   43 type  1   force =     0.00078668    0.00012907    0.00003554
     atom   44 type  1   force =    -0.00038676   -0.00089443    0.00052139
     atom   45 type  2   force =     0.00005977    0.00003622    0.10327395
     atom   46 type  2   force =    -0.07129970   -0.00001917   -0.02761001
     atom   47 type  2   force =     0.07124912    0.00040334   -0.02763168
     atom   48 type  3   force =    -0.00034418    0.00097828   -0.00032106
     atom   49 type  4   force =    -0.00007098    0.00086817   -0.00057053
     atom   50 type  5   force =     0.00064888   -0.00002737    0.00097347
     atom   51 type  5   force =     0.00058079    0.00045648    0.00008585
     atom   52 type  5   force =    -0.00010935    0.00013533    0.00028015
     atom   53 type  2   force =     0.00717054    0.01027099    0.00239809
     atom   54 type  5   force =    -0.00879589   -0.01032712   -0.00249177
     atom   55 type  5   force =    -0.00063633   -0.00125458    0.00035838

     Total force =     0.368049     Total SCF correction =     0.000536
  @ DRIVER MODE: Message from server: STATUS
  @ DRIVER MODE: Message from server: GETFORCE
  @ DRIVER MODE: Returning v,forces,stress,ensemble

     Writing output data file ./calc.save/
  @ DRIVER MODE: Message from server: EXIT
  @ DRIVE MODE: Exiting

     General routines

     Parallel routines

   This run was terminated on:   4:49:12  16Sep2021

   JOB DONE.