     Program PWSCF v.6.7GPU starts on 24Aug2021 at 21: 0:23

     R & G space division:  proc/nbgrp/npool/nimage =      72
     Reading input from /storage/home/hcoda1/3/ntian30/research/carbon/CH2_vib/ads_slab/CH2NHHH_a/out_0029/pw.inp
Warning: card &CELL ignored
Warning: card   CELL_DYNAMICS='IPI', ignored
Warning: card / ignored

     Current dimensions of program PWSCF are:
     Max number of different atomic species (ntypx) = 10
     Max number of k-points (npk) =  40000
     Max angular momentum in pseudopotentials (lmaxx) =  3
     Presently no symmetry can be used with electric field

     Message from routine cell_base_init:
     DEPRECATED: use true lattice parameter, not A to a.u. conversion factor

     IMPORTANT: XC functional enforced from input :
     Exchange-correlation= BEEF-VDW
                           (   1   4  43  14   2   0   0)
     Any further DFT definition will be discarded
     Please, verify this is what you really want

  @ DRIVER MODE: Connecting to
 qe_1139763_2641440.sched-torque.pace.gatech.edujrq2l12w_scratch
  using UNIX socket
  @ DRIVER MODE: Message from server: STATUS
  @ DRIVER MODE: Message from server: INIT
  @ DRIVER MODE: Receiving replica           0          -1
  @ DRIVER MODE: Receiving encoded integer          25
  @ DRIVER MODE:  SCF:  T  FORCE:  T  STRESS:  F  VC:  F  ENSEMBLE:  F
  @ DRIVER MODE:  SCF:  T  FORCE:  T  STRESS:  F  VC:  F  ENSEMBLE:  F

     Using Slab Decomposition

     bravais-lattice index     =            0
     lattice parameter (alat)  =       1.8897  a.u.
     unit-cell volume          =    6658.9804 (a.u.)^3
     number of atoms/cell      =           54
     number of atomic types    =            5
     number of electrons       =       392.00
     number of Kohn-Sham states=          206
     kinetic-energy cutoff     =      29.3995  Ry
     charge density cutoff     =     293.9946  Ry
     scf convergence threshold =      7.3E-08
     mixing beta               =       0.0500
     number of iterations used =            8  plain     mixing
     Exchange-correlation= BEEF-VDW
                           (   1   4  43  14   2   0   0)

     celldm(1)=   1.889726  celldm(2)=   0.000000  celldm(3)=   0.000000
     celldm(4)=   0.000000  celldm(5)=   0.000000  celldm(6)=   0.000000

     crystal axes: (cart. coord. in units of alat)
               a(1) = (   6.579727   0.000000   0.000000 )
               a(2) = (  -0.000775   5.961596   0.000000 )
               a(3) = (   0.000000   0.000000  25.155947 )

     reciprocal axes: (cart. coord. in units 2 pi/alat)
               b(1) = (  0.151982  0.000020  0.000000 )
               b(2) = (  0.000000  0.167740  0.000000 )
               b(3) = (  0.000000  0.000000  0.039752 )

     PseudoPot. # 1 for Ti read from file:
     /storage/coda1/p-amedford6/0/shared/rich_project_chbe-medford/medford-share/data/pseudos_module/espresso/nninc/pbe/van/Ti.UPF
     MD5 check sum: 8e4df49b7f0d34bbd5052bf3f5ea0213
     Pseudo is Ultrasoft, Zval = 12.0
     Generated by new atomic code, or converted to UPF format
     Using radial grid of  851 points,  6 beta functions with:
                l(1) =   0
                l(2) =   0
                l(3) =   1
                l(4) =   1
                l(5) =   2
                l(6) =   2
     Q(r) pseudized with  8 coefficients,  rinner =    1.000   1.000   1.000
                                                       1.000   1.000

     PseudoPot. # 2 for O  read from file:
     /storage/coda1/p-amedford6/0/shared/rich_project_chbe-medford/medford-share/data/pseudos_module/espresso/nninc/pbe/van/O.UPF
     MD5 check sum: 78c19812648e8988a0fe644b0f25305e
     Pseudo is Ultrasoft, Zval =  6.0
     Generated by new atomic code, or converted to UPF format
     Using radial grid of  737 points,  4 beta functions with:
                l(1) =   0
                l(2) =   0
                l(3) =   1
                l(4) =   1
     Q(r) pseudized with  8 coefficients,  rinner =    0.800   0.800   0.800

     PseudoPot. # 3 for N  read from file:
     /storage/coda1/p-amedford6/0/shared/rich_project_chbe-medford/medford-share/data/pseudos_module/espresso/nninc/pbe/van/N.UPF
     MD5 check sum: 90d10febe142ad51ac9d5be1deb811c4
     Pseudo is Ultrasoft, Zval =  5.0
     Generated by new atomic code, or converted to UPF format
     Using radial grid of  729 points,  4 beta functions with:
                l(1) =   0
                l(2) =   0
                l(3) =   1
                l(4) =   1
     Q(r) pseudized with  8 coefficients,  rinner =    0.800   0.800   0.800

     PseudoPot. # 4 for C  read from file:
     /storage/coda1/p-amedford6/0/shared/rich_project_chbe-medford/medford-share/data/pseudos_module/espresso/nninc/pbe/van/C.UPF
     MD5 check sum: 1a69bf6b8db32088f5b2163dbdb77a27
     Pseudo is Ultrasoft, Zval =  4.0
     Generated by new atomic code, or converted to UPF format
     Using radial grid of  721 points,  4 beta functions with:
                l(1) =   0
                l(2) =   0
                l(3) =   1
                l(4) =   1
     Q(r) pseudized with  8 coefficients,  rinner =    0.800   0.800   0.800

     PseudoPot. # 5 for H  read from file:
     /storage/coda1/p-amedford6/0/shared/rich_project_chbe-medford/medford-share/data/pseudos_module/espresso/nninc/pbe/van/H.UPF
     MD5 check sum: b5ee9d7bfd3a09ee7748110bda690ff7
     Pseudo is Ultrasoft, Zval =  1.0
     Generated by new atomic code, or converted to UPF format
     Using radial grid of  615 points,  1 beta functions with:
                l(1) =   0
     Q(r) pseudized with  8 coefficients,  rinner =    0.800

     atomic species   valence    mass     pseudopotential
        Ti1           12.00    47.86700     Ti( 1.00)
        O1             6.00    15.99900     O ( 1.00)
        N1             5.00    14.00700     N ( 1.00)
        C1             4.00    12.01100     C ( 1.00)
        H1             1.00     1.00800     H ( 1.00)

     No symmetry found

   Cartesian axes

     site n.     atom                  positions (alat units)
         1           Ti1 tau(   1) = (   0.0004258   2.9801865   6.0000000  )
         2           Ti1 tau(   2) = (   3.2906075   1.4906267   6.0002472  )
         3           O1  tau(   3) = (   0.0006271   0.0005054   7.9858123  )
         4           O1  tau(   4) = (   3.2906025   0.0005020   7.3038282  )
         5           O1  tau(   5) = (   4.5942328   1.4918067   9.2879030  )
         6           O1  tau(   6) = (   1.9868534   1.4903216   9.2879459  )
         7           Ti1 tau(   7) = (   3.2907910   2.8959150   9.1758416  )
         8           Ti1 tau(   8) = (   0.0015273   1.4827037   9.2680791  )
         9           O1  tau(   9) = (   3.2947057   0.0061428  11.3716447  )
        10           O1  tau(  10) = (   0.0116148   5.9584955  10.6183126  )
        11           O1  tau(  11) = (   1.2915649   1.4936813  12.6925814  )
        12           O1  tau(  12) = (   5.2970661   1.4944705  12.6810846  )
        13           Ti1 tau(  13) = (   0.0178387   2.9746902  12.5081746  )
        14           Ti1 tau(  14) = (   3.3154821   1.4870708  12.5273966  )
        15           O1  tau(  15) = (   6.5751158   5.8850184  14.6937530  )
        16           O1  tau(  16) = (   3.3021755   5.9482827  13.9948957  )
        17           O1  tau(  17) = (   4.5403780   1.5298489  16.1548813  )
        18           O1  tau(  18) = (   2.0255877   1.5226301  16.1187562  )
        19           Ti1 tau(  19) = (   3.2919084   3.0021400  15.7465462  )
        20           Ti1 tau(  20) = (   0.0121818   1.3098915  15.8601907  )
        21           O1  tau(  21) = (   3.2904802   0.0005063   4.7018136  )
        22           O1  tau(  22) = (   6.5726150   0.1553292  17.2405045  )
        23           O1  tau(  23) = (   1.3043587   1.4918075   6.0039043  )
        24           O1  tau(  24) = (   5.2767064   1.4903225   6.0039473  )
        25           Ti1 tau(  25) = (   0.0000382   5.9609847   6.0000000  )
        26           Ti1 tau(  26) = (   3.2902200   4.4714249   6.0002472  )
        27           O1  tau(  27) = (   0.0002396   2.9813036   7.9858123  )
        28           O1  tau(  28) = (   3.2902150   2.9813002   7.3038282  )
        29           O1  tau(  29) = (   4.5938453   4.4726049   9.2879030  )
        30           O1  tau(  30) = (   1.9864658   4.4711199   9.2879459  )
        31           Ti1 tau(  31) = (   3.2891106   5.8743827   9.1763621  )
        32           Ti1 tau(  32) = (   0.0006254   4.4649316   9.2693709  )
        33           O1  tau(  33) = (   3.2927311   2.9710310  11.3658552  )
        34           O1  tau(  34) = (   0.0092240   2.9805883  10.6323155  )
        35           O1  tau(  35) = (   1.2954064   4.4636889  12.6531092  )
        36           O1  tau(  36) = (   5.2951753   4.4642890  12.6444158  )
        37           Ti1 tau(  37) = (   0.0208150   5.9452171  12.5004641  )
        38           Ti1 tau(  38) = (   3.3163264   4.4646888  12.5160798  )
        39           O1  tau(  39) = (   6.5606049   3.0383603  14.9590055  )
        40           O1  tau(  40) = (   3.3003749   3.0012653  13.9593002  )
        41           O1  tau(  41) = (   4.5325621   4.4784225  16.2386555  )
        42           O1  tau(  42) = (   2.0180351   4.4745910  16.2101397  )
        43           Ti1 tau(  43) = (   3.2993765   0.0184524  15.7908042  )
        44           Ti1 tau(  44) = (   0.0223033   4.5207704  16.0490861  )
        45           O1  tau(  45) = (   3.2900926   2.9813045   4.7018136  )
        46           O1  tau(  46) = (   1.3039711   4.4726057   6.0039043  )
        47           O1  tau(  47) = (   5.2763189   4.4711207   6.0039473  )
        48           N1  tau(  48) = (   6.4337409   3.4053151  18.1409392  )
        49           C1  tau(  49) = (   1.0285230   3.1422446  19.0018829  )
        50           H1  tau(  50) = (   0.7475518   3.0234394  20.0507379  )
        51           H1  tau(  51) = (   1.7227964   3.9744885  18.9089305  )
        52           H1  tau(  52) = (   5.9280473   4.2150708  18.4835385  )
        53           H1  tau(  53) = (   5.7900178   2.6175148  18.1880975  )
        54           H1  tau(  54) = (   1.5159085   2.2300880  18.6641165  )

     number of k points=    10  Fermi-Dirac smearing, width (Ry)=  0.0073
                       cart. coord. in units 2pi/alat
        k(    1) = (   0.0000000   0.0000000   0.0000000), wk =   0.1250000
        k(    2) = (   0.0000000   0.0419351   0.0000000), wk =   0.2500000
        k(    3) = (   0.0000000  -0.0838702   0.0000000), wk =   0.1250000
        k(    4) = (   0.0379955   0.0000049   0.0000000), wk =   0.2500000
        k(    5) = (   0.0379955   0.0419400   0.0000000), wk =   0.2500000
        k(    6) = (   0.0379955  -0.0838652   0.0000000), wk =   0.2500000
        k(    7) = (   0.0379955  -0.0419301   0.0000000), wk =   0.2500000
        k(    8) = (  -0.0759910  -0.0000099   0.0000000), wk =   0.1250000
        k(    9) = (  -0.0759910   0.0419252   0.0000000), wk =   0.2500000
        k(   10) = (  -0.0759910  -0.0838800   0.0000000), wk =   0.1250000

     Initial potential from superposition of free atoms

     starting charge  375.99915, renormalised to  392.00000

     negative rho (up, down):  1.645E-02 0.000E+00

     %%%%%%%%%%%%%%%%%%%%%%%%%%%%%%%%%%%%%%%%%%%%%%%%%%%%%%%%%%%%%%%%%%%%%%%%
     %                                                                      %
     % You are using vdW-DF, which was implemented by the Thonhauser group. %
     % Please cite the following two papers that made this development      %
     % possible and the two reviews that describe the various versions:     %
     %                                                                      %
     %   T. Thonhauser et al., PRL 115, 136402 (2015).                      %
     %   T. Thonhauser et al., PRB 76, 125112 (2007).                       %
     %   K. Berland et al., Rep. Prog. Phys. 78, 066501 (2015).             %
     %   D.C. Langreth et al., J. Phys.: Condens. Matter 21, 084203 (2009). %
     %                                                                      %
     %                                                                      %
     % If you are calculating the stress with vdW-DF, please also cite:     %
     %                                                                      %
     %   R. Sabatini et al., J. Phys.: Condens. Matter 24, 424209 (2012).   %
     %                                                                      %
     %%%%%%%%%%%%%%%%%%%%%%%%%%%%%%%%%%%%%%%%%%%%%%%%%%%%%%%%%%%%%%%%%%%%%%%%

     Adding external electric field

     Computed dipole along edir(3) :
        Dipole               -7.5115 Ry au,        -19.0924 Debye
        Dipole field         -0.0142 Ry au,

        Potential amp.        1.3140 Ry
        Total length         46.3494 bohr

     Starting wfcs are  297 atomic wfcs
  @ DRIVER MODE: Message from server: STATUS
  @ DRIVER MODE: Message from server: POSDATA
  @ DRIVER MODE: Reading and sharing cell
  @ DRIVER MODE: Reading and sharing positions
  @ DRIVER MODE: Received positions

     Self-consistent Calculation

     iteration #  1     ecut=    29.40 Ry     beta= 0.05
     Davidson diagonalization with overlap
     c_bands:  1 eigenvalues not converged
     c_bands:  1 eigenvalues not converged
     c_bands:  2 eigenvalues not converged
     c_bands:  1 eigenvalues not converged
     c_bands:  1 eigenvalues not converged
     c_bands:  1 eigenvalues not converged
     ethr =  1.00E-05,  avg # of iterations = 19.3

[...]

     total energy              =   -2681.19615266 Ry
     estimated scf accuracy    <    2661.04698860 Ry

[...]

     iteration #  3     ecut=    29.40 Ry     beta= 0.05
     Davidson diagonalization with overlap
     ethr =  1.00E-02,  avg # of iterations = 14.8

[...]

     iteration # 82     ecut=    29.40 Ry     beta= 0.05
     Davidson diagonalization with overlap
     c_bands:  1 eigenvalues not converged
     ethr =  1.05E-09,  avg # of iterations = 13.1

[...]

     total energy              =   -2921.63252868 Ry
     estimated scf accuracy    <       0.00000016 Ry

     iteration # 94     ecut=    29.40 Ry     beta= 0.05
     Davidson diagonalization with overlap
     ethr =  2.75E-11,  avg # of iterations =  5.5

     negative rho (up, down):  1.723E-02 0.000E+00

     Adding external electric field

     Computed dipole along edir(3) :
        Dipole                1.3034 Ry au,          3.3129 Debye
        Dipole field          0.0025 Ry au,

        Potential amp.       -0.2280 Ry
        Total length         46.3494 bohr

     End of self-consistent calculation

          k = 0.0000 0.0000 0.0000 ( 18029 PWs)   bands (ev):

   -55.4333 -55.3963 -55.3833 -55.3586 -55.3492 -55.3159 -55.3108 -55.2764
   -55.2503 -55.2333 -55.2158 -55.2146 -55.1810 -55.1018 -54.4115 -54.3774
   -32.0027 -31.8881 -31.8758 -31.7996 -31.7503 -31.7402 -31.7376 -31.7206
   -31.6755 -31.6724 -31.6436 -31.6414 -31.6284 -31.6215 -31.6034 -31.5963
   -31.5888 -31.5765 -31.5714 -31.5481 -31.5359 -31.5323 -31.5044 -31.4972
   -31.4886 -31.4810 -31.4766 -31.4528 -31.4415 -31.4406 -31.4332 -31.4143
   -31.4136 -31.4073 -31.4013 -31.3983 -31.3644 -31.3549 -31.3430 -31.3259
   -31.3076 -31.2976 -30.8208 -30.7268 -30.7048 -30.6372 -30.5505 -30.4394
   -16.2964 -16.1654 -15.9779 -15.8332 -15.7506 -15.6312 -15.5199 -15.5060
   -15.3654 -15.2838 -15.1680 -15.1431 -15.1139 -15.0919 -15.0835 -15.0664
   -14.9753 -14.9705 -14.9583 -14.9257 -14.9245 -14.8803 -14.8697 -14.8277
   -14.8064 -14.8044 -14.6845 -14.5907 -14.5186 -14.2898 -12.9145 -12.7971
   -10.2240  -6.3210  -4.8144  -3.9572  -3.6119  -3.4537  -3.3708  -3.3363
    -3.3239  -3.1924  -3.0556  -2.9089  -2.8555  -2.8243  -2.7252  -2.6485
    -2.6411  -2.6217  -2.4675  -2.4327  -2.3882  -2.3394  -2.3013  -2.2432
    -2.2226  -2.2141  -2.2016  -2.1844  -2.1758  -2.0585  -2.0020  -1.9183
    -1.8593  -1.8364  -1.7861  -1.7659  -1.7455  -1.7221  -1.7128  -1.6719
    -1.6469  -1.6267  -1.5730  -1.4620  -1.3583  -1.3077  -1.1890  -1.0678
    -1.0307  -1.0188  -0.9667  -0.9393  -0.9181  -0.8604  -0.8092  -0.7797
    -0.7176  -0.6648  -0.6036  -0.5538  -0.4807  -0.4773  -0.4183  -0.3693
    -0.2486  -0.2159  -0.1990  -0.1714  -0.0805  -0.0423   0.0013   0.0814
     0.0926   0.1120   0.2063   0.2163   0.2902   0.3386   0.3550   0.4489
     0.4838   0.4961   0.5007   0.5229   0.5528   0.6027   0.6445   0.6710
     0.7379   0.8643   1.0769   1.1576   1.1814   1.5076   1.5173   1.6109
     1.7947   2.1868   2.2349   3.6647   3.7353   3.8110   3.8174   3.8301
     3.9030   4.1374   4.1610   4.1688   4.1755   4.1962

[...]

          k = 0.0380-0.0419 0.0000 ( 17876 PWs)   bands (ev):

[...]

          k =-0.0760-0.0000 0.0000 ( 17886 PWs)   bands (ev):

[...]

          k =-0.0760-0.0839 0.0000 ( 17948 PWs)   bands (ev):

   -55.4191 -55.4102 -55.3663 -55.3661 -55.3571 -55.3123 -55.2948 -55.2924
   -55.2368 -55.2346 -55.2310 -55.1982 -55.1975 -55.1031 -54.3945 -54.3943
   -31.8098 -31.8057 -31.8027 -31.7201 -31.6942 -31.6909 -31.6908 -31.6577
   -31.6577 -31.6421 -31.6355 -31.6328 -31.6262 -31.6045 -31.5888 -31.5720
   -31.5680 -31.5657 -31.5639 -31.5589 -31.5586 -31.5558 -31.5129 -31.5108
   -31.5078 -31.5039 -31.5014 -31.4881 -31.4862 -31.4859 -31.4840 -31.4676
   -31.4642 -31.4482 -31.4446 -31.4306 -31.4276 -31.4251 -31.3793 -31.3792
   -31.3733 -31.3123 -30.7175 -30.7173 -30.6333 -30.6332 -30.5939 -30.5938
   -16.1364 -15.7838 -15.6976 -15.6417 -15.4662 -15.4383 -15.4242 -15.4047
   -15.2755 -15.2498 -15.2242 -15.2018 -15.1807 -15.1433 -15.1355 -15.1311
   -15.0529 -15.0399 -15.0342 -15.0196 -14.9502 -14.9412 -14.9373 -14.9312
   -14.8809 -14.8771 -14.8339 -14.7834 -14.7802 -14.5663 -12.8986 -12.8985
   -10.2272  -6.2913  -4.8109  -3.9217  -2.9676  -2.9428  -2.8982  -2.8978
    -2.6824  -2.6449  -2.6094  -2.5853  -2.4938  -2.4514  -2.4327  -2.4319
    -2.3576  -2.3372  -2.3257  -2.2741  -2.2691  -2.2573  -2.2338  -2.2018
    -2.1759  -2.1615  -2.1518  -2.1335  -2.0898  -2.0759  -2.0560  -2.0358
    -2.0298  -2.0170  -1.9880  -1.9482  -1.8175  -1.8064  -1.7458  -1.6383
    -1.6334  -1.5583  -1.5476  -1.5025  -1.4894  -1.4648  -1.4299  -1.2508
    -1.2086  -1.1778  -1.1683  -1.1128  -1.0380  -1.0212  -0.9585  -0.9372
    -0.9189  -0.8142  -0.7711  -0.7562  -0.6653  -0.6575  -0.5748  -0.5211
    -0.4640  -0.4384  -0.4009  -0.3878  -0.3859  -0.3379  -0.3324  -0.2485
    -0.2027  -0.1666  -0.1530  -0.1209   0.0780   0.0851   0.1075   0.2531
     0.2725   0.4080   0.4353   0.4866   0.5665   0.5993   0.6800   0.7129
     0.8420   0.8731   0.8756   0.9454   0.9597   1.0218   1.0322   1.9676
     1.9683   2.0549   2.0551   3.8153   3.9072   3.9272   3.9697   4.0827
     4.1574   4.1819   4.2036   4.2505   4.2539   4.3154

     the Fermi energy is     3.7285 ev

!    total energy              =   -2921.63253023 Ry
     estimated scf accuracy    <       0.00000007 Ry
     smearing contrib. (-TS)   =      -0.03702772 Ry
     internal energy E=F+TS    =   -2921.59550251 Ry

     The total energy is F=E-TS. E is the sum of the following terms:
     one-electron contribution =  -24082.65920551 Ry
     hartree contribution      =   12130.44514693 Ry
     xc contribution           =    -481.76347578 Ry
     ewald contribution        =    9512.37882592 Ry
     electric field correction =       0.00320593 Ry

     convergence has been achieved in  94 iterations

     Forces acting on atoms (cartesian axes, Ry/au):

     atom    1 type  1   force =     0.00004879   -0.00025184    0.09317595
     atom    2 type  1   force =    -0.00012921   -0.00044054   -0.17822863
     atom    3 type  2   force =     0.00002159   -0.00040128   -0.02022275
     atom    4 type  2   force =    -0.00001176   -0.00187846    0.05854924
     atom    5 type  2   force =    -0.00994915   -0.00082006    0.00750468
     atom    6 type  2   force =     0.01146729   -0.00027138    0.00680292
     atom    7 type  1   force =    -0.00038811    0.00194687   -0.01464763
     atom    8 type  1   force =     0.00011326   -0.00011323   -0.00500838
     atom    9 type  2   force =    -0.00011549   -0.00005453    0.00000727
     atom   10 type  2   force =    -0.00117760    0.00218735   -0.00032737
     atom   11 type  2   force =    -0.00001462   -0.00019052    0.00006911
     atom   12 type  2   force =     0.00058796   -0.00051035    0.00012765
     atom   13 type  1   force =    -0.00071250    0.00034615   -0.00033286
     atom   14 type  1   force =    -0.00000966   -0.00059362    0.00004998
     atom   15 type  2   force =     0.00003761   -0.00055770   -0.00040788
     atom   16 type  2   force =     0.00023877    0.00059564    0.00050982
     atom   17 type  2   force =     0.00003003   -0.00055705    0.00032198
     atom   18 type  2   force =     0.00019766   -0.00011835    0.00031370
     atom   19 type  1   force =     0.00002374   -0.00037575    0.00177739
     atom   20 type  1   force =    -0.00021039    0.00067104    0.00031702
     atom   21 type  2   force =     0.00001243   -0.00009703    0.10386906
     atom   22 type  2   force =     0.00014603   -0.00033250    0.00057054
     atom   23 type  2   force =    -0.07046086   -0.00018623   -0.02691502
     atom   24 type  2   force =     0.07028421    0.00024761   -0.02695398
     atom   25 type  1   force =    -0.00000398   -0.00015886    0.09269359
     atom   26 type  1   force =    -0.00020217   -0.00049682   -0.17824746
     atom   27 type  2   force =     0.00007228   -0.00024703   -0.01926882
     atom   28 type  2   force =     0.00001734   -0.00165842    0.05790007
     atom   29 type  2   force =    -0.01052081   -0.00098131    0.00820247
     atom   30 type  2   force =     0.01192376   -0.00053495    0.00742844
     atom   31 type  1   force =    -0.00034097    0.00604178   -0.01543444
     atom   32 type  1   force =     0.00011803   -0.00039062   -0.00542929
     atom   33 type  2   force =     0.00030821   -0.00010232   -0.00031967
     atom   34 type  2   force =    -0.00063762   -0.00204656   -0.00050674
     atom   35 type  2   force =    -0.00040291   -0.00002658    0.00024047
     atom   36 type  2   force =     0.00067001   -0.00007335   -0.00003702
     atom   37 type  1   force =    -0.00035387   -0.00024522    0.00026740
     atom   38 type  1   force =     0.00001469    0.00041367   -0.00003501
     atom   39 type  2   force =     0.00021955   -0.00009585    0.00013196
     atom   40 type  2   force =     0.00017426    0.00026510    0.00010407
     atom   41 type  2   force =    -0.00037462    0.00025494   -0.00000819
     atom   42 type  2   force =     0.00049637    0.00086541   -0.00014175
     atom   43 type  1   force =     0.00041400    0.00066094    0.00024408
     atom   44 type  1   force =     0.00072339    0.00038021   -0.00016663
     atom   45 type  2   force =     0.00001926   -0.00009763    0.10383947
     atom   46 type  2   force =    -0.07044297   -0.00012589   -0.02686640
     atom   47 type  2   force =     0.07027070    0.00030829   -0.02692185
     atom   48 type  3   force =     0.00249106   -0.00652506   -0.00246449
     atom   49 type  4   force =     0.00009863    0.00003119   -0.00000829
     atom   50 type  5   force =    -0.00050353    0.00022932    0.00048151
     atom   51 type  5   force =    -0.00020474    0.00016638    0.00005403
     atom   52 type  5   force =    -0.00297165    0.00378785    0.00340186
     atom   53 type  5   force =    -0.00081899    0.00070544   -0.00020732
     atom   54 type  5   force =    -0.00028274    0.00145172    0.00015212

     Total force =     0.366099     Total SCF correction =     0.000762
  @ DRIVER MODE: Message from server: STATUS
  @ DRIVER MODE: Message from server: GETFORCE
  @ DRIVER MODE: Returning v,forces,stress,ensemble

     Writing output data file ./calc.save/
  @ DRIVER MODE: Message from server: EXIT
  @ DRIVE MODE: Exiting

     General routines

     Parallel routines

   This run was terminated on:  21:29:51  24Aug2021

   JOB DONE.