     Program PWSCF v.6.7GPU starts on 22Jul2021 at 22:45: 3

     R & G space division:  proc/nbgrp/npool/nimage =      16
     Reading input from /storage/home/hcoda1/3/ntian30/research/carbon/1Jul_vib/slab/rutile_O_br_vacant/out_0017/pw.inp
Warning: card &CELL ignored
Warning: card   CELL_DYNAMICS='IPI', ignored
Warning: card / ignored

     Current dimensions of program PWSCF are:
     Max number of different atomic species (ntypx) = 10
     Max number of k-points (npk) =  40000
     Max angular momentum in pseudopotentials (lmaxx) =  3
     Presently no symmetry can be used with electric field

     Message from routine cell_base_init:
     DEPRECATED: use true lattice parameter, not A to a.u. conversion factor

     IMPORTANT: XC functional enforced from input :
     Exchange-correlation= BEEF-VDW
                           (   1   4  43  14   2   0   0)
     Any further DFT definition will be discarded
     Please, verify this is what you really want

  @ DRIVER MODE: Connecting to
 qe_1139763_2402406.sched-torque.pace.gatech.eduf4gfp34w_scratch
  using UNIX socket
  @ DRIVER MODE: Message from server: STATUS
  @ DRIVER MODE: Message from server: INIT
  @ DRIVER MODE: Receiving replica           0          -1
  @ DRIVER MODE: Receiving encoded integer          25
  @ DRIVER MODE:  SCF:  T  FORCE:  T  STRESS:  F  VC:  F  ENSEMBLE:  F
  @ DRIVER MODE:  SCF:  T  FORCE:  T  STRESS:  F  VC:  F  ENSEMBLE:  F

     Using Slab Decomposition

     bravais-lattice index     =            0
     lattice parameter (alat)  =       1.8897  a.u.
     unit-cell volume          =    6658.9804 (a.u.)^3
     number of atoms/cell      =           47
     number of atomic types    =            2
     number of electrons       =       378.00
     number of Kohn-Sham states=          199
     kinetic-energy cutoff     =      29.3995  Ry
     charge density cutoff     =     293.9946  Ry
     scf convergence threshold =      7.3E-08
     mixing beta               =       0.0500
     number of iterations used =            8  plain     mixing
     Exchange-correlation= BEEF-VDW
                           (   1   4  43  14   2   0   0)

     celldm(1)=   1.889726  celldm(2)=   0.000000  celldm(3)=   0.000000
     celldm(4)=   0.000000  celldm(5)=   0.000000  celldm(6)=   0.000000

     crystal axes: (cart. coord. in units of alat)
               a(1) = (   6.579727   0.000000   0.000000 )
               a(2) = (  -0.000775   5.961596   0.000000 )
               a(3) = (   0.000000   0.000000  25.155947 )

     reciprocal axes: (cart. coord. in units 2 pi/alat)
               b(1) = (  0.151982  0.000020  0.000000 )
               b(2) = (  0.000000  0.167740  0.000000 )
               b(3) = (  0.000000  0.000000  0.039752 )

     PseudoPot. # 1 for Ti read from file:
     /storage/coda1/p-amedford6/0/shared/rich_project_chbe-medford/medford-share/data/pseudos_module/espresso/nninc/pbe/van/Ti.UPF
     MD5 check sum: 8e4df49b7f0d34bbd5052bf3f5ea0213
     Pseudo is Ultrasoft, Zval = 12.0
     Generated by new atomic code, or converted to UPF format
     Using radial grid of  851 points,  6 beta functions with:
                l(1) =   0
                l(2) =   0
                l(3) =   1
                l(4) =   1
                l(5) =   2
                l(6) =   2
     Q(r) pseudized with  8 coefficients,  rinner =    1.000   1.000   1.000
                                                       1.000   1.000

     PseudoPot. # 2 for O  read from file:
     /storage/coda1/p-amedford6/0/shared/rich_project_chbe-medford/medford-share/data/pseudos_module/espresso/nninc/pbe/van/O.UPF
     MD5 check sum: 78c19812648e8988a0fe644b0f25305e
     Pseudo is Ultrasoft, Zval =  6.0
     Generated by new atomic code, or converted to UPF format
     Using radial grid of  737 points,  4 beta functions with:
                l(1) =   0
                l(2) =   0
                l(3) =   1
                l(4) =   1
     Q(r) pseudized with  8 coefficients,  rinner =    0.800   0.800   0.800

     atomic species   valence    mass     pseudopotential
        Ti1           12.00    47.86700     Ti( 1.00)
        O1             6.00    15.99900     O ( 1.00)

     Starting magnetic structure
     atomic species   magnetization
        Ti1          0.000
        O1           0.000

     No symmetry found

   Cartesian axes

     site n.     atom                  positions (alat units)
         1           Ti1 tau(   1) = (   0.0004258   2.9801865   6.0000000  )
         2           Ti1 tau(   2) = (   3.2906075   1.4906267   6.0002472  )
         3           O1  tau(   3) = (   0.0006271   0.0005054   7.9858123  )
         4           O1  tau(   4) = (   3.2906025   0.0005020   7.3038282  )
         5           O1  tau(   5) = (   4.5942328   1.4918067   9.2879030  )
         6           O1  tau(   6) = (   1.9868534   1.4903216   9.2879459  )
         7           Ti1 tau(   7) = (   3.2895655   2.9803496   9.1561551  )
         8           Ti1 tau(   8) = (   6.5792279   1.4901203   9.2542590  )
         9           O1  tau(   9) = (   3.2908496   0.0003861  11.3974292  )
        10           O1  tau(  10) = (   0.0009741   0.0005107  10.6121890  )
        11           O1  tau(  11) = (   1.2851668   1.4970119  12.6717501  )
        12           O1  tau(  12) = (   5.2960956   1.4969944  12.6716611  )
        13           Ti1 tau(  13) = (   0.0014209   2.9817635  12.4865077  )
        14           Ti1 tau(  14) = (   3.2920103   1.4923710  12.5431595  )
        15           O1  tau(  15) = (   0.0005111   0.0003601  14.6908606  )
        16           O1  tau(  16) = (   3.2907661   0.0003422  14.0280135  )
        17           O1  tau(  17) = (   4.5563287   1.5043111  16.1972802  )
        18           O1  tau(  18) = (   2.0238984   1.5042417  16.1969189  )
        19           Ti1 tau(  19) = (   3.2900530   2.9812534  15.7923096  )
        20           Ti1 tau(  20) = (   0.0002900   1.3462356  15.9516996  )
        21           O1  tau(  21) = (   3.2904802   0.0005063   4.7018136  )
        22           O1  tau(  22) = (   0.0005067   0.0002908  17.2230471  )
        23           O1  tau(  23) = (   1.3043587   1.4918075   6.0039043  )
        24           O1  tau(  24) = (   5.2767064   1.4903225   6.0039473  )
        25           Ti1 tau(  25) = (   0.0000382   5.9609847   6.0000000  )
        26           Ti1 tau(  26) = (   3.2902200   4.4714249   6.0002472  )
        27           O1  tau(  27) = (   0.0002396   2.9813036   7.9858123  )
        28           O1  tau(  28) = (   3.2902150   2.9813002   7.3038282  )
        29           O1  tau(  29) = (   4.5938453   4.4726049   9.2879030  )
        30           O1  tau(  30) = (   1.9864658   4.4711199   9.2879459  )
        31           Ti1 tau(  31) = (   3.2890184   5.9611387   9.1545655  )
        32           Ti1 tau(  32) = (   6.5788211   4.4731772   9.2541010  )
        33           O1  tau(  33) = (   3.2904314   2.9811918  11.3932170  )
        34           O1  tau(  34) = (   0.0006808   2.9813391  10.6259032  )
        35           O1  tau(  35) = (   1.2847872   4.4655815  12.6717948  )
        36           O1  tau(  36) = (   5.2956760   4.4653813  12.6716352  )
        37           Ti1 tau(  37) = (   0.0020938   0.0010105  12.4782417  )
        38           Ti1 tau(  38) = (   3.2917349   4.4701355  12.5431901  )
        39           O1  tau(  39) = (   0.0000992   2.9811129  15.0245885  )
        40           O1  tau(  40) = (   3.2903432   2.9811263  13.9978513  )
        41           O1  tau(  41) = (   4.5559250   4.4580163  16.1971803  )
        42           O1  tau(  42) = (   2.0234811   4.4579909  16.1969720  )
        43           Ti1 tau(  43) = (   3.2904469   0.0004528  15.8318627  )
        44           Ti1 tau(  44) = (   0.0000435   4.6159127  15.9415978  )
        45           O1  tau(  45) = (   3.2900926   2.9813045   4.7018136  )
        46           O1  tau(  46) = (   1.3039711   4.4726057   6.0039043  )
        47           O1  tau(  47) = (   5.2763189   4.4711207   6.0039473  )

     number of k points=    10  Fermi-Dirac smearing, width (Ry)=  0.0073
                       cart. coord. in units 2pi/alat
        k(    1) = (   0.0000000   0.0000000   0.0000000), wk =   0.0625000
        k(    2) = (   0.0000000   0.0419351   0.0000000), wk =   0.1250000
        k(    3) = (   0.0000000  -0.0838702   0.0000000), wk =   0.0625000
        k(    4) = (   0.0379955   0.0000049   0.0000000), wk =   0.1250000
        k(    5) = (   0.0379955   0.0419400   0.0000000), wk =   0.1250000
        k(    6) = (   0.0379955  -0.0838652   0.0000000), wk =   0.1250000
        k(    7) = (   0.0379955  -0.0419301   0.0000000), wk =   0.1250000
        k(    8) = (  -0.0759910  -0.0000099   0.0000000), wk =   0.0625000
        k(    9) = (  -0.0759910   0.0419252   0.0000000), wk =   0.1250000
        k(   10) = (  -0.0759910  -0.0838800   0.0000000), wk =   0.0625000

     Initial potential from superposition of free atoms

     starting charge  361.99925, renormalised to  378.00000

     negative rho (up, down):  1.186E-02 1.186E-02

     %%%%%%%%%%%%%%%%%%%%%%%%%%%%%%%%%%%%%%%%%%%%%%%%%%%%%%%%%%%%%%%%%%%%%%%%
     %                                                                      %
     % You are using vdW-DF, which was implemented by the Thonhauser group. %
     % Please cite the following two papers that made this development      %
     % possible and the two reviews that describe the various versions:     %
     %                                                                      %
     %   T. Thonhauser et al., PRL 115, 136402 (2015).                      %
     %   T. Thonhauser et al., PRB 76, 125112 (2007).                       %
     %   K. Berland et al., Rep. Prog. Phys. 78, 066501 (2015).             %
     %   D.C. Langreth et al., J. Phys.: Condens. Matter 21, 084203 (2009). %
     %                                                                      %
     %                                                                      %
     % If you are calculating the stress with vdW-DF, please also cite:     %
     %                                                                      %
     %   R. Sabatini et al., J. Phys.: Condens. Matter 24, 424209 (2012).   %
     %                                                                      %
     %%%%%%%%%%%%%%%%%%%%%%%%%%%%%%%%%%%%%%%%%%%%%%%%%%%%%%%%%%%%%%%%%%%%%%%%

     Adding external electric field

     Computed dipole along edir(3) :
        Dipole                1.1318 Ry au,          2.8769 Debye
        Dipole field          0.0021 Ry au,

        Potential amp.       -0.1980 Ry
        Total length         46.3494 bohr

[...]

     Starting wfcs are  284 atomic wfcs
  @ DRIVER MODE: Message from server: STATUS
  @ DRIVER MODE: Message from server: POSDATA
  @ DRIVER MODE: Reading and sharing cell
  @ DRIVER MODE: Reading and sharing positions
  @ DRIVER MODE: Received positions

     Self-consistent Calculation

     iteration #  1     ecut=    29.40 Ry     beta= 0.05
     Davidson diagonalization with overlap
     c_bands:  2 eigenvalues not converged
     c_bands:  3 eigenvalues not converged
     c_bands:  2 eigenvalues not converged
     c_bands:  4 eigenvalues not converged
     c_bands:  1 eigenvalues not converged
     c_bands:  3 eigenvalues not converged
     c_bands:  1 eigenvalues not converged
     c_bands:  1 eigenvalues not converged
     c_bands:  3 eigenvalues not converged
     c_bands:  2 eigenvalues not converged
     c_bands:  2 eigenvalues not converged
     c_bands:  3 eigenvalues not converged
     c_bands:  2 eigenvalues not converged
     c_bands:  4 eigenvalues not converged
     c_bands:  1 eigenvalues not converged
     c_bands:  3 eigenvalues not converged
     c_bands:  1 eigenvalues not converged
     c_bands:  1 eigenvalues not converged
     c_bands:  3 eigenvalues not converged
     c_bands:  2 eigenvalues not converged
     ethr =  1.00E-05,  avg # of iterations = 20.0

[...]

     total energy              =   -2885.09492262 Ry
     estimated scf accuracy    <      12.51345794 Ry

     total magnetization       =     0.00 Bohr mag/cell
     absolute magnetization    =     0.00 Bohr mag/cell

     iteration #  2     ecut=    29.40 Ry     beta= 0.05
     Davidson diagonalization with overlap
     ethr =  3.31E-03,  avg # of iterations =  1.0

[...]

     iteration # 60     ecut=    29.40 Ry     beta= 0.05
     Davidson diagonalization with overlap
     c_bands:  1 eigenvalues not converged
     c_bands:  1 eigenvalues not converged
     c_bands:  1 eigenvalues not converged
     c_bands:  1 eigenvalues not converged
     c_bands:  1 eigenvalues not converged
     c_bands:  1 eigenvalues not converged
     ethr =  2.47E-11,  avg # of iterations = 12.4

[...]

     total energy              =   -2883.85319855 Ry
     estimated scf accuracy    <       0.00000008 Ry

[...]

     iteration # 61     ecut=    29.40 Ry     beta= 0.05
     Davidson diagonalization with overlap
     ethr =  2.09E-11,  avg # of iterations =  2.1

     negative rho (up, down):  1.073E-02 1.073E-02

[...]

     Adding external electric field

     Computed dipole along edir(3) :
        Dipole                0.5488 Ry au,          1.3948 Debye
        Dipole field          0.0010 Ry au,

        Potential amp.       -0.0960 Ry
        Total length         46.3494 bohr

     Magnetic moment per site  (integrated on atomic sphere of radius R)
     atom   1 (R=0.740)  charge=  8.0666  magn= -0.0000
     atom   2 (R=0.740)  charge=  8.0460  magn= -0.0000
     atom   3 (R=0.740)  charge=  5.0351  magn=  0.0000
     atom   4 (R=0.740)  charge=  5.0740  magn=  0.0000
     atom   5 (R=0.740)  charge=  5.0338  magn=  0.0000
     atom   6 (R=0.740)  charge=  5.0338  magn=  0.0000
     atom   7 (R=0.740)  charge=  8.0460  magn=  0.0000
     atom   8 (R=0.740)  charge=  8.0494  magn= -0.0000
     atom   9 (R=0.740)  charge=  5.0395  magn= -0.0000
     atom  10 (R=0.740)  charge=  5.0477  magn= -0.0000
     atom  11 (R=0.740)  charge=  5.0325  magn=  0.0000
     atom  12 (R=0.740)  charge=  5.0326  magn= -0.0000
     atom  13 (R=0.740)  charge=  8.0564  magn=  0.0000
     atom  14 (R=0.740)  charge=  8.0500  magn=  0.0000
     atom  15 (R=0.740)  charge=  5.0510  magn=  0.0000
     atom  16 (R=0.740)  charge=  5.0336  magn=  0.0000
     atom  17 (R=0.740)  charge=  5.0152  magn=  0.0000
     atom  18 (R=0.740)  charge=  5.0151  magn=  0.0000
     atom  19 (R=0.740)  charge=  8.0775  magn= -0.0000
     atom  20 (R=0.740)  charge=  8.0903  magn= -0.0000
     atom  21 (R=0.740)  charge=  4.9133  magn=  0.0000
     atom  22 (R=0.740)  charge=  4.9928  magn=  0.0000
     atom  23 (R=0.740)  charge=  5.0274  magn=  0.0000
     atom  24 (R=0.740)  charge=  5.0275  magn= -0.0000
     atom  25 (R=0.740)  charge=  8.0667  magn= -0.0000
     atom  26 (R=0.740)  charge=  8.0460  magn=  0.0000
     atom  27 (R=0.740)  charge=  5.0346  magn=  0.0000
     atom  28 (R=0.740)  charge=  5.0735  magn= -0.0000
     atom  29 (R=0.740)  charge=  5.0338  magn=  0.0000
     atom  30 (R=0.740)  charge=  5.0338  magn=  0.0000
     atom  31 (R=0.740)  charge=  8.0464  magn= -0.0000
     atom  32 (R=0.740)  charge=  8.0494  magn= -0.0000
     atom  33 (R=0.740)  charge=  5.0395  magn= -0.0000
     atom  34 (R=0.740)  charge=  5.0426  magn= -0.0000
     atom  35 (R=0.740)  charge=  5.0325  magn=  0.0000
     atom  36 (R=0.740)  charge=  5.0326  magn= -0.0000
     atom  37 (R=0.740)  charge=  8.0522  magn= -0.0000
     atom  38 (R=0.740)  charge=  8.0500  magn= -0.0000
     atom  39 (R=0.740)  charge=  5.0329  magn=  0.0000
     atom  40 (R=0.740)  charge=  5.0468  magn=  0.0000
     atom  41 (R=0.740)  charge=  5.0149  magn=  0.0000
     atom  42 (R=0.740)  charge=  5.0148  magn=  0.0000
     atom  43 (R=0.740)  charge=  8.0769  magn= -0.0000
     atom  44 (R=0.740)  charge=  8.0906  magn= -0.0000
     atom  45 (R=0.740)  charge=  4.9132  magn= -0.0000
     atom  46 (R=0.740)  charge=  5.0274  magn=  0.0000
     atom  47 (R=0.740)  charge=  5.0275  magn=  0.0000

     End of self-consistent calculation

 ------ SPIN UP ------------

          k = 0.0000 0.0000 0.0000 ( 18029 PWs)   bands (ev):

   -56.2794 -56.2436 -56.2281 -56.1938 -56.1605 -56.1473 -56.1180 -56.1126
   -56.0917 -56.0851 -56.0839 -56.0571 -56.0276 -56.0232 -55.3427 -55.3086
   -32.8417 -32.7977 -32.7302 -32.6323 -32.5906 -32.5853 -32.5818 -32.5718
   -32.5184 -32.5058 -32.4851 -32.4785 -32.4734 -32.4496 -32.4477 -32.4295
   -32.4157 -32.4152 -32.4027 -32.3936 -32.3822 -32.3798 -32.3775 -32.3755
   -32.3505 -32.3495 -32.3276 -32.2832 -32.2778 -32.2674 -32.2673 -32.2612
   -32.2555 -32.2465 -32.2454 -32.2384 -32.2346 -32.2150 -32.2059 -32.1900
   -32.1725 -32.1087 -31.7555 -31.6508 -31.6295 -31.5715 -31.4851 -31.3742
   -17.1160 -16.8935 -16.7534 -16.6092 -16.5076 -16.4073 -16.2814 -16.2310
   -16.1771 -16.0281 -15.9705 -15.9452 -15.9072 -15.8819 -15.8717 -15.8555
   -15.8354 -15.8199 -15.7991 -15.7929 -15.7750 -15.7744 -15.7259 -15.6737
   -15.5776 -15.5147 -15.4420 -15.3848 -15.0495 -13.8440 -13.7242  -4.4339
    -4.2971  -4.2244  -4.2072  -4.1503  -4.0462  -3.8264  -3.8133  -3.7381
    -3.5842  -3.5323  -3.4758  -3.4159  -3.3518  -3.2902  -3.2777  -3.1756
    -3.1516  -3.1458  -3.1402  -3.0613  -3.0550  -3.0314  -3.0048  -2.9685
    -2.8763  -2.7575  -2.7131  -2.6788  -2.6596  -2.6546  -2.6269  -2.5974
    -2.5669  -2.5322  -2.5304  -2.4980  -2.4502  -2.3290  -2.1818  -2.1378
    -2.0681  -1.9746  -1.9038  -1.8409  -1.8060  -1.7540  -1.7369  -1.6870
    -1.6571  -1.6241  -1.5459  -1.4551  -1.4158  -1.3126  -1.2955  -1.2266
    -1.1882  -1.1192  -1.0759  -1.0742  -1.0325  -0.9481  -0.9167  -0.7942
    -0.7633  -0.7583  -0.7457  -0.7347  -0.6277  -0.5229  -0.4899  -0.4839
    -0.4794  -0.3985  -0.3486  -0.3396  -0.3283  -0.3183  -0.2690  -0.1920
    -0.1524  -0.1023   0.0383   0.2678   0.2719   0.3460   0.5662   0.6357
     0.6831   0.8400   1.2690   1.3225   2.8185   2.8836   2.9150   2.9488
     2.9792   3.0251   3.3154   3.3286   3.3520   3.3798   3.3973

[...]

          k =-0.0760-0.0000 0.0000 ( 17886 PWs)   bands (ev):

[...]

 ------ SPIN DOWN ----------

[...]

          k = 0.0380-0.0419 0.0000 ( 17876 PWs)   bands (ev):

[...]

          k =-0.0760-0.0839 0.0000 ( 17948 PWs)   bands (ev):

   -56.2617 -56.2611 -56.2111 -56.2107 -56.1563 -56.1324 -56.1275 -56.1015
   -56.1001 -56.0893 -56.0851 -56.0404 -56.0400 -56.0340 -55.3256 -55.3256
   -32.7214 -32.6473 -32.6445 -32.5452 -32.5451 -32.5447 -32.5304 -32.5037
   -32.5036 -32.4778 -32.4738 -32.4730 -32.4668 -32.4246 -32.4226 -32.4221
   -32.4160 -32.4153 -32.4014 -32.3957 -32.3945 -32.3860 -32.3787 -32.3640
   -32.3606 -32.3578 -32.3559 -32.3517 -32.3289 -32.3286 -32.3249 -32.3202
   -32.2973 -32.2961 -32.2704 -32.2702 -32.2690 -32.2681 -32.2369 -32.2259
   -32.2256 -32.2144 -31.6420 -31.6420 -31.5682 -31.5680 -31.5283 -31.5283
   -16.8381 -16.4648 -16.4262 -16.3402 -16.3330 -16.2331 -16.2134 -16.1260
   -16.0837 -16.0583 -16.0576 -16.0062 -15.9841 -15.9637 -15.9569 -15.9010
   -15.8866 -15.8575 -15.8546 -15.7984 -15.7958 -15.7945 -15.7933 -15.7573
   -15.7543 -15.7156 -15.7124 -15.6235 -15.4150 -13.8251 -13.8250  -3.8457
    -3.7338  -3.6795  -3.5643  -3.5008  -3.4556  -3.4071  -3.4017  -3.3248
    -3.2819  -3.2790  -3.1932  -3.1839  -3.1817  -3.1709  -3.1077  -3.0921
    -3.0679  -3.0402  -3.0158  -2.9886  -2.9765  -2.9747  -2.9540  -2.9455
    -2.9271  -2.9231  -2.8938  -2.8712  -2.8471  -2.8331  -2.6741  -2.6692
    -2.5830  -2.5212  -2.5200  -2.4455  -2.4328  -2.3906  -2.3542  -2.3016
    -2.2599  -2.0989  -2.0811  -2.0789  -2.0154  -1.9654  -1.9181  -1.8553
    -1.8432  -1.7969  -1.7411  -1.6213  -1.6040  -1.5802  -1.4737  -1.4714
    -1.3946  -1.3224  -1.2778  -1.2728  -1.2700  -1.2414  -1.2344  -1.2342
    -1.1277  -1.0722  -1.0249  -1.0178  -1.0075  -0.8007  -0.7437  -0.7275
    -0.6168  -0.5561  -0.3795  -0.3777  -0.3192  -0.2167  -0.2146  -0.2112
    -0.1660  -0.0368  -0.0257   0.0555   0.0916   0.0953   0.1367   0.1383
     1.0315   1.0327   1.1404   1.1407   2.9894   3.0694   3.0783   3.1257
     3.2664   3.3156   3.3233   3.3690   3.3706   3.3743   3.4528

     the Fermi energy is     2.8841 ev

!    total energy              =   -2883.85323264 Ry
     estimated scf accuracy    <       0.00000007 Ry
     smearing contrib. (-TS)   =      -0.03661089 Ry
     internal energy E=F+TS    =   -2883.81662175 Ry

     The total energy is F=E-TS. E is the sum of the following terms:
     one-electron contribution =  -24920.07815511 Ry
     hartree contribution      =   12534.82254939 Ry
     xc contribution           =    -468.94914780 Ry
     ewald contribution        =    9970.38756344 Ry
     electric field correction =       0.00056832 Ry

     total magnetization       =    -0.00 Bohr mag/cell
     absolute magnetization    =     0.00 Bohr mag/cell

     convergence has been achieved in  61 iterations

     Forces acting on atoms (cartesian axes, Ry/au):

     atom    1 type  1   force =     0.00010869    0.00000855    0.08981497
     atom    2 type  1   force =    -0.00003159    0.00032475   -0.18452776
     atom    3 type  2   force =     0.00002986   -0.00000620   -0.02420225
     atom    4 type  2   force =    -0.00000991   -0.00002358    0.05196269
     atom    5 type  2   force =    -0.01336501   -0.00027647    0.00585978
     atom    6 type  2   force =     0.01333733    0.00020514    0.00582981
     atom    7 type  1   force =    -0.00003474    0.00002411    0.00039522
     atom    8 type  1   force =     0.00001563    0.00044060    0.00036778
     atom    9 type  2   force =     0.00001462    0.00000499    0.00082438
     atom   10 type  2   force =    -0.00000402   -0.00000190   -0.00028796
     atom   11 type  2   force =     0.00012524   -0.00026060    0.00059393
     atom   12 type  2   force =    -0.00015194   -0.00027602    0.00059465
     atom   13 type  1   force =    -0.00000385   -0.00020097   -0.00124946
     atom   14 type  1   force =     0.00003522   -0.00074734    0.00052898
     atom   15 type  2   force =    -0.00000344    0.00160957   -0.00451446
     atom   16 type  2   force =     0.00001729    0.00001868    0.00007182
     atom   17 type  2   force =    -0.00003421    0.00038530   -0.00031787
     atom   18 type  2   force =     0.00004524    0.00038673   -0.00031160
     atom   19 type  1   force =    -0.00001508    0.00012040   -0.00042855
     atom   20 type  1   force =     0.00002385   -0.00198454    0.00413059
     atom   21 type  2   force =     0.00005854    0.00006834    0.10527217
     atom   22 type  2   force =    -0.00001692   -0.00044230   -0.00323581
     atom   23 type  2   force =    -0.06755464   -0.00027215   -0.02599169
     atom   24 type  2   force =     0.06745775    0.00016363   -0.02602619
     atom   25 type  1   force =     0.00010871    0.00002163    0.08890873
     atom   26 type  1   force =    -0.00006288   -0.00041440   -0.18457238
     atom   27 type  2   force =     0.00002976   -0.00001984   -0.02315618
     atom   28 type  2   force =    -0.00000635   -0.00002143    0.05200701
     atom   29 type  2   force =    -0.01337170   -0.00027373    0.00585730
     atom   30 type  2   force =     0.01333978    0.00022265    0.00582512
     atom   31 type  1   force =    -0.00003249    0.00001838    0.00075869
     atom   32 type  1   force =     0.00000886   -0.00044441    0.00039266
     atom   33 type  2   force =     0.00001679    0.00001749   -0.00033535
     atom   34 type  2   force =    -0.00001459    0.00001534    0.00019552
     atom   35 type  2   force =     0.00012014    0.00028533    0.00066305
     atom   36 type  2   force =    -0.00014621    0.00028198    0.00066633
     atom   37 type  1   force =     0.00000540    0.00018470    0.00008274
     atom   38 type  1   force =     0.00002005    0.00074355    0.00054979
     atom   39 type  2   force =    -0.00001704    0.00012160   -0.00214630
     atom   40 type  2   force =     0.00001641    0.00001274   -0.00057455
     atom   41 type  2   force =    -0.00006099   -0.00010413   -0.00066521
     atom   42 type  2   force =     0.00008445   -0.00011100   -0.00066199
     atom   43 type  1   force =    -0.00001263   -0.00022711    0.00088098
     atom   44 type  1   force =    -0.00002809    0.00025585    0.00692519
     atom   45 type  2   force =     0.00005703    0.00007781    0.10526638
     atom   46 type  2   force =    -0.06755619   -0.00017237   -0.02598803
     atom   47 type  2   force =     0.06745787    0.00026066   -0.02603268

     Total force =     0.366990     Total SCF correction =     0.000743
  @ DRIVER MODE: Message from server: STATUS
  @ DRIVER MODE: Message from server: GETFORCE
  @ DRIVER MODE: Returning v,forces,stress,ensemble

     Writing output data file ./calc.save/
  @ DRIVER MODE: Message from server: EXIT
  @ DRIVE MODE: Exiting

     General routines

     Parallel routines

   This run was terminated on:  23: 7:42  22Jul2021

   JOB DONE.