     Program PWSCF v.6.7GPU starts on 18Oct2021 at 12: 0:46

     R & G space division:  proc/nbgrp/npool/nimage =       8
     Reading input from /storage/home/hcoda1/3/ntian30/research/carbon/CxH_vib/Thiel_calc/ads_slab/NH2HNH_perslab/out_0001/pw.inp
Warning: card &CELL ignored
Warning: card   CELL_DYNAMICS='IPI', ignored
Warning: card / ignored

     Current dimensions of program PWSCF are:
     Max number of different atomic species (ntypx) = 10
     Max number of k-points (npk) =  40000
     Max angular momentum in pseudopotentials (lmaxx) =  3
     Presently no symmetry can be used with electric field

     Message from routine cell_base_init:
     DEPRECATED: use true lattice parameter, not A to a.u. conversion factor

     IMPORTANT: XC functional enforced from input :
     Exchange-correlation= BEEF-VDW
                           (   1   4  43  14   2   0   0)
     Any further DFT definition will be discarded
     Please, verify this is what you really want

  @ DRIVER MODE: Connecting to
 qe_1139763_3255135.sched-torque.pace.gatech.edua2ay42x8_scratch
  using UNIX socket
  @ DRIVER MODE: Message from server: STATUS
  @ DRIVER MODE: Message from server: INIT
  @ DRIVER MODE: Receiving replica           0          -1
  @ DRIVER MODE: Receiving encoded integer          25
  @ DRIVER MODE:  SCF:  T  FORCE:  T  STRESS:  F  VC:  F  ENSEMBLE:  F
  @ DRIVER MODE:  SCF:  T  FORCE:  T  STRESS:  F  VC:  F  ENSEMBLE:  F

     Using Slab Decomposition

     bravais-lattice index     =            0
     lattice parameter (alat)  =       1.8897  a.u.
     unit-cell volume          =    9988.4706 (a.u.)^3
     number of atoms/cell      =           59
     number of atomic types    =            4
     number of electrons       =       440.00
     number of Kohn-Sham states=          230
     kinetic-energy cutoff     =      29.3995  Ry
     charge density cutoff     =     293.9946  Ry
     scf convergence threshold =      7.3E-08
     mixing beta               =       0.0500
     number of iterations used =            8  plain     mixing
     Exchange-correlation= BEEF-VDW
                           (   1   4  43  14   2   0   0)

     celldm(1)=   1.889726  celldm(2)=   0.000000  celldm(3)=   0.000000
     celldm(4)=   0.000000  celldm(5)=   0.000000  celldm(6)=   0.000000

     crystal axes: (cart. coord. in units of alat)
               a(1) = (   6.579727   0.000000   0.000000 )
               a(2) = (  -0.001163   8.942395   0.000000 )
               a(3) = (   0.000000   0.000000  25.155947 )

     reciprocal axes: (cart. coord. in units 2 pi/alat)
               b(1) = (  0.151982  0.000020  0.000000 )
               b(2) = (  0.000000  0.111827  0.000000 )
               b(3) = (  0.000000  0.000000  0.039752 )

     PseudoPot. # 1 for O  read from file:
     /storage/coda1/p-amedford6/0/shared/rich_project_chbe-medford/medford-share/data/pseudos_module/espresso/nninc/pbe/van/O.UPF
     MD5 check sum: 78c19812648e8988a0fe644b0f25305e
     Pseudo is Ultrasoft, Zval =  6.0
     Generated by new atomic code, or converted to UPF format
     Using radial grid of  737 points,  4 beta functions with:
                l(1) =   0
                l(2) =   0
                l(3) =   1
                l(4) =   1
     Q(r) pseudized with  8 coefficients,  rinner =    0.800   0.800   0.800

     PseudoPot. # 2 for Ti read from file:
     /storage/coda1/p-amedford6/0/shared/rich_project_chbe-medford/medford-share/data/pseudos_module/espresso/nninc/pbe/van/Ti.UPF
     MD5 check sum: 8e4df49b7f0d34bbd5052bf3f5ea0213
     Pseudo is Ultrasoft, Zval = 12.0
     Generated by new atomic code, or converted to UPF format
     Using radial grid of  851 points,  6 beta functions with:
                l(1) =   0
                l(2) =   0
                l(3) =   1
                l(4) =   1
                l(5) =   2
                l(6) =   2
     Q(r) pseudized with  8 coefficients,  rinner =    1.000   1.000   1.000
                                                       1.000   1.000

     PseudoPot. # 3 for H  read from file:
     /storage/coda1/p-amedford6/0/shared/rich_project_chbe-medford/medford-share/data/pseudos_module/espresso/nninc/pbe/van/H.UPF
     MD5 check sum: b5ee9d7bfd3a09ee7748110bda690ff7
     Pseudo is Ultrasoft, Zval =  1.0
     Generated by new atomic code, or converted to UPF format
     Using radial grid of  615 points,  1 beta functions with:
                l(1) =   0
     Q(r) pseudized with  8 coefficients,  rinner =    0.800

     PseudoPot. # 4 for N  read from file:
     /storage/coda1/p-amedford6/0/shared/rich_project_chbe-medford/medford-share/data/pseudos_module/espresso/nninc/pbe/van/N.UPF
     MD5 check sum: 90d10febe142ad51ac9d5be1deb811c4
     Pseudo is Ultrasoft, Zval =  5.0
     Generated by new atomic code, or converted to UPF format
     Using radial grid of  729 points,  4 beta functions with:
                l(1) =   0
                l(2) =   0
                l(3) =   1
                l(4) =   1
     Q(r) pseudized with  8 coefficients,  rinner =    0.800   0.800   0.800

     atomic species   valence    mass     pseudopotential
        O1             6.00    15.99900     O ( 1.00)
        Ti1           12.00    47.86700     Ti( 1.00)
        H1             1.00     1.00800     H ( 1.00)
        N1             5.00    14.00700     N ( 1.00)

     No symmetry found

   Cartesian axes

     site n.     atom                  positions (alat units)
         1           O1  tau(   1) = (   0.0007354   0.0005023  10.5931620  )
         2           O1  tau(   2) = (   3.2891522   8.9193323  13.7813865  )
         3           O1  tau(   3) = (  -0.0003195   8.9357148  17.1597790  )
         4           O1  tau(   4) = (   0.0006271   0.0005054   7.9858123  )
         5           O1  tau(   5) = (   3.2896276   8.9330874  11.1456747  )
         6           O1  tau(   6) = (   0.0000757   8.8957392  14.5326415  )
         7           O1  tau(   7) = (   1.9868534   1.4903216   9.2879459  )
         8           O1  tau(   8) = (   5.2085136   1.5567490  12.5272226  )
         9           O1  tau(   9) = (   2.0368910   1.4086519  15.9478609  )
        10           Ti1 tau(  10) = (   0.0007404   1.4906270   9.2895810  )
        11           Ti1 tau(  11) = (   3.2920048   1.2896434  12.4335303  )
        12           Ti1 tau(  12) = (   0.0003947   1.7483972  15.9485354  )
        13           O1  tau(  13) = (   4.5942328   1.4918067   9.2879030  )
        14           O1  tau(  14) = (   1.3734151   1.5562871  12.5269411  )
        15           O1  tau(  15) = (   4.5446063   1.4075665  15.9467422  )
        16           Ti1 tau(  16) = (   3.2902859   2.9801868   9.2893338  )
        17           Ti1 tau(  17) = (   0.0022843   2.7629733  12.5422407  )
        18           Ti1 tau(  18) = (   3.2887740   3.1097933  15.6402895  )
        19           O1  tau(  19) = (   0.0003479   2.9813005  10.5931620  )
        20           O1  tau(  20) = (   3.2903674   2.9527630  13.7969158  )
        21           O1  tau(  21) = (   0.0002396   2.9813036   7.9858123  )
        22           O1  tau(  22) = (   3.2906228   2.9775883  11.1663003  )
        23           O1  tau(  23) = (   0.0006598   2.9368866  14.5305733  )
        24           O1  tau(  24) = (   1.9864658   4.4711199   9.2879459  )
        25           O1  tau(  25) = (   5.2231876   4.5386380  12.5467233  )
        26           O1  tau(  26) = (   2.0248981   4.3679406  15.9930346  )
        27           Ti1 tau(  27) = (   0.0003529   4.4714252   9.2895810  )
        28           Ti1 tau(  28) = (   3.2918124   4.3135021  12.5344809  )
        29           Ti1 tau(  29) = (   6.5788423   4.6929592  16.0739603  )
        30           O1  tau(  30) = (   4.5938453   4.4726049   9.2879030  )
        31           O1  tau(  31) = (   1.3570704   4.5373869  12.5465102  )
        32           O1  tau(  32) = (   4.5538814   4.3671241  15.9936543  )
        33           Ti1 tau(  33) = (   3.2898983   5.9609850   9.2893338  )
        34           Ti1 tau(  34) = (   0.0013264   5.7428985  12.5110789  )
        35           Ti1 tau(  35) = (   3.2898306   6.0937744  16.2866611  )
        36           O1  tau(  36) = (  -0.0000397   5.9620987  10.5931620  )
        37           O1  tau(  37) = (   3.2897329   5.8964334  13.7986068  )
        38           O1  tau(  38) = (  -0.0007474   6.0119579  17.1634496  )
        39           O1  tau(  39) = (  -0.0001480   5.9621018   7.9858123  )
        40           O1  tau(  40) = (   3.2898370   5.9388437  11.1687384  )
        41           O1  tau(  41) = (  -0.0001539   5.9931028  14.5676369  )
        42           O1  tau(  42) = (   1.9860782   7.4519181   9.2879459  )
        43           O1  tau(  43) = (   5.2258842   7.5046952  12.5406166  )
        44           O1  tau(  44) = (   2.0242945   7.4351242  16.0034066  )
        45           Ti1 tau(  45) = (  -0.0000347   7.4522234   9.2895810  )
        46           Ti1 tau(  46) = (   3.2896699   7.1866417  12.6007890  )
        47           Ti1 tau(  47) = (   0.0000787   7.5542351  15.7482610  )
        48           O1  tau(  48) = (   4.5934577   7.4534031   9.2879030  )
        49           O1  tau(  49) = (   1.3527639   7.5038087  12.5404143  )
        50           O1  tau(  50) = (   4.5545665   7.4356877  16.0029592  )
        51           Ti1 tau(  51) = (   3.2895107   8.9417832   9.2893338  )
        52           Ti1 tau(  52) = (  -0.0005703   8.7121504  12.4856418  )
        53           Ti1 tau(  53) = (   3.2909615   0.1005107  15.6284087  )
        54           H1  tau(  54) = (   6.5685809   3.1351568  18.2688824  )
        55           H1  tau(  55) = (   6.5783155   8.7923607  18.1116139  )
        56           N1  tau(  56) = (  -0.0001347   2.9716693  17.2674093  )
        57           N1  tau(  57) = (   3.2897564   5.9921341  18.1800631  )
        58           H1  tau(  58) = (   3.2887465   5.1266479  18.7045293  )
        59           H1  tau(  59) = (   3.2892443   6.7858760  18.8071070  )

     number of k points=    10  Fermi-Dirac smearing, width (Ry)=  0.0073
                       cart. coord. in units 2pi/alat
        k(    1) = (   0.0000000   0.0000000   0.0000000), wk =   0.1250000
        k(    2) = (   0.0000000   0.0279567   0.0000000), wk =   0.2500000
        k(    3) = (   0.0000000  -0.0559134   0.0000000), wk =   0.1250000
        k(    4) = (   0.0379955   0.0000049   0.0000000), wk =   0.2500000
        k(    5) = (   0.0379955   0.0279617   0.0000000), wk =   0.2500000
        k(    6) = (   0.0379955  -0.0559085   0.0000000), wk =   0.2500000
        k(    7) = (   0.0379955  -0.0279518   0.0000000), wk =   0.2500000
        k(    8) = (  -0.0759910  -0.0000099   0.0000000), wk =   0.1250000
        k(    9) = (  -0.0759910   0.0279468   0.0000000), wk =   0.2500000
        k(   10) = (  -0.0759910  -0.0559233   0.0000000), wk =   0.1250000

     Initial potential from superposition of free atoms

     starting charge  421.99910, renormalised to  440.00000

     negative rho (up, down):  3.702E-02 0.000E+00

     %%%%%%%%%%%%%%%%%%%%%%%%%%%%%%%%%%%%%%%%%%%%%%%%%%%%%%%%%%%%%%%%%%%%%%%%
     %                                                                      %
     % You are using vdW-DF, which was implemented by the Thonhauser group. %
     % Please cite the following two papers that made this development      %
     % possible and the two reviews that describe the various versions:     %
     %                                                                      %
     %   T. Thonhauser et al., PRL 115, 136402 (2015).                      %
     %   T. Thonhauser et al., PRB 76, 125112 (2007).                       %
     %   K. Berland et al., Rep. Prog. Phys. 78, 066501 (2015).             %
     %   D.C. Langreth et al., J. Phys.: Condens. Matter 21, 084203 (2009). %
     %                                                                      %
     %                                                                      %
     % If you are calculating the stress with vdW-DF, please also cite:     %
     %                                                                      %
     %   R. Sabatini et al., J. Phys.: Condens. Matter 24, 424209 (2012).   %
     %                                                                      %
     %%%%%%%%%%%%%%%%%%%%%%%%%%%%%%%%%%%%%%%%%%%%%%%%%%%%%%%%%%%%%%%%%%%%%%%%

     Adding external electric field

     Computed dipole along edir(3) :
        Dipole               -3.9424 Ry au,        -10.0206 Debye
        Dipole field         -0.0050 Ry au,

        Potential amp.        0.4598 Ry
        Total length         46.3494 bohr

     Starting wfcs are  332 atomic wfcs
  @ DRIVER MODE: Message from server: STATUS
  @ DRIVER MODE: Message from server: POSDATA
  @ DRIVER MODE: Reading and sharing cell
  @ DRIVER MODE: Reading and sharing positions
  @ DRIVER MODE: Received positions

     Self-consistent Calculation

     iteration #  1     ecut=    29.40 Ry     beta= 0.05
     Davidson diagonalization with overlap
     c_bands:  1 eigenvalues not converged
     c_bands:  2 eigenvalues not converged
     c_bands:  4 eigenvalues not converged
     c_bands:  2 eigenvalues not converged
     c_bands:  2 eigenvalues not converged
     c_bands:  2 eigenvalues not converged
     c_bands:  4 eigenvalues not converged
     c_bands:  3 eigenvalues not converged
     c_bands:  2 eigenvalues not converged
     ethr =  1.00E-05,  avg # of iterations = 19.2

[...]

     total energy              =   -3294.67558432 Ry
     estimated scf accuracy    <      19.62353504 Ry

     iteration #  2     ecut=    29.40 Ry     beta= 0.05
     Davidson diagonalization with overlap
     ethr =  4.46E-03,  avg # of iterations =  1.0

[...]

     iteration # 28     ecut=    29.40 Ry     beta= 0.05
     Davidson diagonalization with overlap
     c_bands:  1 eigenvalues not converged
     c_bands:  1 eigenvalues not converged
     ethr =  1.44E-06,  avg # of iterations = 11.8

[...]

     total energy              =   -3293.29229715 Ry
     estimated scf accuracy    <       0.00000007 Ry

     iteration # 52     ecut=    29.40 Ry     beta= 0.05
     Davidson diagonalization with overlap
     ethr =  1.69E-11,  avg # of iterations =  5.0

     negative rho (up, down):  3.602E-02 0.000E+00

     Adding external electric field

     Computed dipole along edir(3) :
        Dipole                1.2934 Ry au,          3.2876 Debye
        Dipole field          0.0016 Ry au,

        Potential amp.       -0.1508 Ry
        Total length         46.3494 bohr

     End of self-consistent calculation

          k = 0.0000 0.0000 0.0000 ( 26871 PWs)   bands (ev):

   -58.2971 -58.2732 -58.2694 -58.2100 -58.1616 -57.7937 -57.7732 -57.7570
   -57.6219 -57.5919 -57.5713 -57.5126 -57.4886 -56.8989 -56.8774 -56.8515
   -56.8422 -56.8365 -34.6883 -34.6612 -34.6310 -34.6193 -34.6137 -34.6086
   -34.5458 -34.4824 -34.4723 -34.4097 -34.4056 -34.4027 -34.3889 -34.3587
   -34.3338 -34.1958 -34.1498 -34.1450 -34.1246 -34.0962 -34.0828 -34.0781
   -34.0575 -34.0207 -34.0087 -33.9630 -33.9189 -33.8743 -33.8596 -33.8504
   -33.8346 -33.8270 -33.7801 -33.7572 -33.7486 -33.7431 -33.6965 -33.6904
   -33.6775 -33.3605 -33.2221 -33.2120 -33.2020 -33.1877 -33.1809 -33.1743
   -33.1626 -33.1172 -33.0851 -33.0794 -33.0265 -33.0253 -33.0082 -32.8850
   -18.9128 -18.8270 -18.3717 -18.2962 -18.1747 -18.1195 -18.1132 -18.0478
   -17.9450 -17.7239 -17.6835 -17.6747 -17.6465 -17.5389 -17.5308 -17.5272
   -17.4933 -17.4863 -17.4740 -17.3861 -17.3271 -17.3146 -17.3088 -17.3086
   -17.1998 -17.1752 -17.1234 -17.0572 -17.0451 -16.9493 -16.7647 -16.4316
   -15.3535 -15.3128 -15.3031 -15.1571 -13.6003  -6.9787  -6.6270  -6.1791
    -5.9855  -5.7754  -5.6370  -5.5223  -5.4693  -5.3769  -5.3108  -5.2859
    -5.2685  -5.2284  -5.1945  -5.1679  -5.0650  -5.0551  -4.9740  -4.9196
    -4.8740  -4.8278  -4.7855  -4.7391  -4.7368  -4.6975  -4.6284  -4.6178
    -4.5831  -4.5357  -4.5068  -4.4985  -4.4433  -4.4147  -4.3938  -4.2739
    -4.2595  -4.1919  -4.1805  -4.1731  -4.0680  -4.0612  -4.0178  -3.9869
    -3.9810  -3.9615  -3.9110  -3.8313  -3.8030  -3.6440  -3.6211  -3.6118
    -3.5197  -3.3810  -3.3673  -3.3232  -3.2036  -3.1364  -3.1125  -3.0771
    -3.0571  -3.0397  -3.0166  -3.0050  -2.9715  -2.8770  -2.8761  -2.8149
    -2.8126  -2.7978  -2.7758  -2.7705  -2.7310  -2.6585  -2.5992  -2.5866
    -2.5655  -2.5478  -2.4613  -2.4469  -2.3561  -2.3407  -2.2847  -2.2424
    -2.2364  -2.1708  -2.0960  -2.0883  -2.0242  -1.9998  -1.8259  -1.8009
    -1.7232  -1.7177  -1.6513  -1.6244  -1.6016  -1.5493  -1.4246  -1.3936
    -1.2980  -1.1862  -1.0221  -0.7822  -0.5918  -0.5702  -0.5611  -0.5289
    -0.4353  -0.3824  -0.3664  -0.2713   0.9811   1.1270   1.2800   1.3017
     1.4954   1.6050   1.6176   1.6728   1.7517   1.8499

[...]

          k = 0.0380-0.0280 0.0000 ( 26873 PWs)   bands (ev):

[...]

          k =-0.0760-0.0000 0.0000 ( 26902 PWs)   bands (ev):

[...]

          k =-0.0760-0.0559 0.0000 ( 26868 PWs)   bands (ev):

   -58.2905 -58.2864 -58.2628 -58.2098 -58.1617 -57.7936 -57.7727 -57.7575
   -57.6203 -57.5953 -57.5695 -57.5125 -57.4887 -56.8990 -56.8745 -56.8573
   -56.8421 -56.8334 -34.7136 -34.7097 -34.6634 -34.6389 -34.6059 -34.4978
   -34.4830 -34.4488 -34.4457 -34.4332 -34.4267 -34.4068 -34.3847 -34.3813
   -34.3607 -34.2311 -34.1726 -34.1672 -34.1391 -34.1216 -34.0787 -34.0024
   -33.9987 -33.9985 -33.9644 -33.9274 -33.9205 -33.9064 -33.8984 -33.8745
   -33.8655 -33.8499 -33.7750 -33.7666 -33.7392 -33.7130 -33.7126 -33.6945
   -33.6885 -33.3361 -33.2637 -33.2231 -33.2182 -33.2077 -33.1846 -33.1764
   -33.1242 -33.0803 -33.0720 -33.0530 -33.0305 -32.9960 -32.9896 -32.9725
   -18.8912 -18.6219 -18.4745 -18.2385 -18.1383 -17.9745 -17.8916 -17.8788
   -17.8610 -17.8600 -17.7609 -17.7499 -17.6988 -17.6740 -17.6311 -17.6215
   -17.6093 -17.5721 -17.5660 -17.4525 -17.3621 -17.3529 -17.2577 -17.2426
   -17.2154 -17.1538 -17.1355 -17.0460 -17.0268 -16.9540 -16.7727 -16.4163
   -15.3645 -15.3528 -15.2423 -15.1578 -13.5973  -6.9509  -6.6281  -5.9498
    -5.7550  -5.7206  -5.6700  -5.3496  -5.3121  -5.2275  -5.2021  -5.1631
    -5.1376  -5.1237  -5.0936  -5.0823  -5.0071  -4.9702  -4.9612  -4.9574
    -4.9144  -4.8953  -4.8470  -4.8257  -4.7760  -4.7552  -4.7471  -4.7128
    -4.6687  -4.6503  -4.5757  -4.5704  -4.4972  -4.4576  -4.3187  -4.2349
    -4.2097  -4.1802  -4.0835  -4.0698  -4.0370  -3.9411  -3.9253  -3.9047
    -3.7769  -3.7422  -3.6329  -3.6169  -3.5678  -3.5448  -3.5170  -3.4894
    -3.4250  -3.3829  -3.3668  -3.3618  -3.3277  -3.2593  -3.2291  -3.2125
    -3.1807  -3.1629  -3.1525  -3.1418  -3.0756  -3.0589  -3.0291  -2.9896
    -2.9283  -2.9041  -2.8488  -2.8479  -2.7867  -2.7472  -2.6928  -2.6868
    -2.6147  -2.5925  -2.5864  -2.5785  -2.4776  -2.4519  -2.4441  -2.3027
    -2.1641  -2.1128  -2.0698  -1.9665  -1.9086  -1.9049  -1.8810  -1.8129
    -1.7882  -1.7048  -1.6503  -1.6267  -1.6194  -1.5939  -1.3750  -1.3450
    -1.3333  -1.2902  -1.2261  -1.1316  -0.8124  -0.5926  -0.5795  -0.4996
    -0.4766  -0.4235  -0.4022  -0.3878   1.0302   1.2051   1.2767   1.3700
     1.3707   1.4033   1.4529   1.6190   1.6523   1.7060

     the Fermi energy is     0.3880 ev

!    total energy              =   -3293.29238371 Ry
     estimated scf accuracy    <       0.00000005 Ry
     smearing contrib. (-TS)   =      -0.00047768 Ry
     internal energy E=F+TS    =   -3293.29190603 Ry

     The total energy is F=E-TS. E is the sum of the following terms:
     one-electron contribution =  -34638.96603125 Ry
     hartree contribution      =   17383.77697721 Ry
     xc contribution           =    -542.08693799 Ry
     ewald contribution        =   14503.98198124 Ry
     electric field correction =       0.00210477 Ry

     convergence has been achieved in  52 iterations

     Forces acting on atoms (cartesian axes, Ry/au):

     atom    1 type  1   force =     0.00000871    0.00244986    0.04674041
     atom    2 type  1   force =     0.00001123   -0.00341887   -0.00287064
     atom    3 type  1   force =    -0.00003242    0.00324964   -0.00097064
     atom    4 type  1   force =     0.00005036   -0.00098223    0.10171858
     atom    5 type  1   force =    -0.00000917   -0.00071178    0.00562816
     atom    6 type  1   force =    -0.00005470    0.00366343    0.00081652
     atom    7 type  1   force =     0.07819570    0.00086201   -0.03541434
     atom    8 type  1   force =     0.00834747   -0.02587642    0.00018062
     atom    9 type  1   force =     0.00852548    0.02067421    0.00123527
     atom   10 type  2   force =    -0.00005995    0.00867718   -0.15837494
     atom   11 type  2   force =    -0.00004118    0.02308674   -0.00230098
     atom   12 type  2   force =     0.00021316   -0.02562537   -0.00426880
     atom   13 type  1   force =    -0.07828856    0.00040614   -0.03540242
     atom   14 type  1   force =    -0.00839019   -0.02579154    0.00018348
     atom   15 type  1   force =    -0.00840835    0.02080862    0.00135673
     atom   16 type  2   force =     0.00012856    0.00085706    0.07316013
     atom   17 type  2   force =     0.00006258    0.03072510    0.00239818
     atom   18 type  2   force =    -0.00011717   -0.02687971    0.00067628
     atom   19 type  1   force =     0.00004043    0.00299341    0.05011110
     atom   20 type  1   force =    -0.00001870   -0.00126399   -0.00143954
     atom   21 type  1   force =     0.00005120   -0.00064923    0.10019841
     atom   22 type  1   force =    -0.00001520   -0.00180014    0.00546003
     atom   23 type  1   force =     0.00003223    0.00237313    0.00381395
     atom   24 type  1   force =     0.07914592    0.00064446   -0.03606688
     atom   25 type  1   force =     0.00925350   -0.02947930    0.00062400
     atom   26 type  1   force =     0.00849846    0.02154814    0.00318531
     atom   27 type  2   force =    -0.00007080   -0.00814033   -0.15492419
     atom   28 type  2   force =    -0.00001313    0.02629788   -0.00222792
     atom   29 type  2   force =     0.00012500   -0.02440026   -0.00336653
     atom   30 type  1   force =    -0.07923561    0.00023482   -0.03606339
     atom   31 type  1   force =    -0.00925974   -0.02941153    0.00062978
     atom   32 type  1   force =    -0.00845129    0.02166376    0.00330094
     atom   33 type  2   force =     0.00013567   -0.00256008    0.07886296
     atom   34 type  2   force =     0.00004891    0.03586536    0.00272626
     atom   35 type  2   force =    -0.00007579   -0.02921640    0.00300238
     atom   36 type  1   force =     0.00004123    0.00306406    0.05240220
     atom   37 type  1   force =    -0.00000273   -0.00186830   -0.00284708
     atom   38 type  1   force =    -0.00006562    0.00201372    0.00083328
     atom   39 type  1   force =     0.00004626    0.00286931    0.10112395
     atom   40 type  1   force =    -0.00001008   -0.00170119    0.00620052
     atom   41 type  1   force =    -0.00002145    0.00300438    0.00389215
     atom   42 type  1   force =     0.07825579    0.00076307   -0.03488829
     atom   43 type  1   force =     0.00662069   -0.02303946   -0.00020494
     atom   44 type  1   force =     0.01115701    0.02212575   -0.00715774
     atom   45 type  2   force =    -0.00006068   -0.00551322   -0.16465536
     atom   46 type  2   force =    -0.00007495    0.01958625    0.00101476
     atom   47 type  2   force =     0.00002689   -0.01855809    0.00738510
     atom   48 type  1   force =    -0.07835248    0.00031363   -0.03487078
     atom   49 type  1   force =    -0.00666442   -0.02300503   -0.00019826
     atom   50 type  1   force =    -0.01112865    0.02210459   -0.00710850
     atom   51 type  2   force =     0.00013067   -0.00438032    0.06095844
     atom   52 type  2   force =     0.00012574    0.02965434    0.00357518
     atom   53 type  2   force =    -0.00010801   -0.02499733    0.00093875
     atom   54 type  3   force =     0.00012965    0.00075205   -0.00022820
     atom   55 type  3   force =    -0.00000633   -0.00009839    0.00013110
     atom   56 type  4   force =    -0.00033446    0.00703154    0.00068729
     atom   57 type  4   force =     0.00001287   -0.00047754    0.00053429
     atom   58 type  3   force =    -0.00003392   -0.00011799   -0.00005887
     atom   59 type  3   force =    -0.00001563   -0.00039957    0.00022271

     Total force =     0.437312     Total SCF correction =     0.000435
  @ DRIVER MODE: Message from server: STATUS
  @ DRIVER MODE: Message from server: GETFORCE
  @ DRIVER MODE: Returning v,forces,stress,ensemble

     Writing output data file ./calc.save/
  @ DRIVER MODE: Message from server: EXIT
  @ DRIVE MODE: Exiting

     General routines

     Parallel routines

   This run was terminated on:  12:25:44  18Oct2021

   JOB DONE.