     Program PWSCF v.6.7GPU starts on 24Aug2021 at 20:10:12

     R & G space division:  proc/nbgrp/npool/nimage =      72
     Reading input from /storage/home/hcoda1/3/ntian30/research/carbon/CH2_vib/ads_slab/CH2NNH3_a/out_0028/pw.inp
Warning: card &CELL ignored
Warning: card   CELL_DYNAMICS='IPI', ignored
Warning: card / ignored

     Current dimensions of program PWSCF are:
     Max number of different atomic species (ntypx) = 10
     Max number of k-points (npk) =  40000
     Max angular momentum in pseudopotentials (lmaxx) =  3
     Presently no symmetry can be used with electric field

     Message from routine cell_base_init:
     DEPRECATED: use true lattice parameter, not A to a.u. conversion factor

     IMPORTANT: XC functional enforced from input :
     Exchange-correlation= BEEF-VDW
                           (   1   4  43  14   2   0   0)
     Any further DFT definition will be discarded
     Please, verify this is what you really want

  @ DRIVER MODE: Connecting to
 qe_1139763_2641442.sched-torque.pace.gatech.edu1wsi504j_scratch
  using UNIX socket
  @ DRIVER MODE: Message from server: STATUS
  @ DRIVER MODE: Message from server: INIT
  @ DRIVER MODE: Receiving replica           0          -1
  @ DRIVER MODE: Receiving encoded integer          25
  @ DRIVER MODE:  SCF:  T  FORCE:  T  STRESS:  F  VC:  F  ENSEMBLE:  F
  @ DRIVER MODE:  SCF:  T  FORCE:  T  STRESS:  F  VC:  F  ENSEMBLE:  F

     Using Slab Decomposition

     bravais-lattice index     =            0
     lattice parameter (alat)  =       1.8897  a.u.
     unit-cell volume          =    6658.9804 (a.u.)^3
     number of atoms/cell      =           55
     number of atomic types    =            5
     number of electrons       =       397.00
     number of Kohn-Sham states=          208
     kinetic-energy cutoff     =      29.3995  Ry
     charge density cutoff     =     293.9946  Ry
     scf convergence threshold =      7.3E-08
     mixing beta               =       0.0500
     number of iterations used =            8  plain     mixing
     Exchange-correlation= BEEF-VDW
                           (   1   4  43  14   2   0   0)

     celldm(1)=   1.889726  celldm(2)=   0.000000  celldm(3)=   0.000000
     celldm(4)=   0.000000  celldm(5)=   0.000000  celldm(6)=   0.000000

     crystal axes: (cart. coord. in units of alat)
               a(1) = (   6.579727   0.000000   0.000000 )
               a(2) = (  -0.000775   5.961596   0.000000 )
               a(3) = (   0.000000   0.000000  25.155947 )

     reciprocal axes: (cart. coord. in units 2 pi/alat)
               b(1) = (  0.151982  0.000020  0.000000 )
               b(2) = (  0.000000  0.167740  0.000000 )
               b(3) = (  0.000000  0.000000  0.039752 )

     PseudoPot. # 1 for Ti read from file:
     /storage/coda1/p-amedford6/0/shared/rich_project_chbe-medford/medford-share/data/pseudos_module/espresso/nninc/pbe/van/Ti.UPF
     MD5 check sum: 8e4df49b7f0d34bbd5052bf3f5ea0213
     Pseudo is Ultrasoft, Zval = 12.0
     Generated by new atomic code, or converted to UPF format
     Using radial grid of  851 points,  6 beta functions with:
                l(1) =   0
                l(2) =   0
                l(3) =   1
                l(4) =   1
                l(5) =   2
                l(6) =   2
     Q(r) pseudized with  8 coefficients,  rinner =    1.000   1.000   1.000
                                                       1.000   1.000

     PseudoPot. # 2 for O  read from file:
     /storage/coda1/p-amedford6/0/shared/rich_project_chbe-medford/medford-share/data/pseudos_module/espresso/nninc/pbe/van/O.UPF
     MD5 check sum: 78c19812648e8988a0fe644b0f25305e
     Pseudo is Ultrasoft, Zval =  6.0
     Generated by new atomic code, or converted to UPF format
     Using radial grid of  737 points,  4 beta functions with:
                l(1) =   0
                l(2) =   0
                l(3) =   1
                l(4) =   1
     Q(r) pseudized with  8 coefficients,  rinner =    0.800   0.800   0.800

     PseudoPot. # 3 for N  read from file:
     /storage/coda1/p-amedford6/0/shared/rich_project_chbe-medford/medford-share/data/pseudos_module/espresso/nninc/pbe/van/N.UPF
     MD5 check sum: 90d10febe142ad51ac9d5be1deb811c4
     Pseudo is Ultrasoft, Zval =  5.0
     Generated by new atomic code, or converted to UPF format
     Using radial grid of  729 points,  4 beta functions with:
                l(1) =   0
                l(2) =   0
                l(3) =   1
                l(4) =   1
     Q(r) pseudized with  8 coefficients,  rinner =    0.800   0.800   0.800

     PseudoPot. # 4 for C  read from file:
     /storage/coda1/p-amedford6/0/shared/rich_project_chbe-medford/medford-share/data/pseudos_module/espresso/nninc/pbe/van/C.UPF
     MD5 check sum: 1a69bf6b8db32088f5b2163dbdb77a27
     Pseudo is Ultrasoft, Zval =  4.0
     Generated by new atomic code, or converted to UPF format
     Using radial grid of  721 points,  4 beta functions with:
                l(1) =   0
                l(2) =   0
                l(3) =   1
                l(4) =   1
     Q(r) pseudized with  8 coefficients,  rinner =    0.800   0.800   0.800

     PseudoPot. # 5 for H  read from file:
     /storage/coda1/p-amedford6/0/shared/rich_project_chbe-medford/medford-share/data/pseudos_module/espresso/nninc/pbe/van/H.UPF
     MD5 check sum: b5ee9d7bfd3a09ee7748110bda690ff7
     Pseudo is Ultrasoft, Zval =  1.0
     Generated by new atomic code, or converted to UPF format
     Using radial grid of  615 points,  1 beta functions with:
                l(1) =   0
     Q(r) pseudized with  8 coefficients,  rinner =    0.800

     atomic species   valence    mass     pseudopotential
        Ti1           12.00    47.86700     Ti( 1.00)
        O1             6.00    15.99900     O ( 1.00)
        N1             5.00    14.00700     N ( 1.00)
        C1             4.00    12.01100     C ( 1.00)
        H1             1.00     1.00800     H ( 1.00)

     No symmetry found

   Cartesian axes

     site n.     atom                  positions (alat units)
         1           Ti1 tau(   1) = (   0.0004258   2.9801865   6.0000000  )
         2           Ti1 tau(   2) = (   3.2906075   1.4906267   6.0002472  )
         3           O1  tau(   3) = (   0.0006271   0.0005054   7.9858123  )
         4           O1  tau(   4) = (   3.2906025   0.0005020   7.3038282  )
         5           O1  tau(   5) = (   4.5942328   1.4918067   9.2879030  )
         6           O1  tau(   6) = (   1.9868534   1.4903216   9.2879459  )
         7           Ti1 tau(   7) = (   3.2907910   2.8959150   9.1758416  )
         8           Ti1 tau(   8) = (   0.0015273   1.4827037   9.2680791  )
         9           O1  tau(   9) = (   3.2870044   0.0008392  11.3329265  )
        10           O1  tau(  10) = (   0.0116148   5.9584955  10.6183126  )
        11           O1  tau(  11) = (   1.3103063   1.4923116  12.6208530  )
        12           O1  tau(  12) = (   5.2933663   1.4849185  12.6124200  )
        13           Ti1 tau(  13) = (   6.5212574   2.9536302  12.6166858  )
        14           Ti1 tau(  14) = (   3.2058376   1.4897313  12.4816367  )
        15           O1  tau(  15) = (   6.5713238   0.0136578  14.6546308  )
        16           O1  tau(  16) = (   3.3039920   0.0133407  13.9274802  )
        17           O1  tau(  17) = (   4.5398155   1.5323753  16.0810081  )
        18           O1  tau(  18) = (   2.0543055   1.5218724  16.0470058  )
        19           Ti1 tau(  19) = (   3.2774803   3.0107093  15.7022328  )
        20           Ti1 tau(  20) = (   6.5342633   1.5374647  15.8423947  )
        21           O1  tau(  21) = (   3.2904802   0.0005063   4.7018136  )
        22           O1  tau(  22) = (   0.0034288   0.0322173  17.2228558  )
        23           O1  tau(  23) = (   1.3043587   1.4918075   6.0039043  )
        24           O1  tau(  24) = (   5.2767064   1.4903225   6.0039473  )
        25           Ti1 tau(  25) = (   0.0000382   5.9609847   6.0000000  )
        26           Ti1 tau(  26) = (   3.2902200   4.4714249   6.0002472  )
        27           O1  tau(  27) = (   0.0002396   2.9813036   7.9858123  )
        28           O1  tau(  28) = (   3.2902150   2.9813002   7.3038282  )
        29           O1  tau(  29) = (   4.5938453   4.4726049   9.2879030  )
        30           O1  tau(  30) = (   1.9864658   4.4711199   9.2879459  )
        31           Ti1 tau(  31) = (   3.2891106   5.8743827   9.1763621  )
        32           Ti1 tau(  32) = (   0.0006254   4.4649316   9.2693709  )
        33           O1  tau(  33) = (   3.2848367   2.9872869  11.3311783  )
        34           O1  tau(  34) = (   0.0092240   2.9805883  10.6323155  )
        35           O1  tau(  35) = (   1.3050274   4.4824158  12.6313026  )
        36           O1  tau(  36) = (   5.2955027   4.4751037  12.6224712  )
        37           Ti1 tau(  37) = (   6.5218534   5.9301143  12.5590122  )
        38           Ti1 tau(  38) = (   3.2037265   4.4702053  12.4865905  )
        39           O1  tau(  39) = (   6.5652647   2.9430126  14.6458727  )
        40           O1  tau(  40) = (   3.3006234   2.9978660  13.9063397  )
        41           O1  tau(  41) = (   4.5289998   4.4870283  16.1192093  )
        42           O1  tau(  42) = (   2.0463452   4.4937679  16.0531255  )
        43           Ti1 tau(  43) = (   3.2679282   0.0255942  15.7259849  )
        44           Ti1 tau(  44) = (   6.5624932   4.6695214  16.1100661  )
        45           O1  tau(  45) = (   3.2900926   2.9813045   4.7018136  )
        46           O1  tau(  46) = (   1.3039711   4.4726057   6.0039043  )
        47           O1  tau(  47) = (   5.2763189   4.4711207   6.0039473  )
        48           N1  tau(  48) = (   0.0665130   2.9625449  17.3937163  )
        49           C1  tau(  49) = (   0.2662726   2.8715582  18.6342609  )
        50           H1  tau(  50) = (   0.3859136   3.7587535  19.2661104  )
        51           H1  tau(  51) = (   0.3502417   1.8926937  19.1273272  )
        52           N1  tau(  52) = (   3.5829462   4.8919607  19.5834040  )
        53           H1  tau(  53) = (   4.1394342   5.6873527  19.8504637  )
        54           H1  tau(  54) = (   4.0752263   4.4438539  18.8113048  )
        55           H1  tau(  55) = (   3.6086599   4.2347498  20.3655469  )

     number of k points=    10  Fermi-Dirac smearing, width (Ry)=  0.0073
                       cart. coord. in units 2pi/alat
        k(    1) = (   0.0000000   0.0000000   0.0000000), wk =   0.1250000
        k(    2) = (   0.0000000   0.0419351   0.0000000), wk =   0.2500000
        k(    3) = (   0.0000000  -0.0838702   0.0000000), wk =   0.1250000
        k(    4) = (   0.0379955   0.0000049   0.0000000), wk =   0.2500000
        k(    5) = (   0.0379955   0.0419400   0.0000000), wk =   0.2500000
        k(    6) = (   0.0379955  -0.0838652   0.0000000), wk =   0.2500000
        k(    7) = (   0.0379955  -0.0419301   0.0000000), wk =   0.2500000
        k(    8) = (  -0.0759910  -0.0000099   0.0000000), wk =   0.1250000
        k(    9) = (  -0.0759910   0.0419252   0.0000000), wk =   0.2500000
        k(   10) = (  -0.0759910  -0.0838800   0.0000000), wk =   0.1250000

     Initial potential from superposition of free atoms

     starting charge  380.99914, renormalised to  397.00000

     negative rho (up, down):  1.455E-02 0.000E+00

     %%%%%%%%%%%%%%%%%%%%%%%%%%%%%%%%%%%%%%%%%%%%%%%%%%%%%%%%%%%%%%%%%%%%%%%%
     %                                                                      %
     % You are using vdW-DF, which was implemented by the Thonhauser group. %
     % Please cite the following two papers that made this development      %
     % possible and the two reviews that describe the various versions:     %
     %                                                                      %
     %   T. Thonhauser et al., PRL 115, 136402 (2015).                      %
     %   T. Thonhauser et al., PRB 76, 125112 (2007).                       %
     %   K. Berland et al., Rep. Prog. Phys. 78, 066501 (2015).             %
     %   D.C. Langreth et al., J. Phys.: Condens. Matter 21, 084203 (2009). %
     %                                                                      %
     %                                                                      %
     % If you are calculating the stress with vdW-DF, please also cite:     %
     %                                                                      %
     %   R. Sabatini et al., J. Phys.: Condens. Matter 24, 424209 (2012).   %
     %                                                                      %
     %%%%%%%%%%%%%%%%%%%%%%%%%%%%%%%%%%%%%%%%%%%%%%%%%%%%%%%%%%%%%%%%%%%%%%%%

     Adding external electric field

     Computed dipole along edir(3) :
        Dipole              -10.1102 Ry au,        -25.6976 Debye
        Dipole field         -0.0191 Ry au,

        Potential amp.        1.7686 Ry
        Total length         46.3494 bohr

     Starting wfcs are  301 atomic wfcs
  @ DRIVER MODE: Message from server: STATUS
  @ DRIVER MODE: Message from server: POSDATA
  @ DRIVER MODE: Reading and sharing cell
  @ DRIVER MODE: Reading and sharing positions
  @ DRIVER MODE: Received positions

     Self-consistent Calculation

     iteration #  1     ecut=    29.40 Ry     beta= 0.05
     Davidson diagonalization with overlap
     c_bands:  2 eigenvalues not converged
     c_bands:  1 eigenvalues not converged
     c_bands:  1 eigenvalues not converged
     c_bands:  1 eigenvalues not converged
     c_bands:  1 eigenvalues not converged
     c_bands:  1 eigenvalues not converged
     c_bands:  1 eigenvalues not converged
     c_bands:  2 eigenvalues not converged
     ethr =  1.00E-05,  avg # of iterations = 19.0

[...]

     total energy              =   -2537.37032830 Ry
     estimated scf accuracy    <    4509.77642706 Ry

     iteration #  2     ecut=    29.40 Ry     beta= 0.05
     Davidson diagonalization with overlap
     ethr =  1.00E-02,  avg # of iterations = 24.8

[...]

     iteration # 50     ecut=    29.40 Ry     beta= 0.05
     Davidson diagonalization with overlap
     c_bands:  1 eigenvalues not converged
     ethr =  2.55E-08,  avg # of iterations = 10.1

[...]

     total energy              =   -2941.70773010 Ry
     estimated scf accuracy    <       0.00000014 Ry

     iteration # 63     ecut=    29.40 Ry     beta= 0.05
     Davidson diagonalization with overlap
     ethr =  3.49E-11,  avg # of iterations = 11.1

     negative rho (up, down):  1.502E-02 0.000E+00

     Adding external electric field

     Computed dipole along edir(3) :
        Dipole                0.8850 Ry au,          2.2493 Debye
        Dipole field          0.0017 Ry au,

        Potential amp.       -0.1548 Ry
        Total length         46.3494 bohr

     End of self-consistent calculation

          k = 0.0000 0.0000 0.0000 ( 18029 PWs)   bands (ev):

   -55.7595 -55.7508 -55.7254 -55.7148 -55.6449 -55.6045 -55.5881 -55.5699
   -55.5679 -55.5340 -55.5320 -55.4984 -55.2789 -55.0266 -54.7368 -54.7027
   -32.3037 -32.2419 -32.1056 -32.0947 -32.0668 -32.0634 -32.0524 -32.0225
   -32.0019 -31.9779 -31.9712 -31.9507 -31.9305 -31.9114 -31.9029 -31.8899
   -31.8759 -31.8638 -31.8488 -31.8164 -31.8138 -31.8111 -31.7695 -31.7629
   -31.7623 -31.7605 -31.7557 -31.7466 -31.7340 -31.7193 -31.7115 -31.7072
   -31.7022 -31.6983 -31.6850 -31.6752 -31.6442 -31.5331 -31.4599 -31.3080
   -31.2804 -31.2341 -31.1439 -31.0556 -31.0331 -30.9606 -30.8741 -30.7630
   -16.4994 -16.2342 -16.0174 -15.9130 -15.8777 -15.7620 -15.5980 -15.4788
   -15.4262 -15.3281 -15.3144 -15.2952 -15.2616 -15.2450 -15.2243 -15.2054
   -15.2008 -15.1833 -15.1697 -15.1184 -15.0955 -15.0581 -14.9609 -14.9313
   -14.8939 -14.8771 -14.8192 -14.8142 -14.6815 -14.3307 -14.0393 -13.2392
   -13.1228  -7.2978  -4.1651  -4.1095  -4.0240  -3.8750  -3.7664  -3.7127
    -3.6647  -3.6041  -3.3984  -3.3077  -3.2831  -2.9865  -2.9406  -2.9257
    -2.9035  -2.8780  -2.6585  -2.6038  -2.5724  -2.5551  -2.5404  -2.5271
    -2.5195  -2.4999  -2.4658  -2.3682  -2.3147  -2.2999  -2.1766  -2.1480
    -2.0879  -2.0713  -2.0246  -2.0095  -1.9965  -1.9915  -1.9635  -1.9472
    -1.9219  -1.8434  -1.7279  -1.5755  -1.5570  -1.5234  -1.4041  -1.3663
    -1.3022  -1.2186  -1.2005  -1.1844  -1.1504  -1.1387  -1.0594  -0.9460
    -0.9063  -0.8977  -0.7944  -0.7545  -0.7341  -0.6301  -0.6062  -0.5384
    -0.5217  -0.5120  -0.4790  -0.3189  -0.2611  -0.2262  -0.1615  -0.1383
    -0.0792  -0.0611  -0.0309   0.0520   0.0999   0.1266   0.1283   0.1771
     0.2155   0.2324   0.2365   0.2513   0.2714   0.4385   0.5144   0.5283
     0.5978   0.6093   0.7718   0.8159   0.8981   1.0002   1.0345   1.2111
     1.2853   1.3752   1.4776   1.6795   1.8566   1.9022   3.3777   3.4610
     3.5094   3.5219   3.6200   3.6615   3.8304   3.8386   3.8492   3.9240

[...]

          k = 0.0380-0.0419 0.0000 ( 17876 PWs)   bands (ev):

[...]

          k =-0.0760-0.0000 0.0000 ( 17886 PWs)   bands (ev):

[...]

          k =-0.0760-0.0839 0.0000 ( 17948 PWs)   bands (ev):

   -55.7428 -55.7419 -55.7336 -55.7318 -55.6390 -55.5939 -55.5889 -55.5854
   -55.5517 -55.5498 -55.5160 -55.5147 -55.2778 -55.0276 -54.7198 -54.7196
   -32.1088 -32.1059 -32.0575 -32.0568 -32.0382 -32.0372 -32.0221 -32.0100
   -31.9576 -31.9535 -31.9488 -31.9447 -31.9100 -31.8834 -31.8818 -31.8787
   -31.8695 -31.8635 -31.8621 -31.8612 -31.8548 -31.8524 -31.8422 -31.8081
   -31.8020 -31.7947 -31.7825 -31.7698 -31.7505 -31.7500 -31.7471 -31.7460
   -31.7305 -31.7298 -31.7248 -31.7219 -31.6425 -31.5356 -31.4564 -31.3747
   -31.2821 -31.2561 -31.0459 -31.0458 -30.9567 -30.9565 -30.9174 -30.9173
   -15.9387 -15.9074 -15.7024 -15.6754 -15.6717 -15.6555 -15.5306 -15.4675
   -15.4545 -15.4522 -15.3880 -15.3676 -15.3311 -15.3038 -15.2895 -15.2794
   -15.2735 -15.2673 -15.2187 -15.2129 -15.1952 -15.1880 -15.0848 -15.0755
   -15.0716 -15.0163 -14.9359 -14.7940 -14.6982 -14.5043 -14.0390 -13.2247
   -13.2246  -7.2943  -4.1685  -4.1106  -4.0206  -3.4407  -3.2286  -3.1913
    -2.9321  -2.9139  -2.9003  -2.8452  -2.6724  -2.6550  -2.6335  -2.6155
    -2.5817  -2.5808  -2.5617  -2.5598  -2.5490  -2.5146  -2.5027  -2.4730
    -2.4355  -2.4252  -2.4134  -2.4121  -2.3821  -2.3724  -2.3336  -2.3042
    -2.2949  -2.2764  -2.2617  -2.0923  -1.9840  -1.9587  -1.8956  -1.8878
    -1.8589  -1.8229  -1.8155  -1.7945  -1.7439  -1.6579  -1.4908  -1.4586
    -1.4403  -1.3785  -1.3606  -1.3096  -1.2299  -1.1559  -1.1338  -1.1284
    -1.0787  -0.9691  -0.9466  -0.9384  -0.8687  -0.8225  -0.8156  -0.7801
    -0.7513  -0.7188  -0.7144  -0.6222  -0.5727  -0.5299  -0.5249  -0.4766
    -0.4092  -0.3979  -0.3694  -0.2602  -0.2375  -0.1806  -0.1454  -0.0355
     0.0279   0.2260   0.2799   0.3159   0.3734   0.4482   0.5306   0.5460
     0.5502   0.5606   0.6165   0.6701   0.7744   0.7832   0.8384   0.9455
     1.0010   1.6030   1.6491   1.6497   1.7220   1.7221   3.6603   3.6721
     3.7109   3.7316   3.8696   3.8850   3.9086   3.9095   3.9607   4.0513

     the Fermi energy is     3.3750 ev

!    total energy              =   -2941.70776061 Ry
     estimated scf accuracy    <       0.00000007 Ry
     smearing contrib. (-TS)   =      -0.02185611 Ry
     internal energy E=F+TS    =   -2941.68590449 Ry

     The total energy is F=E-TS. E is the sum of the following terms:
     one-electron contribution =  -23925.23394888 Ry
     hartree contribution      =   12052.24916440 Ry
     xc contribution           =    -486.76288523 Ry
     ewald contribution        =    9418.06028730 Ry
     electric field correction =       0.00147792 Ry

     convergence has been achieved in  63 iterations

     Forces acting on atoms (cartesian axes, Ry/au):

     atom    1 type  1   force =     0.00002974   -0.00024591    0.09663828
     atom    2 type  1   force =     0.00003362   -0.00057514   -0.17536119
     atom    3 type  2   force =     0.00011500   -0.00004073   -0.02487473
     atom    4 type  2   force =    -0.00000327   -0.00141509    0.05293572
     atom    5 type  2   force =    -0.01226116   -0.00026178    0.00348343
     atom    6 type  2   force =     0.01361425    0.00026561    0.00255942
     atom    7 type  1   force =     0.00031376    0.00058867   -0.01135664
     atom    8 type  1   force =     0.00052245    0.00782759    0.02844579
     atom    9 type  2   force =     0.00020468    0.00041245    0.00048879
     atom   10 type  2   force =    -0.00292243    0.00138954   -0.01557280
     atom   11 type  2   force =     0.00066952   -0.00000655   -0.00002062
     atom   12 type  2   force =    -0.00008455   -0.00013640   -0.00014295
     atom   13 type  1   force =    -0.00018954   -0.00032353    0.00097938
     atom   14 type  1   force =     0.00018268   -0.00007219   -0.00018676
     atom   15 type  2   force =     0.00017918    0.00049209    0.00020379
     atom   16 type  2   force =    -0.00033293   -0.00035695   -0.00028354
     atom   17 type  2   force =    -0.00066288    0.00003359   -0.00046849
     atom   18 type  2   force =     0.00038681    0.00045811   -0.00006460
     atom   19 type  1   force =    -0.00047591   -0.00077820   -0.00029660
     atom   20 type  1   force =     0.00045886    0.00090536   -0.00118354
     atom   21 type  2   force =     0.00005250   -0.00006226    0.10318580
     atom   22 type  2   force =    -0.00078309    0.00005187    0.00063916
     atom   23 type  2   force =    -0.07153177   -0.00014039   -0.02770868
     atom   24 type  2   force =     0.07145513    0.00031939   -0.02778286
     atom   25 type  1   force =     0.00016523   -0.00024836    0.09629362
     atom   26 type  1   force =     0.00009254   -0.00022331   -0.17559982
     atom   27 type  2   force =     0.00017089   -0.00018984   -0.02392548
     atom   28 type  2   force =    -0.00000018   -0.00117468    0.05284876
     atom   29 type  2   force =    -0.01239427    0.00039557    0.00317810
     atom   30 type  2   force =     0.01364626    0.00085776    0.00222433
     atom   31 type  1   force =     0.00028164    0.00323932   -0.01194035
     atom   32 type  1   force =     0.00065715   -0.01005679    0.02885677
     atom   33 type  2   force =     0.00024427   -0.00024103    0.00062285
     atom   34 type  2   force =    -0.00237773    0.00101998   -0.02372183
     atom   35 type  2   force =     0.00059266   -0.00070426   -0.00009031
     atom   36 type  2   force =    -0.00015862   -0.00078961    0.00017400
     atom   37 type  1   force =    -0.00017770   -0.00013174    0.00048964
     atom   38 type  1   force =     0.00029586    0.00036056   -0.00066025
     atom   39 type  2   force =    -0.00008925   -0.00074074    0.00118588
     atom   40 type  2   force =     0.00026513   -0.00062386   -0.00011281
     atom   41 type  2   force =    -0.00025039   -0.00065630   -0.00007415
     atom   42 type  2   force =    -0.00034991   -0.00026805   -0.00002633
     atom   43 type  1   force =    -0.00048827    0.00069855    0.00010855
     atom   44 type  1   force =    -0.00020215    0.00018123   -0.00040715
     atom   45 type  2   force =     0.00007176   -0.00006540    0.10321256
     atom   46 type  2   force =    -0.07156013   -0.00008706   -0.02773323
     atom   47 type  2   force =     0.07146480    0.00033747   -0.02779698
     atom   48 type  3   force =    -0.00019878   -0.00062227   -0.00122726
     atom   49 type  4   force =     0.00062722   -0.00106093    0.00080612
     atom   50 type  5   force =    -0.00040473    0.00076695    0.00114413
     atom   51 type  5   force =    -0.00026758    0.00065810   -0.00049474
     atom   52 type  3   force =    -0.00562610   -0.02222511   -0.00179865
     atom   53 type  5   force =     0.00929636    0.01095449    0.00327780
     atom   54 type  5   force =    -0.00163033    0.00432242    0.00512841
     atom   55 type  5   force =    -0.00066630    0.00798781   -0.00819774

     Total force =     0.369308     Total SCF correction =     0.000745
  @ DRIVER MODE: Message from server: STATUS
  @ DRIVER MODE: Message from server: GETFORCE
  @ DRIVER MODE: Returning v,forces,stress,ensemble

     Writing output data file ./calc.save/
  @ DRIVER MODE: Message from server: EXIT
  @ DRIVE MODE: Exiting

     General routines

     Parallel routines

   This run was terminated on:  20:29:37  24Aug2021

   JOB DONE.