     Program PWSCF v.6.7GPU starts on 15Sep2021 at 17:52:23

     R & G space division:  proc/nbgrp/npool/nimage =      10
     Reading input from /storage/home/hcoda1/3/ntian30/research/carbon/CxH_vib/H2O_calc/ads_slab/CHOHH2O_a/out_0007/pw.inp
Warning: card &CELL ignored
Warning: card   CELL_DYNAMICS='IPI', ignored
Warning: card / ignored

     Current dimensions of program PWSCF are:
     Max number of different atomic species (ntypx) = 10
     Max number of k-points (npk) =  40000
     Max angular momentum in pseudopotentials (lmaxx) =  3
     Presently no symmetry can be used with electric field

     Message from routine cell_base_init:
     DEPRECATED: use true lattice parameter, not A to a.u. conversion factor

     IMPORTANT: XC functional enforced from input :
     Exchange-correlation= BEEF-VDW
                           (   1   4  43  14   2   0   0)
     Any further DFT definition will be discarded
     Please, verify this is what you really want

  @ DRIVER MODE: Connecting to
 qe_1139763_2852632.sched-torque.pace.gatech.edul6vlkx6r_scratch
  using UNIX socket
  @ DRIVER MODE: Message from server: STATUS
  @ DRIVER MODE: Message from server: INIT
  @ DRIVER MODE: Receiving replica           0          -1
  @ DRIVER MODE: Receiving encoded integer          25
  @ DRIVER MODE:  SCF:  T  FORCE:  T  STRESS:  F  VC:  F  ENSEMBLE:  F
  @ DRIVER MODE:  SCF:  T  FORCE:  T  STRESS:  F  VC:  F  ENSEMBLE:  F

     Using Slab Decomposition

     bravais-lattice index     =            0
     lattice parameter (alat)  =       1.8897  a.u.
     unit-cell volume          =    6658.9804 (a.u.)^3
     number of atoms/cell      =           54
     number of atomic types    =            4
     number of electrons       =       398.00
     number of Kohn-Sham states=          209
     kinetic-energy cutoff     =      29.3995  Ry
     charge density cutoff     =     293.9946  Ry
     scf convergence threshold =      7.3E-08
     mixing beta               =       0.0500
     number of iterations used =            8  plain     mixing
     Exchange-correlation= BEEF-VDW
                           (   1   4  43  14   2   0   0)

     celldm(1)=   1.889726  celldm(2)=   0.000000  celldm(3)=   0.000000
     celldm(4)=   0.000000  celldm(5)=   0.000000  celldm(6)=   0.000000

     crystal axes: (cart. coord. in units of alat)
               a(1) = (   6.579727   0.000000   0.000000 )
               a(2) = (  -0.000775   5.961596   0.000000 )
               a(3) = (   0.000000   0.000000  25.155947 )

     reciprocal axes: (cart. coord. in units 2 pi/alat)
               b(1) = (  0.151982  0.000020  0.000000 )
               b(2) = (  0.000000  0.167740  0.000000 )
               b(3) = (  0.000000  0.000000  0.039752 )

     PseudoPot. # 1 for Ti read from file:
     /storage/coda1/p-amedford6/0/shared/rich_project_chbe-medford/medford-share/data/pseudos_module/espresso/nninc/pbe/van/Ti.UPF
     MD5 check sum: 8e4df49b7f0d34bbd5052bf3f5ea0213
     Pseudo is Ultrasoft, Zval = 12.0
     Generated by new atomic code, or converted to UPF format
     Using radial grid of  851 points,  6 beta functions with:
                l(1) =   0
                l(2) =   0
                l(3) =   1
                l(4) =   1
                l(5) =   2
                l(6) =   2
     Q(r) pseudized with  8 coefficients,  rinner =    1.000   1.000   1.000
                                                       1.000   1.000

     PseudoPot. # 2 for O  read from file:
     /storage/coda1/p-amedford6/0/shared/rich_project_chbe-medford/medford-share/data/pseudos_module/espresso/nninc/pbe/van/O.UPF
     MD5 check sum: 78c19812648e8988a0fe644b0f25305e
     Pseudo is Ultrasoft, Zval =  6.0
     Generated by new atomic code, or converted to UPF format
     Using radial grid of  737 points,  4 beta functions with:
                l(1) =   0
                l(2) =   0
                l(3) =   1
                l(4) =   1
     Q(r) pseudized with  8 coefficients,  rinner =    0.800   0.800   0.800

     PseudoPot. # 3 for C  read from file:
     /storage/coda1/p-amedford6/0/shared/rich_project_chbe-medford/medford-share/data/pseudos_module/espresso/nninc/pbe/van/C.UPF
     MD5 check sum: 1a69bf6b8db32088f5b2163dbdb77a27
     Pseudo is Ultrasoft, Zval =  4.0
     Generated by new atomic code, or converted to UPF format
     Using radial grid of  721 points,  4 beta functions with:
                l(1) =   0
                l(2) =   0
                l(3) =   1
                l(4) =   1
     Q(r) pseudized with  8 coefficients,  rinner =    0.800   0.800   0.800

     PseudoPot. # 4 for H  read from file:
     /storage/coda1/p-amedford6/0/shared/rich_project_chbe-medford/medford-share/data/pseudos_module/espresso/nninc/pbe/van/H.UPF
     MD5 check sum: b5ee9d7bfd3a09ee7748110bda690ff7
     Pseudo is Ultrasoft, Zval =  1.0
     Generated by new atomic code, or converted to UPF format
     Using radial grid of  615 points,  1 beta functions with:
                l(1) =   0
     Q(r) pseudized with  8 coefficients,  rinner =    0.800

     atomic species   valence    mass     pseudopotential
        Ti1           12.00    47.86700     Ti( 1.00)
        O1             6.00    15.99900     O ( 1.00)
        C1             4.00    12.01100     C ( 1.00)
        H1             1.00     1.00800     H ( 1.00)

     No symmetry found

   Cartesian axes

     site n.     atom                  positions (alat units)
         1           Ti1 tau(   1) = (   0.0004258   2.9801865   6.0000000  )
         2           Ti1 tau(   2) = (   3.2906075   1.4906267   6.0002472  )
         3           O1  tau(   3) = (   0.0006271   0.0005054   7.9858123  )
         4           O1  tau(   4) = (   3.2906025   0.0005020   7.3038282  )
         5           O1  tau(   5) = (   4.5942328   1.4918067   9.2879030  )
         6           O1  tau(   6) = (   1.9868534   1.4903216   9.2879459  )
         7           Ti1 tau(   7) = (   3.3203992   3.0065636   9.1614972  )
         8           Ti1 tau(   8) = (   0.0364112   1.5055733   9.2692997  )
         9           O1  tau(   9) = (   3.3037507   0.0048223  11.3846665  )
        10           O1  tau(  10) = (   0.0023770   0.0017864  10.5989407  )
        11           O1  tau(  11) = (   1.2986710   1.4943985  12.6419360  )
        12           O1  tau(  12) = (   5.3019195   1.4930987  12.6558330  )
        13           Ti1 tau(  13) = (   0.0201679   2.9954199  12.5459836  )
        14           Ti1 tau(  14) = (   3.3085843   1.4996073  12.5278567  )
        15           O1  tau(  15) = (   0.0306707   0.0063333  14.6434371  )
        16           O1  tau(  16) = (   3.2901280   5.9588824  14.0411263  )
        17           O1  tau(  17) = (   4.5937705   1.5245028  16.1210063  )
        18           O1  tau(  18) = (   2.0412355   1.5396885  16.1535958  )
        19           Ti1 tau(  19) = (   3.3250740   2.9785215  15.7238461  )
        20           Ti1 tau(  20) = (   0.0142243   1.3716099  15.9029131  )
        21           O1  tau(  21) = (   3.2904802   0.0005063   4.7018136  )
        22           O1  tau(  22) = (   0.0234726   5.9563001  17.1693433  )
        23           O1  tau(  23) = (   1.3043587   1.4918075   6.0039043  )
        24           O1  tau(  24) = (   5.2767064   1.4903225   6.0039473  )
        25           Ti1 tau(  25) = (   0.0000382   5.9609847   6.0000000  )
        26           Ti1 tau(  26) = (   3.2902200   4.4714249   6.0002472  )
        27           O1  tau(  27) = (   0.0002396   2.9813036   7.9858123  )
        28           O1  tau(  28) = (   3.2902150   2.9813002   7.3038282  )
        29           O1  tau(  29) = (   4.5938453   4.4726049   9.2879030  )
        30           O1  tau(  30) = (   1.9864658   4.4711199   9.2879459  )
        31           Ti1 tau(  31) = (   3.3166040   0.0254347   9.1556988  )
        32           Ti1 tau(  32) = (   0.0362352   4.4699824   9.2670842  )
        33           O1  tau(  33) = (   3.3035804   2.9865095  11.3763011  )
        34           O1  tau(  34) = (   0.0042610   2.9829788  10.6236548  )
        35           O1  tau(  35) = (   1.2977823   4.4749822  12.6434080  )
        36           O1  tau(  36) = (   5.3021498   4.4756442  12.6578133  )
        37           Ti1 tau(  37) = (   0.0128731   0.0155586  12.4748574  )
        38           Ti1 tau(  38) = (   3.3087006   4.4877506  12.5360639  )
        39           O1  tau(  39) = (   0.0289868   2.9802581  14.8446641  )
        40           O1  tau(  40) = (   3.2975897   2.9808645  13.9396156  )
        41           O1  tau(  41) = (   4.5936103   4.4348319  16.1149158  )
        42           O1  tau(  42) = (   2.0365336   4.4144103  16.1518429  )
        43           Ti1 tau(  43) = (   3.2980932   5.9591119  15.8729608  )
        44           Ti1 tau(  44) = (   0.0070259   4.5936845  15.8821292  )
        45           O1  tau(  45) = (   3.2900926   2.9813045   4.7018136  )
        46           O1  tau(  46) = (   1.3039711   4.4726057   6.0039043  )
        47           O1  tau(  47) = (   5.2763189   4.4711207   6.0039473  )
        48           C1  tau(  48) = (   6.0563806   2.9601134  19.0478501  )
        49           O1  tau(  49) = (   0.1603025   2.9720528  17.8813388  )
        50           H1  tau(  50) = (   5.0099104   2.8626262  18.6876999  )
        51           H1  tau(  51) = (   1.1251272   3.0566160  18.0647747  )
        52           O1  tau(  52) = (   3.2803433   5.9178330  18.2983259  )
        53           H1  tau(  53) = (   4.0549949   5.9397654  18.8787675  )
        54           H1  tau(  54) = (   2.4787048   0.0262026  18.8357284  )

     number of k points=    10  Fermi-Dirac smearing, width (Ry)=  0.0073
                       cart. coord. in units 2pi/alat
        k(    1) = (   0.0000000   0.0000000   0.0000000), wk =   0.1250000
        k(    2) = (   0.0000000   0.0419351   0.0000000), wk =   0.2500000
        k(    3) = (   0.0000000  -0.0838702   0.0000000), wk =   0.1250000
        k(    4) = (   0.0379955   0.0000049   0.0000000), wk =   0.2500000
        k(    5) = (   0.0379955   0.0419400   0.0000000), wk =   0.2500000
        k(    6) = (   0.0379955  -0.0838652   0.0000000), wk =   0.2500000
        k(    7) = (   0.0379955  -0.0419301   0.0000000), wk =   0.2500000
        k(    8) = (  -0.0759910  -0.0000099   0.0000000), wk =   0.1250000
        k(    9) = (  -0.0759910   0.0419252   0.0000000), wk =   0.2500000
        k(   10) = (  -0.0759910  -0.0838800   0.0000000), wk =   0.1250000

     Initial potential from superposition of free atoms

     starting charge  381.99917, renormalised to  398.00000

     negative rho (up, down):  1.670E-02 0.000E+00

     %%%%%%%%%%%%%%%%%%%%%%%%%%%%%%%%%%%%%%%%%%%%%%%%%%%%%%%%%%%%%%%%%%%%%%%%
     %                                                                      %
     % You are using vdW-DF, which was implemented by the Thonhauser group. %
     % Please cite the following two papers that made this development      %
     % possible and the two reviews that describe the various versions:     %
     %                                                                      %
     %   T. Thonhauser et al., PRL 115, 136402 (2015).                      %
     %   T. Thonhauser et al., PRB 76, 125112 (2007).                       %
     %   K. Berland et al., Rep. Prog. Phys. 78, 066501 (2015).             %
     %   D.C. Langreth et al., J. Phys.: Condens. Matter 21, 084203 (2009). %
     %                                                                      %
     %                                                                      %
     % If you are calculating the stress with vdW-DF, please also cite:     %
     %                                                                      %
     %   R. Sabatini et al., J. Phys.: Condens. Matter 24, 424209 (2012).   %
     %                                                                      %
     %%%%%%%%%%%%%%%%%%%%%%%%%%%%%%%%%%%%%%%%%%%%%%%%%%%%%%%%%%%%%%%%%%%%%%%%

     Adding external electric field

     Computed dipole along edir(3) :
        Dipole              -10.5131 Ry au,        -26.7216 Debye
        Dipole field         -0.0198 Ry au,

        Potential amp.        1.8391 Ry
        Total length         46.3494 bohr

     Starting wfcs are  300 atomic wfcs
  @ DRIVER MODE: Message from server: STATUS
  @ DRIVER MODE: Message from server: POSDATA
  @ DRIVER MODE: Reading and sharing cell
  @ DRIVER MODE: Reading and sharing positions
  @ DRIVER MODE: Received positions

     Self-consistent Calculation

     iteration #  1     ecut=    29.40 Ry     beta= 0.05
     Davidson diagonalization with overlap
     c_bands:  2 eigenvalues not converged
     c_bands:  3 eigenvalues not converged
     c_bands:  1 eigenvalues not converged
     c_bands:  4 eigenvalues not converged
     c_bands:  4 eigenvalues not converged
     c_bands:  4 eigenvalues not converged
     c_bands:  1 eigenvalues not converged
     c_bands:  3 eigenvalues not converged
     c_bands:  4 eigenvalues not converged
     ethr =  1.00E-05,  avg # of iterations = 19.9

[...]

     total energy              =   -2479.44399841 Ry
     estimated scf accuracy    <    5441.03843523 Ry

     iteration #  2     ecut=    29.40 Ry     beta= 0.05
     Davidson diagonalization with overlap
     ethr =  1.00E-02,  avg # of iterations = 25.7

[...]

     iteration # 65     ecut=    29.40 Ry     beta= 0.05
     Davidson diagonalization with overlap
     c_bands:  1 eigenvalues not converged
     c_bands:  1 eigenvalues not converged
     ethr =  5.69E-11,  avg # of iterations = 15.9

[...]

     total energy              =   -2964.77926812 Ry
     estimated scf accuracy    <       0.00000013 Ry

     iteration # 69     ecut=    29.40 Ry     beta= 0.05
     Davidson diagonalization with overlap
     ethr =  3.21E-11,  avg # of iterations =  7.9

     negative rho (up, down):  1.519E-02 0.000E+00

     Adding external electric field

     Computed dipole along edir(3) :
        Dipole                0.7158 Ry au,          1.8195 Debye
        Dipole field          0.0014 Ry au,

        Potential amp.       -0.1252 Ry
        Total length         46.3494 bohr

     End of self-consistent calculation

          k = 0.0000 0.0000 0.0000 ( 18029 PWs)   bands (ev):

   -55.7004 -55.6874 -55.6641 -55.6619 -55.6529 -55.6020 -55.5505 -55.5486
   -55.5372 -55.5161 -55.5033 -55.4821 -55.4817 -55.4694 -54.7682 -54.7342
   -32.2609 -32.1814 -32.1792 -32.0830 -32.0460 -32.0262 -32.0150 -32.0050
   -31.9764 -31.9412 -31.9311 -31.9160 -31.8920 -31.8846 -31.8775 -31.8585
   -31.8409 -31.8404 -31.8371 -31.8296 -31.8142 -31.8025 -31.8024 -31.7928
   -31.7919 -31.7756 -31.7724 -31.7443 -31.7328 -31.7183 -31.7073 -31.7063
   -31.7021 -31.6971 -31.6909 -31.6829 -31.6507 -31.6493 -31.6444 -31.6406
   -31.6142 -31.5588 -31.1799 -31.0785 -31.0568 -30.9962 -30.9098 -30.7988
   -21.1586 -19.2637 -16.5194 -16.2775 -16.1350 -16.0323 -15.9265 -15.7941
   -15.7070 -15.5835 -15.5202 -15.3935 -15.3548 -15.3496 -15.3430 -15.3137
   -15.2949 -15.2692 -15.2456 -15.2045 -15.2001 -15.1964 -15.1677 -15.1553
   -15.0977 -15.0850 -15.0432 -14.9231 -14.8715 -14.8104 -14.4950 -13.2690
   -13.1499 -10.3314  -7.2244  -5.7297  -4.7079  -4.0505  -3.9435  -3.8113
    -3.7128  -3.6443  -3.6079  -3.5410  -3.4597  -3.2569  -3.1274  -3.1186
    -2.9856  -2.9489  -2.9043  -2.8030  -2.7378  -2.6750  -2.6651  -2.5899
    -2.5850  -2.5766  -2.5633  -2.4722  -2.4662  -2.4175  -2.3748  -2.2966
    -2.2613  -2.1429  -2.1123  -2.1030  -2.0594  -2.0437  -2.0369  -2.0247
    -1.9747  -1.9491  -1.9324  -1.9300  -1.7888  -1.7461  -1.6012  -1.4751
    -1.4448  -1.4284  -1.3055  -1.2620  -1.2456  -1.1889  -1.1689  -1.1575
    -1.1186  -1.0375  -0.9549  -0.9329  -0.8592  -0.8159  -0.7114  -0.6179
    -0.5742  -0.5252  -0.5014  -0.4920  -0.4726  -0.4098  -0.3608  -0.2734
    -0.2198  -0.1583  -0.1297  -0.1227  -0.0691  -0.0383   0.0408   0.0890
     0.1233   0.1366   0.2229   0.2377   0.2498   0.2811   0.2840   0.3968
     0.4509   0.5061   0.5143   0.6624   0.8278   0.8551   0.9338   1.1490
     1.2574   1.2598   1.4207   1.4650   1.8424   1.8967   3.3872   3.4572
     3.4918   3.5060   3.5146   3.5930   3.8284   3.8758   3.9065   3.9253
     3.9347

[...]

          k = 0.0380-0.0419 0.0000 ( 17876 PWs)   bands (ev):

[...]

          k =-0.0760-0.0000 0.0000 ( 17886 PWs)   bands (ev):

[...]

          k =-0.0760-0.0839 0.0000 ( 17948 PWs)   bands (ev):

   -55.6849 -55.6795 -55.6724 -55.6677 -55.6602 -55.5958 -55.5548 -55.5352
   -55.5310 -55.5304 -55.4885 -55.4875 -55.4854 -55.4835 -54.7512 -54.7511
   -32.1042 -32.0712 -32.0601 -31.9986 -31.9941 -31.9755 -31.9665 -31.9572
   -31.9553 -31.9307 -31.9295 -31.9045 -31.8955 -31.8673 -31.8534 -31.8517
   -31.8502 -31.8417 -31.8371 -31.8330 -31.8253 -31.8185 -31.8006 -31.7979
   -31.7948 -31.7929 -31.7926 -31.7914 -31.7879 -31.7799 -31.7780 -31.7479
   -31.7336 -31.7332 -31.7183 -31.7088 -31.7070 -31.7022 -31.6764 -31.6715
   -31.6704 -31.6478 -31.0694 -31.0693 -30.9927 -30.9924 -30.9531 -30.9529
   -21.1573 -19.2632 -16.1509 -15.9553 -15.8045 -15.7200 -15.7133 -15.6545
   -15.5747 -15.5336 -15.4884 -15.4758 -15.4653 -15.4308 -15.4232 -15.4118
   -15.3483 -15.2974 -15.2938 -15.2784 -15.2294 -15.2216 -15.2111 -15.2055
   -15.1967 -15.1537 -15.1495 -15.1349 -15.1241 -14.9823 -14.8272 -13.2514
   -13.2506 -10.3347  -7.2220  -5.7334  -4.6862  -3.9814  -3.8736  -3.2307
    -3.2277  -2.9662  -2.9439  -2.8856  -2.8739  -2.8095  -2.7785  -2.7025
    -2.6961  -2.6516  -2.6106  -2.6026  -2.5895  -2.5650  -2.5317  -2.5199
    -2.4764  -2.4675  -2.4411  -2.4385  -2.4171  -2.4013  -2.3762  -2.3702
    -2.3381  -2.3182  -2.3107  -2.3071  -2.2324  -2.1679  -2.0442  -2.0233
    -1.9830  -1.9323  -1.9168  -1.8463  -1.8106  -1.7959  -1.7385  -1.7047
    -1.6789  -1.5040  -1.4928  -1.4721  -1.3822  -1.3486  -1.3387  -1.3100
    -1.2528  -1.2223  -1.2191  -1.1406  -1.0297  -1.0070  -0.9077  -0.8626
    -0.8612  -0.7735  -0.7389  -0.7003  -0.6983  -0.6624  -0.6047  -0.5831
    -0.5262  -0.5211  -0.4734  -0.4520  -0.4284  -0.3980  -0.2264  -0.1700
    -0.1148  -0.0171   0.0100   0.2379   0.2691   0.2770   0.3423   0.3735
     0.4784   0.5005   0.5640   0.5792   0.6804   0.7093   0.7287   0.7336
     0.7797   1.4722   1.6092   1.6118   1.7107   1.7144   3.5376   3.5500
     3.6525   3.7037   3.7415   3.8446   3.8940   3.9258   3.9338   3.9489
     4.0523

     the Fermi energy is     3.4352 ev

!    total energy              =   -2964.77929516 Ry
     estimated scf accuracy    <       0.00000004 Ry
     smearing contrib. (-TS)   =      -0.03744356 Ry
     internal energy E=F+TS    =   -2964.74185161 Ry

     The total energy is F=E-TS. E is the sum of the following terms:
     one-electron contribution =  -24112.50754257 Ry
     hartree contribution      =   12146.50485471 Ry
     xc contribution           =    -490.01837831 Ry
     ewald contribution        =    9491.27824758 Ry
     electric field correction =       0.00096698 Ry

     convergence has been achieved in  69 iterations

     Forces acting on atoms (cartesian axes, Ry/au):

     atom    1 type  1   force =    -0.00035288   -0.00002555    0.09255416
     atom    2 type  1   force =    -0.00033425    0.00121772   -0.18261656
     atom    3 type  2   force =     0.00043633    0.00023150   -0.02458009
     atom    4 type  2   force =     0.00073326    0.00044885    0.05162879
     atom    5 type  2   force =    -0.01466401   -0.00007650    0.00466642
     atom    6 type  2   force =     0.01553308   -0.00056741    0.00542184
     atom    7 type  1   force =    -0.00049637   -0.00017411    0.00011919
     atom    8 type  1   force =     0.00021692    0.00001373    0.00021589
     atom    9 type  2   force =    -0.00017266   -0.00017535   -0.00028109
     atom   10 type  2   force =     0.00006134   -0.00004483    0.00032608
     atom   11 type  2   force =    -0.00031623    0.00020673    0.00003580
     atom   12 type  2   force =     0.00038423    0.00008109   -0.00021124
     atom   13 type  1   force =    -0.00021767   -0.00025501    0.00017526
     atom   14 type  1   force =     0.00013347   -0.00021449   -0.00053083
     atom   15 type  2   force =    -0.00033540    0.00031885   -0.00008013
     atom   16 type  2   force =     0.00006943    0.00001725   -0.00023348
     atom   17 type  2   force =    -0.00011524   -0.00013779    0.00021669
     atom   18 type  2   force =    -0.00018361    0.00008799    0.00001584
     atom   19 type  1   force =    -0.00084192    0.00006799   -0.00047845
     atom   20 type  1   force =     0.00011028   -0.00021378   -0.00062335
     atom   21 type  2   force =    -0.00009782    0.00005598    0.10489372
     atom   22 type  2   force =    -0.00026483   -0.00002610    0.00077904
     atom   23 type  2   force =    -0.06835046    0.00003074   -0.02692188
     atom   24 type  2   force =     0.06804888    0.00046454   -0.02699891
     atom   25 type  1   force =    -0.00031570   -0.00001193    0.09722766
     atom   26 type  1   force =    -0.00030347   -0.00120347   -0.18266347
     atom   27 type  2   force =     0.00035026    0.00023521   -0.02299069
     atom   28 type  2   force =     0.00081443    0.00042720    0.05201872
     atom   29 type  2   force =    -0.01464756    0.00065139    0.00459753
     atom   30 type  2   force =     0.01566164    0.00039956    0.00532548
     atom   31 type  1   force =    -0.00045764    0.00000106    0.00013292
     atom   32 type  1   force =     0.00021671    0.00009982    0.00019891
     atom   33 type  2   force =    -0.00008500    0.00012986    0.00019010
     atom   34 type  2   force =     0.00001551    0.00001829    0.00016174
     atom   35 type  2   force =    -0.00015681   -0.00030064    0.00012544
     atom   36 type  2   force =     0.00022102   -0.00019779   -0.00010536
     atom   37 type  1   force =    -0.00030238    0.00016118   -0.00048767
     atom   38 type  1   force =     0.00012822    0.00036947   -0.00042010
     atom   39 type  2   force =    -0.00030326   -0.00028060   -0.00002955
     atom   40 type  2   force =     0.00017682   -0.00008365    0.00001537
     atom   41 type  2   force =    -0.00035199   -0.00010626   -0.00015921
     atom   42 type  2   force =     0.00005031   -0.00032674   -0.00034120
     atom   43 type  1   force =    -0.00074321   -0.00025747   -0.00011543
     atom   44 type  1   force =     0.00012843   -0.00034208   -0.00054682
     atom   45 type  2   force =    -0.00007360    0.00005655    0.10479122
     atom   46 type  2   force =    -0.06835176   -0.00060599   -0.02691763
     atom   47 type  2   force =     0.06804402   -0.00013904   -0.02699115
     atom   48 type  3   force =    -0.00489911   -0.00041110    0.00209584
     atom   49 type  2   force =     0.02260517    0.00165894    0.00045731
     atom   50 type  4   force =    -0.00114763    0.00018779    0.00172789
     atom   51 type  4   force =    -0.01557555   -0.00142659   -0.00463644
     atom   52 type  2   force =     0.00004994   -0.00112899    0.00088917
     atom   53 type  4   force =    -0.00026746    0.00059473   -0.00043980
     atom   54 type  4   force =     0.00053578    0.00049929   -0.00060348

     Total force =     0.369568     Total SCF correction =     0.000666
  @ DRIVER MODE: Message from server: STATUS
  @ DRIVER MODE: Message from server: GETFORCE
  @ DRIVER MODE: Returning v,forces,stress,ensemble

     Writing output data file ./calc.save/
  @ DRIVER MODE: Message from server: EXIT
  @ DRIVE MODE: Exiting

     General routines

     Parallel routines

   This run was terminated on:  18:11: 9  15Sep2021

   JOB DONE.