     Program PWSCF v.6.7GPU starts on 16Jul2021 at  9:20: 1

     R & G space division:  proc/nbgrp/npool/nimage =      16
     Reading input from /storage/home/hcoda1/3/ntian30/research/carbon/15Jul_vib/ads_slab/CH3NNH3_a/out_0032/pw.inp
Warning: card &CELL ignored
Warning: card   CELL_DYNAMICS='IPI', ignored
Warning: card / ignored

     Current dimensions of program PWSCF are:
     Max number of different atomic species (ntypx) = 10
     Max number of k-points (npk) =  40000
     Max angular momentum in pseudopotentials (lmaxx) =  3
     Presently no symmetry can be used with electric field

     Message from routine cell_base_init:
     DEPRECATED: use true lattice parameter, not A to a.u. conversion factor

     IMPORTANT: XC functional enforced from input :
     Exchange-correlation= BEEF-VDW
                           (   1   4  43  14   2   0   0)
     Any further DFT definition will be discarded
     Please, verify this is what you really want

  @ DRIVER MODE: Connecting to
 qe_1139763_2351650.sched-torque.pace.gatech.edu9x77x408_scratch
  using UNIX socket
  @ DRIVER MODE: Message from server: STATUS
  @ DRIVER MODE: Message from server: INIT
  @ DRIVER MODE: Receiving replica           0          -1
  @ DRIVER MODE: Receiving encoded integer          25
  @ DRIVER MODE:  SCF:  T  FORCE:  T  STRESS:  F  VC:  F  ENSEMBLE:  F
  @ DRIVER MODE:  SCF:  T  FORCE:  T  STRESS:  F  VC:  F  ENSEMBLE:  F

     Using Slab Decomposition

     bravais-lattice index     =            0
     lattice parameter (alat)  =       1.8897  a.u.
     unit-cell volume          =    6658.9804 (a.u.)^3
     number of atoms/cell      =           56
     number of atomic types    =            5
     number of electrons       =       398.00
     number of Kohn-Sham states=          209
     kinetic-energy cutoff     =      29.3995  Ry
     charge density cutoff     =     293.9946  Ry
     scf convergence threshold =      7.3E-08
     mixing beta               =       0.0500
     number of iterations used =            8  plain     mixing
     Exchange-correlation= BEEF-VDW
                           (   1   4  43  14   2   0   0)

     celldm(1)=   1.889726  celldm(2)=   0.000000  celldm(3)=   0.000000
     celldm(4)=   0.000000  celldm(5)=   0.000000  celldm(6)=   0.000000

     crystal axes: (cart. coord. in units of alat)
               a(1) = (   6.579727   0.000000   0.000000 )
               a(2) = (  -0.000775   5.961596   0.000000 )
               a(3) = (   0.000000   0.000000  25.155947 )

     reciprocal axes: (cart. coord. in units 2 pi/alat)
               b(1) = (  0.151982  0.000020  0.000000 )
               b(2) = (  0.000000  0.167740  0.000000 )
               b(3) = (  0.000000  0.000000  0.039752 )

     PseudoPot. # 1 for Ti read from file:
     /storage/coda1/p-amedford6/0/shared/rich_project_chbe-medford/medford-share/data/pseudos_module/espresso/nninc/pbe/van/Ti.UPF
     MD5 check sum: 8e4df49b7f0d34bbd5052bf3f5ea0213
     Pseudo is Ultrasoft, Zval = 12.0
     Generated by new atomic code, or converted to UPF format
     Using radial grid of  851 points,  6 beta functions with:
                l(1) =   0
                l(2) =   0
                l(3) =   1
                l(4) =   1
                l(5) =   2
                l(6) =   2
     Q(r) pseudized with  8 coefficients,  rinner =    1.000   1.000   1.000
                                                       1.000   1.000

     PseudoPot. # 2 for O  read from file:
     /storage/coda1/p-amedford6/0/shared/rich_project_chbe-medford/medford-share/data/pseudos_module/espresso/nninc/pbe/van/O.UPF
     MD5 check sum: 78c19812648e8988a0fe644b0f25305e
     Pseudo is Ultrasoft, Zval =  6.0
     Generated by new atomic code, or converted to UPF format
     Using radial grid of  737 points,  4 beta functions with:
                l(1) =   0
                l(2) =   0
                l(3) =   1
                l(4) =   1
     Q(r) pseudized with  8 coefficients,  rinner =    0.800   0.800   0.800

     PseudoPot. # 3 for N  read from file:
     /storage/coda1/p-amedford6/0/shared/rich_project_chbe-medford/medford-share/data/pseudos_module/espresso/nninc/pbe/van/N.UPF
     MD5 check sum: 90d10febe142ad51ac9d5be1deb811c4
     Pseudo is Ultrasoft, Zval =  5.0
     Generated by new atomic code, or converted to UPF format
     Using radial grid of  729 points,  4 beta functions with:
                l(1) =   0
                l(2) =   0
                l(3) =   1
                l(4) =   1
     Q(r) pseudized with  8 coefficients,  rinner =    0.800   0.800   0.800

     PseudoPot. # 4 for C  read from file:
     /storage/coda1/p-amedford6/0/shared/rich_project_chbe-medford/medford-share/data/pseudos_module/espresso/nninc/pbe/van/C.UPF
     MD5 check sum: 1a69bf6b8db32088f5b2163dbdb77a27
     Pseudo is Ultrasoft, Zval =  4.0
     Generated by new atomic code, or converted to UPF format
     Using radial grid of  721 points,  4 beta functions with:
                l(1) =   0
                l(2) =   0
                l(3) =   1
                l(4) =   1
     Q(r) pseudized with  8 coefficients,  rinner =    0.800   0.800   0.800

     PseudoPot. # 5 for H  read from file:
     /storage/coda1/p-amedford6/0/shared/rich_project_chbe-medford/medford-share/data/pseudos_module/espresso/nninc/pbe/van/H.UPF
     MD5 check sum: b5ee9d7bfd3a09ee7748110bda690ff7
     Pseudo is Ultrasoft, Zval =  1.0
     Generated by new atomic code, or converted to UPF format
     Using radial grid of  615 points,  1 beta functions with:
                l(1) =   0
     Q(r) pseudized with  8 coefficients,  rinner =    0.800

     atomic species   valence    mass     pseudopotential
        Ti1           12.00    47.86700     Ti( 1.00)
        O1             6.00    15.99900     O ( 1.00)
        N1             5.00    14.00700     N ( 1.00)
        C1             4.00    12.01100     C ( 1.00)
        H1             1.00     1.00800     H ( 1.00)

     Starting magnetic structure
     atomic species   magnetization
        Ti1          0.000
        O1           0.000
        N1           0.000
        C1           0.025
        H1           0.000

     No symmetry found

   Cartesian axes

     site n.     atom                  positions (alat units)
         1           Ti1 tau(   1) = (   0.0004258   2.9801865   6.0000000  )
         2           Ti1 tau(   2) = (   3.2906075   1.4906267   6.0002472  )
         3           O1  tau(   3) = (   0.0006271   0.0005054   7.9858123  )
         4           O1  tau(   4) = (   3.2906025   0.0005020   7.3038282  )
         5           O1  tau(   5) = (   4.5942328   1.4918067   9.2879030  )
         6           O1  tau(   6) = (   1.9868534   1.4903216   9.2879459  )
         7           Ti1 tau(   7) = (   3.2907910   2.8959150   9.1758416  )
         8           Ti1 tau(   8) = (   0.0015273   1.4827037   9.2680791  )
         9           O1  tau(   9) = (   3.3019049   5.9598586  11.2958584  )
        10           O1  tau(  10) = (   0.0116148   5.9584955  10.6183126  )
        11           O1  tau(  11) = (   1.3346742   1.4914638  12.6145280  )
        12           O1  tau(  12) = (   5.3113054   1.4894223  12.6320738  )
        13           Ti1 tau(  13) = (   6.4919192   2.9607050  12.7581921  )
        14           Ti1 tau(  14) = (   3.1808934   1.4809541  12.4628303  )
        15           O1  tau(  15) = (   0.0259758   5.9327586  14.5948705  )
        16           O1  tau(  16) = (   3.3179433   0.0111293  13.8771559  )
        17           O1  tau(  17) = (   4.5450242   1.5254396  16.0425357  )
        18           O1  tau(  18) = (   2.0945915   1.5254857  16.0466093  )
        19           Ti1 tau(  19) = (   3.3175380   3.0118254  15.6854273  )
        20           Ti1 tau(  20) = (   0.0287691   1.6153805  16.0968480  )
        21           O1  tau(  21) = (   3.2904802   0.0005063   4.7018136  )
        22           O1  tau(  22) = (   0.0272082   0.0527987  17.2096484  )
        23           O1  tau(  23) = (   1.3043587   1.4918075   6.0039043  )
        24           O1  tau(  24) = (   5.2767064   1.4903225   6.0039473  )
        25           Ti1 tau(  25) = (   0.0000382   5.9609847   6.0000000  )
        26           Ti1 tau(  26) = (   3.2902200   4.4714249   6.0002472  )
        27           O1  tau(  27) = (   0.0002396   2.9813036   7.9858123  )
        28           O1  tau(  28) = (   3.2902150   2.9813002   7.3038282  )
        29           O1  tau(  29) = (   4.5938453   4.4726049   9.2879030  )
        30           O1  tau(  30) = (   1.9864658   4.4711199   9.2879459  )
        31           Ti1 tau(  31) = (   3.2891106   5.8743827   9.1763621  )
        32           Ti1 tau(  32) = (   0.0006254   4.4649316   9.2693709  )
        33           O1  tau(  33) = (   3.3007599   2.9794320  11.2948048  )
        34           O1  tau(  34) = (   0.0092240   2.9805883  10.6323155  )
        35           O1  tau(  35) = (   1.3367187   4.4652043  12.6121808  )
        36           O1  tau(  36) = (   5.3110114   4.4536366  12.6300246  )
        37           Ti1 tau(  37) = (   6.5175235   5.9394146  12.7678677  )
        38           Ti1 tau(  38) = (   3.1810223   4.4618757  12.4682998  )
        39           O1  tau(  39) = (   0.0141956   2.9656780  14.6533049  )
        40           O1  tau(  40) = (   3.3125561   2.9946134  13.8784269  )
        41           O1  tau(  41) = (   4.5469694   4.5079638  16.0550352  )
        42           O1  tau(  42) = (   2.0896055   4.5089645  16.0567747  )
        43           Ti1 tau(  43) = (   3.3249511   0.0336637  15.6879192  )
        44           Ti1 tau(  44) = (   0.0309337   4.5948497  16.1324869  )
        45           O1  tau(  45) = (   3.2900926   2.9813045   4.7018136  )
        46           O1  tau(  46) = (   1.3039711   4.4726057   6.0039043  )
        47           O1  tau(  47) = (   5.2763189   4.4711207   6.0039473  )
        48           N1  tau(  48) = (   0.0510883   3.0100077  17.3315927  )
        49           C1  tau(  49) = (   0.2149723   3.0659314  18.7643681  )
        50           H1  tau(  50) = (   6.1109748   3.7957518  19.2115106  )
        51           H1  tau(  51) = (   0.0391147   2.0919789  19.2277120  )
        52           H1  tau(  52) = (   1.2341903   3.3897193  19.0223879  )
        53           N1  tau(  53) = (   4.7817085   1.8344328  21.5424420  )
        54           H1  tau(  54) = (   4.4711387   2.7986659  21.4441960  )
        55           H1  tau(  55) = (   4.1840297   1.2822813  20.9257432  )
        56           H1  tau(  56) = (   4.5427024   1.5537098  22.4892962  )

     number of k points=    10  Fermi-Dirac smearing, width (Ry)=  0.0073
                       cart. coord. in units 2pi/alat
        k(    1) = (   0.0000000   0.0000000   0.0000000), wk =   0.0625000
        k(    2) = (   0.0000000   0.0419351   0.0000000), wk =   0.1250000
        k(    3) = (   0.0000000  -0.0838702   0.0000000), wk =   0.0625000
        k(    4) = (   0.0379955   0.0000049   0.0000000), wk =   0.1250000
        k(    5) = (   0.0379955   0.0419400   0.0000000), wk =   0.1250000
[...]
     % Please cite the following two papers that made this development      %
     % possible and the two reviews that describe the various versions:     %
     %                                                                      %
     %   T. Thonhauser et al., PRL 115, 136402 (2015).                      %
     %   T. Thonhauser et al., PRB 76, 125112 (2007).                       %
     %   K. Berland et al., Rep. Prog. Phys. 78, 066501 (2015).             %
     %   D.C. Langreth et al., J. Phys.: Condens. Matter 21, 084203 (2009). %
     %                                                                      %
     %                                                                      %
     % If you are calculating the stress with vdW-DF, please also cite:     %
     %                                                                      %
     %   R. Sabatini et al., J. Phys.: Condens. Matter 24, 424209 (2012).   %
     %                                                                      %
     %%%%%%%%%%%%%%%%%%%%%%%%%%%%%%%%%%%%%%%%%%%%%%%%%%%%%%%%%%%%%%%%%%%%%%%%

     Adding external electric field

     Computed dipole along edir(3) :
        Dipole              -11.2917 Ry au,        -28.7007 Debye
        Dipole field         -0.0213 Ry au,

        Potential amp.        1.9753 Ry
        Total length         46.3494 bohr

[...]

     Starting wfcs are  302 atomic wfcs
  @ DRIVER MODE: Message from server: STATUS
  @ DRIVER MODE: Message from server: POSDATA
  @ DRIVER MODE: Reading and sharing cell
  @ DRIVER MODE: Reading and sharing positions
  @ DRIVER MODE: Received positions

     Self-consistent Calculation

     iteration #  1     ecut=    29.40 Ry     beta= 0.05
     Davidson diagonalization with overlap
     c_bands:  1 eigenvalues not converged
     c_bands:  1 eigenvalues not converged
     c_bands:  2 eigenvalues not converged
     c_bands:  1 eigenvalues not converged
     c_bands:  1 eigenvalues not converged
     c_bands:  1 eigenvalues not converged
     c_bands:  2 eigenvalues not converged
     c_bands:  2 eigenvalues not converged
     c_bands:  1 eigenvalues not converged
     c_bands:  1 eigenvalues not converged
     c_bands:  2 eigenvalues not converged
     c_bands:  1 eigenvalues not converged
     c_bands:  1 eigenvalues not converged
     c_bands:  1 eigenvalues not converged
     c_bands:  2 eigenvalues not converged
     c_bands:  2 eigenvalues not converged
     ethr =  1.00E-05,  avg # of iterations = 19.6

[...]

     total energy              =   -2520.85770932 Ry
     estimated scf accuracy    <    4704.41172540 Ry

     total magnetization       =     0.00 Bohr mag/cell
     absolute magnetization    =     0.01 Bohr mag/cell

     iteration #  2     ecut=    29.40 Ry     beta= 0.05
     Davidson diagonalization with overlap
     ethr =  1.00E-02,  avg # of iterations = 21.9

[...]

     iteration # 40     ecut=    29.40 Ry     beta= 0.05
     Davidson diagonalization with overlap
     c_bands:  1 eigenvalues not converged
     c_bands:  1 eigenvalues not converged
     ethr =  1.63E-07,  avg # of iterations =  8.8

[...]

     total energy              =   -2942.90769302 Ry
     estimated scf accuracy    <       0.00000012 Ry

[...]

     iteration # 65     ecut=    29.40 Ry     beta= 0.05
     Davidson diagonalization with overlap
     ethr =  2.99E-11,  avg # of iterations =  6.0

     negative rho (up, down):  5.680E-03 5.681E-03

[...]

     Adding external electric field

     Computed dipole along edir(3) :
        Dipole                0.4196 Ry au,          1.0665 Debye
        Dipole field          0.0008 Ry au,

        Potential amp.       -0.0734 Ry
        Total length         46.3494 bohr

     Magnetic moment per site  (integrated on atomic sphere of radius R)
     atom   1 (R=0.735)  charge=  8.0053  magn=  0.0002
     atom   2 (R=0.735)  charge=  8.0011  magn=  0.0001
     atom   3 (R=0.735)  charge=  4.9958  magn= -0.0000
     atom   4 (R=0.735)  charge=  5.0345  magn= -0.0000
     atom   5 (R=0.735)  charge=  4.9982  magn=  0.0000
     atom   6 (R=0.735)  charge=  4.9994  magn=  0.0000
     atom   7 (R=0.735)  charge=  7.9947  magn= -0.0000
     atom   8 (R=0.735)  charge=  7.9823  magn= -0.0001
     atom   9 (R=0.735)  charge=  5.0128  magn=  0.0000
     atom  10 (R=0.735)  charge=  4.9434  magn=  0.0003
     atom  11 (R=0.735)  charge=  4.9999  magn=  0.0001
     atom  12 (R=0.735)  charge=  5.0035  magn=  0.0001
     atom  13 (R=0.735)  charge=  7.9933  magn= -0.0001
     atom  14 (R=0.735)  charge=  8.0006  magn= -0.0000
     atom  15 (R=0.735)  charge=  4.9894  magn=  0.0000
     atom  16 (R=0.735)  charge=  5.0146  magn=  0.0000
     atom  17 (R=0.735)  charge=  4.9900  magn=  0.0000
     atom  18 (R=0.735)  charge=  4.9888  magn=  0.0000
     atom  19 (R=0.735)  charge=  8.0209  magn= -0.0000
     atom  20 (R=0.735)  charge=  8.0242  magn= -0.0000
     atom  21 (R=0.735)  charge=  4.8828  magn= -0.0001
     atom  22 (R=0.735)  charge=  4.9720  magn=  0.0000
     atom  23 (R=0.735)  charge=  4.9884  magn= -0.0001
     atom  24 (R=0.735)  charge=  4.9885  magn= -0.0001
     atom  25 (R=0.735)  charge=  8.0053  magn=  0.0002
     atom  26 (R=0.735)  charge=  8.0011  magn=  0.0001
     atom  27 (R=0.735)  charge=  4.9957  magn= -0.0000
     atom  28 (R=0.735)  charge=  5.0347  magn= -0.0000
     atom  29 (R=0.735)  charge=  4.9989  magn=  0.0000
     atom  30 (R=0.735)  charge=  5.0001  magn=  0.0000
     atom  31 (R=0.735)  charge=  7.9948  magn= -0.0000
     atom  32 (R=0.735)  charge=  7.9826  magn= -0.0001
     atom  33 (R=0.735)  charge=  5.0126  magn=  0.0000
     atom  34 (R=0.735)  charge=  4.9424  magn=  0.0003
     atom  35 (R=0.735)  charge=  5.0006  magn=  0.0001
     atom  36 (R=0.735)  charge=  5.0043  magn=  0.0001
     atom  37 (R=0.735)  charge=  7.9990  magn= -0.0001
     atom  38 (R=0.735)  charge=  8.0003  magn= -0.0000
     atom  39 (R=0.735)  charge=  4.9853  magn=  0.0000
     atom  40 (R=0.735)  charge=  5.0160  magn=  0.0000
     atom  41 (R=0.735)  charge=  4.9884  magn=  0.0000
     atom  42 (R=0.735)  charge=  4.9879  magn=  0.0000
     atom  43 (R=0.735)  charge=  8.0214  magn= -0.0000
     atom  44 (R=0.735)  charge=  8.0216  magn= -0.0000
     atom  45 (R=0.735)  charge=  4.8828  magn= -0.0001
     atom  46 (R=0.735)  charge=  4.9884  magn= -0.0001
     atom  47 (R=0.735)  charge=  4.9885  magn= -0.0001
     atom  48 (R=0.419)  charge=  1.3210  magn=  0.0000
     atom  49 (R=0.451)  charge=  0.8534  magn=  0.0000
     atom  50 (R=0.419)  charge=  0.4392  magn= -0.0000
     atom  51 (R=0.419)  charge=  0.4411  magn= -0.0000
     atom  52 (R=0.419)  charge=  0.4358  magn= -0.0000
     atom  53 (R=0.419)  charge=  1.3350  magn= -0.0000
     atom  54 (R=0.419)  charge=  0.4523  magn=  0.0000
     atom  55 (R=0.419)  charge=  0.4490  magn=  0.0000
     atom  56 (R=0.419)  charge=  0.4543  magn=  0.0000

     End of self-consistent calculation

 ------ SPIN UP ------------

          k = 0.0000 0.0000 0.0000 ( 18029 PWs)   bands (ev):

   -56.6309 -56.5972 -55.7548 -55.7430 -55.7199 -55.7102 -55.6097 -55.5743
   -55.3922 -55.3564 -55.2960 -55.2904 -55.2621 -55.1926 -54.7271 -54.6155
   -33.0586 -32.9054 -32.8773 -32.8066 -32.7155 -32.6846 -32.2257 -32.2193
   -32.1523 -32.0389 -31.9929 -31.9685 -31.9502 -31.9287 -31.8952 -31.8908
   -31.8896 -31.8838 -31.8583 -31.8560 -31.8442 -31.8171 -31.7923 -31.7773
   -31.7643 -31.7459 -31.7366 -31.7119 -31.6882 -31.6343 -31.6229 -31.6101
   -31.5331 -31.5304 -31.5068 -31.4661 -31.4582 -31.4233 -31.4206 -31.3963
   -31.3738 -31.3125 -31.2328 -30.9729 -30.9575 -30.8747 -30.8373 -30.7473
   -16.7954 -16.3634 -16.1328 -15.9934 -15.9277 -15.8715 -15.8287 -15.7033
   -15.6351 -15.6270 -15.5853 -15.5576 -15.4860 -15.3463 -15.2477 -15.1951
   -15.1506 -15.0303 -14.9691 -14.9368 -14.9264 -14.8836 -14.8739 -14.6801
   -14.6572 -14.5636 -14.5420 -14.4216 -14.1866 -13.7945 -13.6880 -13.6844
   -12.7995  -7.4973  -4.3607  -3.8592  -3.7389  -3.6848  -3.6207  -3.5343
    -3.4271  -3.4130  -3.3266  -3.2120  -3.1677  -3.1200  -3.0036  -3.0023
    -2.8541  -2.8092  -2.8064  -2.8039  -2.7549  -2.6958  -2.6721  -2.6405
    -2.6314  -2.6016  -2.4754  -2.3791  -2.3075  -2.2844  -2.2784  -2.2427
    -2.1676  -2.1381  -2.1294  -2.1258  -2.0185  -1.8732  -1.8668  -1.8436
    -1.8017  -1.7963  -1.7538  -1.7407  -1.6229  -1.5324  -1.4298  -1.4136
    -1.3697  -1.3132  -1.3054  -1.2157  -1.1374  -1.0466  -1.0455  -0.9358
    -0.8885  -0.8715  -0.7813  -0.7216  -0.6823  -0.6560  -0.6436  -0.5435
    -0.5208  -0.5109  -0.4267  -0.4150  -0.3658  -0.2769  -0.2540  -0.2451
    -0.1629  -0.1603  -0.0650  -0.0232   0.0169   0.0521   0.1681   0.1853
     0.2836   0.3122   0.3399   0.4527   0.4688   0.5341   0.6086   0.6713
     0.6989   0.7255   0.7548   0.7741   0.8487   0.9604   0.9697   1.0719
     1.1040   1.2783   1.3172   1.3581   1.6028   1.6338   2.3056   2.6437
     2.8031   3.1016   3.2896   3.4026   3.6182   3.6342   3.6393   3.8085
     3.8614

[...]

          k =-0.0760-0.0000 0.0000 ( 17886 PWs)   bands (ev):

[...]

 ------ SPIN DOWN ----------

[...]

          k = 0.0380-0.0419 0.0000 ( 17876 PWs)   bands (ev):

[...]

          k =-0.0760-0.0839 0.0000 ( 17948 PWs)   bands (ev):

   -56.6135 -56.6132 -55.7402 -55.7344 -55.7274 -55.7269 -55.5925 -55.5916
   -55.3786 -55.3701 -55.2875 -55.2789 -55.2788 -55.1960 -54.7243 -54.6183
   -32.8907 -32.8905 -32.8751 -32.8749 -32.7589 -32.7586 -32.0556 -32.0533
   -32.0444 -32.0377 -31.9844 -31.9834 -31.9407 -31.9404 -31.9383 -31.9371
   -31.9296 -31.9267 -31.9245 -31.9229 -31.8450 -31.8429 -31.7940 -31.7911
   -31.7292 -31.7189 -31.6601 -31.6522 -31.6230 -31.6229 -31.6166 -31.5769
   -31.5727 -31.5449 -31.5107 -31.5043 -31.5042 -31.4651 -31.4651 -31.4617
   -31.4383 -31.3988 -31.1130 -30.9927 -30.9571 -30.9265 -30.8399 -30.8027
   -16.1443 -16.1422 -16.1093 -16.1091 -15.8407 -15.8370 -15.7943 -15.7918
   -15.6181 -15.6120 -15.4053 -15.3967 -15.3901 -15.3886 -15.2606 -15.2547
   -15.1892 -15.1788 -15.0897 -15.0806 -15.0239 -15.0175 -14.9751 -14.9541
   -14.6437 -14.6344 -14.5134 -14.4962 -14.3302 -13.7882 -13.7882 -13.6875
   -12.8157  -7.4873  -3.7465  -3.6930  -3.2431  -3.2428  -3.1791  -3.1780
    -3.0567  -3.0527  -2.9737  -2.9730  -2.8751  -2.8738  -2.7595  -2.7311
    -2.7281  -2.7270  -2.7102  -2.6621  -2.5745  -2.5713  -2.5610  -2.5465
    -2.4883  -2.4863  -2.4639  -2.3982  -2.3844  -2.3530  -2.3152  -2.2011
    -2.1908  -2.1789  -2.1471  -2.0837  -2.0766  -2.0636  -2.0211  -1.9887
    -1.9118  -1.8393  -1.8011  -1.6877  -1.6831  -1.6712  -1.6594  -1.5058
    -1.4655  -1.4350  -1.4279  -1.4218  -1.3740  -1.2790  -1.2715  -1.1395
    -1.1378  -1.0638  -0.9822  -0.9610  -0.9326  -0.8039  -0.7599  -0.7254
    -0.7177  -0.6897  -0.6695  -0.6478  -0.6042  -0.4685  -0.4568  -0.4179
    -0.3835  -0.3613  -0.3269  -0.2692  -0.1832  -0.1051  -0.1046  -0.0497
     0.0188   0.0794   0.1665   0.1765   0.1820   0.4631   0.5419   0.6314
     0.7071   0.7733   0.8369   0.8677   0.9232   0.9678   1.1039   1.1071
     1.1263   1.1267   1.1864   1.1903   1.3410   1.6396   2.1956   3.2169
     3.2171   3.2840   3.2845   3.6081   3.6139   3.7219   3.7312   3.8392
     3.8439

     the Fermi energy is     2.4843 ev

!    total energy              =   -2942.90772955 Ry
     estimated scf accuracy    <       0.00000007 Ry
     smearing contrib. (-TS)   =      -0.00487517 Ry
     internal energy E=F+TS    =   -2942.90285438 Ry

     The total energy is F=E-TS. E is the sum of the following terms:
     one-electron contribution =  -23242.32870499 Ry
     hartree contribution      =   11711.37329427 Ry
     xc contribution           =    -487.46325474 Ry
     ewald contribution        =    9075.51547885 Ry
     electric field correction =       0.00033223 Ry

     total magnetization       =     0.00 Bohr mag/cell
     absolute magnetization    =     0.00 Bohr mag/cell

     convergence has been achieved in  65 iterations

     Forces acting on atoms (cartesian axes, Ry/au):

     atom    1 type  1   force =     0.00003468   -0.00041264    0.12407455
     atom    2 type  1   force =    -0.00010834   -0.00057282   -0.16062226
     atom    3 type  2   force =     0.00023538   -0.00026897   -0.06798672
     atom    4 type  2   force =     0.00001457   -0.00029285    0.02758748
     atom    5 type  2   force =    -0.01616278    0.00175516   -0.00936669
     atom    6 type  2   force =     0.01819652    0.00219273   -0.00898864
     atom    7 type  1   force =     0.00115136   -0.00377495    0.02170203
     atom    8 type  1   force =    -0.00057757   -0.00290661    0.11108343
     atom    9 type  2   force =    -0.00017866    0.00030477   -0.00044982
     atom   10 type  2   force =    -0.00196136    0.00129249   -0.07323295
     atom   11 type  2   force =     0.00021924   -0.00010652    0.00016697
     atom   12 type  2   force =    -0.00025824    0.00022169    0.00020057
     atom   13 type  1   force =    -0.00009130    0.00008100   -0.00045193
     atom   14 type  1   force =    -0.00058017    0.00045480    0.00039147
     atom   15 type  2   force =     0.00027717    0.00000437    0.00014830
     atom   16 type  2   force =    -0.00048923   -0.00036921    0.00055291
     atom   17 type  2   force =    -0.00061268    0.00024209    0.00009049
     atom   18 type  2   force =     0.00004193    0.00024961    0.00009689
     atom   19 type  1   force =     0.00039261   -0.00055197    0.00003139
     atom   20 type  1   force =    -0.00011141    0.00010365    0.00018048
     atom   21 type  2   force =     0.00005080   -0.00001025    0.09969386
     atom   22 type  2   force =     0.00027859   -0.00004079   -0.00038225
     atom   23 type  2   force =    -0.07915381    0.00000072   -0.03242619
     atom   24 type  2   force =     0.07904242    0.00043945   -0.03245093
     atom   25 type  1   force =     0.00002417   -0.00041388    0.12361180
     atom   26 type  1   force =    -0.00009372   -0.00047094   -0.16076216
     atom   27 type  2   force =     0.00033079   -0.00048516   -0.06703511
     atom   28 type  2   force =     0.00002923   -0.00012230    0.02731205
     atom   29 type  2   force =    -0.01663756    0.00127791   -0.00947213
     atom   30 type  2   force =     0.01857074    0.00165568   -0.00910742
     atom   31 type  1   force =     0.00116924   -0.00137240    0.02113459
     atom   32 type  1   force =    -0.00053391    0.00034693    0.11172798
     atom   33 type  2   force =    -0.00016106   -0.00025028    0.00007463
     atom   34 type  2   force =    -0.00132651    0.00066803   -0.07268780
     atom   35 type  2   force =    -0.00079082   -0.00043254   -0.00002699
     atom   36 type  2   force =     0.00010803   -0.00001919    0.00010398
     atom   37 type  1   force =     0.00006673    0.00063600    0.00019405
     atom   38 type  1   force =    -0.00021306    0.00002664   -0.00018530
     atom   39 type  2   force =     0.00013221   -0.00018119    0.00088859
     atom   40 type  2   force =    -0.00018170   -0.00046587    0.00031613
     atom   41 type  2   force =     0.00006768   -0.00009428    0.00005755
     atom   42 type  2   force =     0.00041576    0.00001496    0.00002520
     atom   43 type  1   force =    -0.00023396   -0.00011689    0.00008616
     atom   44 type  1   force =    -0.00024704    0.00049439    0.00011115
     atom   45 type  2   force =     0.00002653   -0.00003337    0.09971992
     atom   46 type  2   force =    -0.07915947    0.00005378   -0.03242981
     atom   47 type  2   force =     0.07904283    0.00047505   -0.03244686
     atom   48 type  3   force =     0.00091288    0.00074072   -0.00136775
     atom   49 type  4   force =     0.00008746   -0.00052689    0.00007335
     atom   50 type  5   force =    -0.00007571    0.00075600    0.00081032
     atom   51 type  5   force =     0.00026186    0.00052066   -0.00012878
     atom   52 type  5   force =    -0.00025787   -0.00023523   -0.00000546
     atom   53 type  3   force =    -0.00879492   -0.00249356   -0.00294642
     atom   54 type  5   force =     0.00188267   -0.00302212    0.00006854
     atom   55 type  5   force =     0.00567713    0.00426222    0.00362789
     atom   56 type  5   force =     0.00025166    0.00077215   -0.00098431

     Total force =     0.424540     Total SCF correction =     0.000726
  @ DRIVER MODE: Message from server: STATUS
  @ DRIVER MODE: Message from server: GETFORCE
  @ DRIVER MODE: Returning v,forces,stress,ensemble

     Writing output data file ./calc.save/
  @ DRIVER MODE: Message from server: EXIT
  @ DRIVE MODE: Exiting

     General routines

     Parallel routines

   This run was terminated on:   9:48:59  16Jul2021

   JOB DONE.