     Program PWSCF v.6.7GPU starts on 23Sep2021 at 10: 9:59

     R & G space division:  proc/nbgrp/npool/nimage =      10
     Reading input from /storage/home/hcoda1/3/ntian30/research/carbon/CxH_vib/H2O_calc/ads_slab/CH3NHHH2O_a/out_0056/pw.inp
Warning: card &CELL ignored
Warning: card   CELL_DYNAMICS='IPI', ignored
Warning: card / ignored

     Current dimensions of program PWSCF are:
     Max number of different atomic species (ntypx) = 10
     Max number of k-points (npk) =  40000
     Max angular momentum in pseudopotentials (lmaxx) =  3
     Presently no symmetry can be used with electric field

     Message from routine cell_base_init:
     DEPRECATED: use true lattice parameter, not A to a.u. conversion factor

     IMPORTANT: XC functional enforced from input :
     Exchange-correlation= BEEF-VDW
                           (   1   4  43  14   2   0   0)
     Any further DFT definition will be discarded
     Please, verify this is what you really want

  @ DRIVER MODE: Connecting to
 qe_1139763_2937309.sched-torque.pace.gatech.eduyf3x0y44_scratch
  using UNIX socket
  @ DRIVER MODE: Message from server: STATUS
  @ DRIVER MODE: Message from server: INIT
  @ DRIVER MODE: Receiving replica           0          -1
  @ DRIVER MODE: Receiving encoded integer          25
  @ DRIVER MODE:  SCF:  T  FORCE:  T  STRESS:  F  VC:  F  ENSEMBLE:  F
  @ DRIVER MODE:  SCF:  T  FORCE:  T  STRESS:  F  VC:  F  ENSEMBLE:  F

     Using Slab Decomposition

     bravais-lattice index     =            0
     lattice parameter (alat)  =       1.8897  a.u.
     unit-cell volume          =    6658.9804 (a.u.)^3
     number of atoms/cell      =           57
     number of atomic types    =            5
     number of electrons       =       400.00
     number of Kohn-Sham states=          210
     kinetic-energy cutoff     =      29.3995  Ry
     charge density cutoff     =     293.9946  Ry
     scf convergence threshold =      7.3E-08
     mixing beta               =       0.0500
     number of iterations used =            8  plain     mixing
     Exchange-correlation= BEEF-VDW
                           (   1   4  43  14   2   0   0)

     celldm(1)=   1.889726  celldm(2)=   0.000000  celldm(3)=   0.000000
     celldm(4)=   0.000000  celldm(5)=   0.000000  celldm(6)=   0.000000

     crystal axes: (cart. coord. in units of alat)
               a(1) = (   6.579727   0.000000   0.000000 )
               a(2) = (  -0.000775   5.961596   0.000000 )
               a(3) = (   0.000000   0.000000  25.155947 )

     reciprocal axes: (cart. coord. in units 2 pi/alat)
               b(1) = (  0.151982  0.000020  0.000000 )
               b(2) = (  0.000000  0.167740  0.000000 )
               b(3) = (  0.000000  0.000000  0.039752 )

     PseudoPot. # 1 for Ti read from file:
     /storage/coda1/p-amedford6/0/shared/rich_project_chbe-medford/medford-share/data/pseudos_module/espresso/nninc/pbe/van/Ti.UPF
     MD5 check sum: 8e4df49b7f0d34bbd5052bf3f5ea0213
     Pseudo is Ultrasoft, Zval = 12.0
     Generated by new atomic code, or converted to UPF format
     Using radial grid of  851 points,  6 beta functions with:
                l(1) =   0
                l(2) =   0
                l(3) =   1
                l(4) =   1
                l(5) =   2
                l(6) =   2
     Q(r) pseudized with  8 coefficients,  rinner =    1.000   1.000   1.000
                                                       1.000   1.000

     PseudoPot. # 2 for O  read from file:
     /storage/coda1/p-amedford6/0/shared/rich_project_chbe-medford/medford-share/data/pseudos_module/espresso/nninc/pbe/van/O.UPF
     MD5 check sum: 78c19812648e8988a0fe644b0f25305e
     Pseudo is Ultrasoft, Zval =  6.0
     Generated by new atomic code, or converted to UPF format
     Using radial grid of  737 points,  4 beta functions with:
                l(1) =   0
                l(2) =   0
                l(3) =   1
                l(4) =   1
     Q(r) pseudized with  8 coefficients,  rinner =    0.800   0.800   0.800

     PseudoPot. # 3 for N  read from file:
     /storage/coda1/p-amedford6/0/shared/rich_project_chbe-medford/medford-share/data/pseudos_module/espresso/nninc/pbe/van/N.UPF
     MD5 check sum: 90d10febe142ad51ac9d5be1deb811c4
     Pseudo is Ultrasoft, Zval =  5.0
     Generated by new atomic code, or converted to UPF format
     Using radial grid of  729 points,  4 beta functions with:
                l(1) =   0
                l(2) =   0
                l(3) =   1
                l(4) =   1
     Q(r) pseudized with  8 coefficients,  rinner =    0.800   0.800   0.800

     PseudoPot. # 4 for C  read from file:
     /storage/coda1/p-amedford6/0/shared/rich_project_chbe-medford/medford-share/data/pseudos_module/espresso/nninc/pbe/van/C.UPF
     MD5 check sum: 1a69bf6b8db32088f5b2163dbdb77a27
     Pseudo is Ultrasoft, Zval =  4.0
     Generated by new atomic code, or converted to UPF format
     Using radial grid of  721 points,  4 beta functions with:
                l(1) =   0
                l(2) =   0
                l(3) =   1
                l(4) =   1
     Q(r) pseudized with  8 coefficients,  rinner =    0.800   0.800   0.800

     PseudoPot. # 5 for H  read from file:
     /storage/coda1/p-amedford6/0/shared/rich_project_chbe-medford/medford-share/data/pseudos_module/espresso/nninc/pbe/van/H.UPF
     MD5 check sum: b5ee9d7bfd3a09ee7748110bda690ff7
     Pseudo is Ultrasoft, Zval =  1.0
     Generated by new atomic code, or converted to UPF format
     Using radial grid of  615 points,  1 beta functions with:
                l(1) =   0
     Q(r) pseudized with  8 coefficients,  rinner =    0.800

     atomic species   valence    mass     pseudopotential
        Ti1           12.00    47.86700     Ti( 1.00)
        O1             6.00    15.99900     O ( 1.00)
        N1             5.00    14.00700     N ( 1.00)
        C1             4.00    12.01100     C ( 1.00)
        H1             1.00     1.00800     H ( 1.00)

     No symmetry found

   Cartesian axes

     site n.     atom                  positions (alat units)
         1           Ti1 tau(   1) = (   0.0004258   2.9801865   6.0000000  )
         2           Ti1 tau(   2) = (   3.2906075   1.4906267   6.0002472  )
         3           O1  tau(   3) = (   0.0006271   0.0005054   7.9858123  )
         4           O1  tau(   4) = (   3.2906025   0.0005020   7.3038282  )
         5           O1  tau(   5) = (   4.5942328   1.4918067   9.2879030  )
         6           O1  tau(   6) = (   1.9868534   1.4903216   9.2879459  )
         7           Ti1 tau(   7) = (   3.2907910   2.8959150   9.1758416  )
         8           Ti1 tau(   8) = (   0.0015273   1.4827037   9.2680791  )
         9           O1  tau(   9) = (   3.2912042   0.0294118  11.3810798  )
        10           O1  tau(  10) = (   0.0116148   5.9584955  10.6183126  )
        11           O1  tau(  11) = (   1.2906363   1.5151137  12.6946382  )
        12           O1  tau(  12) = (   5.2977377   1.5118052  12.6897239  )
        13           Ti1 tau(  13) = (   0.0154927   3.0055723  12.5114375  )
        14           Ti1 tau(  14) = (   3.3120461   1.5076926  12.5412499  )
        15           O1  tau(  15) = (   0.0087391   5.9056098  14.6936070  )
        16           O1  tau(  16) = (   3.3000944   0.0090435  14.0218108  )
        17           O1  tau(  17) = (   4.5606481   1.5918460  16.0876707  )
        18           O1  tau(  18) = (   2.0070218   1.5857768  16.0794533  )
        19           Ti1 tau(  19) = (   3.2835068   3.0412122  15.7371975  )
        20           Ti1 tau(  20) = (   0.0166266   1.3536260  15.8406240  )
        21           O1  tau(  21) = (   3.2904802   0.0005063   4.7018136  )
        22           O1  tau(  22) = (   6.5628702   0.1917167  17.2472498  )
        23           O1  tau(  23) = (   1.3043587   1.4918075   6.0039043  )
        24           O1  tau(  24) = (   5.2767064   1.4903225   6.0039473  )
        25           Ti1 tau(  25) = (   0.0000382   5.9609847   6.0000000  )
        26           Ti1 tau(  26) = (   3.2902200   4.4714249   6.0002472  )
        27           O1  tau(  27) = (   0.0002396   2.9813036   7.9858123  )
        28           O1  tau(  28) = (   3.2902150   2.9813002   7.3038282  )
        29           O1  tau(  29) = (   4.5938453   4.4726049   9.2879030  )
        30           O1  tau(  30) = (   1.9864658   4.4711199   9.2879459  )
        31           Ti1 tau(  31) = (   3.2891106   5.8743827   9.1763621  )
        32           Ti1 tau(  32) = (   0.0006254   4.4649316   9.2693709  )
        33           O1  tau(  33) = (   3.2975917   2.9887808  11.3748511  )
        34           O1  tau(  34) = (   0.0092240   2.9805883  10.6323155  )
        35           O1  tau(  35) = (   1.2927870   4.4849180  12.6503915  )
        36           O1  tau(  36) = (   5.2959677   4.4879952  12.6460094  )
        37           Ti1 tau(  37) = (   0.0189062   0.0134437  12.4995343  )
        38           Ti1 tau(  38) = (   3.3131396   4.4925875  12.5257625  )
        39           O1  tau(  39) = (   6.5658147   3.0796170  14.9398047  )
        40           O1  tau(  40) = (   3.2912769   3.0351834  13.9531456  )
        41           O1  tau(  41) = (   4.5372935   4.5058929  16.2491503  )
        42           O1  tau(  42) = (   2.0060561   4.4992570  16.2466123  )
        43           Ti1 tau(  43) = (   3.3106529   0.0781036  15.8389635  )
        44           Ti1 tau(  44) = (   0.0259428   4.5566345  16.0434284  )
        45           O1  tau(  45) = (   3.2900926   2.9813045   4.7018136  )
        46           O1  tau(  46) = (   1.3039711   4.4726057   6.0039043  )
        47           O1  tau(  47) = (   5.2763189   4.4711207   6.0039473  )
        48           N1  tau(  48) = (   6.3514164   3.3085518  18.1544664  )
        49           C1  tau(  49) = (   0.8695967   3.1501053  19.1301808  )
        50           H1  tau(  50) = (   1.3785670   4.1052268  19.2416751  )
        51           H1  tau(  51) = (   0.5086663   2.8389580  20.1145987  )
        52           H1  tau(  52) = (   1.5779067   2.4119510  18.7640910  )
        53           H1  tau(  53) = (   5.7211048   4.0382881  18.4729098  )
        54           H1  tau(  54) = (   5.7931489   2.4557210  18.1309407  )
        55           O1  tau(  55) = (   3.2817172   0.3149129  18.3340421  )
        56           H1  tau(  56) = (   4.0380937   5.6864266  18.4726034  )
        57           H1  tau(  57) = (   2.4916286   5.7371253  18.4434621  )

     number of k points=    10  Fermi-Dirac smearing, width (Ry)=  0.0073
                       cart. coord. in units 2pi/alat
        k(    1) = (   0.0000000   0.0000000   0.0000000), wk =   0.1250000
        k(    2) = (   0.0000000   0.0419351   0.0000000), wk =   0.2500000
        k(    3) = (   0.0000000  -0.0838702   0.0000000), wk =   0.1250000
        k(    4) = (   0.0379955   0.0000049   0.0000000), wk =   0.2500000
        k(    5) = (   0.0379955   0.0419400   0.0000000), wk =   0.2500000
        k(    6) = (   0.0379955  -0.0838652   0.0000000), wk =   0.2500000
        k(    7) = (   0.0379955  -0.0419301   0.0000000), wk =   0.2500000
        k(    8) = (  -0.0759910  -0.0000099   0.0000000), wk =   0.1250000
        k(    9) = (  -0.0759910   0.0419252   0.0000000), wk =   0.2500000
        k(   10) = (  -0.0759910  -0.0838800   0.0000000), wk =   0.1250000

     Initial potential from superposition of free atoms

     starting charge  383.99913, renormalised to  400.00000

     negative rho (up, down):  1.554E-02 0.000E+00

     %%%%%%%%%%%%%%%%%%%%%%%%%%%%%%%%%%%%%%%%%%%%%%%%%%%%%%%%%%%%%%%%%%%%%%%%
     %                                                                      %
     % You are using vdW-DF, which was implemented by the Thonhauser group. %
     % Please cite the following two papers that made this development      %
     % possible and the two reviews that describe the various versions:     %
     %                                                                      %
     %   T. Thonhauser et al., PRL 115, 136402 (2015).                      %
     %   T. Thonhauser et al., PRB 76, 125112 (2007).                       %
     %   K. Berland et al., Rep. Prog. Phys. 78, 066501 (2015).             %
     %   D.C. Langreth et al., J. Phys.: Condens. Matter 21, 084203 (2009). %
     %                                                                      %
     %                                                                      %
     % If you are calculating the stress with vdW-DF, please also cite:     %
     %                                                                      %
     %   R. Sabatini et al., J. Phys.: Condens. Matter 24, 424209 (2012).   %
     %                                                                      %
     %%%%%%%%%%%%%%%%%%%%%%%%%%%%%%%%%%%%%%%%%%%%%%%%%%%%%%%%%%%%%%%%%%%%%%%%

     Adding external electric field

     Computed dipole along edir(3) :
        Dipole              -12.0858 Ry au,        -30.7189 Debye
        Dipole field         -0.0228 Ry au,

        Potential amp.        2.1142 Ry
        Total length         46.3494 bohr

     Starting wfcs are  303 atomic wfcs
  @ DRIVER MODE: Message from server: STATUS
  @ DRIVER MODE: Message from server: POSDATA
  @ DRIVER MODE: Reading and sharing cell
  @ DRIVER MODE: Reading and sharing positions
  @ DRIVER MODE: Received positions

     Self-consistent Calculation

     iteration #  1     ecut=    29.40 Ry     beta= 0.05
     Davidson diagonalization with overlap
     c_bands:  2 eigenvalues not converged
     c_bands:  2 eigenvalues not converged
     c_bands:  3 eigenvalues not converged
     c_bands:  4 eigenvalues not converged
     c_bands:  2 eigenvalues not converged
     c_bands:  1 eigenvalues not converged
     c_bands:  4 eigenvalues not converged
     c_bands:  4 eigenvalues not converged
     c_bands:  5 eigenvalues not converged
     ethr =  1.00E-05,  avg # of iterations = 22.0

[...]

     total energy              =   -2384.80791293 Ry
     estimated scf accuracy    <    6450.46836779 Ry

     iteration #  2     ecut=    29.40 Ry     beta= 0.05
     Davidson diagonalization with overlap
     ethr =  1.00E-02,  avg # of iterations = 25.8

[...]

     iteration # 74     ecut=    29.40 Ry     beta= 0.05
     Davidson diagonalization with overlap
     c_bands:  3 eigenvalues not converged
     ethr =  2.89E-11,  avg # of iterations = 15.3

[...]

     total energy              =   -2956.45471476 Ry
     estimated scf accuracy    <       0.00000011 Ry

     iteration # 75     ecut=    29.40 Ry     beta= 0.05
     Davidson diagonalization with overlap
     ethr =  2.66E-11,  avg # of iterations =  3.3

     negative rho (up, down):  1.589E-02 0.000E+00

     Adding external electric field

     Computed dipole along edir(3) :
        Dipole                1.4065 Ry au,          3.5750 Debye
        Dipole field          0.0027 Ry au,

        Potential amp.       -0.2460 Ry
        Total length         46.3494 bohr

     End of self-consistent calculation

          k = 0.0000 0.0000 0.0000 ( 18029 PWs)   bands (ev):

   -55.2152 -55.1779 -55.1725 -55.1465 -55.1384 -55.1181 -55.0966 -55.0616
   -55.0415 -55.0068 -55.0033 -54.9939 -54.9697 -54.9335 -54.2026 -54.1686
   -31.7786 -31.6885 -31.6650 -31.5854 -31.5303 -31.5249 -31.5164 -31.5088
   -31.4614 -31.4382 -31.4264 -31.4172 -31.4129 -31.4109 -31.3871 -31.3839
   -31.3616 -31.3606 -31.3531 -31.3379 -31.3250 -31.3173 -31.3018 -31.2923
   -31.2863 -31.2739 -31.2718 -31.2429 -31.2297 -31.2275 -31.2221 -31.2020
   -31.1993 -31.1916 -31.1876 -31.1702 -31.1547 -31.1400 -31.1320 -31.1314
   -31.1144 -31.1114 -30.6121 -30.5177 -30.4956 -30.4284 -30.3416 -30.2308
   -19.2906 -16.1555 -16.0242 -15.7755 -15.6337 -15.5392 -15.4191 -15.3037
   -15.2391 -15.1252 -15.0670 -14.9314 -14.9163 -14.9044 -14.8798 -14.8465
   -14.8079 -14.7602 -14.7588 -14.7352 -14.7146 -14.7060 -14.6642 -14.6569
   -14.6172 -14.5958 -14.5949 -14.4595 -14.3782 -14.3079 -14.1213 -12.7053
   -12.5879 -10.2738  -7.0563  -6.2718  -4.8285  -3.9409  -3.4104  -3.3528
    -3.2372  -3.1482  -3.1259  -3.1128  -2.9759  -2.8843  -2.7490  -2.6666
    -2.6339  -2.4977  -2.4242  -2.4135  -2.3808  -2.2654  -2.2130  -2.1863
    -2.1546  -2.0820  -2.0343  -2.0236  -2.0055  -1.9745  -1.9598  -1.9255
    -1.8720  -1.7866  -1.7590  -1.6527  -1.6148  -1.5875  -1.5752  -1.5505
    -1.5335  -1.5087  -1.5022  -1.4419  -1.4385  -1.4087  -1.3622  -1.2476
    -1.0852  -1.0217  -0.9510  -0.8576  -0.8096  -0.7960  -0.7265  -0.7162
    -0.7027  -0.5988  -0.5660  -0.5536  -0.4566  -0.4268  -0.3862  -0.3139
    -0.2431  -0.2145  -0.2015  -0.0862  -0.0210  -0.0030   0.0167   0.0239
     0.1135   0.1866   0.2343   0.2859   0.3267   0.3339   0.4000   0.4319
     0.4997   0.5515   0.5697   0.6567   0.7017   0.7142   0.7204   0.7537
     0.7657   0.8275   0.8637   0.8880   0.9747   1.0898   1.2430   1.3838
     1.3916   1.7246   1.7255   1.8200   2.0038   2.3963   2.4446   3.8778
     3.9504   4.0096   4.0230   4.0284   4.1137   4.3602   4.3822   4.3880
     4.3981   4.4267

[...]

          k = 0.0380-0.0419 0.0000 ( 17876 PWs)   bands (ev):

[...]

          k =-0.0760-0.0000 0.0000 ( 17886 PWs)   bands (ev):

[...]

          k =-0.0760-0.0839 0.0000 ( 17948 PWs)   bands (ev):

   -55.2017 -55.1912 -55.1555 -55.1552 -55.1448 -55.1158 -55.0825 -55.0758
   -55.0269 -55.0209 -54.9962 -54.9868 -54.9864 -54.9349 -54.1858 -54.1853
   -31.6072 -31.5875 -31.5785 -31.4801 -31.4800 -31.4764 -31.4687 -31.4467
   -31.4466 -31.4271 -31.4193 -31.4125 -31.4051 -31.3903 -31.3731 -31.3585
   -31.3556 -31.3534 -31.3512 -31.3490 -31.3417 -31.3393 -31.3217 -31.3161
   -31.2957 -31.2952 -31.2767 -31.2752 -31.2749 -31.2729 -31.2680 -31.2600
   -31.2526 -31.2397 -31.2340 -31.2193 -31.2163 -31.1977 -31.1715 -31.1673
   -31.1665 -31.1451 -30.5084 -30.5081 -30.4248 -30.4245 -30.3851 -30.3849
   -19.2897 -16.1096 -15.5976 -15.4838 -15.3580 -15.2482 -15.2274 -15.1809
   -15.1322 -15.0817 -15.0298 -15.0013 -14.9805 -14.9716 -14.9288 -14.9184
   -14.8993 -14.8337 -14.8182 -14.8072 -14.7833 -14.7359 -14.7276 -14.7200
   -14.7160 -14.6700 -14.6660 -14.6179 -14.5746 -14.5708 -14.3896 -12.6894
   -12.6892 -10.2755  -7.0814  -6.2063  -4.8291  -3.9574  -3.2643  -2.9804
    -2.7493  -2.6972  -2.6098  -2.4654  -2.4215  -2.3766  -2.3457  -2.2839
    -2.2333  -2.2184  -2.2067  -2.1302  -2.1033  -2.0957  -2.0624  -2.0507
    -2.0408  -2.0027  -1.9817  -1.9568  -1.9481  -1.9373  -1.9349  -1.9281
    -1.8670  -1.8550  -1.8438  -1.8401  -1.7817  -1.7706  -1.7561  -1.7415
    -1.5965  -1.5783  -1.4277  -1.4243  -1.4038  -1.3492  -1.3376  -1.2969
    -1.2535  -1.2444  -1.2177  -0.9736  -0.9645  -0.9612  -0.9288  -0.8969
    -0.8576  -0.7963  -0.7672  -0.6976  -0.6894  -0.5734  -0.5570  -0.4418
    -0.4336  -0.4211  -0.3377  -0.2897  -0.2405  -0.2016  -0.1846  -0.1739
    -0.1574  -0.1208  -0.1184  -0.0212   0.0150   0.0458   0.0591   0.0987
     0.2754   0.3042   0.3200   0.4641   0.4717   0.6309   0.6818   0.7101
     0.8004   0.8605   0.8952   0.9390   1.0750   1.0882   1.1065   1.1603
     1.1834   1.2327   1.2458   2.1761   2.1775   2.2646   2.2646   4.0229
     4.1322   4.1413   4.1991   4.3103   4.3195   4.3928   4.4239   4.4615
     4.4656   4.5319

     the Fermi energy is     3.9400 ev

!    total energy              =   -2956.45473677 Ry
     estimated scf accuracy    <       0.00000006 Ry
     smearing contrib. (-TS)   =      -0.03685209 Ry
     internal energy E=F+TS    =   -2956.41788468 Ry

     The total energy is F=E-TS. E is the sum of the following terms:
     one-electron contribution =  -23693.69628234 Ry
     hartree contribution      =   11942.34646576 Ry
     xc contribution           =    -490.62064703 Ry
     ewald contribution        =    9285.54884573 Ry
     electric field correction =       0.00373320 Ry

     convergence has been achieved in  75 iterations

     Forces acting on atoms (cartesian axes, Ry/au):

     atom    1 type  1   force =    -0.00000590   -0.00026806    0.09334678
     atom    2 type  1   force =    -0.00007379   -0.00034618   -0.17815979
     atom    3 type  2   force =     0.00004440   -0.00030225   -0.02033327
     atom    4 type  2   force =    -0.00003521   -0.00184921    0.05914248
     atom    5 type  2   force =    -0.01019249   -0.00061071    0.00752684
     atom    6 type  2   force =     0.01171882    0.00021957    0.00685617
     atom    7 type  1   force =    -0.00030525    0.00187690   -0.01238653
     atom    8 type  1   force =     0.00016831    0.00082233   -0.00450187
     atom    9 type  2   force =     0.00038503   -0.00015679   -0.00078755
     atom   10 type  2   force =    -0.00141798    0.00415417   -0.00106734
     atom   11 type  2   force =    -0.00087146   -0.00030597    0.00020217
     atom   12 type  2   force =     0.00088435   -0.00006185    0.00006313
     atom   13 type  1   force =    -0.00012218   -0.00021810    0.00011072
     atom   14 type  1   force =    -0.00004733   -0.00009352    0.00003506
     atom   15 type  2   force =    -0.00066558   -0.00003486   -0.00008084
     atom   16 type  2   force =    -0.00010575    0.00022532   -0.00037752
     atom   17 type  2   force =     0.00027821   -0.00071004    0.00000137
     atom   18 type  2   force =     0.00082582   -0.00063190   -0.00027012
     atom   19 type  1   force =    -0.00082223    0.00012467    0.00142531
     atom   20 type  1   force =     0.00078672   -0.00084246    0.00046230
     atom   21 type  2   force =     0.00002065   -0.00011000    0.10394714
     atom   22 type  2   force =     0.00000298   -0.00059375    0.00015989
     atom   23 type  2   force =    -0.07038935   -0.00021792   -0.02690617
     atom   24 type  2   force =     0.07022512    0.00022241   -0.02696140
     atom   25 type  1   force =    -0.00005155   -0.00021452    0.09286721
     atom   26 type  1   force =    -0.00020283   -0.00053287   -0.17842148
     atom   27 type  2   force =     0.00007086   -0.00014135   -0.01929585
     atom   28 type  2   force =     0.00005485   -0.00157223    0.05815304
     atom   29 type  2   force =    -0.01089574   -0.00007176    0.00844853
     atom   30 type  2   force =     0.01230190    0.00011775    0.00773196
     atom   31 type  1   force =    -0.00029380    0.00668569   -0.01505828
     atom   32 type  1   force =     0.00011332   -0.00072058   -0.00470659
     atom   33 type  2   force =    -0.00021998    0.00035749   -0.00050451
     atom   34 type  2   force =    -0.00111335   -0.00023601   -0.00039405
     atom   35 type  2   force =    -0.00019324   -0.00011543   -0.00014770
     atom   36 type  2   force =     0.00027323   -0.00035984   -0.00024817
     atom   37 type  1   force =     0.00024028   -0.00018609    0.00022346
     atom   38 type  1   force =    -0.00011526    0.00067722    0.00064237
     atom   39 type  2   force =     0.00012688   -0.00110516    0.00101905
     atom   40 type  2   force =     0.00026477    0.00100404   -0.00062025
     atom   41 type  2   force =    -0.00023255    0.00021061   -0.00022126
     atom   42 type  2   force =     0.00125786    0.00020511   -0.00044770
     atom   43 type  1   force =    -0.00117452    0.00007823    0.00013853
     atom   44 type  1   force =     0.00040456   -0.00111850    0.00111651
     atom   45 type  2   force =     0.00001496   -0.00011022    0.10390181
     atom   46 type  2   force =    -0.07036145   -0.00011325   -0.02687659
     atom   47 type  2   force =     0.07021772    0.00029812   -0.02694197
     atom   48 type  3   force =     0.00072684    0.00008027   -0.00052747
     atom   49 type  4   force =     0.00004627   -0.00007787    0.00002603
     atom   50 type  5   force =    -0.00018094   -0.00069807    0.00009962
     atom   51 type  5   force =    -0.00003649   -0.00058198   -0.00062374
     atom   52 type  5   force =    -0.00005722    0.00004325   -0.00047298
     atom   53 type  5   force =     0.00004430    0.00015014   -0.00063650
     atom   54 type  5   force =     0.00007275   -0.00019126   -0.00067554
     atom   55 type  2   force =     0.01385618    0.00633661   -0.00078203
     atom   56 type  5   force =     0.00026071    0.00081926   -0.00010508
     atom   57 type  5   force =    -0.01550523   -0.00920860    0.00189268

     Total force =     0.366987     Total SCF correction =     0.000868
  @ DRIVER MODE: Message from server: STATUS
  @ DRIVER MODE: Message from server: GETFORCE
  @ DRIVER MODE: Returning v,forces,stress,ensemble

     Writing output data file ./calc.save/
  @ DRIVER MODE: Message from server: EXIT
  @ DRIVE MODE: Exiting

     General routines

     Parallel routines

   This run was terminated on:  10:29:21  23Sep2021

   JOB DONE.