     Program PWSCF v.6.7GPU starts on 24Aug2021 at 16:34:54

     R & G space division:  proc/nbgrp/npool/nimage =       6
     Reading input from /storage/home/hcoda1/3/ntian30/research/carbon/CH3_vib_end_on/ads_slab/CH3N_a/out_0000/pw.inp
Warning: card &CELL ignored
Warning: card   CELL_DYNAMICS='IPI', ignored
Warning: card / ignored

     Current dimensions of program PWSCF are:
     Max number of different atomic species (ntypx) = 10
     Max number of k-points (npk) =  40000
     Max angular momentum in pseudopotentials (lmaxx) =  3
     Presently no symmetry can be used with electric field

     Message from routine cell_base_init:
     DEPRECATED: use true lattice parameter, not A to a.u. conversion factor

     IMPORTANT: XC functional enforced from input :
     Exchange-correlation= BEEF-VDW
                           (   1   4  43  14   2   0   0)
     Any further DFT definition will be discarded
     Please, verify this is what you really want

  @ DRIVER MODE: Connecting to
 qe_1139763_2643872.sched-torque.pace.gatech.eduzqe55edp_scratch
  using UNIX socket
  @ DRIVER MODE: Message from server: STATUS
  @ DRIVER MODE: Message from server: INIT
  @ DRIVER MODE: Receiving replica           0          -1
  @ DRIVER MODE: Receiving encoded integer          25
  @ DRIVER MODE:  SCF:  T  FORCE:  T  STRESS:  F  VC:  F  ENSEMBLE:  F
  @ DRIVER MODE:  SCF:  T  FORCE:  T  STRESS:  F  VC:  F  ENSEMBLE:  F

     Using Slab Decomposition

     bravais-lattice index     =            0
     lattice parameter (alat)  =       1.8897  a.u.
     unit-cell volume          =    6658.9804 (a.u.)^3
     number of atoms/cell      =           52
     number of atomic types    =            5
     number of electrons       =       390.00
     number of Kohn-Sham states=          205
     kinetic-energy cutoff     =      29.3995  Ry
     charge density cutoff     =     293.9946  Ry
     scf convergence threshold =      7.3E-08
     mixing beta               =       0.0500
     number of iterations used =            8  plain     mixing
     Exchange-correlation= BEEF-VDW
                           (   1   4  43  14   2   0   0)

     celldm(1)=   1.889726  celldm(2)=   0.000000  celldm(3)=   0.000000
     celldm(4)=   0.000000  celldm(5)=   0.000000  celldm(6)=   0.000000

     crystal axes: (cart. coord. in units of alat)
               a(1) = (   6.579727   0.000000   0.000000 )
               a(2) = (  -0.000775   5.961596   0.000000 )
               a(3) = (   0.000000   0.000000  25.155947 )

     reciprocal axes: (cart. coord. in units 2 pi/alat)
               b(1) = (  0.151982  0.000020  0.000000 )
               b(2) = (  0.000000  0.167740  0.000000 )
               b(3) = (  0.000000  0.000000  0.039752 )

     PseudoPot. # 1 for Ti read from file:
     /storage/coda1/p-amedford6/0/shared/rich_project_chbe-medford/medford-share/data/pseudos_module/espresso/nninc/pbe/van/Ti.UPF
     MD5 check sum: 8e4df49b7f0d34bbd5052bf3f5ea0213
     Pseudo is Ultrasoft, Zval = 12.0
     Generated by new atomic code, or converted to UPF format
     Using radial grid of  851 points,  6 beta functions with:
                l(1) =   0
                l(2) =   0
                l(3) =   1
                l(4) =   1
                l(5) =   2
                l(6) =   2
     Q(r) pseudized with  8 coefficients,  rinner =    1.000   1.000   1.000
                                                       1.000   1.000

     PseudoPot. # 2 for O  read from file:
     /storage/coda1/p-amedford6/0/shared/rich_project_chbe-medford/medford-share/data/pseudos_module/espresso/nninc/pbe/van/O.UPF
     MD5 check sum: 78c19812648e8988a0fe644b0f25305e
     Pseudo is Ultrasoft, Zval =  6.0
     Generated by new atomic code, or converted to UPF format
     Using radial grid of  737 points,  4 beta functions with:
                l(1) =   0
                l(2) =   0
                l(3) =   1
                l(4) =   1
     Q(r) pseudized with  8 coefficients,  rinner =    0.800   0.800   0.800

     PseudoPot. # 3 for N  read from file:
     /storage/coda1/p-amedford6/0/shared/rich_project_chbe-medford/medford-share/data/pseudos_module/espresso/nninc/pbe/van/N.UPF
     MD5 check sum: 90d10febe142ad51ac9d5be1deb811c4
     Pseudo is Ultrasoft, Zval =  5.0
     Generated by new atomic code, or converted to UPF format
     Using radial grid of  729 points,  4 beta functions with:
                l(1) =   0
                l(2) =   0
                l(3) =   1
                l(4) =   1
     Q(r) pseudized with  8 coefficients,  rinner =    0.800   0.800   0.800

     PseudoPot. # 4 for C  read from file:
     /storage/coda1/p-amedford6/0/shared/rich_project_chbe-medford/medford-share/data/pseudos_module/espresso/nninc/pbe/van/C.UPF
     MD5 check sum: 1a69bf6b8db32088f5b2163dbdb77a27
     Pseudo is Ultrasoft, Zval =  4.0
     Generated by new atomic code, or converted to UPF format
     Using radial grid of  721 points,  4 beta functions with:
                l(1) =   0
                l(2) =   0
                l(3) =   1
                l(4) =   1
     Q(r) pseudized with  8 coefficients,  rinner =    0.800   0.800   0.800

     PseudoPot. # 5 for H  read from file:
     /storage/coda1/p-amedford6/0/shared/rich_project_chbe-medford/medford-share/data/pseudos_module/espresso/nninc/pbe/van/H.UPF
     MD5 check sum: b5ee9d7bfd3a09ee7748110bda690ff7
     Pseudo is Ultrasoft, Zval =  1.0
     Generated by new atomic code, or converted to UPF format
     Using radial grid of  615 points,  1 beta functions with:
                l(1) =   0
     Q(r) pseudized with  8 coefficients,  rinner =    0.800

     atomic species   valence    mass     pseudopotential
        Ti1           12.00    47.86700     Ti( 1.00)
        O1             6.00    15.99900     O ( 1.00)
        N1             5.00    14.00700     N ( 1.00)
        C1             4.00    12.01100     C ( 1.00)
        H1             1.00     1.00800     H ( 1.00)

     No symmetry found

   Cartesian axes

     site n.     atom                  positions (alat units)
         1           Ti1 tau(   1) = (   0.0004258   2.9801865   6.0000000  )
         2           Ti1 tau(   2) = (   3.2906075   1.4906267   6.0002472  )
         3           O1  tau(   3) = (   0.0006271   0.0005054   7.9858123  )
         4           O1  tau(   4) = (   3.2906025   0.0005020   7.3038282  )
         5           O1  tau(   5) = (   4.5942328   1.4918067   9.2879030  )
         6           O1  tau(   6) = (   1.9868534   1.4903216   9.2879459  )
         7           Ti1 tau(   7) = (   3.2907910   2.8959150   9.1758416  )
         8           Ti1 tau(   8) = (   0.0015273   1.4827037   9.2680791  )
         9           O1  tau(   9) = (   3.3018735   5.9614316  11.2970789  )
        10           O1  tau(  10) = (   0.0116148   5.9584955  10.6183126  )
        11           O1  tau(  11) = (   1.3353665   1.4968727  12.6140821  )
        12           O1  tau(  12) = (   5.3123320   1.5002621  12.6324210  )
        13           Ti1 tau(  13) = (   6.4913169   2.9877414  12.7576577  )
        14           Ti1 tau(  14) = (   3.1819880   1.4874128  12.4666476  )
        15           O1  tau(  15) = (   0.0325390   5.9514364  14.5942808  )
        16           O1  tau(  16) = (   3.3157460   0.0104736  13.8786857  )
        17           O1  tau(  17) = (   4.5538541   1.5308062  16.0536203  )
        18           O1  tau(  18) = (   2.1012647   1.5271178  16.0466835  )
        19           Ti1 tau(  19) = (   3.3239613   3.0121693  15.6870930  )
        20           Ti1 tau(  20) = (   0.0188375   1.6096557  16.0875739  )
        21           O1  tau(  21) = (   3.2904802   0.0005063   4.7018136  )
        22           O1  tau(  22) = (   0.0443345   0.0604659  17.2041813  )
        23           O1  tau(  23) = (   1.3043587   1.4918075   6.0039043  )
        24           O1  tau(  24) = (   5.2767064   1.4903225   6.0039473  )
        25           Ti1 tau(  25) = (   0.0000382   5.9609847   6.0000000  )
        26           Ti1 tau(  26) = (   3.2902200   4.4714249   6.0002472  )
        27           O1  tau(  27) = (   0.0002396   2.9813036   7.9858123  )
        28           O1  tau(  28) = (   3.2902150   2.9813002   7.3038282  )
        29           O1  tau(  29) = (   4.5938453   4.4726049   9.2879030  )
        30           O1  tau(  30) = (   1.9864658   4.4711199   9.2879459  )
        31           Ti1 tau(  31) = (   3.2891106   5.8743827   9.1763621  )
        32           Ti1 tau(  32) = (   0.0006254   4.4649316   9.2693709  )
        33           O1  tau(  33) = (   3.3028429   2.9834257  11.2952420  )
        34           O1  tau(  34) = (   0.0092240   2.9805883  10.6323155  )
        35           O1  tau(  35) = (   1.3370139   4.4664586  12.6123119  )
        36           O1  tau(  36) = (   5.3107101   4.4655690  12.6333123  )
        37           Ti1 tau(  37) = (   6.5188704   0.0058144  12.7695920  )
        38           Ti1 tau(  38) = (   3.1805296   4.4670443  12.4671176  )
        39           O1  tau(  39) = (   0.0099197   2.9765079  14.6559069  )
        40           O1  tau(  40) = (   3.3143426   2.9928857  13.8797190  )
        41           O1  tau(  41) = (   4.5573730   4.5089470  16.0521860  )
        42           O1  tau(  42) = (   2.1018054   4.5121927  16.0508938  )
        43           Ti1 tau(  43) = (   3.3145791   0.0316975  15.6896801  )
        44           Ti1 tau(  44) = (   0.0207397   4.5876961  16.1385408  )
        45           O1  tau(  45) = (   3.2900926   2.9813045   4.7018136  )
        46           O1  tau(  46) = (   1.3039711   4.4726057   6.0039043  )
        47           O1  tau(  47) = (   5.2763189   4.4711207   6.0039473  )
        48           N1  tau(  48) = (   0.0936308   3.0233000  17.3257847  )
        49           C1  tau(  49) = (   0.4281149   3.0137428  18.7308649  )
        50           H1  tau(  50) = (   0.7292188   4.0033843  19.0862330  )
        51           H1  tau(  51) = (   6.1445545   2.6862439  19.3232575  )
        52           H1  tau(  52) = (   1.2401080   2.3040860  18.9332505  )

     number of k points=    10  Fermi-Dirac smearing, width (Ry)=  0.0073
                       cart. coord. in units 2pi/alat
        k(    1) = (   0.0000000   0.0000000   0.0000000), wk =   0.1250000
        k(    2) = (   0.0000000   0.0419351   0.0000000), wk =   0.2500000
        k(    3) = (   0.0000000  -0.0838702   0.0000000), wk =   0.1250000
        k(    4) = (   0.0379955   0.0000049   0.0000000), wk =   0.2500000
        k(    5) = (   0.0379955   0.0419400   0.0000000), wk =   0.2500000
        k(    6) = (   0.0379955  -0.0838652   0.0000000), wk =   0.2500000
        k(    7) = (   0.0379955  -0.0419301   0.0000000), wk =   0.2500000
        k(    8) = (  -0.0759910  -0.0000099   0.0000000), wk =   0.1250000
        k(    9) = (  -0.0759910   0.0419252   0.0000000), wk =   0.2500000
        k(   10) = (  -0.0759910  -0.0838800   0.0000000), wk =   0.1250000

     Initial potential from superposition of free atoms

     starting charge  373.99917, renormalised to  390.00000

     negative rho (up, down):  1.730E-02 0.000E+00

     %%%%%%%%%%%%%%%%%%%%%%%%%%%%%%%%%%%%%%%%%%%%%%%%%%%%%%%%%%%%%%%%%%%%%%%%
     %                                                                      %
     % You are using vdW-DF, which was implemented by the Thonhauser group. %
     % Please cite the following two papers that made this development      %
     % possible and the two reviews that describe the various versions:     %
     %                                                                      %
     %   T. Thonhauser et al., PRL 115, 136402 (2015).                      %
     %   T. Thonhauser et al., PRB 76, 125112 (2007).                       %
     %   K. Berland et al., Rep. Prog. Phys. 78, 066501 (2015).             %
     %   D.C. Langreth et al., J. Phys.: Condens. Matter 21, 084203 (2009). %
     %                                                                      %
     %                                                                      %
     % If you are calculating the stress with vdW-DF, please also cite:     %
     %                                                                      %
     %   R. Sabatini et al., J. Phys.: Condens. Matter 24, 424209 (2012).   %
     %                                                                      %
     %%%%%%%%%%%%%%%%%%%%%%%%%%%%%%%%%%%%%%%%%%%%%%%%%%%%%%%%%%%%%%%%%%%%%%%%

     Adding external electric field

     Computed dipole along edir(3) :
        Dipole               -4.6272 Ry au,        -11.7612 Debye
        Dipole field         -0.0087 Ry au,

        Potential amp.        0.8095 Ry
        Total length         46.3494 bohr

     Starting wfcs are  295 atomic wfcs
  @ DRIVER MODE: Message from server: STATUS
  @ DRIVER MODE: Message from server: POSDATA
  @ DRIVER MODE: Reading and sharing cell
  @ DRIVER MODE: Reading and sharing positions
  @ DRIVER MODE: Received positions

     Self-consistent Calculation

     iteration #  1     ecut=    29.40 Ry     beta= 0.05
     Davidson diagonalization with overlap
     ethr =  1.00E-02,  avg # of iterations =  2.1

[...]

     total energy              =   -2879.85343155 Ry
     estimated scf accuracy    <     452.43884280 Ry

[...]

     iteration #  3     ecut=    29.40 Ry     beta= 0.05
     Davidson diagonalization with overlap
     c_bands:  1 eigenvalues not converged
     c_bands:  1 eigenvalues not converged
     c_bands:  1 eigenvalues not converged
     c_bands:  1 eigenvalues not converged
     c_bands:  1 eigenvalues not converged
     ethr =  1.00E-02,  avg # of iterations = 18.5

[...]

     iteration # 29     ecut=    29.40 Ry     beta= 0.05
     Davidson diagonalization with overlap
     c_bands:  1 eigenvalues not converged
     ethr =  3.13E-06,  avg # of iterations = 12.1

[...]

     total energy              =   -2919.13183402 Ry
     estimated scf accuracy    <       0.00000009 Ry

     iteration # 55     ecut=    29.40 Ry     beta= 0.05
     Davidson diagonalization with overlap
     ethr =  2.26E-11,  avg # of iterations =  5.0

     negative rho (up, down):  1.787E-02 0.000E+00

     Adding external electric field

     Computed dipole along edir(3) :
        Dipole                0.2606 Ry au,          0.6625 Debye
        Dipole field          0.0005 Ry au,

        Potential amp.       -0.0456 Ry
        Total length         46.3494 bohr

     End of self-consistent calculation

          k = 0.0000 0.0000 0.0000 ( 18029 PWs)   bands (ev):

   -56.8878 -56.8541 -56.0099 -55.9981 -55.9750 -55.9652 -55.8627 -55.8240
   -55.6461 -55.6107 -55.5521 -55.5486 -55.5181 -55.4393 -54.9681 -54.9211
   -33.3157 -33.1625 -33.1344 -33.0638 -32.9727 -32.9417 -32.4807 -32.4745
   -32.4033 -32.2940 -32.2475 -32.2236 -32.2052 -32.1839 -32.1503 -32.1459
   -32.1418 -32.1390 -32.1134 -32.1104 -32.0993 -32.0698 -32.0435 -32.0297
   -32.0166 -31.9969 -31.9897 -31.9662 -31.9444 -31.8906 -31.8774 -31.8665
   -31.7901 -31.7848 -31.7631 -31.7237 -31.7126 -31.6796 -31.6686 -31.6437
   -31.6250 -31.5687 -31.4981 -31.2188 -31.1932 -31.1723 -31.1421 -31.0269
   -17.0521 -16.6167 -16.3862 -16.2505 -16.1832 -16.1286 -16.0848 -15.9603
   -15.8875 -15.8828 -15.8424 -15.8100 -15.7393 -15.6011 -15.5025 -15.4451
   -15.4014 -15.2824 -15.2238 -15.1900 -15.1841 -15.1453 -15.1302 -14.9333
   -14.9068 -14.8187 -14.7989 -14.6720 -14.4399 -14.0508 -13.9407 -13.0818
    -7.8118  -4.6176  -4.1131  -3.8718  -3.7890  -3.6807  -3.6681  -3.5874
    -3.4687  -3.4218  -3.3753  -3.2592  -3.2556  -3.1095  -3.1034  -3.0635
    -3.0610  -3.0242  -2.9640  -2.9426  -2.9056  -2.8935  -2.8858  -2.7332
    -2.6329  -2.5657  -2.5390  -2.5258  -2.4955  -2.4234  -2.3936  -2.3845
    -2.3806  -2.2750  -2.1302  -2.1281  -2.0965  -2.0545  -2.0524  -2.0125
    -2.0009  -1.8766  -1.7856  -1.6766  -1.6669  -1.6295  -1.5680  -1.5614
    -1.4649  -1.3892  -1.3189  -1.3012  -1.1918  -1.1478  -1.1245  -1.0347
    -0.9733  -0.9358  -0.9128  -0.8965  -0.7931  -0.7773  -0.7697  -0.6763
    -0.6642  -0.6208  -0.5278  -0.5046  -0.4989  -0.4168  -0.4097  -0.3044
    -0.2764  -0.2315  -0.1988  -0.0938  -0.0732   0.0247   0.0617   0.0806
     0.2019   0.2193   0.2797   0.3521   0.4175   0.4341   0.4694   0.5002
     0.5164   0.5946   0.7069   0.7137   0.8179   0.8507   1.0220   1.0609
     1.3457   1.3540   2.0457   2.3868   2.5464   2.8448   3.0339   3.1473
     3.3616   3.3771   3.3825   3.5556   3.6064

[...]

          k = 0.0380-0.0419 0.0000 ( 17876 PWs)   bands (ev):

[...]

          k =-0.0760-0.0000 0.0000 ( 17886 PWs)   bands (ev):

[...]

          k =-0.0760-0.0839 0.0000 ( 17948 PWs)   bands (ev):

   -56.8711 -56.8707 -55.9947 -55.9890 -55.9824 -55.9817 -55.8512 -55.8354
   -55.6313 -55.6254 -55.5458 -55.5351 -55.5350 -55.4420 -54.9601 -54.9290
   -33.1484 -33.1481 -33.1326 -33.1324 -33.0169 -33.0165 -32.3106 -32.3082
   -32.2990 -32.2925 -32.2392 -32.2359 -32.1973 -32.1933 -32.1922 -32.1880
   -32.1842 -32.1814 -32.1792 -32.1776 -32.1015 -32.0890 -32.0504 -32.0381
   -31.9818 -31.9733 -31.9136 -31.9077 -31.8795 -31.8794 -31.8738 -31.8299
   -31.8282 -31.7987 -31.7619 -31.7607 -31.7605 -31.7216 -31.7215 -31.7194
   -31.6848 -31.6454 -31.3629 -31.2854 -31.1899 -31.1627 -31.1507 -31.1092
   -16.4008 -16.3987 -16.3660 -16.3657 -16.0968 -16.0933 -16.0469 -16.0436
   -15.8720 -15.8649 -15.6601 -15.6512 -15.6441 -15.6413 -15.5135 -15.5078
   -15.4444 -15.4302 -15.3422 -15.3398 -15.2769 -15.2708 -15.2322 -15.2125
   -14.9025 -14.8848 -14.7728 -14.7474 -14.5834 -14.0442 -14.0442 -13.0982
    -7.8026  -3.4992  -3.4985  -3.4350  -3.4340  -3.3093  -3.3035  -3.2305
    -3.2297  -3.1281  -3.1244  -3.0799  -2.9966  -2.9852  -2.9822  -2.9713
    -2.9590  -2.8305  -2.8281  -2.8169  -2.8009  -2.7449  -2.7427  -2.7299
    -2.6531  -2.6384  -2.6044  -2.5661  -2.4573  -2.4439  -2.4307  -2.3991
    -2.3435  -2.3295  -2.3164  -2.2748  -2.2506  -2.1635  -2.1078  -2.0553
    -1.9395  -1.9364  -1.9278  -1.9122  -1.7611  -1.7194  -1.6917  -1.6846
    -1.6764  -1.6327  -1.5344  -1.5278  -1.3931  -1.3925  -1.3125  -1.2337
    -1.2160  -1.1861  -1.0560  -1.0156  -0.9791  -0.9709  -0.9434  -0.9238
    -0.9002  -0.8629  -0.7214  -0.7084  -0.6714  -0.6363  -0.6314  -0.5756
    -0.5179  -0.4380  -0.3617  -0.3607  -0.3062  -0.2336  -0.1733  -0.0920
    -0.0785  -0.0739   0.2063   0.2859   0.3783   0.4547   0.5232   0.5766
     0.6114   0.6764   0.7149   0.8479   0.8524   0.8701   0.8705   0.9328
     0.9344   1.3366   1.9351   2.9598   2.9601   3.0270   3.0273   3.3509
     3.3568   3.4649   3.4745   3.5857   3.5880

     the Fermi energy is     2.2256 ev

!    total energy              =   -2919.13189541 Ry
     estimated scf accuracy    <       0.00000007 Ry
     smearing contrib. (-TS)   =      -0.00481329 Ry
     internal energy E=F+TS    =   -2919.12708212 Ry

     The total energy is F=E-TS. E is the sum of the following terms:
     one-electron contribution =  -24569.38352754 Ry
     hartree contribution      =   12368.91648900 Ry
     xc contribution           =    -479.90014502 Ry
     ewald contribution        =    9761.23997323 Ry
     electric field correction =       0.00012821 Ry

     convergence has been achieved in  55 iterations

     Forces acting on atoms (cartesian axes, Ry/au):

     atom    1 type  1   force =     0.00006090   -0.00051062    0.12428310
     atom    2 type  1   force =    -0.00008851   -0.00054864   -0.16063598
     atom    3 type  2   force =     0.00022125   -0.00024152   -0.06810118
     atom    4 type  2   force =    -0.00000219   -0.00032238    0.02758021
     atom    5 type  2   force =    -0.01622158    0.00174695   -0.00935851
     atom    6 type  2   force =     0.01827466    0.00228569   -0.00891226
     atom    7 type  1   force =     0.00112156   -0.00381555    0.02204469
     atom    8 type  1   force =    -0.00061558   -0.00325205    0.11124472
     atom    9 type  2   force =    -0.00010641    0.00138865   -0.00035735
     atom   10 type  2   force =    -0.00191089    0.00178599   -0.07347878
     atom   11 type  2   force =     0.00080674    0.00006147    0.00005088
     atom   12 type  2   force =    -0.00063907    0.00020140    0.00015010
     atom   13 type  1   force =     0.00005502    0.00022268   -0.00041522
     atom   14 type  1   force =    -0.00101408   -0.00024352   -0.00047576
     atom   15 type  2   force =     0.00000074   -0.00028412    0.00006930
     atom   16 type  2   force =    -0.00006323    0.00106773    0.00074689
     atom   17 type  2   force =     0.00006538    0.00013483   -0.00046919
     atom   18 type  2   force =     0.00007575    0.00020119   -0.00006964
     atom   19 type  1   force =     0.00013821    0.00003023   -0.00072051
     atom   20 type  1   force =     0.00032400   -0.00098318    0.00014567
     atom   21 type  2   force =     0.00003941   -0.00006802    0.09971970
     atom   22 type  2   force =     0.00016352   -0.00052787   -0.00007197
     atom   23 type  2   force =    -0.07919719   -0.00005471   -0.03244130
     atom   24 type  2   force =     0.07906303    0.00038124   -0.03246377
     atom   25 type  1   force =     0.00004604   -0.00050334    0.12373012
     atom   26 type  1   force =    -0.00009541   -0.00050962   -0.16065711
     atom   27 type  2   force =     0.00032653   -0.00048126   -0.06715514
     atom   28 type  2   force =     0.00002611   -0.00014276    0.02726955
     atom   29 type  2   force =    -0.01662136    0.00134847   -0.00956137
     atom   30 type  2   force =     0.01856249    0.00165482   -0.00913032
     atom   31 type  1   force =     0.00110081   -0.00129252    0.02160225
     atom   32 type  1   force =    -0.00051997    0.00069433    0.11189509
     atom   33 type  2   force =    -0.00034004   -0.00115375    0.00014596
     atom   34 type  2   force =    -0.00156835    0.00135649   -0.07241503
     atom   35 type  2   force =    -0.00179510   -0.00019888    0.00026710
     atom   36 type  2   force =     0.00070443   -0.00042036   -0.00005177
     atom   37 type  1   force =     0.00072013   -0.00033334    0.00069778
     atom   38 type  1   force =    -0.00016372    0.00052200    0.00020550
     atom   39 type  2   force =     0.00017977   -0.00030981   -0.00038042
     atom   40 type  2   force =     0.00010338   -0.00017365    0.00033517
     atom   41 type  2   force =    -0.00000271    0.00045503   -0.00014359
     atom   42 type  2   force =     0.00028850    0.00054148   -0.00004050
     atom   43 type  1   force =     0.00037903    0.00016443   -0.00034864
     atom   44 type  1   force =    -0.00022347    0.00009246    0.00009260
     atom   45 type  2   force =     0.00002395   -0.00007162    0.09972879
     atom   46 type  2   force =    -0.07920612   -0.00000423   -0.03243977
     atom   47 type  2   force =     0.07907316    0.00042417   -0.03246308
     atom   48 type  3   force =    -0.00008935   -0.00092627   -0.00059333
     atom   49 type  4   force =    -0.00053497   -0.00010626    0.00082781
     atom   50 type  5   force =    -0.00070607    0.00005358    0.00015277
     atom   51 type  5   force =     0.00019186    0.00017062    0.00020535
     atom   52 type  5   force =    -0.00041098    0.00049391    0.00016039

     Total force =     0.424619     Total SCF correction =     0.000927
  @ DRIVER MODE: Message from server: STATUS
  @ DRIVER MODE: Message from server: GETFORCE
  @ DRIVER MODE: Returning v,forces,stress,ensemble

     Writing output data file ./calc.save/
  @ DRIVER MODE: Message from server: EXIT
  @ DRIVE MODE: Exiting

     General routines

     Parallel routines

   This run was terminated on:  16:54:43  24Aug2021

   JOB DONE.