     Program PWSCF v.6.7GPU starts on 10Sep2021 at 22:21:31

     R & G space division:  proc/nbgrp/npool/nimage =      10
     Reading input from /storage/home/hcoda1/3/ntian30/research/carbon/CxH_vib/CH2_calc/ads_slab/CH2OH_f/out_0015/pw.inp
Warning: card &CELL ignored
Warning: card   CELL_DYNAMICS='IPI', ignored
Warning: card / ignored

     Current dimensions of program PWSCF are:
     Max number of different atomic species (ntypx) = 10
     Max number of k-points (npk) =  40000
     Max angular momentum in pseudopotentials (lmaxx) =  3
     Presently no symmetry can be used with electric field

     Message from routine cell_base_init:
     DEPRECATED: use true lattice parameter, not A to a.u. conversion factor

     IMPORTANT: XC functional enforced from input :
     Exchange-correlation= BEEF-VDW
                           (   1   4  43  14   2   0   0)
     Any further DFT definition will be discarded
     Please, verify this is what you really want

  @ DRIVER MODE: Connecting to
 qe_1139763_2792042.sched-torque.pace.gatech.edu7hkl_0ht_scratch
  using UNIX socket
  @ DRIVER MODE: Message from server: STATUS
  @ DRIVER MODE: Message from server: INIT
  @ DRIVER MODE: Receiving replica           0          -1
  @ DRIVER MODE: Receiving encoded integer          25
  @ DRIVER MODE:  SCF:  T  FORCE:  T  STRESS:  F  VC:  F  ENSEMBLE:  F
  @ DRIVER MODE:  SCF:  T  FORCE:  T  STRESS:  F  VC:  F  ENSEMBLE:  F

     Using Slab Decomposition

     bravais-lattice index     =            0
     lattice parameter (alat)  =       1.8897  a.u.
     unit-cell volume          =    6658.9804 (a.u.)^3
     number of atoms/cell      =           52
     number of atomic types    =            4
     number of electrons       =       391.00
     number of Kohn-Sham states=          205
     kinetic-energy cutoff     =      29.3995  Ry
     charge density cutoff     =     293.9946  Ry
     scf convergence threshold =      7.3E-08
     mixing beta               =       0.0500
     number of iterations used =            8  plain     mixing
     Exchange-correlation= BEEF-VDW
                           (   1   4  43  14   2   0   0)

     celldm(1)=   1.889726  celldm(2)=   0.000000  celldm(3)=   0.000000
     celldm(4)=   0.000000  celldm(5)=   0.000000  celldm(6)=   0.000000

     crystal axes: (cart. coord. in units of alat)
               a(1) = (   6.579727   0.000000   0.000000 )
               a(2) = (  -0.000775   5.961596   0.000000 )
               a(3) = (   0.000000   0.000000  25.155947 )

     reciprocal axes: (cart. coord. in units 2 pi/alat)
               b(1) = (  0.151982  0.000020  0.000000 )
               b(2) = (  0.000000  0.167740  0.000000 )
               b(3) = (  0.000000  0.000000  0.039752 )

     PseudoPot. # 1 for O  read from file:
     /storage/coda1/p-amedford6/0/shared/rich_project_chbe-medford/medford-share/data/pseudos_module/espresso/nninc/pbe/van/O.UPF
     MD5 check sum: 78c19812648e8988a0fe644b0f25305e
     Pseudo is Ultrasoft, Zval =  6.0
     Generated by new atomic code, or converted to UPF format
     Using radial grid of  737 points,  4 beta functions with:
                l(1) =   0
                l(2) =   0
                l(3) =   1
                l(4) =   1
     Q(r) pseudized with  8 coefficients,  rinner =    0.800   0.800   0.800

     PseudoPot. # 2 for Ti read from file:
     /storage/coda1/p-amedford6/0/shared/rich_project_chbe-medford/medford-share/data/pseudos_module/espresso/nninc/pbe/van/Ti.UPF
     MD5 check sum: 8e4df49b7f0d34bbd5052bf3f5ea0213
     Pseudo is Ultrasoft, Zval = 12.0
     Generated by new atomic code, or converted to UPF format
     Using radial grid of  851 points,  6 beta functions with:
                l(1) =   0
                l(2) =   0
                l(3) =   1
                l(4) =   1
                l(5) =   2
                l(6) =   2
     Q(r) pseudized with  8 coefficients,  rinner =    1.000   1.000   1.000
                                                       1.000   1.000

     PseudoPot. # 3 for H  read from file:
     /storage/coda1/p-amedford6/0/shared/rich_project_chbe-medford/medford-share/data/pseudos_module/espresso/nninc/pbe/van/H.UPF
     MD5 check sum: b5ee9d7bfd3a09ee7748110bda690ff7
     Pseudo is Ultrasoft, Zval =  1.0
     Generated by new atomic code, or converted to UPF format
     Using radial grid of  615 points,  1 beta functions with:
                l(1) =   0
     Q(r) pseudized with  8 coefficients,  rinner =    0.800

     PseudoPot. # 4 for C  read from file:
     /storage/coda1/p-amedford6/0/shared/rich_project_chbe-medford/medford-share/data/pseudos_module/espresso/nninc/pbe/van/C.UPF
     MD5 check sum: 1a69bf6b8db32088f5b2163dbdb77a27
     Pseudo is Ultrasoft, Zval =  4.0
     Generated by new atomic code, or converted to UPF format
     Using radial grid of  721 points,  4 beta functions with:
                l(1) =   0
                l(2) =   0
                l(3) =   1
                l(4) =   1
     Q(r) pseudized with  8 coefficients,  rinner =    0.800   0.800   0.800

     atomic species   valence    mass     pseudopotential
        O1             6.00    15.99900     O ( 1.00)
        Ti1           12.00    47.86700     Ti( 1.00)
        H1             1.00     1.00800     H ( 1.00)
        C1             4.00    12.01100     C ( 1.00)

     No symmetry found

   Cartesian axes

     site n.     atom                  positions (alat units)
         1           O1  tau(   1) = (   3.2904802   0.0005063   4.7018136  )
         2           O1  tau(   2) = (   3.2900926   2.9813045   4.7018136  )
         3           Ti1 tau(   3) = (   0.0004258   2.9801865   6.0000000  )
         4           Ti1 tau(   4) = (   0.0000382   5.9609847   6.0000000  )
         5           Ti1 tau(   5) = (   3.2906075   1.4906267   6.0002472  )
         6           Ti1 tau(   6) = (   3.2902200   4.4714249   6.0002472  )
         7           O1  tau(   7) = (   1.3043587   1.4918075   6.0039043  )
         8           O1  tau(   8) = (   1.3039711   4.4726057   6.0039043  )
         9           O1  tau(   9) = (   5.2767064   1.4903225   6.0039473  )
        10           O1  tau(  10) = (   5.2763189   4.4711207   6.0039473  )
        11           O1  tau(  11) = (   3.2906025   0.0005020   7.3038282  )
        12           O1  tau(  12) = (   3.2902150   2.9813002   7.3038282  )
        13           O1  tau(  13) = (   0.0006271   0.0005054   7.9858123  )
        14           O1  tau(  14) = (   0.0002396   2.9813036   7.9858123  )
        15           Ti1 tau(  15) = (   3.3208325   5.9232416   9.1783542  )
        16           Ti1 tau(  16) = (   3.3324863   2.9377666   9.1648094  )
        17           Ti1 tau(  17) = (   0.0524917   1.4788520   9.2606301  )
        18           Ti1 tau(  18) = (   0.0483789   4.4105323   9.3105966  )
        19           O1  tau(  19) = (   4.5942328   1.4918067   9.2879030  )
        20           O1  tau(  20) = (   4.5938453   4.4726049   9.2879030  )
        21           O1  tau(  21) = (   1.9868534   1.4903216   9.2879459  )
        22           O1  tau(  22) = (   1.9864658   4.4711199   9.2879459  )
        23           O1  tau(  23) = (   6.5712937   0.0017758  10.5841540  )
        24           O1  tau(  24) = (   0.0002036   2.9871675  10.5944109  )
        25           O1  tau(  25) = (   3.2216619   2.9970402  11.3379169  )
        26           O1  tau(  26) = (   3.2239595   0.0054171  11.3328765  )
        27           Ti1 tau(  27) = (   6.5319223   0.0329622  12.4533321  )
        28           Ti1 tau(  28) = (   3.1914638   1.6317768  12.6145244  )
        29           Ti1 tau(  29) = (   3.1843358   4.5420783  12.4476223  )
        30           Ti1 tau(  30) = (   6.4449355   3.0101977  12.6586491  )
        31           O1  tau(  31) = (   5.2440064   1.5124744  12.5792363  )
        32           O1  tau(  32) = (   5.2402295   4.4617308  12.5795526  )
        33           O1  tau(  33) = (   1.2196697   1.4730338  12.6667888  )
        34           O1  tau(  34) = (   1.2190574   4.4979232  12.6669875  )
        35           O1  tau(  35) = (   3.2067865   2.9341989  13.9395670  )
        36           O1  tau(  36) = (   3.3440650   5.9513154  13.9008253  )
        37           O1  tau(  37) = (   6.3267833   5.9539684  14.6370341  )
        38           O1  tau(  38) = (   6.3913104   2.9714873  14.7475579  )
        39           Ti1 tau(  39) = (   3.1260420   2.9476348  15.9752747  )
        40           Ti1 tau(  40) = (   3.1986908   5.9292636  15.6746755  )
        41           Ti1 tau(  41) = (   6.4744102   1.3498976  15.9078779  )
        42           Ti1 tau(  42) = (   6.4721656   4.5656371  15.8700466  )
        43           O1  tau(  43) = (   1.8677001   4.5604514  15.8157410  )
        44           O1  tau(  44) = (   1.8686447   1.3618557  15.8396546  )
        45           O1  tau(  45) = (   4.4008848   1.5192286  16.2292034  )
        46           O1  tau(  46) = (   4.3978686   4.4066597  16.2143399  )
        47           O1  tau(  47) = (   6.4830960   5.9408203  17.1431429  )
        48           O1  tau(  48) = (   0.4828407   2.9769521  17.4917737  )
        49           H1  tau(  49) = (   6.5026766   3.0145448  18.2851392  )
        50           C1  tau(  50) = (   1.9555054   2.9705414  17.9097346  )
        51           H1  tau(  51) = (   2.0761010   2.0893267  18.5304525  )
        52           H1  tau(  52) = (   2.0801140   3.8867162  18.5073456  )

     number of k points=    10  Fermi-Dirac smearing, width (Ry)=  0.0073
                       cart. coord. in units 2pi/alat
        k(    1) = (   0.0000000   0.0000000   0.0000000), wk =   0.1250000
        k(    2) = (   0.0000000   0.0419351   0.0000000), wk =   0.2500000
        k(    3) = (   0.0000000  -0.0838702   0.0000000), wk =   0.1250000
        k(    4) = (   0.0379955   0.0000049   0.0000000), wk =   0.2500000
        k(    5) = (   0.0379955   0.0419400   0.0000000), wk =   0.2500000
        k(    6) = (   0.0379955  -0.0838652   0.0000000), wk =   0.2500000
        k(    7) = (   0.0379955  -0.0419301   0.0000000), wk =   0.2500000
        k(    8) = (  -0.0759910  -0.0000099   0.0000000), wk =   0.1250000
        k(    9) = (  -0.0759910   0.0419252   0.0000000), wk =   0.2500000
        k(   10) = (  -0.0759910  -0.0838800   0.0000000), wk =   0.1250000

     Initial potential from superposition of free atoms

     starting charge  374.99918, renormalised to  391.00000

     negative rho (up, down):  1.929E-02 0.000E+00

     %%%%%%%%%%%%%%%%%%%%%%%%%%%%%%%%%%%%%%%%%%%%%%%%%%%%%%%%%%%%%%%%%%%%%%%%
     %                                                                      %
     % You are using vdW-DF, which was implemented by the Thonhauser group. %
     % Please cite the following two papers that made this development      %
     % possible and the two reviews that describe the various versions:     %
     %                                                                      %
     %   T. Thonhauser et al., PRL 115, 136402 (2015).                      %
     %   T. Thonhauser et al., PRB 76, 125112 (2007).                       %
     %   K. Berland et al., Rep. Prog. Phys. 78, 066501 (2015).             %
     %   D.C. Langreth et al., J. Phys.: Condens. Matter 21, 084203 (2009). %
     %                                                                      %
     %                                                                      %
     % If you are calculating the stress with vdW-DF, please also cite:     %
     %                                                                      %
     %   R. Sabatini et al., J. Phys.: Condens. Matter 24, 424209 (2012).   %
     %                                                                      %
     %%%%%%%%%%%%%%%%%%%%%%%%%%%%%%%%%%%%%%%%%%%%%%%%%%%%%%%%%%%%%%%%%%%%%%%%

     Adding external electric field

     Computed dipole along edir(3) :
        Dipole               -5.2494 Ry au,        -13.3426 Debye
        Dipole field         -0.0099 Ry au,

        Potential amp.        0.9183 Ry
        Total length         46.3494 bohr

     Starting wfcs are  295 atomic wfcs
  @ DRIVER MODE: Message from server: STATUS
  @ DRIVER MODE: Message from server: POSDATA
  @ DRIVER MODE: Reading and sharing cell
  @ DRIVER MODE: Reading and sharing positions
  @ DRIVER MODE: Received positions

     Self-consistent Calculation

     iteration #  1     ecut=    29.40 Ry     beta= 0.05
     Davidson diagonalization with overlap
     c_bands:  1 eigenvalues not converged
     c_bands:  4 eigenvalues not converged
     c_bands:  1 eigenvalues not converged
     c_bands:  2 eigenvalues not converged
     c_bands:  4 eigenvalues not converged
     c_bands:  1 eigenvalues not converged
     c_bands:  1 eigenvalues not converged
     c_bands:  3 eigenvalues not converged
     ethr =  1.00E-05,  avg # of iterations = 19.6

[...]

     total energy              =   -2799.57795621 Ry
     estimated scf accuracy    <    1447.80764690 Ry

     iteration #  2     ecut=    29.40 Ry     beta= 0.05
     Davidson diagonalization with overlap
     ethr =  1.00E-02,  avg # of iterations = 16.8

[...]

     iteration # 55     ecut=    29.40 Ry     beta= 0.05
     Davidson diagonalization with overlap
     c_bands:  1 eigenvalues not converged
     c_bands:  2 eigenvalues not converged
     ethr =  6.08E-11,  avg # of iterations = 12.0

[...]

     total energy              =   -2931.32907674 Ry
     estimated scf accuracy    <       0.00000009 Ry

     iteration # 57     ecut=    29.40 Ry     beta= 0.05
     Davidson diagonalization with overlap
     ethr =  2.27E-11,  avg # of iterations = 10.8

     negative rho (up, down):  1.889E-02 0.000E+00

     Adding external electric field

     Computed dipole along edir(3) :
        Dipole                0.9518 Ry au,          2.4193 Debye
        Dipole field          0.0018 Ry au,

        Potential amp.       -0.1665 Ry
        Total length         46.3494 bohr

     End of self-consistent calculation

          k = 0.0000 0.0000 0.0000 ( 18029 PWs)   bands (ev):

   -55.8497 -55.8121 -55.7581 -55.7454 -55.6919 -55.6845 -55.6695 -55.6650
   -55.6345 -55.6156 -55.6139 -55.5882 -55.5814 -55.5646 -54.8247 -54.7906
   -32.3594 -32.3240 -32.2335 -32.2042 -32.1587 -32.1336 -32.1216 -32.0969
   -32.0882 -32.0610 -32.0348 -32.0130 -32.0044 -31.9915 -31.9644 -31.9570
   -31.9459 -31.9348 -31.9162 -31.9138 -31.9090 -31.9033 -31.8758 -31.8574
   -31.8521 -31.8491 -31.8476 -31.8377 -31.8313 -31.8217 -31.8132 -31.8108
   -31.8007 -31.7883 -31.7846 -31.7837 -31.7707 -31.7650 -31.7477 -31.7364
   -31.7172 -31.6440 -31.2319 -31.1424 -31.1199 -31.0488 -30.9626 -30.8511
   -19.5430 -16.5536 -16.3376 -16.1509 -16.0519 -16.0014 -15.8328 -15.7505
   -15.5404 -15.4879 -15.4761 -15.4501 -15.3940 -15.3775 -15.3711 -15.3523
   -15.3408 -15.3157 -15.2562 -15.2473 -15.2392 -15.2043 -15.1467 -15.1168
   -14.9897 -14.9808 -14.9652 -14.9463 -14.8627 -14.7327 -13.3247 -13.2077
    -9.6117  -6.4435  -4.2019  -3.9982  -3.8648  -3.7677  -3.7522  -3.7314
    -3.5697  -3.4954  -3.2709  -3.1387  -3.0876  -3.0202  -2.9802  -2.9182
    -2.8258  -2.7632  -2.7213  -2.6810  -2.6476  -2.6462  -2.6305  -2.5765
    -2.5467  -2.5018  -2.4005  -2.3980  -2.3460  -2.2892  -2.2492  -2.2073
    -2.1664  -2.1505  -2.1299  -2.0935  -2.0602  -2.0503  -2.0176  -1.9876
    -1.9306  -1.8495  -1.8204  -1.5582  -1.4662  -1.3806  -1.3674  -1.2997
    -1.2762  -1.2469  -1.2318  -1.1924  -1.1798  -1.0936  -1.0854  -1.0125
    -0.9713  -0.8900  -0.8296  -0.7529  -0.6898  -0.6315  -0.6084  -0.5795
    -0.5642  -0.5543  -0.3930  -0.3815  -0.3547  -0.2438  -0.2278  -0.1630
    -0.1395  -0.0771  -0.0540   0.0110   0.0689   0.0906   0.1125   0.1489
     0.1591   0.1709   0.2131   0.2953   0.3852   0.3989   0.4165   0.4794
     0.6451   0.7189   0.8226   0.8866   1.1248   1.2003   1.2374   1.2828
     1.3865   1.7741   1.8271   3.2982   3.3674   3.4154   3.4257   3.4645
     3.5465   3.7367   3.7448   3.8032   3.8911

[...]

          k = 0.0380-0.0419 0.0000 ( 17876 PWs)   bands (ev):

[...]

          k =-0.0760-0.0000 0.0000 ( 17886 PWs)   bands (ev):

[...]

          k =-0.0760-0.0839 0.0000 ( 17948 PWs)   bands (ev):

   -55.8389 -55.8227 -55.7538 -55.7388 -55.6983 -55.6884 -55.6660 -55.6595
   -55.6264 -55.6211 -55.5993 -55.5974 -55.5957 -55.5672 -54.8077 -54.8075
   -32.2823 -32.1475 -32.1361 -32.1319 -32.1084 -32.0844 -32.0797 -32.0521
   -32.0206 -32.0034 -31.9929 -31.9896 -31.9766 -31.9671 -31.9652 -31.9601
   -31.9591 -31.9514 -31.9486 -31.9331 -31.9308 -31.9230 -31.9001 -31.8967
   -31.8925 -31.8859 -31.8843 -31.8743 -31.8661 -31.8596 -31.8462 -31.8435
   -31.8339 -31.8250 -31.8230 -31.8133 -31.8103 -31.8081 -31.8062 -31.7943
   -31.7904 -31.6456 -31.1328 -31.1324 -31.0454 -31.0444 -31.0059 -31.0052
   -19.5371 -16.1427 -15.9585 -15.8046 -15.7908 -15.7850 -15.6331 -15.6297
   -15.6048 -15.5682 -15.5353 -15.5173 -15.4795 -15.4753 -15.4321 -15.3806
   -15.3742 -15.3621 -15.3356 -15.2845 -15.2722 -15.2573 -15.1803 -15.1695
   -15.1612 -15.1349 -15.1321 -15.1004 -15.0998 -15.0257 -13.3114 -13.3075
    -9.6121  -6.4268  -4.2071  -3.8642  -3.2828  -3.2097  -3.0170  -3.0022
    -2.9277  -2.8927  -2.8669  -2.8266  -2.7766  -2.7695  -2.7548  -2.6804
    -2.6566  -2.6520  -2.6074  -2.5942  -2.5840  -2.5677  -2.5539  -2.5166
    -2.4935  -2.4692  -2.4461  -2.4309  -2.4091  -2.4003  -2.3956  -2.3501
    -2.3297  -2.2095  -2.1184  -2.0556  -2.0091  -1.9682  -1.9422  -1.9235
    -1.9057  -1.8912  -1.8782  -1.8380  -1.7694  -1.6035  -1.5250  -1.5200
    -1.4570  -1.4372  -1.3845  -1.3667  -1.2903  -1.2620  -1.2116  -1.1988
    -1.1830  -1.0804  -1.0560  -0.9632  -0.9307  -0.8250  -0.8016  -0.7883
    -0.7692  -0.7270  -0.7053  -0.6420  -0.6195  -0.5812  -0.5537  -0.5031
    -0.4576  -0.4405  -0.3437  -0.3021  -0.2484  -0.2012  -0.1345  -0.0251
     0.1533   0.1758   0.2110   0.3155   0.3544   0.4258   0.4821   0.5009
     0.5646   0.6012   0.6454   0.6943   0.7575   0.7940   1.2455   1.5618
     1.5703   1.6349   1.6465   3.6005   3.6494   3.7691   3.7820   3.8120
     3.8225   3.8357   3.8508   3.9009   3.9543

     the Fermi energy is     3.2914 ev

!    total energy              =   -2931.32913485 Ry
     estimated scf accuracy    <       0.00000005 Ry
     smearing contrib. (-TS)   =      -0.02172966 Ry
     internal energy E=F+TS    =   -2931.30740519 Ry

     The total energy is F=E-TS. E is the sum of the following terms:
     one-electron contribution =  -24944.49071784 Ry
     hartree contribution      =   12558.65979106 Ry
     xc contribution           =    -482.04129567 Ry
     ewald contribution        =    9936.56310760 Ry
     electric field correction =       0.00170966 Ry

     convergence has been achieved in  57 iterations

     Forces acting on atoms (cartesian axes, Ry/au):

     atom    1 type  1   force =    -0.00001149    0.00009964    0.10314031
     atom    2 type  1   force =     0.00000459    0.00011135    0.10346724
     atom    3 type  2   force =    -0.00029487    0.00099553    0.09594664
     atom    4 type  2   force =    -0.00015287   -0.00100076    0.10946183
     atom    5 type  2   force =    -0.00014502   -0.00319032   -0.17642364
     atom    6 type  2   force =    -0.00014212    0.00267577   -0.17602221
     atom    7 type  1   force =    -0.07087688    0.00113628   -0.02856998
     atom    8 type  1   force =    -0.07122107   -0.00152529   -0.02860015
     atom    9 type  1   force =     0.07072518    0.00155026   -0.02859949
     atom   10 type  1   force =     0.07094358   -0.00114781   -0.02864487
     atom   11 type  1   force =     0.00048677   -0.00020852    0.05105079
     atom   12 type  1   force =     0.00072171   -0.00042227    0.05032003
     atom   13 type  1   force =     0.00061497    0.00264793   -0.02978970
     atom   14 type  1   force =     0.00055757   -0.00112069   -0.02626160
     atom   15 type  2   force =     0.00019208   -0.00145541   -0.00051756
     atom   16 type  2   force =    -0.00011024    0.00158574   -0.00009952
     atom   17 type  2   force =    -0.00006906   -0.00004033    0.00029219
     atom   18 type  2   force =     0.00009088    0.00060715    0.00040517
     atom   19 type  1   force =    -0.01649008    0.00013049    0.00404196
     atom   20 type  1   force =    -0.01694402   -0.00138226    0.00404138
     atom   21 type  1   force =     0.01272547    0.00185514    0.00028554
     atom   22 type  1   force =     0.01237539    0.00142384    0.00045517
     atom   23 type  1   force =     0.00020225   -0.00009783   -0.00060841
     atom   24 type  1   force =     0.00017261   -0.00040919   -0.00048320
     atom   25 type  1   force =     0.00035300   -0.00003635   -0.00001397
     atom   26 type  1   force =     0.00006739   -0.00045105   -0.00067655
     atom   27 type  2   force =    -0.00001725   -0.00060584   -0.00026753
     atom   28 type  2   force =     0.00015943    0.00005690   -0.00033255
     atom   29 type  2   force =    -0.00011212   -0.00109610    0.00030167
     atom   30 type  2   force =     0.00037328    0.00034638    0.00018802
     atom   31 type  1   force =     0.00013934    0.00005439   -0.00007033
     atom   32 type  1   force =    -0.00010380   -0.00034742    0.00038680
     atom   33 type  1   force =     0.00023375   -0.00016975   -0.00014002
     atom   34 type  1   force =     0.00050919   -0.00038032    0.00024828
     atom   35 type  1   force =    -0.00011640    0.00005769    0.00176687
     atom   36 type  1   force =     0.00034157    0.00015012    0.00033440
     atom   37 type  1   force =     0.00014929   -0.00012610   -0.00007523
     atom   38 type  1   force =     0.00043404   -0.00036111    0.00014056
     atom   39 type  2   force =     0.00042698    0.00104918   -0.00081942
     atom   40 type  2   force =     0.00044337   -0.00020526    0.00010302
     atom   41 type  2   force =     0.00001476   -0.00069945    0.00040067
     atom   42 type  2   force =     0.00024807    0.00054285    0.00001910
     atom   43 type  1   force =     0.00116244   -0.00025236    0.00043395
     atom   44 type  1   force =     0.00040811   -0.00052312   -0.00038644
     atom   45 type  1   force =     0.00010579    0.00000052    0.00002181
     atom   46 type  1   force =     0.00044708   -0.00024951    0.00025912
     atom   47 type  1   force =     0.00051715    0.00038891   -0.00039015
     atom   48 type  1   force =     0.00008527   -0.00213010   -0.00000355
     atom   49 type  3   force =     0.00022040   -0.00050140    0.00004248
     atom   50 type  4   force =    -0.00050249    0.01931321   -0.00015513
     atom   51 type  3   force =     0.00044425   -0.00843180    0.00514564
     atom   52 type  3   force =     0.00021277   -0.00821157   -0.00474947

     Total force =     0.369184     Total SCF correction =     0.000829
  @ DRIVER MODE: Message from server: STATUS
  @ DRIVER MODE: Message from server: GETFORCE
  @ DRIVER MODE: Returning v,forces,stress,ensemble

     Writing output data file ./calc.save/
  @ DRIVER MODE: Message from server: EXIT
  @ DRIVE MODE: Exiting

     General routines

     Parallel routines

   This run was terminated on:  22:37: 1  10Sep2021

   JOB DONE.