     Program PWSCF v.6.7GPU starts on 14Sep2021 at 15: 7:53

     R & G space division:  proc/nbgrp/npool/nimage =      10
     Reading input from /storage/home/hcoda1/3/ntian30/research/carbon/CxH_vib/CH2_calc/ads_slab/CH2OHN2_a/out_0004/pw.inp
Warning: card &CELL ignored
Warning: card   CELL_DYNAMICS='IPI', ignored
Warning: card / ignored

     Current dimensions of program PWSCF are:
     Max number of different atomic species (ntypx) = 10
     Max number of k-points (npk) =  40000
     Max angular momentum in pseudopotentials (lmaxx) =  3
     Presently no symmetry can be used with electric field

     Message from routine cell_base_init:
     DEPRECATED: use true lattice parameter, not A to a.u. conversion factor

     IMPORTANT: XC functional enforced from input :
     Exchange-correlation= BEEF-VDW
                           (   1   4  43  14   2   0   0)
     Any further DFT definition will be discarded
     Please, verify this is what you really want

  @ DRIVER MODE: Connecting to
 qe_1139763_2840440.sched-torque.pace.gatech.edur_wjjbg2_scratch
  using UNIX socket
  @ DRIVER MODE: Message from server: STATUS
  @ DRIVER MODE: Message from server: INIT
  @ DRIVER MODE: Receiving replica           0          -1
  @ DRIVER MODE: Receiving encoded integer          25
  @ DRIVER MODE:  SCF:  T  FORCE:  T  STRESS:  F  VC:  F  ENSEMBLE:  F
  @ DRIVER MODE:  SCF:  T  FORCE:  T  STRESS:  F  VC:  F  ENSEMBLE:  F

     Using Slab Decomposition

     bravais-lattice index     =            0
     lattice parameter (alat)  =       1.8897  a.u.
     unit-cell volume          =    6658.9804 (a.u.)^3
     number of atoms/cell      =           54
     number of atomic types    =            5
     number of electrons       =       401.00
     number of Kohn-Sham states=          210
     kinetic-energy cutoff     =      29.3995  Ry
     charge density cutoff     =     293.9946  Ry
     scf convergence threshold =      7.3E-08
     mixing beta               =       0.0500
     number of iterations used =            8  plain     mixing
     Exchange-correlation= BEEF-VDW
                           (   1   4  43  14   2   0   0)

     celldm(1)=   1.889726  celldm(2)=   0.000000  celldm(3)=   0.000000
     celldm(4)=   0.000000  celldm(5)=   0.000000  celldm(6)=   0.000000

     crystal axes: (cart. coord. in units of alat)
               a(1) = (   6.579727   0.000000   0.000000 )
               a(2) = (  -0.000775   5.961596   0.000000 )
               a(3) = (   0.000000   0.000000  25.155947 )

     reciprocal axes: (cart. coord. in units 2 pi/alat)
               b(1) = (  0.151982  0.000020  0.000000 )
               b(2) = (  0.000000  0.167740  0.000000 )
               b(3) = (  0.000000  0.000000  0.039752 )

     PseudoPot. # 1 for C  read from file:
     /storage/coda1/p-amedford6/0/shared/rich_project_chbe-medford/medford-share/data/pseudos_module/espresso/nninc/pbe/van/C.UPF
     MD5 check sum: 1a69bf6b8db32088f5b2163dbdb77a27
     Pseudo is Ultrasoft, Zval =  4.0
     Generated by new atomic code, or converted to UPF format
     Using radial grid of  721 points,  4 beta functions with:
                l(1) =   0
                l(2) =   0
                l(3) =   1
                l(4) =   1
     Q(r) pseudized with  8 coefficients,  rinner =    0.800   0.800   0.800

     PseudoPot. # 2 for H  read from file:
     /storage/coda1/p-amedford6/0/shared/rich_project_chbe-medford/medford-share/data/pseudos_module/espresso/nninc/pbe/van/H.UPF
     MD5 check sum: b5ee9d7bfd3a09ee7748110bda690ff7
     Pseudo is Ultrasoft, Zval =  1.0
     Generated by new atomic code, or converted to UPF format
     Using radial grid of  615 points,  1 beta functions with:
                l(1) =   0
     Q(r) pseudized with  8 coefficients,  rinner =    0.800

     PseudoPot. # 3 for O  read from file:
     /storage/coda1/p-amedford6/0/shared/rich_project_chbe-medford/medford-share/data/pseudos_module/espresso/nninc/pbe/van/O.UPF
     MD5 check sum: 78c19812648e8988a0fe644b0f25305e
     Pseudo is Ultrasoft, Zval =  6.0
     Generated by new atomic code, or converted to UPF format
     Using radial grid of  737 points,  4 beta functions with:
                l(1) =   0
                l(2) =   0
                l(3) =   1
                l(4) =   1
     Q(r) pseudized with  8 coefficients,  rinner =    0.800   0.800   0.800

     PseudoPot. # 4 for Ti read from file:
     /storage/coda1/p-amedford6/0/shared/rich_project_chbe-medford/medford-share/data/pseudos_module/espresso/nninc/pbe/van/Ti.UPF
     MD5 check sum: 8e4df49b7f0d34bbd5052bf3f5ea0213
     Pseudo is Ultrasoft, Zval = 12.0
     Generated by new atomic code, or converted to UPF format
     Using radial grid of  851 points,  6 beta functions with:
                l(1) =   0
                l(2) =   0
                l(3) =   1
                l(4) =   1
                l(5) =   2
                l(6) =   2
     Q(r) pseudized with  8 coefficients,  rinner =    1.000   1.000   1.000
                                                       1.000   1.000

     PseudoPot. # 5 for N  read from file:
     /storage/coda1/p-amedford6/0/shared/rich_project_chbe-medford/medford-share/data/pseudos_module/espresso/nninc/pbe/van/N.UPF
     MD5 check sum: 90d10febe142ad51ac9d5be1deb811c4
     Pseudo is Ultrasoft, Zval =  5.0
     Generated by new atomic code, or converted to UPF format
     Using radial grid of  729 points,  4 beta functions with:
                l(1) =   0
                l(2) =   0
                l(3) =   1
                l(4) =   1
     Q(r) pseudized with  8 coefficients,  rinner =    0.800   0.800   0.800

     atomic species   valence    mass     pseudopotential
        C1             4.00    12.01100     C ( 1.00)
        H1             1.00     1.00800     H ( 1.00)
        O1             6.00    15.99900     O ( 1.00)
        Ti1           12.00    47.86700     Ti( 1.00)
        N1             5.00    14.00700     N ( 1.00)

     No symmetry found

   Cartesian axes

     site n.     atom                  positions (alat units)
         1           C1  tau(   1) = (   5.1764158   1.5385028  19.8564928  )
         2           H1  tau(   2) = (   4.2418317   1.4168958  19.3325039  )
         3           H1  tau(   3) = (   6.1328006   2.9100337  18.2018079  )
         4           H1  tau(   4) = (   6.0297582   0.9181690  19.6386741  )
         5           O1  tau(   5) = (   0.0006271   0.0005054   7.9858123  )
         6           O1  tau(   6) = (   3.2906025   0.0005020   7.3038282  )
         7           O1  tau(   7) = (   4.5942328   1.4918067   9.2879030  )
         8           O1  tau(   8) = (   1.9868534   1.4903216   9.2879459  )
         9           O1  tau(   9) = (   3.2696825   0.0177092  11.3460806  )
        10           O1  tau(  10) = (   6.5743896   0.0111799  10.6115589  )
        11           O1  tau(  11) = (   1.2770957   1.5070501  12.6511825  )
        12           O1  tau(  12) = (   5.2749141   1.5057152  12.6378801  )
        13           O1  tau(  13) = (   6.5263050   0.0247340  14.7317399  )
        14           O1  tau(  14) = (   3.2747511   0.0213673  13.9312909  )
        15           O1  tau(  15) = (   4.4933390   1.5239927  16.1070736  )
        16           O1  tau(  16) = (   2.0026543   1.5217075  16.0711130  )
        17           O1  tau(  17) = (   3.2904802   0.0005063   4.7018136  )
        18           O1  tau(  18) = (   6.5469758   0.0421337  17.2556835  )
        19           O1  tau(  19) = (   1.3043587   1.4918075   6.0039043  )
        20           O1  tau(  20) = (   5.2767064   1.4903225   6.0039473  )
        21           O1  tau(  21) = (   0.0002396   2.9813036   7.9858123  )
        22           O1  tau(  22) = (   3.2902150   2.9813002   7.3038282  )
        23           O1  tau(  23) = (   4.5938453   4.4726049   9.2879030  )
        24           O1  tau(  24) = (   1.9864658   4.4711199   9.2879459  )
        25           O1  tau(  25) = (   3.2722311   3.0011533  11.3472759  )
        26           O1  tau(  26) = (   6.5787409   2.9955660  10.5677177  )
        27           O1  tau(  27) = (   1.2755865   4.4883074  12.6550720  )
        28           O1  tau(  28) = (   5.2773609   4.4903743  12.6413705  )
        29           O1  tau(  29) = (   6.5451067   2.9841024  14.7029789  )
        30           O1  tau(  30) = (   3.2773495   3.0062142  13.9304278  )
        31           O1  tau(  31) = (   4.4941242   4.5002890  16.1165364  )
        32           O1  tau(  32) = (   2.0016379   4.5015838  16.0818063  )
        33           O1  tau(  33) = (   3.2900926   2.9813045   4.7018136  )
        34           O1  tau(  34) = (   1.3039711   4.4726057   6.0039043  )
        35           O1  tau(  35) = (   5.2763189   4.4711207   6.0039473  )
        36           O1  tau(  36) = (   6.5536212   3.0044252  17.3297899  )
        37           Ti1 tau(  37) = (   0.0004258   2.9801865   6.0000000  )
        38           Ti1 tau(  38) = (   3.2906075   1.4906267   6.0002472  )
        39           Ti1 tau(  39) = (   3.3348906   3.0327224   9.1579215  )
        40           Ti1 tau(  40) = (   0.0203972   1.6099837   9.3624797  )
        41           Ti1 tau(  41) = (   6.5380572   3.0081639  12.8251979  )
        42           Ti1 tau(  42) = (   3.2225065   1.5141752  12.4854623  )
        43           Ti1 tau(  43) = (   3.2525775   3.0161725  15.7233172  )
        44           Ti1 tau(  44) = (   6.5465844   1.4469101  15.9770741  )
        45           Ti1 tau(  45) = (   0.0000382   5.9609847   6.0000000  )
        46           Ti1 tau(  46) = (   3.2902200   4.4714249   6.0002472  )
        47           Ti1 tau(  47) = (   3.2831171   0.0558662   9.1532617  )
        48           Ti1 tau(  48) = (   0.0294011   4.5418189   9.2743274  )
        49           Ti1 tau(  49) = (   6.5160019   0.0223579  12.5245727  )
        50           Ti1 tau(  50) = (   3.2207252   4.4944464  12.4919313  )
        51           Ti1 tau(  51) = (   3.2545639   0.0336594  15.7221480  )
        52           Ti1 tau(  52) = (   6.5427997   4.6104004  16.1309301  )
        53           N1  tau(  53) = (   5.0796009   2.6163306  22.0446247  )
        54           N1  tau(  54) = (   5.1188049   2.0915644  21.0330699  )

     number of k points=    10  Fermi-Dirac smearing, width (Ry)=  0.0073
                       cart. coord. in units 2pi/alat
        k(    1) = (   0.0000000   0.0000000   0.0000000), wk =   0.1250000
        k(    2) = (   0.0000000   0.0419351   0.0000000), wk =   0.2500000
        k(    3) = (   0.0000000  -0.0838702   0.0000000), wk =   0.1250000
        k(    4) = (   0.0379955   0.0000049   0.0000000), wk =   0.2500000
        k(    5) = (   0.0379955   0.0419400   0.0000000), wk =   0.2500000
        k(    6) = (   0.0379955  -0.0838652   0.0000000), wk =   0.2500000
        k(    7) = (   0.0379955  -0.0419301   0.0000000), wk =   0.2500000
        k(    8) = (  -0.0759910  -0.0000099   0.0000000), wk =   0.1250000
        k(    9) = (  -0.0759910   0.0419252   0.0000000), wk =   0.2500000
        k(   10) = (  -0.0759910  -0.0838800   0.0000000), wk =   0.1250000

     Initial potential from superposition of free atoms

     starting charge  384.99916, renormalised to  401.00000

     negative rho (up, down):  1.198E-02 0.000E+00

     %%%%%%%%%%%%%%%%%%%%%%%%%%%%%%%%%%%%%%%%%%%%%%%%%%%%%%%%%%%%%%%%%%%%%%%%
     %                                                                      %
     % You are using vdW-DF, which was implemented by the Thonhauser group. %
     % Please cite the following two papers that made this development      %
     % possible and the two reviews that describe the various versions:     %
     %                                                                      %
     %   T. Thonhauser et al., PRL 115, 136402 (2015).                      %
     %   T. Thonhauser et al., PRB 76, 125112 (2007).                       %
     %   K. Berland et al., Rep. Prog. Phys. 78, 066501 (2015).             %
     %   D.C. Langreth et al., J. Phys.: Condens. Matter 21, 084203 (2009). %
     %                                                                      %
     %                                                                      %
     % If you are calculating the stress with vdW-DF, please also cite:     %
     %                                                                      %
     %   R. Sabatini et al., J. Phys.: Condens. Matter 24, 424209 (2012).   %
     %                                                                      %
     %%%%%%%%%%%%%%%%%%%%%%%%%%%%%%%%%%%%%%%%%%%%%%%%%%%%%%%%%%%%%%%%%%%%%%%%

     Adding external electric field

     Computed dipole along edir(3) :
        Dipole              -14.0962 Ry au,        -35.8290 Debye
        Dipole field         -0.0266 Ry au,

        Potential amp.        2.4659 Ry
        Total length         46.3494 bohr

     Starting wfcs are  303 atomic wfcs
  @ DRIVER MODE: Message from server: STATUS
  @ DRIVER MODE: Message from server: POSDATA
  @ DRIVER MODE: Reading and sharing cell
  @ DRIVER MODE: Reading and sharing positions
  @ DRIVER MODE: Received positions

     Self-consistent Calculation

     iteration #  1     ecut=    29.40 Ry     beta= 0.05
     Davidson diagonalization with overlap
     c_bands:  5 eigenvalues not converged
     c_bands:  4 eigenvalues not converged
     c_bands:  5 eigenvalues not converged
     c_bands:  2 eigenvalues not converged
     c_bands:  4 eigenvalues not converged
     c_bands:  4 eigenvalues not converged
     c_bands:  4 eigenvalues not converged
     c_bands:  4 eigenvalues not converged
     c_bands:  5 eigenvalues not converged
     ethr =  1.00E-05,  avg # of iterations = 22.0

[...]

     total energy              =   -2410.43113609 Ry
     estimated scf accuracy    <    6378.93704901 Ry

     iteration #  2     ecut=    29.40 Ry     beta= 0.05
     Davidson diagonalization with overlap
     ethr =  1.00E-02,  avg # of iterations = 23.8

[...]

     iteration # 52     ecut=    29.40 Ry     beta= 0.05
     Davidson diagonalization with overlap
     c_bands:  1 eigenvalues not converged
     c_bands:  1 eigenvalues not converged
     ethr =  2.29E-10,  avg # of iterations = 14.7

[...]

     total energy              =   -2971.53797268 Ry
     estimated scf accuracy    <       0.00000015 Ry

     iteration # 57     ecut=    29.40 Ry     beta= 0.05
     Davidson diagonalization with overlap
     ethr =  3.72E-11,  avg # of iterations = 11.2

     negative rho (up, down):  1.326E-02 0.000E+00

     Adding external electric field

     Computed dipole along edir(3) :
        Dipole                0.4409 Ry au,          1.1207 Debye
        Dipole field          0.0008 Ry au,

        Potential amp.       -0.0771 Ry
        Total length         46.3494 bohr

     End of self-consistent calculation

          k = 0.0000 0.0000 0.0000 ( 18029 PWs)   bands (ev):

   -55.7646 -55.7517 -55.7292 -55.7154 -55.6730 -55.6550 -55.6259 -55.5921
   -55.5895 -55.5800 -55.5361 -55.5143 -55.4808 -55.4095 -54.7753 -54.7413
   -32.3159 -32.2324 -32.1991 -32.1149 -32.0842 -32.0662 -32.0543 -32.0348
   -31.9941 -31.9892 -31.9754 -31.9679 -31.9620 -31.9327 -31.9257 -31.9225
   -31.9179 -31.8958 -31.8881 -31.8649 -31.8547 -31.8328 -31.8307 -31.8243
   -31.8061 -31.7992 -31.7829 -31.7785 -31.7713 -31.7683 -31.7616 -31.7533
   -31.7432 -31.7386 -31.7345 -31.6953 -31.6923 -31.6593 -31.6331 -31.6198
   -31.6010 -31.5957 -31.1850 -31.0882 -31.0659 -31.0017 -30.9157 -30.8044
   -20.7425 -17.0001 -16.5006 -16.2061 -16.0398 -15.9141 -15.8838 -15.7827
   -15.5925 -15.4571 -15.4409 -15.3705 -15.3316 -15.3245 -15.2940 -15.2847
   -15.2780 -15.2697 -15.2196 -15.1966 -15.1818 -15.1663 -15.1384 -15.0863
   -15.0389 -14.9689 -14.9219 -14.8815 -14.8616 -14.7612 -14.7369 -13.9455
   -13.2760 -13.1578  -6.5487  -5.5896  -4.9827  -4.5199  -3.8639  -3.6879
    -3.6706  -3.6523  -3.5682  -3.5136  -3.3263  -3.3111  -3.0109  -2.9354
    -2.9047  -2.9005  -2.8874  -2.7092  -2.6475  -2.5994  -2.5905  -2.5736
    -2.5714  -2.5482  -2.5294  -2.5180  -2.4901  -2.4693  -2.4611  -2.3227
    -2.2936  -2.1772  -2.1590  -2.1470  -2.0899  -2.0647  -2.0321  -2.0126
    -2.0046  -1.9873  -1.9708  -1.9296  -1.8439  -1.8186  -1.6968  -1.5899
    -1.5520  -1.4606  -1.3149  -1.2443  -1.2279  -1.1901  -1.1643  -1.1489
    -1.1014  -1.0744  -1.0255  -0.9619  -0.9488  -0.8521  -0.7803  -0.7428
    -0.6639  -0.6443  -0.6260  -0.5061  -0.4860  -0.4747  -0.3026  -0.2418
    -0.2301  -0.2279  -0.0995  -0.0556  -0.0227  -0.0066   0.0188   0.0504
     0.0965   0.1393   0.2012   0.2225   0.2299   0.2412   0.2650   0.2947
     0.4100   0.4230   0.4349   0.5476   0.5675   0.7648   0.7673   0.8850
     0.9833   1.1532   1.2491   1.3209   1.4201   1.7205   1.8380   1.8971
     3.4247   3.4550   3.4867   3.5042   3.5793   3.7009   3.8046   3.8622
     3.8839   3.9060

[...]

          k = 0.0380-0.0419 0.0000 ( 17876 PWs)   bands (ev):

[...]

          k =-0.0760-0.0000 0.0000 ( 17886 PWs)   bands (ev):

[...]

          k =-0.0760-0.0839 0.0000 ( 17948 PWs)   bands (ev):

   -55.7519 -55.7418 -55.7346 -55.7323 -55.6695 -55.6506 -55.6138 -55.6015
   -55.5966 -55.5832 -55.5334 -55.4981 -55.4971 -55.4117 -54.7588 -54.7577
   -32.1196 -32.1155 -32.0991 -32.0542 -32.0436 -32.0422 -32.0265 -32.0229
   -32.0152 -31.9811 -31.9542 -31.9466 -31.9443 -31.9101 -31.9061 -31.8968
   -31.8856 -31.8821 -31.8788 -31.8728 -31.8678 -31.8600 -31.8557 -31.8493
   -31.8445 -31.8217 -31.8169 -31.8132 -31.8061 -31.8052 -31.8021 -31.7829
   -31.7766 -31.7570 -31.7546 -31.7492 -31.7336 -31.7150 -31.7034 -31.6964
   -31.6404 -31.6047 -31.0792 -31.0779 -30.9984 -30.9975 -30.9592 -30.9582
   -20.7423 -16.9346 -15.9426 -15.9338 -15.7034 -15.6851 -15.6806 -15.5979
   -15.5305 -15.5019 -15.4836 -15.4788 -15.4293 -15.4157 -15.4093 -15.3394
   -15.3098 -15.2885 -15.2707 -15.2647 -15.2119 -15.2068 -15.1665 -15.1459
   -15.1203 -15.1044 -15.0897 -15.0854 -15.0474 -15.0051 -14.8940 -13.9453
   -13.2599 -13.2582  -6.5429  -5.5920  -4.9209  -4.5186  -3.5131  -3.2343
    -3.2236  -2.9694  -2.9087  -2.8960  -2.8010  -2.7548  -2.6851  -2.6455
    -2.6192  -2.6095  -2.6001  -2.5892  -2.5841  -2.5701  -2.5672  -2.5488
    -2.5282  -2.5139  -2.4577  -2.4380  -2.4132  -2.3895  -2.3833  -2.3751
    -2.3419  -2.3208  -2.3087  -2.2932  -2.2885  -2.2069  -2.0625  -2.0164
    -1.9205  -1.9005  -1.8886  -1.8478  -1.8280  -1.8129  -1.7977  -1.7434
    -1.7288  -1.5653  -1.4903  -1.4748  -1.4569  -1.4262  -1.3679  -1.2793
    -1.2488  -1.1820  -1.1642  -1.1202  -1.0653  -0.9902  -0.9699  -0.9288
    -0.8715  -0.8287  -0.7762  -0.7431  -0.7210  -0.7143  -0.6595  -0.6069
    -0.5664  -0.5070  -0.4778  -0.4176  -0.3755  -0.3392  -0.2878  -0.2600
    -0.2217  -0.1111  -0.0073   0.1266   0.1927   0.2712   0.2816   0.3073
     0.3275   0.4454   0.4769   0.5052   0.5511   0.6441   0.6766   0.7542
     0.7779   0.7975   0.8759   1.6099   1.6103   1.7009   1.7094   1.7238
     3.6219   3.6580   3.6768   3.7242   3.8847   3.8893   3.9065   3.9134
     3.9671   4.0434

     the Fermi energy is     3.3906 ev

!    total energy              =   -2971.53803677 Ry
     estimated scf accuracy    <       0.00000005 Ry
     smearing contrib. (-TS)   =      -0.02328862 Ry
     internal energy E=F+TS    =   -2971.51474815 Ry

     The total energy is F=E-TS. E is the sum of the following terms:
     one-electron contribution =  -22751.45092261 Ry
     hartree contribution      =   11466.80232843 Ry
     xc contribution           =    -492.33215440 Ry
     ewald contribution        =    8805.46563359 Ry
     electric field correction =       0.00036684 Ry

     convergence has been achieved in  57 iterations

     Forces acting on atoms (cartesian axes, Ry/au):

     atom    1 type  1   force =    -0.00063969    0.00095346    0.00073012
     atom    2 type  2   force =    -0.00045810    0.00082642   -0.00061405
     atom    3 type  2   force =    -0.00144636   -0.00071258   -0.00052412
     atom    4 type  2   force =     0.00081796   -0.00050070   -0.00026737
     atom    5 type  3   force =     0.00033213   -0.00633404   -0.03331584
     atom    6 type  3   force =    -0.00001610    0.00054138    0.04524699
     atom    7 type  3   force =    -0.02062219    0.00024533    0.00448993
     atom    8 type  3   force =     0.01834139   -0.00190770    0.00411747
     atom    9 type  3   force =     0.00014223    0.00000327   -0.00007220
     atom   10 type  3   force =    -0.00003244    0.00018724   -0.00005531
     atom   11 type  3   force =     0.00017058   -0.00033944   -0.00033296
     atom   12 type  3   force =     0.00054243   -0.00016109   -0.00018580
     atom   13 type  3   force =     0.00030520   -0.00020197   -0.00032444
     atom   14 type  3   force =     0.00036057    0.00020826   -0.00003992
     atom   15 type  3   force =    -0.00022971   -0.00013025    0.00034209
     atom   16 type  3   force =     0.00027025   -0.00009337    0.00008479
     atom   17 type  3   force =     0.00003120    0.00005966    0.10416538
     atom   18 type  3   force =    -0.00011809    0.00011745    0.00059262
     atom   19 type  3   force =    -0.06903224    0.00040722   -0.02967470
     atom   20 type  3   force =     0.06880793    0.00096808   -0.02966402
     atom   21 type  3   force =     0.00038608    0.00378109   -0.02883510
     atom   22 type  3   force =     0.00085807    0.00083767    0.04698789
     atom   23 type  3   force =    -0.01789589    0.00169676    0.00373950
     atom   24 type  3   force =     0.01761386    0.00258937    0.00326284
     atom   25 type  3   force =    -0.00015757   -0.00021364    0.00012680
     atom   26 type  3   force =     0.00017825   -0.00071415   -0.00003295
     atom   27 type  3   force =    -0.00031755    0.00007508    0.00023282
     atom   28 type  3   force =     0.00004937    0.00006102    0.00055136
     atom   29 type  3   force =     0.00009086   -0.00057635    0.00021353
     atom   30 type  3   force =    -0.00019733   -0.00034527    0.00036599
     atom   31 type  3   force =    -0.00034757   -0.00010370    0.00003695
     atom   32 type  3   force =    -0.00006217   -0.00020120   -0.00036736
     atom   33 type  3   force =     0.00004435    0.00003725    0.10421821
     atom   34 type  3   force =    -0.06862009   -0.00106539   -0.02970978
     atom   35 type  3   force =     0.06850135   -0.00069172   -0.02969187
     atom   36 type  3   force =     0.00112167    0.00050612    0.00012051
     atom   37 type  4   force =     0.00000324   -0.00160558    0.10775892
     atom   38 type  4   force =    -0.00014946    0.00075345   -0.17958337
     atom   39 type  4   force =    -0.00039709    0.00008280   -0.00013277
     atom   40 type  4   force =    -0.00002262    0.00640416    0.00039685
     atom   41 type  4   force =     0.00000289    0.00056394   -0.00140729
     atom   42 type  4   force =    -0.00011716    0.00010842    0.00019804
     atom   43 type  4   force =    -0.00013624   -0.00021309   -0.00049473
     atom   44 type  4   force =     0.00055277    0.00054695   -0.00039075
     atom   45 type  4   force =    -0.00000249    0.00124336    0.11668526
     atom   46 type  4   force =    -0.00001204   -0.00037181   -0.17982804
     atom   47 type  4   force =     0.00035224    0.00013791   -0.00021646
     atom   48 type  4   force =    -0.00017657   -0.00625054   -0.00012100
     atom   49 type  4   force =     0.00050191    0.00058928    0.00168593
     atom   50 type  4   force =     0.00015378    0.00004360   -0.00081687
     atom   51 type  4   force =     0.00039284   -0.00077653   -0.00015068
     atom   52 type  4   force =     0.00086908   -0.00106898    0.00052433
     atom   53 type  5   force =     0.00067831    0.00130187    0.00002848
     atom   54 type  5   force =    -0.00126602   -0.00129879   -0.00005386

     Total force =     0.376551     Total SCF correction =     0.000519
  @ DRIVER MODE: Message from server: STATUS
  @ DRIVER MODE: Message from server: GETFORCE
  @ DRIVER MODE: Returning v,forces,stress,ensemble

     Writing output data file ./calc.save/
  @ DRIVER MODE: Message from server: EXIT
  @ DRIVE MODE: Exiting

     General routines

     Parallel routines

   This run was terminated on:  15:24:47  14Sep2021

   JOB DONE.