     Program PWSCF v.6.7GPU starts on 23Sep2021 at 23:48:41

     R & G space division:  proc/nbgrp/npool/nimage =       8
     Reading input from /storage/home/hcoda1/3/ntian30/research/carbon/CxH_vib/H2O_calc/ads_slab/CH2NNHHHHO_a/out_0029/pw.inp
Warning: card &CELL ignored
Warning: card   CELL_DYNAMICS='IPI', ignored
Warning: card / ignored

     Current dimensions of program PWSCF are:
     Max number of different atomic species (ntypx) = 10
     Max number of k-points (npk) =  40000
     Max angular momentum in pseudopotentials (lmaxx) =  3
     Presently no symmetry can be used with electric field

     Message from routine cell_base_init:
     DEPRECATED: use true lattice parameter, not A to a.u. conversion factor

     IMPORTANT: XC functional enforced from input :
     Exchange-correlation= BEEF-VDW
                           (   1   4  43  14   2   0   0)
     Any further DFT definition will be discarded
     Please, verify this is what you really want

  @ DRIVER MODE: Connecting to
 qe_1139763_2947316.sched-torque.pace.gatech.eduof7egl_f_scratch
  using UNIX socket
  @ DRIVER MODE: Message from server: STATUS
  @ DRIVER MODE: Message from server: INIT
  @ DRIVER MODE: Receiving replica           0          -1
  @ DRIVER MODE: Receiving encoded integer          25
  @ DRIVER MODE:  SCF:  T  FORCE:  T  STRESS:  F  VC:  F  ENSEMBLE:  F
  @ DRIVER MODE:  SCF:  T  FORCE:  T  STRESS:  F  VC:  F  ENSEMBLE:  F

     Using Slab Decomposition

     bravais-lattice index     =            0
     lattice parameter (alat)  =       1.8897  a.u.
     unit-cell volume          =    6658.9804 (a.u.)^3
     number of atoms/cell      =           57
     number of atomic types    =            5
     number of electrons       =       404.00
     number of Kohn-Sham states=          212
     kinetic-energy cutoff     =      29.3995  Ry
     charge density cutoff     =     293.9946  Ry
     scf convergence threshold =      7.3E-08
     mixing beta               =       0.0500
     number of iterations used =            8  plain     mixing
     Exchange-correlation= BEEF-VDW
                           (   1   4  43  14   2   0   0)

     celldm(1)=   1.889726  celldm(2)=   0.000000  celldm(3)=   0.000000
     celldm(4)=   0.000000  celldm(5)=   0.000000  celldm(6)=   0.000000

     crystal axes: (cart. coord. in units of alat)
               a(1) = (   6.579727   0.000000   0.000000 )
               a(2) = (  -0.000775   5.961596   0.000000 )
               a(3) = (   0.000000   0.000000  25.155947 )

     reciprocal axes: (cart. coord. in units 2 pi/alat)
               b(1) = (  0.151982  0.000020  0.000000 )
               b(2) = (  0.000000  0.167740  0.000000 )
               b(3) = (  0.000000  0.000000  0.039752 )

     PseudoPot. # 1 for Ti read from file:
     /storage/coda1/p-amedford6/0/shared/rich_project_chbe-medford/medford-share/data/pseudos_module/espresso/nninc/pbe/van/Ti.UPF
     MD5 check sum: 8e4df49b7f0d34bbd5052bf3f5ea0213
     Pseudo is Ultrasoft, Zval = 12.0
     Generated by new atomic code, or converted to UPF format
     Using radial grid of  851 points,  6 beta functions with:
                l(1) =   0
                l(2) =   0
                l(3) =   1
                l(4) =   1
                l(5) =   2
                l(6) =   2
     Q(r) pseudized with  8 coefficients,  rinner =    1.000   1.000   1.000
                                                       1.000   1.000

     PseudoPot. # 2 for O  read from file:
     /storage/coda1/p-amedford6/0/shared/rich_project_chbe-medford/medford-share/data/pseudos_module/espresso/nninc/pbe/van/O.UPF
     MD5 check sum: 78c19812648e8988a0fe644b0f25305e
     Pseudo is Ultrasoft, Zval =  6.0
     Generated by new atomic code, or converted to UPF format
     Using radial grid of  737 points,  4 beta functions with:
                l(1) =   0
                l(2) =   0
                l(3) =   1
                l(4) =   1
     Q(r) pseudized with  8 coefficients,  rinner =    0.800   0.800   0.800

     PseudoPot. # 3 for N  read from file:
     /storage/coda1/p-amedford6/0/shared/rich_project_chbe-medford/medford-share/data/pseudos_module/espresso/nninc/pbe/van/N.UPF
     MD5 check sum: 90d10febe142ad51ac9d5be1deb811c4
     Pseudo is Ultrasoft, Zval =  5.0
     Generated by new atomic code, or converted to UPF format
     Using radial grid of  729 points,  4 beta functions with:
                l(1) =   0
                l(2) =   0
                l(3) =   1
                l(4) =   1
     Q(r) pseudized with  8 coefficients,  rinner =    0.800   0.800   0.800

     PseudoPot. # 4 for C  read from file:
     /storage/coda1/p-amedford6/0/shared/rich_project_chbe-medford/medford-share/data/pseudos_module/espresso/nninc/pbe/van/C.UPF
     MD5 check sum: 1a69bf6b8db32088f5b2163dbdb77a27
     Pseudo is Ultrasoft, Zval =  4.0
     Generated by new atomic code, or converted to UPF format
     Using radial grid of  721 points,  4 beta functions with:
                l(1) =   0
                l(2) =   0
                l(3) =   1
                l(4) =   1
     Q(r) pseudized with  8 coefficients,  rinner =    0.800   0.800   0.800

     PseudoPot. # 5 for H  read from file:
     /storage/coda1/p-amedford6/0/shared/rich_project_chbe-medford/medford-share/data/pseudos_module/espresso/nninc/pbe/van/H.UPF
     MD5 check sum: b5ee9d7bfd3a09ee7748110bda690ff7
     Pseudo is Ultrasoft, Zval =  1.0
     Generated by new atomic code, or converted to UPF format
     Using radial grid of  615 points,  1 beta functions with:
                l(1) =   0
     Q(r) pseudized with  8 coefficients,  rinner =    0.800

     atomic species   valence    mass     pseudopotential
        Ti1           12.00    47.86700     Ti( 1.00)
        O1             6.00    15.99900     O ( 1.00)
        N1             5.00    14.00700     N ( 1.00)
        C1             4.00    12.01100     C ( 1.00)
        H1             1.00     1.00800     H ( 1.00)

     No symmetry found

   Cartesian axes

     site n.     atom                  positions (alat units)
         1           Ti1 tau(   1) = (   0.0004258   2.9801865   6.0000000  )
         2           Ti1 tau(   2) = (   3.2906075   1.4906267   6.0002472  )
         3           O1  tau(   3) = (   0.0006271   0.0005054   7.9858123  )
         4           O1  tau(   4) = (   3.2906025   0.0005020   7.3038282  )
         5           O1  tau(   5) = (   4.5942328   1.4918067   9.2879030  )
         6           O1  tau(   6) = (   1.9868534   1.4903216   9.2879459  )
         7           Ti1 tau(   7) = (   3.2907910   2.8959150   9.1758416  )
         8           Ti1 tau(   8) = (   0.0015273   1.4827037   9.2680791  )
         9           O1  tau(   9) = (   3.3027076   5.9092304  11.3732431  )
        10           O1  tau(  10) = (   0.0116148   5.9584955  10.6183126  )
        11           O1  tau(  11) = (   1.2953868   1.4751764  12.6403503  )
        12           O1  tau(  12) = (   5.3168701   1.4807623  12.6366210  )
        13           Ti1 tau(  13) = (   0.0172323   2.9996225  12.5311828  )
        14           Ti1 tau(  14) = (   3.3257086   1.2755711  12.7138078  )
        15           O1  tau(  15) = (   6.5733368   0.1082846  14.6600873  )
        16           O1  tau(  16) = (   3.3238075   0.0838359  14.0473399  )
        17           O1  tau(  17) = (   4.5575128   1.5393005  16.2317518  )
        18           O1  tau(  18) = (   2.0302387   1.4963625  16.2670071  )
        19           Ti1 tau(  19) = (   3.2366114   2.9448900  15.6849520  )
        20           Ti1 tau(  20) = (   6.5300729   1.3987400  16.1165465  )
        21           O1  tau(  21) = (   3.2904802   0.0005063   4.7018136  )
        22           O1  tau(  22) = (   0.0022030   5.7760056  17.1861099  )
        23           O1  tau(  23) = (   1.3043587   1.4918075   6.0039043  )
        24           O1  tau(  24) = (   5.2767064   1.4903225   6.0039473  )
        25           Ti1 tau(  25) = (   0.0000382   5.9609847   6.0000000  )
        26           Ti1 tau(  26) = (   3.2902200   4.4714249   6.0002472  )
        27           O1  tau(  27) = (   0.0002396   2.9813036   7.9858123  )
        28           O1  tau(  28) = (   3.2902150   2.9813002   7.3038282  )
        29           O1  tau(  29) = (   4.5938453   4.4726049   9.2879030  )
        30           O1  tau(  30) = (   1.9864658   4.4711199   9.2879459  )
        31           Ti1 tau(  31) = (   3.2891106   5.8743827   9.1763621  )
        32           Ti1 tau(  32) = (   0.0006254   4.4649316   9.2693709  )
        33           O1  tau(  33) = (   3.3012885   2.9833904  11.3212188  )
        34           O1  tau(  34) = (   0.0092240   2.9805883  10.6323155  )
        35           O1  tau(  35) = (   1.2895456   4.4501540  12.7025460  )
        36           O1  tau(  36) = (   5.3143371   4.4382646  12.6927937  )
        37           Ti1 tau(  37) = (   0.0343555   0.0433052  12.5107970  )
        38           Ti1 tau(  38) = (   3.3217552   4.3482123  12.4486840  )
        39           O1  tau(  39) = (   0.0141661   2.9064423  14.8877341  )
        40           O1  tau(  40) = (   3.2920978   2.9424077  13.9176102  )
        41           O1  tau(  41) = (   4.5506947   4.3398720  16.1100615  )
        42           O1  tau(  42) = (   2.0210198   4.4131678  16.0160425  )
        43           Ti1 tau(  43) = (   3.3132698   5.9358869  16.2610495  )
        44           Ti1 tau(  44) = (   0.0826266   4.5979890  15.7080129  )
        45           O1  tau(  45) = (   3.2900926   2.9813045   4.7018136  )
        46           O1  tau(  46) = (   1.3039711   4.4726057   6.0039043  )
        47           O1  tau(  47) = (   5.2763189   4.4711207   6.0039473  )
        48           N1  tau(  48) = (   6.5643472   2.7424576  18.0625816  )
        49           C1  tau(  49) = (   0.8744728   2.5686873  19.0232366  )
        50           H1  tau(  50) = (   0.8543601   3.1364980  19.9465443  )
        51           H1  tau(  51) = (   1.6733950   1.8773151  18.8242213  )
        52           N1  tau(  52) = (   5.5366205   3.6779994  18.4653393  )
        53           H1  tau(  53) = (   5.9486539   4.6347284  18.5635686  )
        54           H1  tau(  54) = (   4.8775701   3.8234783  17.6645784  )
        55           H1  tau(  55) = (   5.0440791   3.3775604  19.3232938  )
        56           O1  tau(  56) = (   3.4091604   5.6710612  18.1544331  )
        57           H1  tau(  57) = (   3.1368125   0.4262250  18.7404830  )

     number of k points=    10  Fermi-Dirac smearing, width (Ry)=  0.0073
                       cart. coord. in units 2pi/alat
        k(    1) = (   0.0000000   0.0000000   0.0000000), wk =   0.1250000
        k(    2) = (   0.0000000   0.0419351   0.0000000), wk =   0.2500000
        k(    3) = (   0.0000000  -0.0838702   0.0000000), wk =   0.1250000
        k(    4) = (   0.0379955   0.0000049   0.0000000), wk =   0.2500000
        k(    5) = (   0.0379955   0.0419400   0.0000000), wk =   0.2500000
        k(    6) = (   0.0379955  -0.0838652   0.0000000), wk =   0.2500000
        k(    7) = (   0.0379955  -0.0419301   0.0000000), wk =   0.2500000
        k(    8) = (  -0.0759910  -0.0000099   0.0000000), wk =   0.1250000
        k(    9) = (  -0.0759910   0.0419252   0.0000000), wk =   0.2500000
        k(   10) = (  -0.0759910  -0.0838800   0.0000000), wk =   0.1250000

     Initial potential from superposition of free atoms

     starting charge  387.99913, renormalised to  404.00000

     negative rho (up, down):  1.545E-02 0.000E+00

     %%%%%%%%%%%%%%%%%%%%%%%%%%%%%%%%%%%%%%%%%%%%%%%%%%%%%%%%%%%%%%%%%%%%%%%%
     %                                                                      %
     % You are using vdW-DF, which was implemented by the Thonhauser group. %
     % Please cite the following two papers that made this development      %
     % possible and the two reviews that describe the various versions:     %
     %                                                                      %
     %   T. Thonhauser et al., PRL 115, 136402 (2015).                      %
     %   T. Thonhauser et al., PRB 76, 125112 (2007).                       %
     %   K. Berland et al., Rep. Prog. Phys. 78, 066501 (2015).             %
     %   D.C. Langreth et al., J. Phys.: Condens. Matter 21, 084203 (2009). %
     %                                                                      %
     %                                                                      %
     % If you are calculating the stress with vdW-DF, please also cite:     %
     %                                                                      %
     %   R. Sabatini et al., J. Phys.: Condens. Matter 24, 424209 (2012).   %
     %                                                                      %
     %%%%%%%%%%%%%%%%%%%%%%%%%%%%%%%%%%%%%%%%%%%%%%%%%%%%%%%%%%%%%%%%%%%%%%%%

     Adding external electric field

     Computed dipole along edir(3) :
        Dipole              -13.5823 Ry au,        -34.5227 Debye
        Dipole field         -0.0256 Ry au,

        Potential amp.        2.3760 Ry
        Total length         46.3494 bohr

     Starting wfcs are  306 atomic wfcs
  @ DRIVER MODE: Message from server: STATUS
  @ DRIVER MODE: Message from server: POSDATA
  @ DRIVER MODE: Reading and sharing cell
  @ DRIVER MODE: Reading and sharing positions
  @ DRIVER MODE: Received positions

     Self-consistent Calculation

     iteration #  1     ecut=    29.40 Ry     beta= 0.05
     Davidson diagonalization with overlap
     c_bands:  4 eigenvalues not converged
     c_bands:  1 eigenvalues not converged
     c_bands:  1 eigenvalues not converged
     c_bands:  1 eigenvalues not converged
     c_bands:  2 eigenvalues not converged
     c_bands:  4 eigenvalues not converged
     c_bands:  5 eigenvalues not converged
     c_bands:  2 eigenvalues not converged
     ethr =  1.00E-05,  avg # of iterations = 29.7

[...]

     total energy              =   -2247.86054016 Ry
     estimated scf accuracy    <    8242.26066124 Ry

     iteration #  2     ecut=    29.40 Ry     beta= 0.05
     Davidson diagonalization with overlap
     ethr =  1.00E-02,  avg # of iterations = 24.5

[...]

     iteration # 56     ecut=    29.40 Ry     beta= 0.05
     Davidson diagonalization with overlap
     c_bands:  1 eigenvalues not converged
     c_bands:  2 eigenvalues not converged
     c_bands:  1 eigenvalues not converged
     c_bands:  2 eigenvalues not converged
     c_bands:  3 eigenvalues not converged
     c_bands:  2 eigenvalues not converged
     ethr =  3.86E-06,  avg # of iterations = 18.6

[...]

     total energy              =   -2975.12423430 Ry
     estimated scf accuracy    <       0.00000009 Ry

     iteration # 78     ecut=    29.40 Ry     beta= 0.05
     Davidson diagonalization with overlap
     ethr =  2.31E-11,  avg # of iterations =  8.5

     negative rho (up, down):  1.380E-02 0.000E+00

     Adding external electric field

     Computed dipole along edir(3) :
        Dipole                1.3706 Ry au,          3.4837 Debye
        Dipole field          0.0026 Ry au,

        Potential amp.       -0.2398 Ry
        Total length         46.3494 bohr

     End of self-consistent calculation

          k = 0.0000 0.0000 0.0000 ( 18029 PWs)   bands (ev):

   -55.3882 -55.2486 -55.2146 -55.1230 -55.0878 -55.0813 -55.0780 -55.0440
   -55.0376 -54.9895 -54.9615 -54.9250 -54.8725 -54.7433 -54.2289 -54.1948
   -31.7341 -31.7172 -31.6151 -31.6077 -31.5865 -31.5798 -31.5395 -31.5303
   -31.5213 -31.4945 -31.4509 -31.4466 -31.4011 -31.3732 -31.3717 -31.3618
   -31.3560 -31.3146 -31.3060 -31.3036 -31.2862 -31.2764 -31.2719 -31.2667
   -31.2647 -31.2257 -31.2218 -31.2215 -31.2174 -31.2052 -31.1958 -31.1907
   -31.1835 -31.1502 -31.1437 -31.1122 -31.1045 -31.0886 -31.0824 -31.0785
   -31.0045 -30.9109 -30.6352 -30.5480 -30.5256 -30.4526 -30.3662 -30.2545
   -19.2041 -16.3144 -15.9268 -15.7705 -15.5893 -15.4511 -15.4106 -15.1874
   -15.1313 -15.0451 -15.0241 -14.9060 -14.7901 -14.7897 -14.7686 -14.7620
   -14.7459 -14.7015 -14.6957 -14.6925 -14.6745 -14.6528 -14.6321 -14.6221
   -14.5846 -14.5430 -14.3924 -14.3651 -14.3506 -14.3093 -14.1718 -14.0032
   -12.7279 -12.6114  -9.1931  -7.6511  -6.9388  -6.1390  -4.3183  -3.6213
    -3.2754  -3.1777  -3.1553  -3.1437  -3.0120  -2.8412  -2.6462  -2.5834
    -2.5209  -2.4072  -2.3784  -2.2825  -2.2593  -2.2189  -2.1633  -2.1404
    -2.1126  -2.0583  -2.0459  -2.0377  -1.9472  -1.9275  -1.8251  -1.8039
    -1.7652  -1.7106  -1.6828  -1.6162  -1.5874  -1.5653  -1.5630  -1.5552
    -1.5321  -1.5182  -1.4955  -1.4406  -1.4118  -1.3498  -1.2830  -1.2086
    -1.1347  -0.9117  -0.8655  -0.8437  -0.7922  -0.7531  -0.6910  -0.6656
    -0.6466  -0.6335  -0.5644  -0.4543  -0.4058  -0.3642  -0.3104  -0.2861
    -0.2543  -0.1483  -0.0708  -0.0532  -0.0079   0.0310   0.0579   0.1227
     0.1577   0.1990   0.2684   0.2823   0.3586   0.3988   0.4216   0.4689
     0.5083   0.5725   0.6168   0.6657   0.6733   0.7033   0.7202   0.7517
     0.8376   0.8553   0.8965   0.9307   0.9914   1.0456   1.0704   1.2449
     1.3698   1.4035   1.4734   1.7395   1.7972   1.8134   1.9879   2.3654
     2.4110   3.8377   3.9780   3.9893   3.9966   4.0657   4.1193   4.1416
     4.3238   4.3639   4.4820   4.5207

[...]

          k = 0.0380-0.0419 0.0000 ( 17876 PWs)   bands (ev):

[...]

          k =-0.0760-0.0000 0.0000 ( 17886 PWs)   bands (ev):

[...]

          k =-0.0760-0.0839 0.0000 ( 17948 PWs)   bands (ev):

   -55.3875 -55.2316 -55.2314 -55.1085 -55.1022 -55.0819 -55.0612 -55.0603
   -55.0309 -54.9963 -54.9603 -54.9192 -54.8781 -54.7444 -54.2122 -54.2114
   -31.6568 -31.5983 -31.5894 -31.5495 -31.5493 -31.5251 -31.5248 -31.5035
   -31.4426 -31.4173 -31.3962 -31.3842 -31.3802 -31.3770 -31.3697 -31.3515
   -31.3509 -31.3469 -31.3437 -31.3333 -31.3299 -31.3113 -31.3039 -31.2823
   -31.2703 -31.2628 -31.2565 -31.2470 -31.2380 -31.2361 -31.2326 -31.2253
   -31.2177 -31.2119 -31.1855 -31.1483 -31.1220 -31.1088 -31.0960 -31.0849
   -31.0062 -30.9831 -30.5386 -30.5381 -30.4486 -30.4475 -30.4097 -30.4091
   -19.2003 -16.3012 -15.4580 -15.4108 -15.2245 -15.2213 -15.1948 -15.1328
   -15.0939 -15.0425 -15.0262 -14.9903 -14.9514 -14.9355 -14.9101 -14.8393
   -14.7956 -14.7693 -14.7579 -14.7216 -14.7059 -14.7050 -14.6735 -14.6511
   -14.6407 -14.5749 -14.5625 -14.4906 -14.4389 -14.4136 -14.2846 -14.2377
   -12.7135 -12.7130  -9.1811  -7.6625  -6.9244  -6.1480  -4.3479  -3.6092
    -2.6483  -2.6437  -2.4457  -2.4124  -2.3441  -2.2764  -2.2429  -2.2216
    -2.1757  -2.1687  -2.1285  -2.1066  -2.0703  -2.0405  -2.0344  -2.0172
    -2.0008  -1.9772  -1.9559  -1.9391  -1.9333  -1.9036  -1.8826  -1.8722
    -1.8297  -1.8222  -1.7976  -1.7791  -1.7435  -1.6798  -1.6178  -1.4979
    -1.4619  -1.4332  -1.4136  -1.3980  -1.3685  -1.3350  -1.3193  -1.3047
    -1.2757  -1.2627  -1.1531  -1.0056  -0.9920  -0.9001  -0.8653  -0.8599
    -0.7547  -0.7228  -0.6889  -0.6625  -0.6108  -0.5679  -0.4695  -0.4577
    -0.4156  -0.3480  -0.2510  -0.2411  -0.2254  -0.1971  -0.1737  -0.1673
    -0.1090  -0.0707  -0.0338   0.0172   0.0370   0.0593   0.0924   0.1881
     0.2156   0.3301   0.4526   0.4906   0.5164   0.5461   0.6816   0.7350
     0.7794   0.8526   0.9155   0.9359   1.0389   1.0571   1.0888   1.1451
     1.2153   1.2643   1.2803   1.3086   1.3213   2.1582   2.1663   2.2312
     2.2316   3.7934   4.0017   4.2528   4.3257   4.3467   4.3761   4.3985
     4.4307   4.4567   4.4999   4.5147

     the Fermi energy is     3.8734 ev

!    total energy              =   -2975.12424535 Ry
     estimated scf accuracy    <       0.00000006 Ry
     smearing contrib. (-TS)   =      -0.03099663 Ry
     internal energy E=F+TS    =   -2975.09324872 Ry

     The total energy is F=E-TS. E is the sum of the following terms:
     one-electron contribution =  -23512.71008932 Ry
     hartree contribution      =   11854.63283431 Ry
     xc contribution           =    -494.85836671 Ry
     ewald contribution        =    9177.83882791 Ry
     electric field correction =       0.00354509 Ry

     convergence has been achieved in  78 iterations

     Forces acting on atoms (cartesian axes, Ry/au):

     atom    1 type  1   force =     0.00014122   -0.00021667    0.09453266
     atom    2 type  1   force =    -0.00006779    0.00039715   -0.17564401
     atom    3 type  2   force =     0.00003307   -0.00002776   -0.02144788
     atom    4 type  2   force =     0.00000301   -0.00223446    0.05508393
     atom    5 type  2   force =    -0.00783959   -0.00313721    0.00368254
     atom    6 type  2   force =     0.00956233   -0.00256532    0.00357391
     atom    7 type  1   force =     0.00003322   -0.00298621    0.00579369
     atom    8 type  1   force =    -0.00023562    0.00257044    0.00565403
     atom    9 type  2   force =    -0.00035278   -0.00028063   -0.00000196
     atom   10 type  2   force =    -0.00116193   -0.00256778   -0.00857878
     atom   11 type  2   force =    -0.00073275   -0.00070261   -0.00016557
     atom   12 type  2   force =     0.00032840   -0.00070639   -0.00008114
     atom   13 type  1   force =     0.00008502    0.00006985    0.00044682
     atom   14 type  1   force =    -0.00015697   -0.00036023    0.00023427
     atom   15 type  2   force =     0.00013173   -0.00045675   -0.00000103
     atom   16 type  2   force =     0.00004085   -0.00068683   -0.00033859
     atom   17 type  2   force =     0.00011584    0.00033135   -0.00027143
     atom   18 type  2   force =    -0.00038166    0.00025256   -0.00048396
     atom   19 type  1   force =     0.00042941    0.00053867   -0.00009714
     atom   20 type  1   force =     0.00034786   -0.00047600    0.00015608
     atom   21 type  2   force =     0.00005446    0.00002633    0.10329361
     atom   22 type  2   force =     0.00016489    0.00118801   -0.00105010
     atom   23 type  2   force =    -0.07176926   -0.00020153   -0.02723745
     atom   24 type  2   force =     0.07160358    0.00024185   -0.02730121
     atom   25 type  1   force =     0.00006233   -0.00034061    0.09391657
     atom   26 type  1   force =    -0.00017400   -0.00123698   -0.17591413
     atom   27 type  2   force =     0.00013717   -0.00024477   -0.02016901
     atom   28 type  2   force =     0.00003554   -0.00056054    0.05060865
     atom   29 type  2   force =    -0.00679438    0.00148038    0.00204701
     atom   30 type  2   force =     0.00848898    0.00183512    0.00196022
     atom   31 type  1   force =     0.00014800    0.00700003   -0.00367102
     atom   32 type  1   force =    -0.00027848   -0.00257905    0.00511954
     atom   33 type  2   force =    -0.00000617    0.00031898   -0.00014250
     atom   34 type  2   force =    -0.00012034    0.00279014   -0.00830496
     atom   35 type  2   force =     0.00024884    0.00066927   -0.00031522
     atom   36 type  2   force =    -0.00100231    0.00054293   -0.00046752
     atom   37 type  1   force =     0.00013315   -0.00042471    0.00017056
     atom   38 type  1   force =    -0.00015094   -0.00009718   -0.00004588
     atom   39 type  2   force =    -0.00008831   -0.00004521    0.00012479
     atom   40 type  2   force =    -0.00047685    0.00011714   -0.00010587
     atom   41 type  2   force =    -0.00068936    0.00080809   -0.00159640
     atom   42 type  2   force =     0.00040578    0.00029366    0.00026523
     atom   43 type  1   force =     0.00043446    0.00037762    0.00009578
     atom   44 type  1   force =    -0.00011336   -0.00020348   -0.00019614
     atom   45 type  2   force =     0.00001762   -0.00011068    0.10305473
     atom   46 type  2   force =    -0.07183146   -0.00004150   -0.02729598
     atom   47 type  2   force =     0.07166930    0.00035297   -0.02733501
     atom   48 type  3   force =     0.00114468   -0.00104287   -0.00479769
     atom   49 type  4   force =    -0.00088098    0.00105665    0.00004387
     atom   50 type  5   force =     0.00022640   -0.00024756   -0.00064945
     atom   51 type  5   force =    -0.00142946    0.00024799   -0.00038944
     atom   52 type  3   force =     0.00108958   -0.00314557    0.02310594
     atom   53 type  5   force =    -0.00109503   -0.00052198   -0.00249976
     atom   54 type  5   force =    -0.00366805    0.00059112   -0.00596656
     atom   55 type  5   force =     0.00438310    0.00324645   -0.00952976
     atom   56 type  2   force =     0.00043999    0.00140451    0.00013769
     atom   57 type  5   force =    -0.00064195   -0.00030018   -0.00100958

     Total force =     0.363730     Total SCF correction =     0.000528
  @ DRIVER MODE: Message from server: STATUS
  @ DRIVER MODE: Message from server: GETFORCE
  @ DRIVER MODE: Returning v,forces,stress,ensemble

     Writing output data file ./calc.save/
  @ DRIVER MODE: Message from server: EXIT
  @ DRIVE MODE: Exiting

     General routines

     Parallel routines

   This run was terminated on:   0:17: 5  24Sep2021

   JOB DONE.