     Program PWSCF v.6.7GPU starts on 25Sep2021 at 21:30:20

     R & G space division:  proc/nbgrp/npool/nimage =       8
     Reading input from /storage/home/hcoda1/3/ntian30/research/carbon/CxH_vib/H2O_calc/ads_slab/CH3OHN2HO_a/out_0013/pw.inp
Warning: card &CELL ignored
Warning: card   CELL_DYNAMICS='IPI', ignored
Warning: card / ignored

     Current dimensions of program PWSCF are:
     Max number of different atomic species (ntypx) = 10
     Max number of k-points (npk) =  40000
     Max angular momentum in pseudopotentials (lmaxx) =  3
     Presently no symmetry can be used with electric field

     Message from routine cell_base_init:
     DEPRECATED: use true lattice parameter, not A to a.u. conversion factor

     IMPORTANT: XC functional enforced from input :
     Exchange-correlation= BEEF-VDW
                           (   1   4  43  14   2   0   0)
     Any further DFT definition will be discarded
     Please, verify this is what you really want

  @ DRIVER MODE: Connecting to
 qe_1139763_2971668.sched-torque.pace.gatech.edu3wdtsald_scratch
  using UNIX socket
  @ DRIVER MODE: Message from server: STATUS
  @ DRIVER MODE: Message from server: INIT
  @ DRIVER MODE: Receiving replica           0          -1
  @ DRIVER MODE: Receiving encoded integer          25
  @ DRIVER MODE:  SCF:  T  FORCE:  T  STRESS:  F  VC:  F  ENSEMBLE:  F
  @ DRIVER MODE:  SCF:  T  FORCE:  T  STRESS:  F  VC:  F  ENSEMBLE:  F

     Using Slab Decomposition

     bravais-lattice index     =            0
     lattice parameter (alat)  =       1.8897  a.u.
     unit-cell volume          =    6658.9804 (a.u.)^3
     number of atoms/cell      =           57
     number of atomic types    =            5
     number of electrons       =       409.00
     number of Kohn-Sham states=          214
     kinetic-energy cutoff     =      29.3995  Ry
     charge density cutoff     =     293.9946  Ry
     scf convergence threshold =      7.3E-08
     mixing beta               =       0.0500
     number of iterations used =            8  plain     mixing
     Exchange-correlation= BEEF-VDW
                           (   1   4  43  14   2   0   0)

     celldm(1)=   1.889726  celldm(2)=   0.000000  celldm(3)=   0.000000
     celldm(4)=   0.000000  celldm(5)=   0.000000  celldm(6)=   0.000000

     crystal axes: (cart. coord. in units of alat)
               a(1) = (   6.579727   0.000000   0.000000 )
               a(2) = (  -0.000775   5.961596   0.000000 )
               a(3) = (   0.000000   0.000000  25.155947 )

     reciprocal axes: (cart. coord. in units 2 pi/alat)
               b(1) = (  0.151982  0.000020  0.000000 )
               b(2) = (  0.000000  0.167740  0.000000 )
               b(3) = (  0.000000  0.000000  0.039752 )

     PseudoPot. # 1 for Ti read from file:
     /storage/coda1/p-amedford6/0/shared/rich_project_chbe-medford/medford-share/data/pseudos_module/espresso/nninc/pbe/van/Ti.UPF
     MD5 check sum: 8e4df49b7f0d34bbd5052bf3f5ea0213
     Pseudo is Ultrasoft, Zval = 12.0
     Generated by new atomic code, or converted to UPF format
     Using radial grid of  851 points,  6 beta functions with:
                l(1) =   0
                l(2) =   0
                l(3) =   1
                l(4) =   1
                l(5) =   2
                l(6) =   2
     Q(r) pseudized with  8 coefficients,  rinner =    1.000   1.000   1.000
                                                       1.000   1.000

     PseudoPot. # 2 for O  read from file:
     /storage/coda1/p-amedford6/0/shared/rich_project_chbe-medford/medford-share/data/pseudos_module/espresso/nninc/pbe/van/O.UPF
     MD5 check sum: 78c19812648e8988a0fe644b0f25305e
     Pseudo is Ultrasoft, Zval =  6.0
     Generated by new atomic code, or converted to UPF format
     Using radial grid of  737 points,  4 beta functions with:
                l(1) =   0
                l(2) =   0
                l(3) =   1
                l(4) =   1
     Q(r) pseudized with  8 coefficients,  rinner =    0.800   0.800   0.800

     PseudoPot. # 3 for C  read from file:
     /storage/coda1/p-amedford6/0/shared/rich_project_chbe-medford/medford-share/data/pseudos_module/espresso/nninc/pbe/van/C.UPF
     MD5 check sum: 1a69bf6b8db32088f5b2163dbdb77a27
     Pseudo is Ultrasoft, Zval =  4.0
     Generated by new atomic code, or converted to UPF format
     Using radial grid of  721 points,  4 beta functions with:
                l(1) =   0
                l(2) =   0
                l(3) =   1
                l(4) =   1
     Q(r) pseudized with  8 coefficients,  rinner =    0.800   0.800   0.800

     PseudoPot. # 4 for H  read from file:
     /storage/coda1/p-amedford6/0/shared/rich_project_chbe-medford/medford-share/data/pseudos_module/espresso/nninc/pbe/van/H.UPF
     MD5 check sum: b5ee9d7bfd3a09ee7748110bda690ff7
     Pseudo is Ultrasoft, Zval =  1.0
     Generated by new atomic code, or converted to UPF format
     Using radial grid of  615 points,  1 beta functions with:
                l(1) =   0
     Q(r) pseudized with  8 coefficients,  rinner =    0.800

     PseudoPot. # 5 for N  read from file:
     /storage/coda1/p-amedford6/0/shared/rich_project_chbe-medford/medford-share/data/pseudos_module/espresso/nninc/pbe/van/N.UPF
     MD5 check sum: 90d10febe142ad51ac9d5be1deb811c4
     Pseudo is Ultrasoft, Zval =  5.0
     Generated by new atomic code, or converted to UPF format
     Using radial grid of  729 points,  4 beta functions with:
                l(1) =   0
                l(2) =   0
                l(3) =   1
                l(4) =   1
     Q(r) pseudized with  8 coefficients,  rinner =    0.800   0.800   0.800

     atomic species   valence    mass     pseudopotential
        Ti1           12.00    47.86700     Ti( 1.00)
        O1             6.00    15.99900     O ( 1.00)
        C1             4.00    12.01100     C ( 1.00)
        H1             1.00     1.00800     H ( 1.00)
        N1             5.00    14.00700     N ( 1.00)

     No symmetry found

   Cartesian axes

     site n.     atom                  positions (alat units)
         1           Ti1 tau(   1) = (   0.0004258   2.9801865   6.0000000  )
         2           Ti1 tau(   2) = (   3.2906075   1.4906267   6.0002472  )
         3           O1  tau(   3) = (   0.0006271   0.0005054   7.9858123  )
         4           O1  tau(   4) = (   3.2906025   0.0005020   7.3038282  )
         5           O1  tau(   5) = (   4.5942328   1.4918067   9.2879030  )
         6           O1  tau(   6) = (   1.9868534   1.4903216   9.2879459  )
         7           Ti1 tau(   7) = (   3.3371032   3.0268772   9.1887580  )
         8           Ti1 tau(   8) = (   0.0611061   1.5258697   9.2809523  )
         9           O1  tau(   9) = (   3.3143856   0.0188946  11.3581724  )
        10           O1  tau(  10) = (   0.0164151   0.0031400  10.5895864  )
        11           O1  tau(  11) = (   1.3088961   1.4994640  12.6347600  )
        12           O1  tau(  12) = (   5.3347766   1.4946156  12.6347356  )
        13           Ti1 tau(  13) = (   0.0202478   3.0292801  12.5720800  )
        14           Ti1 tau(  14) = (   3.3188568   1.5851219  12.4260843  )
        15           O1  tau(  15) = (   0.0445434   5.9450813  14.6510506  )
        16           O1  tau(  16) = (   3.3207065   5.8849141  14.0104376  )
        17           O1  tau(  17) = (   4.6249962   1.5116716  16.1313945  )
        18           O1  tau(  18) = (   2.0639035   1.5439872  16.0680944  )
        19           Ti1 tau(  19) = (   3.3360141   2.9454253  15.6763505  )
        20           Ti1 tau(  20) = (   0.0686920   1.3314864  15.9334539  )
        21           O1  tau(  21) = (   3.2904802   0.0005063   4.7018136  )
        22           O1  tau(  22) = (   0.0979609   0.0039778  17.1657837  )
        23           O1  tau(  23) = (   1.3043587   1.4918075   6.0039043  )
        24           O1  tau(  24) = (   5.2767064   1.4903225   6.0039473  )
        25           Ti1 tau(  25) = (   0.0000382   5.9609847   6.0000000  )
        26           Ti1 tau(  26) = (   3.2902200   4.4714249   6.0002472  )
        27           O1  tau(  27) = (   0.0002396   2.9813036   7.9858123  )
        28           O1  tau(  28) = (   3.2902150   2.9813002   7.3038282  )
        29           O1  tau(  29) = (   4.5938453   4.4726049   9.2879030  )
        30           O1  tau(  30) = (   1.9864658   4.4711199   9.2879459  )
        31           Ti1 tau(  31) = (   3.3368545   0.0404040   9.1664313  )
        32           Ti1 tau(  32) = (   0.0604674   4.4799263   9.2696248  )
        33           O1  tau(  33) = (   3.3137611   2.9662427  11.3084074  )
        34           O1  tau(  34) = (   0.0134136   2.9850836  10.6046154  )
        35           O1  tau(  35) = (   1.3054726   4.4719986  12.6384794  )
        36           O1  tau(  36) = (   5.3362180   4.4781181  12.6390536  )
        37           Ti1 tau(  37) = (   0.0365240   0.0487139  12.4702884  )
        38           Ti1 tau(  38) = (   3.3180881   4.6653017  12.7087268  )
        39           O1  tau(  39) = (   0.0228105   2.9918545  14.7761892  )
        40           O1  tau(  40) = (   3.3431522   2.9700269  13.9040455  )
        41           O1  tau(  41) = (   4.6265974   4.4152401  16.1544535  )
        42           O1  tau(  42) = (   2.0571238   4.3592187  16.1146037  )
        43           Ti1 tau(  43) = (   3.3848590   5.9294639  16.2700006  )
        44           Ti1 tau(  44) = (   0.0517009   4.5268197  15.8466567  )
        45           O1  tau(  45) = (   3.2900926   2.9813045   4.7018136  )
        46           O1  tau(  46) = (   1.3039711   4.4726057   6.0039043  )
        47           O1  tau(  47) = (   5.2763189   4.4711207   6.0039473  )
        48           C1  tau(  48) = (   5.9450987   3.0517216  18.8599509  )
        49           O1  tau(  49) = (   0.1802289   3.0084098  17.6484507  )
        50           H1  tau(  50) = (   4.9525852   2.6832861  18.5889656  )
        51           H1  tau(  51) = (   1.1163247   3.1442434  17.8758057  )
        52           H1  tau(  52) = (   6.3899442   2.3914015  19.6026461  )
        53           H1  tau(  53) = (   5.8846647   4.0795385  19.2151274  )
        54           N1  tau(  54) = (   5.7598779   3.1323611  22.9045362  )
        55           N1  tau(  55) = (   4.9845974   3.1850264  22.1203839  )
        56           O1  tau(  56) = (   3.1467188   0.0118795  18.1166202  )
        57           H1  tau(  57) = (   2.2164505   0.0865285  18.3868412  )

     number of k points=    10  Fermi-Dirac smearing, width (Ry)=  0.0073
                       cart. coord. in units 2pi/alat
        k(    1) = (   0.0000000   0.0000000   0.0000000), wk =   0.1250000
        k(    2) = (   0.0000000   0.0419351   0.0000000), wk =   0.2500000
        k(    3) = (   0.0000000  -0.0838702   0.0000000), wk =   0.1250000
        k(    4) = (   0.0379955   0.0000049   0.0000000), wk =   0.2500000
        k(    5) = (   0.0379955   0.0419400   0.0000000), wk =   0.2500000
        k(    6) = (   0.0379955  -0.0838652   0.0000000), wk =   0.2500000
        k(    7) = (   0.0379955  -0.0419301   0.0000000), wk =   0.2500000
        k(    8) = (  -0.0759910  -0.0000099   0.0000000), wk =   0.1250000
        k(    9) = (  -0.0759910   0.0419252   0.0000000), wk =   0.2500000
        k(   10) = (  -0.0759910  -0.0838800   0.0000000), wk =   0.1250000

     Initial potential from superposition of free atoms

     starting charge  392.99914, renormalised to  409.00000

     negative rho (up, down):  9.139E-03 0.000E+00

     %%%%%%%%%%%%%%%%%%%%%%%%%%%%%%%%%%%%%%%%%%%%%%%%%%%%%%%%%%%%%%%%%%%%%%%%
     %                                                                      %
     % You are using vdW-DF, which was implemented by the Thonhauser group. %
     % Please cite the following two papers that made this development      %
     % possible and the two reviews that describe the various versions:     %
     %                                                                      %
     %   T. Thonhauser et al., PRL 115, 136402 (2015).                      %
     %   T. Thonhauser et al., PRB 76, 125112 (2007).                       %
     %   K. Berland et al., Rep. Prog. Phys. 78, 066501 (2015).             %
     %   D.C. Langreth et al., J. Phys.: Condens. Matter 21, 084203 (2009). %
     %                                                                      %
     %                                                                      %
     % If you are calculating the stress with vdW-DF, please also cite:     %
     %                                                                      %
     %   R. Sabatini et al., J. Phys.: Condens. Matter 24, 424209 (2012).   %
     %                                                                      %
     %%%%%%%%%%%%%%%%%%%%%%%%%%%%%%%%%%%%%%%%%%%%%%%%%%%%%%%%%%%%%%%%%%%%%%%%

     Adding external electric field

     Computed dipole along edir(3) :
        Dipole              -18.8687 Ry au,        -47.9594 Debye
        Dipole field         -0.0356 Ry au,

        Potential amp.        3.3008 Ry
        Total length         46.3494 bohr

     Starting wfcs are  309 atomic wfcs
  @ DRIVER MODE: Message from server: STATUS
  @ DRIVER MODE: Message from server: POSDATA
  @ DRIVER MODE: Reading and sharing cell
  @ DRIVER MODE: Reading and sharing positions
  @ DRIVER MODE: Received positions

     Self-consistent Calculation

     iteration #  1     ecut=    29.40 Ry     beta= 0.05
     Davidson diagonalization with overlap
     c_bands:  5 eigenvalues not converged
     c_bands:  5 eigenvalues not converged
     c_bands:  1 eigenvalues not converged
     c_bands:  4 eigenvalues not converged
     c_bands:  1 eigenvalues not converged
     c_bands:  3 eigenvalues not converged
     ethr =  1.00E-05,  avg # of iterations = 27.3

[...]

     total energy              =   -2113.21809118 Ry
     estimated scf accuracy    <   10331.01198115 Ry

     iteration #  2     ecut=    29.40 Ry     beta= 0.05
     Davidson diagonalization with overlap
     ethr =  1.00E-02,  avg # of iterations = 30.2

[...]

     iteration # 85     ecut=    29.40 Ry     beta= 0.05
     Davidson diagonalization with overlap
     c_bands:  1 eigenvalues not converged
     ethr =  4.27E-10,  avg # of iterations = 10.4

[...]

     total energy              =   -3006.45824310 Ry
     estimated scf accuracy    <       0.00000015 Ry

     iteration # 93     ecut=    29.40 Ry     beta= 0.05
     Davidson diagonalization with overlap
     ethr =  3.32E-11,  avg # of iterations =  8.4

     negative rho (up, down):  1.064E-02 0.000E+00

     Adding external electric field

     Computed dipole along edir(3) :
        Dipole                1.0503 Ry au,          2.6695 Debye
        Dipole field          0.0020 Ry au,

        Potential amp.       -0.1837 Ry
        Total length         46.3494 bohr

     End of self-consistent calculation

          k = 0.0000 0.0000 0.0000 ( 18029 PWs)   bands (ev):

   -55.3295 -55.2537 -55.2185 -55.1441 -55.1223 -55.0876 -55.0515 -55.0469
   -55.0452 -55.0261 -55.0160 -54.9861 -54.8991 -54.8231 -54.2134 -54.1794
   -31.7317 -31.7230 -31.6356 -31.6238 -31.5830 -31.5693 -31.5448 -31.5428
   -31.5080 -31.4965 -31.4853 -31.4204 -31.4074 -31.4072 -31.3804 -31.3622
   -31.3538 -31.3367 -31.3356 -31.3243 -31.3171 -31.3125 -31.2664 -31.2643
   -31.2625 -31.2558 -31.2529 -31.2399 -31.2336 -31.2150 -31.2082 -31.1976
   -31.1959 -31.1760 -31.1713 -31.1635 -31.1622 -31.1282 -31.0878 -31.0685
   -31.0374 -31.0270 -30.6195 -30.5332 -30.5107 -30.4365 -30.3502 -30.2386
   -21.5050 -19.7134 -16.1361 -15.9058 -15.7265 -15.5245 -15.4677 -15.4013
   -15.2140 -15.1406 -14.9847 -14.8595 -14.8449 -14.7881 -14.7872 -14.7770
   -14.7480 -14.7231 -14.6778 -14.6664 -14.6610 -14.6574 -14.5959 -14.5535
   -14.5509 -14.5237 -14.5030 -14.3759 -14.3289 -14.2743 -14.1043 -14.0822
   -12.7130 -12.5968 -10.5538  -6.6851  -6.4108  -4.6638  -4.6290  -4.5841
    -4.4048  -3.6522  -3.3688  -3.2546  -3.1545  -3.1358  -3.0704  -3.0197
    -2.8054  -2.6908  -2.6361  -2.5235  -2.3963  -2.3591  -2.2998  -2.2775
    -2.1861  -2.1678  -2.1363  -2.1056  -2.0510  -2.0230  -2.0155  -2.0024
    -1.9271  -1.9204  -1.7905  -1.7856  -1.7293  -1.6374  -1.6195  -1.5966
    -1.5893  -1.5552  -1.5526  -1.5103  -1.4865  -1.4625  -1.4339  -1.3588
    -1.3397  -1.2767  -1.2393  -1.0069  -0.8525  -0.8280  -0.7476  -0.7313
    -0.7004  -0.6713  -0.6513  -0.6404  -0.6033  -0.5879  -0.4843  -0.3808
    -0.3722  -0.3125  -0.2748  -0.2700  -0.1344  -0.0895  -0.0152   0.0074
     0.0398   0.0608   0.1450   0.1939   0.2156   0.2822   0.3135   0.4189
     0.4564   0.4757   0.5170   0.5724   0.6328   0.6665   0.7061   0.7094
     0.7422   0.7914   0.8208   0.8554   0.8778   0.9248   1.0277   1.0650
     1.0755   1.2161   1.2273   1.3094   1.4342   1.4860   1.7591   1.8116
     1.8583   2.0040   2.3805   2.4274   3.8702   3.9728   3.9939   4.0151
     4.0829   4.1647   4.3300   4.3534   4.4177   4.5189

[...]

          k = 0.0380-0.0419 0.0000 ( 17876 PWs)   bands (ev):

[...]

          k =-0.0760-0.0000 0.0000 ( 17886 PWs)   bands (ev):

[...]

          k =-0.0760-0.0839 0.0000 ( 17948 PWs)   bands (ev):

   -55.3287 -55.2406 -55.2314 -55.1381 -55.1179 -55.0934 -55.0508 -55.0463
   -55.0376 -55.0294 -55.0171 -54.9953 -54.8954 -54.8267 -54.1965 -54.1961
   -31.6426 -31.5791 -31.5693 -31.5516 -31.5427 -31.5426 -31.5367 -31.5208
   -31.4585 -31.4540 -31.4151 -31.3937 -31.3820 -31.3769 -31.3606 -31.3584
   -31.3548 -31.3528 -31.3460 -31.3400 -31.3351 -31.3331 -31.3178 -31.3157
   -31.2969 -31.2861 -31.2568 -31.2503 -31.2476 -31.2433 -31.2355 -31.2342
   -31.2275 -31.2228 -31.2190 -31.2145 -31.2120 -31.1736 -31.1550 -31.0919
   -31.0745 -31.0309 -30.5235 -30.5233 -30.4333 -30.4318 -30.3935 -30.3926
   -21.5049 -19.7096 -16.1125 -15.5358 -15.3792 -15.2082 -15.1944 -15.1150
   -15.0235 -15.0058 -14.9752 -14.9618 -14.9447 -14.9202 -14.9121 -14.8771
   -14.8140 -14.7721 -14.7490 -14.7407 -14.6938 -14.6885 -14.6850 -14.6222
   -14.6149 -14.5968 -14.5721 -14.5123 -14.5034 -14.4027 -14.3876 -14.2156
   -12.6991 -12.6982 -10.5559  -6.6854  -6.4126  -4.6601  -4.6358  -4.5710
    -4.3967  -3.6175  -3.3593  -2.6841  -2.5989  -2.5187  -2.4319  -2.3536
    -2.2988  -2.2497  -2.2290  -2.1843  -2.1631  -2.0936  -2.0590  -2.0502
    -2.0308  -2.0287  -1.9981  -1.9828  -1.9701  -1.9488  -1.9204  -1.9031
    -1.8926  -1.8716  -1.8517  -1.8258  -1.8138  -1.8039  -1.7890  -1.7730
    -1.6622  -1.6455  -1.6128  -1.4500  -1.4386  -1.3695  -1.3379  -1.3114
    -1.3078  -1.2775  -1.2623  -1.2203  -1.1153  -1.0870  -1.0377  -0.9963
    -0.9032  -0.8874  -0.8365  -0.7854  -0.7398  -0.7110  -0.6806  -0.6655
    -0.6117  -0.4733  -0.4526  -0.4075  -0.2883  -0.2151  -0.1994  -0.1869
    -0.1651  -0.1420  -0.0955  -0.0873  -0.0254  -0.0129   0.0579   0.0619
     0.0910   0.1126   0.2151   0.3372   0.4157   0.4596   0.5046   0.5539
     0.5876   0.6699   0.7463   0.8326   0.9086   0.9382   0.9519   1.0696
     1.1021   1.1547   1.2005   1.2207   1.2790   1.3148   1.3550   1.3881
     2.1727   2.1864   2.2427   2.2483   4.0510   4.3010   4.3610   4.3780
     4.3877   4.4202   4.4413   4.4931   4.5093   4.5329

     the Fermi energy is     3.8804 ev

!    total energy              =   -3006.45824676 Ry
     estimated scf accuracy    <       0.00000007 Ry
     smearing contrib. (-TS)   =      -0.02082728 Ry
     internal energy E=F+TS    =   -3006.43741948 Ry

     The total energy is F=E-TS. E is the sum of the following terms:
     one-electron contribution =  -22317.72196558 Ry
     hartree contribution      =   11258.38349360 Ry
     xc contribution           =    -501.13961834 Ry
     ewald contribution        =    8554.03858927 Ry
     electric field correction =       0.00208158 Ry

     convergence has been achieved in  93 iterations

     Forces acting on atoms (cartesian axes, Ry/au):

     atom    1 type  1   force =    -0.00037708   -0.00017014    0.09495963
     atom    2 type  1   force =    -0.00034987    0.00513049   -0.17482614
     atom    3 type  2   force =     0.00070676    0.00013028   -0.02673620
     atom    4 type  2   force =     0.00128879    0.00083072    0.05205816
     atom    5 type  2   force =    -0.01096528   -0.00256016    0.00078579
     atom    6 type  2   force =     0.01194594   -0.00380925    0.00179576
     atom    7 type  1   force =    -0.00021915    0.00039465    0.00068054
     atom    8 type  1   force =     0.00013445    0.00022546    0.00016818
     atom    9 type  2   force =     0.00024922    0.00075409   -0.00066489
     atom   10 type  2   force =    -0.00038993    0.00016119    0.00014734
     atom   11 type  2   force =     0.00044723   -0.00014808    0.00011004
     atom   12 type  2   force =    -0.00085476   -0.00014827    0.00036279
     atom   13 type  1   force =     0.00043632    0.00034522   -0.00023330
     atom   14 type  1   force =    -0.00034025   -0.00071318    0.00093145
     atom   15 type  2   force =    -0.00014050   -0.00053956   -0.00098941
     atom   16 type  2   force =    -0.00028224    0.00000885   -0.00021584
     atom   17 type  2   force =    -0.00099727    0.00028905   -0.00004623
     atom   18 type  2   force =     0.00047747    0.00069842   -0.00005935
     atom   19 type  1   force =     0.00027040   -0.00081909    0.00014909
     atom   20 type  1   force =    -0.00026344    0.00006727    0.00042037
     atom   21 type  2   force =    -0.00000310    0.00007357    0.10300334
     atom   22 type  2   force =    -0.00001866   -0.00014683    0.00096176
     atom   23 type  2   force =    -0.07193641    0.00014073   -0.02802980
     atom   24 type  2   force =     0.07177098    0.00063811   -0.02813588
     atom   25 type  1   force =    -0.00036461    0.00026036    0.10241115
     atom   26 type  1   force =    -0.00010869   -0.00475329   -0.17506364
     atom   27 type  2   force =     0.00084742    0.00117191   -0.02485846
     atom   28 type  2   force =     0.00119414    0.00025392    0.05169170
     atom   29 type  2   force =    -0.01192422    0.00381404    0.00172642
     atom   30 type  2   force =     0.01377245    0.00146411    0.00246007
     atom   31 type  1   force =    -0.00028916   -0.00016092    0.00081415
     atom   32 type  1   force =     0.00027957    0.00028659    0.00060213
     atom   33 type  2   force =     0.00000481    0.00021354    0.00007639
     atom   34 type  2   force =    -0.00027218   -0.00032401   -0.00055615
     atom   35 type  2   force =    -0.00022239    0.00004493   -0.00046896
     atom   36 type  2   force =    -0.00038780    0.00009175   -0.00008830
     atom   37 type  1   force =    -0.00005268   -0.00034116    0.00003008
     atom   38 type  1   force =    -0.00056905    0.00027852    0.00000392
     atom   39 type  2   force =    -0.00024953   -0.00024687    0.00078177
     atom   40 type  2   force =    -0.00020059    0.00011540    0.00031335
     atom   41 type  2   force =    -0.00140359   -0.00024592   -0.00007177
     atom   42 type  2   force =     0.00106004   -0.00014729   -0.00047712
     atom   43 type  1   force =    -0.00017133    0.00054032    0.00016879
     atom   44 type  1   force =    -0.00009479    0.00015315    0.00008598
     atom   45 type  2   force =     0.00000221    0.00013907    0.10259302
     atom   46 type  2   force =    -0.07183142   -0.00063139   -0.02797777
     atom   47 type  2   force =     0.07168943   -0.00014024   -0.02805319
     atom   48 type  3   force =    -0.01010235   -0.00311850   -0.00231957
     atom   49 type  2   force =    -0.00201612   -0.00095875    0.00029027
     atom   50 type  4   force =     0.01072623    0.00284597    0.00221953
     atom   51 type  4   force =     0.00037667    0.00038345   -0.00056694
     atom   52 type  4   force =    -0.00054650   -0.00008922   -0.00061045
     atom   53 type  4   force =     0.00014189   -0.00034870   -0.00107611
     atom   54 type  5   force =     0.00014339   -0.00008022    0.00035410
     atom   55 type  5   force =    -0.00049430    0.00006212   -0.00031755
     atom   56 type  2   force =     0.00078178   -0.00056125    0.00047761
     atom   57 type  4   force =    -0.00030835   -0.00080497   -0.00119163

     Total force =     0.365124     Total SCF correction =     0.000653
  @ DRIVER MODE: Message from server: STATUS
  @ DRIVER MODE: Message from server: GETFORCE
  @ DRIVER MODE: Returning v,forces,stress,ensemble

     Writing output data file ./calc.save/
  @ DRIVER MODE: Message from server: EXIT
  @ DRIVE MODE: Exiting

     General routines

     Parallel routines

   This run was terminated on:  22: 7:34  25Sep2021

   JOB DONE.