     Program PWSCF v.6.7GPU starts on 16Sep2021 at 14: 5:29

     R & G space division:  proc/nbgrp/npool/nimage =      10
     Reading input from /storage/home/hcoda1/3/ntian30/research/carbon/CxH_vib/H2O_calc/ads_slab/CH3NHNH2H2O_a/out_0064/pw.inp
Warning: card &CELL ignored
Warning: card   CELL_DYNAMICS='IPI', ignored
Warning: card / ignored

     Current dimensions of program PWSCF are:
     Max number of different atomic species (ntypx) = 10
     Max number of k-points (npk) =  40000
     Max angular momentum in pseudopotentials (lmaxx) =  3
     Presently no symmetry can be used with electric field

     Message from routine cell_base_init:
     DEPRECATED: use true lattice parameter, not A to a.u. conversion factor

     IMPORTANT: XC functional enforced from input :
     Exchange-correlation= BEEF-VDW
                           (   1   4  43  14   2   0   0)
     Any further DFT definition will be discarded
     Please, verify this is what you really want

  @ DRIVER MODE: Connecting to
 qe_1139763_2852619.sched-torque.pace.gatech.edui0eccbfw_scratch
  using UNIX socket
  @ DRIVER MODE: Message from server: STATUS
  @ DRIVER MODE: Message from server: INIT
  @ DRIVER MODE: Receiving replica           0          -1
  @ DRIVER MODE: Receiving encoded integer          25
  @ DRIVER MODE:  SCF:  T  FORCE:  T  STRESS:  F  VC:  F  ENSEMBLE:  F
  @ DRIVER MODE:  SCF:  T  FORCE:  T  STRESS:  F  VC:  F  ENSEMBLE:  F

     Using Slab Decomposition

     bravais-lattice index     =            0
     lattice parameter (alat)  =       1.8897  a.u.
     unit-cell volume          =    6658.9804 (a.u.)^3
     number of atoms/cell      =           59
     number of atomic types    =            5
     number of electrons       =       406.00
     number of Kohn-Sham states=          213
     kinetic-energy cutoff     =      29.3995  Ry
     charge density cutoff     =     293.9946  Ry
     scf convergence threshold =      7.3E-08
     mixing beta               =       0.0500
     number of iterations used =            8  plain     mixing
     Exchange-correlation= BEEF-VDW
                           (   1   4  43  14   2   0   0)

     celldm(1)=   1.889726  celldm(2)=   0.000000  celldm(3)=   0.000000
     celldm(4)=   0.000000  celldm(5)=   0.000000  celldm(6)=   0.000000

     crystal axes: (cart. coord. in units of alat)
               a(1) = (   6.579727   0.000000   0.000000 )
               a(2) = (  -0.000775   5.961596   0.000000 )
               a(3) = (   0.000000   0.000000  25.155947 )

     reciprocal axes: (cart. coord. in units 2 pi/alat)
               b(1) = (  0.151982  0.000020  0.000000 )
               b(2) = (  0.000000  0.167740  0.000000 )
               b(3) = (  0.000000  0.000000  0.039752 )

     PseudoPot. # 1 for Ti read from file:
     /storage/coda1/p-amedford6/0/shared/rich_project_chbe-medford/medford-share/data/pseudos_module/espresso/nninc/pbe/van/Ti.UPF
     MD5 check sum: 8e4df49b7f0d34bbd5052bf3f5ea0213
     Pseudo is Ultrasoft, Zval = 12.0
     Generated by new atomic code, or converted to UPF format
     Using radial grid of  851 points,  6 beta functions with:
                l(1) =   0
                l(2) =   0
                l(3) =   1
                l(4) =   1
                l(5) =   2
                l(6) =   2
     Q(r) pseudized with  8 coefficients,  rinner =    1.000   1.000   1.000
                                                       1.000   1.000

     PseudoPot. # 2 for O  read from file:
     /storage/coda1/p-amedford6/0/shared/rich_project_chbe-medford/medford-share/data/pseudos_module/espresso/nninc/pbe/van/O.UPF
     MD5 check sum: 78c19812648e8988a0fe644b0f25305e
     Pseudo is Ultrasoft, Zval =  6.0
     Generated by new atomic code, or converted to UPF format
     Using radial grid of  737 points,  4 beta functions with:
                l(1) =   0
                l(2) =   0
                l(3) =   1
                l(4) =   1
     Q(r) pseudized with  8 coefficients,  rinner =    0.800   0.800   0.800

     PseudoPot. # 3 for N  read from file:
     /storage/coda1/p-amedford6/0/shared/rich_project_chbe-medford/medford-share/data/pseudos_module/espresso/nninc/pbe/van/N.UPF
     MD5 check sum: 90d10febe142ad51ac9d5be1deb811c4
     Pseudo is Ultrasoft, Zval =  5.0
     Generated by new atomic code, or converted to UPF format
     Using radial grid of  729 points,  4 beta functions with:
                l(1) =   0
                l(2) =   0
                l(3) =   1
                l(4) =   1
     Q(r) pseudized with  8 coefficients,  rinner =    0.800   0.800   0.800

     PseudoPot. # 4 for C  read from file:
     /storage/coda1/p-amedford6/0/shared/rich_project_chbe-medford/medford-share/data/pseudos_module/espresso/nninc/pbe/van/C.UPF
     MD5 check sum: 1a69bf6b8db32088f5b2163dbdb77a27
     Pseudo is Ultrasoft, Zval =  4.0
     Generated by new atomic code, or converted to UPF format
     Using radial grid of  721 points,  4 beta functions with:
                l(1) =   0
                l(2) =   0
                l(3) =   1
                l(4) =   1
     Q(r) pseudized with  8 coefficients,  rinner =    0.800   0.800   0.800

     PseudoPot. # 5 for H  read from file:
     /storage/coda1/p-amedford6/0/shared/rich_project_chbe-medford/medford-share/data/pseudos_module/espresso/nninc/pbe/van/H.UPF
     MD5 check sum: b5ee9d7bfd3a09ee7748110bda690ff7
     Pseudo is Ultrasoft, Zval =  1.0
     Generated by new atomic code, or converted to UPF format
     Using radial grid of  615 points,  1 beta functions with:
                l(1) =   0
     Q(r) pseudized with  8 coefficients,  rinner =    0.800

     atomic species   valence    mass     pseudopotential
        Ti1           12.00    47.86700     Ti( 1.00)
        O1             6.00    15.99900     O ( 1.00)
        N1             5.00    14.00700     N ( 1.00)
        C1             4.00    12.01100     C ( 1.00)
        H1             1.00     1.00800     H ( 1.00)

     No symmetry found

   Cartesian axes

     site n.     atom                  positions (alat units)
         1           Ti1 tau(   1) = (   0.0004258   2.9801865   6.0000000  )
         2           Ti1 tau(   2) = (   3.2906075   1.4906267   6.0002472  )
         3           O1  tau(   3) = (   0.0006271   0.0005054   7.9858123  )
         4           O1  tau(   4) = (   3.2906025   0.0005020   7.3038282  )
         5           O1  tau(   5) = (   4.5942328   1.4918067   9.2879030  )
         6           O1  tau(   6) = (   1.9868534   1.4903216   9.2879459  )
         7           Ti1 tau(   7) = (   3.2907910   2.8959150   9.1758416  )
         8           Ti1 tau(   8) = (   0.0015273   1.4827037   9.2680791  )
         9           O1  tau(   9) = (   3.2683845   0.0132936  11.3796717  )
        10           O1  tau(  10) = (   0.0116148   5.9584955  10.6183126  )
        11           O1  tau(  11) = (   1.2681313   1.5011218  12.7194972  )
        12           O1  tau(  12) = (   5.2787963   1.4993765  12.6897032  )
        13           Ti1 tau(  13) = (   6.5560253   2.9823375  12.4990790  )
        14           Ti1 tau(  14) = (   3.2673924   1.4925278  12.5394213  )
        15           O1  tau(  15) = (   6.5345332   5.8735037  14.6996474  )
        16           O1  tau(  16) = (   3.2898196   5.9462848  13.9939205  )
        17           O1  tau(  17) = (   4.4957945   1.5291507  16.1605787  )
        18           O1  tau(  18) = (   1.9883785   1.5110281  16.0762771  )
        19           Ti1 tau(  19) = (   3.2526948   3.0056396  15.7740191  )
        20           Ti1 tau(  20) = (   0.0000763   1.3299063  15.8143521  )
        21           O1  tau(  21) = (   3.2904802   0.0005063   4.7018136  )
        22           O1  tau(  22) = (   6.5205728   0.2065101  17.2442985  )
        23           O1  tau(  23) = (   1.3043587   1.4918075   6.0039043  )
        24           O1  tau(  24) = (   5.2767064   1.4903225   6.0039473  )
        25           Ti1 tau(  25) = (   0.0000382   5.9609847   6.0000000  )
        26           Ti1 tau(  26) = (   3.2902200   4.4714249   6.0002472  )
        27           O1  tau(  27) = (   0.0002396   2.9813036   7.9858123  )
        28           O1  tau(  28) = (   3.2902150   2.9813002   7.3038282  )
        29           O1  tau(  29) = (   4.5938453   4.4726049   9.2879030  )
        30           O1  tau(  30) = (   1.9864658   4.4711199   9.2879459  )
        31           Ti1 tau(  31) = (   3.2891106   5.8743827   9.1763621  )
        32           Ti1 tau(  32) = (   0.0006254   4.4649316   9.2693709  )
        33           O1  tau(  33) = (   3.2688559   2.9716192  11.3757022  )
        34           O1  tau(  34) = (   0.0092240   2.9805883  10.6323155  )
        35           O1  tau(  35) = (   1.2711362   4.4646907  12.6658965  )
        36           O1  tau(  36) = (   5.2748280   4.4660984  12.6332574  )
        37           Ti1 tau(  37) = (   6.5627654   5.9477838  12.5072267  )
        38           Ti1 tau(  38) = (   3.2667511   4.4702655  12.5260729  )
        39           O1  tau(  39) = (   6.5087961   3.0586107  15.0099536  )
        40           O1  tau(  40) = (   3.2849776   3.0149387  13.9815115  )
        41           O1  tau(  41) = (   4.4906635   4.4862850  16.2792570  )
        42           O1  tau(  42) = (   1.9756856   4.4939852  16.2100911  )
        43           Ti1 tau(  43) = (   3.2747729   0.0241646  15.7895078  )
        44           Ti1 tau(  44) = (   6.5697470   4.5456975  16.1185117  )
        45           O1  tau(  45) = (   3.2900926   2.9813045   4.7018136  )
        46           O1  tau(  46) = (   1.3039711   4.4726057   6.0039043  )
        47           O1  tau(  47) = (   5.2763189   4.4711207   6.0039473  )
        48           N1  tau(  48) = (   0.9980056   3.0961469  19.0053282  )
        49           N1  tau(  49) = (   6.4063515   3.4839273  18.2229180  )
        50           C1  tau(  50) = (   1.6570833   4.2684698  19.5811903  )
        51           H1  tau(  51) = (   0.9936588   4.8902639  20.1979557  )
        52           H1  tau(  52) = (   2.4789334   3.9063689  20.1993048  )
        53           H1  tau(  53) = (   2.0598354   4.8861676  18.7819781  )
        54           H1  tau(  54) = (   0.6510520   2.5058952  19.7602174  )
        55           H1  tau(  55) = (   5.8507131   4.1735594  18.7414995  )
        56           H1  tau(  56) = (   5.8147758   2.6545292  18.1916272  )
        57           O1  tau(  57) = (   5.1718451   0.7889162  19.5681371  )
        58           H1  tau(  58) = (   5.5516362   0.5315711  18.6954158  )
        59           H1  tau(  59) = (   4.2099197   0.7512590  19.4668632  )

     number of k points=    10  Fermi-Dirac smearing, width (Ry)=  0.0073
                       cart. coord. in units 2pi/alat
        k(    1) = (   0.0000000   0.0000000   0.0000000), wk =   0.1250000
        k(    2) = (   0.0000000   0.0419351   0.0000000), wk =   0.2500000
        k(    3) = (   0.0000000  -0.0838702   0.0000000), wk =   0.1250000
        k(    4) = (   0.0379955   0.0000049   0.0000000), wk =   0.2500000
        k(    5) = (   0.0379955   0.0419400   0.0000000), wk =   0.2500000
        k(    6) = (   0.0379955  -0.0838652   0.0000000), wk =   0.2500000
        k(    7) = (   0.0379955  -0.0419301   0.0000000), wk =   0.2500000
        k(    8) = (  -0.0759910  -0.0000099   0.0000000), wk =   0.1250000
        k(    9) = (  -0.0759910   0.0419252   0.0000000), wk =   0.2500000
        k(   10) = (  -0.0759910  -0.0838800   0.0000000), wk =   0.1250000

     Initial potential from superposition of free atoms

     starting charge  389.99912, renormalised to  406.00000

     negative rho (up, down):  1.389E-02 0.000E+00

     %%%%%%%%%%%%%%%%%%%%%%%%%%%%%%%%%%%%%%%%%%%%%%%%%%%%%%%%%%%%%%%%%%%%%%%%
     %                                                                      %
     % You are using vdW-DF, which was implemented by the Thonhauser group. %
     % Please cite the following two papers that made this development      %
     % possible and the two reviews that describe the various versions:     %
     %                                                                      %
     %   T. Thonhauser et al., PRL 115, 136402 (2015).                      %
     %   T. Thonhauser et al., PRB 76, 125112 (2007).                       %
     %   K. Berland et al., Rep. Prog. Phys. 78, 066501 (2015).             %
     %   D.C. Langreth et al., J. Phys.: Condens. Matter 21, 084203 (2009). %
     %                                                                      %
     %                                                                      %
     % If you are calculating the stress with vdW-DF, please also cite:     %
     %                                                                      %
     %   R. Sabatini et al., J. Phys.: Condens. Matter 24, 424209 (2012).   %
     %                                                                      %
     %%%%%%%%%%%%%%%%%%%%%%%%%%%%%%%%%%%%%%%%%%%%%%%%%%%%%%%%%%%%%%%%%%%%%%%%

     Adding external electric field

     Computed dipole along edir(3) :
        Dipole              -16.7176 Ry au,        -42.4920 Debye
        Dipole field         -0.0315 Ry au,

        Potential amp.        2.9245 Ry
        Total length         46.3494 bohr

     Starting wfcs are  308 atomic wfcs
  @ DRIVER MODE: Message from server: STATUS
  @ DRIVER MODE: Message from server: POSDATA
  @ DRIVER MODE: Reading and sharing cell
  @ DRIVER MODE: Reading and sharing positions
  @ DRIVER MODE: Received positions

     Self-consistent Calculation

     iteration #  1     ecut=    29.40 Ry     beta= 0.05
     Davidson diagonalization with overlap
     c_bands:  2 eigenvalues not converged
     c_bands:  3 eigenvalues not converged
     c_bands:  2 eigenvalues not converged
     c_bands:  4 eigenvalues not converged
     c_bands:  1 eigenvalues not converged
     c_bands:  4 eigenvalues not converged
     c_bands:  3 eigenvalues not converged
     c_bands:  5 eigenvalues not converged
     c_bands:  3 eigenvalues not converged
     ethr =  1.00E-05,  avg # of iterations = 24.9

[...]

     total energy              =   -2136.64064023 Ry
     estimated scf accuracy    <    9692.89094174 Ry

     iteration #  2     ecut=    29.40 Ry     beta= 0.05
     Davidson diagonalization with overlap
     ethr =  1.00E-02,  avg # of iterations = 31.9

[...]

     iteration # 94     ecut=    29.40 Ry     beta= 0.05
     Davidson diagonalization with overlap
     c_bands:  1 eigenvalues not converged
     ethr =  2.72E-10,  avg # of iterations = 13.5

[...]

     total energy              =   -2977.68383603 Ry
     estimated scf accuracy    <       0.00000008 Ry

     iteration #101     ecut=    29.40 Ry     beta= 0.05
     Davidson diagonalization with overlap
     ethr =  2.01E-11,  avg # of iterations =  8.7

     negative rho (up, down):  1.439E-02 0.000E+00

     Adding external electric field

     Computed dipole along edir(3) :
        Dipole                1.0206 Ry au,          2.5942 Debye
        Dipole field          0.0019 Ry au,

        Potential amp.       -0.1785 Ry
        Total length         46.3494 bohr

     End of self-consistent calculation

          k = 0.0000 0.0000 0.0000 ( 18029 PWs)   bands (ev):

   -55.3589 -55.3216 -55.3096 -55.2919 -55.2755 -55.2398 -55.2381 -55.2033
   -55.1820 -55.1808 -55.1477 -55.1416 -55.1079 -55.0166 -54.3418 -54.3077
   -31.9252 -31.8074 -31.8026 -31.7267 -31.6752 -31.6713 -31.6712 -31.6481
   -31.5984 -31.5942 -31.5711 -31.5685 -31.5545 -31.5381 -31.5292 -31.5258
   -31.5133 -31.5063 -31.4958 -31.4783 -31.4634 -31.4622 -31.4343 -31.4240
   -31.4165 -31.4126 -31.3916 -31.3846 -31.3683 -31.3668 -31.3619 -31.3531
   -31.3408 -31.3399 -31.3311 -31.3286 -31.2956 -31.2925 -31.2700 -31.2528
   -31.2289 -31.2268 -30.7512 -30.6567 -30.6347 -30.5676 -30.4808 -30.3699
   -18.0209 -17.6373 -16.1925 -15.9319 -15.7863 -15.6578 -15.5604 -15.4320
   -15.4127 -15.2908 -15.2206 -15.1162 -15.0657 -15.0473 -15.0115 -15.0012
   -14.9784 -14.9077 -14.9015 -14.8873 -14.8635 -14.8548 -14.8086 -14.8009
   -14.7597 -14.7353 -14.7108 -14.6119 -14.5221 -14.4472 -14.3386 -13.1541
   -12.8443 -12.7268  -9.4099  -6.3188  -5.8911  -5.7464  -4.2531  -3.5310
    -3.3824  -3.3136  -3.2774  -3.2521  -3.1186  -2.9613  -2.9239  -2.8063
    -2.7880  -2.6894  -2.6438  -2.5726  -2.5558  -2.5407  -2.3945  -2.3724
    -2.3465  -2.2803  -2.2533  -2.1868  -2.1647  -2.1546  -2.1444  -2.1212
    -2.0932  -2.0508  -1.9916  -1.9327  -1.8394  -1.8143  -1.7633  -1.7338
    -1.7130  -1.6960  -1.6504  -1.6394  -1.5999  -1.5854  -1.5659  -1.5512
    -1.3883  -1.3658  -1.2637  -1.2023  -1.1035  -0.9994  -0.9635  -0.9489
    -0.8520  -0.8333  -0.7806  -0.7396  -0.7373  -0.7026  -0.5908  -0.5281
    -0.4758  -0.4123  -0.3895  -0.3495  -0.2814  -0.1988  -0.1425  -0.1285
    -0.1138  -0.1005   0.0140   0.0263   0.0780   0.1529   0.1625   0.1686
     0.2419   0.2988   0.3691   0.3943   0.4117   0.5167   0.5324   0.5648
     0.5705   0.6004   0.6211   0.6462   0.7063   0.7366   0.8198   0.9415
     1.1340   1.2226   1.2499   1.3614   1.5729   1.5855   1.6811   1.8643
     2.2575   2.3058   3.7381   3.8093   3.8840   3.8880   3.9107   3.9744
     4.2113   4.2285   4.2431   4.2467   4.2709

[...]

          k = 0.0380-0.0419 0.0000 ( 17876 PWs)   bands (ev):

[...]

          k =-0.0760-0.0000 0.0000 ( 17886 PWs)   bands (ev):

[...]

          k =-0.0760-0.0839 0.0000 ( 17948 PWs)   bands (ev):

   -55.3452 -55.3350 -55.2927 -55.2923 -55.2907 -55.2325 -55.2276 -55.2153
   -55.1863 -55.1660 -55.1632 -55.1251 -55.1245 -55.0177 -54.3249 -54.3244
   -31.7333 -31.7253 -31.7231 -31.6389 -31.6193 -31.6178 -31.6176 -31.5837
   -31.5836 -31.5724 -31.5583 -31.5572 -31.5504 -31.5303 -31.5187 -31.5054
   -31.4989 -31.4957 -31.4942 -31.4927 -31.4859 -31.4785 -31.4463 -31.4386
   -31.4356 -31.4353 -31.4213 -31.4164 -31.4124 -31.4120 -31.4065 -31.3988
   -31.3965 -31.3792 -31.3761 -31.3738 -31.3590 -31.3558 -31.3060 -31.3057
   -31.2991 -31.2327 -30.6475 -30.6471 -30.5638 -30.5636 -30.5243 -30.5241
   -18.0097 -17.6455 -15.6729 -15.5881 -15.5671 -15.4121 -15.3604 -15.3340
   -15.3230 -15.2076 -15.1653 -15.1460 -15.1315 -15.1096 -15.0713 -15.0619
   -15.0548 -14.9918 -14.9714 -14.9625 -14.9365 -14.8828 -14.8753 -14.8673
   -14.8595 -14.8096 -14.8058 -14.7658 -14.7151 -14.7116 -14.6346 -13.1603
   -12.8282 -12.8282  -9.4148  -6.3429  -5.9136  -5.6677  -4.2309  -2.9364
    -2.8462  -2.8354  -2.8288  -2.6989  -2.6254  -2.5501  -2.5279  -2.5065
    -2.4205  -2.4083  -2.3777  -2.3525  -2.3228  -2.2838  -2.2465  -2.2398
    -2.2038  -2.1952  -2.1792  -2.1626  -2.1410  -2.1257  -2.0918  -2.0811
    -2.0676  -2.0237  -1.9976  -1.9838  -1.9624  -1.9423  -1.9343  -1.9157
    -1.8419  -1.7507  -1.7260  -1.6408  -1.5719  -1.5697  -1.5637  -1.5018
    -1.4584  -1.4200  -1.3950  -1.3779  -1.2381  -1.1672  -1.1231  -1.1089
    -1.0943  -0.9634  -0.9571  -0.8811  -0.8586  -0.8521  -0.7592  -0.7142
    -0.6755  -0.6686  -0.5818  -0.5698  -0.4938  -0.3955  -0.3735  -0.3598
    -0.3147  -0.3129  -0.2755  -0.2625  -0.1660  -0.1309  -0.1136  -0.0966
    -0.0809  -0.0384   0.1125   0.1615   0.1681   0.3011   0.3330   0.4715
     0.5014   0.5655   0.6453   0.6942   0.7466   0.7794   0.8667   0.9406
     0.9438   1.0072   1.0228   1.0887   1.1009   1.3668   2.0373   2.0379
     2.1256   2.1260   3.8862   4.0013   4.0048   4.0341   4.1565   4.1796
     4.2559   4.2834   4.3228   4.3262   4.3846

     the Fermi energy is     3.8022 ev

!    total energy              =   -2977.68384169 Ry
     estimated scf accuracy    <       0.00000003 Ry
     smearing contrib. (-TS)   =      -0.03717527 Ry
     internal energy E=F+TS    =   -2977.64666641 Ry

     The total energy is F=E-TS. E is the sum of the following terms:
     one-electron contribution =  -22681.91449886 Ry
     hartree contribution      =   11438.32956826 Ry
     xc contribution           =    -496.61740265 Ry
     ewald contribution        =    8762.55370105 Ry
     electric field correction =       0.00196578 Ry

     convergence has been achieved in 101 iterations

     Forces acting on atoms (cartesian axes, Ry/au):

     atom    1 type  1   force =     0.00023935   -0.00037760    0.09322466
     atom    2 type  1   force =     0.00002060   -0.00038938   -0.17819235
     atom    3 type  2   force =     0.00004917   -0.00041782   -0.02001686
     atom    4 type  2   force =     0.00001198   -0.00190484    0.05912413
     atom    5 type  2   force =    -0.01035447   -0.00059331    0.00861101
     atom    6 type  2   force =     0.01130388    0.00009670    0.00628367
     atom    7 type  1   force =    -0.00096354    0.00197182   -0.01426728
     atom    8 type  1   force =     0.00097515   -0.00255971   -0.00598717
     atom    9 type  2   force =     0.00016774   -0.00001632    0.00008782
     atom   10 type  2   force =    -0.00230925    0.00309410    0.00261419
     atom   11 type  2   force =     0.00042814   -0.00042891   -0.00056001
     atom   12 type  2   force =     0.00002597   -0.00040899   -0.00056481
     atom   13 type  1   force =     0.00033413   -0.00027494   -0.00018506
     atom   14 type  1   force =     0.00005340   -0.00009019   -0.00006100
     atom   15 type  2   force =    -0.00000137    0.00059994   -0.00005609
     atom   16 type  2   force =     0.00030865    0.00027604   -0.00012920
     atom   17 type  2   force =     0.00040153    0.00025586    0.00042598
     atom   18 type  2   force =    -0.00049207    0.00021191   -0.00009531
     atom   19 type  1   force =    -0.00015029    0.00011428    0.00028716
     atom   20 type  1   force =    -0.00006665   -0.00019903    0.00056902
     atom   21 type  2   force =     0.00012062   -0.00011161    0.10401926
     atom   22 type  2   force =     0.00025917   -0.00004026    0.00036402
     atom   23 type  2   force =    -0.07029489   -0.00019573   -0.02687088
     atom   24 type  2   force =     0.07027809    0.00025005   -0.02687159
     atom   25 type  1   force =     0.00017360   -0.00030049    0.09240599
     atom   26 type  1   force =     0.00005673   -0.00054597   -0.17851660
     atom   27 type  2   force =     0.00008106   -0.00021124   -0.01907931
     atom   28 type  2   force =     0.00005947   -0.00173075    0.05854350
     atom   29 type  2   force =    -0.01101978   -0.00114323    0.00944812
     atom   30 type  2   force =     0.01187681   -0.00069997    0.00723008
     atom   31 type  1   force =    -0.00087802    0.00646217   -0.01492701
     atom   32 type  1   force =     0.00101900    0.00220321   -0.00638147
     atom   33 type  2   force =     0.00025788    0.00009474    0.00001628
     atom   34 type  2   force =    -0.00214435   -0.00243505   -0.00031730
     atom   35 type  2   force =     0.00029339    0.00012592   -0.00000025
     atom   36 type  2   force =     0.00024165    0.00003744    0.00051623
     atom   37 type  1   force =    -0.00009993    0.00002294   -0.00004143
     atom   38 type  1   force =     0.00015480   -0.00007269    0.00000727
     atom   39 type  2   force =    -0.00010280   -0.00017876    0.00040930
     atom   40 type  2   force =    -0.00014142    0.00008427    0.00005726
     atom   41 type  2   force =    -0.00045158    0.00012805    0.00025653
     atom   42 type  2   force =     0.00026911   -0.00010212   -0.00014898
     atom   43 type  1   force =     0.00038038    0.00025970   -0.00007220
     atom   44 type  1   force =    -0.00005366   -0.00007088    0.00002683
     atom   45 type  2   force =     0.00012707   -0.00010982    0.10395928
     atom   46 type  2   force =    -0.07025967   -0.00013108   -0.02681209
     atom   47 type  2   force =     0.07025021    0.00027776   -0.02687433
     atom   48 type  3   force =    -0.00022703   -0.00006158   -0.00031744
     atom   49 type  3   force =     0.00023873    0.00003626   -0.00074442
     atom   50 type  4   force =    -0.00031492   -0.00009217   -0.00025883
     atom   51 type  5   force =    -0.00070044    0.00034779    0.00038034
     atom   52 type  5   force =     0.00042475   -0.00003872    0.00036982
     atom   53 type  5   force =    -0.00002940    0.00019029   -0.00046676
     atom   54 type  5   force =     0.00009586   -0.00011807    0.00001481
     atom   55 type  5   force =     0.00031634    0.00048293   -0.00030365
     atom   56 type  5   force =    -0.00031475   -0.00064143    0.00050017
     atom   57 type  2   force =    -0.00262840    0.00080281    0.00458557
     atom   58 type  5   force =     0.00145262   -0.00228263   -0.00368577
     atom   59 type  5   force =     0.00125163    0.00054834   -0.00153288

     Total force =     0.366365     Total SCF correction =     0.000505
  @ DRIVER MODE: Message from server: STATUS
  @ DRIVER MODE: Message from server: GETFORCE
  @ DRIVER MODE: Returning v,forces,stress,ensemble

     Writing output data file ./calc.save/
  @ DRIVER MODE: Message from server: EXIT
  @ DRIVE MODE: Exiting

     General routines

     Parallel routines

   This run was terminated on:  14:34:35  16Sep2021

   JOB DONE.