     Program PWSCF v.6.7GPU starts on 10Sep2021 at 20:48:57

     R & G space division:  proc/nbgrp/npool/nimage =      10
     Reading input from /storage/home/hcoda1/3/ntian30/research/carbon/CxH_vib/CH2_calc/ads_slab/CH2NHNH2_a/out_0009/pw.inp
Warning: card &CELL ignored
Warning: card   CELL_DYNAMICS='IPI', ignored
Warning: card / ignored

     Current dimensions of program PWSCF are:
     Max number of different atomic species (ntypx) = 10
     Max number of k-points (npk) =  40000
     Max angular momentum in pseudopotentials (lmaxx) =  3
     Presently no symmetry can be used with electric field

     Message from routine cell_base_init:
     DEPRECATED: use true lattice parameter, not A to a.u. conversion factor

     IMPORTANT: XC functional enforced from input :
     Exchange-correlation= BEEF-VDW
                           (   1   4  43  14   2   0   0)
     Any further DFT definition will be discarded
     Please, verify this is what you really want

  @ DRIVER MODE: Connecting to
 qe_1139763_2792044.sched-torque.pace.gatech.edu5myb646i_scratch
  using UNIX socket
  @ DRIVER MODE: Message from server: STATUS
  @ DRIVER MODE: Message from server: INIT
  @ DRIVER MODE: Receiving replica           0          -1
  @ DRIVER MODE: Receiving encoded integer          25
  @ DRIVER MODE:  SCF:  T  FORCE:  T  STRESS:  F  VC:  F  ENSEMBLE:  F
  @ DRIVER MODE:  SCF:  T  FORCE:  T  STRESS:  F  VC:  F  ENSEMBLE:  F

     Using Slab Decomposition

     bravais-lattice index     =            0
     lattice parameter (alat)  =       1.8897  a.u.
     unit-cell volume          =    6658.9804 (a.u.)^3
     number of atoms/cell      =           55
     number of atomic types    =            5
     number of electrons       =       397.00
     number of Kohn-Sham states=          208
     kinetic-energy cutoff     =      29.3995  Ry
     charge density cutoff     =     293.9946  Ry
     scf convergence threshold =      7.3E-08
     mixing beta               =       0.0500
     number of iterations used =            8  plain     mixing
     Exchange-correlation= BEEF-VDW
                           (   1   4  43  14   2   0   0)

     celldm(1)=   1.889726  celldm(2)=   0.000000  celldm(3)=   0.000000
     celldm(4)=   0.000000  celldm(5)=   0.000000  celldm(6)=   0.000000

     crystal axes: (cart. coord. in units of alat)
               a(1) = (   6.579727   0.000000   0.000000 )
               a(2) = (  -0.000775   5.961596   0.000000 )
               a(3) = (   0.000000   0.000000  25.155947 )

     reciprocal axes: (cart. coord. in units 2 pi/alat)
               b(1) = (  0.151982  0.000020  0.000000 )
               b(2) = (  0.000000  0.167740  0.000000 )
               b(3) = (  0.000000  0.000000  0.039752 )

     PseudoPot. # 1 for Ti read from file:
     /storage/coda1/p-amedford6/0/shared/rich_project_chbe-medford/medford-share/data/pseudos_module/espresso/nninc/pbe/van/Ti.UPF
     MD5 check sum: 8e4df49b7f0d34bbd5052bf3f5ea0213
     Pseudo is Ultrasoft, Zval = 12.0
     Generated by new atomic code, or converted to UPF format
     Using radial grid of  851 points,  6 beta functions with:
                l(1) =   0
                l(2) =   0
                l(3) =   1
                l(4) =   1
                l(5) =   2
                l(6) =   2
     Q(r) pseudized with  8 coefficients,  rinner =    1.000   1.000   1.000
                                                       1.000   1.000

     PseudoPot. # 2 for O  read from file:
     /storage/coda1/p-amedford6/0/shared/rich_project_chbe-medford/medford-share/data/pseudos_module/espresso/nninc/pbe/van/O.UPF
     MD5 check sum: 78c19812648e8988a0fe644b0f25305e
     Pseudo is Ultrasoft, Zval =  6.0
     Generated by new atomic code, or converted to UPF format
     Using radial grid of  737 points,  4 beta functions with:
                l(1) =   0
                l(2) =   0
                l(3) =   1
                l(4) =   1
     Q(r) pseudized with  8 coefficients,  rinner =    0.800   0.800   0.800

     PseudoPot. # 3 for N  read from file:
     /storage/coda1/p-amedford6/0/shared/rich_project_chbe-medford/medford-share/data/pseudos_module/espresso/nninc/pbe/van/N.UPF
     MD5 check sum: 90d10febe142ad51ac9d5be1deb811c4
     Pseudo is Ultrasoft, Zval =  5.0
     Generated by new atomic code, or converted to UPF format
     Using radial grid of  729 points,  4 beta functions with:
                l(1) =   0
                l(2) =   0
                l(3) =   1
                l(4) =   1
     Q(r) pseudized with  8 coefficients,  rinner =    0.800   0.800   0.800

     PseudoPot. # 4 for C  read from file:
     /storage/coda1/p-amedford6/0/shared/rich_project_chbe-medford/medford-share/data/pseudos_module/espresso/nninc/pbe/van/C.UPF
     MD5 check sum: 1a69bf6b8db32088f5b2163dbdb77a27
     Pseudo is Ultrasoft, Zval =  4.0
     Generated by new atomic code, or converted to UPF format
     Using radial grid of  721 points,  4 beta functions with:
                l(1) =   0
                l(2) =   0
                l(3) =   1
                l(4) =   1
     Q(r) pseudized with  8 coefficients,  rinner =    0.800   0.800   0.800

     PseudoPot. # 5 for H  read from file:
     /storage/coda1/p-amedford6/0/shared/rich_project_chbe-medford/medford-share/data/pseudos_module/espresso/nninc/pbe/van/H.UPF
     MD5 check sum: b5ee9d7bfd3a09ee7748110bda690ff7
     Pseudo is Ultrasoft, Zval =  1.0
     Generated by new atomic code, or converted to UPF format
     Using radial grid of  615 points,  1 beta functions with:
                l(1) =   0
     Q(r) pseudized with  8 coefficients,  rinner =    0.800

     atomic species   valence    mass     pseudopotential
        Ti1           12.00    47.86700     Ti( 1.00)
        O1             6.00    15.99900     O ( 1.00)
        N1             5.00    14.00700     N ( 1.00)
        C1             4.00    12.01100     C ( 1.00)
        H1             1.00     1.00800     H ( 1.00)

     No symmetry found

   Cartesian axes

     site n.     atom                  positions (alat units)
         1           Ti1 tau(   1) = (   0.0004258   2.9801865   6.0000000  )
         2           Ti1 tau(   2) = (   3.2906075   1.4906267   6.0002472  )
         3           O1  tau(   3) = (   0.0006271   0.0005054   7.9858123  )
         4           O1  tau(   4) = (   3.2906025   0.0005020   7.3038282  )
         5           O1  tau(   5) = (   4.5942328   1.4918067   9.2879030  )
         6           O1  tau(   6) = (   1.9868534   1.4903216   9.2879459  )
         7           Ti1 tau(   7) = (   3.2907910   2.8959150   9.1758416  )
         8           Ti1 tau(   8) = (   0.0015273   1.4827037   9.2680791  )
         9           O1  tau(   9) = (   3.2904964   5.9585769  11.3857690  )
        10           O1  tau(  10) = (   0.0116148   5.9584955  10.6183126  )
        11           O1  tau(  11) = (   1.2878431   1.4867815  12.6991744  )
        12           O1  tau(  12) = (   5.2968392   1.4897239  12.6840540  )
        13           Ti1 tau(  13) = (   0.0031652   2.9724310  12.5021289  )
        14           Ti1 tau(  14) = (   3.2974598   1.4750309  12.5411678  )
        15           O1  tau(  15) = (   6.5490940   5.8844369  14.7025010  )
        16           O1  tau(  16) = (   3.3056738   5.9474069  14.0077327  )
        17           O1  tau(  17) = (   4.5358307   1.5199601  16.1809847  )
        18           O1  tau(  18) = (   2.0145668   1.5037208  16.1256758  )
        19           Ti1 tau(  19) = (   3.2722398   2.9952086  15.7861162  )
        20           Ti1 tau(  20) = (   6.5630583   1.3046800  15.8709962  )
        21           O1  tau(  21) = (   3.2904802   0.0005063   4.7018136  )
        22           O1  tau(  22) = (   0.0019326   0.1554656  17.2922311  )
        23           O1  tau(  23) = (   1.3043587   1.4918075   6.0039043  )
        24           O1  tau(  24) = (   5.2767064   1.4903225   6.0039473  )
        25           Ti1 tau(  25) = (   0.0000382   5.9609847   6.0000000  )
        26           Ti1 tau(  26) = (   3.2902200   4.4714249   6.0002472  )
        27           O1  tau(  27) = (   0.0002396   2.9813036   7.9858123  )
        28           O1  tau(  28) = (   3.2902150   2.9813002   7.3038282  )
        29           O1  tau(  29) = (   4.5938453   4.4726049   9.2879030  )
        30           O1  tau(  30) = (   1.9864658   4.4711199   9.2879459  )
        31           Ti1 tau(  31) = (   3.2891106   5.8743827   9.1763621  )
        32           Ti1 tau(  32) = (   0.0006254   4.4649316   9.2693709  )
        33           O1  tau(  33) = (   3.2902589   2.9648534  11.3782866  )
        34           O1  tau(  34) = (   0.0092240   2.9805883  10.6323155  )
        35           O1  tau(  35) = (   1.2907939   4.4579819  12.6664495  )
        36           O1  tau(  36) = (   5.2949113   4.4550998  12.6520156  )
        37           Ti1 tau(  37) = (   0.0082621   5.9437129  12.5015890  )
        38           Ti1 tau(  38) = (   3.2989848   4.4491302  12.5337562  )
        39           O1  tau(  39) = (   6.5545586   3.0159292  14.9830317  )
        40           O1  tau(  40) = (   3.2960925   2.9977268  13.9872472  )
        41           O1  tau(  41) = (   4.5245867   4.4695491  16.2648171  )
        42           O1  tau(  42) = (   2.0004542   4.4779941  16.2115700  )
        43           Ti1 tau(  43) = (   3.2998562   0.0139781  15.8031611  )
        44           Ti1 tau(  44) = (   0.0298651   4.5190837  16.0363964  )
        45           O1  tau(  45) = (   3.2900926   2.9813045   4.7018136  )
        46           O1  tau(  46) = (   1.3039711   4.4726057   6.0039043  )
        47           O1  tau(  47) = (   5.2763189   4.4711207   6.0039473  )
        48           N1  tau(  48) = (   0.7490466   2.5008218  18.8353846  )
        49           N1  tau(  49) = (   6.4369825   3.4031575  18.1751453  )
        50           C1  tau(  50) = (   1.9829018   2.9174465  19.1941100  )
        51           H1  tau(  51) = (   2.1359794   3.9544348  19.4490303  )
        52           H1  tau(  52) = (   2.6935556   2.1521737  19.4548401  )
        53           H1  tau(  53) = (   0.6355624   1.5475814  18.4636284  )
        54           H1  tau(  54) = (   6.4936903   4.3158724  18.6511896  )
        55           H1  tau(  55) = (   5.4890587   3.0624770  18.3097170  )

     number of k points=    10  Fermi-Dirac smearing, width (Ry)=  0.0073
                       cart. coord. in units 2pi/alat
        k(    1) = (   0.0000000   0.0000000   0.0000000), wk =   0.1250000
        k(    2) = (   0.0000000   0.0419351   0.0000000), wk =   0.2500000
        k(    3) = (   0.0000000  -0.0838702   0.0000000), wk =   0.1250000
        k(    4) = (   0.0379955   0.0000049   0.0000000), wk =   0.2500000
        k(    5) = (   0.0379955   0.0419400   0.0000000), wk =   0.2500000
        k(    6) = (   0.0379955  -0.0838652   0.0000000), wk =   0.2500000
        k(    7) = (   0.0379955  -0.0419301   0.0000000), wk =   0.2500000
        k(    8) = (  -0.0759910  -0.0000099   0.0000000), wk =   0.1250000
        k(    9) = (  -0.0759910   0.0419252   0.0000000), wk =   0.2500000
        k(   10) = (  -0.0759910  -0.0838800   0.0000000), wk =   0.1250000

     Initial potential from superposition of free atoms

     starting charge  380.99914, renormalised to  397.00000

     negative rho (up, down):  1.606E-02 0.000E+00

     %%%%%%%%%%%%%%%%%%%%%%%%%%%%%%%%%%%%%%%%%%%%%%%%%%%%%%%%%%%%%%%%%%%%%%%%
     %                                                                      %
     % You are using vdW-DF, which was implemented by the Thonhauser group. %
     % Please cite the following two papers that made this development      %
     % possible and the two reviews that describe the various versions:     %
     %                                                                      %
     %   T. Thonhauser et al., PRL 115, 136402 (2015).                      %
     %   T. Thonhauser et al., PRB 76, 125112 (2007).                       %
     %   K. Berland et al., Rep. Prog. Phys. 78, 066501 (2015).             %
     %   D.C. Langreth et al., J. Phys.: Condens. Matter 21, 084203 (2009). %
     %                                                                      %
     %                                                                      %
     % If you are calculating the stress with vdW-DF, please also cite:     %
     %                                                                      %
     %   R. Sabatini et al., J. Phys.: Condens. Matter 24, 424209 (2012).   %
     %                                                                      %
     %%%%%%%%%%%%%%%%%%%%%%%%%%%%%%%%%%%%%%%%%%%%%%%%%%%%%%%%%%%%%%%%%%%%%%%%

     Adding external electric field

     Computed dipole along edir(3) :
        Dipole              -10.6770 Ry au,        -27.1381 Debye
        Dipole field         -0.0201 Ry au,

        Potential amp.        1.8678 Ry
        Total length         46.3494 bohr

     Starting wfcs are  301 atomic wfcs
  @ DRIVER MODE: Message from server: STATUS
  @ DRIVER MODE: Message from server: POSDATA
  @ DRIVER MODE: Reading and sharing cell
  @ DRIVER MODE: Reading and sharing positions
  @ DRIVER MODE: Received positions

     Self-consistent Calculation

     iteration #  1     ecut=    29.40 Ry     beta= 0.05
     Davidson diagonalization with overlap
     c_bands:  2 eigenvalues not converged
     c_bands:  3 eigenvalues not converged
     c_bands:  1 eigenvalues not converged
     c_bands:  4 eigenvalues not converged
     c_bands:  4 eigenvalues not converged
     c_bands:  4 eigenvalues not converged
     c_bands:  1 eigenvalues not converged
     c_bands:  2 eigenvalues not converged
     c_bands:  2 eigenvalues not converged
     ethr =  1.00E-05,  avg # of iterations = 20.0

[...]

     total energy              =   -2465.31262517 Ry
     estimated scf accuracy    <    5331.47916051 Ry

     iteration #  2     ecut=    29.40 Ry     beta= 0.05
     Davidson diagonalization with overlap
     ethr =  1.00E-02,  avg # of iterations = 23.9

[...]

     iteration # 93     ecut=    29.40 Ry     beta= 0.05
     Davidson diagonalization with overlap
     ethr =  1.29E-10,  avg # of iterations = 10.2

[...]

     total energy              =   -2941.51040744 Ry
     estimated scf accuracy    <       0.00000016 Ry

     iteration # 95     ecut=    29.40 Ry     beta= 0.05
     Davidson diagonalization with overlap
     c_bands:  1 eigenvalues not converged
     ethr =  3.98E-11,  avg # of iterations = 15.9

     negative rho (up, down):  1.513E-02 0.000E+00

     Adding external electric field

     Computed dipole along edir(3) :
        Dipole                1.2058 Ry au,          3.0648 Debye
        Dipole field          0.0023 Ry au,

        Potential amp.       -0.2109 Ry
        Total length         46.3494 bohr

     End of self-consistent calculation

          k = 0.0000 0.0000 0.0000 ( 18029 PWs)   bands (ev):

   -55.3812 -55.3442 -55.3357 -55.3015 -55.2629 -55.2569 -55.2282 -55.2100
   -55.1867 -55.1839 -55.1756 -55.1660 -55.1323 -55.0320 -54.3686 -54.3346
   -31.9440 -31.8290 -31.7776 -31.7502 -31.6990 -31.6885 -31.6828 -31.6725
   -31.6243 -31.6158 -31.5933 -31.5803 -31.5710 -31.5467 -31.5404 -31.5334
   -31.5209 -31.5051 -31.5038 -31.4883 -31.4874 -31.4521 -31.4503 -31.4403
   -31.4401 -31.4123 -31.3933 -31.3932 -31.3928 -31.3877 -31.3727 -31.3649
   -31.3638 -31.3582 -31.3578 -31.3552 -31.3232 -31.2990 -31.2938 -31.2774
   -31.2469 -31.2025 -30.7782 -30.6835 -30.6615 -30.5945 -30.5077 -30.3968
   -18.9470 -16.2137 -15.9603 -15.8133 -15.7058 -15.5879 -15.4794 -15.4243
   -15.3181 -15.2466 -15.1336 -15.0836 -15.0673 -15.0352 -15.0260 -15.0140
   -14.9342 -14.9278 -14.9100 -14.8869 -14.8812 -14.8392 -14.8276 -14.7867
   -14.7617 -14.7563 -14.6343 -14.5484 -14.4737 -14.3141 -14.3115 -12.8716
   -12.7541  -9.8658  -7.5047  -6.2454  -4.9891  -4.0292  -3.6054  -3.5461
    -3.4071  -3.2991  -3.2781  -3.2451  -3.1417  -2.9610  -2.8243  -2.7919
    -2.6749  -2.5942  -2.5809  -2.5502  -2.4252  -2.3883  -2.3500  -2.2852
    -2.2553  -2.1926  -2.1739  -2.1629  -2.1436  -2.1199  -2.0946  -1.9949
    -1.9550  -1.8591  -1.8196  -1.7857  -1.7448  -1.7275  -1.7072  -1.6766
    -1.6665  -1.6122  -1.5992  -1.5846  -1.5354  -1.4179  -1.2967  -1.2633
    -1.1754  -1.0269  -0.9898  -0.9693  -0.9131  -0.8772  -0.8557  -0.8246
    -0.7637  -0.7246  -0.6638  -0.6064  -0.5389  -0.4957  -0.4484  -0.4100
    -0.3768  -0.2924  -0.2118  -0.1666  -0.1535  -0.1369  -0.0371  -0.0009
     0.0531   0.1305   0.1322   0.1446   0.1871   0.2694   0.3467   0.3634
     0.3874   0.4927   0.4975   0.5403   0.5429   0.5629   0.5972   0.6313
     0.6820   0.7091   0.7963   0.8928   1.1182   1.2196   1.2233   1.5468
     1.5576   1.6538   1.8369   2.2304   2.2789   3.7106   3.7811   3.8030
     3.8584   3.8614   3.9313   3.9477   4.1934   4.2190   4.2195   4.2384

[...]

          k = 0.0380-0.0419 0.0000 ( 17876 PWs)   bands (ev):

[...]

          k =-0.0760-0.0000 0.0000 ( 17886 PWs)   bands (ev):

[...]

          k =-0.0760-0.0839 0.0000 ( 17948 PWs)   bands (ev):

   -55.3671 -55.3581 -55.3187 -55.3184 -55.2525 -55.2476 -55.2434 -55.1942
   -55.1909 -55.1887 -55.1838 -55.1496 -55.1489 -55.0342 -54.3517 -54.3514
   -31.7531 -31.7441 -31.6865 -31.6609 -31.6441 -31.6439 -31.6257 -31.6096
   -31.6095 -31.5927 -31.5848 -31.5766 -31.5613 -31.5294 -31.5272 -31.5228
   -31.5222 -31.5210 -31.5095 -31.5053 -31.4764 -31.4640 -31.4600 -31.4504
   -31.4451 -31.4407 -31.4385 -31.4381 -31.4352 -31.4267 -31.4239 -31.4070
   -31.4067 -31.4034 -31.3839 -31.3822 -31.3819 -31.3738 -31.3301 -31.3293
   -31.2965 -31.2487 -30.6742 -30.6740 -30.5907 -30.5905 -30.5512 -30.5511
   -18.9410 -15.7660 -15.5963 -15.5772 -15.4329 -15.3967 -15.3539 -15.3429
   -15.2492 -15.2142 -15.1877 -15.1567 -15.1358 -15.1001 -15.0865 -15.0701
   -15.0125 -14.9901 -14.9844 -14.9646 -14.9055 -14.9011 -14.8934 -14.8905
   -14.8358 -14.8326 -14.8249 -14.7420 -14.7390 -14.6258 -14.2399 -12.8556
   -12.8555  -9.8349  -7.4664  -6.2413  -5.0873  -3.9712  -3.6321  -2.8536
    -2.8478  -2.8340  -2.6489  -2.5661  -2.5434  -2.5384  -2.4482  -2.4105
    -2.3658  -2.3630  -2.3099  -2.3034  -2.2762  -2.2355  -2.2240  -2.2041
    -2.1853  -2.1768  -2.1410  -2.1175  -2.1077  -2.0779  -2.0470  -2.0313
    -2.0231  -2.0015  -1.9709  -1.9513  -1.9393  -1.8873  -1.7740  -1.7587
    -1.6642  -1.5966  -1.5923  -1.5189  -1.4949  -1.4532  -1.4451  -1.4202
    -1.3754  -1.1967  -1.1649  -1.1336  -1.1259  -1.0409  -0.9879  -0.9168
    -0.9109  -0.8852  -0.8502  -0.7573  -0.7205  -0.7010  -0.6251  -0.6018
    -0.5345  -0.4911  -0.4280  -0.3973  -0.3430  -0.3411  -0.3048  -0.2920
    -0.2674  -0.2034  -0.1571  -0.1229  -0.1104  -0.0788   0.1178   0.1275
     0.1432   0.2511   0.2969   0.4438   0.4587   0.5217   0.6276   0.6535
     0.7240   0.7489   0.9050   0.9173   0.9311   0.9857   0.9938   1.0636
     1.0730   2.0099   2.0104   2.0987   2.0990   3.6789   3.8969   3.9685
     3.9834   4.0166   4.1401   4.2092   4.2281   4.2964   4.2991   4.3283

     the Fermi energy is     3.7765 ev

!    total energy              =   -2941.51042571 Ry
     estimated scf accuracy    <       0.00000005 Ry
     smearing contrib. (-TS)   =      -0.04444837 Ry
     internal energy E=F+TS    =   -2941.46597734 Ry

     The total energy is F=E-TS. E is the sum of the following terms:
     one-electron contribution =  -23633.78811143 Ry
     hartree contribution      =   11909.17985572 Ry
     xc contribution           =    -486.88681146 Ry
     ewald contribution        =    9270.02634602 Ry
     electric field correction =       0.00274381 Ry

     convergence has been achieved in  95 iterations

     Forces acting on atoms (cartesian axes, Ry/au):

     atom    1 type  1   force =     0.00013304   -0.00018507    0.09303934
     atom    2 type  1   force =    -0.00007901   -0.00045272   -0.17840037
     atom    3 type  2   force =     0.00004519   -0.00037077   -0.02005644
     atom    4 type  2   force =    -0.00000878   -0.00201652    0.05931794
     atom    5 type  2   force =    -0.01030679   -0.00098785    0.00818237
     atom    6 type  2   force =     0.01173616   -0.00038904    0.00732575
     atom    7 type  1   force =    -0.00038259    0.00240171   -0.01418524
     atom    8 type  1   force =     0.00023060   -0.00122206   -0.00618924
     atom    9 type  2   force =    -0.00023296    0.00021712    0.00014939
     atom   10 type  2   force =    -0.00162576    0.00148426    0.00164340
     atom   11 type  2   force =    -0.00005288   -0.00016496    0.00010664
     atom   12 type  2   force =    -0.00017464   -0.00016520   -0.00000563
     atom   13 type  1   force =     0.00006847   -0.00027188    0.00002611
     atom   14 type  1   force =     0.00017532    0.00019393    0.00027145
     atom   15 type  2   force =    -0.00009944    0.00009297   -0.00020038
     atom   16 type  2   force =     0.00017357   -0.00022483    0.00014170
     atom   17 type  2   force =    -0.00005398   -0.00004933    0.00039366
     atom   18 type  2   force =    -0.00030829   -0.00005540   -0.00012651
     atom   19 type  1   force =    -0.00011499   -0.00015854    0.00014549
     atom   20 type  1   force =    -0.00018556    0.00032306    0.00013627
     atom   21 type  2   force =     0.00005816   -0.00008499    0.10397134
     atom   22 type  2   force =     0.00008049   -0.00063295   -0.00012100
     atom   23 type  2   force =    -0.07031145   -0.00016874   -0.02686895
     atom   24 type  2   force =     0.07019744    0.00027681   -0.02689494
     atom   25 type  1   force =    -0.00000874   -0.00013976    0.09260608
     atom   26 type  1   force =    -0.00006752   -0.00039811   -0.17857066
     atom   27 type  2   force =     0.00009554   -0.00030337   -0.01915140
     atom   28 type  2   force =     0.00003851   -0.00178581    0.05865588
     atom   29 type  2   force =    -0.01080222   -0.00126348    0.00872920
     atom   30 type  2   force =     0.01215452   -0.00086375    0.00783280
     atom   31 type  1   force =    -0.00028896    0.00613731   -0.01442851
     atom   32 type  1   force =     0.00028351    0.00069998   -0.00651124
     atom   33 type  2   force =    -0.00022765   -0.00024915    0.00001002
     atom   34 type  2   force =    -0.00093381   -0.00222765   -0.00015661
     atom   35 type  2   force =    -0.00040998    0.00024031    0.00015228
     atom   36 type  2   force =     0.00011619    0.00019738   -0.00026920
     atom   37 type  1   force =     0.00017909   -0.00001768    0.00001854
     atom   38 type  1   force =     0.00032300    0.00020180    0.00008051
     atom   39 type  2   force =    -0.00022961    0.00017947   -0.00026280
     atom   40 type  2   force =    -0.00008935   -0.00015033   -0.00005732
     atom   41 type  2   force =     0.00015368    0.00022852    0.00019683
     atom   42 type  2   force =    -0.00035199    0.00008296    0.00009171
     atom   43 type  1   force =     0.00044672    0.00005335    0.00015119
     atom   44 type  1   force =     0.00012242   -0.00019408   -0.00060104
     atom   45 type  2   force =     0.00004486   -0.00008970    0.10396583
     atom   46 type  2   force =    -0.07029037   -0.00010748   -0.02682561
     atom   47 type  2   force =     0.07016636    0.00030809   -0.02686034
     atom   48 type  3   force =     0.00223490   -0.00618539    0.00086747
     atom   49 type  3   force =     0.00393577    0.02114382    0.00344345
     atom   50 type  4   force =    -0.00083866    0.00078300   -0.00113703
     atom   51 type  5   force =     0.00039750   -0.00091288    0.00000245
     atom   52 type  5   force =     0.00012263    0.00044863    0.00024359
     atom   53 type  5   force =     0.00050658    0.00078548    0.00120055
     atom   54 type  5   force =    -0.00071142   -0.00968480   -0.00634422
     atom   55 type  5   force =    -0.00503284   -0.00430566    0.00112544

     Total force =     0.367356     Total SCF correction =     0.000640
  @ DRIVER MODE: Message from server: STATUS
  @ DRIVER MODE: Message from server: GETFORCE
  @ DRIVER MODE: Returning v,forces,stress,ensemble

     Writing output data file ./calc.save/
  @ DRIVER MODE: Message from server: EXIT
  @ DRIVE MODE: Exiting

     General routines

     Parallel routines

   This run was terminated on:  21:14: 6  10Sep2021

   JOB DONE.