     Program PWSCF v.6.7GPU starts on 15Jul2021 at 17:54:21

     R & G space division:  proc/nbgrp/npool/nimage =      16
     Reading input from /storage/home/hcoda1/3/ntian30/research/carbon/15Jul_vib/ads_slab/CH3NH_b/out_0003/pw.inp
Warning: card &CELL ignored
Warning: card   CELL_DYNAMICS='IPI', ignored
Warning: card / ignored

     Current dimensions of program PWSCF are:
     Max number of different atomic species (ntypx) = 10
     Max number of k-points (npk) =  40000
     Max angular momentum in pseudopotentials (lmaxx) =  3
     Presently no symmetry can be used with electric field

     Message from routine cell_base_init:
     DEPRECATED: use true lattice parameter, not A to a.u. conversion factor

     IMPORTANT: XC functional enforced from input :
     Exchange-correlation= BEEF-VDW
                           (   1   4  43  14   2   0   0)
     Any further DFT definition will be discarded
     Please, verify this is what you really want

  @ DRIVER MODE: Connecting to
 qe_1139763_2351649.sched-torque.pace.gatech.eduwvvqe15k_scratch
  using UNIX socket
  @ DRIVER MODE: Message from server: STATUS
  @ DRIVER MODE: Message from server: INIT
  @ DRIVER MODE: Receiving replica           0          -1
  @ DRIVER MODE: Receiving encoded integer          25
  @ DRIVER MODE:  SCF:  T  FORCE:  T  STRESS:  F  VC:  F  ENSEMBLE:  F
  @ DRIVER MODE:  SCF:  T  FORCE:  T  STRESS:  F  VC:  F  ENSEMBLE:  F

     Using Slab Decomposition

     bravais-lattice index     =            0
     lattice parameter (alat)  =       1.8897  a.u.
     unit-cell volume          =    6658.9804 (a.u.)^3
     number of atoms/cell      =           53
     number of atomic types    =            5
     number of electrons       =       391.00
     number of Kohn-Sham states=          205
     kinetic-energy cutoff     =      29.3995  Ry
     charge density cutoff     =     293.9946  Ry
     scf convergence threshold =      7.3E-08
     mixing beta               =       0.0500
     number of iterations used =            8  plain     mixing
     Exchange-correlation= BEEF-VDW
                           (   1   4  43  14   2   0   0)

     celldm(1)=   1.889726  celldm(2)=   0.000000  celldm(3)=   0.000000
     celldm(4)=   0.000000  celldm(5)=   0.000000  celldm(6)=   0.000000

     crystal axes: (cart. coord. in units of alat)
               a(1) = (   6.579727   0.000000   0.000000 )
               a(2) = (  -0.000775   5.961596   0.000000 )
               a(3) = (   0.000000   0.000000  25.155947 )

     reciprocal axes: (cart. coord. in units 2 pi/alat)
               b(1) = (  0.151982  0.000020  0.000000 )
               b(2) = (  0.000000  0.167740  0.000000 )
               b(3) = (  0.000000  0.000000  0.039752 )

     PseudoPot. # 1 for Ti read from file:
     /storage/coda1/p-amedford6/0/shared/rich_project_chbe-medford/medford-share/data/pseudos_module/espresso/nninc/pbe/van/Ti.UPF
     MD5 check sum: 8e4df49b7f0d34bbd5052bf3f5ea0213
     Pseudo is Ultrasoft, Zval = 12.0
     Generated by new atomic code, or converted to UPF format
     Using radial grid of  851 points,  6 beta functions with:
                l(1) =   0
                l(2) =   0
                l(3) =   1
                l(4) =   1
                l(5) =   2
                l(6) =   2
     Q(r) pseudized with  8 coefficients,  rinner =    1.000   1.000   1.000
                                                       1.000   1.000

     PseudoPot. # 2 for O  read from file:
     /storage/coda1/p-amedford6/0/shared/rich_project_chbe-medford/medford-share/data/pseudos_module/espresso/nninc/pbe/van/O.UPF
     MD5 check sum: 78c19812648e8988a0fe644b0f25305e
     Pseudo is Ultrasoft, Zval =  6.0
     Generated by new atomic code, or converted to UPF format
     Using radial grid of  737 points,  4 beta functions with:
                l(1) =   0
                l(2) =   0
                l(3) =   1
                l(4) =   1
     Q(r) pseudized with  8 coefficients,  rinner =    0.800   0.800   0.800

     PseudoPot. # 3 for H  read from file:
     /storage/coda1/p-amedford6/0/shared/rich_project_chbe-medford/medford-share/data/pseudos_module/espresso/nninc/pbe/van/H.UPF
     MD5 check sum: b5ee9d7bfd3a09ee7748110bda690ff7
     Pseudo is Ultrasoft, Zval =  1.0
     Generated by new atomic code, or converted to UPF format
     Using radial grid of  615 points,  1 beta functions with:
                l(1) =   0
     Q(r) pseudized with  8 coefficients,  rinner =    0.800

     PseudoPot. # 4 for N  read from file:
     /storage/coda1/p-amedford6/0/shared/rich_project_chbe-medford/medford-share/data/pseudos_module/espresso/nninc/pbe/van/N.UPF
     MD5 check sum: 90d10febe142ad51ac9d5be1deb811c4
     Pseudo is Ultrasoft, Zval =  5.0
     Generated by new atomic code, or converted to UPF format
     Using radial grid of  729 points,  4 beta functions with:
                l(1) =   0
                l(2) =   0
                l(3) =   1
                l(4) =   1
     Q(r) pseudized with  8 coefficients,  rinner =    0.800   0.800   0.800

     PseudoPot. # 5 for C  read from file:
     /storage/coda1/p-amedford6/0/shared/rich_project_chbe-medford/medford-share/data/pseudos_module/espresso/nninc/pbe/van/C.UPF
     MD5 check sum: 1a69bf6b8db32088f5b2163dbdb77a27
     Pseudo is Ultrasoft, Zval =  4.0
     Generated by new atomic code, or converted to UPF format
     Using radial grid of  721 points,  4 beta functions with:
                l(1) =   0
                l(2) =   0
                l(3) =   1
                l(4) =   1
     Q(r) pseudized with  8 coefficients,  rinner =    0.800   0.800   0.800

     atomic species   valence    mass     pseudopotential
        Ti1           12.00    47.86700     Ti( 1.00)
        O1             6.00    15.99900     O ( 1.00)
        H1             1.00     1.00800     H ( 1.00)
        N1             5.00    14.00700     N ( 1.00)
        C1             4.00    12.01100     C ( 1.00)

     Starting magnetic structure
     atomic species   magnetization
        Ti1          0.000
        O1           0.000
        H1           0.000
        N1           0.000
        C1           0.025

     No symmetry found

   Cartesian axes

     site n.     atom                  positions (alat units)
         1           Ti1 tau(   1) = (   0.0004258   2.9801865   6.0000000  )
         2           Ti1 tau(   2) = (   3.2906075   1.4906267   6.0002472  )
         3           O1  tau(   3) = (   0.0006271   0.0005054   7.9858123  )
         4           O1  tau(   4) = (   3.2906025   0.0005020   7.3038282  )
         5           O1  tau(   5) = (   4.5942328   1.4918067   9.2879030  )
         6           O1  tau(   6) = (   1.9868534   1.4903216   9.2879459  )
         7           Ti1 tau(   7) = (   3.2907910   2.8959150   9.1758416  )
         8           Ti1 tau(   8) = (   0.0015273   1.4827037   9.2680791  )
         9           O1  tau(   9) = (   3.2906183   5.9580730  11.3246990  )
        10           O1  tau(  10) = (   0.0116148   5.9584955  10.6183126  )
        11           O1  tau(  11) = (   1.3160896   1.4863360  12.6200149  )
        12           O1  tau(  12) = (   5.2947061   1.4800608  12.6053981  )
        13           Ti1 tau(  13) = (   6.5224157   2.9421717  12.6196007  )
        14           Ti1 tau(  14) = (   3.2076970   1.4879367  12.4696142  )
        15           O1  tau(  15) = (   6.5517659   0.0158556  14.6493665  )
        16           O1  tau(  16) = (   3.3109316   0.0069331  13.9179417  )
        17           O1  tau(  17) = (   4.5083530   1.5297238  16.0872293  )
        18           O1  tau(  18) = (   2.0274073   1.5273405  16.0409094  )
        19           Ti1 tau(  19) = (   3.2920608   3.0081397  15.6838061  )
        20           Ti1 tau(  20) = (   0.0536170   1.5416865  15.8648894  )
        21           O1  tau(  21) = (   3.2904802   0.0005063   4.7018136  )
        22           O1  tau(  22) = (   0.0122827   0.0301012  17.2134340  )
        23           O1  tau(  23) = (   1.3043587   1.4918075   6.0039043  )
        24           O1  tau(  24) = (   5.2767064   1.4903225   6.0039473  )
        25           Ti1 tau(  25) = (   0.0000382   5.9609847   6.0000000  )
        26           Ti1 tau(  26) = (   3.2902200   4.4714249   6.0002472  )
        27           O1  tau(  27) = (   0.0002396   2.9813036   7.9858123  )
        28           O1  tau(  28) = (   3.2902150   2.9813002   7.3038282  )
        29           O1  tau(  29) = (   4.5938453   4.4726049   9.2879030  )
        30           O1  tau(  30) = (   1.9864658   4.4711199   9.2879459  )
        31           Ti1 tau(  31) = (   3.2891106   5.8743827   9.1763621  )
        32           Ti1 tau(  32) = (   0.0006254   4.4649316   9.2693709  )
        33           O1  tau(  33) = (   3.2866862   2.9837957  11.3234553  )
        34           O1  tau(  34) = (   0.0092240   2.9805883  10.6323155  )
        35           O1  tau(  35) = (   1.3095649   4.4762946  12.6335636  )
        36           O1  tau(  36) = (   5.2963019   4.4650584  12.6194355  )
        37           Ti1 tau(  37) = (   6.5192018   5.9199268  12.5733442  )
        38           Ti1 tau(  38) = (   3.2055211   4.4685508  12.4747853  )
        39           O1  tau(  39) = (   6.5624772   2.9349094  14.6472044  )
        40           O1  tau(  40) = (   3.3065106   2.9879112  13.8942307  )
        41           O1  tau(  41) = (   4.5199725   4.4841037  16.0899424  )
        42           O1  tau(  42) = (   2.0389375   4.4882992  16.0664246  )
        43           Ti1 tau(  43) = (   3.3279474   0.0221627  15.7114356  )
        44           Ti1 tau(  44) = (   0.0314192   4.6578676  16.1055029  )
        45           O1  tau(  45) = (   3.2900926   2.9813045   4.7018136  )
        46           O1  tau(  46) = (   1.3039711   4.4726057   6.0039043  )
        47           O1  tau(  47) = (   5.2763189   4.4711207   6.0039473  )
        48           H1  tau(  48) = (   5.5751926   2.9145997  17.7795037  )
        49           N1  tau(  49) = (   6.5345126   2.9709300  17.4463781  )
        50           C1  tau(  50) = (   0.8205834   2.9192471  18.6315588  )
        51           H1  tau(  51) = (   0.6379014   3.7726647  19.2931901  )
        52           H1  tau(  52) = (   0.6616828   1.9903841  19.1881566  )
        53           H1  tau(  53) = (   1.8691752   2.9530840  18.3388921  )

     number of k points=    10  Fermi-Dirac smearing, width (Ry)=  0.0073
                       cart. coord. in units 2pi/alat
        k(    1) = (   0.0000000   0.0000000   0.0000000), wk =   0.0625000
        k(    2) = (   0.0000000   0.0419351   0.0000000), wk =   0.1250000
        k(    3) = (   0.0000000  -0.0838702   0.0000000), wk =   0.0625000
        k(    4) = (   0.0379955   0.0000049   0.0000000), wk =   0.1250000
        k(    5) = (   0.0379955   0.0419400   0.0000000), wk =   0.1250000
        k(    6) = (   0.0379955  -0.0838652   0.0000000), wk =   0.1250000
        k(    7) = (   0.0379955  -0.0419301   0.0000000), wk =   0.1250000
        k(    8) = (  -0.0759910  -0.0000099   0.0000000), wk =   0.0625000
[...]

     Initial potential from superposition of free atoms

     starting charge  374.99916, renormalised to  391.00000

     negative rho (up, down):  8.890E-03 8.897E-03

     %%%%%%%%%%%%%%%%%%%%%%%%%%%%%%%%%%%%%%%%%%%%%%%%%%%%%%%%%%%%%%%%%%%%%%%%
     %                                                                      %
     % You are using vdW-DF, which was implemented by the Thonhauser group. %
     % Please cite the following two papers that made this development      %
     % possible and the two reviews that describe the various versions:     %
     %                                                                      %
     %   T. Thonhauser et al., PRL 115, 136402 (2015).                      %
     %   T. Thonhauser et al., PRB 76, 125112 (2007).                       %
     %   K. Berland et al., Rep. Prog. Phys. 78, 066501 (2015).             %
     %   D.C. Langreth et al., J. Phys.: Condens. Matter 21, 084203 (2009). %
     %                                                                      %
     %                                                                      %
     % If you are calculating the stress with vdW-DF, please also cite:     %
     %                                                                      %
     %   R. Sabatini et al., J. Phys.: Condens. Matter 24, 424209 (2012).   %
     %                                                                      %
     %%%%%%%%%%%%%%%%%%%%%%%%%%%%%%%%%%%%%%%%%%%%%%%%%%%%%%%%%%%%%%%%%%%%%%%%

     Adding external electric field

     Computed dipole along edir(3) :
        Dipole               -5.8162 Ry au,        -14.7834 Debye
        Dipole field         -0.0110 Ry au,

        Potential amp.        1.0175 Ry
        Total length         46.3494 bohr

[...]

     Starting wfcs are  296 atomic wfcs
  @ DRIVER MODE: Message from server: STATUS
  @ DRIVER MODE: Message from server: POSDATA
  @ DRIVER MODE: Reading and sharing cell
  @ DRIVER MODE: Reading and sharing positions
  @ DRIVER MODE: Received positions

     Self-consistent Calculation

     iteration #  1     ecut=    29.40 Ry     beta= 0.05
     Davidson diagonalization with overlap
     c_bands:  2 eigenvalues not converged
     c_bands:  2 eigenvalues not converged
     c_bands:  1 eigenvalues not converged
     c_bands:  3 eigenvalues not converged
     c_bands:  4 eigenvalues not converged
     c_bands:  2 eigenvalues not converged
     c_bands:  1 eigenvalues not converged
     c_bands:  1 eigenvalues not converged
     c_bands:  2 eigenvalues not converged
     c_bands:  3 eigenvalues not converged
     c_bands:  1 eigenvalues not converged
     c_bands:  1 eigenvalues not converged
     c_bands:  3 eigenvalues not converged
     c_bands:  4 eigenvalues not converged
     c_bands:  3 eigenvalues not converged
     c_bands:  1 eigenvalues not converged
     c_bands:  1 eigenvalues not converged
     c_bands:  2 eigenvalues not converged
     ethr =  1.00E-05,  avg # of iterations = 19.6

[...]

     total energy              =   -2770.80086892 Ry
     estimated scf accuracy    <    1640.05722268 Ry

     total magnetization       =     0.01 Bohr mag/cell
     absolute magnetization    =     0.02 Bohr mag/cell

[...]

     iteration #  3     ecut=    29.40 Ry     beta= 0.05
     Davidson diagonalization with overlap
     ethr =  1.00E-02,  avg # of iterations = 15.3

[...]

     iteration # 75     ecut=    29.40 Ry     beta= 0.05
     Davidson diagonalization with overlap
     c_bands:  1 eigenvalues not converged
     ethr =  6.79E-11,  avg # of iterations = 10.8

[...]

     total energy              =   -2920.42463774 Ry
     estimated scf accuracy    <       0.00000009 Ry

[...]

     iteration # 77     ecut=    29.40 Ry     beta= 0.05
     Davidson diagonalization with overlap
     ethr =  2.25E-11,  avg # of iterations =  9.3

     negative rho (up, down):  9.094E-03 9.092E-03

[...]

     Adding external electric field

     Computed dipole along edir(3) :
        Dipole                0.6839 Ry au,          1.7383 Debye
        Dipole field          0.0013 Ry au,

        Potential amp.       -0.1196 Ry
        Total length         46.3494 bohr

     Magnetic moment per site  (integrated on atomic sphere of radius R)
     atom   1 (R=0.715)  charge=  7.8451  magn= -0.0118
     atom   2 (R=0.715)  charge=  7.8287  magn= -0.0002
     atom   3 (R=0.715)  charge=  4.8552  magn=  0.0009
     atom   4 (R=0.715)  charge=  4.8904  magn=  0.0001
     atom   5 (R=0.715)  charge=  4.8609  magn=  0.0001
     atom   6 (R=0.715)  charge=  4.8616  magn=  0.0001
     atom   7 (R=0.715)  charge=  7.8276  magn= -0.0004
     atom   8 (R=0.715)  charge=  7.8193  magn= -0.0033
     atom   9 (R=0.715)  charge=  4.8766  magn=  0.0000
     atom  10 (R=0.715)  charge=  4.8485  magn=  0.0003
     atom  11 (R=0.715)  charge=  4.8624  magn=  0.0001
     atom  12 (R=0.715)  charge=  4.8618  magn=  0.0001
     atom  13 (R=0.715)  charge=  7.8170  magn= -0.0006
     atom  14 (R=0.715)  charge=  7.8304  magn= -0.0002
     atom  15 (R=0.715)  charge=  4.8497  magn=  0.0000
     atom  16 (R=0.715)  charge=  4.8722  magn=  0.0000
     atom  17 (R=0.715)  charge=  4.8477  magn=  0.0000
     atom  18 (R=0.715)  charge=  4.8546  magn=  0.0000
     atom  19 (R=0.715)  charge=  7.8557  magn= -0.0001
     atom  20 (R=0.715)  charge=  7.8309  magn= -0.0001
     atom  21 (R=0.715)  charge=  4.7478  magn= -0.0001
     atom  22 (R=0.715)  charge=  4.8259  magn=  0.0000
     atom  23 (R=0.715)  charge=  4.8532  magn=  0.0014
     atom  24 (R=0.715)  charge=  4.8532  magn=  0.0014
     atom  25 (R=0.715)  charge=  7.8452  magn= -0.0118
     atom  26 (R=0.715)  charge=  7.8288  magn= -0.0003
     atom  27 (R=0.715)  charge=  4.8545  magn=  0.0009
     atom  28 (R=0.715)  charge=  4.8906  magn=  0.0001
     atom  29 (R=0.715)  charge=  4.8616  magn=  0.0001
     atom  30 (R=0.715)  charge=  4.8623  magn=  0.0001
     atom  31 (R=0.715)  charge=  7.8277  magn= -0.0004
     atom  32 (R=0.715)  charge=  7.8194  magn= -0.0033
     atom  33 (R=0.715)  charge=  4.8755  magn=  0.0000
     atom  34 (R=0.715)  charge=  4.8372  magn=  0.0003
     atom  35 (R=0.715)  charge=  4.8621  magn=  0.0001
     atom  36 (R=0.715)  charge=  4.8623  magn=  0.0001
     atom  37 (R=0.715)  charge=  7.8196  magn= -0.0007
     atom  38 (R=0.715)  charge=  7.8303  magn= -0.0002
     atom  39 (R=0.715)  charge=  4.8445  magn=  0.0000
     atom  40 (R=0.715)  charge=  4.8784  magn=  0.0000
     atom  41 (R=0.715)  charge=  4.8509  magn=  0.0000
     atom  42 (R=0.715)  charge=  4.8519  magn=  0.0000
     atom  43 (R=0.715)  charge=  7.8536  magn= -0.0001
     atom  44 (R=0.715)  charge=  7.8554  magn= -0.0000
     atom  45 (R=0.715)  charge=  4.7479  magn= -0.0001
     atom  46 (R=0.715)  charge=  4.8532  magn=  0.0014
     atom  47 (R=0.715)  charge=  4.8532  magn=  0.0014
     atom  48 (R=0.420)  charge=  0.4547  magn=  0.0000
     atom  49 (R=0.420)  charge=  1.3303  magn= -0.0000
     atom  50 (R=0.449)  charge=  0.8459  magn=  0.0000
     atom  51 (R=0.420)  charge=  0.4425  magn= -0.0000
     atom  52 (R=0.420)  charge=  0.4416  magn= -0.0000
     atom  53 (R=0.420)  charge=  0.4482  magn= -0.0000

     End of self-consistent calculation

 ------ SPIN UP ------------

          k = 0.0000 0.0000 0.0000 ( 18029 PWs)   bands (ev):

   -55.9876 -55.9836 -55.9515 -55.9496 -55.9025 -55.8379 -55.8373 -55.8029
   -55.7959 -55.7619 -55.7590 -55.7254 -55.5392 -55.2723 -54.9674 -54.9334
   -32.5465 -32.4714 -32.3497 -32.3393 -32.3150 -32.2924 -32.2753 -32.2501
   -32.2354 -32.2256 -32.2113 -32.2040 -32.1702 -32.1395 -32.1338 -32.1333
   -32.1300 -32.0932 -32.0758 -32.0477 -32.0388 -32.0380 -32.0253 -31.9977
   -31.9907 -31.9902 -31.9827 -31.9756 -31.9621 -31.9571 -31.9532 -31.9432
   -31.9342 -31.9258 -31.9120 -31.9030 -31.8715 -31.8086 -31.7104 -31.5469
   -31.5419 -31.4671 -31.3743 -31.2861 -31.2637 -31.1907 -31.1043 -30.9935
   -16.7557 -16.4726 -16.2929 -16.1500 -16.1177 -16.0322 -15.8314 -15.7048
   -15.6924 -15.5887 -15.5557 -15.5300 -15.5229 -15.4962 -15.4912 -15.4304
   -15.4284 -15.4151 -15.4058 -15.3484 -15.3240 -15.2708 -15.1914 -15.1583
   -15.1529 -15.1257 -15.0433 -15.0383 -14.5847 -14.1739 -13.4693 -13.3529
    -8.9272  -4.3598  -4.1266  -3.9523  -3.9130  -3.8967  -3.8474  -3.5928
    -3.5785  -3.3292  -3.2279  -3.1926  -3.1776  -3.1685  -3.1486  -3.1376
    -2.8911  -2.8245  -2.8087  -2.7872  -2.7794  -2.7734  -2.7612  -2.7604
    -2.7211  -2.6585  -2.5329  -2.4980  -2.4195  -2.3825  -2.3519  -2.3034
    -2.2606  -2.2535  -2.2424  -2.2237  -2.2108  -2.1871  -2.1707  -2.0367
    -1.9708  -1.8358  -1.8009  -1.7815  -1.5954  -1.5363  -1.4724  -1.4334
    -1.4201  -1.4129  -1.3810  -1.2996  -1.2083  -1.1520  -1.1418  -1.0854
    -1.0081  -0.9968  -0.8891  -0.8838  -0.8569  -0.7660  -0.7561  -0.7446
    -0.7258  -0.6571  -0.5573  -0.4802  -0.4350  -0.4046  -0.3742  -0.3046
    -0.2742  -0.1719  -0.1567  -0.1088  -0.1031  -0.0616  -0.0169  -0.0072
     0.0018   0.0096   0.0349   0.1773   0.2883   0.3434   0.3835   0.3891
     0.5438   0.5712   0.6687   0.7567   0.9823   1.0553   1.1476   1.2477
     1.3237   1.6257   1.6715   3.1552   3.2401   3.2846   3.2900   3.3943
     3.3978   3.6051   3.6086   3.6222   3.6881

[...]

          k =-0.0760-0.0000 0.0000 ( 17886 PWs)   bands (ev):

[...]

 ------ SPIN DOWN ----------

[...]

          k = 0.0380-0.0419 0.0000 ( 17876 PWs)   bands (ev):

[...]

          k =-0.0760-0.0839 0.0000 ( 17948 PWs)   bands (ev):

   -55.9895 -55.9888 -55.9712 -55.9685 -55.8977 -55.8432 -55.8220 -55.8206
   -55.7859 -55.7840 -55.7435 -55.7425 -55.5383 -55.2733 -54.9504 -54.9503
   -32.3517 -32.3481 -32.2967 -32.2961 -32.2861 -32.2853 -32.2812 -32.2603
   -32.1985 -32.1974 -32.1925 -32.1881 -32.1647 -32.1336 -32.1189 -32.1147
   -32.1111 -32.1104 -32.1026 -32.1014 -32.0972 -32.0834 -32.0811 -32.0491
   -32.0417 -32.0406 -32.0117 -32.0007 -31.9816 -31.9811 -31.9762 -31.9753
   -31.9584 -31.9581 -31.9577 -31.9549 -31.8777 -31.8111 -31.7059 -31.6115
   -31.5440 -31.4917 -31.2769 -31.2768 -31.1866 -31.1865 -31.1478 -31.1477
   -16.2093 -16.1742 -15.9374 -15.9256 -15.9193 -15.9032 -15.7578 -15.7109
   -15.6992 -15.6917 -15.6692 -15.6459 -15.5893 -15.5599 -15.5310 -15.5218
   -15.5158 -15.5140 -15.4521 -15.4470 -15.4235 -15.4167 -15.3034 -15.2996
   -15.2905 -15.2145 -15.1599 -15.0203 -14.7464 -14.1974 -13.4558 -13.4557
    -8.9319  -4.3715  -3.5035  -3.4633  -3.2817  -3.2438  -3.1782  -3.1616
    -3.1377  -3.0692  -2.9050  -2.8881  -2.8768  -2.8615  -2.8194  -2.8132
    -2.8028  -2.7903  -2.7834  -2.7645  -2.7312  -2.6983  -2.6599  -2.6525
    -2.6439  -2.6189  -2.6078  -2.5862  -2.5745  -2.5435  -2.5345  -2.5168
    -2.4875  -2.2256  -2.2056  -2.1947  -2.1238  -2.1172  -2.0835  -2.0659
    -2.0558  -2.0426  -1.9857  -1.8820  -1.7250  -1.6935  -1.6834  -1.6684
    -1.5847  -1.5763  -1.4224  -1.4011  -1.3810  -1.3437  -1.2896  -1.2672
    -1.2267  -1.1681  -1.1507  -1.0867  -1.0699  -1.0108  -0.9550  -0.9530
    -0.9325  -0.8571  -0.7759  -0.7605  -0.7471  -0.7072  -0.6974  -0.6109
    -0.5872  -0.4939  -0.4797  -0.4218  -0.3952  -0.2949  -0.1371  -0.0108
     0.0428   0.0686   0.1261   0.2247   0.2687   0.2812   0.3256   0.3320
     0.3930   0.4331   0.5465   0.5524   0.6272   0.7184   1.2604   1.4186
     1.4192   1.4901   1.4901   3.4109   3.4160   3.4633   3.4925   3.6413
     3.6458   3.6701   3.6713   3.7976   3.8139

     the Fermi energy is     3.1411 ev

!    total energy              =   -2920.42464543 Ry
     estimated scf accuracy    <       0.00000007 Ry
     smearing contrib. (-TS)   =      -0.02201906 Ry
     internal energy E=F+TS    =   -2920.40262637 Ry

     The total energy is F=E-TS. E is the sum of the following terms:
     one-electron contribution =  -24701.75663754 Ry
     hartree contribution      =   12435.48667286 Ry
     xc contribution           =    -480.87167950 Ry
     ewald contribution        =    9826.73813515 Ry
     electric field correction =       0.00088265 Ry

     total magnetization       =    -0.04 Bohr mag/cell
     absolute magnetization    =     0.07 Bohr mag/cell

     convergence has been achieved in  77 iterations

     Forces acting on atoms (cartesian axes, Ry/au):

     atom    1 type  1   force =     0.00010744   -0.00026033    0.09687708
     atom    2 type  1   force =     0.00001721   -0.00055740   -0.17508923
     atom    3 type  2   force =     0.00013484   -0.00007649   -0.02542974
     atom    4 type  2   force =    -0.00000630   -0.00137225    0.05232267
     atom    5 type  2   force =    -0.01236032   -0.00013381    0.00302190
     atom    6 type  2   force =     0.01377967    0.00023348    0.00238525
     atom    7 type  1   force =     0.00059798    0.00032810   -0.01267702
     atom    8 type  1   force =     0.00046995    0.00593918    0.03104687
     atom    9 type  2   force =    -0.00033397    0.00023973    0.00041451
     atom   10 type  2   force =    -0.00269741    0.00069364   -0.01625098
     atom   11 type  2   force =    -0.00040735    0.00012411    0.00016534
     atom   12 type  2   force =     0.00013605    0.00013887    0.00018883
     atom   13 type  1   force =    -0.00013766    0.00022441    0.00022793
     atom   14 type  1   force =    -0.00001983   -0.00020796   -0.00014212
     atom   15 type  2   force =     0.00020114    0.00003560    0.00035959
     atom   16 type  2   force =    -0.00006466    0.00027946    0.00022157
     atom   17 type  2   force =    -0.00002710   -0.00020614   -0.00017945
     atom   18 type  2   force =     0.00039590   -0.00011348    0.00020662
     atom   19 type  1   force =    -0.00003783    0.00031177   -0.00001529
     atom   20 type  1   force =     0.00013947   -0.00007726   -0.00061810
     atom   21 type  2   force =     0.00006640   -0.00005637    0.10313596
     atom   22 type  2   force =    -0.00012261    0.00008727    0.00025448
     atom   23 type  2   force =    -0.07163069   -0.00015884   -0.02783179
     atom   24 type  2   force =     0.07155699    0.00032429   -0.02789354
     atom   25 type  1   force =     0.00011390   -0.00024421    0.09666063
     atom   26 type  1   force =     0.00012368   -0.00031706   -0.17525584
     atom   27 type  2   force =     0.00013431   -0.00023269   -0.02450657
     atom   28 type  2   force =     0.00002833   -0.00113047    0.05224071
     atom   29 type  2   force =    -0.01248333    0.00014749    0.00267699
     atom   30 type  2   force =     0.01379146    0.00069313    0.00202254
     atom   31 type  1   force =     0.00050097    0.00288861   -0.01339389
     atom   32 type  1   force =     0.00030244   -0.00821421    0.03145958
     atom   33 type  2   force =    -0.00005744   -0.00006341   -0.00009919
     atom   34 type  2   force =    -0.00183885    0.00055905   -0.02456917
     atom   35 type  2   force =    -0.00013280    0.00010129    0.00004184
     atom   36 type  2   force =    -0.00024474    0.00020524    0.00011649
     atom   37 type  1   force =    -0.00007933    0.00027504    0.00023014
     atom   38 type  1   force =    -0.00022930   -0.00003672   -0.00015813
     atom   39 type  2   force =     0.00007316    0.00021220   -0.00012177
     atom   40 type  2   force =    -0.00016664    0.00026508   -0.00015564
     atom   41 type  2   force =    -0.00002675    0.00010319    0.00014254
     atom   42 type  2   force =    -0.00013019   -0.00002078    0.00039630
     atom   43 type  1   force =    -0.00019512   -0.00027661    0.00050039
     atom   44 type  1   force =     0.00010279   -0.00037169    0.00031969
     atom   45 type  2   force =     0.00004962   -0.00006356    0.10314304
     atom   46 type  2   force =    -0.07164181   -0.00008676   -0.02782945
     atom   47 type  2   force =     0.07157468    0.00033659   -0.02790554
     atom   48 type  3   force =     0.00019868    0.00084294   -0.00031006
     atom   49 type  4   force =    -0.00036142   -0.00108530   -0.00001544
     atom   50 type  5   force =     0.00148285    0.00042808   -0.00016185
     atom   51 type  3   force =    -0.00056796   -0.00119598   -0.00034081
     atom   52 type  3   force =     0.00029454    0.00068343   -0.00009476
     atom   53 type  3   force =    -0.00037302   -0.00014151    0.00026592

     Total force =     0.368397     Total SCF correction =     0.000494
  @ DRIVER MODE: Message from server: STATUS
  @ DRIVER MODE: Message from server: GETFORCE
  @ DRIVER MODE: Returning v,forces,stress,ensemble

     Writing output data file ./calc.save/
  @ DRIVER MODE: Message from server: EXIT
  @ DRIVE MODE: Exiting

     General routines

     Parallel routines

   This run was terminated on:  18:27:39  15Jul2021

   JOB DONE.