     Program PWSCF v.6.7GPU starts on 24Sep2021 at  3:55:11

     R & G space division:  proc/nbgrp/npool/nimage =       8
     Reading input from /storage/home/hcoda1/3/ntian30/research/carbon/CxH_vib/H2O_calc/ads_slab/CH2NNHHHO_a/out_0039/pw.inp
Warning: card &CELL ignored
Warning: card   CELL_DYNAMICS='IPI', ignored
Warning: card / ignored

     Current dimensions of program PWSCF are:
     Max number of different atomic species (ntypx) = 10
     Max number of k-points (npk) =  40000
     Max angular momentum in pseudopotentials (lmaxx) =  3
     Presently no symmetry can be used with electric field

     Message from routine cell_base_init:
     DEPRECATED: use true lattice parameter, not A to a.u. conversion factor

     IMPORTANT: XC functional enforced from input :
     Exchange-correlation= BEEF-VDW
                           (   1   4  43  14   2   0   0)
     Any further DFT definition will be discarded
     Please, verify this is what you really want

  @ DRIVER MODE: Connecting to
 qe_1139763_2947314.sched-torque.pace.gatech.edu90qzto79_scratch
  using UNIX socket
  @ DRIVER MODE: Message from server: STATUS
  @ DRIVER MODE: Message from server: INIT
  @ DRIVER MODE: Receiving replica           0          -1
  @ DRIVER MODE: Receiving encoded integer          25
  @ DRIVER MODE:  SCF:  T  FORCE:  T  STRESS:  F  VC:  F  ENSEMBLE:  F
  @ DRIVER MODE:  SCF:  T  FORCE:  T  STRESS:  F  VC:  F  ENSEMBLE:  F

     Using Slab Decomposition

     bravais-lattice index     =            0
     lattice parameter (alat)  =       1.8897  a.u.
     unit-cell volume          =    6658.9804 (a.u.)^3
     number of atoms/cell      =           56
     number of atomic types    =            5
     number of electrons       =       403.00
     number of Kohn-Sham states=          211
     kinetic-energy cutoff     =      29.3995  Ry
     charge density cutoff     =     293.9946  Ry
     scf convergence threshold =      7.3E-08
     mixing beta               =       0.0500
     number of iterations used =            8  plain     mixing
     Exchange-correlation= BEEF-VDW
                           (   1   4  43  14   2   0   0)

     celldm(1)=   1.889726  celldm(2)=   0.000000  celldm(3)=   0.000000
     celldm(4)=   0.000000  celldm(5)=   0.000000  celldm(6)=   0.000000

     crystal axes: (cart. coord. in units of alat)
               a(1) = (   6.579727   0.000000   0.000000 )
               a(2) = (  -0.000775   5.961596   0.000000 )
               a(3) = (   0.000000   0.000000  25.155947 )

     reciprocal axes: (cart. coord. in units 2 pi/alat)
               b(1) = (  0.151982  0.000020  0.000000 )
               b(2) = (  0.000000  0.167740  0.000000 )
               b(3) = (  0.000000  0.000000  0.039752 )

     PseudoPot. # 1 for Ti read from file:
     /storage/coda1/p-amedford6/0/shared/rich_project_chbe-medford/medford-share/data/pseudos_module/espresso/nninc/pbe/van/Ti.UPF
     MD5 check sum: 8e4df49b7f0d34bbd5052bf3f5ea0213
     Pseudo is Ultrasoft, Zval = 12.0
     Generated by new atomic code, or converted to UPF format
     Using radial grid of  851 points,  6 beta functions with:
                l(1) =   0
                l(2) =   0
                l(3) =   1
                l(4) =   1
                l(5) =   2
                l(6) =   2
     Q(r) pseudized with  8 coefficients,  rinner =    1.000   1.000   1.000
                                                       1.000   1.000

     PseudoPot. # 2 for O  read from file:
     /storage/coda1/p-amedford6/0/shared/rich_project_chbe-medford/medford-share/data/pseudos_module/espresso/nninc/pbe/van/O.UPF
     MD5 check sum: 78c19812648e8988a0fe644b0f25305e
     Pseudo is Ultrasoft, Zval =  6.0
     Generated by new atomic code, or converted to UPF format
     Using radial grid of  737 points,  4 beta functions with:
                l(1) =   0
                l(2) =   0
                l(3) =   1
                l(4) =   1
     Q(r) pseudized with  8 coefficients,  rinner =    0.800   0.800   0.800

     PseudoPot. # 3 for N  read from file:
     /storage/coda1/p-amedford6/0/shared/rich_project_chbe-medford/medford-share/data/pseudos_module/espresso/nninc/pbe/van/N.UPF
     MD5 check sum: 90d10febe142ad51ac9d5be1deb811c4
     Pseudo is Ultrasoft, Zval =  5.0
     Generated by new atomic code, or converted to UPF format
     Using radial grid of  729 points,  4 beta functions with:
                l(1) =   0
                l(2) =   0
                l(3) =   1
                l(4) =   1
     Q(r) pseudized with  8 coefficients,  rinner =    0.800   0.800   0.800

     PseudoPot. # 4 for C  read from file:
     /storage/coda1/p-amedford6/0/shared/rich_project_chbe-medford/medford-share/data/pseudos_module/espresso/nninc/pbe/van/C.UPF
     MD5 check sum: 1a69bf6b8db32088f5b2163dbdb77a27
     Pseudo is Ultrasoft, Zval =  4.0
     Generated by new atomic code, or converted to UPF format
     Using radial grid of  721 points,  4 beta functions with:
                l(1) =   0
                l(2) =   0
                l(3) =   1
                l(4) =   1
     Q(r) pseudized with  8 coefficients,  rinner =    0.800   0.800   0.800

     PseudoPot. # 5 for H  read from file:
     /storage/coda1/p-amedford6/0/shared/rich_project_chbe-medford/medford-share/data/pseudos_module/espresso/nninc/pbe/van/H.UPF
     MD5 check sum: b5ee9d7bfd3a09ee7748110bda690ff7
     Pseudo is Ultrasoft, Zval =  1.0
     Generated by new atomic code, or converted to UPF format
     Using radial grid of  615 points,  1 beta functions with:
                l(1) =   0
     Q(r) pseudized with  8 coefficients,  rinner =    0.800

     atomic species   valence    mass     pseudopotential
        Ti1           12.00    47.86700     Ti( 1.00)
        O1             6.00    15.99900     O ( 1.00)
        N1             5.00    14.00700     N ( 1.00)
        C1             4.00    12.01100     C ( 1.00)
        H1             1.00     1.00800     H ( 1.00)

     No symmetry found

   Cartesian axes

     site n.     atom                  positions (alat units)
         1           Ti1 tau(   1) = (   0.0004258   2.9801865   6.0000000  )
         2           Ti1 tau(   2) = (   3.2906075   1.4906267   6.0002472  )
         3           O1  tau(   3) = (   0.0006271   0.0005054   7.9858123  )
         4           O1  tau(   4) = (   3.2906025   0.0005020   7.3038282  )
         5           O1  tau(   5) = (   4.5942328   1.4918067   9.2879030  )
         6           O1  tau(   6) = (   1.9868534   1.4903216   9.2879459  )
         7           Ti1 tau(   7) = (   3.2907910   2.8959150   9.1758416  )
         8           Ti1 tau(   8) = (   0.0015273   1.4827037   9.2680791  )
         9           O1  tau(   9) = (   3.2834828   5.9254549  11.3560997  )
        10           O1  tau(  10) = (   0.0116148   5.9584955  10.6183126  )
        11           O1  tau(  11) = (   1.2632982   1.4794151  12.6467768  )
        12           O1  tau(  12) = (   5.2979234   1.4912170  12.6376735  )
        13           Ti1 tau(  13) = (   6.5593102   2.9584919  12.5255918  )
        14           Ti1 tau(  14) = (   3.2941082   1.2876829  12.7086691  )
        15           O1  tau(  15) = (   6.5459232   0.0848410  14.6672212  )
        16           O1  tau(  16) = (   3.2899079   0.0686032  13.9983899  )
        17           O1  tau(  17) = (   4.5347701   1.5447734  16.1667714  )
        18           O1  tau(  18) = (   1.9898569   1.5359154  16.1924900  )
        19           Ti1 tau(  19) = (   3.2532585   2.9792413  15.6887139  )
        20           Ti1 tau(  20) = (   6.5162390   1.4193964  16.0443711  )
        21           O1  tau(  21) = (   3.2904802   0.0005063   4.7018136  )
        22           O1  tau(  22) = (   6.5314393   5.8470953  17.1670503  )
        23           O1  tau(  23) = (   1.3043587   1.4918075   6.0039043  )
        24           O1  tau(  24) = (   5.2767064   1.4903225   6.0039473  )
        25           Ti1 tau(  25) = (   0.0000382   5.9609847   6.0000000  )
        26           Ti1 tau(  26) = (   3.2902200   4.4714249   6.0002472  )
        27           O1  tau(  27) = (   0.0002396   2.9813036   7.9858123  )
        28           O1  tau(  28) = (   3.2902150   2.9813002   7.3038282  )
        29           O1  tau(  29) = (   4.5938453   4.4726049   9.2879030  )
        30           O1  tau(  30) = (   1.9864658   4.4711199   9.2879459  )
        31           Ti1 tau(  31) = (   3.2891106   5.8743827   9.1763621  )
        32           Ti1 tau(  32) = (   0.0006254   4.4649316   9.2693709  )
        33           O1  tau(  33) = (   3.2801501   3.0037454  11.3162440  )
        34           O1  tau(  34) = (   0.0092240   2.9805883  10.6323155  )
        35           O1  tau(  35) = (   1.2628463   4.4620516  12.6871769  )
        36           O1  tau(  36) = (   5.2965349   4.4479299  12.6783795  )
        37           Ti1 tau(  37) = (   0.0245004   5.9521619  12.5031165  )
        38           Ti1 tau(  38) = (   3.2934334   4.3725749  12.4478892  )
        39           O1  tau(  39) = (   0.0012172   2.9324930  14.9038371  )
        40           O1  tau(  40) = (   3.2612729   2.9642313  13.9201381  )
        41           O1  tau(  41) = (   4.5459169   4.3864222  16.0774642  )
        42           O1  tau(  42) = (   2.0085495   4.4473877  16.1057765  )
        43           Ti1 tau(  43) = (   3.2275989   5.9528725  16.3079466  )
        44           Ti1 tau(  44) = (   6.5418721   4.6299905  15.7990834  )
        45           O1  tau(  45) = (   3.2900926   2.9813045   4.7018136  )
        46           O1  tau(  46) = (   1.3039711   4.4726057   6.0039043  )
        47           O1  tau(  47) = (   5.2763189   4.4711207   6.0039473  )
        48           N1  tau(  48) = (   6.5153795   2.7269917  18.1720481  )
        49           C1  tau(  49) = (   0.9714328   2.6352729  18.9176740  )
        50           H1  tau(  50) = (   0.9613011   2.9697384  19.9541300  )
        51           H1  tau(  51) = (   1.8619620   2.1844435  18.5121220  )
        52           N1  tau(  52) = (   5.3313596   3.1722530  18.7397816  )
        53           H1  tau(  53) = (   5.4931776   3.7097374  19.5894643  )
        54           H1  tau(  54) = (   4.8256156   3.7372006  18.0707398  )
        55           O1  tau(  55) = (   3.3867674   5.8992794  18.1610867  )
        56           H1  tau(  56) = (   4.0349165   0.5560778  18.5374839  )

     number of k points=    10  Fermi-Dirac smearing, width (Ry)=  0.0073
                       cart. coord. in units 2pi/alat
        k(    1) = (   0.0000000   0.0000000   0.0000000), wk =   0.1250000
        k(    2) = (   0.0000000   0.0419351   0.0000000), wk =   0.2500000
        k(    3) = (   0.0000000  -0.0838702   0.0000000), wk =   0.1250000
        k(    4) = (   0.0379955   0.0000049   0.0000000), wk =   0.2500000
        k(    5) = (   0.0379955   0.0419400   0.0000000), wk =   0.2500000
        k(    6) = (   0.0379955  -0.0838652   0.0000000), wk =   0.2500000
        k(    7) = (   0.0379955  -0.0419301   0.0000000), wk =   0.2500000
        k(    8) = (  -0.0759910  -0.0000099   0.0000000), wk =   0.1250000
        k(    9) = (  -0.0759910   0.0419252   0.0000000), wk =   0.2500000
        k(   10) = (  -0.0759910  -0.0838800   0.0000000), wk =   0.1250000

     Initial potential from superposition of free atoms

     starting charge  386.99914, renormalised to  403.00000

     negative rho (up, down):  1.547E-02 0.000E+00

     %%%%%%%%%%%%%%%%%%%%%%%%%%%%%%%%%%%%%%%%%%%%%%%%%%%%%%%%%%%%%%%%%%%%%%%%
     %                                                                      %
     % You are using vdW-DF, which was implemented by the Thonhauser group. %
     % Please cite the following two papers that made this development      %
     % possible and the two reviews that describe the various versions:     %
     %                                                                      %
     %   T. Thonhauser et al., PRL 115, 136402 (2015).                      %
     %   T. Thonhauser et al., PRB 76, 125112 (2007).                       %
     %   K. Berland et al., Rep. Prog. Phys. 78, 066501 (2015).             %
     %   D.C. Langreth et al., J. Phys.: Condens. Matter 21, 084203 (2009). %
     %                                                                      %
     %                                                                      %
     % If you are calculating the stress with vdW-DF, please also cite:     %
     %                                                                      %
     %   R. Sabatini et al., J. Phys.: Condens. Matter 24, 424209 (2012).   %
     %                                                                      %
     %%%%%%%%%%%%%%%%%%%%%%%%%%%%%%%%%%%%%%%%%%%%%%%%%%%%%%%%%%%%%%%%%%%%%%%%

     Adding external electric field

     Computed dipole along edir(3) :
        Dipole              -13.0228 Ry au,        -33.1008 Debye
        Dipole field         -0.0246 Ry au,

        Potential amp.        2.2781 Ry
        Total length         46.3494 bohr

     Starting wfcs are  305 atomic wfcs
  @ DRIVER MODE: Message from server: STATUS
  @ DRIVER MODE: Message from server: POSDATA
  @ DRIVER MODE: Reading and sharing cell
  @ DRIVER MODE: Reading and sharing positions
  @ DRIVER MODE: Received positions

     Self-consistent Calculation

     iteration #  1     ecut=    29.40 Ry     beta= 0.05
     Davidson diagonalization with overlap
     c_bands:  3 eigenvalues not converged
     c_bands:  5 eigenvalues not converged
     c_bands:  3 eigenvalues not converged
     c_bands:  5 eigenvalues not converged
     c_bands:  1 eigenvalues not converged
     c_bands:  5 eigenvalues not converged
     c_bands:  2 eigenvalues not converged
     c_bands:  3 eigenvalues not converged
     ethr =  1.00E-05,  avg # of iterations = 26.8

[...]

     total energy              =   -2311.53418776 Ry
     estimated scf accuracy    <    7504.64160188 Ry

     iteration #  2     ecut=    29.40 Ry     beta= 0.05
     Davidson diagonalization with overlap
     ethr =  1.00E-02,  avg # of iterations = 25.1

[...]

     iteration # 76     ecut=    29.40 Ry     beta= 0.05
     Davidson diagonalization with overlap
     c_bands:  1 eigenvalues not converged
     ethr =  6.31E-11,  avg # of iterations = 16.6

[...]

     total energy              =   -2974.00152567 Ry
     estimated scf accuracy    <       0.00000090 Ry

     iteration # 77     ecut=    29.40 Ry     beta= 0.05
     Davidson diagonalization with overlap
     ethr =  6.31E-11,  avg # of iterations = 13.5

     negative rho (up, down):  1.591E-02 0.000E+00

     Adding external electric field

     Computed dipole along edir(3) :
        Dipole                1.0907 Ry au,          2.7723 Debye
        Dipole field          0.0021 Ry au,

        Potential amp.       -0.1908 Ry
        Total length         46.3494 bohr

     End of self-consistent calculation

          k = 0.0000 0.0000 0.0000 ( 18029 PWs)   bands (ev):

   -55.5952 -55.5298 -55.4957 -55.3788 -55.3728 -55.3564 -55.3425 -55.3299
   -55.3225 -55.2945 -55.2470 -55.1469 -55.1311 -55.0546 -54.4981 -54.4641
   -32.0142 -31.9323 -31.8967 -31.8641 -31.8593 -31.8244 -31.8207 -31.8065
   -31.7794 -31.7756 -31.7567 -31.6823 -31.6558 -31.6479 -31.6362 -31.6325
   -31.6208 -31.6109 -31.5873 -31.5871 -31.5806 -31.5530 -31.5424 -31.5371
   -31.5194 -31.5150 -31.5105 -31.4960 -31.4867 -31.4840 -31.4759 -31.4667
   -31.4667 -31.4432 -31.4208 -31.4022 -31.3434 -31.3357 -31.3029 -31.2926
   -31.2732 -31.2609 -30.9037 -30.8183 -30.7958 -30.7214 -30.6350 -30.5231
   -18.3898 -16.4375 -16.1665 -15.9993 -15.7868 -15.7067 -15.6681 -15.4749
   -15.3826 -15.3213 -15.0920 -15.0690 -15.0640 -15.0387 -15.0283 -15.0129
   -14.9958 -14.9564 -14.9477 -14.9391 -14.9155 -14.9008 -14.8688 -14.8169
   -14.7743 -14.7579 -14.6632 -14.5946 -14.5480 -14.3134 -14.2145 -13.5146
   -12.9963 -12.8801  -8.5627  -6.2995  -5.8510  -4.0443  -3.8530  -3.5283
    -3.4330  -3.4116  -3.3517  -3.2876  -3.0462  -2.9826  -2.8862  -2.8364
    -2.7606  -2.6460  -2.5976  -2.5263  -2.4550  -2.4457  -2.3985  -2.3695
    -2.3078  -2.2946  -2.2586  -2.2527  -2.1812  -2.1615  -2.0608  -2.0483
    -2.0337  -1.8992  -1.8857  -1.8434  -1.8355  -1.8353  -1.7966  -1.7779
    -1.7622  -1.7457  -1.6404  -1.6019  -1.5818  -1.5097  -1.4773  -1.1613
    -1.1289  -1.0880  -1.0665  -1.0149  -0.9633  -0.9402  -0.9177  -0.8531
    -0.8152  -0.7650  -0.7332  -0.6996  -0.6181  -0.5821  -0.5403  -0.4567
    -0.3827  -0.3081  -0.3029  -0.2585  -0.2303  -0.2042  -0.1057  -0.0803
    -0.0671   0.0323   0.0528   0.1277   0.1681   0.2116   0.2503   0.2980
     0.3628   0.3801   0.4056   0.4417   0.4491   0.5046   0.5249   0.5835
     0.6365   0.6515   0.7496   0.8073   0.8219   0.8406   0.9485   1.0269
     1.1463   1.1546   1.2555   1.4807   1.5287   1.5728   1.7220   2.0949
     2.1400   3.5569   3.7056   3.7223   3.7664   3.8134   3.8976   4.0437
     4.1064   4.2450   4.2527

[...]

          k = 0.0380-0.0419 0.0000 ( 17876 PWs)   bands (ev):

[...]

          k =-0.0760-0.0000 0.0000 ( 17886 PWs)   bands (ev):

[...]

          k =-0.0760-0.0839 0.0000 ( 17948 PWs)   bands (ev):

   -55.5944 -55.5130 -55.5124 -55.3715 -55.3655 -55.3556 -55.3395 -55.3390
   -55.3305 -55.2875 -55.2540 -55.1438 -55.1323 -55.0575 -54.4814 -54.4806
   -31.8779 -31.8297 -31.8293 -31.8273 -31.8156 -31.8064 -31.8059 -31.7992
   -31.7318 -31.6845 -31.6757 -31.6653 -31.6604 -31.6329 -31.6328 -31.6309
   -31.6288 -31.6146 -31.6120 -31.5971 -31.5849 -31.5755 -31.5658 -31.5551
   -31.5463 -31.5425 -31.5333 -31.5330 -31.5174 -31.5121 -31.5094 -31.5056
   -31.5052 -31.4772 -31.4731 -31.4147 -31.3958 -31.3721 -31.3460 -31.3395
   -31.3094 -31.2649 -30.8088 -30.8082 -30.7172 -30.7160 -30.6786 -30.6779
   -18.3868 -16.4219 -15.7475 -15.6220 -15.4969 -15.4925 -15.3718 -15.2943
   -15.2768 -15.2478 -15.2361 -15.2023 -15.1845 -15.1484 -15.1167 -15.0861
   -15.0460 -15.0252 -15.0117 -14.9726 -14.9618 -14.9446 -14.9350 -14.9120
   -14.8706 -14.8353 -14.8244 -14.6806 -14.6259 -14.5784 -14.4399 -13.5236
   -12.9821 -12.9818  -8.5390  -6.2661  -5.8704  -3.9933  -3.9323  -2.9927
    -2.9203  -2.8179  -2.7130  -2.6178  -2.5639  -2.5285  -2.4908  -2.4464
    -2.4240  -2.3741  -2.3333  -2.3129  -2.3044  -2.2717  -2.2629  -2.2480
    -2.2278  -2.2129  -2.1977  -2.1875  -2.1594  -2.1421  -2.1414  -2.1075
    -2.0962  -2.0687  -2.0606  -2.0080  -1.9105  -1.8817  -1.7889  -1.6883
    -1.6804  -1.6675  -1.6436  -1.6061  -1.5948  -1.5695  -1.5326  -1.4731
    -1.4641  -1.2999  -1.2478  -1.2171  -1.1428  -1.0873  -1.0565  -1.0289
    -0.9856  -0.9607  -0.8873  -0.8576  -0.7614  -0.7073  -0.6804  -0.6222
    -0.5448  -0.4805  -0.4717  -0.4659  -0.4387  -0.4160  -0.3902  -0.3602
    -0.3352  -0.2649  -0.2272  -0.2084  -0.1986  -0.1434  -0.0973   0.0053
     0.1317   0.2406   0.2571   0.2881   0.3265   0.4774   0.5211   0.5828
     0.6301   0.6612   0.6916   0.7849   0.7963   0.8795   0.9054   0.9422
     0.9871   1.0120   1.0443   1.0738   1.0827   1.8921   1.8994   1.9603
     1.9605   3.7748   4.0532   4.0781   4.0862   4.1041   4.1243   4.1393
     4.1590   4.2290   4.2343

     the Fermi energy is     3.5923 ev

!    total energy              =   -2974.00154216 Ry
     estimated scf accuracy    <       0.00000006 Ry
     smearing contrib. (-TS)   =      -0.01962580 Ry
     internal energy E=F+TS    =   -2973.98191636 Ry

     The total energy is F=E-TS. E is the sum of the following terms:
     one-electron contribution =  -23472.06697282 Ry
     hartree contribution      =   11831.45465061 Ry
     xc contribution           =    -494.06933278 Ry
     ewald contribution        =    9160.69749364 Ry
     electric field correction =       0.00224498 Ry

     convergence has been achieved in  77 iterations

     Forces acting on atoms (cartesian axes, Ry/au):

     atom    1 type  1   force =     0.00012597   -0.00018513    0.09455057
     atom    2 type  1   force =    -0.00003428    0.00034794   -0.17510865
     atom    3 type  2   force =    -0.00002535   -0.00002837   -0.02134025
     atom    4 type  2   force =     0.00001441   -0.00189321    0.05325106
     atom    5 type  2   force =    -0.00694164   -0.00239407    0.00357495
     atom    6 type  2   force =     0.00805139   -0.00192937    0.00205483
     atom    7 type  1   force =    -0.00070214   -0.00277807    0.01003595
     atom    8 type  1   force =     0.00060896    0.00276195    0.00500917
     atom    9 type  2   force =     0.00003257   -0.00045900    0.00022757
     atom   10 type  2   force =    -0.00253858   -0.00140776   -0.01077713
     atom   11 type  2   force =     0.00129009   -0.00017662    0.00054246
     atom   12 type  2   force =    -0.00082353   -0.00022522    0.00065042
     atom   13 type  1   force =    -0.00095484   -0.00096265    0.00046145
     atom   14 type  1   force =     0.00031919    0.00032932    0.00008595
     atom   15 type  2   force =     0.00011295    0.00029906   -0.00040591
     atom   16 type  2   force =    -0.00045760    0.00019239    0.00010806
     atom   17 type  2   force =    -0.00017151    0.00035287    0.00023228
     atom   18 type  2   force =     0.00097159   -0.00016647   -0.00030032
     atom   19 type  1   force =     0.00114008    0.00072798   -0.00008445
     atom   20 type  1   force =    -0.00067040   -0.00006042   -0.00006035
     atom   21 type  2   force =     0.00006273    0.00009682    0.10306998
     atom   22 type  2   force =     0.00060121    0.00077491    0.00046786
     atom   23 type  2   force =    -0.07212275   -0.00013626   -0.02734115
     atom   24 type  2   force =     0.07200808    0.00029586   -0.02734226
     atom   25 type  1   force =     0.00002306   -0.00014928    0.09404877
     atom   26 type  1   force =    -0.00015432   -0.00109460   -0.17520877
     atom   27 type  2   force =     0.00012177   -0.00024720   -0.02012568
     atom   28 type  2   force =    -0.00000323   -0.00026962    0.04932417
     atom   29 type  2   force =    -0.00563230    0.00192177    0.00159367
     atom   30 type  2   force =     0.00666001    0.00249309   -0.00000437
     atom   31 type  1   force =    -0.00072459    0.00677219   -0.00108364
     atom   32 type  1   force =     0.00050196   -0.00385250    0.00432629
     atom   33 type  2   force =     0.00016169   -0.00010683   -0.00080508
     atom   34 type  2   force =    -0.00187237    0.00170086   -0.01046426
     atom   35 type  2   force =     0.00117376    0.00029161   -0.00017810
     atom   36 type  2   force =    -0.00056389    0.00042993   -0.00026569
     atom   37 type  1   force =    -0.00064531    0.00045082   -0.00025608
     atom   38 type  1   force =     0.00055834    0.00014427    0.00012582
     atom   39 type  2   force =     0.00033239   -0.00040875    0.00039969
     atom   40 type  2   force =     0.00020226    0.00012881   -0.00037119
     atom   41 type  2   force =     0.00001675   -0.00022878   -0.00107370
     atom   42 type  2   force =     0.00036603   -0.00034492    0.00038601
     atom   43 type  1   force =     0.00014655   -0.00086031    0.00051477
     atom   44 type  1   force =    -0.00053731   -0.00009853    0.00018443
     atom   45 type  2   force =     0.00007618   -0.00006885    0.10285260
     atom   46 type  2   force =    -0.07216074   -0.00002621   -0.02733910
     atom   47 type  2   force =     0.07208175    0.00041069   -0.02737556
     atom   48 type  3   force =     0.00032746   -0.00035520    0.00014383
     atom   49 type  4   force =     0.00027702   -0.00036217   -0.00019234
     atom   50 type  5   force =    -0.00011260   -0.00038064   -0.00009969
     atom   51 type  5   force =    -0.00027614    0.00019108    0.00003818
     atom   52 type  3   force =     0.00483971   -0.00609231    0.00548281
     atom   53 type  5   force =    -0.00053544    0.00029218   -0.00046047
     atom   54 type  5   force =    -0.00467552    0.00593811   -0.00549106
     atom   55 type  2   force =    -0.00023818    0.00097208    0.00002583
     atom   56 type  5   force =     0.00036863   -0.00056728   -0.00021421

     Total force =     0.362154     Total SCF correction =     0.000743
  @ DRIVER MODE: Message from server: STATUS
  @ DRIVER MODE: Message from server: GETFORCE
  @ DRIVER MODE: Returning v,forces,stress,ensemble

     Writing output data file ./calc.save/
  @ DRIVER MODE: Message from server: EXIT
  @ DRIVE MODE: Exiting

     General routines

     Parallel routines

   This run was terminated on:   4:22:13  24Sep2021

   JOB DONE.