     Program PWSCF v.6.7GPU starts on 10Sep2021 at 11: 4:57

     R & G space division:  proc/nbgrp/npool/nimage =      10
     Reading input from /storage/home/hcoda1/3/ntian30/research/carbon/CxH_vib/CH3_calc/ads_slab/CH3N2H2O_g/out_0042/pw.inp
Warning: card &CELL ignored
Warning: card   CELL_DYNAMICS='IPI', ignored
Warning: card / ignored

     Current dimensions of program PWSCF are:
     Max number of different atomic species (ntypx) = 10
     Max number of k-points (npk) =  40000
     Max angular momentum in pseudopotentials (lmaxx) =  3
     Presently no symmetry can be used with electric field

     Message from routine cell_base_init:
     DEPRECATED: use true lattice parameter, not A to a.u. conversion factor

     IMPORTANT: XC functional enforced from input :
     Exchange-correlation= BEEF-VDW
                           (   1   4  43  14   2   0   0)
     Any further DFT definition will be discarded
     Please, verify this is what you really want

  @ DRIVER MODE: Connecting to
 qe_1139763_2779714.sched-torque.pace.gatech.edutxg_ti3m_scratch
  using UNIX socket
  @ DRIVER MODE: Message from server: STATUS
  @ DRIVER MODE: Message from server: INIT
  @ DRIVER MODE: Receiving replica           0          -1
  @ DRIVER MODE: Receiving encoded integer          25
  @ DRIVER MODE:  SCF:  T  FORCE:  T  STRESS:  F  VC:  F  ENSEMBLE:  F
  @ DRIVER MODE:  SCF:  T  FORCE:  T  STRESS:  F  VC:  F  ENSEMBLE:  F

     Using Slab Decomposition

     bravais-lattice index     =            0
     lattice parameter (alat)  =       1.8897  a.u.
     unit-cell volume          =    6658.9804 (a.u.)^3
     number of atoms/cell      =           56
     number of atomic types    =            5
     number of electrons       =       403.00
     number of Kohn-Sham states=          211
     kinetic-energy cutoff     =      29.3995  Ry
     charge density cutoff     =     293.9946  Ry
     scf convergence threshold =      7.3E-08
     mixing beta               =       0.0500
     number of iterations used =            8  plain     mixing
     Exchange-correlation= BEEF-VDW
                           (   1   4  43  14   2   0   0)

     celldm(1)=   1.889726  celldm(2)=   0.000000  celldm(3)=   0.000000
     celldm(4)=   0.000000  celldm(5)=   0.000000  celldm(6)=   0.000000

     crystal axes: (cart. coord. in units of alat)
               a(1) = (   6.579727   0.000000   0.000000 )
               a(2) = (  -0.000775   5.961596   0.000000 )
               a(3) = (   0.000000   0.000000  25.155947 )

     reciprocal axes: (cart. coord. in units 2 pi/alat)
               b(1) = (  0.151982  0.000020  0.000000 )
               b(2) = (  0.000000  0.167740  0.000000 )
               b(3) = (  0.000000  0.000000  0.039752 )

     PseudoPot. # 1 for Ti read from file:
     /storage/coda1/p-amedford6/0/shared/rich_project_chbe-medford/medford-share/data/pseudos_module/espresso/nninc/pbe/van/Ti.UPF
     MD5 check sum: 8e4df49b7f0d34bbd5052bf3f5ea0213
     Pseudo is Ultrasoft, Zval = 12.0
     Generated by new atomic code, or converted to UPF format
     Using radial grid of  851 points,  6 beta functions with:
                l(1) =   0
                l(2) =   0
                l(3) =   1
                l(4) =   1
                l(5) =   2
                l(6) =   2
     Q(r) pseudized with  8 coefficients,  rinner =    1.000   1.000   1.000
                                                       1.000   1.000

     PseudoPot. # 2 for O  read from file:
     /storage/coda1/p-amedford6/0/shared/rich_project_chbe-medford/medford-share/data/pseudos_module/espresso/nninc/pbe/van/O.UPF
     MD5 check sum: 78c19812648e8988a0fe644b0f25305e
     Pseudo is Ultrasoft, Zval =  6.0
     Generated by new atomic code, or converted to UPF format
     Using radial grid of  737 points,  4 beta functions with:
                l(1) =   0
                l(2) =   0
                l(3) =   1
                l(4) =   1
     Q(r) pseudized with  8 coefficients,  rinner =    0.800   0.800   0.800

     PseudoPot. # 3 for N  read from file:
     /storage/coda1/p-amedford6/0/shared/rich_project_chbe-medford/medford-share/data/pseudos_module/espresso/nninc/pbe/van/N.UPF
     MD5 check sum: 90d10febe142ad51ac9d5be1deb811c4
     Pseudo is Ultrasoft, Zval =  5.0
     Generated by new atomic code, or converted to UPF format
     Using radial grid of  729 points,  4 beta functions with:
                l(1) =   0
                l(2) =   0
                l(3) =   1
                l(4) =   1
     Q(r) pseudized with  8 coefficients,  rinner =    0.800   0.800   0.800

     PseudoPot. # 4 for C  read from file:
     /storage/coda1/p-amedford6/0/shared/rich_project_chbe-medford/medford-share/data/pseudos_module/espresso/nninc/pbe/van/C.UPF
     MD5 check sum: 1a69bf6b8db32088f5b2163dbdb77a27
     Pseudo is Ultrasoft, Zval =  4.0
     Generated by new atomic code, or converted to UPF format
     Using radial grid of  721 points,  4 beta functions with:
                l(1) =   0
                l(2) =   0
                l(3) =   1
                l(4) =   1
     Q(r) pseudized with  8 coefficients,  rinner =    0.800   0.800   0.800

     PseudoPot. # 5 for H  read from file:
     /storage/coda1/p-amedford6/0/shared/rich_project_chbe-medford/medford-share/data/pseudos_module/espresso/nninc/pbe/van/H.UPF
     MD5 check sum: b5ee9d7bfd3a09ee7748110bda690ff7
     Pseudo is Ultrasoft, Zval =  1.0
     Generated by new atomic code, or converted to UPF format
     Using radial grid of  615 points,  1 beta functions with:
                l(1) =   0
     Q(r) pseudized with  8 coefficients,  rinner =    0.800

     atomic species   valence    mass     pseudopotential
        Ti1           12.00    47.86700     Ti( 1.00)
        O1             6.00    15.99900     O ( 1.00)
        N1             5.00    14.00700     N ( 1.00)
        C1             4.00    12.01100     C ( 1.00)
        H1             1.00     1.00800     H ( 1.00)

     No symmetry found

   Cartesian axes

     site n.     atom                  positions (alat units)
         1           Ti1 tau(   1) = (   0.0004258   2.9801865   6.0000000  )
         2           Ti1 tau(   2) = (   3.2906075   1.4906267   6.0002472  )
         3           O1  tau(   3) = (   0.0006271   0.0005054   7.9858123  )
         4           O1  tau(   4) = (   3.2906025   0.0005020   7.3038282  )
         5           O1  tau(   5) = (   4.5942328   1.4918067   9.2879030  )
         6           O1  tau(   6) = (   1.9868534   1.4903216   9.2879459  )
         7           Ti1 tau(   7) = (   3.2907910   2.8959150   9.1758416  )
         8           Ti1 tau(   8) = (   0.0015273   1.4827037   9.2680791  )
         9           O1  tau(   9) = (   3.3002115   5.9463602  11.3460011  )
        10           O1  tau(  10) = (   0.0116148   5.9584955  10.6183126  )
        11           O1  tau(  11) = (   1.3192008   1.4768417  12.6238339  )
        12           O1  tau(  12) = (   5.3062067   1.4698383  12.6193417  )
        13           Ti1 tau(  13) = (   6.5330844   2.9444840  12.6148558  )
        14           Ti1 tau(  14) = (   3.2222230   1.4676475  12.5013840  )
        15           O1  tau(  15) = (   0.0064324   5.9471174  14.6352917  )
        16           O1  tau(  16) = (   3.3028336   5.9445487  13.9678148  )
        17           O1  tau(  17) = (   4.5628415   1.5226527  16.0793330  )
        18           O1  tau(  18) = (   2.0474444   1.5206590  16.0184434  )
        19           Ti1 tau(  19) = (   3.3141275   2.9607752  15.6908890  )
        20           Ti1 tau(  20) = (   6.5660065   1.5097775  15.7997320  )
        21           O1  tau(  21) = (   3.2904802   0.0005063   4.7018136  )
        22           O1  tau(  22) = (   0.0269361   0.0086655  17.1987262  )
        23           O1  tau(  23) = (   1.3043587   1.4918075   6.0039043  )
        24           O1  tau(  24) = (   5.2767064   1.4903225   6.0039473  )
        25           Ti1 tau(  25) = (   0.0000382   5.9609847   6.0000000  )
        26           Ti1 tau(  26) = (   3.2902200   4.4714249   6.0002472  )
        27           O1  tau(  27) = (   0.0002396   2.9813036   7.9858123  )
        28           O1  tau(  28) = (   3.2902150   2.9813002   7.3038282  )
        29           O1  tau(  29) = (   4.5938453   4.4726049   9.2879030  )
        30           O1  tau(  30) = (   1.9864658   4.4711199   9.2879459  )
        31           Ti1 tau(  31) = (   3.2891106   5.8743827   9.1763621  )
        32           Ti1 tau(  32) = (   0.0006254   4.4649316   9.2693709  )
        33           O1  tau(  33) = (   3.2944391   2.9688829  11.3444728  )
        34           O1  tau(  34) = (   0.0092240   2.9805883  10.6323155  )
        35           O1  tau(  35) = (   1.3142520   4.4635248  12.6275686  )
        36           O1  tau(  36) = (   5.3078217   4.4601700  12.6226734  )
        37           Ti1 tau(  37) = (   6.5374036   5.9186568  12.5467527  )
        38           Ti1 tau(  38) = (   3.2213306   4.4595164  12.5065882  )
        39           O1  tau(  39) = (   6.5756885   2.9534048  14.6511233  )
        40           O1  tau(  40) = (   3.3206316   2.9687378  13.8980937  )
        41           O1  tau(  41) = (   4.5543359   4.4428353  16.0905846  )
        42           O1  tau(  42) = (   2.0427057   4.4323087  16.0570365  )
        43           Ti1 tau(  43) = (   3.2570595   5.9269474  15.8069103  )
        44           Ti1 tau(  44) = (   6.5609319   4.6488967  16.0725391  )
        45           O1  tau(  45) = (   3.2900926   2.9813045   4.7018136  )
        46           O1  tau(  46) = (   1.3039711   4.4726057   6.0039043  )
        47           O1  tau(  47) = (   5.2763189   4.4711207   6.0039473  )
        48           N1  tau(  48) = (   0.2492319   2.6641403  18.6309932  )
        49           N1  tau(  49) = (   0.0782707   2.8835230  17.4382120  )
        50           C1  tau(  50) = (   0.2622466   3.8234900  19.5663878  )
        51           H1  tau(  51) = (   6.1755609   4.6233469  19.2444151  )
        52           H1  tau(  52) = (   6.5754044   3.4477461  20.5519103  )
        53           H1  tau(  53) = (   1.2857956   4.2073973  19.6006198  )
        54           O1  tau(  54) = (   3.1761146   0.0362278  18.2333714  )
        55           H1  tau(  55) = (   3.9097821   0.6076051  18.5038283  )
        56           H1  tau(  56) = (   2.3516031   0.5117379  18.4309238  )

     number of k points=    10  Fermi-Dirac smearing, width (Ry)=  0.0073
                       cart. coord. in units 2pi/alat
        k(    1) = (   0.0000000   0.0000000   0.0000000), wk =   0.1250000
        k(    2) = (   0.0000000   0.0419351   0.0000000), wk =   0.2500000
        k(    3) = (   0.0000000  -0.0838702   0.0000000), wk =   0.1250000
        k(    4) = (   0.0379955   0.0000049   0.0000000), wk =   0.2500000
        k(    5) = (   0.0379955   0.0419400   0.0000000), wk =   0.2500000
        k(    6) = (   0.0379955  -0.0838652   0.0000000), wk =   0.2500000
        k(    7) = (   0.0379955  -0.0419301   0.0000000), wk =   0.2500000
        k(    8) = (  -0.0759910  -0.0000099   0.0000000), wk =   0.1250000
        k(    9) = (  -0.0759910   0.0419252   0.0000000), wk =   0.2500000
        k(   10) = (  -0.0759910  -0.0838800   0.0000000), wk =   0.1250000

     Initial potential from superposition of free atoms

     starting charge  386.99914, renormalised to  403.00000

     negative rho (up, down):  1.449E-02 0.000E+00

     %%%%%%%%%%%%%%%%%%%%%%%%%%%%%%%%%%%%%%%%%%%%%%%%%%%%%%%%%%%%%%%%%%%%%%%%
     %                                                                      %
     % You are using vdW-DF, which was implemented by the Thonhauser group. %
     % Please cite the following two papers that made this development      %
     % possible and the two reviews that describe the various versions:     %
     %                                                                      %
     %   T. Thonhauser et al., PRL 115, 136402 (2015).                      %
     %   T. Thonhauser et al., PRB 76, 125112 (2007).                       %
     %   K. Berland et al., Rep. Prog. Phys. 78, 066501 (2015).             %
     %   D.C. Langreth et al., J. Phys.: Condens. Matter 21, 084203 (2009). %
     %                                                                      %
     %                                                                      %
     % If you are calculating the stress with vdW-DF, please also cite:     %
     %                                                                      %
     %   R. Sabatini et al., J. Phys.: Condens. Matter 24, 424209 (2012).   %
     %                                                                      %
     %%%%%%%%%%%%%%%%%%%%%%%%%%%%%%%%%%%%%%%%%%%%%%%%%%%%%%%%%%%%%%%%%%%%%%%%

     Adding external electric field

     Computed dipole along edir(3) :
        Dipole              -13.2136 Ry au,        -33.5856 Debye
        Dipole field         -0.0249 Ry au,

        Potential amp.        2.3115 Ry
        Total length         46.3494 bohr

     Starting wfcs are  305 atomic wfcs
  @ DRIVER MODE: Message from server: STATUS
  @ DRIVER MODE: Message from server: POSDATA
  @ DRIVER MODE: Reading and sharing cell
  @ DRIVER MODE: Reading and sharing positions
  @ DRIVER MODE: Received positions

     Self-consistent Calculation

     iteration #  1     ecut=    29.40 Ry     beta= 0.05
     Davidson diagonalization with overlap
     c_bands:  4 eigenvalues not converged
     c_bands:  2 eigenvalues not converged
     c_bands:  2 eigenvalues not converged
     c_bands:  5 eigenvalues not converged
     c_bands:  1 eigenvalues not converged
     c_bands:  1 eigenvalues not converged
     c_bands:  4 eigenvalues not converged
     c_bands:  1 eigenvalues not converged
     c_bands:  1 eigenvalues not converged
     ethr =  1.00E-05,  avg # of iterations = 27.8

[...]

     total energy              =   -2367.57622788 Ry
     estimated scf accuracy    <    6916.16141578 Ry

     iteration #  2     ecut=    29.40 Ry     beta= 0.05
     Davidson diagonalization with overlap
     ethr =  1.00E-02,  avg # of iterations = 23.7

[...]

     iteration # 67     ecut=    29.40 Ry     beta= 0.05
     Davidson diagonalization with overlap
     c_bands:  1 eigenvalues not converged
     ethr =  9.45E-10,  avg # of iterations = 10.0

[...]

     total energy              =   -2974.00269029 Ry
     estimated scf accuracy    <       0.00000012 Ry

     iteration # 74     ecut=    29.40 Ry     beta= 0.05
     Davidson diagonalization with overlap
     ethr =  2.92E-11,  avg # of iterations = 11.5

     negative rho (up, down):  1.477E-02 0.000E+00

     Adding external electric field

     Computed dipole along edir(3) :
        Dipole                0.8840 Ry au,          2.2468 Debye
        Dipole field          0.0017 Ry au,

        Potential amp.       -0.1546 Ry
        Total length         46.3494 bohr

     End of self-consistent calculation

          k = 0.0000 0.0000 0.0000 ( 18029 PWs)   bands (ev):

   -55.6241 -55.5900 -55.5826 -55.5665 -55.5459 -55.4524 -55.4342 -55.4132
   -55.4002 -55.3992 -55.3713 -55.3655 -55.0076 -54.8671 -54.6028 -54.5688
   -32.1249 -32.1065 -31.9677 -31.9499 -31.9329 -31.9170 -31.8888 -31.8837
   -31.8670 -31.8144 -31.8077 -31.7898 -31.7764 -31.7608 -31.7450 -31.7359
   -31.7284 -31.7156 -31.7102 -31.6813 -31.6726 -31.6554 -31.6265 -31.6224
   -31.6066 -31.6039 -31.6035 -31.5982 -31.5741 -31.5699 -31.5665 -31.5616
   -31.5519 -31.5478 -31.5408 -31.5134 -31.5109 -31.2780 -31.2031 -31.1276
   -31.1104 -31.0761 -31.0100 -30.9214 -30.8990 -30.8267 -30.7402 -30.6292
   -18.8717 -18.3065 -16.3164 -16.0877 -15.8584 -15.7704 -15.7218 -15.5224
   -15.4205 -15.3477 -15.2255 -15.1623 -15.1506 -15.1360 -15.1172 -15.1157
   -15.0629 -15.0567 -15.0522 -15.0442 -15.0111 -14.9705 -14.9555 -14.9449
   -14.8510 -14.7781 -14.7605 -14.7369 -14.6912 -14.6747 -14.2004 -13.1052
   -12.9888 -11.2522  -6.8710  -6.6682  -4.2007  -3.8390  -3.7953  -3.6883
    -3.5614  -3.5280  -3.4442  -3.3721  -3.2348  -3.1814  -3.0261  -2.8517
    -2.7912  -2.7634  -2.7123  -2.6450  -2.5316  -2.4722  -2.4278  -2.4205
    -2.4036  -2.3957  -2.3718  -2.3595  -2.2569  -2.2368  -2.1579  -2.1538
    -2.1020  -1.9856  -1.9711  -1.9362  -1.9231  -1.8996  -1.8779  -1.8580
    -1.8473  -1.8232  -1.7726  -1.7030  -1.6337  -1.5989  -1.5102  -1.4426
    -1.4015  -1.3556  -1.2340  -1.1403  -1.1054  -1.0654  -1.0575  -1.0443
    -1.0160  -0.9984  -0.8855  -0.7714  -0.7543  -0.6891  -0.6292  -0.5482
    -0.5189  -0.4415  -0.3876  -0.3695  -0.3658  -0.3207  -0.2899  -0.2308
    -0.0977  -0.0463  -0.0127  -0.0028   0.0558   0.0990   0.1281   0.2158
     0.2218   0.2670   0.3053   0.3378   0.3510   0.3661   0.3844   0.4140
     0.4288   0.6200   0.6566   0.6958   0.7333   0.7762   0.9144   0.9391
     1.0370   1.1461   1.3455   1.4193   1.5240   1.6114   1.9908   2.0366
     2.7441   3.5112   3.5982   3.6432   3.6720   3.7559   3.7696   3.9659
     3.9822   4.0204   4.1554

[...]

          k = 0.0380-0.0419 0.0000 ( 17876 PWs)   bands (ev):

[...]

          k =-0.0760-0.0000 0.0000 ( 17886 PWs)   bands (ev):

[...]

          k =-0.0760-0.0839 0.0000 ( 17948 PWs)   bands (ev):

   -55.6074 -55.6065 -55.5685 -55.5649 -55.5599 -55.4422 -55.4236 -55.4178
   -55.4159 -55.3842 -55.3808 -55.3727 -55.0057 -54.8689 -54.5859 -54.5856
   -31.9384 -31.9223 -31.9221 -31.9214 -31.9028 -31.9019 -31.8535 -31.8472
   -31.8255 -31.8002 -31.7880 -31.7793 -31.7753 -31.7366 -31.7322 -31.7304
   -31.7270 -31.7262 -31.7238 -31.7211 -31.7185 -31.7129 -31.6769 -31.6594
   -31.6406 -31.6364 -31.6291 -31.6171 -31.6167 -31.6138 -31.6081 -31.5988
   -31.5952 -31.5845 -31.5837 -31.5757 -31.4246 -31.2799 -31.2190 -31.1664
   -31.1288 -31.1025 -30.9118 -30.9116 -30.8229 -30.8227 -30.7835 -30.7834
   -18.8706 -18.3028 -15.7749 -15.6646 -15.5735 -15.5393 -15.4820 -15.4128
   -15.4056 -15.3184 -15.3023 -15.2994 -15.2339 -15.2130 -15.1760 -15.1687
   -15.1458 -15.1304 -15.1237 -15.0742 -15.0625 -15.0592 -15.0524 -15.0476
   -14.9714 -14.9408 -14.9369 -14.9281 -14.8005 -14.6758 -14.3718 -13.0907
   -13.0904 -11.2499  -6.9001  -6.6436  -4.1262  -3.8704  -3.7580  -3.1812
    -3.0572  -2.8402  -2.8245  -2.7289  -2.7168  -2.6824  -2.5514  -2.5108
    -2.4699  -2.4535  -2.4345  -2.4331  -2.4159  -2.4104  -2.3889  -2.3626
    -2.3391  -2.3189  -2.2892  -2.2865  -2.2737  -2.2604  -2.2374  -2.2252
    -2.2090  -2.1781  -2.1519  -2.1354  -2.0683  -1.9970  -1.8370  -1.7987
    -1.7595  -1.7532  -1.7365  -1.7060  -1.6899  -1.6720  -1.6240  -1.5877
    -1.5012  -1.3614  -1.3427  -1.3189  -1.2964  -1.2872  -1.2152  -1.1066
    -1.0868  -1.0168  -1.0083  -0.9021  -0.8915  -0.8088  -0.8002  -0.7897
    -0.7156  -0.6885  -0.6734  -0.5845  -0.5823  -0.5577  -0.5077  -0.4809
    -0.4178  -0.3751  -0.3441  -0.3410  -0.2950  -0.2728  -0.2287  -0.1630
    -0.1091  -0.0735   0.0235   0.1279   0.2294   0.3440   0.4588   0.4729
     0.5546   0.5885   0.6731   0.6890   0.6975   0.7692   0.7740   0.8732
     0.9180   0.9325   0.9729   1.0954   1.7826   1.7840   1.8561   1.8564
     2.7683   3.7289   3.8481   3.8902   3.9082   3.9830   4.0253   4.0448
     4.0473   4.0817   4.1872

     the Fermi energy is     3.5099 ev

!    total energy              =   -2974.00270733 Ry
     estimated scf accuracy    <       0.00000007 Ry
     smearing contrib. (-TS)   =      -0.02182516 Ry
     internal energy E=F+TS    =   -2973.98088217 Ry

     The total energy is F=E-TS. E is the sum of the following terms:
     one-electron contribution =  -23844.86584591 Ry
     hartree contribution      =   12016.80595522 Ry
     xc contribution           =    -494.03215161 Ry
     ewald contribution        =    9348.10968556 Ry
     electric field correction =       0.00147457 Ry

     convergence has been achieved in  74 iterations

     Forces acting on atoms (cartesian axes, Ry/au):

     atom    1 type  1   force =     0.00003240   -0.00023620    0.09646377
     atom    2 type  1   force =     0.00005895   -0.00044052   -0.17544659
     atom    3 type  2   force =     0.00011552   -0.00009624   -0.02475882
     atom    4 type  2   force =     0.00004181   -0.00157834    0.05348795
     atom    5 type  2   force =    -0.01196707   -0.00100750    0.00309546
     atom    6 type  2   force =     0.01370767   -0.00064937    0.00293425
     atom    7 type  1   force =     0.00074754    0.00068338   -0.00683543
     atom    8 type  1   force =     0.00021861    0.00948635    0.02712441
     atom    9 type  2   force =    -0.00014377   -0.00006114   -0.00003625
     atom   10 type  2   force =    -0.00204828    0.00048469   -0.01820291
     atom   11 type  2   force =    -0.00054300    0.00032278    0.00012191
     atom   12 type  2   force =     0.00065127    0.00012636    0.00031261
     atom   13 type  1   force =    -0.00016077   -0.00008944   -0.00012763
     atom   14 type  1   force =    -0.00040707   -0.00010403    0.00021598
     atom   15 type  2   force =     0.00004039   -0.00060690    0.00062241
     atom   16 type  2   force =    -0.00026453   -0.00009502   -0.00008875
     atom   17 type  2   force =    -0.00038834    0.00000876   -0.00012624
     atom   18 type  2   force =     0.00016098   -0.00003426   -0.00004634
     atom   19 type  1   force =    -0.00028301    0.00029569    0.00000946
     atom   20 type  1   force =    -0.00048121    0.00000735    0.00044739
     atom   21 type  2   force =     0.00008248    0.00001598    0.10326537
     atom   22 type  2   force =     0.00015435    0.00039111   -0.00003818
     atom   23 type  2   force =    -0.07143907   -0.00010429   -0.02773937
     atom   24 type  2   force =     0.07139813    0.00034786   -0.02781131
     atom   25 type  1   force =     0.00017913   -0.00033618    0.09613981
     atom   26 type  1   force =     0.00000358   -0.00037555   -0.17576861
     atom   27 type  2   force =     0.00021056   -0.00020552   -0.02373779
     atom   28 type  2   force =     0.00002499   -0.00128298    0.05294977
     atom   29 type  2   force =    -0.01220609    0.00024104    0.00292489
     atom   30 type  2   force =     0.01386696    0.00081992    0.00274289
     atom   31 type  1   force =     0.00041937    0.00343102   -0.00987451
     atom   32 type  1   force =     0.00036440   -0.01131374    0.02753697
     atom   33 type  2   force =     0.00009939    0.00014187    0.00001293
     atom   34 type  2   force =    -0.00188025   -0.00045156   -0.02415106
     atom   35 type  2   force =     0.00044286    0.00003414   -0.00027106
     atom   36 type  2   force =    -0.00032845   -0.00006380    0.00007872
     atom   37 type  1   force =    -0.00031210   -0.00013659    0.00012763
     atom   38 type  1   force =    -0.00079971    0.00008132   -0.00053014
     atom   39 type  2   force =     0.00010093   -0.00029283   -0.00027051
     atom   40 type  2   force =     0.00019715    0.00033852    0.00047436
     atom   41 type  2   force =     0.00013751    0.00017896   -0.00028382
     atom   42 type  2   force =    -0.00033435    0.00002861   -0.00025216
     atom   43 type  1   force =     0.00034932    0.00064351    0.00021603
     atom   44 type  1   force =    -0.00010670    0.00113226   -0.00052873
     atom   45 type  2   force =     0.00008399   -0.00002754    0.10325353
     atom   46 type  2   force =    -0.07144340   -0.00001160   -0.02775277
     atom   47 type  2   force =     0.07140162    0.00041654   -0.02781082
     atom   48 type  3   force =    -0.00043425    0.00022865   -0.00160587
     atom   49 type  3   force =    -0.00007542   -0.00049186    0.00135735
     atom   50 type  4   force =     0.00013806    0.00051411    0.00038728
     atom   51 type  5   force =     0.00111725   -0.00075708   -0.00028271
     atom   52 type  5   force =    -0.00010757    0.00013471   -0.00018970
     atom   53 type  5   force =    -0.00004779   -0.00069098    0.00015506
     atom   54 type  2   force =    -0.00064771   -0.00531827   -0.00502160
     atom   55 type  5   force =     0.00318633    0.00359559    0.00200846
     atom   56 type  5   force =    -0.00288360    0.00272826    0.00112302

     Total force =     0.368103     Total SCF correction =     0.000539
  @ DRIVER MODE: Message from server: STATUS
  @ DRIVER MODE: Message from server: GETFORCE
  @ DRIVER MODE: Returning v,forces,stress,ensemble

     Writing output data file ./calc.save/
  @ DRIVER MODE: Message from server: EXIT
  @ DRIVE MODE: Exiting

     General routines

     Parallel routines

   This run was terminated on:  11:25:16  10Sep2021

   JOB DONE.