     Program PWSCF v.6.7GPU starts on 23Sep2021 at 14:33:53

     R & G space division:  proc/nbgrp/npool/nimage =       8
     Reading input from /storage/home/hcoda1/3/ntian30/research/carbon/CxH_vib/H2O_calc/ads_slab/CH3N2HO_c/out_0040/pw.inp
Warning: card &CELL ignored
Warning: card   CELL_DYNAMICS='IPI', ignored
Warning: card / ignored

     Current dimensions of program PWSCF are:
     Max number of different atomic species (ntypx) = 10
     Max number of k-points (npk) =  40000
     Max angular momentum in pseudopotentials (lmaxx) =  3
     Presently no symmetry can be used with electric field

     Message from routine cell_base_init:
     DEPRECATED: use true lattice parameter, not A to a.u. conversion factor

     IMPORTANT: XC functional enforced from input :
     Exchange-correlation= BEEF-VDW
                           (   1   4  43  14   2   0   0)
     Any further DFT definition will be discarded
     Please, verify this is what you really want

  @ DRIVER MODE: Connecting to
 qe_1139763_2941007.sched-torque.pace.gatech.edu7b4wdy7e_scratch
  using UNIX socket
  @ DRIVER MODE: Message from server: STATUS
  @ DRIVER MODE: Message from server: INIT
  @ DRIVER MODE: Receiving replica           0          -1
  @ DRIVER MODE: Receiving encoded integer          25
  @ DRIVER MODE:  SCF:  T  FORCE:  T  STRESS:  F  VC:  F  ENSEMBLE:  F
  @ DRIVER MODE:  SCF:  T  FORCE:  T  STRESS:  F  VC:  F  ENSEMBLE:  F

     Using Slab Decomposition

     bravais-lattice index     =            0
     lattice parameter (alat)  =       1.8897  a.u.
     unit-cell volume          =    6658.9804 (a.u.)^3
     number of atoms/cell      =           55
     number of atomic types    =            5
     number of electrons       =       402.00
     number of Kohn-Sham states=          211
     kinetic-energy cutoff     =      29.3995  Ry
     charge density cutoff     =     293.9946  Ry
     scf convergence threshold =      7.3E-08
     mixing beta               =       0.0500
     number of iterations used =            8  plain     mixing
     Exchange-correlation= BEEF-VDW
                           (   1   4  43  14   2   0   0)

     celldm(1)=   1.889726  celldm(2)=   0.000000  celldm(3)=   0.000000
     celldm(4)=   0.000000  celldm(5)=   0.000000  celldm(6)=   0.000000

     crystal axes: (cart. coord. in units of alat)
               a(1) = (   6.579727   0.000000   0.000000 )
               a(2) = (  -0.000775   5.961596   0.000000 )
               a(3) = (   0.000000   0.000000  25.155947 )

     reciprocal axes: (cart. coord. in units 2 pi/alat)
               b(1) = (  0.151982  0.000020  0.000000 )
               b(2) = (  0.000000  0.167740  0.000000 )
               b(3) = (  0.000000  0.000000  0.039752 )

     PseudoPot. # 1 for Ti read from file:
     /storage/coda1/p-amedford6/0/shared/rich_project_chbe-medford/medford-share/data/pseudos_module/espresso/nninc/pbe/van/Ti.UPF
     MD5 check sum: 8e4df49b7f0d34bbd5052bf3f5ea0213
     Pseudo is Ultrasoft, Zval = 12.0
     Generated by new atomic code, or converted to UPF format
     Using radial grid of  851 points,  6 beta functions with:
                l(1) =   0
                l(2) =   0
                l(3) =   1
                l(4) =   1
                l(5) =   2
                l(6) =   2
     Q(r) pseudized with  8 coefficients,  rinner =    1.000   1.000   1.000
                                                       1.000   1.000

     PseudoPot. # 2 for O  read from file:
     /storage/coda1/p-amedford6/0/shared/rich_project_chbe-medford/medford-share/data/pseudos_module/espresso/nninc/pbe/van/O.UPF
     MD5 check sum: 78c19812648e8988a0fe644b0f25305e
     Pseudo is Ultrasoft, Zval =  6.0
     Generated by new atomic code, or converted to UPF format
     Using radial grid of  737 points,  4 beta functions with:
                l(1) =   0
                l(2) =   0
                l(3) =   1
                l(4) =   1
     Q(r) pseudized with  8 coefficients,  rinner =    0.800   0.800   0.800

     PseudoPot. # 3 for N  read from file:
     /storage/coda1/p-amedford6/0/shared/rich_project_chbe-medford/medford-share/data/pseudos_module/espresso/nninc/pbe/van/N.UPF
     MD5 check sum: 90d10febe142ad51ac9d5be1deb811c4
     Pseudo is Ultrasoft, Zval =  5.0
     Generated by new atomic code, or converted to UPF format
     Using radial grid of  729 points,  4 beta functions with:
                l(1) =   0
                l(2) =   0
                l(3) =   1
                l(4) =   1
     Q(r) pseudized with  8 coefficients,  rinner =    0.800   0.800   0.800

     PseudoPot. # 4 for C  read from file:
     /storage/coda1/p-amedford6/0/shared/rich_project_chbe-medford/medford-share/data/pseudos_module/espresso/nninc/pbe/van/C.UPF
     MD5 check sum: 1a69bf6b8db32088f5b2163dbdb77a27
     Pseudo is Ultrasoft, Zval =  4.0
     Generated by new atomic code, or converted to UPF format
     Using radial grid of  721 points,  4 beta functions with:
                l(1) =   0
                l(2) =   0
                l(3) =   1
                l(4) =   1
     Q(r) pseudized with  8 coefficients,  rinner =    0.800   0.800   0.800

     PseudoPot. # 5 for H  read from file:
     /storage/coda1/p-amedford6/0/shared/rich_project_chbe-medford/medford-share/data/pseudos_module/espresso/nninc/pbe/van/H.UPF
     MD5 check sum: b5ee9d7bfd3a09ee7748110bda690ff7
     Pseudo is Ultrasoft, Zval =  1.0
     Generated by new atomic code, or converted to UPF format
     Using radial grid of  615 points,  1 beta functions with:
                l(1) =   0
     Q(r) pseudized with  8 coefficients,  rinner =    0.800

     atomic species   valence    mass     pseudopotential
        Ti1           12.00    47.86700     Ti( 1.00)
        O1             6.00    15.99900     O ( 1.00)
        N1             5.00    14.00700     N ( 1.00)
        C1             4.00    12.01100     C ( 1.00)
        H1             1.00     1.00800     H ( 1.00)

     No symmetry found

   Cartesian axes

     site n.     atom                  positions (alat units)
         1           Ti1 tau(   1) = (   0.0004258   2.9801865   6.0000000  )
         2           Ti1 tau(   2) = (   3.2906075   1.4906267   6.0002472  )
         3           O1  tau(   3) = (   0.0006271   0.0005054   7.9858123  )
         4           O1  tau(   4) = (   3.2906025   0.0005020   7.3038282  )
         5           O1  tau(   5) = (   4.5942328   1.4918067   9.2879030  )
         6           O1  tau(   6) = (   1.9868534   1.4903216   9.2879459  )
         7           Ti1 tau(   7) = (   3.2907910   2.8959150   9.1758416  )
         8           Ti1 tau(   8) = (   0.0015273   1.4827037   9.2680791  )
         9           O1  tau(   9) = (   3.2989311   0.0219330  11.3020621  )
        10           O1  tau(  10) = (   0.0116148   5.9584955  10.6183126  )
        11           O1  tau(  11) = (   1.3029919   1.4976758  12.6257209  )
        12           O1  tau(  12) = (   5.3026591   1.4951023  12.6306759  )
        13           Ti1 tau(  13) = (   0.0286689   2.8598525  12.6759356  )
        14           Ti1 tau(  14) = (   3.3054201   1.5706400  12.4108957  )
        15           O1  tau(  15) = (   0.0066217   5.9386728  14.6456674  )
        16           O1  tau(  16) = (   3.2936494   5.9217248  13.9190535  )
        17           O1  tau(  17) = (   4.5783085   1.5227378  16.0725395  )
        18           O1  tau(  18) = (   2.0661487   1.5008106  16.0935948  )
        19           Ti1 tau(  19) = (   3.3004316   2.9577776  15.6622982  )
        20           Ti1 tau(  20) = (   6.5114840   1.4532315  15.8500040  )
        21           O1  tau(  21) = (   3.2904802   0.0005063   4.7018136  )
        22           O1  tau(  22) = (   0.0101108   5.9483577  17.1703567  )
        23           O1  tau(  23) = (   1.3043587   1.4918075   6.0039043  )
        24           O1  tau(  24) = (   5.2767064   1.4903225   6.0039473  )
        25           Ti1 tau(  25) = (   0.0000382   5.9609847   6.0000000  )
        26           Ti1 tau(  26) = (   3.2902200   4.4714249   6.0002472  )
        27           O1  tau(  27) = (   0.0002396   2.9813036   7.9858123  )
        28           O1  tau(  28) = (   3.2902150   2.9813002   7.3038282  )
        29           O1  tau(  29) = (   4.5938453   4.4726049   9.2879030  )
        30           O1  tau(  30) = (   1.9864658   4.4711199   9.2879459  )
        31           Ti1 tau(  31) = (   3.2891106   5.8743827   9.1763621  )
        32           Ti1 tau(  32) = (   0.0006254   4.4649316   9.2693709  )
        33           O1  tau(  33) = (   3.2985377   2.9527140  11.2683515  )
        34           O1  tau(  34) = (   0.0092240   2.9805883  10.6323155  )
        35           O1  tau(  35) = (   1.2869011   4.4751273  12.6337776  )
        36           O1  tau(  36) = (   5.3033013   4.4751711  12.6363117  )
        37           Ti1 tau(  37) = (   6.5677423   5.8343599  12.5653580  )
        38           Ti1 tau(  38) = (   3.2861748   4.6640272  12.6826305  )
        39           O1  tau(  39) = (   0.0268303   2.9326313  14.6927244  )
        40           O1  tau(  40) = (   3.2973518   2.9805258  13.8830516  )
        41           O1  tau(  41) = (   4.5656241   4.3944478  16.1024780  )
        42           O1  tau(  42) = (   2.0389263   4.3990843  16.1000718  )
        43           Ti1 tau(  43) = (   3.2183859   5.9292641  16.3327267  )
        44           Ti1 tau(  44) = (   6.5399727   4.6159235  16.0325440  )
        45           O1  tau(  45) = (   3.2900926   2.9813045   4.7018136  )
        46           O1  tau(  46) = (   1.3039711   4.4726057   6.0039043  )
        47           O1  tau(  47) = (   5.2763189   4.4711207   6.0039473  )
        48           N1  tau(  48) = (   0.1383159   2.7169024  18.7005470  )
        49           N1  tau(  49) = (   0.0454196   2.8879789  17.5111406  )
        50           C1  tau(  50) = (   0.1807782   3.8735959  19.6428767  )
        51           H1  tau(  51) = (   6.4938760   4.8136915  19.1652781  )
        52           H1  tau(  52) = (   6.0945921   3.6282151  20.4682347  )
        53           H1  tau(  53) = (   1.2016282   3.9139503  20.0277151  )
        54           O1  tau(  54) = (   3.2907091   5.9258944  18.1602194  )
        55           H1  tau(  55) = (   3.1351319   0.7410148  18.7017648  )

     number of k points=    10  Fermi-Dirac smearing, width (Ry)=  0.0073
                       cart. coord. in units 2pi/alat
        k(    1) = (   0.0000000   0.0000000   0.0000000), wk =   0.1250000
        k(    2) = (   0.0000000   0.0419351   0.0000000), wk =   0.2500000
        k(    3) = (   0.0000000  -0.0838702   0.0000000), wk =   0.1250000
        k(    4) = (   0.0379955   0.0000049   0.0000000), wk =   0.2500000
        k(    5) = (   0.0379955   0.0419400   0.0000000), wk =   0.2500000
        k(    6) = (   0.0379955  -0.0838652   0.0000000), wk =   0.2500000
        k(    7) = (   0.0379955  -0.0419301   0.0000000), wk =   0.2500000
        k(    8) = (  -0.0759910  -0.0000099   0.0000000), wk =   0.1250000
        k(    9) = (  -0.0759910   0.0419252   0.0000000), wk =   0.2500000
        k(   10) = (  -0.0759910  -0.0838800   0.0000000), wk =   0.1250000

     Initial potential from superposition of free atoms

     starting charge  385.99915, renormalised to  402.00000

     negative rho (up, down):  1.430E-02 0.000E+00

     %%%%%%%%%%%%%%%%%%%%%%%%%%%%%%%%%%%%%%%%%%%%%%%%%%%%%%%%%%%%%%%%%%%%%%%%
     %                                                                      %
     % You are using vdW-DF, which was implemented by the Thonhauser group. %
     % Please cite the following two papers that made this development      %
     % possible and the two reviews that describe the various versions:     %
     %                                                                      %
     %   T. Thonhauser et al., PRL 115, 136402 (2015).                      %
     %   T. Thonhauser et al., PRB 76, 125112 (2007).                       %
     %   K. Berland et al., Rep. Prog. Phys. 78, 066501 (2015).             %
     %   D.C. Langreth et al., J. Phys.: Condens. Matter 21, 084203 (2009). %
     %                                                                      %
     %                                                                      %
     % If you are calculating the stress with vdW-DF, please also cite:     %
     %                                                                      %
     %   R. Sabatini et al., J. Phys.: Condens. Matter 24, 424209 (2012).   %
     %                                                                      %
     %%%%%%%%%%%%%%%%%%%%%%%%%%%%%%%%%%%%%%%%%%%%%%%%%%%%%%%%%%%%%%%%%%%%%%%%

     Adding external electric field

     Computed dipole along edir(3) :
        Dipole              -12.0462 Ry au,        -30.6184 Debye
        Dipole field         -0.0227 Ry au,

        Potential amp.        2.1073 Ry
        Total length         46.3494 bohr

     Starting wfcs are  304 atomic wfcs
  @ DRIVER MODE: Message from server: STATUS
  @ DRIVER MODE: Message from server: POSDATA
  @ DRIVER MODE: Reading and sharing cell
  @ DRIVER MODE: Reading and sharing positions
  @ DRIVER MODE: Received positions

     Self-consistent Calculation

     iteration #  1     ecut=    29.40 Ry     beta= 0.05
     Davidson diagonalization with overlap
     c_bands:  5 eigenvalues not converged
     c_bands:  3 eigenvalues not converged
     c_bands:  5 eigenvalues not converged
     c_bands:  3 eigenvalues not converged
     c_bands:  3 eigenvalues not converged
     c_bands:  2 eigenvalues not converged
     c_bands:  5 eigenvalues not converged
     c_bands:  5 eigenvalues not converged
     ethr =  1.00E-05,  avg # of iterations = 21.5

[...]

     total energy              =   -2397.69131103 Ry
     estimated scf accuracy    <    6480.59478155 Ry

     iteration #  2     ecut=    29.40 Ry     beta= 0.05
     Davidson diagonalization with overlap
     ethr =  1.00E-02,  avg # of iterations = 22.2

[...]

     iteration # 44     ecut=    29.40 Ry     beta= 0.05
     Davidson diagonalization with overlap
     c_bands:  1 eigenvalues not converged
     ethr =  3.92E-07,  avg # of iterations =  7.9

[...]

     total energy              =   -2972.75290323 Ry
     estimated scf accuracy    <       0.00000014 Ry

     iteration # 67     ecut=    29.40 Ry     beta= 0.05
     Davidson diagonalization with overlap
     ethr =  3.44E-11,  avg # of iterations =  4.3

     negative rho (up, down):  1.493E-02 0.000E+00

     Adding external electric field

     Computed dipole along edir(3) :
        Dipole                0.6540 Ry au,          1.6624 Debye
        Dipole field          0.0012 Ry au,

        Potential amp.       -0.1144 Ry
        Total length         46.3494 bohr

     End of self-consistent calculation

          k = 0.0000 0.0000 0.0000 ( 18029 PWs)   bands (ev):

   -56.2021 -56.1683 -55.7879 -55.7544 -55.5851 -55.5478 -55.4979 -55.3489
   -55.3143 -55.3132 -55.1690 -55.1546 -55.0289 -55.0052 -54.9736 -54.9396
   -32.6524 -32.4945 -32.4676 -32.3605 -32.2766 -32.2679 -32.2675 -32.0318
   -32.0068 -31.9872 -31.9352 -31.9299 -31.9269 -31.8950 -31.8465 -31.8222
   -31.7944 -31.7702 -31.7684 -31.7259 -31.7105 -31.6980 -31.6849 -31.6557
   -31.6381 -31.6251 -31.5547 -31.5332 -31.5247 -31.5212 -31.4990 -31.4655
   -31.4354 -31.4017 -31.3702 -31.3637 -31.3578 -31.3067 -31.2856 -31.2831
   -31.2580 -31.2409 -31.2408 -31.2371 -31.2160 -31.1889 -31.1043 -30.9924
   -18.8071 -16.4962 -16.4879 -16.1611 -15.9548 -15.7794 -15.6956 -15.6830
   -15.6335 -15.5124 -15.5008 -15.3888 -15.3012 -15.2255 -15.1984 -15.1956
   -15.1018 -15.0576 -15.0147 -14.9902 -14.9784 -14.9703 -14.9393 -14.8318
   -14.8239 -14.7959 -14.6974 -14.6858 -14.5824 -14.2862 -14.2709 -13.4715
   -13.3593 -11.4404  -6.8927  -4.3526  -4.1889  -4.0050  -3.9800  -3.9386
    -3.7091  -3.4966  -3.4113  -3.2482  -3.1946  -3.1156  -2.9181  -2.9083
    -2.8537  -2.7830  -2.7082  -2.6493  -2.6024  -2.5857  -2.4907  -2.4526
    -2.4318  -2.4287  -2.3953  -2.3800  -2.2553  -2.2527  -2.2215  -2.1717
    -2.1126  -2.0980  -2.0313  -2.0222  -2.0052  -1.9575  -1.9219  -1.8753
    -1.8032  -1.7883  -1.6543  -1.6303  -1.6222  -1.5416  -1.5159  -1.5070
    -1.4572  -1.2970  -1.2258  -1.1786  -1.1750  -1.0365  -1.0216  -0.9855
    -0.9046  -0.8694  -0.7804  -0.7711  -0.7594  -0.7509  -0.6675  -0.6313
    -0.6163  -0.5896  -0.4071  -0.3783  -0.3162  -0.2643  -0.1649  -0.1210
    -0.1149  -0.1052  -0.0663  -0.0102   0.0119   0.0264   0.1254   0.1510
     0.2032   0.2719   0.3082   0.3806   0.4006   0.4022   0.4142   0.4687
     0.5603   0.6537   0.6958   0.7113   0.7799   0.7945   0.9310   0.9446
     1.0506   1.0921   1.1005   1.1614   1.2817   1.5645   1.5989   1.6382
     2.7572   3.0243   3.1518   3.3086   3.4562   3.5524   3.8441   3.8899
     3.9287   3.9521   3.9943

[...]

          k = 0.0380-0.0419 0.0000 ( 17876 PWs)   bands (ev):

[...]

          k =-0.0760-0.0000 0.0000 ( 17886 PWs)   bands (ev):

[...]

          k =-0.0760-0.0839 0.0000 ( 17948 PWs)   bands (ev):

   -56.1852 -56.1850 -55.7718 -55.7703 -55.5844 -55.5412 -55.5044 -55.3363
   -55.3257 -55.3148 -55.1671 -55.1527 -55.0308 -55.0070 -54.9567 -54.9564
   -32.4801 -32.4798 -32.4685 -32.4684 -32.3127 -32.3121 -32.0921 -32.0885
   -31.9660 -31.9632 -31.9606 -31.9597 -31.8712 -31.8470 -31.8229 -31.8205
   -31.7851 -31.7633 -31.7627 -31.7292 -31.7211 -31.6910 -31.6701 -31.6583
   -31.6047 -31.5981 -31.5751 -31.5584 -31.5427 -31.5424 -31.5262 -31.5060
   -31.4275 -31.4062 -31.3735 -31.3695 -31.3559 -31.3011 -31.2961 -31.2959
   -31.2904 -31.2500 -31.2463 -31.2414 -31.1851 -31.1847 -31.1470 -31.1465
   -18.8043 -16.4806 -15.9042 -15.8951 -15.7687 -15.7636 -15.5893 -15.5756
   -15.5754 -15.4918 -15.4525 -15.4293 -15.2867 -15.2733 -15.2131 -15.1877
   -15.1699 -15.1484 -15.1383 -15.1055 -15.0953 -15.0427 -14.9858 -14.9790
   -14.9201 -14.9126 -14.7549 -14.6927 -14.6471 -14.4989 -14.4063 -13.4626
   -13.4620 -11.4382  -6.9064  -4.2931  -4.2072  -3.9714  -3.9322  -3.0695
    -3.0209  -2.9184  -2.8811  -2.8001  -2.7878  -2.6769  -2.6605  -2.6139
    -2.5977  -2.5892  -2.5440  -2.4978  -2.4879  -2.4654  -2.4392  -2.4236
    -2.4117  -2.3737  -2.3243  -2.3078  -2.3024  -2.2772  -2.1750  -2.1444
    -2.1327  -2.1243  -2.0973  -2.0730  -2.0300  -1.9589  -1.9260  -1.8878
    -1.8758  -1.8062  -1.7452  -1.6953  -1.6795  -1.6120  -1.5542  -1.5300
    -1.4523  -1.4054  -1.2915  -1.2786  -1.2608  -1.1979  -1.1753  -1.1225
    -1.1015  -1.0403  -0.9900  -0.9667  -0.9624  -0.9485  -0.8806  -0.8189
    -0.7107  -0.6638  -0.6473  -0.6137  -0.6102  -0.5801  -0.5457  -0.5089
    -0.4079  -0.3949  -0.3828  -0.3308  -0.3213  -0.2474  -0.1714  -0.0538
     0.0666   0.1418   0.1518   0.1720   0.2108   0.2940   0.3714   0.4121
     0.4573   0.5172   0.5594   0.5982   0.6660   0.8069   0.8596   0.8810
     0.9650   1.0023   1.0727   1.1604   1.4389   1.4497   1.4541   1.4550
     2.8093   3.5733   3.5758   3.6053   3.6162   3.7313   3.8110   3.8286
     3.9534   4.0111   4.0691

     the Fermi energy is     2.9606 ev

!    total energy              =   -2972.75293353 Ry
     estimated scf accuracy    <       0.00000005 Ry
     smearing contrib. (-TS)   =      -0.01284155 Ry
     internal energy E=F+TS    =   -2972.74009198 Ry

     The total energy is F=E-TS. E is the sum of the following terms:
     one-electron contribution =  -23538.66126516 Ry
     hartree contribution      =   11862.93785585 Ry
     xc contribution           =    -493.07761654 Ry
     ewald contribution        =    9196.06012660 Ry
     electric field correction =       0.00080727 Ry

     convergence has been achieved in  67 iterations

     Forces acting on atoms (cartesian axes, Ry/au):

     atom    1 type  1   force =     0.00007817   -0.00037505    0.10681695
     atom    2 type  1   force =    -0.00012940    0.00016333   -0.16542378
     atom    3 type  2   force =     0.00006754   -0.00044675   -0.03889147
     atom    4 type  2   force =     0.00000260    0.00016161    0.03536959
     atom    5 type  2   force =    -0.00263741   -0.00317856   -0.00914099
     atom    6 type  2   force =     0.00445602   -0.00251359   -0.00942604
     atom    7 type  1   force =    -0.00001782    0.00133283    0.03447406
     atom    8 type  1   force =     0.00023957    0.01556373    0.06077887
     atom    9 type  2   force =    -0.00018013   -0.00046170    0.00006027
     atom   10 type  2   force =    -0.00255746    0.00088009   -0.04256302
     atom   11 type  2   force =    -0.00099271    0.00035797    0.00038574
     atom   12 type  2   force =     0.00048730    0.00025577    0.00028093
     atom   13 type  1   force =     0.00044546    0.00068622   -0.00041672
     atom   14 type  1   force =     0.00026221   -0.00012395    0.00039726
     atom   15 type  2   force =     0.00022561    0.00060873    0.00008721
     atom   16 type  2   force =    -0.00010324   -0.00035751   -0.00064382
     atom   17 type  2   force =    -0.00000029    0.00033794   -0.00022643
     atom   18 type  2   force =     0.00008599    0.00007100   -0.00048278
     atom   19 type  1   force =     0.00020919   -0.00124364    0.00016357
     atom   20 type  1   force =     0.00012316    0.00020463   -0.00032885
     atom   21 type  2   force =     0.00003303    0.00013499    0.10038690
     atom   22 type  2   force =     0.00015049    0.00061771   -0.00002836
     atom   23 type  2   force =    -0.07678474   -0.00000606   -0.03009756
     atom   24 type  2   force =     0.07665346    0.00046568   -0.03014396
     atom   25 type  1   force =    -0.00008942   -0.00044975    0.10719049
     atom   26 type  1   force =    -0.00021336   -0.00130861   -0.16549178
     atom   27 type  2   force =     0.00010039   -0.00031956   -0.03718109
     atom   28 type  2   force =     0.00004641   -0.00000479    0.03053525
     atom   29 type  2   force =    -0.00567456    0.00365961   -0.00700975
     atom   30 type  2   force =     0.00730892    0.00400860   -0.00728384
     atom   31 type  1   force =    -0.00012039   -0.00227761    0.02266997
     atom   32 type  1   force =     0.00032777   -0.01776839    0.06126153
     atom   33 type  2   force =    -0.00017118    0.00020997   -0.00016605
     atom   34 type  2   force =    -0.00143767    0.00001685   -0.05427820
     atom   35 type  2   force =    -0.00001517   -0.00017378   -0.00021137
     atom   36 type  2   force =    -0.00030493    0.00005341   -0.00005913
     atom   37 type  1   force =     0.00013299   -0.00005466    0.00054805
     atom   38 type  1   force =     0.00033615   -0.00004074    0.00008811
     atom   39 type  2   force =    -0.00011768    0.00031821   -0.00034640
     atom   40 type  2   force =     0.00000905    0.00031988    0.00045941
     atom   41 type  2   force =    -0.00033159    0.00035183    0.00010511
     atom   42 type  2   force =     0.00029133    0.00014363    0.00025973
     atom   43 type  1   force =     0.00026492    0.00111048    0.00099514
     atom   44 type  1   force =     0.00033783    0.00020689   -0.00038609
     atom   45 type  2   force =     0.00003640    0.00013541    0.10023142
     atom   46 type  2   force =    -0.07675874    0.00003537   -0.03008184
     atom   47 type  2   force =     0.07661711    0.00047279   -0.03010170
     atom   48 type  3   force =     0.00034062    0.00074191   -0.00125546
     atom   49 type  3   force =     0.00033613   -0.00044721   -0.00032715
     atom   50 type  4   force =     0.00011319   -0.00002839   -0.00019962
     atom   51 type  5   force =    -0.00019132   -0.00054452   -0.00060918
     atom   52 type  5   force =    -0.00019016   -0.00042682   -0.00018842
     atom   53 type  5   force =     0.00018437    0.00008578   -0.00048434
     atom   54 type  2   force =     0.00281761   -0.01429808   -0.00792148
     atom   55 type  5   force =    -0.00410163    0.01313688    0.00785112

     Total force =     0.381408     Total SCF correction =     0.000658
  @ DRIVER MODE: Message from server: STATUS
  @ DRIVER MODE: Message from server: GETFORCE
  @ DRIVER MODE: Returning v,forces,stress,ensemble

     Writing output data file ./calc.save/
  @ DRIVER MODE: Message from server: EXIT
  @ DRIVE MODE: Exiting

     General routines

     Parallel routines

   This run was terminated on:  14:56:13  23Sep2021

   JOB DONE.