     Program PWSCF v.6.7GPU starts on 18Oct2021 at 11:56: 9

     R & G space division:  proc/nbgrp/npool/nimage =       8
     Reading input from /storage/home/hcoda1/3/ntian30/research/carbon/CxH_vib/Thiel_calc/ads_slab/NNH2HH_perslab/out_0001/pw.inp
Warning: card &CELL ignored
Warning: card   CELL_DYNAMICS='IPI', ignored
Warning: card / ignored

     Current dimensions of program PWSCF are:
     Max number of different atomic species (ntypx) = 10
     Max number of k-points (npk) =  40000
     Max angular momentum in pseudopotentials (lmaxx) =  3
     Presently no symmetry can be used with electric field

     Message from routine cell_base_init:
     DEPRECATED: use true lattice parameter, not A to a.u. conversion factor

     IMPORTANT: XC functional enforced from input :
     Exchange-correlation= BEEF-VDW
                           (   1   4  43  14   2   0   0)
     Any further DFT definition will be discarded
     Please, verify this is what you really want

  @ DRIVER MODE: Connecting to
 qe_1139763_3255133.sched-torque.pace.gatech.eduhx2edjaa_scratch
  using UNIX socket
  @ DRIVER MODE: Message from server: STATUS
  @ DRIVER MODE: Message from server: INIT
  @ DRIVER MODE: Receiving replica           0          -1
  @ DRIVER MODE: Receiving encoded integer          25
  @ DRIVER MODE:  SCF:  T  FORCE:  T  STRESS:  F  VC:  F  ENSEMBLE:  F
  @ DRIVER MODE:  SCF:  T  FORCE:  T  STRESS:  F  VC:  F  ENSEMBLE:  F

     Using Slab Decomposition

     bravais-lattice index     =            0
     lattice parameter (alat)  =       1.8897  a.u.
     unit-cell volume          =    9988.4706 (a.u.)^3
     number of atoms/cell      =           59
     number of atomic types    =            4
     number of electrons       =       440.00
     number of Kohn-Sham states=          230
     kinetic-energy cutoff     =      29.3995  Ry
     charge density cutoff     =     293.9946  Ry
     scf convergence threshold =      7.3E-08
     mixing beta               =       0.0500
     number of iterations used =            8  plain     mixing
     Exchange-correlation= BEEF-VDW
                           (   1   4  43  14   2   0   0)

     celldm(1)=   1.889726  celldm(2)=   0.000000  celldm(3)=   0.000000
     celldm(4)=   0.000000  celldm(5)=   0.000000  celldm(6)=   0.000000

     crystal axes: (cart. coord. in units of alat)
               a(1) = (   6.579727   0.000000   0.000000 )
               a(2) = (  -0.001163   8.942395   0.000000 )
               a(3) = (   0.000000   0.000000  25.155947 )

     reciprocal axes: (cart. coord. in units 2 pi/alat)
               b(1) = (  0.151982  0.000020  0.000000 )
               b(2) = (  0.000000  0.111827  0.000000 )
               b(3) = (  0.000000  0.000000  0.039752 )

     PseudoPot. # 1 for O  read from file:
     /storage/coda1/p-amedford6/0/shared/rich_project_chbe-medford/medford-share/data/pseudos_module/espresso/nninc/pbe/van/O.UPF
     MD5 check sum: 78c19812648e8988a0fe644b0f25305e
     Pseudo is Ultrasoft, Zval =  6.0
     Generated by new atomic code, or converted to UPF format
     Using radial grid of  737 points,  4 beta functions with:
                l(1) =   0
                l(2) =   0
                l(3) =   1
                l(4) =   1
     Q(r) pseudized with  8 coefficients,  rinner =    0.800   0.800   0.800

     PseudoPot. # 2 for Ti read from file:
     /storage/coda1/p-amedford6/0/shared/rich_project_chbe-medford/medford-share/data/pseudos_module/espresso/nninc/pbe/van/Ti.UPF
     MD5 check sum: 8e4df49b7f0d34bbd5052bf3f5ea0213
     Pseudo is Ultrasoft, Zval = 12.0
     Generated by new atomic code, or converted to UPF format
     Using radial grid of  851 points,  6 beta functions with:
                l(1) =   0
                l(2) =   0
                l(3) =   1
                l(4) =   1
                l(5) =   2
                l(6) =   2
     Q(r) pseudized with  8 coefficients,  rinner =    1.000   1.000   1.000
                                                       1.000   1.000

     PseudoPot. # 3 for H  read from file:
     /storage/coda1/p-amedford6/0/shared/rich_project_chbe-medford/medford-share/data/pseudos_module/espresso/nninc/pbe/van/H.UPF
     MD5 check sum: b5ee9d7bfd3a09ee7748110bda690ff7
     Pseudo is Ultrasoft, Zval =  1.0
     Generated by new atomic code, or converted to UPF format
     Using radial grid of  615 points,  1 beta functions with:
                l(1) =   0
     Q(r) pseudized with  8 coefficients,  rinner =    0.800

     PseudoPot. # 4 for N  read from file:
     /storage/coda1/p-amedford6/0/shared/rich_project_chbe-medford/medford-share/data/pseudos_module/espresso/nninc/pbe/van/N.UPF
     MD5 check sum: 90d10febe142ad51ac9d5be1deb811c4
     Pseudo is Ultrasoft, Zval =  5.0
     Generated by new atomic code, or converted to UPF format
     Using radial grid of  729 points,  4 beta functions with:
                l(1) =   0
                l(2) =   0
                l(3) =   1
                l(4) =   1
     Q(r) pseudized with  8 coefficients,  rinner =    0.800   0.800   0.800

     atomic species   valence    mass     pseudopotential
        O1             6.00    15.99900     O ( 1.00)
        Ti1           12.00    47.86700     Ti( 1.00)
        H1             1.00     1.00800     H ( 1.00)
        N1             5.00    14.00700     N ( 1.00)

     No symmetry found

   Cartesian axes

     site n.     atom                  positions (alat units)
         1           O1  tau(   1) = (   0.0007354   0.0005023  10.5931620  )
         2           O1  tau(   2) = (   3.3122003   8.9411730  13.9078397  )
         3           O1  tau(   3) = (   0.0119464   0.1585559  17.3480684  )
         4           O1  tau(   4) = (   0.0006271   0.0005054   7.9858123  )
         5           O1  tau(   5) = (   3.2844644   8.9346379  11.1901754  )
         6           O1  tau(   6) = (   6.5618141   0.0157575  14.6617184  )
         7           O1  tau(   7) = (   1.9868534   1.4903216   9.2879459  )
         8           O1  tau(   8) = (   5.2413352   1.5994427  12.5710249  )
         9           O1  tau(   9) = (   2.0249271   1.5994163  16.0383581  )
        10           Ti1 tau(  10) = (   0.0007404   1.4906270   9.2895810  )
        11           Ti1 tau(  11) = (   3.2875257   1.3541315  12.5031546  )
        12           Ti1 tau(  12) = (   0.1037617   1.4803996  15.8781706  )
        13           O1  tau(  13) = (   4.5942328   1.4918067   9.2879030  )
        14           O1  tau(  14) = (   1.3445879   1.6225681  12.6047105  )
        15           O1  tau(  15) = (   4.5270247   1.5277052  16.0690704  )
        16           Ti1 tau(  16) = (   3.2902859   2.9801868   9.2893338  )
        17           Ti1 tau(  17) = (   6.5717848   2.8351652  12.4611715  )
        18           Ti1 tau(  18) = (   3.3615503   2.9380122  15.7113248  )
        19           O1  tau(  19) = (   0.0003479   2.9813005  10.5931620  )
        20           O1  tau(  20) = (   3.3257229   2.9884659  13.9122956  )
        21           O1  tau(  21) = (   0.0002396   2.9813036   7.9858123  )
        22           O1  tau(  22) = (   3.2846765   2.9682620  11.1924388  )
        23           O1  tau(  23) = (   6.5193973   3.0012958  14.6893217  )
        24           O1  tau(  24) = (   1.9864658   4.4711199   9.2879459  )
        25           O1  tau(  25) = (   5.2358842   4.5821056  12.5715879  )
        26           O1  tau(  26) = (   1.9668816   4.5963109  15.9958849  )
        27           Ti1 tau(  27) = (   0.0003529   4.4714252   9.2895810  )
        28           Ti1 tau(  28) = (   3.2817300   4.3379106  12.5030846  )
        29           Ti1 tau(  29) = (   6.5286400   4.3105241  16.0387364  )
        30           O1  tau(  30) = (   4.5938453   4.4726049   9.2879030  )
        31           O1  tau(  31) = (   1.3350840   4.5883300  12.6034823  )
        32           O1  tau(  32) = (   4.4768606   4.5746599  16.1328061  )
        33           Ti1 tau(  33) = (   3.2898983   5.9609850   9.2893338  )
        34           Ti1 tau(  34) = (   6.5687693   5.8095266  12.4696282  )
        35           Ti1 tau(  35) = (   3.1936624   5.9077503  15.7132784  )
        36           O1  tau(  36) = (  -0.0000397   5.9620987  10.5931620  )
        37           O1  tau(  37) = (   3.2950800   5.9615338  13.9080848  )
        38           O1  tau(  38) = (   6.5705097   6.0321180  17.3127682  )
        39           O1  tau(  39) = (  -0.0001480   5.9621018   7.9858123  )
        40           O1  tau(  40) = (   3.2829949   5.9473389  11.1919414  )
        41           O1  tau(  41) = (   6.5313079   6.0695169  14.6234680  )
        42           O1  tau(  42) = (   1.9860782   7.4519181   9.2879459  )
        43           O1  tau(  43) = (   5.2305909   7.5696458  12.5615615  )
        44           O1  tau(  44) = (   1.9930026   7.5537276  16.0441964  )
        45           Ti1 tau(  45) = (  -0.0000347   7.4522234   9.2895810  )
        46           Ti1 tau(  46) = (   3.2809715   7.3153274  12.5063831  )
        47           Ti1 tau(  47) = (  -0.0000777   7.3827053  15.8005402  )
        48           O1  tau(  48) = (   4.5934577   7.4534031   9.2879030  )
        49           O1  tau(  49) = (   1.3440923   7.5800077  12.5804573  )
        50           O1  tau(  50) = (   4.5564015   7.5743432  16.1458831  )
        51           Ti1 tau(  51) = (   3.2895107   8.9417832   9.2893338  )
        52           Ti1 tau(  52) = (   6.5681474   8.7932977  12.4619754  )
        53           Ti1 tau(  53) = (   3.3227810   8.9003220  15.7121742  )
        54           H1  tau(  54) = (   5.8275475   6.1301351  17.9339333  )
        55           H1  tau(  55) = (   5.7673184   0.1799947  17.8523786  )
        56           H1  tau(  56) = (   0.0490247   3.6154164  19.2291769  )
        57           N1  tau(  57) = (   6.4107751   2.7916545  18.6713363  )
        58           N1  tau(  58) = (   6.5444414   3.0434393  17.3342366  )
        59           H1  tau(  59) = (   0.3957958   1.9971216  18.9670883  )

     number of k points=    10  Fermi-Dirac smearing, width (Ry)=  0.0073
                       cart. coord. in units 2pi/alat
        k(    1) = (   0.0000000   0.0000000   0.0000000), wk =   0.1250000
        k(    2) = (   0.0000000   0.0279567   0.0000000), wk =   0.2500000
        k(    3) = (   0.0000000  -0.0559134   0.0000000), wk =   0.1250000
        k(    4) = (   0.0379955   0.0000049   0.0000000), wk =   0.2500000
        k(    5) = (   0.0379955   0.0279617   0.0000000), wk =   0.2500000
        k(    6) = (   0.0379955  -0.0559085   0.0000000), wk =   0.2500000
        k(    7) = (   0.0379955  -0.0279518   0.0000000), wk =   0.2500000
        k(    8) = (  -0.0759910  -0.0000099   0.0000000), wk =   0.1250000
        k(    9) = (  -0.0759910   0.0279468   0.0000000), wk =   0.2500000
        k(   10) = (  -0.0759910  -0.0559233   0.0000000), wk =   0.1250000

     Initial potential from superposition of free atoms

     starting charge  421.99910, renormalised to  440.00000

     negative rho (up, down):  3.725E-02 0.000E+00

     %%%%%%%%%%%%%%%%%%%%%%%%%%%%%%%%%%%%%%%%%%%%%%%%%%%%%%%%%%%%%%%%%%%%%%%%
     %                                                                      %
     % You are using vdW-DF, which was implemented by the Thonhauser group. %
     % Please cite the following two papers that made this development      %
     % possible and the two reviews that describe the various versions:     %
     %                                                                      %
     %   T. Thonhauser et al., PRL 115, 136402 (2015).                      %
     %   T. Thonhauser et al., PRB 76, 125112 (2007).                       %
     %   K. Berland et al., Rep. Prog. Phys. 78, 066501 (2015).             %
     %   D.C. Langreth et al., J. Phys.: Condens. Matter 21, 084203 (2009). %
     %                                                                      %
     %                                                                      %
     % If you are calculating the stress with vdW-DF, please also cite:     %
     %                                                                      %
     %   R. Sabatini et al., J. Phys.: Condens. Matter 24, 424209 (2012).   %
     %                                                                      %
     %%%%%%%%%%%%%%%%%%%%%%%%%%%%%%%%%%%%%%%%%%%%%%%%%%%%%%%%%%%%%%%%%%%%%%%%

     Adding external electric field

     Computed dipole along edir(3) :
        Dipole               -5.7841 Ry au,        -14.7017 Debye
        Dipole field         -0.0073 Ry au,

        Potential amp.        0.6746 Ry
        Total length         46.3494 bohr

     Starting wfcs are  332 atomic wfcs
  @ DRIVER MODE: Message from server: STATUS
  @ DRIVER MODE: Message from server: POSDATA
  @ DRIVER MODE: Reading and sharing cell
  @ DRIVER MODE: Reading and sharing positions
  @ DRIVER MODE: Received positions

     Self-consistent Calculation

     iteration #  1     ecut=    29.40 Ry     beta= 0.05
     Davidson diagonalization with overlap
     c_bands:  1 eigenvalues not converged
     c_bands:  2 eigenvalues not converged
     c_bands:  4 eigenvalues not converged
     c_bands:  1 eigenvalues not converged
     c_bands:  1 eigenvalues not converged
     c_bands:  4 eigenvalues not converged
     c_bands:  1 eigenvalues not converged
     c_bands:  4 eigenvalues not converged
     c_bands:  4 eigenvalues not converged
     c_bands:  4 eigenvalues not converged
     ethr =  1.00E-05,  avg # of iterations = 20.0

[...]

     total energy              =   -3276.35921055 Ry
     estimated scf accuracy    <     230.08129954 Ry

     iteration #  2     ecut=    29.40 Ry     beta= 0.05
     Davidson diagonalization with overlap
     ethr =  1.00E-02,  avg # of iterations = 16.3

[...]

     iteration # 44     ecut=    29.40 Ry     beta= 0.05
     Davidson diagonalization with overlap
     c_bands:  1 eigenvalues not converged
     ethr =  2.60E-11,  avg # of iterations = 13.2

[...]

     total energy              =   -3293.24419403 Ry
     estimated scf accuracy    <       0.00000010 Ry

     iteration # 46     ecut=    29.40 Ry     beta= 0.05
     Davidson diagonalization with overlap
     ethr =  2.18E-11,  avg # of iterations =  6.0

     negative rho (up, down):  3.571E-02 0.000E+00

     Adding external electric field

     Computed dipole along edir(3) :
        Dipole                1.5612 Ry au,          3.9682 Debye
        Dipole field          0.0020 Ry au,

        Potential amp.       -0.1821 Ry
        Total length         46.3494 bohr

     End of self-consistent calculation

          k = 0.0000 0.0000 0.0000 ( 26871 PWs)   bands (ev):

   -57.7052 -57.6981 -57.6803 -57.6786 -57.6549 -57.6136 -57.5654 -57.5280
   -57.5040 -57.5003 -57.4993 -57.4953 -57.4670 -57.4569 -56.7848 -56.7260
   -56.7018 -56.6983 -34.1023 -34.0877 -34.0859 -34.0841 -34.0601 -34.0419
   -34.0362 -34.0220 -34.0172 -33.9987 -33.9648 -33.9620 -33.9523 -33.9465
   -33.9016 -33.8989 -33.8924 -33.8854 -33.8723 -33.8487 -33.8433 -33.8313
   -33.8277 -33.8213 -33.8018 -33.8006 -33.7983 -33.7816 -33.7656 -33.7434
   -33.7397 -33.7353 -33.7238 -33.7161 -33.7076 -33.6929 -33.6883 -33.6872
   -33.6841 -33.6782 -33.6720 -33.6440 -33.2408 -33.0407 -33.0406 -33.0364
   -33.0248 -33.0216 -32.9939 -32.9796 -32.9522 -32.8895 -32.8854 -32.7518
   -19.1590 -18.9870 -18.8578 -18.5630 -18.1596 -17.9928 -17.9702 -17.9524
   -17.9121 -17.8128 -17.8116 -17.6323 -17.5747 -17.5415 -17.5121 -17.5061
   -17.4350 -17.3972 -17.3818 -17.3632 -17.3577 -17.3510 -17.3338 -17.2894
   -17.2533 -17.1985 -17.1839 -17.1484 -17.1368 -17.1351 -17.1337 -17.0645
   -16.8300 -15.1927 -15.1350 -15.1334 -12.1124  -7.8955  -6.7704  -6.5396
    -6.3345  -5.8920  -5.6755  -5.6228  -5.5415  -5.1853  -5.1714  -5.1032
    -5.0913  -5.0647  -4.9980  -4.9838  -4.9801  -4.9653  -4.8837  -4.8476
    -4.8354  -4.7873  -4.7698  -4.7109  -4.6465  -4.6367  -4.5760  -4.5402
    -4.5049  -4.4993  -4.4940  -4.4854  -4.4690  -4.4351  -4.3616  -4.3110
    -4.1760  -4.1708  -4.1177  -4.0520  -4.0245  -4.0162  -3.9552  -3.8801
    -3.8379  -3.8302  -3.7888  -3.7596  -3.7238  -3.7025  -3.6776  -3.5849
    -3.4926  -3.4587  -3.4540  -3.4123  -3.3997  -3.3467  -3.2317  -3.1781
    -3.1114  -3.0490  -2.9874  -2.9635  -2.9231  -2.8692  -2.8463  -2.7961
    -2.7747  -2.7229  -2.6780  -2.6262  -2.5353  -2.4768  -2.4716  -2.4594
    -2.4036  -2.3877  -2.3734  -2.3508  -2.3255  -2.2706  -2.2381  -2.2066
    -2.1733  -2.1425  -2.0970  -2.0622  -2.0515  -1.9430  -1.9085  -1.8805
    -1.7549  -1.7301  -1.6857  -1.6544  -1.5614  -1.5465  -1.5455  -1.4306
    -1.4149  -1.0953  -1.0010  -0.7466  -0.4758  -0.4305  -0.4297  -0.1660
    -0.1632  -0.0338   0.5253   1.2661   1.5212   1.6672   1.7256   1.7430
     1.7899   1.8748   1.8914   1.9229   1.9398   1.9764

[...]

          k = 0.0380-0.0280 0.0000 ( 26873 PWs)   bands (ev):

[...]

          k =-0.0760-0.0000 0.0000 ( 26902 PWs)   bands (ev):

[...]

          k =-0.0760-0.0559 0.0000 ( 26868 PWs)   bands (ev):

   -57.6974 -57.6973 -57.6957 -57.6709 -57.6562 -57.6128 -57.5654 -57.5213
   -57.5166 -57.4994 -57.4936 -57.4934 -57.4732 -57.4532 -56.7847 -56.7190
   -56.7156 -56.6915 -34.1803 -34.1728 -34.0873 -34.0611 -34.0517 -34.0370
   -34.0315 -34.0295 -33.9981 -33.9868 -33.9543 -33.9312 -33.9044 -33.8964
   -33.8944 -33.8810 -33.8745 -33.8464 -33.8455 -33.8412 -33.8372 -33.8344
   -33.8242 -33.8127 -33.7892 -33.7876 -33.7788 -33.7777 -33.7746 -33.7656
   -33.7563 -33.7493 -33.7352 -33.7337 -33.7212 -33.7191 -33.7160 -33.7104
   -33.6935 -33.6758 -33.6691 -33.6681 -33.2473 -33.1302 -33.0407 -33.0377
   -33.0146 -32.9949 -32.9807 -32.9328 -32.9286 -32.8658 -32.8506 -32.8468
   -19.0869 -19.0561 -18.8418 -18.2571 -18.2402 -17.9269 -17.8848 -17.8365
   -17.8318 -17.8075 -17.7376 -17.7209 -17.6874 -17.6236 -17.5400 -17.5109
   -17.4840 -17.4509 -17.4377 -17.4307 -17.4209 -17.3982 -17.3568 -17.3532
   -17.3021 -17.2561 -17.2209 -17.1707 -17.1404 -17.0901 -17.0648 -17.0374
   -16.8637 -15.1909 -15.1887 -15.0720 -12.1108  -7.8985  -6.7621  -6.5654
    -6.2916  -5.5051  -5.4958  -5.4877  -5.4392  -5.1472  -5.0396  -4.9925
    -4.9883  -4.9616  -4.9040  -4.8888  -4.8767  -4.8610  -4.8497  -4.8137
    -4.8089  -4.7642  -4.7526  -4.7392  -4.6893  -4.6314  -4.6258  -4.6013
    -4.5922  -4.5186  -4.5112  -4.4603  -4.3657  -4.3216  -4.3028  -4.2978
    -4.2594  -4.2265  -4.2189  -4.1472  -3.8996  -3.8904  -3.8677  -3.8495
    -3.8117  -3.7641  -3.7339  -3.7142  -3.6562  -3.5514  -3.4267  -3.3937
    -3.3806  -3.3639  -3.3388  -3.2991  -3.2875  -3.2770  -3.2321  -3.2011
    -3.1991  -3.1562  -3.1136  -3.0242  -2.9895  -2.9332  -2.8874  -2.8454
    -2.8329  -2.8216  -2.8151  -2.7982  -2.7689  -2.7539  -2.7403  -2.7018
    -2.6853  -2.6199  -2.5683  -2.5065  -2.4846  -2.4291  -2.3582  -2.2772
    -2.2539  -2.1905  -2.0978  -2.0406  -1.9999  -1.9682  -1.9492  -1.9281
    -1.8485  -1.8240  -1.7964  -1.7827  -1.5200  -1.5169  -1.3719  -1.3384
    -1.2876  -1.2795  -1.2102  -1.0529  -0.6421  -0.3565  -0.3495  -0.3213
    -0.1657  -0.1654   0.4757   1.4373   1.5021   1.5147   1.6062   1.6130
     1.6275   1.7244   1.7654   1.7689   1.9042   1.9768

     the Fermi energy is     1.3760 ev

!    total energy              =   -3293.24435606 Ry
     estimated scf accuracy    <       0.00000006 Ry
     smearing contrib. (-TS)   =      -0.03194854 Ry
     internal energy E=F+TS    =   -3293.21240752 Ry

     The total energy is F=E-TS. E is the sum of the following terms:
     one-electron contribution =  -34434.88343462 Ry
     hartree contribution      =   17282.59575845 Ry
     xc contribution           =    -542.28708531 Ry
     ewald contribution        =   14401.35928755 Ry
     electric field correction =       0.00306640 Ry

     convergence has been achieved in  46 iterations

     Forces acting on atoms (cartesian axes, Ry/au):

     atom    1 type  1   force =     0.00084983    0.00631725    0.05752077
     atom    2 type  1   force =    -0.00004027   -0.00071039   -0.00477800
     atom    3 type  1   force =    -0.00003669   -0.00166573   -0.00132939
     atom    4 type  1   force =     0.00006761    0.00076469    0.10712122
     atom    5 type  1   force =    -0.00015323   -0.00059188    0.00932160
     atom    6 type  1   force =     0.00133640   -0.00274653    0.00342727
     atom    7 type  1   force =     0.06705645   -0.00000132   -0.02953840
     atom    8 type  1   force =     0.00334575   -0.02853340    0.00243866
     atom    9 type  1   force =     0.01229255   -0.01755090    0.00141473
     atom   10 type  2   force =     0.00007429   -0.00241813   -0.18531041
     atom   11 type  2   force =     0.00015230    0.02112485   -0.00709739
     atom   12 type  2   force =    -0.00545871    0.01497924   -0.00297943
     atom   13 type  1   force =    -0.06727106   -0.00039583   -0.02893587
     atom   14 type  1   force =    -0.00360889   -0.02912564    0.00249288
     atom   15 type  1   force =    -0.00691754   -0.01133607    0.00261501
     atom   16 type  2   force =    -0.00020933   -0.00128343    0.06488973
     atom   17 type  2   force =     0.00029936    0.03526796    0.00393932
     atom   18 type  2   force =    -0.00263140    0.02258176    0.00152928
     atom   19 type  1   force =     0.00074605    0.00408695    0.06079037
     atom   20 type  1   force =     0.00002486   -0.00007685   -0.00397369
     atom   21 type  1   force =     0.00005927   -0.00004566    0.10729545
     atom   22 type  1   force =     0.00002938   -0.00085023    0.00936787
     atom   23 type  1   force =    -0.00005341   -0.00355854    0.00452700
     atom   24 type  1   force =     0.06733060   -0.00051354   -0.02945034
     atom   25 type  1   force =     0.00348037   -0.02947604    0.00310783
     atom   26 type  1   force =     0.00651741   -0.02207939    0.00393037
     atom   27 type  2   force =    -0.00001057    0.00172419   -0.18399952
     atom   28 type  2   force =    -0.00038932    0.02139880   -0.00707406
     atom   29 type  2   force =    -0.00116231    0.02331325   -0.00325096
     atom   30 type  1   force =    -0.06753012   -0.00097845   -0.02876311
     atom   31 type  1   force =    -0.00416311   -0.02931695    0.00227043
     atom   32 type  1   force =    -0.00650746   -0.01857662   -0.00035309
     atom   33 type  2   force =    -0.00032766   -0.00092338    0.06450686
     atom   34 type  2   force =     0.00043867    0.03629908    0.00384272
     atom   35 type  2   force =     0.00227184    0.02410844    0.00250641
     atom   36 type  1   force =     0.00068331    0.00483679    0.05914238
     atom   37 type  1   force =    -0.00015335    0.00147091   -0.00766077
     atom   38 type  1   force =    -0.01151217   -0.00162570    0.01025887
     atom   39 type  1   force =     0.00010845   -0.00015945    0.10688472
     atom   40 type  1   force =     0.00007905   -0.00088637    0.00974941
     atom   41 type  1   force =     0.00078047   -0.00214836    0.00127336
     atom   42 type  1   force =     0.06757946   -0.00029281   -0.02940680
     atom   43 type  1   force =     0.00370083   -0.02888311    0.00185198
     atom   44 type  1   force =     0.00873076   -0.01712527    0.00066584
     atom   45 type  2   force =     0.00024206   -0.00247039   -0.18290445
     atom   46 type  2   force =     0.00024388    0.01987138   -0.00666893
     atom   47 type  2   force =    -0.00008220    0.02233891    0.00176112
     atom   48 type  1   force =    -0.06772824   -0.00078900   -0.02866559
     atom   49 type  1   force =    -0.00361317   -0.02860303    0.00241980
     atom   50 type  1   force =    -0.00826707   -0.01843188   -0.00137537
     atom   51 type  2   force =    -0.00035623   -0.00109817    0.06452033
     atom   52 type  2   force =    -0.00016714    0.03595151    0.00437783
     atom   53 type  2   force =    -0.00168180    0.01472821   -0.00204274
     atom   54 type  3   force =     0.01056921   -0.00169999   -0.00886877
     atom   55 type  3   force =    -0.00086002   -0.00081850    0.00175892
     atom   56 type  3   force =     0.00127324   -0.00138922   -0.00034642
     atom   57 type  4   force =     0.00059500    0.00169647    0.00161188
     atom   58 type  4   force =     0.00037896   -0.00316156   -0.00083390
     atom   59 type  3   force =    -0.00044518   -0.00052291    0.00047519

     Total force =     0.456048     Total SCF correction =     0.000612
  @ DRIVER MODE: Message from server: STATUS
  @ DRIVER MODE: Message from server: GETFORCE
  @ DRIVER MODE: Returning v,forces,stress,ensemble

     Writing output data file ./calc.save/
  @ DRIVER MODE: Message from server: EXIT
  @ DRIVE MODE: Exiting

     General routines

     Parallel routines

   This run was terminated on:  12:20:10  18Oct2021

   JOB DONE.