     Program PWSCF v.6.7GPU starts on 23Sep2021 at  6: 6:32

     R & G space division:  proc/nbgrp/npool/nimage =      10
     Reading input from /storage/home/hcoda1/3/ntian30/research/carbon/CxH_vib/H2O_calc/ads_slab/CH2NHNHO_a/out_0043/pw.inp
Warning: card &CELL ignored
Warning: card   CELL_DYNAMICS='IPI', ignored
Warning: card / ignored

     Current dimensions of program PWSCF are:
     Max number of different atomic species (ntypx) = 10
     Max number of k-points (npk) =  40000
     Max angular momentum in pseudopotentials (lmaxx) =  3
     Presently no symmetry can be used with electric field

     Message from routine cell_base_init:
     DEPRECATED: use true lattice parameter, not A to a.u. conversion factor

     IMPORTANT: XC functional enforced from input :
     Exchange-correlation= BEEF-VDW
                           (   1   4  43  14   2   0   0)
     Any further DFT definition will be discarded
     Please, verify this is what you really want

  @ DRIVER MODE: Connecting to
 qe_1139763_2937322.sched-torque.pace.gatech.edu87tbajs9_scratch
  using UNIX socket
  @ DRIVER MODE: Message from server: STATUS
  @ DRIVER MODE: Message from server: INIT
  @ DRIVER MODE: Receiving replica           0          -1
  @ DRIVER MODE: Receiving encoded integer          25
  @ DRIVER MODE:  SCF:  T  FORCE:  T  STRESS:  F  VC:  F  ENSEMBLE:  F
  @ DRIVER MODE:  SCF:  T  FORCE:  T  STRESS:  F  VC:  F  ENSEMBLE:  F

     Using Slab Decomposition

     bravais-lattice index     =            0
     lattice parameter (alat)  =       1.8897  a.u.
     unit-cell volume          =    6658.9804 (a.u.)^3
     number of atoms/cell      =           55
     number of atomic types    =            5
     number of electrons       =       402.00
     number of Kohn-Sham states=          211
     kinetic-energy cutoff     =      29.3995  Ry
     charge density cutoff     =     293.9946  Ry
     scf convergence threshold =      7.3E-08
     mixing beta               =       0.0500
     number of iterations used =            8  plain     mixing
     Exchange-correlation= BEEF-VDW
                           (   1   4  43  14   2   0   0)

     celldm(1)=   1.889726  celldm(2)=   0.000000  celldm(3)=   0.000000
     celldm(4)=   0.000000  celldm(5)=   0.000000  celldm(6)=   0.000000

     crystal axes: (cart. coord. in units of alat)
               a(1) = (   6.579727   0.000000   0.000000 )
               a(2) = (  -0.000775   5.961596   0.000000 )
               a(3) = (   0.000000   0.000000  25.155947 )

     reciprocal axes: (cart. coord. in units 2 pi/alat)
               b(1) = (  0.151982  0.000020  0.000000 )
               b(2) = (  0.000000  0.167740  0.000000 )
               b(3) = (  0.000000  0.000000  0.039752 )

     PseudoPot. # 1 for Ti read from file:
     /storage/coda1/p-amedford6/0/shared/rich_project_chbe-medford/medford-share/data/pseudos_module/espresso/nninc/pbe/van/Ti.UPF
     MD5 check sum: 8e4df49b7f0d34bbd5052bf3f5ea0213
     Pseudo is Ultrasoft, Zval = 12.0
     Generated by new atomic code, or converted to UPF format
     Using radial grid of  851 points,  6 beta functions with:
                l(1) =   0
                l(2) =   0
                l(3) =   1
                l(4) =   1
                l(5) =   2
                l(6) =   2
     Q(r) pseudized with  8 coefficients,  rinner =    1.000   1.000   1.000
                                                       1.000   1.000

     PseudoPot. # 2 for O  read from file:
     /storage/coda1/p-amedford6/0/shared/rich_project_chbe-medford/medford-share/data/pseudos_module/espresso/nninc/pbe/van/O.UPF
     MD5 check sum: 78c19812648e8988a0fe644b0f25305e
     Pseudo is Ultrasoft, Zval =  6.0
     Generated by new atomic code, or converted to UPF format
     Using radial grid of  737 points,  4 beta functions with:
                l(1) =   0
                l(2) =   0
                l(3) =   1
                l(4) =   1
     Q(r) pseudized with  8 coefficients,  rinner =    0.800   0.800   0.800

     PseudoPot. # 3 for N  read from file:
     /storage/coda1/p-amedford6/0/shared/rich_project_chbe-medford/medford-share/data/pseudos_module/espresso/nninc/pbe/van/N.UPF
     MD5 check sum: 90d10febe142ad51ac9d5be1deb811c4
     Pseudo is Ultrasoft, Zval =  5.0
     Generated by new atomic code, or converted to UPF format
     Using radial grid of  729 points,  4 beta functions with:
                l(1) =   0
                l(2) =   0
                l(3) =   1
                l(4) =   1
     Q(r) pseudized with  8 coefficients,  rinner =    0.800   0.800   0.800

     PseudoPot. # 4 for C  read from file:
     /storage/coda1/p-amedford6/0/shared/rich_project_chbe-medford/medford-share/data/pseudos_module/espresso/nninc/pbe/van/C.UPF
     MD5 check sum: 1a69bf6b8db32088f5b2163dbdb77a27
     Pseudo is Ultrasoft, Zval =  4.0
     Generated by new atomic code, or converted to UPF format
     Using radial grid of  721 points,  4 beta functions with:
                l(1) =   0
                l(2) =   0
                l(3) =   1
                l(4) =   1
     Q(r) pseudized with  8 coefficients,  rinner =    0.800   0.800   0.800

     PseudoPot. # 5 for H  read from file:
     /storage/coda1/p-amedford6/0/shared/rich_project_chbe-medford/medford-share/data/pseudos_module/espresso/nninc/pbe/van/H.UPF
     MD5 check sum: b5ee9d7bfd3a09ee7748110bda690ff7
     Pseudo is Ultrasoft, Zval =  1.0
     Generated by new atomic code, or converted to UPF format
     Using radial grid of  615 points,  1 beta functions with:
                l(1) =   0
     Q(r) pseudized with  8 coefficients,  rinner =    0.800

     atomic species   valence    mass     pseudopotential
        Ti1           12.00    47.86700     Ti( 1.00)
        O1             6.00    15.99900     O ( 1.00)
        N1             5.00    14.00700     N ( 1.00)
        C1             4.00    12.01100     C ( 1.00)
        H1             1.00     1.00800     H ( 1.00)

     No symmetry found

   Cartesian axes

     site n.     atom                  positions (alat units)
         1           Ti1 tau(   1) = (   0.0004258   2.9801865   6.0000000  )
         2           Ti1 tau(   2) = (   3.2906075   1.4906267   6.0002472  )
         3           O1  tau(   3) = (   0.0006271   0.0005054   7.9858123  )
         4           O1  tau(   4) = (   3.2906025   0.0005020   7.3038282  )
         5           O1  tau(   5) = (   4.5942328   1.4918067   9.2879030  )
         6           O1  tau(   6) = (   1.9868534   1.4903216   9.2879459  )
         7           Ti1 tau(   7) = (   3.2907910   2.8959150   9.1758416  )
         8           Ti1 tau(   8) = (   0.0015273   1.4827037   9.2680791  )
         9           O1  tau(   9) = (   3.2865774   0.0244666  11.2672233  )
        10           O1  tau(  10) = (   0.0116148   5.9584955  10.6183126  )
        11           O1  tau(  11) = (   1.2851059   1.4881214  12.6284388  )
        12           O1  tau(  12) = (   5.2821296   1.4859116  12.6239949  )
        13           Ti1 tau(  13) = (   6.5757640   3.1226837  12.6583379  )
        14           Ti1 tau(  14) = (   3.2808560   1.5553189  12.4169499  )
        15           O1  tau(  15) = (   6.5631415   0.0020138  14.6662933  )
        16           O1  tau(  16) = (   3.2768600   5.9282172  13.8639556  )
        17           O1  tau(  17) = (   4.5247100   1.5609280  15.9911388  )
        18           O1  tau(  18) = (   2.0319249   1.5505618  16.0334288  )
        19           Ti1 tau(  19) = (   3.2655126   3.0139642  15.6417618  )
        20           Ti1 tau(  20) = (   6.4701730   1.5779936  15.7979382  )
        21           O1  tau(  21) = (   3.2904802   0.0005063   4.7018136  )
        22           O1  tau(  22) = (   6.5470303   0.0764028  17.2486596  )
        23           O1  tau(  23) = (   1.3043587   1.4918075   6.0039043  )
        24           O1  tau(  24) = (   5.2767064   1.4903225   6.0039473  )
        25           Ti1 tau(  25) = (   0.0000382   5.9609847   6.0000000  )
        26           Ti1 tau(  26) = (   3.2902200   4.4714249   6.0002472  )
        27           O1  tau(  27) = (   0.0002396   2.9813036   7.9858123  )
        28           O1  tau(  28) = (   3.2902150   2.9813002   7.3038282  )
        29           O1  tau(  29) = (   4.5938453   4.4726049   9.2879030  )
        30           O1  tau(  30) = (   1.9864658   4.4711199   9.2879459  )
        31           Ti1 tau(  31) = (   3.2891106   5.8743827   9.1763621  )
        32           Ti1 tau(  32) = (   0.0006254   4.4649316   9.2693709  )
        33           O1  tau(  33) = (   3.2856154   2.9374191  11.2445503  )
        34           O1  tau(  34) = (   0.0092240   2.9805883  10.6323155  )
        35           O1  tau(  35) = (   1.2776263   4.4762221  12.6158080  )
        36           O1  tau(  36) = (   5.2889682   4.4773653  12.6103441  )
        37           Ti1 tau(  37) = (   6.5721904   0.1276321  12.6579576  )
        38           Ti1 tau(  38) = (   3.2825792   4.6513186  12.6446142  )
        39           O1  tau(  39) = (   6.5601178   2.9984380  14.6401328  )
        40           O1  tau(  40) = (   3.2784952   3.0022753  13.8540846  )
        41           O1  tau(  41) = (   4.5130724   4.4679886  16.1105769  )
        42           O1  tau(  42) = (   2.0068779   4.4712703  16.0772645  )
        43           Ti1 tau(  43) = (   3.1879138   0.0422448  16.2953621  )
        44           Ti1 tau(  44) = (   6.5239028   4.6756254  16.1574449  )
        45           O1  tau(  45) = (   3.2900926   2.9813045   4.7018136  )
        46           O1  tau(  46) = (   1.3039711   4.4726057   6.0039043  )
        47           O1  tau(  47) = (   5.2763189   4.4711207   6.0039473  )
        48           N1  tau(  48) = (   0.1470516   2.5879757  18.5611170  )
        49           N1  tau(  49) = (   6.5778558   2.9357776  17.3215245  )
        50           C1  tau(  50) = (   0.2601206   3.3452726  19.6311682  )
        51           H1  tau(  51) = (   0.3627438   2.8498571  20.5812141  )
        52           H1  tau(  52) = (   0.2464683   4.4174571  19.5160682  )
        53           H1  tau(  53) = (   0.1772712   1.5612145  18.6921905  )
        54           O1  tau(  54) = (   3.2326362   0.0923429  18.1472848  )
        55           H1  tau(  55) = (   3.6109404   5.2806276  18.5811828  )

     number of k points=    10  Fermi-Dirac smearing, width (Ry)=  0.0073
                       cart. coord. in units 2pi/alat
        k(    1) = (   0.0000000   0.0000000   0.0000000), wk =   0.1250000
        k(    2) = (   0.0000000   0.0419351   0.0000000), wk =   0.2500000
        k(    3) = (   0.0000000  -0.0838702   0.0000000), wk =   0.1250000
        k(    4) = (   0.0379955   0.0000049   0.0000000), wk =   0.2500000
        k(    5) = (   0.0379955   0.0419400   0.0000000), wk =   0.2500000
        k(    6) = (   0.0379955  -0.0838652   0.0000000), wk =   0.2500000
        k(    7) = (   0.0379955  -0.0419301   0.0000000), wk =   0.2500000
        k(    8) = (  -0.0759910  -0.0000099   0.0000000), wk =   0.1250000
        k(    9) = (  -0.0759910   0.0419252   0.0000000), wk =   0.2500000
        k(   10) = (  -0.0759910  -0.0838800   0.0000000), wk =   0.1250000

     Initial potential from superposition of free atoms

     starting charge  385.99915, renormalised to  402.00000

     negative rho (up, down):  1.462E-02 0.000E+00

     %%%%%%%%%%%%%%%%%%%%%%%%%%%%%%%%%%%%%%%%%%%%%%%%%%%%%%%%%%%%%%%%%%%%%%%%
     %                                                                      %
     % You are using vdW-DF, which was implemented by the Thonhauser group. %
     % Please cite the following two papers that made this development      %
     % possible and the two reviews that describe the various versions:     %
     %                                                                      %
     %   T. Thonhauser et al., PRL 115, 136402 (2015).                      %
     %   T. Thonhauser et al., PRB 76, 125112 (2007).                       %
     %   K. Berland et al., Rep. Prog. Phys. 78, 066501 (2015).             %
     %   D.C. Langreth et al., J. Phys.: Condens. Matter 21, 084203 (2009). %
     %                                                                      %
     %                                                                      %
     % If you are calculating the stress with vdW-DF, please also cite:     %
     %                                                                      %
     %   R. Sabatini et al., J. Phys.: Condens. Matter 24, 424209 (2012).   %
     %                                                                      %
     %%%%%%%%%%%%%%%%%%%%%%%%%%%%%%%%%%%%%%%%%%%%%%%%%%%%%%%%%%%%%%%%%%%%%%%%

     Adding external electric field

     Computed dipole along edir(3) :
        Dipole              -11.6290 Ry au,        -29.5581 Debye
        Dipole field         -0.0219 Ry au,

        Potential amp.        2.0343 Ry
        Total length         46.3494 bohr

     Starting wfcs are  304 atomic wfcs
  @ DRIVER MODE: Message from server: STATUS
  @ DRIVER MODE: Message from server: POSDATA
  @ DRIVER MODE: Reading and sharing cell
  @ DRIVER MODE: Reading and sharing positions
  @ DRIVER MODE: Received positions

     Self-consistent Calculation

     iteration #  1     ecut=    29.40 Ry     beta= 0.05
     Davidson diagonalization with overlap
     c_bands:  3 eigenvalues not converged
     c_bands:  2 eigenvalues not converged
     c_bands:  3 eigenvalues not converged
     c_bands:  4 eigenvalues not converged
     c_bands:  1 eigenvalues not converged
     c_bands:  4 eigenvalues not converged
     c_bands:  5 eigenvalues not converged
     c_bands:  5 eigenvalues not converged
     c_bands:  5 eigenvalues not converged
     ethr =  1.00E-05,  avg # of iterations = 23.9

[...]

     total energy              =   -2412.15659797 Ry
     estimated scf accuracy    <    6293.14936865 Ry

     iteration #  2     ecut=    29.40 Ry     beta= 0.05
     Davidson diagonalization with overlap
     ethr =  1.00E-02,  avg # of iterations = 23.1

[...]

     iteration # 53     ecut=    29.40 Ry     beta= 0.05
     Davidson diagonalization with overlap
     c_bands:  1 eigenvalues not converged
     ethr =  6.59E-07,  avg # of iterations =  9.4

[...]

     total energy              =   -2972.74107803 Ry
     estimated scf accuracy    <       0.00000034 Ry

     iteration # 85     ecut=    29.40 Ry     beta= 0.05
     Davidson diagonalization with overlap
     ethr =  2.46E-11,  avg # of iterations =  5.5

     negative rho (up, down):  1.521E-02 0.000E+00

     Adding external electric field

     Computed dipole along edir(3) :
        Dipole                0.6663 Ry au,          1.6937 Debye
        Dipole field          0.0013 Ry au,

        Potential amp.       -0.1166 Ry
        Total length         46.3494 bohr

     End of self-consistent calculation

          k = 0.0000 0.0000 0.0000 ( 18029 PWs)   bands (ev):

   -56.5000 -56.4665 -55.7006 -55.6666 -55.4416 -55.3853 -55.1402 -55.1075
   -55.0884 -55.0545 -55.0340 -54.9829 -54.9793 -54.7867 -54.7542 -54.6416
   -32.9238 -32.7777 -32.7496 -32.6738 -32.5832 -32.5503 -32.1840 -31.9228
   -31.9218 -31.8920 -31.8407 -31.8361 -31.8165 -31.6709 -31.6628 -31.6156
   -31.5917 -31.5878 -31.5459 -31.5143 -31.4749 -31.4606 -31.4333 -31.4089
   -31.3729 -31.3725 -31.3687 -31.3572 -31.3053 -31.2952 -31.2724 -31.2494
   -31.2307 -31.2152 -31.2135 -31.2021 -31.1834 -31.1718 -31.1575 -31.1018
   -31.0466 -31.0261 -30.9970 -30.9853 -30.9698 -30.9184 -30.8567 -30.8322
   -18.6487 -16.6347 -16.1287 -16.1030 -15.8372 -15.7752 -15.7191 -15.7149
   -15.6700 -15.4283 -15.3908 -15.3584 -15.3139 -15.2172 -15.0870 -14.9903
   -14.7987 -14.7444 -14.7424 -14.7126 -14.6876 -14.6552 -14.6302 -14.5985
   -14.5943 -14.5612 -14.5058 -14.3340 -14.2688 -14.0588 -14.0441 -13.5861
   -13.4781 -12.4098  -8.5610  -6.0045  -4.5880  -4.2008  -3.6541  -3.6080
    -3.4301  -3.3431  -3.2493  -3.1675  -3.0695  -3.0414  -2.9622  -2.9223
    -2.9058  -2.8394  -2.8173  -2.6546  -2.6284  -2.6096  -2.5211  -2.4930
    -2.3304  -2.3062  -2.2240  -2.1511  -2.1310  -2.0739  -2.0610  -2.0007
    -1.9490  -1.9317  -1.8655  -1.8596  -1.8450  -1.7318  -1.7164  -1.6803
    -1.6327  -1.5716  -1.5616  -1.5076  -1.4227  -1.4092  -1.2761  -1.1923
    -1.1482  -1.1431  -1.1069  -1.0644  -1.0171  -0.8834  -0.8731  -0.7627
    -0.7431  -0.7412  -0.6735  -0.5775  -0.5560  -0.5233  -0.4486  -0.4112
    -0.3675  -0.3169  -0.2629  -0.1412  -0.1339  -0.1173  -0.0722  -0.0304
    -0.0150   0.0602   0.1507   0.1678   0.2729   0.2896   0.3370   0.4301
     0.5113   0.5215   0.5395   0.6024   0.6435   0.6792   0.7537   0.7727
     0.8135   0.8245   0.8744   0.9333   0.9602   1.0614   1.1086   1.1275
     1.1609   1.2094   1.2883   1.3717   1.4683   1.5099   1.5408   1.8115
     2.3279   2.7828   2.9454   3.2230   3.3343   3.6451   3.7699   3.7709
     3.7814   3.9854   4.1337

[...]

          k = 0.0380-0.0419 0.0000 ( 17876 PWs)   bands (ev):

[...]

          k =-0.0760-0.0000 0.0000 ( 17886 PWs)   bands (ev):

[...]

          k =-0.0760-0.0839 0.0000 ( 17948 PWs)   bands (ev):

   -56.4834 -56.4829 -55.6865 -55.6805 -55.4359 -55.3908 -55.1390 -55.1031
   -55.0716 -55.0712 -55.0382 -54.9821 -54.9797 -54.7880 -54.7519 -54.6437
   -32.7636 -32.7632 -32.7410 -32.7405 -32.6273 -32.6267 -32.0064 -32.0016
   -31.8814 -31.8759 -31.8709 -31.8609 -31.7432 -31.7083 -31.6642 -31.6573
   -31.6172 -31.6134 -31.4454 -31.4353 -31.4220 -31.4219 -31.3833 -31.3773
   -31.3621 -31.3541 -31.3416 -31.3217 -31.3002 -31.2932 -31.2925 -31.2745
   -31.2550 -31.2548 -31.2539 -31.2396 -31.2211 -31.1870 -31.1786 -31.1490
   -31.1341 -31.0505 -31.0062 -31.0010 -30.9864 -30.9484 -30.8712 -30.8588
   -18.6451 -16.0948 -16.0038 -16.0010 -15.9407 -15.9390 -15.7063 -15.7023
   -15.4666 -15.4384 -15.2802 -15.1871 -15.1692 -15.1073 -15.0692 -15.0172
   -14.9627 -14.9336 -14.8232 -14.7862 -14.7544 -14.7166 -14.6897 -14.6696
   -14.6095 -14.5730 -14.5491 -14.4502 -14.4264 -14.1916 -14.1824 -13.5823
   -13.5820 -12.4147  -8.5635  -5.9994  -4.5447  -3.6760  -3.3352  -3.0712
    -3.0669  -3.0613  -3.0563  -3.0126  -2.8170  -2.8134  -2.6604  -2.6269
    -2.6151  -2.5897  -2.5588  -2.4552  -2.3790  -2.3621  -2.3605  -2.3563
    -2.3071  -2.2990  -2.2479  -2.1696  -2.1066  -2.0982  -2.0640  -2.0023
    -1.9432  -1.8948  -1.8905  -1.8525  -1.8295  -1.7983  -1.7789  -1.7576
    -1.7127  -1.6294  -1.5050  -1.4293  -1.3978  -1.3806  -1.3425  -1.2956
    -1.2825  -1.2707  -1.2189  -1.2041  -1.1396  -1.1100  -1.0694  -0.9733
    -0.9138  -0.8824  -0.8577  -0.7531  -0.7141  -0.6391  -0.5942  -0.5597
    -0.5238  -0.5007  -0.4391  -0.4279  -0.3462  -0.2783  -0.2514  -0.1951
    -0.1814  -0.1695  -0.1516  -0.1064  -0.0014   0.0142   0.0474   0.1466
     0.2084   0.2820   0.2998   0.3921   0.4205   0.4916   0.6070   0.6448
     0.7141   0.7783   0.8524   0.9373   0.9848   1.0300   1.1364   1.2213
     1.2366   1.2838   1.3109   1.3161   1.3173   1.3700   1.3901   1.5183
     2.1636   3.3662   3.3679   3.4247   3.4294   3.7292   3.7344   3.8405
     3.8440   4.0938   4.1150

     the Fermi energy is     2.5940 ev

!    total energy              =   -2972.74108978 Ry
     estimated scf accuracy    <       0.00000005 Ry
     smearing contrib. (-TS)   =      -0.00419696 Ry
     internal energy E=F+TS    =   -2972.73689281 Ry

     The total energy is F=E-TS. E is the sum of the following terms:
     one-electron contribution =  -23700.06000963 Ry
     hartree contribution      =   11945.33531913 Ry
     xc contribution           =    -493.12588954 Ry
     ewald contribution        =    9275.11284931 Ry
     electric field correction =       0.00083792 Ry

     convergence has been achieved in  85 iterations

     Forces acting on atoms (cartesian axes, Ry/au):

     atom    1 type  1   force =     0.00016354   -0.00043584    0.12198866
     atom    2 type  1   force =    -0.00004346    0.00028080   -0.15639015
     atom    3 type  2   force =     0.00004744   -0.00048127   -0.06053492
     atom    4 type  2   force =     0.00005151    0.00071664    0.01973131
     atom    5 type  2   force =    -0.00084443   -0.00260018   -0.01519285
     atom    6 type  2   force =     0.00219825   -0.00198533   -0.01655084
     atom    7 type  1   force =    -0.00030102   -0.00091394    0.05416373
     atom    8 type  1   force =     0.00081965    0.00108027    0.09008384
     atom    9 type  2   force =    -0.00035839   -0.00027829    0.00006714
     atom   10 type  2   force =    -0.00295939    0.00316455   -0.05930180
     atom   11 type  2   force =    -0.00024544    0.00019161    0.00005833
     atom   12 type  2   force =    -0.00023766    0.00014197   -0.00037097
     atom   13 type  1   force =    -0.00052916    0.00039189    0.00035729
     atom   14 type  1   force =     0.00006125    0.00142135   -0.00109460
     atom   15 type  2   force =    -0.00001735   -0.00066081   -0.00148083
     atom   16 type  2   force =     0.00010803    0.00068957    0.00052067
     atom   17 type  2   force =    -0.00090789   -0.00045845   -0.00008197
     atom   18 type  2   force =     0.00046432    0.00018911   -0.00038563
     atom   19 type  1   force =     0.00007222    0.00119867   -0.00015349
     atom   20 type  1   force =     0.00013450    0.00043046    0.00034915
     atom   21 type  2   force =     0.00009404   -0.00002592    0.09828547
     atom   22 type  2   force =     0.00038825   -0.00049791    0.00019431
     atom   23 type  2   force =    -0.08161937   -0.00005153   -0.03247845
     atom   24 type  2   force =     0.08160456    0.00036698   -0.03250853
     atom   25 type  1   force =     0.00002756   -0.00028912    0.12166252
     atom   26 type  1   force =     0.00003102   -0.00154560   -0.15642190
     atom   27 type  2   force =     0.00012810    0.00020871   -0.05949728
     atom   28 type  2   force =     0.00005556    0.00039029    0.01459718
     atom   29 type  2   force =    -0.00455193    0.00217756   -0.01162577
     atom   30 type  2   force =     0.00588497    0.00262454   -0.01293392
     atom   31 type  1   force =    -0.00043767   -0.00214790    0.04016160
     atom   32 type  1   force =     0.00079150   -0.00225198    0.09110602
     atom   33 type  2   force =    -0.00012535    0.00038514    0.00008651
     atom   34 type  2   force =    -0.00234892    0.00048898   -0.06881305
     atom   35 type  2   force =    -0.00021502    0.00005529    0.00027456
     atom   36 type  2   force =     0.00059292   -0.00027113    0.00003501
     atom   37 type  1   force =    -0.00002769    0.00021384   -0.00069270
     atom   38 type  1   force =     0.00014014    0.00105139   -0.00046965
     atom   39 type  2   force =    -0.00048880   -0.00119816    0.00039134
     atom   40 type  2   force =    -0.00001767    0.00044724   -0.00011105
     atom   41 type  2   force =     0.00073431   -0.00045550   -0.00004741
     atom   42 type  2   force =    -0.00050249   -0.00062014   -0.00064545
     atom   43 type  1   force =    -0.00013703   -0.00124919    0.00006140
     atom   44 type  1   force =    -0.00021982   -0.00060221    0.00059908
     atom   45 type  2   force =     0.00009655    0.00008279    0.09806742
     atom   46 type  2   force =    -0.08157238   -0.00003036   -0.03247494
     atom   47 type  2   force =     0.08155915    0.00041233   -0.03249172
     atom   48 type  3   force =     0.00019665    0.00011255    0.00031616
     atom   49 type  3   force =    -0.00020729   -0.00144173    0.00032187
     atom   50 type  4   force =     0.00036758    0.00003067   -0.00008872
     atom   51 type  5   force =     0.00070275    0.00032717   -0.00060434
     atom   52 type  5   force =     0.00051536   -0.00101616   -0.00010525
     atom   53 type  5   force =     0.00000722    0.00129663    0.00006254
     atom   54 type  2   force =    -0.00363861    0.00728708   -0.00461110
     atom   55 type  5   force =     0.00451531   -0.00634744    0.00461617

     Total force =     0.408515     Total SCF correction =     0.000615
  @ DRIVER MODE: Message from server: STATUS
  @ DRIVER MODE: Message from server: GETFORCE
  @ DRIVER MODE: Returning v,forces,stress,ensemble

     Writing output data file ./calc.save/
  @ DRIVER MODE: Message from server: EXIT
  @ DRIVE MODE: Exiting

     General routines

     Parallel routines

   This run was terminated on:   6:29: 1  23Sep2021

   JOB DONE.