     Program PWSCF v.6.7GPU starts on 23Aug2021 at 15: 0:28

     R & G space division:  proc/nbgrp/npool/nimage =       6
     Reading input from /storage/home/hcoda1/3/ntian30/research/carbon/CH_vib/ads_slab/CHNHHH_a/out_0004/pw.inp
Warning: card &CELL ignored
Warning: card   CELL_DYNAMICS='IPI', ignored
Warning: card / ignored

     Current dimensions of program PWSCF are:
     Max number of different atomic species (ntypx) = 10
     Max number of k-points (npk) =  40000
     Max angular momentum in pseudopotentials (lmaxx) =  3
     Presently no symmetry can be used with electric field

     Message from routine cell_base_init:
     DEPRECATED: use true lattice parameter, not A to a.u. conversion factor

     IMPORTANT: XC functional enforced from input :
     Exchange-correlation= BEEF-VDW
                           (   1   4  43  14   2   0   0)
     Any further DFT definition will be discarded
     Please, verify this is what you really want

  @ DRIVER MODE: Connecting to
 qe_1139763_2632793.sched-torque.pace.gatech.edu5izwdxby_scratch
  using UNIX socket
  @ DRIVER MODE: Message from server: STATUS
  @ DRIVER MODE: Message from server: INIT
  @ DRIVER MODE: Receiving replica           0          -1
  @ DRIVER MODE: Receiving encoded integer          25
  @ DRIVER MODE:  SCF:  T  FORCE:  T  STRESS:  F  VC:  F  ENSEMBLE:  F
  @ DRIVER MODE:  SCF:  T  FORCE:  T  STRESS:  F  VC:  F  ENSEMBLE:  F

     Using Slab Decomposition

     bravais-lattice index     =            0
     lattice parameter (alat)  =       1.8897  a.u.
     unit-cell volume          =    6658.9804 (a.u.)^3
     number of atoms/cell      =           53
     number of atomic types    =            5
     number of electrons       =       391.00
     number of Kohn-Sham states=          205
     kinetic-energy cutoff     =      29.3995  Ry
     charge density cutoff     =     293.9946  Ry
     scf convergence threshold =      7.3E-08
     mixing beta               =       0.0500
     number of iterations used =            8  plain     mixing
     Exchange-correlation= BEEF-VDW
                           (   1   4  43  14   2   0   0)

     celldm(1)=   1.889726  celldm(2)=   0.000000  celldm(3)=   0.000000
     celldm(4)=   0.000000  celldm(5)=   0.000000  celldm(6)=   0.000000

     crystal axes: (cart. coord. in units of alat)
               a(1) = (   6.579727   0.000000   0.000000 )
               a(2) = (  -0.000775   5.961596   0.000000 )
               a(3) = (   0.000000   0.000000  25.155947 )

     reciprocal axes: (cart. coord. in units 2 pi/alat)
               b(1) = (  0.151982  0.000020  0.000000 )
               b(2) = (  0.000000  0.167740  0.000000 )
               b(3) = (  0.000000  0.000000  0.039752 )

     PseudoPot. # 1 for Ti read from file:
     /storage/coda1/p-amedford6/0/shared/rich_project_chbe-medford/medford-share/data/pseudos_module/espresso/nninc/pbe/van/Ti.UPF
     MD5 check sum: 8e4df49b7f0d34bbd5052bf3f5ea0213
     Pseudo is Ultrasoft, Zval = 12.0
     Generated by new atomic code, or converted to UPF format
     Using radial grid of  851 points,  6 beta functions with:
                l(1) =   0
                l(2) =   0
                l(3) =   1
                l(4) =   1
                l(5) =   2
                l(6) =   2
     Q(r) pseudized with  8 coefficients,  rinner =    1.000   1.000   1.000
                                                       1.000   1.000

     PseudoPot. # 2 for O  read from file:
     /storage/coda1/p-amedford6/0/shared/rich_project_chbe-medford/medford-share/data/pseudos_module/espresso/nninc/pbe/van/O.UPF
     MD5 check sum: 78c19812648e8988a0fe644b0f25305e
     Pseudo is Ultrasoft, Zval =  6.0
     Generated by new atomic code, or converted to UPF format
     Using radial grid of  737 points,  4 beta functions with:
                l(1) =   0
                l(2) =   0
                l(3) =   1
                l(4) =   1
     Q(r) pseudized with  8 coefficients,  rinner =    0.800   0.800   0.800

     PseudoPot. # 3 for N  read from file:
     /storage/coda1/p-amedford6/0/shared/rich_project_chbe-medford/medford-share/data/pseudos_module/espresso/nninc/pbe/van/N.UPF
     MD5 check sum: 90d10febe142ad51ac9d5be1deb811c4
     Pseudo is Ultrasoft, Zval =  5.0
     Generated by new atomic code, or converted to UPF format
     Using radial grid of  729 points,  4 beta functions with:
                l(1) =   0
                l(2) =   0
                l(3) =   1
                l(4) =   1
     Q(r) pseudized with  8 coefficients,  rinner =    0.800   0.800   0.800

     PseudoPot. # 4 for C  read from file:
     /storage/coda1/p-amedford6/0/shared/rich_project_chbe-medford/medford-share/data/pseudos_module/espresso/nninc/pbe/van/C.UPF
     MD5 check sum: 1a69bf6b8db32088f5b2163dbdb77a27
     Pseudo is Ultrasoft, Zval =  4.0
     Generated by new atomic code, or converted to UPF format
     Using radial grid of  721 points,  4 beta functions with:
                l(1) =   0
                l(2) =   0
                l(3) =   1
                l(4) =   1
     Q(r) pseudized with  8 coefficients,  rinner =    0.800   0.800   0.800

     PseudoPot. # 5 for H  read from file:
     /storage/coda1/p-amedford6/0/shared/rich_project_chbe-medford/medford-share/data/pseudos_module/espresso/nninc/pbe/van/H.UPF
     MD5 check sum: b5ee9d7bfd3a09ee7748110bda690ff7
     Pseudo is Ultrasoft, Zval =  1.0
     Generated by new atomic code, or converted to UPF format
     Using radial grid of  615 points,  1 beta functions with:
                l(1) =   0
     Q(r) pseudized with  8 coefficients,  rinner =    0.800

     atomic species   valence    mass     pseudopotential
        Ti1           12.00    47.86700     Ti( 1.00)
        O1             6.00    15.99900     O ( 1.00)
        N1             5.00    14.00700     N ( 1.00)
        C1             4.00    12.01100     C ( 1.00)
        H1             1.00     1.00800     H ( 1.00)

     No symmetry found

   Cartesian axes

     site n.     atom                  positions (alat units)
         1           Ti1 tau(   1) = (   0.0004258   2.9801865   6.0000000  )
         2           Ti1 tau(   2) = (   3.2906075   1.4906267   6.0002472  )
         3           O1  tau(   3) = (   0.0006271   0.0005054   7.9858123  )
         4           O1  tau(   4) = (   3.2906025   0.0005020   7.3038282  )
         5           O1  tau(   5) = (   4.5942328   1.4918067   9.2879030  )
         6           O1  tau(   6) = (   1.9868534   1.4903216   9.2879459  )
         7           Ti1 tau(   7) = (   3.2907910   2.8959150   9.1758416  )
         8           Ti1 tau(   8) = (   0.0015273   1.4827037   9.2680791  )
         9           O1  tau(   9) = (   3.3113122   5.9567026  11.3833813  )
        10           O1  tau(  10) = (   0.0116148   5.9584955  10.6183126  )
        11           O1  tau(  11) = (   1.3074368   1.4838846  12.6958875  )
        12           O1  tau(  12) = (   5.3165545   1.4905306  12.6890028  )
        13           Ti1 tau(  13) = (   0.0319163   2.9634337  12.5060949  )
        14           Ti1 tau(  14) = (   3.3348194   1.4676286  12.5406051  )
        15           O1  tau(  15) = (   6.5718004   5.8756060  14.7032446  )
        16           O1  tau(  16) = (   3.3285255   5.9545307  14.0046557  )
        17           O1  tau(  17) = (   4.5620449   1.5282301  16.1894795  )
        18           O1  tau(  18) = (   2.0507131   1.5111456  16.1254446  )
        19           Ti1 tau(  19) = (   3.3090684   3.0029381  15.7706148  )
        20           Ti1 tau(  20) = (   0.0350077   1.2886257  15.8758580  )
        21           O1  tau(  21) = (   3.2904802   0.0005063   4.7018136  )
        22           O1  tau(  22) = (   0.0240991   0.1326893  17.2553962  )
        23           O1  tau(  23) = (   1.3043587   1.4918075   6.0039043  )
        24           O1  tau(  24) = (   5.2767064   1.4903225   6.0039473  )
        25           Ti1 tau(  25) = (   0.0000382   5.9609847   6.0000000  )
        26           Ti1 tau(  26) = (   3.2902200   4.4714249   6.0002472  )
        27           O1  tau(  27) = (   0.0002396   2.9813036   7.9858123  )
        28           O1  tau(  28) = (   3.2902150   2.9813002   7.3038282  )
        29           O1  tau(  29) = (   4.5938453   4.4726049   9.2879030  )
        30           O1  tau(  30) = (   1.9864658   4.4711199   9.2879459  )
        31           Ti1 tau(  31) = (   3.2891106   5.8743827   9.1763621  )
        32           Ti1 tau(  32) = (   0.0006254   4.4649316   9.2693709  )
        33           O1  tau(  33) = (   3.3073171   2.9646269  11.3784001  )
        34           O1  tau(  34) = (   0.0092240   2.9805883  10.6323155  )
        35           O1  tau(  35) = (   1.3112202   4.4579144  12.6624112  )
        36           O1  tau(  36) = (   5.3138049   4.4530836  12.6532163  )
        37           Ti1 tau(  37) = (   0.0383750   5.9352221  12.5084026  )
        38           Ti1 tau(  38) = (   3.3346062   4.4465110  12.5317211  )
        39           O1  tau(  39) = (   0.0124192   3.0170750  14.9941726  )
        40           O1  tau(  40) = (   3.3221393   2.9969786  13.9787254  )
        41           O1  tau(  41) = (   4.5445774   4.4782521  16.2319081  )
        42           O1  tau(  42) = (   2.0501905   4.4790704  16.2078326  )
        43           Ti1 tau(  43) = (   3.3285819   0.0194352  15.8051934  )
        44           Ti1 tau(  44) = (   0.0611752   4.5099810  16.0683830  )
        45           O1  tau(  45) = (   3.2900926   2.9813045   4.7018136  )
        46           O1  tau(  46) = (   1.3039711   4.4726057   6.0039043  )
        47           O1  tau(  47) = (   5.2763189   4.4711207   6.0039473  )
        48           N1  tau(  48) = (   6.2166669   3.4326028  18.2351681  )
        49           C1  tau(  49) = (   0.7325778   3.1430902  19.0455235  )
        50           H1  tau(  50) = (   1.1688338   2.1628109  18.9760543  )
        51           H1  tau(  51) = (   5.7007151   4.2593073  18.4945226  )
        52           H1  tau(  52) = (   5.5741914   2.6425579  18.1107425  )
        53           H1  tau(  53) = (   1.2593429   3.9788434  19.4721980  )

     number of k points=    10  Fermi-Dirac smearing, width (Ry)=  0.0073
                       cart. coord. in units 2pi/alat
        k(    1) = (   0.0000000   0.0000000   0.0000000), wk =   0.1250000
        k(    2) = (   0.0000000   0.0419351   0.0000000), wk =   0.2500000
        k(    3) = (   0.0000000  -0.0838702   0.0000000), wk =   0.1250000
        k(    4) = (   0.0379955   0.0000049   0.0000000), wk =   0.2500000
        k(    5) = (   0.0379955   0.0419400   0.0000000), wk =   0.2500000
        k(    6) = (   0.0379955  -0.0838652   0.0000000), wk =   0.2500000
        k(    7) = (   0.0379955  -0.0419301   0.0000000), wk =   0.2500000
        k(    8) = (  -0.0759910  -0.0000099   0.0000000), wk =   0.1250000
        k(    9) = (  -0.0759910   0.0419252   0.0000000), wk =   0.2500000
        k(   10) = (  -0.0759910  -0.0838800   0.0000000), wk =   0.1250000

     Initial potential from superposition of free atoms

     starting charge  374.99916, renormalised to  391.00000

     negative rho (up, down):  1.698E-02 0.000E+00

     %%%%%%%%%%%%%%%%%%%%%%%%%%%%%%%%%%%%%%%%%%%%%%%%%%%%%%%%%%%%%%%%%%%%%%%%
     %                                                                      %
     % You are using vdW-DF, which was implemented by the Thonhauser group. %
     % Please cite the following two papers that made this development      %
     % possible and the two reviews that describe the various versions:     %
     %                                                                      %
     %   T. Thonhauser et al., PRL 115, 136402 (2015).                      %
     %   T. Thonhauser et al., PRB 76, 125112 (2007).                       %
     %   K. Berland et al., Rep. Prog. Phys. 78, 066501 (2015).             %
     %   D.C. Langreth et al., J. Phys.: Condens. Matter 21, 084203 (2009). %
     %                                                                      %
     %                                                                      %
     % If you are calculating the stress with vdW-DF, please also cite:     %
     %                                                                      %
     %   R. Sabatini et al., J. Phys.: Condens. Matter 24, 424209 (2012).   %
     %                                                                      %
     %%%%%%%%%%%%%%%%%%%%%%%%%%%%%%%%%%%%%%%%%%%%%%%%%%%%%%%%%%%%%%%%%%%%%%%%

     Adding external electric field

     Computed dipole along edir(3) :
        Dipole               -6.8871 Ry au,        -17.5052 Debye
        Dipole field         -0.0130 Ry au,

        Potential amp.        1.2048 Ry
        Total length         46.3494 bohr

     Starting wfcs are  296 atomic wfcs
  @ DRIVER MODE: Message from server: STATUS
  @ DRIVER MODE: Message from server: POSDATA
  @ DRIVER MODE: Reading and sharing cell
  @ DRIVER MODE: Reading and sharing positions
  @ DRIVER MODE: Received positions

     Self-consistent Calculation

     iteration #  1     ecut=    29.40 Ry     beta= 0.05
     Davidson diagonalization with overlap
     c_bands:  1 eigenvalues not converged
     c_bands:  2 eigenvalues not converged
     ethr =  1.00E-05,  avg # of iterations = 15.9

[...]

     total energy              =   -2713.96223539 Ry
     estimated scf accuracy    <    2276.01539823 Ry

     iteration #  2     ecut=    29.40 Ry     beta= 0.05
     Davidson diagonalization with overlap
     ethr =  1.00E-02,  avg # of iterations = 18.1

[...]

     iteration # 78     ecut=    29.40 Ry     beta= 0.05
     Davidson diagonalization with overlap
     c_bands:  1 eigenvalues not converged
     ethr =  2.07E-11,  avg # of iterations = 12.2

[...]

     total energy              =   -2920.25677208 Ry
     estimated scf accuracy    <       0.00000017 Ry

     iteration # 79     ecut=    29.40 Ry     beta= 0.05
     Davidson diagonalization with overlap
     ethr =  2.07E-11,  avg # of iterations =  6.5

     negative rho (up, down):  1.633E-02 0.000E+00

     Adding external electric field

     Computed dipole along edir(3) :
        Dipole                0.8973 Ry au,          2.2808 Debye
        Dipole field          0.0017 Ry au,

        Potential amp.       -0.1570 Ry
        Total length         46.3494 bohr

     End of self-consistent calculation

          k = 0.0000 0.0000 0.0000 ( 18029 PWs)   bands (ev):

   -55.7233 -55.6870 -55.6771 -55.6429 -55.6101 -55.6070 -55.5727 -55.5484
   -55.5405 -55.5140 -55.5091 -55.4754 -55.4503 -55.2887 -54.7086 -54.6745
   -32.2883 -32.1700 -32.0944 -32.0441 -32.0390 -32.0374 -32.0325 -32.0149
   -31.9660 -31.9557 -31.9358 -31.9306 -31.9220 -31.8922 -31.8773 -31.8766
   -31.8619 -31.8479 -31.8444 -31.8297 -31.8245 -31.7913 -31.7841 -31.7788
   -31.7506 -31.7386 -31.7346 -31.7342 -31.7282 -31.7206 -31.7089 -31.7069
   -31.6974 -31.6946 -31.6618 -31.6589 -31.6553 -31.6370 -31.6230 -31.6206
   -31.5088 -31.4609 -31.1181 -31.0235 -31.0014 -30.9344 -30.8476 -30.7368
   -16.6738 -16.5279 -16.2728 -16.1056 -16.0080 -15.9234 -15.7808 -15.7621
   -15.6464 -15.5698 -15.4270 -15.3887 -15.3768 -15.3607 -15.3368 -15.3245
   -15.2717 -15.2659 -15.2448 -15.2208 -15.2164 -15.1685 -15.1652 -15.1250
   -15.1016 -15.0379 -14.9693 -14.8859 -14.8138 -14.4787 -13.2114 -13.0939
    -9.5212  -6.8626  -4.9445  -3.8868  -3.7439  -3.6756  -3.6242  -3.6184
    -3.4740  -3.3024  -3.1532  -3.1328  -3.0960  -2.9917  -2.9283  -2.9138
    -2.8897  -2.7565  -2.7338  -2.6812  -2.6464  -2.5724  -2.5690  -2.5293
    -2.5158  -2.4698  -2.4638  -2.4386  -2.3039  -2.2904  -2.2525  -2.1905
    -2.1307  -2.1280  -2.0722  -2.0546  -2.0150  -2.0062  -1.9936  -1.9520
    -1.9474  -1.9123  -1.8082  -1.7479  -1.6152  -1.5808  -1.4348  -1.3657
    -1.3166  -1.2981  -1.2149  -1.1921  -1.1406  -1.1043  -1.0915  -1.0615
    -0.9479  -0.8604  -0.8103  -0.7561  -0.7224  -0.7073  -0.6181  -0.5251
    -0.5045  -0.4913  -0.4477  -0.3469  -0.3267  -0.2628  -0.2048  -0.1892
    -0.1799  -0.0823  -0.0525   0.0196   0.0716   0.0924   0.1629   0.1892
     0.2077   0.2130   0.2489   0.2594   0.3371   0.3525   0.3768   0.4639
     0.5900   0.8376   0.8847   0.9006   1.2149   1.2189   1.3140   1.4972
     1.8905   1.9388   3.3679   3.3848   3.4492   3.5183   3.5220   3.5872
     3.6091   3.8543   3.8755   3.8829   3.8996

[...]

          k = 0.0380-0.0419 0.0000 ( 17876 PWs)   bands (ev):

[...]

          k =-0.0760-0.0000 0.0000 ( 17886 PWs)   bands (ev):

[...]

          k =-0.0760-0.0839 0.0000 ( 17948 PWs)   bands (ev):

   -55.7082 -55.7019 -55.6601 -55.6598 -55.6055 -55.5905 -55.5892 -55.5449
   -55.5327 -55.5292 -55.4927 -55.4919 -55.4482 -55.2908 -54.6917 -54.6913
   -32.0951 -32.0903 -31.9988 -31.9851 -31.9850 -31.9809 -31.9513 -31.9513
   -31.9506 -31.9351 -31.9285 -31.9194 -31.9141 -31.8736 -31.8704 -31.8651
   -31.8611 -31.8565 -31.8510 -31.8477 -31.8317 -31.8114 -31.8036 -31.8030
   -31.7856 -31.7808 -31.7799 -31.7794 -31.7655 -31.7620 -31.7455 -31.7419
   -31.7408 -31.7252 -31.7241 -31.7224 -31.6735 -31.6728 -31.6703 -31.6287
   -31.5522 -31.5109 -31.0143 -31.0139 -30.9308 -30.9304 -30.8911 -30.8909
   -16.6402 -16.0108 -15.9476 -15.9095 -15.7617 -15.7205 -15.6855 -15.6737
   -15.5503 -15.5177 -15.4972 -15.4775 -15.4410 -15.4277 -15.4208 -15.3668
   -15.3422 -15.3223 -15.3181 -15.3042 -15.2420 -15.2356 -15.2307 -15.2235
   -15.1758 -15.1722 -15.0810 -15.0780 -15.0522 -14.7649 -13.1953 -13.1953
    -9.5230  -6.8445  -4.9239  -3.2167  -3.1927  -3.1633  -3.1340  -2.9813
    -2.9167  -2.9045  -2.8751  -2.8008  -2.7501  -2.7345  -2.6896  -2.6859
    -2.6331  -2.5992  -2.5747  -2.5614  -2.5545  -2.5415  -2.5199  -2.4830
    -2.4550  -2.4524  -2.4442  -2.3976  -2.3720  -2.3614  -2.3235  -2.3170
    -2.3091  -2.2818  -2.2169  -2.1168  -2.0878  -2.0588  -1.9620  -1.9330
    -1.9278  -1.8478  -1.8147  -1.7600  -1.7529  -1.7442  -1.5783  -1.5072
    -1.4719  -1.4683  -1.4454  -1.3186  -1.3036  -1.2252  -1.2017  -1.1886
    -1.0951  -1.0799  -1.0371  -1.0100  -0.9338  -0.9042  -0.8424  -0.7558
    -0.7164  -0.7100  -0.6815  -0.6776  -0.6284  -0.6174  -0.5320  -0.4938
    -0.4589  -0.4485  -0.3997  -0.2139  -0.1981  -0.1669  -0.0289   0.0240
     0.1479   0.1709   0.2325   0.3054   0.3464   0.3889   0.4258   0.5706
     0.5801   0.6153   0.6578   0.6691   0.7269   0.7357   1.6703   1.6708
     1.7586   1.7589   3.3809   3.6287   3.6312   3.6663   3.6887   3.8445
     3.8888   3.9335   3.9547   3.9574   3.9825

     the Fermi energy is     3.4357 ev

!    total energy              =   -2920.25679370 Ry
     estimated scf accuracy    <       0.00000005 Ry
     smearing contrib. (-TS)   =      -0.04241864 Ry
     internal energy E=F+TS    =   -2920.21437506 Ry

     The total energy is F=E-TS. E is the sum of the following terms:
     one-electron contribution =  -24059.29149425 Ry
     hartree contribution      =   12115.81846322 Ry
     xc contribution           =    -480.85715230 Ry
     ewald contribution        =    9504.11428869 Ry
     electric field correction =       0.00151958 Ry

     convergence has been achieved in  79 iterations

     Forces acting on atoms (cartesian axes, Ry/au):

     atom    1 type  1   force =    -0.00002211   -0.00019449    0.09316519
     atom    2 type  1   force =    -0.00011596   -0.00034246   -0.17839399
     atom    3 type  2   force =     0.00009232   -0.00038829   -0.02006359
     atom    4 type  2   force =     0.00004783   -0.00200039    0.05911809
     atom    5 type  2   force =    -0.01019389   -0.00082320    0.00743167
     atom    6 type  2   force =     0.01220521   -0.00043174    0.00774684
     atom    7 type  1   force =     0.00015911    0.00229126   -0.01369234
     atom    8 type  1   force =    -0.00035794   -0.00183886   -0.00452687
     atom    9 type  2   force =    -0.00034244    0.00036863   -0.00023882
     atom   10 type  2   force =    -0.00026608    0.00141928    0.00222218
     atom   11 type  2   force =    -0.00011378    0.00010812   -0.00012629
     atom   12 type  2   force =    -0.00029085   -0.00022491   -0.00063696
     atom   13 type  1   force =    -0.00049131    0.00090095   -0.00020444
     atom   14 type  1   force =    -0.00070181    0.00043605   -0.00046907
     atom   15 type  2   force =     0.00008779   -0.00002778    0.00007897
     atom   16 type  2   force =    -0.00040876   -0.00009574   -0.00001657
     atom   17 type  2   force =    -0.00016435   -0.00030240   -0.00048194
     atom   18 type  2   force =    -0.00019131   -0.00015133    0.00042358
     atom   19 type  1   force =    -0.00060169   -0.00006981    0.00016793
     atom   20 type  1   force =    -0.00011531   -0.00072483   -0.00029882
     atom   21 type  2   force =     0.00002683   -0.00006416    0.10397995
     atom   22 type  2   force =    -0.00045006    0.00056904   -0.00004100
     atom   23 type  2   force =    -0.07035910   -0.00014342   -0.02687227
     atom   24 type  2   force =     0.07023793    0.00029467   -0.02695839
     atom   25 type  1   force =     0.00001252   -0.00015743    0.09256922
     atom   26 type  1   force =    -0.00014231   -0.00045913   -0.17845586
     atom   27 type  2   force =     0.00015963   -0.00028371   -0.01914333
     atom   28 type  2   force =     0.00005784   -0.00176504    0.05849589
     atom   29 type  2   force =    -0.01068280   -0.00129982    0.00790141
     atom   30 type  2   force =     0.01255976   -0.00083320    0.00816832
     atom   31 type  1   force =     0.00029186    0.00601104   -0.01441738
     atom   32 type  1   force =    -0.00036657    0.00122910   -0.00498208
     atom   33 type  2   force =    -0.00004630   -0.00046407   -0.00008944
     atom   34 type  2   force =     0.00078266   -0.00258841    0.00062573
     atom   35 type  2   force =    -0.00058392   -0.00029609   -0.00014114
     atom   36 type  2   force =     0.00058032    0.00004794    0.00003099
     atom   37 type  1   force =    -0.00047216   -0.00042821    0.00013730
     atom   38 type  1   force =    -0.00026362    0.00035783   -0.00081682
     atom   39 type  2   force =    -0.00068175    0.00031476   -0.00008535
     atom   40 type  2   force =    -0.00015230   -0.00036161   -0.00059071
     atom   41 type  2   force =    -0.00121829    0.00016123   -0.00015415
     atom   42 type  2   force =     0.00018120   -0.00010965    0.00019542
     atom   43 type  1   force =     0.00048815   -0.00005224   -0.00033446
     atom   44 type  1   force =     0.00037849    0.00070570    0.00023420
     atom   45 type  2   force =     0.00003893   -0.00007678    0.10393553
     atom   46 type  2   force =    -0.07033041   -0.00009660   -0.02685419
     atom   47 type  2   force =     0.07023325    0.00034498   -0.02691272
     atom   48 type  3   force =     0.00072296   -0.02389689   -0.00460435
     atom   49 type  4   force =    -0.00181633    0.00591428    0.00060583
     atom   50 type  5   force =    -0.00037784   -0.00085025   -0.00114155
     atom   51 type  5   force =    -0.00449146    0.01015885    0.00399947
     atom   52 type  5   force =     0.00606306    0.01057891    0.00053627
     atom   53 type  5   force =     0.00140517   -0.00036969   -0.00002509

     Total force =     0.367552     Total SCF correction =     0.000618
  @ DRIVER MODE: Message from server: STATUS
  @ DRIVER MODE: Message from server: GETFORCE
  @ DRIVER MODE: Returning v,forces,stress,ensemble

     Writing output data file ./calc.save/
  @ DRIVER MODE: Message from server: EXIT
  @ DRIVE MODE: Exiting

     General routines

     Parallel routines

   This run was terminated on:  15:34: 7  23Aug2021

   JOB DONE.