     Program PWSCF v.6.7GPU starts on 18Oct2021 at 14:46:16

     R & G space division:  proc/nbgrp/npool/nimage =       8
     Reading input from /storage/home/hcoda1/3/ntian30/research/carbon/CxH_vib/Thiel_calc/ads_slab/NNH2HH_perslab/out_0007/pw.inp
Warning: card &CELL ignored
Warning: card   CELL_DYNAMICS='IPI', ignored
Warning: card / ignored

     Current dimensions of program PWSCF are:
     Max number of different atomic species (ntypx) = 10
     Max number of k-points (npk) =  40000
     Max angular momentum in pseudopotentials (lmaxx) =  3
     Presently no symmetry can be used with electric field

     Message from routine cell_base_init:
     DEPRECATED: use true lattice parameter, not A to a.u. conversion factor

     IMPORTANT: XC functional enforced from input :
     Exchange-correlation= BEEF-VDW
                           (   1   4  43  14   2   0   0)
     Any further DFT definition will be discarded
     Please, verify this is what you really want

  @ DRIVER MODE: Connecting to
 qe_1139763_3255133.sched-torque.pace.gatech.edun6cjeys3_scratch
  using UNIX socket
  @ DRIVER MODE: Message from server: STATUS
  @ DRIVER MODE: Message from server: INIT
  @ DRIVER MODE: Receiving replica           0          -1
  @ DRIVER MODE: Receiving encoded integer          25
  @ DRIVER MODE:  SCF:  T  FORCE:  T  STRESS:  F  VC:  F  ENSEMBLE:  F
  @ DRIVER MODE:  SCF:  T  FORCE:  T  STRESS:  F  VC:  F  ENSEMBLE:  F

     Using Slab Decomposition

     bravais-lattice index     =            0
     lattice parameter (alat)  =       1.8897  a.u.
     unit-cell volume          =    9988.4706 (a.u.)^3
     number of atoms/cell      =           59
     number of atomic types    =            4
     number of electrons       =       440.00
     number of Kohn-Sham states=          230
     kinetic-energy cutoff     =      29.3995  Ry
     charge density cutoff     =     293.9946  Ry
     scf convergence threshold =      7.3E-08
     mixing beta               =       0.0500
     number of iterations used =            8  plain     mixing
     Exchange-correlation= BEEF-VDW
                           (   1   4  43  14   2   0   0)

     celldm(1)=   1.889726  celldm(2)=   0.000000  celldm(3)=   0.000000
     celldm(4)=   0.000000  celldm(5)=   0.000000  celldm(6)=   0.000000

     crystal axes: (cart. coord. in units of alat)
               a(1) = (   6.579727   0.000000   0.000000 )
               a(2) = (  -0.001163   8.942395   0.000000 )
               a(3) = (   0.000000   0.000000  25.155947 )

     reciprocal axes: (cart. coord. in units 2 pi/alat)
               b(1) = (  0.151982  0.000020  0.000000 )
               b(2) = (  0.000000  0.111827  0.000000 )
               b(3) = (  0.000000  0.000000  0.039752 )

     PseudoPot. # 1 for O  read from file:
     /storage/coda1/p-amedford6/0/shared/rich_project_chbe-medford/medford-share/data/pseudos_module/espresso/nninc/pbe/van/O.UPF
     MD5 check sum: 78c19812648e8988a0fe644b0f25305e
     Pseudo is Ultrasoft, Zval =  6.0
     Generated by new atomic code, or converted to UPF format
     Using radial grid of  737 points,  4 beta functions with:
                l(1) =   0
                l(2) =   0
                l(3) =   1
                l(4) =   1
     Q(r) pseudized with  8 coefficients,  rinner =    0.800   0.800   0.800

     PseudoPot. # 2 for Ti read from file:
     /storage/coda1/p-amedford6/0/shared/rich_project_chbe-medford/medford-share/data/pseudos_module/espresso/nninc/pbe/van/Ti.UPF
     MD5 check sum: 8e4df49b7f0d34bbd5052bf3f5ea0213
     Pseudo is Ultrasoft, Zval = 12.0
     Generated by new atomic code, or converted to UPF format
     Using radial grid of  851 points,  6 beta functions with:
                l(1) =   0
                l(2) =   0
                l(3) =   1
                l(4) =   1
                l(5) =   2
                l(6) =   2
     Q(r) pseudized with  8 coefficients,  rinner =    1.000   1.000   1.000
                                                       1.000   1.000

     PseudoPot. # 3 for H  read from file:
     /storage/coda1/p-amedford6/0/shared/rich_project_chbe-medford/medford-share/data/pseudos_module/espresso/nninc/pbe/van/H.UPF
     MD5 check sum: b5ee9d7bfd3a09ee7748110bda690ff7
     Pseudo is Ultrasoft, Zval =  1.0
     Generated by new atomic code, or converted to UPF format
     Using radial grid of  615 points,  1 beta functions with:
                l(1) =   0
     Q(r) pseudized with  8 coefficients,  rinner =    0.800

     PseudoPot. # 4 for N  read from file:
     /storage/coda1/p-amedford6/0/shared/rich_project_chbe-medford/medford-share/data/pseudos_module/espresso/nninc/pbe/van/N.UPF
     MD5 check sum: 90d10febe142ad51ac9d5be1deb811c4
     Pseudo is Ultrasoft, Zval =  5.0
     Generated by new atomic code, or converted to UPF format
     Using radial grid of  729 points,  4 beta functions with:
                l(1) =   0
                l(2) =   0
                l(3) =   1
                l(4) =   1
     Q(r) pseudized with  8 coefficients,  rinner =    0.800   0.800   0.800

     atomic species   valence    mass     pseudopotential
        O1             6.00    15.99900     O ( 1.00)
        Ti1           12.00    47.86700     Ti( 1.00)
        H1             1.00     1.00800     H ( 1.00)
        N1             5.00    14.00700     N ( 1.00)

     No symmetry found

   Cartesian axes

     site n.     atom                  positions (alat units)
         1           O1  tau(   1) = (   0.0007354   0.0005023  10.5931620  )
         2           O1  tau(   2) = (   3.3122003   8.9411730  13.9078397  )
         3           O1  tau(   3) = (   0.0119464   0.1585559  17.3480684  )
         4           O1  tau(   4) = (   0.0006271   0.0005054   7.9858123  )
         5           O1  tau(   5) = (   3.2844644   8.9346379  11.1901754  )
         6           O1  tau(   6) = (   6.5618141   0.0157575  14.6617184  )
         7           O1  tau(   7) = (   1.9868534   1.4903216   9.2879459  )
         8           O1  tau(   8) = (   5.2413352   1.5994427  12.5710249  )
         9           O1  tau(   9) = (   2.0249271   1.5994163  16.0383581  )
        10           Ti1 tau(  10) = (   0.0007404   1.4906270   9.2895810  )
        11           Ti1 tau(  11) = (   3.2875257   1.3541315  12.5031546  )
        12           Ti1 tau(  12) = (   0.1037617   1.4803996  15.8781706  )
        13           O1  tau(  13) = (   4.5942328   1.4918067   9.2879030  )
        14           O1  tau(  14) = (   1.3445879   1.6225681  12.6047105  )
        15           O1  tau(  15) = (   4.5270247   1.5277052  16.0690704  )
        16           Ti1 tau(  16) = (   3.2902859   2.9801868   9.2893338  )
        17           Ti1 tau(  17) = (   6.5717848   2.8351652  12.4611715  )
        18           Ti1 tau(  18) = (   3.3615503   2.9380122  15.7113248  )
        19           O1  tau(  19) = (   0.0003479   2.9813005  10.5931620  )
        20           O1  tau(  20) = (   3.3257229   2.9884659  13.9122956  )
        21           O1  tau(  21) = (   0.0002396   2.9813036   7.9858123  )
        22           O1  tau(  22) = (   3.2846765   2.9682620  11.1924388  )
        23           O1  tau(  23) = (   6.5193973   3.0012958  14.6893217  )
        24           O1  tau(  24) = (   1.9864658   4.4711199   9.2879459  )
        25           O1  tau(  25) = (   5.2358842   4.5821056  12.5715879  )
        26           O1  tau(  26) = (   1.9668816   4.5963109  15.9958849  )
        27           Ti1 tau(  27) = (   0.0003529   4.4714252   9.2895810  )
        28           Ti1 tau(  28) = (   3.2817300   4.3379106  12.5030846  )
        29           Ti1 tau(  29) = (   6.5286400   4.3105241  16.0387364  )
        30           O1  tau(  30) = (   4.5938453   4.4726049   9.2879030  )
        31           O1  tau(  31) = (   1.3350840   4.5883300  12.6034823  )
        32           O1  tau(  32) = (   4.4768606   4.5746599  16.1328061  )
        33           Ti1 tau(  33) = (   3.2898983   5.9609850   9.2893338  )
        34           Ti1 tau(  34) = (   6.5687693   5.8095266  12.4696282  )
        35           Ti1 tau(  35) = (   3.1936624   5.9077503  15.7132784  )
        36           O1  tau(  36) = (  -0.0000397   5.9620987  10.5931620  )
        37           O1  tau(  37) = (   3.2950800   5.9615338  13.9080848  )
        38           O1  tau(  38) = (   6.5705097   6.0321180  17.3127682  )
        39           O1  tau(  39) = (  -0.0001480   5.9621018   7.9858123  )
        40           O1  tau(  40) = (   3.2829949   5.9473389  11.1919414  )
        41           O1  tau(  41) = (   6.5313079   6.0695169  14.6234680  )
        42           O1  tau(  42) = (   1.9860782   7.4519181   9.2879459  )
        43           O1  tau(  43) = (   5.2305909   7.5696458  12.5615615  )
        44           O1  tau(  44) = (   1.9930026   7.5537276  16.0441964  )
        45           Ti1 tau(  45) = (  -0.0000347   7.4522234   9.2895810  )
        46           Ti1 tau(  46) = (   3.2809715   7.3153274  12.5063831  )
        47           Ti1 tau(  47) = (  -0.0000777   7.3827053  15.8005402  )
        48           O1  tau(  48) = (   4.5934577   7.4534031   9.2879030  )
        49           O1  tau(  49) = (   1.3440923   7.5800077  12.5804573  )
        50           O1  tau(  50) = (   4.5564015   7.5743432  16.1458831  )
        51           Ti1 tau(  51) = (   3.2895107   8.9417832   9.2893338  )
        52           Ti1 tau(  52) = (   6.5681474   8.7932977  12.4619754  )
        53           Ti1 tau(  53) = (   3.3227810   8.9003220  15.7121742  )
        54           H1  tau(  54) = (   5.8375475   6.1301351  17.9339333  )
        55           H1  tau(  55) = (   5.7573184   0.1799947  17.8523786  )
        56           H1  tau(  56) = (   0.0490247   3.6154164  19.2291769  )
        57           N1  tau(  57) = (   6.4107751   2.7916545  18.6713363  )
        58           N1  tau(  58) = (   6.5444414   3.0434393  17.3342366  )
        59           H1  tau(  59) = (   0.3957958   1.9971216  18.9670883  )

     number of k points=    10  Fermi-Dirac smearing, width (Ry)=  0.0073
                       cart. coord. in units 2pi/alat
        k(    1) = (   0.0000000   0.0000000   0.0000000), wk =   0.1250000
        k(    2) = (   0.0000000   0.0279567   0.0000000), wk =   0.2500000
        k(    3) = (   0.0000000  -0.0559134   0.0000000), wk =   0.1250000
        k(    4) = (   0.0379955   0.0000049   0.0000000), wk =   0.2500000
        k(    5) = (   0.0379955   0.0279617   0.0000000), wk =   0.2500000
        k(    6) = (   0.0379955  -0.0559085   0.0000000), wk =   0.2500000
        k(    7) = (   0.0379955  -0.0279518   0.0000000), wk =   0.2500000
        k(    8) = (  -0.0759910  -0.0000099   0.0000000), wk =   0.1250000
        k(    9) = (  -0.0759910   0.0279468   0.0000000), wk =   0.2500000
        k(   10) = (  -0.0759910  -0.0559233   0.0000000), wk =   0.1250000

     Initial potential from superposition of free atoms

     starting charge  421.99910, renormalised to  440.00000

     negative rho (up, down):  3.725E-02 0.000E+00

     %%%%%%%%%%%%%%%%%%%%%%%%%%%%%%%%%%%%%%%%%%%%%%%%%%%%%%%%%%%%%%%%%%%%%%%%
     %                                                                      %
     % You are using vdW-DF, which was implemented by the Thonhauser group. %
     % Please cite the following two papers that made this development      %
     % possible and the two reviews that describe the various versions:     %
     %                                                                      %
     %   T. Thonhauser et al., PRL 115, 136402 (2015).                      %
     %   T. Thonhauser et al., PRB 76, 125112 (2007).                       %
     %   K. Berland et al., Rep. Prog. Phys. 78, 066501 (2015).             %
     %   D.C. Langreth et al., J. Phys.: Condens. Matter 21, 084203 (2009). %
     %                                                                      %
     %                                                                      %
     % If you are calculating the stress with vdW-DF, please also cite:     %
     %                                                                      %
     %   R. Sabatini et al., J. Phys.: Condens. Matter 24, 424209 (2012).   %
     %                                                                      %
     %%%%%%%%%%%%%%%%%%%%%%%%%%%%%%%%%%%%%%%%%%%%%%%%%%%%%%%%%%%%%%%%%%%%%%%%

     Adding external electric field

     Computed dipole along edir(3) :
        Dipole               -5.7841 Ry au,        -14.7017 Debye
        Dipole field         -0.0073 Ry au,

        Potential amp.        0.6746 Ry
        Total length         46.3494 bohr

     Starting wfcs are  332 atomic wfcs
  @ DRIVER MODE: Message from server: STATUS
  @ DRIVER MODE: Message from server: POSDATA
  @ DRIVER MODE: Reading and sharing cell
  @ DRIVER MODE: Reading and sharing positions
  @ DRIVER MODE: Received positions

     Self-consistent Calculation

     iteration #  1     ecut=    29.40 Ry     beta= 0.05
     Davidson diagonalization with overlap
     c_bands:  1 eigenvalues not converged
     c_bands:  2 eigenvalues not converged
     c_bands:  4 eigenvalues not converged
     c_bands:  1 eigenvalues not converged
     c_bands:  1 eigenvalues not converged
     c_bands:  5 eigenvalues not converged
     c_bands:  1 eigenvalues not converged
     c_bands:  4 eigenvalues not converged
     c_bands:  4 eigenvalues not converged
     c_bands:  4 eigenvalues not converged
     ethr =  1.00E-05,  avg # of iterations = 20.0

[...]

     total energy              =   -3276.43986788 Ry
     estimated scf accuracy    <     229.25753969 Ry

     iteration #  2     ecut=    29.40 Ry     beta= 0.05
     Davidson diagonalization with overlap
     ethr =  1.00E-02,  avg # of iterations = 15.9

[...]

     iteration # 39     ecut=    29.40 Ry     beta= 0.05
     Davidson diagonalization with overlap
     c_bands:  1 eigenvalues not converged
     ethr =  1.86E-09,  avg # of iterations = 12.6

[...]

     total energy              =   -3293.24422321 Ry
     estimated scf accuracy    <       0.00000011 Ry

     iteration # 50     ecut=    29.40 Ry     beta= 0.05
     Davidson diagonalization with overlap
     ethr =  2.58E-11,  avg # of iterations =  9.9

     negative rho (up, down):  3.572E-02 0.000E+00

     Adding external electric field

     Computed dipole along edir(3) :
        Dipole                1.5617 Ry au,          3.9694 Debye
        Dipole field          0.0020 Ry au,

        Potential amp.       -0.1821 Ry
        Total length         46.3494 bohr

     End of self-consistent calculation

          k = 0.0000 0.0000 0.0000 ( 26871 PWs)   bands (ev):

   -57.7049 -57.6981 -57.6799 -57.6782 -57.6548 -57.6130 -57.5655 -57.5277
   -57.5037 -57.5000 -57.4987 -57.4950 -57.4667 -57.4566 -56.7849 -56.7256
   -56.7014 -56.6979 -34.1022 -34.0873 -34.0855 -34.0840 -34.0599 -34.0416
   -34.0360 -34.0216 -34.0170 -33.9982 -33.9647 -33.9618 -33.9522 -33.9462
   -33.9013 -33.8986 -33.8921 -33.8853 -33.8720 -33.8483 -33.8428 -33.8311
   -33.8275 -33.8213 -33.8015 -33.8003 -33.7980 -33.7813 -33.7656 -33.7429
   -33.7394 -33.7350 -33.7235 -33.7159 -33.7073 -33.6925 -33.6880 -33.6869
   -33.6838 -33.6779 -33.6715 -33.6437 -33.2410 -33.0403 -33.0402 -33.0360
   -33.0245 -33.0212 -32.9940 -32.9796 -32.9518 -32.8891 -32.8850 -32.7514
   -19.1658 -19.0067 -18.8261 -18.5623 -18.1589 -17.9925 -17.9702 -17.9523
   -17.9119 -17.8127 -17.8115 -17.6326 -17.5741 -17.5415 -17.5120 -17.5060
   -17.4353 -17.3971 -17.3816 -17.3631 -17.3574 -17.3508 -17.3336 -17.2892
   -17.2532 -17.1985 -17.1837 -17.1482 -17.1365 -17.1348 -17.1335 -17.0646
   -16.8297 -15.1924 -15.1347 -15.1330 -12.1119  -7.8945  -6.7929  -6.5169
    -6.3337  -5.8919  -5.6754  -5.6225  -5.5414  -5.1853  -5.1713  -5.1031
    -5.0913  -5.0646  -4.9979  -4.9837  -4.9800  -4.9651  -4.8838  -4.8475
    -4.8353  -4.7875  -4.7693  -4.7108  -4.6462  -4.6365  -4.5757  -4.5401
    -4.5047  -4.4992  -4.4936  -4.4852  -4.4693  -4.4349  -4.3616  -4.3112
    -4.1763  -4.1706  -4.1172  -4.0520  -4.0243  -4.0161  -3.9551  -3.8803
    -3.8380  -3.8303  -3.7885  -3.7597  -3.7237  -3.7023  -3.6775  -3.5848
    -3.4924  -3.4586  -3.4539  -3.4117  -3.3995  -3.3465  -3.2317  -3.1781
    -3.1113  -3.0490  -2.9873  -2.9636  -2.9231  -2.8693  -2.8459  -2.7960
    -2.7748  -2.7225  -2.6781  -2.6269  -2.5345  -2.4768  -2.4713  -2.4596
    -2.4035  -2.3876  -2.3733  -2.3506  -2.3255  -2.2699  -2.2379  -2.2064
    -2.1731  -2.1420  -2.0969  -2.0622  -2.0514  -1.9427  -1.9085  -1.8805
    -1.7546  -1.7299  -1.6854  -1.6547  -1.5612  -1.5462  -1.5452  -1.4305
    -1.4148  -1.0954  -1.0009  -0.7463  -0.4755  -0.4302  -0.4294  -0.1657
    -0.1629  -0.0335   0.5255   1.2663   1.5216   1.6674   1.7260   1.7434
     1.7904   1.8750   1.8919   1.9234   1.9443   2.0050

[...]

          k = 0.0380-0.0280 0.0000 ( 26873 PWs)   bands (ev):

[...]

          k =-0.0760-0.0000 0.0000 ( 26902 PWs)   bands (ev):

[...]

          k =-0.0760-0.0559 0.0000 ( 26868 PWs)   bands (ev):

   -57.6973 -57.6970 -57.6954 -57.6706 -57.6561 -57.6123 -57.5655 -57.5211
   -57.5163 -57.4987 -57.4933 -57.4931 -57.4729 -57.4529 -56.7849 -56.7186
   -56.7152 -56.6911 -34.1799 -34.1726 -34.0873 -34.0610 -34.0514 -34.0367
   -34.0312 -34.0291 -33.9977 -33.9867 -33.9540 -33.9311 -33.9043 -33.8960
   -33.8941 -33.8807 -33.8742 -33.8460 -33.8452 -33.8409 -33.8370 -33.8343
   -33.8238 -33.8124 -33.7890 -33.7873 -33.7788 -33.7774 -33.7744 -33.7653
   -33.7560 -33.7489 -33.7350 -33.7334 -33.7210 -33.7189 -33.7157 -33.7101
   -33.6931 -33.6756 -33.6685 -33.6678 -33.2475 -33.1298 -33.0404 -33.0373
   -33.0142 -32.9950 -32.9808 -32.9324 -32.9282 -32.8654 -32.8502 -32.8464
   -19.0968 -19.0679 -18.8139 -18.2571 -18.2402 -17.9269 -17.8850 -17.8362
   -17.8314 -17.8076 -17.7374 -17.7209 -17.6874 -17.6236 -17.5400 -17.5099
   -17.4837 -17.4511 -17.4375 -17.4305 -17.4207 -17.3980 -17.3566 -17.3530
   -17.3019 -17.2560 -17.2209 -17.1707 -17.1403 -17.0900 -17.0646 -17.0373
   -16.8634 -15.1906 -15.1883 -15.0717 -12.1104  -7.8976  -6.7862  -6.5412
    -6.2910  -5.5050  -5.4957  -5.4877  -5.4392  -5.1477  -5.0393  -4.9922
    -4.9880  -4.9613  -4.9038  -4.8893  -4.8766  -4.8609  -4.8495  -4.8136
    -4.8088  -4.7646  -4.7521  -4.7391  -4.6892  -4.6311  -4.6256  -4.6012
    -4.5920  -4.5184  -4.5111  -4.4602  -4.3658  -4.3216  -4.3026  -4.2976
    -4.2592  -4.2265  -4.2186  -4.1470  -3.8995  -3.8904  -3.8675  -3.8494
    -3.8113  -3.7639  -3.7340  -3.7141  -3.6551  -3.5522  -3.4268  -3.3937
    -3.3805  -3.3638  -3.3387  -3.2990  -3.2874  -3.2768  -3.2323  -3.2011
    -3.1993  -3.1560  -3.1135  -3.0244  -2.9892  -2.9332  -2.8865  -2.8446
    -2.8329  -2.8214  -2.8148  -2.7979  -2.7691  -2.7541  -2.7400  -2.7020
    -2.6849  -2.6206  -2.5682  -2.5063  -2.4845  -2.4289  -2.3580  -2.2771
    -2.2537  -2.1903  -2.0976  -2.0403  -2.0001  -1.9681  -1.9490  -1.9282
    -1.8479  -1.8236  -1.7964  -1.7827  -1.5199  -1.5167  -1.3718  -1.3383
    -1.2874  -1.2792  -1.2101  -1.0527  -0.6418  -0.3562  -0.3493  -0.3209
    -0.1654  -0.1650   0.4758   1.4376   1.5023   1.5149   1.6064   1.6132
     1.6278   1.7247   1.7656   1.7691   1.9049   1.9856

     the Fermi energy is     1.3762 ev

!    total energy              =   -3293.24433111 Ry
     estimated scf accuracy    <       0.00000006 Ry
     smearing contrib. (-TS)   =      -0.03193761 Ry
     internal energy E=F+TS    =   -3293.21239349 Ry

     The total energy is F=E-TS. E is the sum of the following terms:
     one-electron contribution =  -34434.88928222 Ry
     hartree contribution      =   17282.60789804 Ry
     xc contribution           =    -542.28645015 Ry
     ewald contribution        =   14401.35237248 Ry
     electric field correction =       0.00306836 Ry

     convergence has been achieved in  50 iterations

     Forces acting on atoms (cartesian axes, Ry/au):

     atom    1 type  1   force =     0.00084962    0.00632036    0.05752481
     atom    2 type  1   force =    -0.00003711   -0.00070928   -0.00475647
     atom    3 type  1   force =    -0.01386421   -0.00145339    0.00725004
     atom    4 type  1   force =     0.00006698    0.00076642    0.10711584
     atom    5 type  1   force =    -0.00015448   -0.00059670    0.00931880
     atom    6 type  1   force =     0.00134251   -0.00279298    0.00336316
     atom    7 type  1   force =     0.06705374   -0.00000269   -0.02954123
     atom    8 type  1   force =     0.00334180   -0.02853675    0.00244445
     atom    9 type  1   force =     0.01224398   -0.01760890    0.00147682
     atom   10 type  2   force =     0.00007197   -0.00242186   -0.18532176
     atom   11 type  2   force =     0.00015015    0.02113899   -0.00710522
     atom   12 type  2   force =    -0.00546373    0.01492872   -0.00293270
     atom   13 type  1   force =    -0.06726963   -0.00039357   -0.02893949
     atom   14 type  1   force =    -0.00360860   -0.02912687    0.00249976
     atom   15 type  1   force =    -0.00692385   -0.01137374    0.00265348
     atom   16 type  2   force =    -0.00021364   -0.00127613    0.06487864
     atom   17 type  2   force =     0.00030066    0.03526776    0.00392761
     atom   18 type  2   force =    -0.00264527    0.02270350    0.00150547
     atom   19 type  1   force =     0.00074607    0.00409038    0.06080629
     atom   20 type  1   force =     0.00002540   -0.00008231   -0.00396160
     atom   21 type  1   force =     0.00005678   -0.00004237    0.10729036
     atom   22 type  1   force =     0.00002861   -0.00085590    0.00936991
     atom   23 type  1   force =    -0.00007236   -0.00350658    0.00449869
     atom   24 type  1   force =     0.06732564   -0.00051341   -0.02945509
     atom   25 type  1   force =     0.00347509   -0.02947634    0.00310907
     atom   26 type  1   force =     0.00656217   -0.02211853    0.00389256
     atom   27 type  2   force =    -0.00000889    0.00172888   -0.18401568
     atom   28 type  2   force =    -0.00038864    0.02140618   -0.00708344
     atom   29 type  2   force =    -0.00117467    0.02330132   -0.00322594
     atom   30 type  1   force =    -0.06752905   -0.00097611   -0.02876659
     atom   31 type  1   force =    -0.00416152   -0.02931726    0.00227352
     atom   32 type  1   force =    -0.00650995   -0.01860822   -0.00037911
     atom   33 type  2   force =    -0.00033149   -0.00092091    0.06449428
     atom   34 type  2   force =     0.00043639    0.03629646    0.00381079
     atom   35 type  2   force =     0.00231111    0.02406342    0.00262180
     atom   36 type  1   force =     0.00068290    0.00483676    0.05915690
     atom   37 type  1   force =    -0.00015228    0.00147707   -0.00766781
     atom   38 type  1   force =    -0.00036945   -0.00307592    0.00071821
     atom   39 type  1   force =     0.00010656   -0.00015870    0.10688191
     atom   40 type  1   force =     0.00007736   -0.00089040    0.00974517
     atom   41 type  1   force =     0.00077372   -0.00216282    0.00134923
     atom   42 type  1   force =     0.06757352   -0.00029074   -0.02941008
     atom   43 type  1   force =     0.00369533   -0.02889108    0.00185495
     atom   44 type  1   force =     0.00874161   -0.01703708    0.00067755
     atom   45 type  2   force =     0.00023900   -0.00246676   -0.18291585
     atom   46 type  2   force =     0.00024019    0.01986580   -0.00667286
     atom   47 type  2   force =    -0.00008740    0.02236235    0.00178941
     atom   48 type  1   force =    -0.06772538   -0.00078480   -0.02866961
     atom   49 type  1   force =    -0.00360915   -0.02861040    0.00242290
     atom   50 type  1   force =    -0.00826018   -0.01837807   -0.00135728
     atom   51 type  2   force =    -0.00035823   -0.00110393    0.06450216
     atom   52 type  2   force =    -0.00016865    0.03595449    0.00438041
     atom   53 type  2   force =    -0.00173867    0.01465325   -0.00213293
     atom   54 type  3   force =    -0.00066795   -0.00021940    0.00053029
     atom   55 type  3   force =     0.01320066   -0.00106164   -0.00672058
     atom   56 type  3   force =     0.00126808   -0.00139823   -0.00034422
     atom   57 type  4   force =     0.00060831    0.00170537    0.00159704
     atom   58 type  4   force =     0.00037564   -0.00305472   -0.00081339
     atom   59 type  3   force =    -0.00047712   -0.00057198    0.00045663

     Total force =     0.456099     Total SCF correction =     0.000668
  @ DRIVER MODE: Message from server: STATUS
  @ DRIVER MODE: Message from server: GETFORCE
  @ DRIVER MODE: Returning v,forces,stress,ensemble

     Writing output data file ./calc.save/
  @ DRIVER MODE: Message from server: EXIT
  @ DRIVE MODE: Exiting

     General routines

     Parallel routines

   This run was terminated on:  15:12:37  18Oct2021

   JOB DONE.