     Program PWSCF v.6.7GPU starts on 11Sep2021 at  1:34: 3

     R & G space division:  proc/nbgrp/npool/nimage =      10
     Reading input from /storage/home/hcoda1/3/ntian30/research/carbon/CxH_vib/CH2_calc/ads_slab/CH2NHNH2_a/out_0021/pw.inp
Warning: card &CELL ignored
Warning: card   CELL_DYNAMICS='IPI', ignored
Warning: card / ignored

     Current dimensions of program PWSCF are:
     Max number of different atomic species (ntypx) = 10
     Max number of k-points (npk) =  40000
     Max angular momentum in pseudopotentials (lmaxx) =  3
     Presently no symmetry can be used with electric field

     Message from routine cell_base_init:
     DEPRECATED: use true lattice parameter, not A to a.u. conversion factor

     IMPORTANT: XC functional enforced from input :
     Exchange-correlation= BEEF-VDW
                           (   1   4  43  14   2   0   0)
     Any further DFT definition will be discarded
     Please, verify this is what you really want

  @ DRIVER MODE: Connecting to
 qe_1139763_2792044.sched-torque.pace.gatech.edu62we9pdg_scratch
  using UNIX socket
  @ DRIVER MODE: Message from server: STATUS
  @ DRIVER MODE: Message from server: INIT
  @ DRIVER MODE: Receiving replica           0          -1
  @ DRIVER MODE: Receiving encoded integer          25
  @ DRIVER MODE:  SCF:  T  FORCE:  T  STRESS:  F  VC:  F  ENSEMBLE:  F
  @ DRIVER MODE:  SCF:  T  FORCE:  T  STRESS:  F  VC:  F  ENSEMBLE:  F

     Using Slab Decomposition

     bravais-lattice index     =            0
     lattice parameter (alat)  =       1.8897  a.u.
     unit-cell volume          =    6658.9804 (a.u.)^3
     number of atoms/cell      =           55
     number of atomic types    =            5
     number of electrons       =       397.00
     number of Kohn-Sham states=          208
     kinetic-energy cutoff     =      29.3995  Ry
     charge density cutoff     =     293.9946  Ry
     scf convergence threshold =      7.3E-08
     mixing beta               =       0.0500
     number of iterations used =            8  plain     mixing
     Exchange-correlation= BEEF-VDW
                           (   1   4  43  14   2   0   0)

     celldm(1)=   1.889726  celldm(2)=   0.000000  celldm(3)=   0.000000
     celldm(4)=   0.000000  celldm(5)=   0.000000  celldm(6)=   0.000000

     crystal axes: (cart. coord. in units of alat)
               a(1) = (   6.579727   0.000000   0.000000 )
               a(2) = (  -0.000775   5.961596   0.000000 )
               a(3) = (   0.000000   0.000000  25.155947 )

     reciprocal axes: (cart. coord. in units 2 pi/alat)
               b(1) = (  0.151982  0.000020  0.000000 )
               b(2) = (  0.000000  0.167740  0.000000 )
               b(3) = (  0.000000  0.000000  0.039752 )

     PseudoPot. # 1 for Ti read from file:
     /storage/coda1/p-amedford6/0/shared/rich_project_chbe-medford/medford-share/data/pseudos_module/espresso/nninc/pbe/van/Ti.UPF
     MD5 check sum: 8e4df49b7f0d34bbd5052bf3f5ea0213
     Pseudo is Ultrasoft, Zval = 12.0
     Generated by new atomic code, or converted to UPF format
     Using radial grid of  851 points,  6 beta functions with:
                l(1) =   0
                l(2) =   0
                l(3) =   1
                l(4) =   1
                l(5) =   2
                l(6) =   2
     Q(r) pseudized with  8 coefficients,  rinner =    1.000   1.000   1.000
                                                       1.000   1.000

     PseudoPot. # 2 for O  read from file:
     /storage/coda1/p-amedford6/0/shared/rich_project_chbe-medford/medford-share/data/pseudos_module/espresso/nninc/pbe/van/O.UPF
     MD5 check sum: 78c19812648e8988a0fe644b0f25305e
     Pseudo is Ultrasoft, Zval =  6.0
     Generated by new atomic code, or converted to UPF format
     Using radial grid of  737 points,  4 beta functions with:
                l(1) =   0
                l(2) =   0
                l(3) =   1
                l(4) =   1
     Q(r) pseudized with  8 coefficients,  rinner =    0.800   0.800   0.800

     PseudoPot. # 3 for N  read from file:
     /storage/coda1/p-amedford6/0/shared/rich_project_chbe-medford/medford-share/data/pseudos_module/espresso/nninc/pbe/van/N.UPF
     MD5 check sum: 90d10febe142ad51ac9d5be1deb811c4
     Pseudo is Ultrasoft, Zval =  5.0
     Generated by new atomic code, or converted to UPF format
     Using radial grid of  729 points,  4 beta functions with:
                l(1) =   0
                l(2) =   0
                l(3) =   1
                l(4) =   1
     Q(r) pseudized with  8 coefficients,  rinner =    0.800   0.800   0.800

     PseudoPot. # 4 for C  read from file:
     /storage/coda1/p-amedford6/0/shared/rich_project_chbe-medford/medford-share/data/pseudos_module/espresso/nninc/pbe/van/C.UPF
     MD5 check sum: 1a69bf6b8db32088f5b2163dbdb77a27
     Pseudo is Ultrasoft, Zval =  4.0
     Generated by new atomic code, or converted to UPF format
     Using radial grid of  721 points,  4 beta functions with:
                l(1) =   0
                l(2) =   0
                l(3) =   1
                l(4) =   1
     Q(r) pseudized with  8 coefficients,  rinner =    0.800   0.800   0.800

     PseudoPot. # 5 for H  read from file:
     /storage/coda1/p-amedford6/0/shared/rich_project_chbe-medford/medford-share/data/pseudos_module/espresso/nninc/pbe/van/H.UPF
     MD5 check sum: b5ee9d7bfd3a09ee7748110bda690ff7
     Pseudo is Ultrasoft, Zval =  1.0
     Generated by new atomic code, or converted to UPF format
     Using radial grid of  615 points,  1 beta functions with:
                l(1) =   0
     Q(r) pseudized with  8 coefficients,  rinner =    0.800

     atomic species   valence    mass     pseudopotential
        Ti1           12.00    47.86700     Ti( 1.00)
        O1             6.00    15.99900     O ( 1.00)
        N1             5.00    14.00700     N ( 1.00)
        C1             4.00    12.01100     C ( 1.00)
        H1             1.00     1.00800     H ( 1.00)

     No symmetry found

   Cartesian axes

     site n.     atom                  positions (alat units)
         1           Ti1 tau(   1) = (   0.0004258   2.9801865   6.0000000  )
         2           Ti1 tau(   2) = (   3.2906075   1.4906267   6.0002472  )
         3           O1  tau(   3) = (   0.0006271   0.0005054   7.9858123  )
         4           O1  tau(   4) = (   3.2906025   0.0005020   7.3038282  )
         5           O1  tau(   5) = (   4.5942328   1.4918067   9.2879030  )
         6           O1  tau(   6) = (   1.9868534   1.4903216   9.2879459  )
         7           Ti1 tau(   7) = (   3.2907910   2.8959150   9.1758416  )
         8           Ti1 tau(   8) = (   0.0015273   1.4827037   9.2680791  )
         9           O1  tau(   9) = (   3.2904964   5.9585769  11.3857690  )
        10           O1  tau(  10) = (   0.0116148   5.9584955  10.6183126  )
        11           O1  tau(  11) = (   1.2878431   1.4867815  12.6991744  )
        12           O1  tau(  12) = (   5.2968392   1.4897239  12.6840540  )
        13           Ti1 tau(  13) = (   0.0031652   2.9724310  12.5021289  )
        14           Ti1 tau(  14) = (   3.2974598   1.4750309  12.5411678  )
        15           O1  tau(  15) = (   6.5490940   5.8844369  14.7025010  )
        16           O1  tau(  16) = (   3.3056738   5.9474069  14.0077327  )
        17           O1  tau(  17) = (   4.5358307   1.5199601  16.1809847  )
        18           O1  tau(  18) = (   2.0145668   1.5037208  16.1256758  )
        19           Ti1 tau(  19) = (   3.2722398   2.9952086  15.7861162  )
        20           Ti1 tau(  20) = (   6.5630583   1.3046800  15.8709962  )
        21           O1  tau(  21) = (   3.2904802   0.0005063   4.7018136  )
        22           O1  tau(  22) = (   0.0019326   0.1554656  17.2922311  )
        23           O1  tau(  23) = (   1.3043587   1.4918075   6.0039043  )
        24           O1  tau(  24) = (   5.2767064   1.4903225   6.0039473  )
        25           Ti1 tau(  25) = (   0.0000382   5.9609847   6.0000000  )
        26           Ti1 tau(  26) = (   3.2902200   4.4714249   6.0002472  )
        27           O1  tau(  27) = (   0.0002396   2.9813036   7.9858123  )
        28           O1  tau(  28) = (   3.2902150   2.9813002   7.3038282  )
        29           O1  tau(  29) = (   4.5938453   4.4726049   9.2879030  )
        30           O1  tau(  30) = (   1.9864658   4.4711199   9.2879459  )
        31           Ti1 tau(  31) = (   3.2891106   5.8743827   9.1763621  )
        32           Ti1 tau(  32) = (   0.0006254   4.4649316   9.2693709  )
        33           O1  tau(  33) = (   3.2902589   2.9648534  11.3782866  )
        34           O1  tau(  34) = (   0.0092240   2.9805883  10.6323155  )
        35           O1  tau(  35) = (   1.2907939   4.4579819  12.6664495  )
        36           O1  tau(  36) = (   5.2949113   4.4550998  12.6520156  )
        37           Ti1 tau(  37) = (   0.0082621   5.9437129  12.5015890  )
        38           Ti1 tau(  38) = (   3.2989848   4.4491302  12.5337562  )
        39           O1  tau(  39) = (   6.5545586   3.0159292  14.9830317  )
        40           O1  tau(  40) = (   3.2960925   2.9977268  13.9872472  )
        41           O1  tau(  41) = (   4.5245867   4.4695491  16.2648171  )
        42           O1  tau(  42) = (   2.0004542   4.4779941  16.2115700  )
        43           Ti1 tau(  43) = (   3.2998562   0.0139781  15.8031611  )
        44           Ti1 tau(  44) = (   0.0298651   4.5190837  16.0363964  )
        45           O1  tau(  45) = (   3.2900926   2.9813045   4.7018136  )
        46           O1  tau(  46) = (   1.3039711   4.4726057   6.0039043  )
        47           O1  tau(  47) = (   5.2763189   4.4711207   6.0039473  )
        48           N1  tau(  48) = (   0.7490466   2.5008218  18.8353846  )
        49           N1  tau(  49) = (   6.4369825   3.4131575  18.1751453  )
        50           C1  tau(  50) = (   1.9829018   2.9174465  19.1941100  )
        51           H1  tau(  51) = (   2.1359794   3.9444348  19.4490303  )
        52           H1  tau(  52) = (   2.6935556   2.1521737  19.4548401  )
        53           H1  tau(  53) = (   0.6355624   1.5475814  18.4636284  )
        54           H1  tau(  54) = (   6.4936903   4.3158724  18.6511896  )
        55           H1  tau(  55) = (   5.4890587   3.0624770  18.3097170  )

     number of k points=    10  Fermi-Dirac smearing, width (Ry)=  0.0073
                       cart. coord. in units 2pi/alat
        k(    1) = (   0.0000000   0.0000000   0.0000000), wk =   0.1250000
        k(    2) = (   0.0000000   0.0419351   0.0000000), wk =   0.2500000
        k(    3) = (   0.0000000  -0.0838702   0.0000000), wk =   0.1250000
        k(    4) = (   0.0379955   0.0000049   0.0000000), wk =   0.2500000
        k(    5) = (   0.0379955   0.0419400   0.0000000), wk =   0.2500000
        k(    6) = (   0.0379955  -0.0838652   0.0000000), wk =   0.2500000
        k(    7) = (   0.0379955  -0.0419301   0.0000000), wk =   0.2500000
        k(    8) = (  -0.0759910  -0.0000099   0.0000000), wk =   0.1250000
        k(    9) = (  -0.0759910   0.0419252   0.0000000), wk =   0.2500000
        k(   10) = (  -0.0759910  -0.0838800   0.0000000), wk =   0.1250000

     Initial potential from superposition of free atoms

     starting charge  380.99914, renormalised to  397.00000

     negative rho (up, down):  1.606E-02 0.000E+00

     %%%%%%%%%%%%%%%%%%%%%%%%%%%%%%%%%%%%%%%%%%%%%%%%%%%%%%%%%%%%%%%%%%%%%%%%
     %                                                                      %
     % You are using vdW-DF, which was implemented by the Thonhauser group. %
     % Please cite the following two papers that made this development      %
     % possible and the two reviews that describe the various versions:     %
     %                                                                      %
     %   T. Thonhauser et al., PRL 115, 136402 (2015).                      %
     %   T. Thonhauser et al., PRB 76, 125112 (2007).                       %
     %   K. Berland et al., Rep. Prog. Phys. 78, 066501 (2015).             %
     %   D.C. Langreth et al., J. Phys.: Condens. Matter 21, 084203 (2009). %
     %                                                                      %
     %                                                                      %
     % If you are calculating the stress with vdW-DF, please also cite:     %
     %                                                                      %
     %   R. Sabatini et al., J. Phys.: Condens. Matter 24, 424209 (2012).   %
     %                                                                      %
     %%%%%%%%%%%%%%%%%%%%%%%%%%%%%%%%%%%%%%%%%%%%%%%%%%%%%%%%%%%%%%%%%%%%%%%%

     Adding external electric field

     Computed dipole along edir(3) :
        Dipole              -10.6770 Ry au,        -27.1381 Debye
        Dipole field         -0.0201 Ry au,

        Potential amp.        1.8678 Ry
        Total length         46.3494 bohr

     Starting wfcs are  301 atomic wfcs
  @ DRIVER MODE: Message from server: STATUS
  @ DRIVER MODE: Message from server: POSDATA
  @ DRIVER MODE: Reading and sharing cell
  @ DRIVER MODE: Reading and sharing positions
  @ DRIVER MODE: Received positions

     Self-consistent Calculation

     iteration #  1     ecut=    29.40 Ry     beta= 0.05
     Davidson diagonalization with overlap
     c_bands:  2 eigenvalues not converged
     c_bands:  3 eigenvalues not converged
     c_bands:  1 eigenvalues not converged
     c_bands:  4 eigenvalues not converged
     c_bands:  4 eigenvalues not converged
     c_bands:  4 eigenvalues not converged
     c_bands:  1 eigenvalues not converged
     c_bands:  2 eigenvalues not converged
     c_bands:  2 eigenvalues not converged
     ethr =  1.00E-05,  avg # of iterations = 20.0

[...]

     total energy              =   -2465.28496648 Ry
     estimated scf accuracy    <    5331.50682613 Ry

     iteration #  2     ecut=    29.40 Ry     beta= 0.05
     Davidson diagonalization with overlap
     ethr =  1.00E-02,  avg # of iterations = 23.4

[...]

     iteration # 76     ecut=    29.40 Ry     beta= 0.05
     Davidson diagonalization with overlap
     ethr =  6.89E-11,  avg # of iterations =  5.5

[...]

     total energy              =   -2941.51051419 Ry
     estimated scf accuracy    <       0.00000015 Ry

     iteration # 77     ecut=    29.40 Ry     beta= 0.05
     Davidson diagonalization with overlap
     c_bands:  1 eigenvalues not converged
     ethr =  3.78E-11,  avg # of iterations = 11.0

     negative rho (up, down):  1.516E-02 0.000E+00

     Adding external electric field

     Computed dipole along edir(3) :
        Dipole                1.2055 Ry au,          3.0641 Debye
        Dipole field          0.0023 Ry au,

        Potential amp.       -0.2109 Ry
        Total length         46.3494 bohr

     End of self-consistent calculation

          k = 0.0000 0.0000 0.0000 ( 18029 PWs)   bands (ev):

   -55.3825 -55.3455 -55.3367 -55.3026 -55.2640 -55.2581 -55.2294 -55.2111
   -55.1868 -55.1845 -55.1767 -55.1672 -55.1335 -55.0318 -54.3699 -54.3358
   -31.9453 -31.8299 -31.7774 -31.7514 -31.7001 -31.6898 -31.6840 -31.6737
   -31.6254 -31.6170 -31.5946 -31.5814 -31.5721 -31.5480 -31.5415 -31.5347
   -31.5222 -31.5062 -31.5047 -31.4894 -31.4885 -31.4517 -31.4513 -31.4414
   -31.4413 -31.4134 -31.3944 -31.3939 -31.3935 -31.3889 -31.3728 -31.3660
   -31.3650 -31.3589 -31.3589 -31.3563 -31.3243 -31.3001 -31.2950 -31.2786
   -31.2468 -31.2021 -30.7795 -30.6847 -30.6627 -30.5958 -30.5090 -30.3981
   -18.8968 -16.2147 -15.9612 -15.8140 -15.7065 -15.5890 -15.4803 -15.4255
   -15.3193 -15.2478 -15.1339 -15.0846 -15.0680 -15.0361 -15.0272 -15.0149
   -14.9354 -14.9289 -14.9111 -14.8881 -14.8823 -14.8404 -14.8288 -14.7880
   -14.7628 -14.7569 -14.6355 -14.5496 -14.4748 -14.3239 -14.3126 -12.8725
   -12.7549  -9.8736  -7.4642  -6.2810  -4.9932  -4.0236  -3.6093  -3.5471
    -3.4083  -3.3001  -3.2792  -3.2427  -3.1428  -2.9620  -2.8254  -2.7923
    -2.6758  -2.5953  -2.5820  -2.5514  -2.4264  -2.3893  -2.3506  -2.2858
    -2.2561  -2.1937  -2.1751  -2.1636  -2.1445  -2.1204  -2.0958  -1.9948
    -1.9560  -1.8603  -1.8205  -1.7869  -1.7458  -1.7287  -1.7085  -1.6777
    -1.6675  -1.6134  -1.5997  -1.5856  -1.5367  -1.4190  -1.2980  -1.2644
    -1.1758  -1.0281  -0.9909  -0.9705  -0.9141  -0.8784  -0.8559  -0.8254
    -0.7648  -0.7259  -0.6671  -0.6091  -0.5410  -0.4966  -0.4492  -0.4128
    -0.3780  -0.2933  -0.2117  -0.1678  -0.1546  -0.1373  -0.0380  -0.0019
     0.0527   0.1293   0.1313   0.1435   0.1862   0.2685   0.3457   0.3635
     0.3866   0.4916   0.4963   0.5392   0.5418   0.5619   0.5961   0.6306
     0.6808   0.7079   0.7952   0.8918   1.1180   1.2193   1.2223   1.5456
     1.5566   1.6528   1.8358   2.2295   2.2780   3.7095   3.7799   3.8014
     3.8573   3.8603   3.9302   3.9467   4.1924   4.2179   4.2185   4.2375

[...]

          k = 0.0380-0.0419 0.0000 ( 17876 PWs)   bands (ev):

[...]

          k =-0.0760-0.0000 0.0000 ( 17886 PWs)   bands (ev):

[...]

          k =-0.0760-0.0839 0.0000 ( 17948 PWs)   bands (ev):

   -55.3684 -55.3594 -55.3198 -55.3194 -55.2537 -55.2489 -55.2445 -55.1953
   -55.1920 -55.1898 -55.1834 -55.1508 -55.1500 -55.0340 -54.3529 -54.3527
   -31.7544 -31.7454 -31.6863 -31.6621 -31.6451 -31.6449 -31.6269 -31.6107
   -31.6106 -31.5940 -31.5861 -31.5779 -31.5624 -31.5305 -31.5283 -31.5239
   -31.5234 -31.5222 -31.5108 -31.5066 -31.4773 -31.4650 -31.4611 -31.4513
   -31.4456 -31.4420 -31.4396 -31.4391 -31.4363 -31.4277 -31.4250 -31.4080
   -31.4069 -31.4045 -31.3850 -31.3832 -31.3831 -31.3734 -31.3313 -31.3304
   -31.2960 -31.2485 -30.6755 -30.6753 -30.5920 -30.5918 -30.5524 -30.5523
   -18.8906 -15.7663 -15.5974 -15.5783 -15.4341 -15.3978 -15.3550 -15.3439
   -15.2500 -15.2149 -15.1887 -15.1577 -15.1366 -15.1011 -15.0876 -15.0708
   -15.0136 -14.9912 -14.9856 -14.9657 -14.9066 -14.9023 -14.8946 -14.8917
   -14.8369 -14.8337 -14.8256 -14.7432 -14.7403 -14.6291 -14.2469 -12.8564
   -12.8564  -9.8434  -7.4241  -6.2778  -5.0901  -3.9686  -3.6337  -2.8548
    -2.8484  -2.8351  -2.6501  -2.5672  -2.5446  -2.5391  -2.4491  -2.4116
    -2.3665  -2.3639  -2.3108  -2.3044  -2.2772  -2.2365  -2.2251  -2.2051
    -2.1864  -2.1776  -2.1419  -2.1187  -2.1088  -2.0788  -2.0478  -2.0317
    -2.0241  -2.0025  -1.9717  -1.9523  -1.9401  -1.8868  -1.7751  -1.7598
    -1.6645  -1.5978  -1.5935  -1.5201  -1.4960  -1.4538  -1.4460  -1.4213
    -1.3762  -1.1973  -1.1657  -1.1348  -1.1270  -1.0414  -0.9890  -0.9174
    -0.9120  -0.8861  -0.8509  -0.7577  -0.7211  -0.7019  -0.6265  -0.6029
    -0.5362  -0.4943  -0.4289  -0.3982  -0.3441  -0.3422  -0.3072  -0.2935
    -0.2725  -0.2045  -0.1583  -0.1239  -0.1116  -0.0798   0.1176   0.1268
     0.1425   0.2513   0.2959   0.4431   0.4580   0.5209   0.6268   0.6529
     0.7230   0.7479   0.9043   0.9161   0.9311   0.9846   0.9927   1.0624
     1.0718   2.0089   2.0094   2.0978   2.0981   3.6779   3.8963   3.9676
     3.9828   4.0154   4.1403   4.2089   4.2271   4.2954   4.2981   4.3279

     the Fermi energy is     3.7754 ev

!    total energy              =   -2941.51052303 Ry
     estimated scf accuracy    <       0.00000005 Ry
     smearing contrib. (-TS)   =      -0.04440768 Ry
     internal energy E=F+TS    =   -2941.46611534 Ry

     The total energy is F=E-TS. E is the sum of the following terms:
     one-electron contribution =  -23633.79866258 Ry
     hartree contribution      =   11909.18885896 Ry
     xc contribution           =    -486.89365615 Ry
     ewald contribution        =    9270.03460199 Ry
     electric field correction =       0.00274242 Ry

     convergence has been achieved in  77 iterations

     Forces acting on atoms (cartesian axes, Ry/au):

     atom    1 type  1   force =     0.00013214   -0.00018926    0.09301284
     atom    2 type  1   force =    -0.00008554   -0.00045239   -0.17843894
     atom    3 type  2   force =     0.00004567   -0.00037084   -0.02006365
     atom    4 type  2   force =    -0.00000953   -0.00201752    0.05932705
     atom    5 type  2   force =    -0.01031539   -0.00098866    0.00818716
     atom    6 type  2   force =     0.01174565   -0.00038915    0.00732769
     atom    7 type  1   force =    -0.00038047    0.00239556   -0.01418674
     atom    8 type  1   force =     0.00023227   -0.00123790   -0.00619198
     atom    9 type  2   force =    -0.00023200    0.00021830    0.00014480
     atom   10 type  2   force =    -0.00162540    0.00148337    0.00164308
     atom   11 type  2   force =    -0.00005416   -0.00015967    0.00009801
     atom   12 type  2   force =    -0.00017337   -0.00015996   -0.00001018
     atom   13 type  1   force =     0.00007238   -0.00027740    0.00005183
     atom   14 type  1   force =     0.00017877    0.00019518    0.00028632
     atom   15 type  2   force =    -0.00006953    0.00023673   -0.00028858
     atom   16 type  2   force =     0.00017400   -0.00021819    0.00013533
     atom   17 type  2   force =    -0.00002196   -0.00001053    0.00042420
     atom   18 type  2   force =    -0.00023680   -0.00004367   -0.00016776
     atom   19 type  1   force =    -0.00009657   -0.00010135    0.00024159
     atom   20 type  1   force =    -0.00013438   -0.00003593    0.00014107
     atom   21 type  2   force =     0.00005945   -0.00008487    0.10398469
     atom   22 type  2   force =     0.00007709   -0.00016101   -0.00035782
     atom   23 type  2   force =    -0.07032087   -0.00017566   -0.02687396
     atom   24 type  2   force =     0.07020762    0.00027154   -0.02689985
     atom   25 type  1   force =    -0.00001566   -0.00014077    0.09257883
     atom   26 type  1   force =    -0.00006351   -0.00039479   -0.17859257
     atom   27 type  2   force =     0.00009532   -0.00030270   -0.01915229
     atom   28 type  2   force =     0.00003915   -0.00178741    0.05866906
     atom   29 type  2   force =    -0.01081181   -0.00126462    0.00873271
     atom   30 type  2   force =     0.01216406   -0.00086353    0.00783456
     atom   31 type  1   force =    -0.00028720    0.00613739   -0.01442168
     atom   32 type  1   force =     0.00029061    0.00070824   -0.00651286
     atom   33 type  2   force =    -0.00022599   -0.00025169    0.00000687
     atom   34 type  2   force =    -0.00093582   -0.00222954   -0.00015399
     atom   35 type  2   force =    -0.00040664    0.00023034    0.00014643
     atom   36 type  2   force =     0.00011598    0.00018998   -0.00027417
     atom   37 type  1   force =     0.00017692   -0.00000797    0.00004310
     atom   38 type  1   force =     0.00032563    0.00019272    0.00009843
     atom   39 type  2   force =    -0.00026250    0.00010049   -0.00023256
     atom   40 type  2   force =    -0.00009175   -0.00015624   -0.00007454
     atom   41 type  2   force =    -0.00006948    0.00031286   -0.00000303
     atom   42 type  2   force =    -0.00021411    0.00009603    0.00004421
     atom   43 type  1   force =     0.00044189    0.00000336    0.00022252
     atom   44 type  1   force =     0.00007241   -0.00011503   -0.00014706
     atom   45 type  2   force =     0.00004429   -0.00008849    0.10397064
     atom   46 type  2   force =    -0.07029985   -0.00010361   -0.02682960
     atom   47 type  2   force =     0.07017817    0.00031277   -0.02686572
     atom   48 type  3   force =     0.00102784   -0.00053521   -0.00001804
     atom   49 type  3   force =     0.00058919   -0.00003646   -0.00030357
     atom   50 type  4   force =    -0.00215398   -0.01213898   -0.00364069
     atom   51 type  5   force =     0.00208126    0.01190891    0.00295303
     atom   52 type  5   force =     0.00014866    0.00011698   -0.00006853
     atom   53 type  5   force =    -0.00041468    0.00156650    0.00020734
     atom   54 type  5   force =    -0.00013609    0.00114323    0.00031223
     atom   55 type  5   force =    -0.00057136   -0.00032945   -0.00005526

     Total force =     0.366876     Total SCF correction =     0.000681
  @ DRIVER MODE: Message from server: STATUS
  @ DRIVER MODE: Message from server: GETFORCE
  @ DRIVER MODE: Returning v,forces,stress,ensemble

     Writing output data file ./calc.save/
  @ DRIVER MODE: Message from server: EXIT
  @ DRIVE MODE: Exiting

     General routines

     Parallel routines

   This run was terminated on:   1:55:25  11Sep2021

   JOB DONE.