     Program PWSCF v.6.7GPU starts on 22Sep2021 at 19:56: 7

     R & G space division:  proc/nbgrp/npool/nimage =      10
     Reading input from /storage/home/hcoda1/3/ntian30/research/carbon/CxH_vib/H2O_calc/ads_slab/CH2NHHHO_a/out_0010/pw.inp
Warning: card &CELL ignored
Warning: card   CELL_DYNAMICS='IPI', ignored
Warning: card / ignored

     Current dimensions of program PWSCF are:
     Max number of different atomic species (ntypx) = 10
     Max number of k-points (npk) =  40000
     Max angular momentum in pseudopotentials (lmaxx) =  3
     Presently no symmetry can be used with electric field

     Message from routine cell_base_init:
     DEPRECATED: use true lattice parameter, not A to a.u. conversion factor

     IMPORTANT: XC functional enforced from input :
     Exchange-correlation= BEEF-VDW
                           (   1   4  43  14   2   0   0)
     Any further DFT definition will be discarded
     Please, verify this is what you really want

  @ DRIVER MODE: Connecting to
 qe_1139763_2937325.sched-torque.pace.gatech.eduxzay5sne_scratch
  using UNIX socket
  @ DRIVER MODE: Message from server: STATUS
  @ DRIVER MODE: Message from server: INIT
  @ DRIVER MODE: Receiving replica           0          -1
  @ DRIVER MODE: Receiving encoded integer          25
  @ DRIVER MODE:  SCF:  T  FORCE:  T  STRESS:  F  VC:  F  ENSEMBLE:  F
  @ DRIVER MODE:  SCF:  T  FORCE:  T  STRESS:  F  VC:  F  ENSEMBLE:  F

     Using Slab Decomposition

     bravais-lattice index     =            0
     lattice parameter (alat)  =       1.8897  a.u.
     unit-cell volume          =    6658.9804 (a.u.)^3
     number of atoms/cell      =           55
     number of atomic types    =            5
     number of electrons       =       398.00
     number of Kohn-Sham states=          209
     kinetic-energy cutoff     =      29.3995  Ry
     charge density cutoff     =     293.9946  Ry
     scf convergence threshold =      7.3E-08
     mixing beta               =       0.0500
     number of iterations used =            8  plain     mixing
     Exchange-correlation= BEEF-VDW
                           (   1   4  43  14   2   0   0)

     celldm(1)=   1.889726  celldm(2)=   0.000000  celldm(3)=   0.000000
     celldm(4)=   0.000000  celldm(5)=   0.000000  celldm(6)=   0.000000

     crystal axes: (cart. coord. in units of alat)
               a(1) = (   6.579727   0.000000   0.000000 )
               a(2) = (  -0.000775   5.961596   0.000000 )
               a(3) = (   0.000000   0.000000  25.155947 )

     reciprocal axes: (cart. coord. in units 2 pi/alat)
               b(1) = (  0.151982  0.000020  0.000000 )
               b(2) = (  0.000000  0.167740  0.000000 )
               b(3) = (  0.000000  0.000000  0.039752 )

     PseudoPot. # 1 for Ti read from file:
     /storage/coda1/p-amedford6/0/shared/rich_project_chbe-medford/medford-share/data/pseudos_module/espresso/nninc/pbe/van/Ti.UPF
     MD5 check sum: 8e4df49b7f0d34bbd5052bf3f5ea0213
     Pseudo is Ultrasoft, Zval = 12.0
     Generated by new atomic code, or converted to UPF format
     Using radial grid of  851 points,  6 beta functions with:
                l(1) =   0
                l(2) =   0
                l(3) =   1
                l(4) =   1
                l(5) =   2
                l(6) =   2
     Q(r) pseudized with  8 coefficients,  rinner =    1.000   1.000   1.000
                                                       1.000   1.000

     PseudoPot. # 2 for O  read from file:
     /storage/coda1/p-amedford6/0/shared/rich_project_chbe-medford/medford-share/data/pseudos_module/espresso/nninc/pbe/van/O.UPF
     MD5 check sum: 78c19812648e8988a0fe644b0f25305e
     Pseudo is Ultrasoft, Zval =  6.0
     Generated by new atomic code, or converted to UPF format
     Using radial grid of  737 points,  4 beta functions with:
                l(1) =   0
                l(2) =   0
                l(3) =   1
                l(4) =   1
     Q(r) pseudized with  8 coefficients,  rinner =    0.800   0.800   0.800

     PseudoPot. # 3 for N  read from file:
     /storage/coda1/p-amedford6/0/shared/rich_project_chbe-medford/medford-share/data/pseudos_module/espresso/nninc/pbe/van/N.UPF
     MD5 check sum: 90d10febe142ad51ac9d5be1deb811c4
     Pseudo is Ultrasoft, Zval =  5.0
     Generated by new atomic code, or converted to UPF format
     Using radial grid of  729 points,  4 beta functions with:
                l(1) =   0
                l(2) =   0
                l(3) =   1
                l(4) =   1
     Q(r) pseudized with  8 coefficients,  rinner =    0.800   0.800   0.800

     PseudoPot. # 4 for C  read from file:
     /storage/coda1/p-amedford6/0/shared/rich_project_chbe-medford/medford-share/data/pseudos_module/espresso/nninc/pbe/van/C.UPF
     MD5 check sum: 1a69bf6b8db32088f5b2163dbdb77a27
     Pseudo is Ultrasoft, Zval =  4.0
     Generated by new atomic code, or converted to UPF format
     Using radial grid of  721 points,  4 beta functions with:
                l(1) =   0
                l(2) =   0
                l(3) =   1
                l(4) =   1
     Q(r) pseudized with  8 coefficients,  rinner =    0.800   0.800   0.800

     PseudoPot. # 5 for H  read from file:
     /storage/coda1/p-amedford6/0/shared/rich_project_chbe-medford/medford-share/data/pseudos_module/espresso/nninc/pbe/van/H.UPF
     MD5 check sum: b5ee9d7bfd3a09ee7748110bda690ff7
     Pseudo is Ultrasoft, Zval =  1.0
     Generated by new atomic code, or converted to UPF format
     Using radial grid of  615 points,  1 beta functions with:
                l(1) =   0
     Q(r) pseudized with  8 coefficients,  rinner =    0.800

     atomic species   valence    mass     pseudopotential
        Ti1           12.00    47.86700     Ti( 1.00)
        O1             6.00    15.99900     O ( 1.00)
        N1             5.00    14.00700     N ( 1.00)
        C1             4.00    12.01100     C ( 1.00)
        H1             1.00     1.00800     H ( 1.00)

     No symmetry found

   Cartesian axes

     site n.     atom                  positions (alat units)
         1           Ti1 tau(   1) = (   0.0004258   2.9801865   6.0000000  )
         2           Ti1 tau(   2) = (   3.2906075   1.4906267   6.0002472  )
         3           O1  tau(   3) = (   0.0006271   0.0005054   7.9858123  )
         4           O1  tau(   4) = (   3.2906025   0.0005020   7.3038282  )
         5           O1  tau(   5) = (   4.5942328   1.4918067   9.2879030  )
         6           O1  tau(   6) = (   1.9868534   1.4903216   9.2879459  )
         7           Ti1 tau(   7) = (   3.2907910   2.8959150   9.1758416  )
         8           Ti1 tau(   8) = (   0.0015273   1.4827037   9.2680791  )
         9           O1  tau(   9) = (   3.3134935   5.9450930  11.3716456  )
        10           O1  tau(  10) = (   0.0116148   5.9584955  10.6183126  )
        11           O1  tau(  11) = (   1.3009377   1.4930576  12.6823270  )
        12           O1  tau(  12) = (   5.3410967   1.4903504  12.6863499  )
        13           Ti1 tau(  13) = (   0.0342001   2.9430440  12.5112676  )
        14           Ti1 tau(  14) = (   3.3297267   1.2953541  12.7310232  )
        15           O1  tau(  15) = (   0.0493764   5.9086628  14.6689690  )
        16           O1  tau(  16) = (   3.3288597   0.0714287  14.0177558  )
        17           O1  tau(  17) = (   4.6153468   1.5975901  16.1787110  )
        18           O1  tau(  18) = (   2.0592605   1.5839887  16.0909148  )
        19           Ti1 tau(  19) = (   3.3163104   3.0362344  15.7082748  )
        20           Ti1 tau(  20) = (   0.1120434   1.3330501  15.8434463  )
        21           O1  tau(  21) = (   3.2904802   0.0005063   4.7018136  )
        22           O1  tau(  22) = (   0.0690725   0.1374024  17.2087871  )
        23           O1  tau(  23) = (   1.3043587   1.4918075   6.0039043  )
        24           O1  tau(  24) = (   5.2767064   1.4903225   6.0039473  )
        25           Ti1 tau(  25) = (   0.0000382   5.9609847   6.0000000  )
        26           Ti1 tau(  26) = (   3.2902200   4.4714249   6.0002472  )
        27           O1  tau(  27) = (   0.0002396   2.9813036   7.9858123  )
        28           O1  tau(  28) = (   3.2902150   2.9813002   7.3038282  )
        29           O1  tau(  29) = (   4.5938453   4.4726049   9.2879030  )
        30           O1  tau(  30) = (   1.9864658   4.4711199   9.2879459  )
        31           Ti1 tau(  31) = (   3.2891106   5.8743827   9.1763621  )
        32           Ti1 tau(  32) = (   0.0006254   4.4649316   9.2693709  )
        33           O1  tau(  33) = (   3.3165203   3.0043058  11.3207354  )
        34           O1  tau(  34) = (   0.0092240   2.9805883  10.6323155  )
        35           O1  tau(  35) = (   1.3050136   4.4578615  12.6552238  )
        36           O1  tau(  36) = (   5.3353050   4.4620295  12.6594116  )
        37           Ti1 tau(  37) = (   0.0330755   5.9154870  12.5003292  )
        38           Ti1 tau(  38) = (   3.3291962   4.3779952  12.4454333  )
        39           O1  tau(  39) = (   0.0233967   3.0352723  14.9286183  )
        40           O1  tau(  40) = (   3.3272303   3.0068708  13.9347379  )
        41           O1  tau(  41) = (   4.5962338   4.4808180  16.1645836  )
        42           O1  tau(  42) = (   2.0526765   4.4464907  16.1857218  )
        43           Ti1 tau(  43) = (   3.4309460   0.0633718  16.3216252  )
        44           Ti1 tau(  44) = (   0.1034465   4.5521166  15.9739525  )
        45           O1  tau(  45) = (   3.2900926   2.9813045   4.7018136  )
        46           O1  tau(  46) = (   1.3039711   4.4726057   6.0039043  )
        47           O1  tau(  47) = (   5.2763189   4.4711207   6.0039473  )
        48           N1  tau(  48) = (   6.1597698   3.4535781  18.2989460  )
        49           C1  tau(  49) = (   0.6557129   3.1570513  19.0816575  )
        50           H1  tau(  50) = (   1.2037892   3.9510289  19.5415217  )
        51           H1  tau(  51) = (   1.0557295   2.1499681  19.0337936  )
        52           H1  tau(  52) = (   5.6880836   4.3337965  18.4846543  )
        53           H1  tau(  53) = (   5.5056413   2.7003945  18.1017309  )
        54           O1  tau(  54) = (   3.2744276   0.0793712  18.1757868  )
        55           H1  tau(  55) = (   2.3604784   5.9194474  18.4805682  )

     number of k points=    10  Fermi-Dirac smearing, width (Ry)=  0.0073
                       cart. coord. in units 2pi/alat
        k(    1) = (   0.0000000   0.0000000   0.0000000), wk =   0.1250000
        k(    2) = (   0.0000000   0.0419351   0.0000000), wk =   0.2500000
        k(    3) = (   0.0000000  -0.0838702   0.0000000), wk =   0.1250000
        k(    4) = (   0.0379955   0.0000049   0.0000000), wk =   0.2500000
        k(    5) = (   0.0379955   0.0419400   0.0000000), wk =   0.2500000
        k(    6) = (   0.0379955  -0.0838652   0.0000000), wk =   0.2500000
        k(    7) = (   0.0379955  -0.0419301   0.0000000), wk =   0.2500000
        k(    8) = (  -0.0759910  -0.0000099   0.0000000), wk =   0.1250000
        k(    9) = (  -0.0759910   0.0419252   0.0000000), wk =   0.2500000
        k(   10) = (  -0.0759910  -0.0838800   0.0000000), wk =   0.1250000

     Initial potential from superposition of free atoms

     starting charge  381.99915, renormalised to  398.00000

     negative rho (up, down):  1.645E-02 0.000E+00

     %%%%%%%%%%%%%%%%%%%%%%%%%%%%%%%%%%%%%%%%%%%%%%%%%%%%%%%%%%%%%%%%%%%%%%%%
     %                                                                      %
     % You are using vdW-DF, which was implemented by the Thonhauser group. %
     % Please cite the following two papers that made this development      %
     % possible and the two reviews that describe the various versions:     %
     %                                                                      %
     %   T. Thonhauser et al., PRL 115, 136402 (2015).                      %
     %   T. Thonhauser et al., PRB 76, 125112 (2007).                       %
     %   K. Berland et al., Rep. Prog. Phys. 78, 066501 (2015).             %
     %   D.C. Langreth et al., J. Phys.: Condens. Matter 21, 084203 (2009). %
     %                                                                      %
     %                                                                      %
     % If you are calculating the stress with vdW-DF, please also cite:     %
     %                                                                      %
     %   R. Sabatini et al., J. Phys.: Condens. Matter 24, 424209 (2012).   %
     %                                                                      %
     %%%%%%%%%%%%%%%%%%%%%%%%%%%%%%%%%%%%%%%%%%%%%%%%%%%%%%%%%%%%%%%%%%%%%%%%

     Adding external electric field

     Computed dipole along edir(3) :
        Dipole              -10.2322 Ry au,        -26.0075 Debye
        Dipole field         -0.0193 Ry au,

        Potential amp.        1.7900 Ry
        Total length         46.3494 bohr

     Starting wfcs are  301 atomic wfcs
  @ DRIVER MODE: Message from server: STATUS
  @ DRIVER MODE: Message from server: POSDATA
  @ DRIVER MODE: Reading and sharing cell
  @ DRIVER MODE: Reading and sharing positions
  @ DRIVER MODE: Received positions

     Self-consistent Calculation

     iteration #  1     ecut=    29.40 Ry     beta= 0.05
     Davidson diagonalization with overlap
     c_bands:  1 eigenvalues not converged
     c_bands:  3 eigenvalues not converged
     c_bands:  1 eigenvalues not converged
     c_bands:  1 eigenvalues not converged
     c_bands:  4 eigenvalues not converged
     c_bands:  4 eigenvalues not converged
     c_bands:  4 eigenvalues not converged
     c_bands:  2 eigenvalues not converged
     c_bands:  3 eigenvalues not converged
     c_bands:  4 eigenvalues not converged
     ethr =  1.00E-05,  avg # of iterations = 20.0

[...]

     total energy              =   -2477.33305202 Ry
     estimated scf accuracy    <    5313.88786530 Ry

     iteration #  2     ecut=    29.40 Ry     beta= 0.05
     Davidson diagonalization with overlap
     ethr =  1.00E-02,  avg # of iterations = 23.7

[...]

     iteration # 82     ecut=    29.40 Ry     beta= 0.05
     Davidson diagonalization with overlap
     c_bands:  1 eigenvalues not converged
     ethr =  6.61E-10,  avg # of iterations = 12.6

[...]

     total energy              =   -2953.88647343 Ry
     estimated scf accuracy    <       0.00000020 Ry

     iteration # 88     ecut=    29.40 Ry     beta= 0.05
     Davidson diagonalization with overlap
     ethr =  4.93E-11,  avg # of iterations =  6.6

     negative rho (up, down):  1.574E-02 0.000E+00

     Adding external electric field

     Computed dipole along edir(3) :
        Dipole                0.8597 Ry au,          2.1851 Debye
        Dipole field          0.0016 Ry au,

        Potential amp.       -0.1504 Ry
        Total length         46.3494 bohr

     End of self-consistent calculation

          k = 0.0000 0.0000 0.0000 ( 18029 PWs)   bands (ev):

   -55.7632 -55.7100 -55.6759 -55.5792 -55.5403 -55.5391 -55.5252 -55.5052
   -55.4966 -55.4470 -55.4456 -55.3344 -55.3060 -55.2615 -54.6882 -54.6542
   -32.1958 -32.0819 -32.0643 -32.0587 -32.0426 -32.0296 -32.0004 -31.9795
   -31.9787 -31.9558 -31.9417 -31.8628 -31.8481 -31.8478 -31.8255 -31.8189
   -31.8177 -31.7885 -31.7677 -31.7426 -31.7405 -31.7332 -31.7237 -31.7201
   -31.7188 -31.7120 -31.6832 -31.6746 -31.6661 -31.6648 -31.6587 -31.6525
   -31.6417 -31.6342 -31.6120 -31.6017 -31.5288 -31.5264 -31.5071 -31.4740
   -31.4661 -31.4588 -31.0944 -31.0076 -30.9852 -30.9119 -30.8255 -30.7137
   -16.9022 -16.6117 -16.3754 -16.2102 -15.9874 -15.9353 -15.8743 -15.7017
   -15.5866 -15.5311 -15.3481 -15.2796 -15.2500 -15.2375 -15.2340 -15.2156
   -15.2029 -15.1594 -15.1419 -15.1397 -15.1340 -15.0998 -15.0723 -15.0312
   -14.9853 -14.9486 -14.8518 -14.7969 -14.7573 -14.5132 -14.4813 -13.1866
   -13.0701  -9.8047  -7.0744  -5.3612  -4.1406  -3.7384  -3.6249  -3.6137
    -3.5546  -3.4979  -3.3213  -3.2199  -3.1391  -3.1224  -2.9703  -2.8567
    -2.8117  -2.7464  -2.7165  -2.6719  -2.6340  -2.6238  -2.5910  -2.4987
    -2.4777  -2.4634  -2.4027  -2.3761  -2.3143  -2.2878  -2.2537  -2.2414
    -2.1343  -2.0829  -2.0484  -2.0397  -2.0234  -1.9960  -1.9686  -1.9616
    -1.9343  -1.8505  -1.7968  -1.7418  -1.7149  -1.6994  -1.3960  -1.3230
    -1.2883  -1.2523  -1.1616  -1.1440  -1.1085  -1.0906  -1.0755  -1.0684
    -0.9536  -0.8853  -0.8260  -0.7958  -0.7525  -0.7211  -0.6071  -0.5556
    -0.5047  -0.4642  -0.4511  -0.4263  -0.3401  -0.3129  -0.2969  -0.1960
    -0.1527  -0.0881  -0.0182  -0.0042   0.0445   0.0744   0.1123   0.1499
     0.2083   0.2408   0.2585   0.3022   0.3412   0.3521   0.4102   0.4266
     0.5223   0.6065   0.6253   0.6945   0.7844   0.8303   0.9508   1.0129
     1.2845   1.3386   1.3512   1.5301   1.9060   1.9515   3.3673   3.4044
     3.5205   3.5338   3.6089   3.6203   3.7049   3.8608   3.9091   4.0201
     4.0579

[...]

          k = 0.0380-0.0419 0.0000 ( 17876 PWs)   bands (ev):

[...]

          k =-0.0760-0.0000 0.0000 ( 17886 PWs)   bands (ev):

[...]

          k =-0.0760-0.0839 0.0000 ( 17948 PWs)   bands (ev):

   -55.7623 -55.6931 -55.6927 -55.5684 -55.5507 -55.5258 -55.5226 -55.5214
   -55.4904 -55.4520 -55.4445 -55.3306 -55.3084 -55.2652 -54.6716 -54.6707
   -32.0270 -32.0112 -32.0112 -32.0108 -31.9862 -31.9856 -31.9828 -31.9714
   -31.9122 -31.8862 -31.8686 -31.8554 -31.8507 -31.8305 -31.8163 -31.8133
   -31.8126 -31.8097 -31.8058 -31.8009 -31.7758 -31.7497 -31.7409 -31.7337
   -31.7266 -31.7240 -31.7101 -31.7075 -31.7062 -31.6978 -31.6970 -31.6782
   -31.6750 -31.6705 -31.6409 -31.6100 -31.5913 -31.5553 -31.5327 -31.5286
   -31.5148 -31.4697 -30.9982 -30.9976 -30.9078 -30.9066 -30.8691 -30.8684
   -16.8853 -16.6002 -16.0489 -15.7991 -15.7062 -15.6959 -15.5639 -15.4971
   -15.4855 -15.4439 -15.4251 -15.4035 -15.3969 -15.3720 -15.3320 -15.2772
   -15.2478 -15.2210 -15.2148 -15.1751 -15.1678 -15.1493 -15.1466 -15.1249
   -15.0753 -15.0340 -15.0205 -15.0065 -14.8208 -14.7696 -14.6368 -13.1721
   -13.1716  -9.8055  -7.0661  -5.3456  -4.1253  -3.3495  -3.1728  -3.0093
    -2.9381  -2.8890  -2.7891  -2.7477  -2.7350  -2.6867  -2.6646  -2.6409
    -2.5605  -2.5470  -2.5174  -2.5053  -2.4762  -2.4614  -2.4548  -2.4453
    -2.4009  -2.3922  -2.3829  -2.3503  -2.3425  -2.3324  -2.2929  -2.2724
    -2.2620  -2.2518  -2.2032  -2.1811  -2.1025  -2.0619  -1.9642  -1.8808
    -1.8700  -1.8466  -1.7992  -1.7873  -1.7451  -1.7297  -1.6864  -1.6127
    -1.5279  -1.4603  -1.3478  -1.3052  -1.2939  -1.2349  -1.2168  -1.1606
    -1.1277  -1.0979  -1.0676  -0.9670  -0.9340  -0.8775  -0.7609  -0.6967
    -0.6842  -0.6612  -0.6508  -0.6152  -0.5949  -0.5796  -0.5488  -0.4669
    -0.4290  -0.4143  -0.4044  -0.3683  -0.2427  -0.1212  -0.0770  -0.0174
     0.0496   0.0654   0.1189   0.1586   0.3135   0.3476   0.4454   0.4604
     0.4811   0.5947   0.6019   0.6816   0.7233   0.7691   0.7977   0.8299
     0.8348   0.8747   1.6998   1.7083   1.7719   1.7720   3.3767   3.7488
     3.8505   3.8673   3.8850   3.9256   3.9398   3.9689   3.9743   4.0385
     4.0540

     the Fermi energy is     3.4094 ev

!    total energy              =   -2953.88647688 Ry
     estimated scf accuracy    <       0.00000006 Ry
     smearing contrib. (-TS)   =      -0.02909746 Ry
     internal energy E=F+TS    =   -2953.85737942 Ry

     The total energy is F=E-TS. E is the sum of the following terms:
     one-electron contribution =  -23669.89006629 Ry
     hartree contribution      =   11925.93436079 Ry
     xc contribution           =    -488.85393811 Ry
     ewald contribution        =    9278.95086947 Ry
     electric field correction =       0.00139473 Ry

     convergence has been achieved in  88 iterations

     Forces acting on atoms (cartesian axes, Ry/au):

     atom    1 type  1   force =    -0.00001515   -0.00028478    0.09375317
     atom    2 type  1   force =    -0.00010158    0.00049238   -0.17555669
     atom    3 type  2   force =     0.00011132   -0.00024248   -0.02088485
     atom    4 type  2   force =     0.00001360   -0.00197466    0.05498399
     atom    5 type  2   force =    -0.00644132   -0.00244220    0.00277363
     atom    6 type  2   force =     0.00860069   -0.00177223    0.00361203
     atom    7 type  1   force =     0.00058625   -0.00336463    0.00967303
     atom    8 type  1   force =    -0.00066934    0.00048468    0.00109797
     atom    9 type  2   force =    -0.00001289    0.00060899   -0.00097314
     atom   10 type  2   force =    -0.00025015    0.00115630   -0.00780700
     atom   11 type  2   force =    -0.00010658   -0.00001484    0.00018381
     atom   12 type  2   force =    -0.00043128   -0.00017605    0.00004536
     atom   13 type  1   force =    -0.00027626    0.00000897   -0.00045878
     atom   14 type  1   force =    -0.00062402    0.00041713    0.00040826
     atom   15 type  2   force =    -0.00007582    0.00104491   -0.00001293
     atom   16 type  2   force =    -0.00006864    0.00007129   -0.00018365
     atom   17 type  2   force =    -0.00032936    0.00061928   -0.00026174
     atom   18 type  2   force =     0.00013130    0.00068556   -0.00020953
     atom   19 type  1   force =    -0.00000139   -0.00012722    0.00055950
     atom   20 type  1   force =    -0.00008719   -0.00045544   -0.00001412
     atom   21 type  2   force =     0.00001731    0.00008847    0.10331593
     atom   22 type  2   force =    -0.00007076    0.00020134   -0.00004639
     atom   23 type  2   force =    -0.07186186   -0.00016954   -0.02713215
     atom   24 type  2   force =     0.07172566    0.00030295   -0.02721152
     atom   25 type  1   force =     0.00009454   -0.00020507    0.09354938
     atom   26 type  1   force =    -0.00024794   -0.00138339   -0.17568791
     atom   27 type  2   force =     0.00015192   -0.00016299   -0.01964090
     atom   28 type  2   force =     0.00011182   -0.00028796    0.05022344
     atom   29 type  2   force =    -0.00550413    0.00258854    0.00166812
     atom   30 type  2   force =     0.00765084    0.00268237    0.00256034
     atom   31 type  1   force =     0.00070399    0.00798076   -0.00207902
     atom   32 type  1   force =    -0.00070967   -0.00206567    0.00019571
     atom   33 type  2   force =    -0.00016888   -0.00074621   -0.00012060
     atom   34 type  2   force =     0.00011607   -0.00173427   -0.00872735
     atom   35 type  2   force =    -0.00003393   -0.00012274   -0.00057035
     atom   36 type  2   force =    -0.00019930   -0.00019802   -0.00037828
     atom   37 type  1   force =     0.00045320    0.00066573   -0.00073470
     atom   38 type  1   force =    -0.00062027   -0.00052883    0.00020579
     atom   39 type  2   force =    -0.00001552    0.00010800    0.00025044
     atom   40 type  2   force =     0.00011846    0.00001498    0.00064612
     atom   41 type  2   force =    -0.00058695   -0.00024934    0.00008262
     atom   42 type  2   force =     0.00065574    0.00010597   -0.00067451
     atom   43 type  1   force =    -0.00029796    0.00040188   -0.00039057
     atom   44 type  1   force =    -0.00003338   -0.00109104    0.00005601
     atom   45 type  2   force =     0.00001668   -0.00005376    0.10310929
     atom   46 type  2   force =    -0.07187435   -0.00002328   -0.02714580
     atom   47 type  2   force =     0.07177780    0.00039768   -0.02723335
     atom   48 type  3   force =    -0.00153261    0.00481327   -0.00062476
     atom   49 type  4   force =     0.00260616   -0.02453817   -0.00329700
     atom   50 type  5   force =     0.00352949    0.00890964    0.00376805
     atom   51 type  5   force =    -0.00359729    0.01087722    0.00186999
     atom   52 type  5   force =    -0.00092246    0.00074547   -0.00163380
     atom   53 type  5   force =     0.00008953   -0.00166637    0.00062325
     atom   54 type  2   force =    -0.00131663   -0.00064765   -0.00039324
     atom   55 type  5   force =    -0.00017752    0.00025507    0.00086943

     Total force =     0.363287     Total SCF correction =     0.000423
  @ DRIVER MODE: Message from server: STATUS
  @ DRIVER MODE: Message from server: GETFORCE
  @ DRIVER MODE: Returning v,forces,stress,ensemble

     Writing output data file ./calc.save/
  @ DRIVER MODE: Message from server: EXIT
  @ DRIVE MODE: Exiting

     General routines

     Parallel routines

   This run was terminated on:  20:18:22  22Sep2021

   JOB DONE.