     Program PWSCF v.6.7GPU starts on 25Sep2021 at 16:52: 9

     R & G space division:  proc/nbgrp/npool/nimage =       8
     Reading input from /storage/home/hcoda1/3/ntian30/research/carbon/CxH_vib/H2O_calc/ads_slab/CH3N2OHHO_l/out_0005/pw.inp
Warning: card &CELL ignored
Warning: card   CELL_DYNAMICS='IPI', ignored
Warning: card / ignored

     Current dimensions of program PWSCF are:
     Max number of different atomic species (ntypx) = 10
     Max number of k-points (npk) =  40000
     Max angular momentum in pseudopotentials (lmaxx) =  3
     Presently no symmetry can be used with electric field

     Message from routine cell_base_init:
     DEPRECATED: use true lattice parameter, not A to a.u. conversion factor

     IMPORTANT: XC functional enforced from input :
     Exchange-correlation= BEEF-VDW
                           (   1   4  43  14   2   0   0)
     Any further DFT definition will be discarded
     Please, verify this is what you really want

  @ DRIVER MODE: Connecting to
 qe_1139763_2971669.sched-torque.pace.gatech.edunutvvdf2_scratch
  using UNIX socket
  @ DRIVER MODE: Message from server: STATUS
  @ DRIVER MODE: Message from server: INIT
  @ DRIVER MODE: Receiving replica           0          -1
  @ DRIVER MODE: Receiving encoded integer          25
  @ DRIVER MODE:  SCF:  T  FORCE:  T  STRESS:  F  VC:  F  ENSEMBLE:  F
  @ DRIVER MODE:  SCF:  T  FORCE:  T  STRESS:  F  VC:  F  ENSEMBLE:  F

     Using Slab Decomposition

     bravais-lattice index     =            0
     lattice parameter (alat)  =       1.8897  a.u.
     unit-cell volume          =    6658.9804 (a.u.)^3
     number of atoms/cell      =           57
     number of atomic types    =            5
     number of electrons       =       409.00
     number of Kohn-Sham states=          214
     kinetic-energy cutoff     =      29.3995  Ry
     charge density cutoff     =     293.9946  Ry
     scf convergence threshold =      7.3E-08
     mixing beta               =       0.0500
     number of iterations used =            8  plain     mixing
     Exchange-correlation= BEEF-VDW
                           (   1   4  43  14   2   0   0)

     celldm(1)=   1.889726  celldm(2)=   0.000000  celldm(3)=   0.000000
     celldm(4)=   0.000000  celldm(5)=   0.000000  celldm(6)=   0.000000

     crystal axes: (cart. coord. in units of alat)
               a(1) = (   6.579727   0.000000   0.000000 )
               a(2) = (  -0.000775   5.961596   0.000000 )
               a(3) = (   0.000000   0.000000  25.155947 )

     reciprocal axes: (cart. coord. in units 2 pi/alat)
               b(1) = (  0.151982  0.000020  0.000000 )
               b(2) = (  0.000000  0.167740  0.000000 )
               b(3) = (  0.000000  0.000000  0.039752 )

     PseudoPot. # 1 for Ti read from file:
     /storage/coda1/p-amedford6/0/shared/rich_project_chbe-medford/medford-share/data/pseudos_module/espresso/nninc/pbe/van/Ti.UPF
     MD5 check sum: 8e4df49b7f0d34bbd5052bf3f5ea0213
     Pseudo is Ultrasoft, Zval = 12.0
     Generated by new atomic code, or converted to UPF format
     Using radial grid of  851 points,  6 beta functions with:
                l(1) =   0
                l(2) =   0
                l(3) =   1
                l(4) =   1
                l(5) =   2
                l(6) =   2
     Q(r) pseudized with  8 coefficients,  rinner =    1.000   1.000   1.000
                                                       1.000   1.000

     PseudoPot. # 2 for O  read from file:
     /storage/coda1/p-amedford6/0/shared/rich_project_chbe-medford/medford-share/data/pseudos_module/espresso/nninc/pbe/van/O.UPF
     MD5 check sum: 78c19812648e8988a0fe644b0f25305e
     Pseudo is Ultrasoft, Zval =  6.0
     Generated by new atomic code, or converted to UPF format
     Using radial grid of  737 points,  4 beta functions with:
                l(1) =   0
                l(2) =   0
                l(3) =   1
                l(4) =   1
     Q(r) pseudized with  8 coefficients,  rinner =    0.800   0.800   0.800

     PseudoPot. # 3 for N  read from file:
     /storage/coda1/p-amedford6/0/shared/rich_project_chbe-medford/medford-share/data/pseudos_module/espresso/nninc/pbe/van/N.UPF
     MD5 check sum: 90d10febe142ad51ac9d5be1deb811c4
     Pseudo is Ultrasoft, Zval =  5.0
     Generated by new atomic code, or converted to UPF format
     Using radial grid of  729 points,  4 beta functions with:
                l(1) =   0
                l(2) =   0
                l(3) =   1
                l(4) =   1
     Q(r) pseudized with  8 coefficients,  rinner =    0.800   0.800   0.800

     PseudoPot. # 4 for C  read from file:
     /storage/coda1/p-amedford6/0/shared/rich_project_chbe-medford/medford-share/data/pseudos_module/espresso/nninc/pbe/van/C.UPF
     MD5 check sum: 1a69bf6b8db32088f5b2163dbdb77a27
     Pseudo is Ultrasoft, Zval =  4.0
     Generated by new atomic code, or converted to UPF format
     Using radial grid of  721 points,  4 beta functions with:
                l(1) =   0
                l(2) =   0
                l(3) =   1
                l(4) =   1
     Q(r) pseudized with  8 coefficients,  rinner =    0.800   0.800   0.800

     PseudoPot. # 5 for H  read from file:
     /storage/coda1/p-amedford6/0/shared/rich_project_chbe-medford/medford-share/data/pseudos_module/espresso/nninc/pbe/van/H.UPF
     MD5 check sum: b5ee9d7bfd3a09ee7748110bda690ff7
     Pseudo is Ultrasoft, Zval =  1.0
     Generated by new atomic code, or converted to UPF format
     Using radial grid of  615 points,  1 beta functions with:
                l(1) =   0
     Q(r) pseudized with  8 coefficients,  rinner =    0.800

     atomic species   valence    mass     pseudopotential
        Ti1           12.00    47.86700     Ti( 1.00)
        O1             6.00    15.99900     O ( 1.00)
        N1             5.00    14.00700     N ( 1.00)
        C1             4.00    12.01100     C ( 1.00)
        H1             1.00     1.00800     H ( 1.00)

     No symmetry found

   Cartesian axes

     site n.     atom                  positions (alat units)
         1           Ti1 tau(   1) = (   0.0004258   2.9801865   6.0000000  )
         2           Ti1 tau(   2) = (   3.2906075   1.4906267   6.0002472  )
         3           O1  tau(   3) = (   0.0006271   0.0005054   7.9858123  )
         4           O1  tau(   4) = (   3.2906025   0.0005020   7.3038282  )
         5           O1  tau(   5) = (   4.5942328   1.4918067   9.2879030  )
         6           O1  tau(   6) = (   1.9868534   1.4903216   9.2879459  )
         7           Ti1 tau(   7) = (   3.2907910   2.8959150   9.1758416  )
         8           Ti1 tau(   8) = (   0.0015273   1.4827037   9.2680791  )
         9           O1  tau(   9) = (   3.2779673   5.9607700  11.3423085  )
        10           O1  tau(  10) = (   0.0116148   5.9584955  10.6183126  )
        11           O1  tau(  11) = (   1.2787083   1.4818767  12.6451794  )
        12           O1  tau(  12) = (   5.2707140   1.4872516  12.6060838  )
        13           Ti1 tau(  13) = (   0.0520196   2.9452147  12.6012095  )
        14           Ti1 tau(  14) = (   3.3669591   1.4706787  12.5087448  )
        15           O1  tau(  15) = (   6.5166736   5.9505275  14.6414754  )
        16           O1  tau(  16) = (   3.3002175   0.0041348  13.9548274  )
        17           O1  tau(  17) = (   4.5235890   1.5203341  16.0633414  )
        18           O1  tau(  18) = (   1.9992342   1.5602939  15.9747780  )
        19           Ti1 tau(  19) = (   3.2541499   3.0080313  15.6961896  )
        20           Ti1 tau(  20) = (   6.5591015   1.5323982  15.7823192  )
        21           O1  tau(  21) = (   3.2904802   0.0005063   4.7018136  )
        22           O1  tau(  22) = (   0.0960927   0.0099221  17.2178370  )
        23           O1  tau(  23) = (   1.3043587   1.4918075   6.0039043  )
        24           O1  tau(  24) = (   5.2767064   1.4903225   6.0039473  )
        25           Ti1 tau(  25) = (   0.0000382   5.9609847   6.0000000  )
        26           Ti1 tau(  26) = (   3.2902200   4.4714249   6.0002472  )
        27           O1  tau(  27) = (   0.0002396   2.9813036   7.9858123  )
        28           O1  tau(  28) = (   3.2902150   2.9813002   7.3038282  )
        29           O1  tau(  29) = (   4.5938453   4.4726049   9.2879030  )
        30           O1  tau(  30) = (   1.9864658   4.4711199   9.2879459  )
        31           Ti1 tau(  31) = (   3.2891106   5.8743827   9.1763621  )
        32           Ti1 tau(  32) = (   0.0006254   4.4649316   9.2693709  )
        33           O1  tau(  33) = (   3.2807211   2.9768430  11.3440791  )
        34           O1  tau(  34) = (   0.0092240   2.9805883  10.6323155  )
        35           O1  tau(  35) = (   1.2789702   4.4681595  12.6395138  )
        36           O1  tau(  36) = (   5.2737968   4.4775610  12.6008310  )
        37           Ti1 tau(  37) = (   0.0460201   5.9176504  12.5434570  )
        38           Ti1 tau(  38) = (   3.3658678   4.4646095  12.4976877  )
        39           O1  tau(  39) = (   6.5297297   2.9761478  14.6509524  )
        40           O1  tau(  40) = (   3.3085871   2.9961499  13.9017917  )
        41           O1  tau(  41) = (   4.5138497   4.4896837  16.1272785  )
        42           O1  tau(  42) = (   1.9961282   4.4344792  16.0060688  )
        43           Ti1 tau(  43) = (   3.3116018   0.0224549  15.7990204  )
        44           Ti1 tau(  44) = (   6.5775847   4.6577750  16.0638065  )
        45           O1  tau(  45) = (   3.2900926   2.9813045   4.7018136  )
        46           O1  tau(  46) = (   1.3039711   4.4726057   6.0039043  )
        47           O1  tau(  47) = (   5.2763189   4.4711207   6.0039473  )
        48           N1  tau(  48) = (   6.5065777   2.6139801  18.6203060  )
        49           N1  tau(  49) = (   6.5364102   2.8728423  17.4370429  )
        50           C1  tau(  50) = (   6.4341180   3.7235584  19.6105657  )
        51           H1  tau(  51) = (   6.3066687   4.7022679  19.1488110  )
        52           H1  tau(  52) = (   5.6164842   3.4805663  20.2913871  )
        53           H1  tau(  53) = (   0.7823074   3.6964598  20.1845303  )
        54           O1  tau(  54) = (   3.0314481   5.0835218  18.9911038  )
        55           H1  tau(  55) = (   1.7414717   0.2044793  18.0242669  )
        56           O1  tau(  56) = (   2.7372941   0.2572207  18.0778760  )
        57           H1  tau(  57) = (   3.9343361   5.3466317  19.2487757  )

     number of k points=    10  Fermi-Dirac smearing, width (Ry)=  0.0073
                       cart. coord. in units 2pi/alat
        k(    1) = (   0.0000000   0.0000000   0.0000000), wk =   0.1250000
        k(    2) = (   0.0000000   0.0419351   0.0000000), wk =   0.2500000
        k(    3) = (   0.0000000  -0.0838702   0.0000000), wk =   0.1250000
        k(    4) = (   0.0379955   0.0000049   0.0000000), wk =   0.2500000
        k(    5) = (   0.0379955   0.0419400   0.0000000), wk =   0.2500000
        k(    6) = (   0.0379955  -0.0838652   0.0000000), wk =   0.2500000
        k(    7) = (   0.0379955  -0.0419301   0.0000000), wk =   0.2500000
        k(    8) = (  -0.0759910  -0.0000099   0.0000000), wk =   0.1250000
        k(    9) = (  -0.0759910   0.0419252   0.0000000), wk =   0.2500000
        k(   10) = (  -0.0759910  -0.0838800   0.0000000), wk =   0.1250000

     Initial potential from superposition of free atoms

     starting charge  392.99914, renormalised to  409.00000

     negative rho (up, down):  1.422E-02 0.000E+00

     %%%%%%%%%%%%%%%%%%%%%%%%%%%%%%%%%%%%%%%%%%%%%%%%%%%%%%%%%%%%%%%%%%%%%%%%
     %                                                                      %
     % You are using vdW-DF, which was implemented by the Thonhauser group. %
     % Please cite the following two papers that made this development      %
     % possible and the two reviews that describe the various versions:     %
     %                                                                      %
     %   T. Thonhauser et al., PRL 115, 136402 (2015).                      %
     %   T. Thonhauser et al., PRB 76, 125112 (2007).                       %
     %   K. Berland et al., Rep. Prog. Phys. 78, 066501 (2015).             %
     %   D.C. Langreth et al., J. Phys.: Condens. Matter 21, 084203 (2009). %
     %                                                                      %
     %                                                                      %
     % If you are calculating the stress with vdW-DF, please also cite:     %
     %                                                                      %
     %   R. Sabatini et al., J. Phys.: Condens. Matter 24, 424209 (2012).   %
     %                                                                      %
     %%%%%%%%%%%%%%%%%%%%%%%%%%%%%%%%%%%%%%%%%%%%%%%%%%%%%%%%%%%%%%%%%%%%%%%%

     Adding external electric field

     Computed dipole along edir(3) :
        Dipole              -16.7466 Ry au,        -42.5657 Debye
        Dipole field         -0.0316 Ry au,

        Potential amp.        2.9296 Ry
        Total length         46.3494 bohr

     Starting wfcs are  309 atomic wfcs
  @ DRIVER MODE: Message from server: STATUS
  @ DRIVER MODE: Message from server: POSDATA
  @ DRIVER MODE: Reading and sharing cell
  @ DRIVER MODE: Reading and sharing positions
  @ DRIVER MODE: Received positions

     Self-consistent Calculation

     iteration #  1     ecut=    29.40 Ry     beta= 0.05
     Davidson diagonalization with overlap
     c_bands:  5 eigenvalues not converged
     c_bands:  5 eigenvalues not converged
     c_bands:  3 eigenvalues not converged
     c_bands:  1 eigenvalues not converged
     c_bands:  4 eigenvalues not converged
     c_bands:  2 eigenvalues not converged
     c_bands:  5 eigenvalues not converged
     ethr =  1.00E-05,  avg # of iterations = 26.6

[...]

     total energy              =   -2110.42760135 Ry
     estimated scf accuracy    <   10326.25967234 Ry

     iteration #  2     ecut=    29.40 Ry     beta= 0.05
     Davidson diagonalization with overlap
     ethr =  1.00E-02,  avg # of iterations = 32.0

[...]

     iteration # 73     ecut=    29.40 Ry     beta= 0.05
     Davidson diagonalization with overlap
     c_bands:  1 eigenvalues not converged
     ethr =  5.78E-11,  avg # of iterations = 13.5

[...]

     total energy              =   -3006.13699223 Ry
     estimated scf accuracy    <       0.00000010 Ry

     iteration # 74     ecut=    29.40 Ry     beta= 0.05
     Davidson diagonalization with overlap
     ethr =  2.34E-11,  avg # of iterations =  8.8

     negative rho (up, down):  1.468E-02 0.000E+00

     Adding external electric field

     Computed dipole along edir(3) :
        Dipole                0.8121 Ry au,          2.0642 Debye
        Dipole field          0.0015 Ry au,

        Potential amp.       -0.1421 Ry
        Total length         46.3494 bohr

     End of self-consistent calculation

          k = 0.0000 0.0000 0.0000 ( 18029 PWs)   bands (ev):

   -55.6007 -55.5667 -55.5588 -55.5325 -55.5226 -55.4370 -55.4152 -55.3999
   -55.3813 -55.3791 -55.3647 -55.3453 -54.9835 -54.9174 -54.5817 -54.5477
   -32.0997 -32.0839 -31.9474 -31.9368 -31.9137 -31.8934 -31.8689 -31.8568
   -31.8447 -31.7906 -31.7773 -31.7623 -31.7530 -31.7368 -31.7273 -31.7149
   -31.7057 -31.6971 -31.6858 -31.6587 -31.6579 -31.6382 -31.6061 -31.6049
   -31.5957 -31.5912 -31.5886 -31.5777 -31.5627 -31.5555 -31.5499 -31.5448
   -31.5369 -31.5323 -31.5230 -31.5127 -31.4911 -31.2622 -31.2081 -31.1782
   -31.1218 -31.1001 -30.9890 -30.9003 -30.8779 -30.8056 -30.7191 -30.6081
   -20.7411 -18.4451 -16.3019 -16.0758 -15.8950 -15.7619 -15.7071 -15.5563
   -15.4929 -15.4062 -15.3351 -15.1993 -15.1470 -15.1378 -15.1336 -15.1129
   -15.1103 -15.0465 -15.0378 -15.0353 -15.0237 -14.9966 -14.9572 -14.9434
   -14.9379 -14.8559 -14.7638 -14.7400 -14.7201 -14.7168 -14.6576 -14.2766
   -13.0838 -12.9674 -11.2642  -6.8057  -5.7562  -5.3676  -4.2023  -3.8344
    -3.7912  -3.6690  -3.5460  -3.5070  -3.4291  -3.3849  -3.2267  -3.0773
    -3.0285  -2.8478  -2.7794  -2.7522  -2.7085  -2.6255  -2.5181  -2.4647
    -2.4089  -2.4068  -2.3915  -2.3777  -2.3579  -2.3409  -2.2369  -2.2154
    -2.1659  -2.1438  -2.1228  -1.9813  -1.9540  -1.9304  -1.9144  -1.8914
    -1.8761  -1.8636  -1.8339  -1.8151  -1.7863  -1.7533  -1.6367  -1.5815
    -1.5560  -1.4570  -1.3958  -1.3398  -1.2298  -1.1974  -1.1399  -1.0622
    -1.0542  -1.0328  -1.0003  -0.9916  -0.8646  -0.7618  -0.7513  -0.6795
    -0.6162  -0.5710  -0.5256  -0.4612  -0.3760  -0.3583  -0.3503  -0.3319
    -0.2835  -0.2595  -0.0953  -0.0597  -0.0076   0.0152   0.0726   0.1072
     0.1505   0.1895   0.2292   0.2805   0.3147   0.3478   0.3663   0.3801
     0.3961   0.4273   0.4474   0.6124   0.6475   0.6723   0.7334   0.7615
     0.8454   0.9034   0.9674   1.0544   1.1607   1.3679   1.4407   1.5316
     1.6327   2.0120   2.0579   2.8585   3.5285   3.6204   3.6615   3.6914
     3.7731   3.7822   3.9864   4.0087   4.0375   4.1127

[...]

          k = 0.0380-0.0419 0.0000 ( 17876 PWs)   bands (ev):

[...]

          k =-0.0760-0.0000 0.0000 ( 17886 PWs)   bands (ev):

[...]

          k =-0.0760-0.0839 0.0000 ( 17948 PWs)   bands (ev):

   -55.5841 -55.5832 -55.5436 -55.5377 -55.5306 -55.4252 -55.4117 -55.3985
   -55.3975 -55.3663 -55.3636 -55.3609 -54.9793 -54.9215 -54.5648 -54.5645
   -31.9138 -31.8994 -31.8988 -31.8966 -31.8792 -31.8783 -31.8247 -31.8154
   -31.8019 -31.7817 -31.7731 -31.7504 -31.7469 -31.7185 -31.7143 -31.7124
   -31.7038 -31.7034 -31.7030 -31.7014 -31.6990 -31.6972 -31.6732 -31.6423
   -31.6284 -31.6245 -31.6158 -31.5993 -31.5983 -31.5932 -31.5879 -31.5790
   -31.5759 -31.5704 -31.5685 -31.5663 -31.4144 -31.2639 -31.2469 -31.1863
   -31.1620 -31.1229 -30.8906 -30.8905 -30.8018 -30.8016 -30.7624 -30.7623
   -20.7405 -18.4414 -15.7403 -15.6972 -15.6289 -15.5600 -15.5247 -15.4553
   -15.4125 -15.3704 -15.3182 -15.2800 -15.2714 -15.2137 -15.1928 -15.1599
   -15.1500 -15.1203 -15.1109 -15.1083 -15.0540 -15.0484 -15.0415 -15.0344
   -15.0283 -14.9710 -14.9304 -14.9214 -14.9164 -14.8187 -14.6974 -14.4462
   -13.0692 -13.0691 -11.2623  -6.8283  -5.7535  -5.3441  -4.1330  -3.8251
    -3.7878  -3.1159  -3.0182  -2.8244  -2.7950  -2.7104  -2.7071  -2.6637
    -2.5422  -2.5085  -2.4642  -2.4447  -2.4239  -2.4149  -2.4091  -2.3931
    -2.3842  -2.3649  -2.3380  -2.3163  -2.2838  -2.2694  -2.2567  -2.2511
    -2.2357  -2.2129  -2.2096  -2.1614  -2.1415  -2.1237  -2.0614  -2.0320
    -1.8412  -1.7909  -1.7457  -1.7387  -1.7229  -1.6917  -1.6708  -1.6551
    -1.6088  -1.5976  -1.5272  -1.4922  -1.3498  -1.3085  -1.2900  -1.2713
    -1.2051  -1.1467  -1.0964  -1.0115  -1.0045  -0.9565  -0.8644  -0.8059
    -0.7976  -0.7691  -0.7081  -0.6998  -0.6594  -0.5651  -0.5593  -0.5464
    -0.5368  -0.4656  -0.4172  -0.3526  -0.3445  -0.3243  -0.2937  -0.2660
    -0.2322  -0.2029  -0.0978  -0.0642   0.0279   0.1340   0.2088   0.3463
     0.4658   0.4775   0.5611   0.5868   0.6867   0.7001   0.7127   0.7528
     0.7883   0.8111   0.9344   0.9477   0.9686   0.9943   1.0854   1.8042
     1.8051   1.8776   1.8777   2.8495   3.7706   3.8831   3.9145   3.9259
     4.0119   4.0480   4.0673   4.0691   4.1352   4.2068

     the Fermi energy is     3.5312 ev

!    total energy              =   -3006.13701238 Ry
     estimated scf accuracy    <       0.00000005 Ry
     smearing contrib. (-TS)   =      -0.02170698 Ry
     internal energy E=F+TS    =   -3006.11530540 Ry

     The total energy is F=E-TS. E is the sum of the following terms:
     one-electron contribution =  -23516.52039460 Ry
     hartree contribution      =   11856.25045977 Ry
     xc contribution           =    -501.17964197 Ry
     ewald contribution        =    9155.33302681 Ry
     electric field correction =       0.00124458 Ry

     convergence has been achieved in  74 iterations

     Forces acting on atoms (cartesian axes, Ry/au):

     atom    1 type  1   force =     0.00020543   -0.00031009    0.09617925
     atom    2 type  1   force =    -0.00012559   -0.00051017   -0.17557638
     atom    3 type  2   force =    -0.00002945   -0.00015702   -0.02420035
     atom    4 type  2   force =     0.00000504   -0.00155743    0.05346415
     atom    5 type  2   force =    -0.01167486   -0.00075208    0.00385521
     atom    6 type  2   force =     0.01286304   -0.00001594    0.00197058
     atom    7 type  1   force =    -0.00131276    0.00026005   -0.00662169
     atom    8 type  1   force =     0.00074421    0.00794599    0.02422849
     atom    9 type  2   force =     0.00001065    0.00002936    0.00005132
     atom   10 type  2   force =    -0.00082659    0.00166685   -0.01687614
     atom   11 type  2   force =     0.00000296    0.00004478    0.00001304
     atom   12 type  2   force =    -0.00002329    0.00002443    0.00000806
     atom   13 type  1   force =     0.00001009   -0.00001755   -0.00006777
     atom   14 type  1   force =     0.00000085    0.00004426   -0.00009009
     atom   15 type  2   force =    -0.00002501   -0.00011908    0.00016499
     atom   16 type  2   force =    -0.00000628   -0.00003298    0.00012555
     atom   17 type  2   force =     0.00015311    0.00011629    0.00023785
     atom   18 type  2   force =    -0.00015399    0.00007159    0.00018699
     atom   19 type  1   force =     0.00008097   -0.00007248   -0.00031478
     atom   20 type  1   force =     0.00003173   -0.00045240   -0.00164056
     atom   21 type  2   force =     0.00005786   -0.00004968    0.10322096
     atom   22 type  2   force =     0.00002040    0.00027186    0.00027051
     atom   23 type  2   force =    -0.07147262   -0.00011479   -0.02770011
     atom   24 type  2   force =     0.07137583    0.00029184   -0.02770982
     atom   25 type  1   force =    -0.00002924   -0.00028807    0.09579720
     atom   26 type  1   force =    -0.00023097   -0.00034925   -0.17583462
     atom   27 type  2   force =     0.00004885   -0.00017772   -0.02325056
     atom   28 type  2   force =     0.00006972   -0.00125836    0.05307434
     atom   29 type  2   force =    -0.01202467    0.00041911    0.00403204
     atom   30 type  2   force =     0.01311107    0.00076539    0.00211928
     atom   31 type  1   force =    -0.00117619    0.00400764   -0.00991795
     atom   32 type  1   force =     0.00068432   -0.01004777    0.02470918
     atom   33 type  2   force =     0.00001795   -0.00001144    0.00003700
     atom   34 type  2   force =    -0.00024834    0.00012111   -0.02256715
     atom   35 type  2   force =     0.00001845   -0.00002072   -0.00000636
     atom   36 type  2   force =    -0.00002610    0.00000873   -0.00001105
     atom   37 type  1   force =    -0.00001551   -0.00004123   -0.00006750
     atom   38 type  1   force =     0.00001263    0.00007466   -0.00006588
     atom   39 type  2   force =    -0.00005604    0.00012996    0.00010361
     atom   40 type  2   force =    -0.00000771   -0.00004876    0.00014009
     atom   41 type  2   force =     0.00019147   -0.00012543    0.00015101
     atom   42 type  2   force =    -0.00016947   -0.00006909    0.00016434
     atom   43 type  1   force =     0.00000518    0.00000203   -0.00030714
     atom   44 type  1   force =     0.00006712    0.00050644   -0.00113417
     atom   45 type  2   force =     0.00004591   -0.00009018    0.10321662
     atom   46 type  2   force =    -0.07148567   -0.00008634   -0.02771763
     atom   47 type  2   force =     0.07139897    0.00035213   -0.02771088
     atom   48 type  3   force =    -0.00070971   -0.00309355    0.02849948
     atom   49 type  3   force =     0.00055364    0.00494013   -0.02345940
     atom   50 type  4   force =     0.00013676   -0.00100665   -0.00185584
     atom   51 type  5   force =    -0.00004393   -0.00000690    0.00023284
     atom   52 type  5   force =     0.00002537   -0.00064354   -0.00082263
     atom   53 type  5   force =    -0.00007813   -0.00052279   -0.00080560
     atom   54 type  2   force =     0.00100276   -0.00007143   -0.00128314
     atom   55 type  5   force =    -0.00013121   -0.00004431   -0.00007343
     atom   56 type  2   force =    -0.00114299    0.00000696    0.00136599
     atom   57 type  5   force =     0.00027399    0.00006364    0.00006864

     Total force =     0.369006     Total SCF correction =     0.000587
  @ DRIVER MODE: Message from server: STATUS
  @ DRIVER MODE: Message from server: GETFORCE
  @ DRIVER MODE: Returning v,forces,stress,ensemble

     Writing output data file ./calc.save/
  @ DRIVER MODE: Message from server: EXIT
  @ DRIVE MODE: Exiting

     General routines

     Parallel routines

   This run was terminated on:  17:21:15  25Sep2021

   JOB DONE.