     Program PWSCF v.6.7GPU starts on 18Oct2021 at 13:41: 5

     R & G space division:  proc/nbgrp/npool/nimage =       8
     Reading input from /storage/home/hcoda1/3/ntian30/research/carbon/CxH_vib/Thiel_calc/ads_slab/NH2NH2_perslab/out_0005/pw.inp
Warning: card &CELL ignored
Warning: card   CELL_DYNAMICS='IPI', ignored
Warning: card / ignored

     Current dimensions of program PWSCF are:
     Max number of different atomic species (ntypx) = 10
     Max number of k-points (npk) =  40000
     Max angular momentum in pseudopotentials (lmaxx) =  3
     Presently no symmetry can be used with electric field

     Message from routine cell_base_init:
     DEPRECATED: use true lattice parameter, not A to a.u. conversion factor

     IMPORTANT: XC functional enforced from input :
     Exchange-correlation= BEEF-VDW
                           (   1   4  43  14   2   0   0)
     Any further DFT definition will be discarded
     Please, verify this is what you really want

  @ DRIVER MODE: Connecting to
 qe_1139763_3255136.sched-torque.pace.gatech.edue2di7lwf_scratch
  using UNIX socket
  @ DRIVER MODE: Message from server: STATUS
  @ DRIVER MODE: Message from server: INIT
  @ DRIVER MODE: Receiving replica           0          -1
  @ DRIVER MODE: Receiving encoded integer          25
  @ DRIVER MODE:  SCF:  T  FORCE:  T  STRESS:  F  VC:  F  ENSEMBLE:  F
  @ DRIVER MODE:  SCF:  T  FORCE:  T  STRESS:  F  VC:  F  ENSEMBLE:  F

     Using Slab Decomposition

     bravais-lattice index     =            0
     lattice parameter (alat)  =       1.8897  a.u.
     unit-cell volume          =    9988.4706 (a.u.)^3
     number of atoms/cell      =           59
     number of atomic types    =            4
     number of electrons       =       440.00
     number of Kohn-Sham states=          230
     kinetic-energy cutoff     =      29.3995  Ry
     charge density cutoff     =     293.9946  Ry
     scf convergence threshold =      7.3E-08
     mixing beta               =       0.0500
     number of iterations used =            8  plain     mixing
     Exchange-correlation= BEEF-VDW
                           (   1   4  43  14   2   0   0)

     celldm(1)=   1.889726  celldm(2)=   0.000000  celldm(3)=   0.000000
     celldm(4)=   0.000000  celldm(5)=   0.000000  celldm(6)=   0.000000

     crystal axes: (cart. coord. in units of alat)
               a(1) = (   6.579727   0.000000   0.000000 )
               a(2) = (  -0.001163   8.942395   0.000000 )
               a(3) = (   0.000000   0.000000  25.155947 )

     reciprocal axes: (cart. coord. in units 2 pi/alat)
               b(1) = (  0.151982  0.000020  0.000000 )
               b(2) = (  0.000000  0.111827  0.000000 )
               b(3) = (  0.000000  0.000000  0.039752 )

     PseudoPot. # 1 for O  read from file:
     /storage/coda1/p-amedford6/0/shared/rich_project_chbe-medford/medford-share/data/pseudos_module/espresso/nninc/pbe/van/O.UPF
     MD5 check sum: 78c19812648e8988a0fe644b0f25305e
     Pseudo is Ultrasoft, Zval =  6.0
     Generated by new atomic code, or converted to UPF format
     Using radial grid of  737 points,  4 beta functions with:
                l(1) =   0
                l(2) =   0
                l(3) =   1
                l(4) =   1
     Q(r) pseudized with  8 coefficients,  rinner =    0.800   0.800   0.800

     PseudoPot. # 2 for Ti read from file:
     /storage/coda1/p-amedford6/0/shared/rich_project_chbe-medford/medford-share/data/pseudos_module/espresso/nninc/pbe/van/Ti.UPF
     MD5 check sum: 8e4df49b7f0d34bbd5052bf3f5ea0213
     Pseudo is Ultrasoft, Zval = 12.0
     Generated by new atomic code, or converted to UPF format
     Using radial grid of  851 points,  6 beta functions with:
                l(1) =   0
                l(2) =   0
                l(3) =   1
                l(4) =   1
                l(5) =   2
                l(6) =   2
     Q(r) pseudized with  8 coefficients,  rinner =    1.000   1.000   1.000
                                                       1.000   1.000

     PseudoPot. # 3 for N  read from file:
     /storage/coda1/p-amedford6/0/shared/rich_project_chbe-medford/medford-share/data/pseudos_module/espresso/nninc/pbe/van/N.UPF
     MD5 check sum: 90d10febe142ad51ac9d5be1deb811c4
     Pseudo is Ultrasoft, Zval =  5.0
     Generated by new atomic code, or converted to UPF format
     Using radial grid of  729 points,  4 beta functions with:
                l(1) =   0
                l(2) =   0
                l(3) =   1
                l(4) =   1
     Q(r) pseudized with  8 coefficients,  rinner =    0.800   0.800   0.800

     PseudoPot. # 4 for H  read from file:
     /storage/coda1/p-amedford6/0/shared/rich_project_chbe-medford/medford-share/data/pseudos_module/espresso/nninc/pbe/van/H.UPF
     MD5 check sum: b5ee9d7bfd3a09ee7748110bda690ff7
     Pseudo is Ultrasoft, Zval =  1.0
     Generated by new atomic code, or converted to UPF format
     Using radial grid of  615 points,  1 beta functions with:
                l(1) =   0
     Q(r) pseudized with  8 coefficients,  rinner =    0.800

     atomic species   valence    mass     pseudopotential
        O1             6.00    15.99900     O ( 1.00)
        Ti1           12.00    47.86700     Ti( 1.00)
        N1             5.00    14.00700     N ( 1.00)
        H1             1.00     1.00800     H ( 1.00)

     No symmetry found

   Cartesian axes

     site n.     atom                  positions (alat units)
         1           O1  tau(   1) = (   0.0007354   0.0005023  10.5931620  )
         2           O1  tau(   2) = (   3.2892726   8.9022636  13.7900476  )
         3           O1  tau(   3) = (  -0.0000012   0.0159539  17.0845323  )
         4           O1  tau(   4) = (   0.0006271   0.0005054   7.9858123  )
         5           O1  tau(   5) = (   3.2903981   0.0001071  11.1466942  )
         6           O1  tau(   6) = (   6.5796972   0.0370899  14.4522764  )
         7           O1  tau(   7) = (   1.9868534   1.4903216   9.2879459  )
         8           O1  tau(   8) = (   5.2071659   1.5879261  12.5336177  )
         9           O1  tau(   9) = (   2.0150580   1.5800225  15.9505780  )
        10           Ti1 tau(  10) = (   0.0007404   1.4906270   9.2895810  )
        11           Ti1 tau(  11) = (   3.2907621   1.2831726  12.4565622  )
        12           Ti1 tau(  12) = (   6.5792216   1.1939559  15.8009323  )
        13           O1  tau(  13) = (   4.5942328   1.4918067   9.2879030  )
        14           O1  tau(  14) = (   1.3733293   1.5875306  12.5337771  )
        15           O1  tau(  15) = (   4.5635363   1.5794237  15.9511286  )
        16           Ti1 tau(  16) = (   3.2902859   2.9801868   9.2893338  )
        17           Ti1 tau(  17) = (   0.0006963   2.7899128  12.4910476  )
        18           Ti1 tau(  18) = (   3.2889055   2.8853182  15.6510148  )
        19           O1  tau(  19) = (   0.0003479   2.9813005  10.5931620  )
        20           O1  tau(  20) = (   3.2901137   2.9323735  13.8075185  )
        21           O1  tau(  21) = (   0.0002396   2.9813036   7.9858123  )
        22           O1  tau(  22) = (   3.2901566   2.9796509  11.1657827  )
        23           O1  tau(  23) = (  -0.0001005   3.0518452  14.6148139  )
        24           O1  tau(  24) = (   1.9864658   4.4711199   9.2879459  )
        25           O1  tau(  25) = (   5.2244327   4.5330399  12.5550231  )
        26           O1  tau(  26) = (   2.0317078   4.4891842  16.0144209  )
        27           Ti1 tau(  27) = (   0.0003529   4.4714252   9.2895810  )
        28           Ti1 tau(  28) = (   3.2908221   4.3047718  12.5439168  )
        29           Ti1 tau(  29) = (   0.0007318   4.2809743  15.9563396  )
        30           O1  tau(  30) = (   4.5938453   4.4726049   9.2879030  )
        31           O1  tau(  31) = (   1.3553747   4.5324408  12.5551093  )
        32           O1  tau(  32) = (   4.5484712   4.4888783  16.0159471  )
        33           Ti1 tau(  33) = (   3.2898983   5.9609850   9.2893338  )
        34           Ti1 tau(  34) = (   0.0004637   5.7541984  12.5654138  )
        35           Ti1 tau(  35) = (   3.2913524   5.8154114  16.2798070  )
        36           O1  tau(  36) = (  -0.0000397   5.9620987  10.5931620  )
        37           O1  tau(  37) = (   3.2897947   5.8994426  13.7907643  )
        38           O1  tau(  38) = (   0.0001798   5.9238570  17.1594641  )
        39           O1  tau(  39) = (  -0.0001480   5.9621018   7.9858123  )
        40           O1  tau(  40) = (   3.2896433   5.9245955  11.1661191  )
        41           O1  tau(  41) = (   0.0000838   5.9808129  14.5563373  )
        42           O1  tau(  42) = (   1.9860782   7.4519181   9.2879459  )
        43           O1  tau(  43) = (   5.2244350   7.5051086  12.5363475  )
        44           O1  tau(  44) = (   2.0177701   7.5673364  15.9764862  )
        45           Ti1 tau(  45) = (  -0.0000347   7.4522234   9.2895810  )
        46           Ti1 tau(  46) = (   3.2896674   7.1828241  12.5854878  )
        47           Ti1 tau(  47) = (   0.0003403   7.2137487  16.0183084  )
        48           O1  tau(  48) = (   4.5934577   7.4534031   9.2879030  )
        49           O1  tau(  49) = (   1.3543201   7.5047529  12.5365769  )
        50           O1  tau(  50) = (   4.5609347   7.5656990  15.9757490  )
        51           Ti1 tau(  51) = (   3.2895107   8.9417832   9.2893338  )
        52           Ti1 tau(  52) = (  -0.0005834   8.7067995  12.4790564  )
        53           Ti1 tau(  53) = (   3.2900135   8.8028796  15.6464995  )
        54           N1  tau(  54) = (   3.2900669   5.9334594  18.1602238  )
        55           H1  tau(  55) = (   3.2900466   5.1481598  18.8081281  )
        56           H1  tau(  56) = (   3.2872703   6.8047138  18.6863891  )
        57           N1  tau(  57) = (   0.0002662   3.1405291  17.5522950  )
        58           H1  tau(  58) = (   0.0007553   2.2326612  18.0099153  )
        59           H1  tau(  59) = (   6.5771877   3.8386968  18.2941669  )

     number of k points=    10  Fermi-Dirac smearing, width (Ry)=  0.0073
                       cart. coord. in units 2pi/alat
        k(    1) = (   0.0000000   0.0000000   0.0000000), wk =   0.1250000
        k(    2) = (   0.0000000   0.0279567   0.0000000), wk =   0.2500000
        k(    3) = (   0.0000000  -0.0559134   0.0000000), wk =   0.1250000
        k(    4) = (   0.0379955   0.0000049   0.0000000), wk =   0.2500000
        k(    5) = (   0.0379955   0.0279617   0.0000000), wk =   0.2500000
        k(    6) = (   0.0379955  -0.0559085   0.0000000), wk =   0.2500000
        k(    7) = (   0.0379955  -0.0279518   0.0000000), wk =   0.2500000
        k(    8) = (  -0.0759910  -0.0000099   0.0000000), wk =   0.1250000
        k(    9) = (  -0.0759910   0.0279468   0.0000000), wk =   0.2500000
        k(   10) = (  -0.0759910  -0.0559233   0.0000000), wk =   0.1250000

     Initial potential from superposition of free atoms

     starting charge  421.99910, renormalised to  440.00000

     negative rho (up, down):  3.741E-02 0.000E+00

     %%%%%%%%%%%%%%%%%%%%%%%%%%%%%%%%%%%%%%%%%%%%%%%%%%%%%%%%%%%%%%%%%%%%%%%%
     %                                                                      %
     % You are using vdW-DF, which was implemented by the Thonhauser group. %
     % Please cite the following two papers that made this development      %
     % possible and the two reviews that describe the various versions:     %
     %                                                                      %
     %   T. Thonhauser et al., PRL 115, 136402 (2015).                      %
     %   T. Thonhauser et al., PRB 76, 125112 (2007).                       %
     %   K. Berland et al., Rep. Prog. Phys. 78, 066501 (2015).             %
     %   D.C. Langreth et al., J. Phys.: Condens. Matter 21, 084203 (2009). %
     %                                                                      %
     %                                                                      %
     % If you are calculating the stress with vdW-DF, please also cite:     %
     %                                                                      %
     %   R. Sabatini et al., J. Phys.: Condens. Matter 24, 424209 (2012).   %
     %                                                                      %
     %%%%%%%%%%%%%%%%%%%%%%%%%%%%%%%%%%%%%%%%%%%%%%%%%%%%%%%%%%%%%%%%%%%%%%%%

     Adding external electric field

     Computed dipole along edir(3) :
        Dipole               -3.9727 Ry au,        -10.0976 Debye
        Dipole field         -0.0050 Ry au,

        Potential amp.        0.4633 Ry
        Total length         46.3494 bohr

     Starting wfcs are  332 atomic wfcs
  @ DRIVER MODE: Message from server: STATUS
  @ DRIVER MODE: Message from server: POSDATA
  @ DRIVER MODE: Reading and sharing cell
  @ DRIVER MODE: Reading and sharing positions
  @ DRIVER MODE: Received positions

     Self-consistent Calculation

     iteration #  1     ecut=    29.40 Ry     beta= 0.05
     Davidson diagonalization with overlap
     c_bands:  1 eigenvalues not converged
     c_bands:  2 eigenvalues not converged
     c_bands:  3 eigenvalues not converged
     c_bands:  3 eigenvalues not converged
     c_bands:  1 eigenvalues not converged
     c_bands:  3 eigenvalues not converged
     c_bands:  3 eigenvalues not converged
     c_bands:  3 eigenvalues not converged
     c_bands:  3 eigenvalues not converged
     ethr =  1.00E-05,  avg # of iterations = 19.2

[...]

     total energy              =   -3293.80086416 Ry
     estimated scf accuracy    <      28.07984456 Ry

     iteration #  2     ecut=    29.40 Ry     beta= 0.05
     Davidson diagonalization with overlap
     ethr =  6.38E-03,  avg # of iterations =  1.2

[...]

     iteration # 22     ecut=    29.40 Ry     beta= 0.05
     Davidson diagonalization with overlap
     c_bands:  1 eigenvalues not converged
     ethr =  4.54E-07,  avg # of iterations = 10.0

[...]

     total energy              =   -3293.29530537 Ry
     estimated scf accuracy    <       0.00000010 Ry

     iteration # 44     ecut=    29.40 Ry     beta= 0.05
     Davidson diagonalization with overlap
     ethr =  2.27E-11,  avg # of iterations =  2.0

     negative rho (up, down):  3.612E-02 0.000E+00

     Adding external electric field

     Computed dipole along edir(3) :
        Dipole                0.9640 Ry au,          2.4501 Debye
        Dipole field          0.0012 Ry au,

        Potential amp.       -0.1124 Ry
        Total length         46.3494 bohr

     End of self-consistent calculation

          k = 0.0000 0.0000 0.0000 ( 26871 PWs)   bands (ev):

   -58.4630 -58.4395 -58.4336 -58.3958 -58.3507 -57.9974 -57.9588 -57.9556
   -57.8722 -57.7524 -57.6792 -57.5567 -57.4694 -57.2178 -57.1370 -57.0659
   -57.0258 -57.0129 -34.8635 -34.8281 -34.8009 -34.7846 -34.7812 -34.7748
   -34.7259 -34.6655 -34.6385 -34.5875 -34.5752 -34.5726 -34.5668 -34.5449
   -34.4999 -34.3993 -34.3635 -34.3379 -34.3155 -34.3103 -34.2654 -34.2329
   -34.2208 -34.2173 -34.1819 -34.1791 -34.1469 -34.0499 -34.0385 -33.9800
   -33.9762 -33.9398 -33.8918 -33.8763 -33.8578 -33.7890 -33.7335 -33.7207
   -33.6792 -33.6649 -33.5764 -33.4559 -33.4420 -33.4103 -33.4095 -33.3737
   -33.3679 -33.3634 -33.3494 -33.3382 -33.2699 -33.2054 -33.1843 -33.0643
   -19.0149 -18.5519 -18.4929 -18.3436 -18.2943 -18.2737 -18.2681 -18.1172
   -17.9007 -17.8554 -17.8411 -17.8198 -17.7355 -17.7169 -17.7010 -17.6780
   -17.6641 -17.6432 -17.5537 -17.5484 -17.5281 -17.5015 -17.4834 -17.4292
   -17.3694 -17.3482 -17.2580 -17.1852 -17.1449 -16.9222 -16.6669 -16.5868
   -15.5318 -15.4907 -15.4822 -15.2707 -15.1356  -6.7457  -6.5491  -6.3496
    -6.1557  -5.9434  -5.8058  -5.6894  -5.6360  -5.5551  -5.4891  -5.4514
    -5.4494  -5.3885  -5.3418  -5.2479  -5.2418  -5.1497  -5.1001  -5.0833
    -5.0544  -5.0061  -4.9595  -4.9131  -4.8986  -4.8374  -4.7934  -4.7837
    -4.7339  -4.6720  -4.6703  -4.6483  -4.6455  -4.6118  -4.5782  -4.4572
    -4.4522  -4.4082  -4.3457  -4.2961  -4.2570  -4.2156  -4.1844  -4.1820
    -4.1658  -4.1378  -4.0907  -3.9326  -3.8656  -3.8231  -3.7907  -3.7160
    -3.6504  -3.5897  -3.5542  -3.5123  -3.4219  -3.3520  -3.3443  -3.3358
    -3.2692  -3.2263  -3.1882  -3.1579  -3.1387  -3.0759  -3.0229  -3.0222
    -2.9811  -2.9648  -2.9505  -2.9050  -2.8505  -2.8264  -2.8242  -2.7848
    -2.7782  -2.7359  -2.6392  -2.6092  -2.5487  -2.5095  -2.4555  -2.4078
    -2.4021  -2.3674  -2.3293  -2.2611  -2.1693  -2.1183  -1.9877  -1.9836
    -1.9057  -1.8954  -1.8293  -1.8013  -1.7839  -1.7381  -1.7102  -1.5954
    -1.5204  -1.4019  -1.1886  -0.9836  -0.8598  -0.7585  -0.7439  -0.7000
    -0.5609  -0.5418  -0.4664  -0.4459   0.8130   0.9487   1.1083   1.1262
     1.3263   1.4550   1.4731   1.5156   1.5725   1.7069

[...]

          k = 0.0380-0.0280 0.0000 ( 26873 PWs)   bands (ev):

[...]

          k =-0.0760-0.0000 0.0000 ( 26902 PWs)   bands (ev):

[...]

          k =-0.0760-0.0559 0.0000 ( 26868 PWs)   bands (ev):

   -58.4571 -58.4510 -58.4278 -58.3956 -58.3508 -57.9973 -57.9589 -57.9556
   -57.8721 -57.7527 -57.6791 -57.5566 -57.4694 -57.2179 -57.1370 -57.0647
   -57.0298 -57.0102 -34.8915 -34.8760 -34.8318 -34.8033 -34.7720 -34.6813
   -34.6648 -34.6166 -34.6101 -34.5979 -34.5956 -34.5841 -34.5698 -34.5482
   -34.5469 -34.4270 -34.3713 -34.3522 -34.3370 -34.3168 -34.2486 -34.2151
   -34.2114 -34.1811 -34.1729 -34.1572 -34.1107 -34.0577 -34.0499 -34.0235
   -33.9837 -33.9595 -33.8971 -33.8907 -33.8694 -33.7731 -33.7333 -33.6987
   -33.6767 -33.6523 -33.5643 -33.4759 -33.4452 -33.4447 -33.4119 -33.4105
   -33.3789 -33.3603 -33.3598 -33.2616 -33.2269 -33.1760 -33.1741 -33.1452
   -18.8017 -18.6531 -18.4078 -18.3091 -18.1459 -18.0989 -18.0458 -18.0353
   -18.0297 -17.9338 -17.9165 -17.8702 -17.8652 -17.8158 -17.7909 -17.7783
   -17.7723 -17.7404 -17.6728 -17.6159 -17.5309 -17.4396 -17.4273 -17.4114
   -17.4048 -17.3239 -17.2275 -17.1817 -17.1446 -16.9451 -16.6762 -16.5489
   -15.5436 -15.5305 -15.4209 -15.2658 -15.1364  -6.7432  -6.5584  -6.1136
    -5.9185  -5.8869  -5.8457  -5.5284  -5.4857  -5.3808  -5.3516  -5.3482
    -5.3212  -5.2770  -5.2386  -5.1834  -5.1483  -5.1306  -5.1218  -5.1035
    -5.0771  -5.0295  -5.0027  -4.9620  -4.9561  -4.9416  -4.9111  -4.8884
    -4.8391  -4.8319  -4.7581  -4.7494  -4.7154  -4.5204  -4.4662  -4.4047
    -4.3554  -4.2895  -4.2408  -4.1846  -4.1819  -4.1292  -4.1004  -4.0313
    -3.9713  -3.8898  -3.8131  -3.7963  -3.7744  -3.7463  -3.7126  -3.6798
    -3.6565  -3.6371  -3.5973  -3.5510  -3.5114  -3.4383  -3.4061  -3.3996
    -3.3577  -3.3391  -3.3279  -3.3239  -3.3071  -3.2036  -3.1975  -3.1366
    -3.1013  -3.0977  -3.0269  -3.0193  -2.9693  -2.9453  -2.8742  -2.8376
    -2.8271  -2.7392  -2.7313  -2.7278  -2.6487  -2.6366  -2.5360  -2.5028
    -2.4191  -2.2936  -2.1741  -2.1718  -2.1623  -2.0417  -2.0388  -2.0278
    -1.9844  -1.9205  -1.8956  -1.7131  -1.7112  -1.6650  -1.5943  -1.5729
    -1.5485  -1.5337  -1.4173  -1.3957  -0.9910  -0.7110  -0.6760  -0.6758
    -0.6597  -0.6110  -0.5752  -0.5663   0.8646   1.0253   1.1030   1.1687
     1.1943   1.2381   1.2698   1.4444   1.5069   1.5138

     the Fermi energy is     0.2233 ev

!    total energy              =   -3293.29550331 Ry
     estimated scf accuracy    <       0.00000005 Ry
     smearing contrib. (-TS)   =      -0.00051635 Ry
     internal energy E=F+TS    =   -3293.29498696 Ry

     The total energy is F=E-TS. E is the sum of the following terms:
     one-electron contribution =  -34589.06334210 Ry
     hartree contribution      =   17356.45300780 Ry
     xc contribution           =    -542.07360025 Ry
     ewald contribution        =   14481.38777856 Ry
     electric field correction =       0.00116903 Ry

     convergence has been achieved in  44 iterations

     Forces acting on atoms (cartesian axes, Ry/au):

     atom    1 type  1   force =    -0.00000574    0.00891415    0.04219468
     atom    2 type  1   force =     0.00002265   -0.00246716   -0.00300277
     atom    3 type  1   force =    -0.00003117   -0.00635502   -0.00101518
     atom    4 type  1   force =     0.00004811    0.00395401    0.10165333
     atom    5 type  1   force =     0.00002177   -0.00058904    0.00717292
     atom    6 type  1   force =    -0.00002387    0.00087291    0.00291820
     atom    7 type  1   force =     0.07635686    0.00119653   -0.03510184
     atom    8 type  1   force =     0.00754338   -0.02412808    0.00123164
     atom    9 type  1   force =     0.00783600   -0.02078769    0.00181960
     atom   10 type  2   force =    -0.00003376   -0.00384814   -0.16971522
     atom   11 type  2   force =    -0.00011791    0.02224106   -0.00323024
     atom   12 type  2   force =    -0.00000312    0.02023332   -0.00583981
     atom   13 type  1   force =    -0.07644813    0.00074389   -0.03505101
     atom   14 type  1   force =    -0.00762377   -0.02400291    0.00122700
     atom   15 type  1   force =    -0.00778253   -0.02087261    0.00182698
     atom   16 type  2   force =     0.00010224    0.00208569    0.07523794
     atom   17 type  2   force =     0.00020566    0.02912277    0.00186006
     atom   18 type  2   force =    -0.00009530    0.02444954    0.00011700
     atom   19 type  1   force =     0.00000446    0.00222019    0.05608487
     atom   20 type  1   force =     0.00000400   -0.00077289   -0.00275700
     atom   21 type  1   force =     0.00004906   -0.00273565    0.10228095
     atom   22 type  1   force =     0.00000994   -0.00167447    0.00632918
     atom   23 type  1   force =    -0.00001679   -0.00392895    0.00182407
     atom   24 type  1   force =     0.07834981   -0.00055976   -0.03677694
     atom   25 type  1   force =     0.00980724   -0.02948548   -0.00096688
     atom   26 type  1   force =     0.01068345   -0.02730426   -0.00671941
     atom   27 type  2   force =    -0.00005615    0.01458022   -0.15611546
     atom   28 type  2   force =    -0.00013530    0.02628515   -0.00040766
     atom   29 type  2   force =     0.00003875    0.02324258    0.00288243
     atom   30 type  1   force =    -0.07844581   -0.00098745   -0.03672435
     atom   31 type  1   force =    -0.00986844   -0.02934181   -0.00096752
     atom   32 type  1   force =    -0.01055349   -0.02737116   -0.00676826
     atom   33 type  2   force =     0.00009437   -0.00383535    0.07804540
     atom   34 type  2   force =     0.00018736    0.03434267    0.00326623
     atom   35 type  2   force =    -0.00012448    0.03159389    0.00002010
     atom   36 type  1   force =     0.00002104    0.00148439    0.05144896
     atom   37 type  1   force =     0.00002297   -0.00162554   -0.00259941
     atom   38 type  1   force =    -0.00002040   -0.00347006    0.00026043
     atom   39 type  1   force =     0.00004942    0.00037461    0.09990978
     atom   40 type  1   force =     0.00001665   -0.00070306    0.00651201
     atom   41 type  1   force =    -0.00002523   -0.00088853    0.00431720
     atom   42 type  1   force =     0.07942915    0.00172628   -0.03466885
     atom   43 type  1   force =     0.00609217   -0.02324315    0.00044731
     atom   44 type  1   force =     0.00701283   -0.02132034    0.00383329
     atom   45 type  2   force =    -0.00005254   -0.01583752   -0.15540469
     atom   46 type  2   force =    -0.00010738    0.01689128    0.00091421
     atom   47 type  2   force =     0.00002499    0.02057490   -0.00106254
     atom   48 type  1   force =    -0.07951967    0.00128695   -0.03461400
     atom   49 type  1   force =    -0.00620585   -0.02312851    0.00043808
     atom   50 type  1   force =    -0.00687478   -0.02134706    0.00382796
     atom   51 type  2   force =     0.00007942   -0.00446603    0.06170964
     atom   52 type  2   force =     0.00020465    0.02904740    0.00057989
     atom   53 type  2   force =    -0.00013979    0.02931033    0.00008207
     atom   54 type  3   force =    -0.00001886    0.00135673    0.01924290
     atom   55 type  4   force =     0.00003433    0.00583763   -0.00732898
     atom   56 type  4   force =    -0.00003145   -0.00568348   -0.00571230
     atom   57 type  3   force =    -0.00000417   -0.00125825    0.00141088
     atom   58 type  4   force =     0.00005975    0.00186625   -0.00063478
     atom   59 type  4   force =    -0.00004663   -0.00181594    0.00025792

     Total force =     0.439631     Total SCF correction =     0.000776
  @ DRIVER MODE: Message from server: STATUS
  @ DRIVER MODE: Message from server: GETFORCE
  @ DRIVER MODE: Returning v,forces,stress,ensemble

     Writing output data file ./calc.save/
  @ DRIVER MODE: Message from server: EXIT
  @ DRIVE MODE: Exiting

     General routines

     Parallel routines

   This run was terminated on:  14: 4:38  18Oct2021

   JOB DONE.