     Program PWSCF v.6.7GPU starts on 23Sep2021 at  6:12:38

     R & G space division:  proc/nbgrp/npool/nimage =      10
     Reading input from /storage/home/hcoda1/3/ntian30/research/carbon/CxH_vib/H2O_calc/ads_slab/CHNHNHH2O_b/out_0042/pw.inp
Warning: card &CELL ignored
Warning: card   CELL_DYNAMICS='IPI', ignored
Warning: card / ignored

     Current dimensions of program PWSCF are:
     Max number of different atomic species (ntypx) = 10
     Max number of k-points (npk) =  40000
     Max angular momentum in pseudopotentials (lmaxx) =  3
     Presently no symmetry can be used with electric field

     Message from routine cell_base_init:
     DEPRECATED: use true lattice parameter, not A to a.u. conversion factor

     IMPORTANT: XC functional enforced from input :
     Exchange-correlation= BEEF-VDW
                           (   1   4  43  14   2   0   0)
     Any further DFT definition will be discarded
     Please, verify this is what you really want

  @ DRIVER MODE: Connecting to
 qe_1139763_2937311.sched-torque.pace.gatech.edu7panrja2_scratch
  using UNIX socket
  @ DRIVER MODE: Message from server: STATUS
  @ DRIVER MODE: Message from server: INIT
  @ DRIVER MODE: Receiving replica           0          -1
  @ DRIVER MODE: Receiving encoded integer          25
  @ DRIVER MODE:  SCF:  T  FORCE:  T  STRESS:  F  VC:  F  ENSEMBLE:  F
  @ DRIVER MODE:  SCF:  T  FORCE:  T  STRESS:  F  VC:  F  ENSEMBLE:  F

     Using Slab Decomposition

     bravais-lattice index     =            0
     lattice parameter (alat)  =       1.8897  a.u.
     unit-cell volume          =    6658.9804 (a.u.)^3
     number of atoms/cell      =           56
     number of atomic types    =            5
     number of electrons       =       403.00
     number of Kohn-Sham states=          211
     kinetic-energy cutoff     =      29.3995  Ry
     charge density cutoff     =     293.9946  Ry
     scf convergence threshold =      7.3E-08
     mixing beta               =       0.0500
     number of iterations used =            8  plain     mixing
     Exchange-correlation= BEEF-VDW
                           (   1   4  43  14   2   0   0)

     celldm(1)=   1.889726  celldm(2)=   0.000000  celldm(3)=   0.000000
     celldm(4)=   0.000000  celldm(5)=   0.000000  celldm(6)=   0.000000

     crystal axes: (cart. coord. in units of alat)
               a(1) = (   6.579727   0.000000   0.000000 )
               a(2) = (  -0.000775   5.961596   0.000000 )
               a(3) = (   0.000000   0.000000  25.155947 )

     reciprocal axes: (cart. coord. in units 2 pi/alat)
               b(1) = (  0.151982  0.000020  0.000000 )
               b(2) = (  0.000000  0.167740  0.000000 )
               b(3) = (  0.000000  0.000000  0.039752 )

     PseudoPot. # 1 for Ti read from file:
     /storage/coda1/p-amedford6/0/shared/rich_project_chbe-medford/medford-share/data/pseudos_module/espresso/nninc/pbe/van/Ti.UPF
     MD5 check sum: 8e4df49b7f0d34bbd5052bf3f5ea0213
     Pseudo is Ultrasoft, Zval = 12.0
     Generated by new atomic code, or converted to UPF format
     Using radial grid of  851 points,  6 beta functions with:
                l(1) =   0
                l(2) =   0
                l(3) =   1
                l(4) =   1
                l(5) =   2
                l(6) =   2
     Q(r) pseudized with  8 coefficients,  rinner =    1.000   1.000   1.000
                                                       1.000   1.000

     PseudoPot. # 2 for O  read from file:
     /storage/coda1/p-amedford6/0/shared/rich_project_chbe-medford/medford-share/data/pseudos_module/espresso/nninc/pbe/van/O.UPF
     MD5 check sum: 78c19812648e8988a0fe644b0f25305e
     Pseudo is Ultrasoft, Zval =  6.0
     Generated by new atomic code, or converted to UPF format
     Using radial grid of  737 points,  4 beta functions with:
                l(1) =   0
                l(2) =   0
                l(3) =   1
                l(4) =   1
     Q(r) pseudized with  8 coefficients,  rinner =    0.800   0.800   0.800

     PseudoPot. # 3 for N  read from file:
     /storage/coda1/p-amedford6/0/shared/rich_project_chbe-medford/medford-share/data/pseudos_module/espresso/nninc/pbe/van/N.UPF
     MD5 check sum: 90d10febe142ad51ac9d5be1deb811c4
     Pseudo is Ultrasoft, Zval =  5.0
     Generated by new atomic code, or converted to UPF format
     Using radial grid of  729 points,  4 beta functions with:
                l(1) =   0
                l(2) =   0
                l(3) =   1
                l(4) =   1
     Q(r) pseudized with  8 coefficients,  rinner =    0.800   0.800   0.800

     PseudoPot. # 4 for C  read from file:
     /storage/coda1/p-amedford6/0/shared/rich_project_chbe-medford/medford-share/data/pseudos_module/espresso/nninc/pbe/van/C.UPF
     MD5 check sum: 1a69bf6b8db32088f5b2163dbdb77a27
     Pseudo is Ultrasoft, Zval =  4.0
     Generated by new atomic code, or converted to UPF format
     Using radial grid of  721 points,  4 beta functions with:
                l(1) =   0
                l(2) =   0
                l(3) =   1
                l(4) =   1
     Q(r) pseudized with  8 coefficients,  rinner =    0.800   0.800   0.800

     PseudoPot. # 5 for H  read from file:
     /storage/coda1/p-amedford6/0/shared/rich_project_chbe-medford/medford-share/data/pseudos_module/espresso/nninc/pbe/van/H.UPF
     MD5 check sum: b5ee9d7bfd3a09ee7748110bda690ff7
     Pseudo is Ultrasoft, Zval =  1.0
     Generated by new atomic code, or converted to UPF format
     Using radial grid of  615 points,  1 beta functions with:
                l(1) =   0
     Q(r) pseudized with  8 coefficients,  rinner =    0.800

     atomic species   valence    mass     pseudopotential
        Ti1           12.00    47.86700     Ti( 1.00)
        O1             6.00    15.99900     O ( 1.00)
        N1             5.00    14.00700     N ( 1.00)
        C1             4.00    12.01100     C ( 1.00)
        H1             1.00     1.00800     H ( 1.00)

     No symmetry found

   Cartesian axes

     site n.     atom                  positions (alat units)
         1           Ti1 tau(   1) = (   0.0004258   2.9801865   6.0000000  )
         2           Ti1 tau(   2) = (   3.2906075   1.4906267   6.0002472  )
         3           O1  tau(   3) = (   0.0006271   0.0005054   7.9858123  )
         4           O1  tau(   4) = (   3.2906025   0.0005020   7.3038282  )
         5           O1  tau(   5) = (   4.5942328   1.4918067   9.2879030  )
         6           O1  tau(   6) = (   1.9868534   1.4903216   9.2879459  )
         7           Ti1 tau(   7) = (   3.2907910   2.8959150   9.1758416  )
         8           Ti1 tau(   8) = (   0.0015273   1.4827037   9.2680791  )
         9           O1  tau(   9) = (   3.2780774   5.9605562  11.3537357  )
        10           O1  tau(  10) = (   0.0116148   5.9584955  10.6183126  )
        11           O1  tau(  11) = (   1.2922713   1.4781662  12.6511241  )
        12           O1  tau(  12) = (   5.2965393   1.5043564  12.6031353  )
        13           Ti1 tau(  13) = (   6.5273184   3.0207086  12.5807821  )
        14           Ti1 tau(  14) = (   3.2344070   1.4559942  12.5004267  )
        15           O1  tau(  15) = (   6.4759410   0.0295824  14.6525783  )
        16           O1  tau(  16) = (   3.3604338   0.0238249  13.9383540  )
        17           O1  tau(  17) = (   4.5324113   1.5808541  16.1066768  )
        18           O1  tau(  18) = (   1.9684897   1.4712893  15.8817925  )
        19           Ti1 tau(  19) = (   3.2566353   3.0739815  15.8599551  )
        20           Ti1 tau(  20) = (   6.5466614   1.5318677  15.7800735  )
        21           O1  tau(  21) = (   3.2904802   0.0005063   4.7018136  )
        22           O1  tau(  22) = (   6.5744325   0.0155309  17.2227980  )
        23           O1  tau(  23) = (   1.3043587   1.4918075   6.0039043  )
        24           O1  tau(  24) = (   5.2767064   1.4903225   6.0039473  )
        25           Ti1 tau(  25) = (   0.0000382   5.9609847   6.0000000  )
        26           Ti1 tau(  26) = (   3.2902200   4.4714249   6.0002472  )
        27           O1  tau(  27) = (   0.0002396   2.9813036   7.9858123  )
        28           O1  tau(  28) = (   3.2902150   2.9813002   7.3038282  )
        29           O1  tau(  29) = (   4.5938453   4.4726049   9.2879030  )
        30           O1  tau(  30) = (   1.9864658   4.4711199   9.2879459  )
        31           Ti1 tau(  31) = (   3.2891106   5.8743827   9.1763621  )
        32           Ti1 tau(  32) = (   0.0006254   4.4649316   9.2693709  )
        33           O1  tau(  33) = (   3.2727763   2.9788165  11.3438337  )
        34           O1  tau(  34) = (   0.0092240   2.9805883  10.6323155  )
        35           O1  tau(  35) = (   1.2865780   4.4896361  12.6556599  )
        36           O1  tau(  36) = (   5.2967437   4.4749066  12.6066920  )
        37           Ti1 tau(  37) = (   6.5467059   0.0356701  12.5108493  )
        38           Ti1 tau(  38) = (   3.2305653   4.4019604  12.5605372  )
        39           O1  tau(  39) = (   6.5199767   2.9846217  14.6905747  )
        40           O1  tau(  40) = (   3.2851694   3.0254550  13.9321539  )
        41           O1  tau(  41) = (   4.5310495   4.4602642  16.1636806  )
        42           O1  tau(  42) = (   1.9842988   4.5744318  15.9411167  )
        43           Ti1 tau(  43) = (   3.2691225   0.1036042  15.7405456  )
        44           Ti1 tau(  44) = (   6.5697781   4.6877429  16.0360384  )
        45           O1  tau(  45) = (   3.2900926   2.9813045   4.7018136  )
        46           O1  tau(  46) = (   1.3039711   4.4726057   6.0039043  )
        47           O1  tau(  47) = (   5.2763189   4.4711207   6.0039473  )
        48           N1  tau(  48) = (   1.2792381   2.8578196  18.3696018  )
        49           N1  tau(  49) = (   0.1888888   2.9646215  17.5057353  )
        50           C1  tau(  50) = (   2.5352320   2.9081513  18.0382144  )
        51           H1  tau(  51) = (   3.1442446   2.7411670  18.9317345  )
        52           H1  tau(  52) = (   1.0014291   2.6635404  19.3302151  )
        53           H1  tau(  53) = (   5.9397212   2.8571719  18.0851170  )
        54           O1  tau(  54) = (   3.2630597   0.0341043  18.2448460  )
        55           H1  tau(  55) = (   4.0455299   5.4198958  18.2485053  )
        56           H1  tau(  56) = (   2.4923979   5.4091459  18.3156537  )

     number of k points=    10  Fermi-Dirac smearing, width (Ry)=  0.0073
                       cart. coord. in units 2pi/alat
        k(    1) = (   0.0000000   0.0000000   0.0000000), wk =   0.1250000
        k(    2) = (   0.0000000   0.0419351   0.0000000), wk =   0.2500000
        k(    3) = (   0.0000000  -0.0838702   0.0000000), wk =   0.1250000
        k(    4) = (   0.0379955   0.0000049   0.0000000), wk =   0.2500000
        k(    5) = (   0.0379955   0.0419400   0.0000000), wk =   0.2500000
        k(    6) = (   0.0379955  -0.0838652   0.0000000), wk =   0.2500000
        k(    7) = (   0.0379955  -0.0419301   0.0000000), wk =   0.2500000
        k(    8) = (  -0.0759910  -0.0000099   0.0000000), wk =   0.1250000
        k(    9) = (  -0.0759910   0.0419252   0.0000000), wk =   0.2500000
        k(   10) = (  -0.0759910  -0.0838800   0.0000000), wk =   0.1250000

     Initial potential from superposition of free atoms

     starting charge  386.99914, renormalised to  403.00000

     negative rho (up, down):  1.738E-02 0.000E+00

     %%%%%%%%%%%%%%%%%%%%%%%%%%%%%%%%%%%%%%%%%%%%%%%%%%%%%%%%%%%%%%%%%%%%%%%%
     %                                                                      %
     % You are using vdW-DF, which was implemented by the Thonhauser group. %
     % Please cite the following two papers that made this development      %
     % possible and the two reviews that describe the various versions:     %
     %                                                                      %
     %   T. Thonhauser et al., PRL 115, 136402 (2015).                      %
     %   T. Thonhauser et al., PRB 76, 125112 (2007).                       %
     %   K. Berland et al., Rep. Prog. Phys. 78, 066501 (2015).             %
     %   D.C. Langreth et al., J. Phys.: Condens. Matter 21, 084203 (2009). %
     %                                                                      %
     %                                                                      %
     % If you are calculating the stress with vdW-DF, please also cite:     %
     %                                                                      %
     %   R. Sabatini et al., J. Phys.: Condens. Matter 24, 424209 (2012).   %
     %                                                                      %
     %%%%%%%%%%%%%%%%%%%%%%%%%%%%%%%%%%%%%%%%%%%%%%%%%%%%%%%%%%%%%%%%%%%%%%%%

     Adding external electric field

     Computed dipole along edir(3) :
        Dipole              -12.3510 Ry au,        -31.3930 Debye
        Dipole field         -0.0233 Ry au,

        Potential amp.        2.1606 Ry
        Total length         46.3494 bohr

     Starting wfcs are  305 atomic wfcs
  @ DRIVER MODE: Message from server: STATUS
  @ DRIVER MODE: Message from server: POSDATA
  @ DRIVER MODE: Reading and sharing cell
  @ DRIVER MODE: Reading and sharing positions
  @ DRIVER MODE: Received positions

     Self-consistent Calculation

     iteration #  1     ecut=    29.40 Ry     beta= 0.05
     Davidson diagonalization with overlap
     c_bands:  5 eigenvalues not converged
     c_bands:  3 eigenvalues not converged
     c_bands:  3 eigenvalues not converged
     c_bands:  1 eigenvalues not converged
     c_bands:  2 eigenvalues not converged
     c_bands:  2 eigenvalues not converged
     c_bands:  5 eigenvalues not converged
     c_bands:  2 eigenvalues not converged
     c_bands:  4 eigenvalues not converged
     ethr =  1.00E-05,  avg # of iterations = 29.3

[...]

     total energy              =   -2358.73716635 Ry
     estimated scf accuracy    <    6971.38982623 Ry

     iteration #  2     ecut=    29.40 Ry     beta= 0.05
     Davidson diagonalization with overlap
     ethr =  1.00E-02,  avg # of iterations = 27.2

[...]

     iteration # 76     ecut=    29.40 Ry     beta= 0.05
     Davidson diagonalization with overlap
     c_bands:  1 eigenvalues not converged
     ethr =  7.98E-11,  avg # of iterations = 13.6

[...]

     total energy              =   -2973.94011675 Ry
     estimated scf accuracy    <       0.00000025 Ry

     iteration # 78     ecut=    29.40 Ry     beta= 0.05
     Davidson diagonalization with overlap
     ethr =  6.26E-11,  avg # of iterations =  5.7

     negative rho (up, down):  1.725E-02 0.000E+00

     Adding external electric field

     Computed dipole along edir(3) :
        Dipole                1.3921 Ry au,          3.5383 Debye
        Dipole field          0.0026 Ry au,

        Potential amp.       -0.2435 Ry
        Total length         46.3494 bohr

     End of self-consistent calculation

          k = 0.0000 0.0000 0.0000 ( 18029 PWs)   bands (ev):

   -55.3247 -55.2906 -55.2152 -55.1923 -55.1722 -55.1607 -55.1455 -55.1235
   -55.1117 -55.1092 -55.1026 -55.0680 -54.9964 -54.8378 -54.3052 -54.2712
   -31.8090 -31.7363 -31.6625 -31.6551 -31.6454 -31.6166 -31.5923 -31.5699
   -31.5263 -31.5052 -31.4771 -31.4691 -31.4611 -31.4465 -31.4308 -31.4265
   -31.4033 -31.3853 -31.3820 -31.3699 -31.3407 -31.3382 -31.3340 -31.3309
   -31.3281 -31.3242 -31.3201 -31.3021 -31.2941 -31.2842 -31.2775 -31.2774
   -31.2667 -31.2654 -31.2571 -31.2534 -31.2444 -31.2193 -31.2152 -31.0940
   -31.0793 -31.0533 -30.7121 -30.6240 -30.6016 -30.5290 -30.4426 -30.3313
   -18.8694 -18.6503 -15.9831 -15.7994 -15.6184 -15.4792 -15.3972 -15.1657
   -15.1070 -15.0686 -14.9874 -14.9652 -14.8642 -14.8456 -14.8442 -14.8256
   -14.8228 -14.7675 -14.7521 -14.7479 -14.6993 -14.6925 -14.6673 -14.6517
   -14.5996 -14.5204 -14.5119 -14.4656 -14.4203 -14.3738 -14.0259 -13.4123
   -12.8059 -12.6894  -8.8011  -7.2694  -6.6134  -4.3199  -3.7854  -3.3656
    -3.2895  -3.2544  -3.2295  -3.0927  -2.9757  -2.8559  -2.7589  -2.6727
    -2.5897  -2.4855  -2.4266  -2.3832  -2.3227  -2.2630  -2.2361  -2.1507
    -2.1313  -2.1114  -2.0899  -2.0628  -2.0331  -1.9952  -1.8736  -1.8635
    -1.7815  -1.7242  -1.6820  -1.6684  -1.6437  -1.6389  -1.6061  -1.5862
    -1.5772  -1.5658  -1.5624  -1.5275  -1.3902  -1.3646  -1.3371  -1.3138
    -1.1682  -1.0310  -0.9423  -0.9397  -0.8301  -0.7658  -0.7623  -0.7239
    -0.7082  -0.6051  -0.5206  -0.4836  -0.4594  -0.3784  -0.3212  -0.2675
    -0.2159  -0.1795  -0.1142  -0.0904  -0.0737  -0.0567   0.0133   0.0750
     0.1361   0.2211   0.2647   0.2890   0.3796   0.3943   0.4175   0.4823
     0.5143   0.5588   0.5944   0.6236   0.6471   0.6776   0.7027   0.7459
     0.7848   0.9098   0.9282   0.9567   0.9779   1.1521   1.2020   1.3061
     1.3347   1.4398   1.4796   1.6576   1.7188   1.7982   1.9107   2.2889
     2.3347   3.7845   3.8958   3.9299   3.9549   3.9943   4.0456   4.2522
     4.3253   4.3664   4.4240

[...]

          k = 0.0380-0.0419 0.0000 ( 17876 PWs)   bands (ev):

[...]

          k =-0.0760-0.0000 0.0000 ( 17886 PWs)   bands (ev):

[...]

          k =-0.0760-0.0839 0.0000 ( 17948 PWs)   bands (ev):

   -55.3079 -55.3073 -55.2057 -55.1889 -55.1810 -55.1492 -55.1353 -55.1286
   -55.1280 -55.1127 -55.0893 -55.0814 -54.9947 -54.8394 -54.2882 -54.2881
   -31.6244 -31.6241 -31.6023 -31.6019 -31.5705 -31.5396 -31.5084 -31.4957
   -31.4878 -31.4726 -31.4541 -31.4488 -31.4449 -31.4354 -31.4304 -31.4282
   -31.4273 -31.4269 -31.4218 -31.4062 -31.3959 -31.3809 -31.3701 -31.3678
   -31.3629 -31.3584 -31.3493 -31.3367 -31.3309 -31.3295 -31.3141 -31.3050
   -31.3018 -31.3010 -31.2993 -31.2966 -31.2659 -31.2377 -31.2239 -31.1502
   -31.0963 -31.0823 -30.6143 -30.6143 -30.5249 -30.5248 -30.4859 -30.4858
   -18.8584 -18.6570 -15.3602 -15.3262 -15.2873 -15.2600 -15.2438 -15.1233
   -15.1096 -15.0739 -15.0324 -15.0192 -14.9889 -14.9602 -14.9113 -14.9030
   -14.8685 -14.8489 -14.8096 -14.7835 -14.7639 -14.7596 -14.7428 -14.7212
   -14.6777 -14.6559 -14.6434 -14.6391 -14.5871 -14.4926 -14.2107 -13.4349
   -12.7913 -12.7911  -8.7969  -7.1948  -6.6144  -4.5276  -3.5713  -2.8447
    -2.6715  -2.6356  -2.5844  -2.4933  -2.4460  -2.3240  -2.3174  -2.2950
    -2.2496  -2.2368  -2.1956  -2.1557  -2.1492  -2.1219  -2.1091  -2.0649
    -2.0530  -2.0504  -2.0357  -1.9999  -1.9967  -1.9760  -1.9515  -1.9480
    -1.9389  -1.9226  -1.8894  -1.8824  -1.8553  -1.8362  -1.6830  -1.6128
    -1.5679  -1.4909  -1.4676  -1.4510  -1.4318  -1.3971  -1.3769  -1.3512
    -1.3226  -1.1764  -1.0321  -1.0017  -0.9761  -0.8779  -0.8631  -0.8434
    -0.7963  -0.7553  -0.7196  -0.6602  -0.6524  -0.6055  -0.5853  -0.4647
    -0.4282  -0.3285  -0.2932  -0.2915  -0.2735  -0.2592  -0.2415  -0.2159
    -0.1664  -0.0952  -0.0798  -0.0314  -0.0072  -0.0045   0.0084   0.1549
     0.2251   0.2458   0.3492   0.3782   0.5529   0.7166   0.7286   0.7966
     0.8595   0.9152   0.9484   0.9883   0.9986   1.0646   1.0893   1.1942
     1.2040   1.2530   1.2589   1.3397   1.3493   2.0825   2.0842   2.1546
     2.1548   4.1482   4.1649   4.1921   4.2555   4.2989   4.3105   4.3479
     4.3516   4.4544   4.4698

     the Fermi energy is     3.8027 ev

!    total energy              =   -2973.94012619 Ry
     estimated scf accuracy    <       0.00000007 Ry
     smearing contrib. (-TS)   =      -0.02071591 Ry
     internal energy E=F+TS    =   -2973.91941029 Ry

     The total energy is F=E-TS. E is the sum of the following terms:
     one-electron contribution =  -24335.75489096 Ry
     hartree contribution      =   12265.53807303 Ry
     xc contribution           =    -494.11790422 Ry
     ewald contribution        =    9590.41165486 Ry
     electric field correction =       0.00365700 Ry

     convergence has been achieved in  78 iterations

     Forces acting on atoms (cartesian axes, Ry/au):

     atom    1 type  1   force =     0.00002070   -0.00009728    0.09508482
     atom    2 type  1   force =     0.00018317   -0.00068160   -0.17562457
     atom    3 type  2   force =     0.00008833   -0.00004971   -0.02295439
     atom    4 type  2   force =     0.00002162   -0.00143186    0.05289202
     atom    5 type  2   force =    -0.01000374   -0.00031398    0.00381027
     atom    6 type  2   force =     0.01112746    0.00020170    0.00206508
     atom    7 type  1   force =    -0.00021217    0.00178016   -0.00589418
     atom    8 type  1   force =     0.00080902    0.01008780    0.01603032
     atom    9 type  2   force =    -0.00015702    0.00086608    0.00034945
     atom   10 type  2   force =    -0.00227003    0.00217333   -0.01800926
     atom   11 type  2   force =     0.00024790   -0.00003293    0.00008409
     atom   12 type  2   force =    -0.00036024   -0.00018888    0.00056212
     atom   13 type  1   force =    -0.00002512    0.00125869    0.00020141
     atom   14 type  1   force =    -0.00012718    0.00016862   -0.00004861
     atom   15 type  2   force =     0.00012007    0.00021153   -0.00008484
     atom   16 type  2   force =    -0.00038386    0.00047436    0.00006688
     atom   17 type  2   force =    -0.00029907   -0.00035591    0.00005660
     atom   18 type  2   force =     0.00007238   -0.00009256    0.00044946
     atom   19 type  1   force =    -0.00056401    0.00023345   -0.00010854
     atom   20 type  1   force =    -0.00025980   -0.00010420    0.00029372
     atom   21 type  2   force =     0.00009042   -0.00008446    0.10316474
     atom   22 type  2   force =     0.00038554   -0.00006862    0.00031576
     atom   23 type  2   force =    -0.07159875   -0.00016658   -0.02757678
     atom   24 type  2   force =     0.07155684    0.00024868   -0.02762574
     atom   25 type  1   force =     0.00023927   -0.00039471    0.09518633
     atom   26 type  1   force =    -0.00004424   -0.00019886   -0.17580815
     atom   27 type  2   force =     0.00012238   -0.00012010   -0.02198504
     atom   28 type  2   force =     0.00001515   -0.00139361    0.05321897
     atom   29 type  2   force =    -0.01034591   -0.00022954    0.00365287
     atom   30 type  2   force =     0.01138421    0.00042336    0.00192212
     atom   31 type  1   force =    -0.00030103    0.00266605   -0.00009764
     atom   32 type  1   force =     0.00067617   -0.01114209    0.01691231
     atom   33 type  2   force =     0.00037144   -0.00027221    0.00000961
     atom   34 type  2   force =    -0.00033532    0.00144548   -0.01893899
     atom   35 type  2   force =    -0.00000076   -0.00034960   -0.00015949
     atom   36 type  2   force =    -0.00001004   -0.00023731    0.00043854
     atom   37 type  1   force =    -0.00005873   -0.00122282    0.00036732
     atom   38 type  1   force =    -0.00039626    0.00083103    0.00002467
     atom   39 type  2   force =     0.00009259    0.00008711    0.00003649
     atom   40 type  2   force =    -0.00049832   -0.00059723   -0.00002017
     atom   41 type  2   force =    -0.00001902    0.00012432    0.00052415
     atom   42 type  2   force =    -0.00001100   -0.00013158   -0.00004541
     atom   43 type  1   force =    -0.00023536   -0.00012580    0.00005045
     atom   44 type  1   force =     0.00005112   -0.00026575    0.00043352
     atom   45 type  2   force =     0.00010069   -0.00010004    0.10318757
     atom   46 type  2   force =    -0.07158647   -0.00016965   -0.02756983
     atom   47 type  2   force =     0.07158838    0.00024422   -0.02758247
     atom   48 type  3   force =     0.00030808   -0.00052363    0.00024014
     atom   49 type  3   force =     0.00003426    0.00008121   -0.00024858
     atom   50 type  4   force =     0.00025506   -0.00029604    0.00053422
     atom   51 type  5   force =    -0.00018541   -0.00047721   -0.00032405
     atom   52 type  5   force =     0.00000210   -0.00101826   -0.00081681
     atom   53 type  5   force =     0.00017433   -0.00039863   -0.00059758
     atom   54 type  2   force =     0.00104259    0.00211955   -0.00103200
     atom   55 type  5   force =     0.00012333   -0.00052815    0.00024318
     atom   56 type  5   force =    -0.00101575   -0.00186532    0.00074390

     Total force =     0.365188     Total SCF correction =     0.000940
  @ DRIVER MODE: Message from server: STATUS
  @ DRIVER MODE: Message from server: GETFORCE
  @ DRIVER MODE: Returning v,forces,stress,ensemble

     Writing output data file ./calc.save/
  @ DRIVER MODE: Message from server: EXIT
  @ DRIVE MODE: Exiting

     General routines

     Parallel routines

   This run was terminated on:   6:35:36  23Sep2021

   JOB DONE.