     Program PWSCF v.6.7GPU starts on  2Aug2021 at 17:10:20

     R & G space division:  proc/nbgrp/npool/nimage =      16
     Reading input from /storage/home/hcoda1/3/ntian30/research/carbon/02Aug_vib_paired/ads_slab/CH3NNHHH_a/out_0018/pw.inp
Warning: card &CELL ignored
Warning: card   CELL_DYNAMICS='IPI', ignored
Warning: card / ignored

     Current dimensions of program PWSCF are:
     Max number of different atomic species (ntypx) = 10
     Max number of k-points (npk) =  40000
     Max angular momentum in pseudopotentials (lmaxx) =  3
     Presently no symmetry can be used with electric field

     Message from routine cell_base_init:
     DEPRECATED: use true lattice parameter, not A to a.u. conversion factor

     IMPORTANT: XC functional enforced from input :
     Exchange-correlation= BEEF-VDW
                           (   1   4  43  14   2   0   0)
     Any further DFT definition will be discarded
     Please, verify this is what you really want

  @ DRIVER MODE: Connecting to
 qe_1139763_2482545.sched-torque.pace.gatech.eduh0v8vkl1_scratch
  using UNIX socket
  @ DRIVER MODE: Message from server: STATUS
  @ DRIVER MODE: Message from server: INIT
  @ DRIVER MODE: Receiving replica           0          -1
  @ DRIVER MODE: Receiving encoded integer          25
  @ DRIVER MODE:  SCF:  T  FORCE:  T  STRESS:  F  VC:  F  ENSEMBLE:  F
  @ DRIVER MODE:  SCF:  T  FORCE:  T  STRESS:  F  VC:  F  ENSEMBLE:  F

     Using Slab Decomposition

     bravais-lattice index     =            0
     lattice parameter (alat)  =       1.8897  a.u.
     unit-cell volume          =    6658.9804 (a.u.)^3
     number of atoms/cell      =           56
     number of atomic types    =            5
     number of electrons       =       398.00
     number of Kohn-Sham states=          209
     kinetic-energy cutoff     =      29.3995  Ry
     charge density cutoff     =     293.9946  Ry
     scf convergence threshold =      7.3E-08
     mixing beta               =       0.0500
     number of iterations used =            8  plain     mixing
     Exchange-correlation= BEEF-VDW
                           (   1   4  43  14   2   0   0)

     celldm(1)=   1.889726  celldm(2)=   0.000000  celldm(3)=   0.000000
     celldm(4)=   0.000000  celldm(5)=   0.000000  celldm(6)=   0.000000

     crystal axes: (cart. coord. in units of alat)
               a(1) = (   6.579727   0.000000   0.000000 )
               a(2) = (  -0.000775   5.961596   0.000000 )
               a(3) = (   0.000000   0.000000  25.155947 )

     reciprocal axes: (cart. coord. in units 2 pi/alat)
               b(1) = (  0.151982  0.000020  0.000000 )
               b(2) = (  0.000000  0.167740  0.000000 )
               b(3) = (  0.000000  0.000000  0.039752 )

     PseudoPot. # 1 for Ti read from file:
     /storage/coda1/p-amedford6/0/shared/rich_project_chbe-medford/medford-share/data/pseudos_module/espresso/nninc/pbe/van/Ti.UPF
     MD5 check sum: 8e4df49b7f0d34bbd5052bf3f5ea0213
     Pseudo is Ultrasoft, Zval = 12.0
     Generated by new atomic code, or converted to UPF format
     Using radial grid of  851 points,  6 beta functions with:
                l(1) =   0
                l(2) =   0
                l(3) =   1
                l(4) =   1
                l(5) =   2
                l(6) =   2
     Q(r) pseudized with  8 coefficients,  rinner =    1.000   1.000   1.000
                                                       1.000   1.000

     PseudoPot. # 2 for O  read from file:
     /storage/coda1/p-amedford6/0/shared/rich_project_chbe-medford/medford-share/data/pseudos_module/espresso/nninc/pbe/van/O.UPF
     MD5 check sum: 78c19812648e8988a0fe644b0f25305e
     Pseudo is Ultrasoft, Zval =  6.0
     Generated by new atomic code, or converted to UPF format
     Using radial grid of  737 points,  4 beta functions with:
                l(1) =   0
                l(2) =   0
                l(3) =   1
                l(4) =   1
     Q(r) pseudized with  8 coefficients,  rinner =    0.800   0.800   0.800

     PseudoPot. # 3 for N  read from file:
     /storage/coda1/p-amedford6/0/shared/rich_project_chbe-medford/medford-share/data/pseudos_module/espresso/nninc/pbe/van/N.UPF
     MD5 check sum: 90d10febe142ad51ac9d5be1deb811c4
     Pseudo is Ultrasoft, Zval =  5.0
     Generated by new atomic code, or converted to UPF format
     Using radial grid of  729 points,  4 beta functions with:
                l(1) =   0
                l(2) =   0
                l(3) =   1
                l(4) =   1
     Q(r) pseudized with  8 coefficients,  rinner =    0.800   0.800   0.800

     PseudoPot. # 4 for C  read from file:
     /storage/coda1/p-amedford6/0/shared/rich_project_chbe-medford/medford-share/data/pseudos_module/espresso/nninc/pbe/van/C.UPF
     MD5 check sum: 1a69bf6b8db32088f5b2163dbdb77a27
     Pseudo is Ultrasoft, Zval =  4.0
     Generated by new atomic code, or converted to UPF format
     Using radial grid of  721 points,  4 beta functions with:
                l(1) =   0
                l(2) =   0
                l(3) =   1
                l(4) =   1
     Q(r) pseudized with  8 coefficients,  rinner =    0.800   0.800   0.800

     PseudoPot. # 5 for H  read from file:
     /storage/coda1/p-amedford6/0/shared/rich_project_chbe-medford/medford-share/data/pseudos_module/espresso/nninc/pbe/van/H.UPF
     MD5 check sum: b5ee9d7bfd3a09ee7748110bda690ff7
     Pseudo is Ultrasoft, Zval =  1.0
     Generated by new atomic code, or converted to UPF format
     Using radial grid of  615 points,  1 beta functions with:
                l(1) =   0
     Q(r) pseudized with  8 coefficients,  rinner =    0.800

     atomic species   valence    mass     pseudopotential
        Ti1           12.00    47.86700     Ti( 1.00)
        O1             6.00    15.99900     O ( 1.00)
        N1             5.00    14.00700     N ( 1.00)
        C1             4.00    12.01100     C ( 1.00)
        H1             1.00     1.00800     H ( 1.00)

     No symmetry found

   Cartesian axes

     site n.     atom                  positions (alat units)
         1           Ti1 tau(   1) = (   0.0004258   2.9801865   6.0000000  )
         2           Ti1 tau(   2) = (   3.2906075   1.4906267   6.0002472  )
         3           O1  tau(   3) = (   0.0006271   0.0005054   7.9858123  )
         4           O1  tau(   4) = (   3.2906025   0.0005020   7.3038282  )
         5           O1  tau(   5) = (   4.5942328   1.4918067   9.2879030  )
         6           O1  tau(   6) = (   1.9868534   1.4903216   9.2879459  )
         7           Ti1 tau(   7) = (   3.2907910   2.8959150   9.1758416  )
         8           Ti1 tau(   8) = (   0.0015273   1.4827037   9.2680791  )
         9           O1  tau(   9) = (   3.2969863   5.9453513  11.3493076  )
        10           O1  tau(  10) = (   0.0116148   5.9584955  10.6183126  )
        11           O1  tau(  11) = (   1.3059050   1.4736943  12.6642453  )
        12           O1  tau(  12) = (   5.3003793   1.4775083  12.6459419  )
        13           Ti1 tau(  13) = (   0.0167275   2.9625105  12.5508078  )
        14           Ti1 tau(  14) = (   3.3131340   1.4712512  12.4909780  )
        15           O1  tau(  15) = (   6.5517612   5.9325698  14.7566896  )
        16           O1  tau(  16) = (   3.3302114   5.9429442  13.9823395  )
        17           O1  tau(  17) = (   4.5243935   1.5056208  16.2316672  )
        18           O1  tau(  18) = (   2.0170937   1.4633510  16.1378485  )
        19           Ti1 tau(  19) = (   3.2500237   2.9242626  15.6920970  )
        20           Ti1 tau(  20) = (   6.5441017   1.2779805  16.1516014  )
        21           O1  tau(  21) = (   3.2904802   0.0005063   4.7018136  )
        22           O1  tau(  22) = (   6.5540411   5.9581837  17.3465722  )
        23           O1  tau(  23) = (   1.3043587   1.4918075   6.0039043  )
        24           O1  tau(  24) = (   5.2767064   1.4903225   6.0039473  )
        25           Ti1 tau(  25) = (   0.0000382   5.9609847   6.0000000  )
        26           Ti1 tau(  26) = (   3.2902200   4.4714249   6.0002472  )
        27           O1  tau(  27) = (   0.0002396   2.9813036   7.9858123  )
        28           O1  tau(  28) = (   3.2902150   2.9813002   7.3038282  )
        29           O1  tau(  29) = (   4.5938453   4.4726049   9.2879030  )
        30           O1  tau(  30) = (   1.9864658   4.4711199   9.2879459  )
        31           Ti1 tau(  31) = (   3.2891106   5.8743827   9.1763621  )
        32           Ti1 tau(  32) = (   0.0006254   4.4649316   9.2693709  )
        33           O1  tau(  33) = (   3.2962403   2.9651072  11.3429128  )
        34           O1  tau(  34) = (   0.0092240   2.9805883  10.6323155  )
        35           O1  tau(  35) = (   1.3076126   4.4641214  12.6643835  )
        36           O1  tau(  36) = (   5.2981430   4.4591552  12.6429889  )
        37           Ti1 tau(  37) = (   0.0194730   5.9489450  12.5196332  )
        38           Ti1 tau(  38) = (   3.3150505   4.4522436  12.4946186  )
        39           O1  tau(  39) = (   6.5702761   2.9869041  14.8038460  )
        40           O1  tau(  40) = (   3.3119818   2.9576719  13.9204832  )
        41           O1  tau(  41) = (   4.5223198   4.3950437  16.2490866  )
        42           O1  tau(  42) = (   2.0356696   4.4339808  16.1311045  )
        43           Ti1 tau(  43) = (   3.3057863   5.9493229  15.7677403  )
        44           Ti1 tau(  44) = (   0.0958844   4.4293496  15.8701971  )
        45           O1  tau(  45) = (   3.2900926   2.9813045   4.7018136  )
        46           O1  tau(  46) = (   1.3039711   4.4726057   6.0039043  )
        47           O1  tau(  47) = (   5.2763189   4.4711207   6.0039473  )
        48           N1  tau(  48) = (   0.0620580   3.0375546  17.6897758  )
        49           C1  tau(  49) = (   1.1116374   2.9693208  18.6984743  )
        50           H1  tau(  50) = (   1.2951007   3.9532040  19.1683453  )
        51           H1  tau(  51) = (   0.8627774   2.2426413  19.4871689  )
        52           H1  tau(  52) = (   2.0263963   2.6228967  18.2308865  )
        53           N1  tau(  53) = (   5.4279256   3.3744730  18.4033390  )
        54           H1  tau(  54) = (   5.6103604   4.1199394  19.0852601  )
        55           H1  tau(  55) = (   4.7934260   3.8076565  17.6395878  )
        56           H1  tau(  56) = (   5.0090149   2.5598412  18.8678436  )

     number of k points=    10  Fermi-Dirac smearing, width (Ry)=  0.0073
                       cart. coord. in units 2pi/alat
        k(    1) = (   0.0000000   0.0000000   0.0000000), wk =   0.1250000
        k(    2) = (   0.0000000   0.0419351   0.0000000), wk =   0.2500000
        k(    3) = (   0.0000000  -0.0838702   0.0000000), wk =   0.1250000
        k(    4) = (   0.0379955   0.0000049   0.0000000), wk =   0.2500000
        k(    5) = (   0.0379955   0.0419400   0.0000000), wk =   0.2500000
        k(    6) = (   0.0379955  -0.0838652   0.0000000), wk =   0.2500000
        k(    7) = (   0.0379955  -0.0419301   0.0000000), wk =   0.2500000
        k(    8) = (  -0.0759910  -0.0000099   0.0000000), wk =   0.1250000
        k(    9) = (  -0.0759910   0.0419252   0.0000000), wk =   0.2500000
        k(   10) = (  -0.0759910  -0.0838800   0.0000000), wk =   0.1250000

     Initial potential from superposition of free atoms

     starting charge  381.99914, renormalised to  398.00000

     negative rho (up, down):  1.616E-02 0.000E+00

     %%%%%%%%%%%%%%%%%%%%%%%%%%%%%%%%%%%%%%%%%%%%%%%%%%%%%%%%%%%%%%%%%%%%%%%%
     %                                                                      %
     % You are using vdW-DF, which was implemented by the Thonhauser group. %
     % Please cite the following two papers that made this development      %
     % possible and the two reviews that describe the various versions:     %
     %                                                                      %
     %   T. Thonhauser et al., PRL 115, 136402 (2015).                      %
     %   T. Thonhauser et al., PRB 76, 125112 (2007).                       %
     %   K. Berland et al., Rep. Prog. Phys. 78, 066501 (2015).             %
     %   D.C. Langreth et al., J. Phys.: Condens. Matter 21, 084203 (2009). %
     %                                                                      %
     %                                                                      %
     % If you are calculating the stress with vdW-DF, please also cite:     %
     %                                                                      %
     %   R. Sabatini et al., J. Phys.: Condens. Matter 24, 424209 (2012).   %
     %                                                                      %
     %%%%%%%%%%%%%%%%%%%%%%%%%%%%%%%%%%%%%%%%%%%%%%%%%%%%%%%%%%%%%%%%%%%%%%%%

     Adding external electric field

     Computed dipole along edir(3) :
        Dipole              -10.5737 Ry au,        -26.8756 Debye
        Dipole field         -0.0200 Ry au,

        Potential amp.        1.8497 Ry
        Total length         46.3494 bohr

     Starting wfcs are  302 atomic wfcs
  @ DRIVER MODE: Message from server: STATUS
  @ DRIVER MODE: Message from server: POSDATA
  @ DRIVER MODE: Reading and sharing cell
  @ DRIVER MODE: Reading and sharing positions
  @ DRIVER MODE: Received positions

     Self-consistent Calculation

     iteration #  1     ecut=    29.40 Ry     beta= 0.05
     Davidson diagonalization with overlap
     c_bands:  3 eigenvalues not converged
     c_bands:  3 eigenvalues not converged
     c_bands:  1 eigenvalues not converged
     c_bands:  5 eigenvalues not converged
     c_bands:  5 eigenvalues not converged
     c_bands:  5 eigenvalues not converged
     c_bands:  1 eigenvalues not converged
     c_bands:  4 eigenvalues not converged
     c_bands:  3 eigenvalues not converged
     ethr =  1.00E-05,  avg # of iterations = 20.0

[...]

     total energy              =   -2442.75354700 Ry
     estimated scf accuracy    <    5591.61369272 Ry

     iteration #  2     ecut=    29.40 Ry     beta= 0.05
     Davidson diagonalization with overlap
     ethr =  1.00E-02,  avg # of iterations = 24.8

[...]

     iteration # 86     ecut=    29.40 Ry     beta= 0.05
     Davidson diagonalization with overlap
     c_bands:  2 eigenvalues not converged
     ethr =  8.56E-11,  avg # of iterations = 12.0

[...]

     total energy              =   -2942.82508790 Ry
     estimated scf accuracy    <       0.00000018 Ry

     iteration # 88     ecut=    29.40 Ry     beta= 0.05
     Davidson diagonalization with overlap
     ethr =  4.52E-11,  avg # of iterations =  9.0

     negative rho (up, down):  1.412E-02 0.000E+00

     Adding external electric field

     Computed dipole along edir(3) :
        Dipole                1.6012 Ry au,          4.0697 Debye
        Dipole field          0.0030 Ry au,

        Potential amp.       -0.2801 Ry
        Total length         46.3494 bohr

     End of self-consistent calculation

          k = 0.0000 0.0000 0.0000 ( 18029 PWs)   bands (ev):

   -55.1451 -55.1085 -55.1061 -55.0720 -55.0273 -55.0121 -54.9892 -54.9463
   -54.9339 -54.9255 -54.9111 -54.9010 -54.8653 -54.7939 -54.1180 -54.0839
   -31.7250 -31.5957 -31.5136 -31.4818 -31.4371 -31.4362 -31.4339 -31.4037
   -31.3997 -31.3960 -31.3695 -31.3547 -31.3510 -31.3227 -31.3049 -31.2797
   -31.2629 -31.2590 -31.2487 -31.2435 -31.2173 -31.2114 -31.2045 -31.1777
   -31.1631 -31.1565 -31.1493 -31.1419 -31.1418 -31.1306 -31.1285 -31.1222
   -31.1053 -31.0964 -31.0906 -31.0644 -31.0616 -31.0495 -31.0427 -31.0366
   -31.0256 -30.9835 -30.5264 -30.4346 -30.4124 -30.3431 -30.2564 -30.1453
   -18.9363 -16.0086 -15.7534 -15.6185 -15.3840 -15.3320 -15.2756 -15.0681
   -15.0665 -14.9941 -14.9794 -14.9313 -14.9118 -14.8446 -14.7600 -14.7388
   -14.6713 -14.6696 -14.6398 -14.6285 -14.6278 -14.5651 -14.5552 -14.5258
   -14.5128 -14.4875 -14.3695 -14.2851 -14.2266 -13.9736 -13.5932 -12.6206
   -12.5035  -9.7420  -7.7181  -7.2126  -5.4626  -3.7860  -3.3462  -3.2775
    -3.1704  -3.1424  -3.0655  -3.0359  -2.8512  -2.8299  -2.4886  -2.4522
    -2.4025  -2.3843  -2.3634  -2.3456  -2.1771  -2.1516  -2.0787  -2.0450
    -2.0267  -1.9866  -1.9704  -1.9600  -1.9263  -1.9207  -1.9115  -1.7043
    -1.6479  -1.5528  -1.5306  -1.5068  -1.4714  -1.4350  -1.4267  -1.4238
    -1.4178  -1.4042  -1.3913  -1.3114  -1.2514  -1.1721  -1.1624  -1.1271
    -1.0233  -0.9768  -0.7752  -0.7615  -0.7163  -0.6741  -0.6114  -0.5898
    -0.5234  -0.4928  -0.4727  -0.3515  -0.3228  -0.2827  -0.2547  -0.1878
    -0.1565  -0.1122  -0.0272   0.0439   0.0786   0.0971   0.1568   0.2870
     0.2979   0.3270   0.3883   0.4516   0.4927   0.5128   0.5313   0.5683
     0.6174   0.7431   0.7880   0.8076   0.8118   0.8459   0.8692   0.9203
     0.9450   1.0045   1.0100   1.1293   1.1984   1.4281   1.4617   1.4845
     1.8168   1.8402   1.9046   2.0905   2.4787   2.5259   3.9597   4.0203
     4.0772   4.0940   4.1129   4.2016   4.2198   4.4224   4.4497   4.4537
     4.4566

[...]

          k = 0.0380-0.0419 0.0000 ( 17876 PWs)   bands (ev):

[...]

          k =-0.0760-0.0000 0.0000 ( 17886 PWs)   bands (ev):

[...]

          k =-0.0760-0.0839 0.0000 ( 17948 PWs)   bands (ev):

   -55.1295 -55.1238 -55.0890 -55.0889 -55.0166 -55.0086 -54.9998 -54.9301
   -54.9289 -54.9261 -54.9186 -54.9172 -54.8616 -54.7976 -54.1010 -54.1008
   -31.5286 -31.5258 -31.4487 -31.4269 -31.4109 -31.4108 -31.3815 -31.3814
   -31.3558 -31.3504 -31.3474 -31.3467 -31.3119 -31.2777 -31.2713 -31.2669
   -31.2654 -31.2614 -31.2595 -31.2532 -31.2220 -31.2184 -31.2159 -31.2131
   -31.2084 -31.2084 -31.1946 -31.1925 -31.1648 -31.1602 -31.1447 -31.1407
   -31.1384 -31.1378 -31.1360 -31.1280 -31.1032 -31.0996 -31.0969 -31.0737
   -31.0483 -31.0309 -30.4251 -30.4250 -30.3391 -30.3389 -30.2998 -30.2998
   -18.9314 -15.5155 -15.4057 -15.2971 -15.2317 -15.1898 -15.1380 -15.1207
   -15.1105 -15.0646 -15.0350 -14.9660 -14.9021 -14.8492 -14.8482 -14.8134
   -14.7352 -14.7214 -14.7143 -14.7037 -14.6472 -14.6405 -14.6090 -14.5880
   -14.5850 -14.5552 -14.4813 -14.4788 -14.3915 -14.1816 -13.6289 -12.6051
   -12.6050  -9.7112  -7.7148  -7.1586  -5.4655  -3.8078  -3.4318  -2.7644
    -2.6534  -2.4426  -2.4167  -2.3569  -2.3370  -2.2530  -2.1903  -2.1688
    -2.1456  -2.1116  -2.1087  -2.0846  -2.0629  -2.0091  -1.9804  -1.9691
    -1.9632  -1.9483  -1.9358  -1.9154  -1.8590  -1.8489  -1.8417  -1.7992
    -1.7881  -1.7564  -1.7501  -1.7112  -1.6943  -1.6186  -1.5258  -1.5012
    -1.4419  -1.3404  -1.3272  -1.3215  -1.2281  -1.2197  -1.1902  -1.1594
    -1.1040  -1.0044  -0.9495  -0.8744  -0.8711  -0.8408  -0.7533  -0.6902
    -0.6563  -0.6463  -0.6066  -0.5497  -0.5269  -0.4939  -0.4107  -0.3695
    -0.3422  -0.3084  -0.2129  -0.1521  -0.1287  -0.0975  -0.0941  -0.0049
     0.0282   0.0651   0.0858   0.1241   0.1506   0.2171   0.2380   0.3481
     0.4185   0.4487   0.5674   0.5912   0.6555   0.7876   0.8588   0.8999
     0.9539   1.0106   1.0375   1.1677   1.1750   1.2002   1.2934   1.3337
     1.3407   1.3537   2.2633   2.2644   2.3459   2.3461   4.0917   4.1785
     4.2217   4.2592   4.3669   4.4762   4.4948   4.5376   4.5382   4.6152
     4.6197

     the Fermi energy is     4.0120 ev

!    total energy              =   -2942.82509437 Ry
     estimated scf accuracy    <       0.00000007 Ry
     smearing contrib. (-TS)   =      -0.03687074 Ry
     internal energy E=F+TS    =   -2942.78822363 Ry

     The total energy is F=E-TS. E is the sum of the following terms:
     one-electron contribution =  -23971.57701048 Ry
     hartree contribution      =   12081.26700898 Ry
     xc contribution           =    -487.76827889 Ry
     ewald contribution        =    9435.28521876 Ry
     electric field correction =       0.00483801 Ry

     convergence has been achieved in  88 iterations

     Forces acting on atoms (cartesian axes, Ry/au):

     atom    1 type  1   force =     0.00014884   -0.00023676    0.09426342
     atom    2 type  1   force =    -0.00009237   -0.00033120   -0.17741114
     atom    3 type  2   force =     0.00005741   -0.00016634   -0.02134542
     atom    4 type  2   force =    -0.00001524   -0.00172556    0.05657766
     atom    5 type  2   force =    -0.01054195   -0.00127453    0.00623256
     atom    6 type  2   force =     0.01220692   -0.00074147    0.00570440
     atom    7 type  1   force =    -0.00033804    0.00171797   -0.01624117
     atom    8 type  1   force =    -0.00010681    0.00438250    0.00559393
     atom    9 type  2   force =     0.00000615   -0.00003795   -0.00004425
     atom   10 type  2   force =    -0.00074385   -0.00022207   -0.00046395
     atom   11 type  2   force =     0.00034180    0.00012559   -0.00021420
     atom   12 type  2   force =    -0.00052073    0.00000514   -0.00014832
     atom   13 type  1   force =     0.00003355   -0.00033814    0.00019716
     atom   14 type  1   force =     0.00056882    0.00011925   -0.00030210
     atom   15 type  2   force =    -0.00040209    0.00026872   -0.00025481
     atom   16 type  2   force =    -0.00033417    0.00019940   -0.00009721
     atom   17 type  2   force =    -0.00025537    0.00007009    0.00034110
     atom   18 type  2   force =     0.00020234    0.00031638   -0.00016163
     atom   19 type  1   force =     0.00016817    0.00012912    0.00019170
     atom   20 type  1   force =     0.00011944    0.00030985   -0.00014401
     atom   21 type  2   force =     0.00003514    0.00003924    0.10362070
     atom   22 type  2   force =    -0.00006552   -0.00067671   -0.00063951
     atom   23 type  2   force =    -0.07082358   -0.00010081   -0.02718657
     atom   24 type  2   force =     0.07068678    0.00033898   -0.02721662
     atom   25 type  1   force =    -0.00009436   -0.00020886    0.09374124
     atom   26 type  1   force =    -0.00013547   -0.00031106   -0.17731861
     atom   27 type  2   force =     0.00008880   -0.00034895   -0.02045155
     atom   28 type  2   force =     0.00003140   -0.00143994    0.05588956
     atom   29 type  2   force =    -0.01090170   -0.00073551    0.00608117
     atom   30 type  2   force =     0.01245306   -0.00029426    0.00555981
     atom   31 type  1   force =    -0.00015934    0.00464836   -0.01721225
     atom   32 type  1   force =    -0.00002967   -0.00482612    0.00559245
     atom   33 type  2   force =     0.00005766    0.00011967    0.00026335
     atom   34 type  2   force =     0.00005838   -0.00084753   -0.00298556
     atom   35 type  2   force =     0.00022938    0.00002923    0.00005470
     atom   36 type  2   force =    -0.00042827    0.00015343   -0.00008732
     atom   37 type  1   force =    -0.00012791   -0.00011510   -0.00009265
     atom   38 type  1   force =     0.00043929   -0.00028990    0.00039975
     atom   39 type  2   force =    -0.00045610    0.00010785    0.00065046
     atom   40 type  2   force =    -0.00011968    0.00018791   -0.00024926
     atom   41 type  2   force =    -0.00000061    0.00035055    0.00002208
     atom   42 type  2   force =    -0.00000031    0.00023579   -0.00017021
     atom   43 type  1   force =    -0.00041874    0.00051327    0.00018109
     atom   44 type  1   force =    -0.00018123    0.00037186   -0.00000371
     atom   45 type  2   force =     0.00002508    0.00000900    0.10364040
     atom   46 type  2   force =    -0.07082845   -0.00003649   -0.02718534
     atom   47 type  2   force =     0.07069161    0.00037746   -0.02718970
     atom   48 type  3   force =     0.00078850    0.00001941    0.00080854
     atom   49 type  4   force =     0.00001998    0.00300123    0.00244155
     atom   50 type  5   force =    -0.00071803   -0.00340106   -0.00338231
     atom   51 type  5   force =    -0.00036544   -0.00099100   -0.00034759
     atom   52 type  5   force =    -0.00024985    0.00045508    0.00033205
     atom   53 type  3   force =     0.00015707    0.00083875    0.00105731
     atom   54 type  5   force =     0.00016152    0.00005826   -0.00018137
     atom   55 type  5   force =    -0.00002467    0.00005640   -0.00056979
     atom   56 type  5   force =    -0.00029751    0.00014159   -0.00014002

     Total force =     0.365627     Total SCF correction =     0.000729
  @ DRIVER MODE: Message from server: STATUS
  @ DRIVER MODE: Message from server: GETFORCE
  @ DRIVER MODE: Returning v,forces,stress,ensemble

     Writing output data file ./calc.save/
  @ DRIVER MODE: Message from server: EXIT
  @ DRIVE MODE: Exiting

     General routines

     Parallel routines

   This run was terminated on:  17:29: 9   2Aug2021

   JOB DONE.