     Program PWSCF v.6.7GPU starts on  8Sep2021 at 22: 6:55

     R & G space division:  proc/nbgrp/npool/nimage =      10
     Reading input from /storage/home/hcoda1/3/ntian30/research/carbon/CxH_vib/CH_calc/ads_slab/CHNNHH_a/out_0001/pw.inp
Warning: card &CELL ignored
Warning: card   CELL_DYNAMICS='IPI', ignored
Warning: card / ignored

     Current dimensions of program PWSCF are:
     Max number of different atomic species (ntypx) = 10
     Max number of k-points (npk) =  40000
     Max angular momentum in pseudopotentials (lmaxx) =  3
     Presently no symmetry can be used with electric field

     Message from routine cell_base_init:
     DEPRECATED: use true lattice parameter, not A to a.u. conversion factor

     IMPORTANT: XC functional enforced from input :
     Exchange-correlation= BEEF-VDW
                           (   1   4  43  14   2   0   0)
     Any further DFT definition will be discarded
     Please, verify this is what you really want

  @ DRIVER MODE: Connecting to
 qe_1139763_2767382.sched-torque.pace.gatech.edug8pncfeo_scratch
  using UNIX socket
  @ DRIVER MODE: Message from server: STATUS
  @ DRIVER MODE: Message from server: INIT
  @ DRIVER MODE: Receiving replica           0          -1
  @ DRIVER MODE: Receiving encoded integer          25
  @ DRIVER MODE:  SCF:  T  FORCE:  T  STRESS:  F  VC:  F  ENSEMBLE:  F
  @ DRIVER MODE:  SCF:  T  FORCE:  T  STRESS:  F  VC:  F  ENSEMBLE:  F

     Using Slab Decomposition

     bravais-lattice index     =            0
     lattice parameter (alat)  =       1.8897  a.u.
     unit-cell volume          =    6658.9804 (a.u.)^3
     number of atoms/cell      =           53
     number of atomic types    =            5
     number of electrons       =       395.00
     number of Kohn-Sham states=          207
     kinetic-energy cutoff     =      29.3995  Ry
     charge density cutoff     =     293.9946  Ry
     scf convergence threshold =      7.3E-08
     mixing beta               =       0.0500
     number of iterations used =            8  plain     mixing
     Exchange-correlation= BEEF-VDW
                           (   1   4  43  14   2   0   0)

     celldm(1)=   1.889726  celldm(2)=   0.000000  celldm(3)=   0.000000
     celldm(4)=   0.000000  celldm(5)=   0.000000  celldm(6)=   0.000000

     crystal axes: (cart. coord. in units of alat)
               a(1) = (   6.579727   0.000000   0.000000 )
               a(2) = (  -0.000775   5.961596   0.000000 )
               a(3) = (   0.000000   0.000000  25.155947 )

     reciprocal axes: (cart. coord. in units 2 pi/alat)
               b(1) = (  0.151982  0.000020  0.000000 )
               b(2) = (  0.000000  0.167740  0.000000 )
               b(3) = (  0.000000  0.000000  0.039752 )

     PseudoPot. # 1 for Ti read from file:
     /storage/coda1/p-amedford6/0/shared/rich_project_chbe-medford/medford-share/data/pseudos_module/espresso/nninc/pbe/van/Ti.UPF
     MD5 check sum: 8e4df49b7f0d34bbd5052bf3f5ea0213
     Pseudo is Ultrasoft, Zval = 12.0
     Generated by new atomic code, or converted to UPF format
     Using radial grid of  851 points,  6 beta functions with:
                l(1) =   0
                l(2) =   0
                l(3) =   1
                l(4) =   1
                l(5) =   2
                l(6) =   2
     Q(r) pseudized with  8 coefficients,  rinner =    1.000   1.000   1.000
                                                       1.000   1.000

     PseudoPot. # 2 for O  read from file:
     /storage/coda1/p-amedford6/0/shared/rich_project_chbe-medford/medford-share/data/pseudos_module/espresso/nninc/pbe/van/O.UPF
     MD5 check sum: 78c19812648e8988a0fe644b0f25305e
     Pseudo is Ultrasoft, Zval =  6.0
     Generated by new atomic code, or converted to UPF format
     Using radial grid of  737 points,  4 beta functions with:
                l(1) =   0
                l(2) =   0
                l(3) =   1
                l(4) =   1
     Q(r) pseudized with  8 coefficients,  rinner =    0.800   0.800   0.800

     PseudoPot. # 3 for N  read from file:
     /storage/coda1/p-amedford6/0/shared/rich_project_chbe-medford/medford-share/data/pseudos_module/espresso/nninc/pbe/van/N.UPF
     MD5 check sum: 90d10febe142ad51ac9d5be1deb811c4
     Pseudo is Ultrasoft, Zval =  5.0
     Generated by new atomic code, or converted to UPF format
     Using radial grid of  729 points,  4 beta functions with:
                l(1) =   0
                l(2) =   0
                l(3) =   1
                l(4) =   1
     Q(r) pseudized with  8 coefficients,  rinner =    0.800   0.800   0.800

     PseudoPot. # 4 for C  read from file:
     /storage/coda1/p-amedford6/0/shared/rich_project_chbe-medford/medford-share/data/pseudos_module/espresso/nninc/pbe/van/C.UPF
     MD5 check sum: 1a69bf6b8db32088f5b2163dbdb77a27
     Pseudo is Ultrasoft, Zval =  4.0
     Generated by new atomic code, or converted to UPF format
     Using radial grid of  721 points,  4 beta functions with:
                l(1) =   0
                l(2) =   0
                l(3) =   1
                l(4) =   1
     Q(r) pseudized with  8 coefficients,  rinner =    0.800   0.800   0.800

     PseudoPot. # 5 for H  read from file:
     /storage/coda1/p-amedford6/0/shared/rich_project_chbe-medford/medford-share/data/pseudos_module/espresso/nninc/pbe/van/H.UPF
     MD5 check sum: b5ee9d7bfd3a09ee7748110bda690ff7
     Pseudo is Ultrasoft, Zval =  1.0
     Generated by new atomic code, or converted to UPF format
     Using radial grid of  615 points,  1 beta functions with:
                l(1) =   0
     Q(r) pseudized with  8 coefficients,  rinner =    0.800

     atomic species   valence    mass     pseudopotential
        Ti1           12.00    47.86700     Ti( 1.00)
        O1             6.00    15.99900     O ( 1.00)
        N1             5.00    14.00700     N ( 1.00)
        C1             4.00    12.01100     C ( 1.00)
        H1             1.00     1.00800     H ( 1.00)

     No symmetry found

   Cartesian axes

     site n.     atom                  positions (alat units)
         1           Ti1 tau(   1) = (   0.0004258   2.9801865   6.0000000  )
         2           Ti1 tau(   2) = (   3.2906075   1.4906267   6.0002472  )
         3           O1  tau(   3) = (   0.0006271   0.0005054   7.9858123  )
         4           O1  tau(   4) = (   3.2906025   0.0005020   7.3038282  )
         5           O1  tau(   5) = (   4.5942328   1.4918067   9.2879030  )
         6           O1  tau(   6) = (   1.9868534   1.4903216   9.2879459  )
         7           Ti1 tau(   7) = (   3.2907910   2.8959150   9.1758416  )
         8           Ti1 tau(   8) = (   0.0015273   1.4827037   9.2680791  )
         9           O1  tau(   9) = (   3.2912281   5.9459940  11.3193265  )
        10           O1  tau(  10) = (   0.0116148   5.9584955  10.6183126  )
        11           O1  tau(  11) = (   1.3103257   1.4650607  12.6442557  )
        12           O1  tau(  12) = (   5.3047449   1.4806448  12.6312737  )
        13           Ti1 tau(  13) = (   6.5337005   3.0128982  12.6900614  )
        14           Ti1 tau(  14) = (   3.2207025   1.4698770  12.4715817  )
        15           O1  tau(  15) = (   6.5518216   5.9146589  14.6704082  )
        16           O1  tau(  16) = (   3.3240203   5.9583723  13.8895330  )
        17           O1  tau(  17) = (   4.5456974   1.5225049  16.1264218  )
        18           O1  tau(  18) = (   2.0489736   1.4727210  15.9535721  )
        19           Ti1 tau(  19) = (   3.2591190   2.9927146  15.6788090  )
        20           Ti1 tau(  20) = (   0.0289511   1.3544711  15.7732889  )
        21           O1  tau(  21) = (   3.2904802   0.0005063   4.7018136  )
        22           O1  tau(  22) = (   0.0559926   0.0451390  17.2112278  )
        23           O1  tau(  23) = (   1.3043587   1.4918075   6.0039043  )
        24           O1  tau(  24) = (   5.2767064   1.4903225   6.0039473  )
        25           Ti1 tau(  25) = (   0.0000382   5.9609847   6.0000000  )
        26           Ti1 tau(  26) = (   3.2902200   4.4714249   6.0002472  )
        27           O1  tau(  27) = (   0.0002396   2.9813036   7.9858123  )
        28           O1  tau(  28) = (   3.2902150   2.9813002   7.3038282  )
        29           O1  tau(  29) = (   4.5938453   4.4726049   9.2879030  )
        30           O1  tau(  30) = (   1.9864658   4.4711199   9.2879459  )
        31           Ti1 tau(  31) = (   3.2891106   5.8743827   9.1763621  )
        32           Ti1 tau(  32) = (   0.0006254   4.4649316   9.2693709  )
        33           O1  tau(  33) = (   3.2889932   2.9698301  11.3211337  )
        34           O1  tau(  34) = (   0.0092240   2.9805883  10.6323155  )
        35           O1  tau(  35) = (   1.3069247   4.4567274  12.6410950  )
        36           O1  tau(  36) = (   5.3013738   4.4587240  12.6283471  )
        37           Ti1 tau(  37) = (   6.5339814   0.0202798  12.5235249  )
        38           Ti1 tau(  38) = (   3.2191325   4.4512509  12.4750946  )
        39           O1  tau(  39) = (   6.5688456   2.9522374  14.7547250  )
        40           O1  tau(  40) = (   3.3031296   2.9710333  13.8824388  )
        41           O1  tau(  41) = (   4.5425837   4.4734130  15.9989242  )
        42           O1  tau(  42) = (   2.0771424   4.4889556  16.0364895  )
        43           Ti1 tau(  43) = (   3.3121389   0.0026565  15.6888161  )
        44           Ti1 tau(  44) = (   6.5128106   4.4989306  16.3061806  )
        45           O1  tau(  45) = (   3.2900926   2.9813045   4.7018136  )
        46           O1  tau(  46) = (   1.3039711   4.4726057   6.0039043  )
        47           O1  tau(  47) = (   5.2763189   4.4711207   6.0039473  )
        48           N1  tau(  48) = (   0.4528824   2.9849886  17.7976856  )
        49           C1  tau(  49) = (   1.4182946   2.9518240  18.6700831  )
        50           H1  tau(  50) = (   2.3503500   2.6458988  18.1556329  )
        51           N1  tau(  51) = (   5.7893717   3.5482605  18.2279111  )
        52           H1  tau(  52) = (   5.8942619   4.0012392  19.1365464  )
        53           H1  tau(  53) = (   5.0734348   2.8266848  18.2415795  )

     number of k points=    10  Fermi-Dirac smearing, width (Ry)=  0.0073
                       cart. coord. in units 2pi/alat
        k(    1) = (   0.0000000   0.0000000   0.0000000), wk =   0.1250000
        k(    2) = (   0.0000000   0.0419351   0.0000000), wk =   0.2500000
        k(    3) = (   0.0000000  -0.0838702   0.0000000), wk =   0.1250000
        k(    4) = (   0.0379955   0.0000049   0.0000000), wk =   0.2500000
        k(    5) = (   0.0379955   0.0419400   0.0000000), wk =   0.2500000
        k(    6) = (   0.0379955  -0.0838652   0.0000000), wk =   0.2500000
        k(    7) = (   0.0379955  -0.0419301   0.0000000), wk =   0.2500000
        k(    8) = (  -0.0759910  -0.0000099   0.0000000), wk =   0.1250000
        k(    9) = (  -0.0759910   0.0419252   0.0000000), wk =   0.2500000
        k(   10) = (  -0.0759910  -0.0838800   0.0000000), wk =   0.1250000

     Initial potential from superposition of free atoms

     starting charge  378.99916, renormalised to  395.00000

     negative rho (up, down):  1.775E-02 0.000E+00

     %%%%%%%%%%%%%%%%%%%%%%%%%%%%%%%%%%%%%%%%%%%%%%%%%%%%%%%%%%%%%%%%%%%%%%%%
     %                                                                      %
     % You are using vdW-DF, which was implemented by the Thonhauser group. %
     % Please cite the following two papers that made this development      %
     % possible and the two reviews that describe the various versions:     %
     %                                                                      %
     %   T. Thonhauser et al., PRL 115, 136402 (2015).                      %
     %   T. Thonhauser et al., PRB 76, 125112 (2007).                       %
     %   K. Berland et al., Rep. Prog. Phys. 78, 066501 (2015).             %
     %   D.C. Langreth et al., J. Phys.: Condens. Matter 21, 084203 (2009). %
     %                                                                      %
     %                                                                      %
     % If you are calculating the stress with vdW-DF, please also cite:     %
     %                                                                      %
     %   R. Sabatini et al., J. Phys.: Condens. Matter 24, 424209 (2012).   %
     %                                                                      %
     %%%%%%%%%%%%%%%%%%%%%%%%%%%%%%%%%%%%%%%%%%%%%%%%%%%%%%%%%%%%%%%%%%%%%%%%

     Adding external electric field

     Computed dipole along edir(3) :
        Dipole               -8.0620 Ry au,        -20.4914 Debye
        Dipole field         -0.0152 Ry au,

        Potential amp.        1.4103 Ry
        Total length         46.3494 bohr

     Starting wfcs are  299 atomic wfcs
  @ DRIVER MODE: Message from server: STATUS
  @ DRIVER MODE: Message from server: POSDATA
  @ DRIVER MODE: Reading and sharing cell
  @ DRIVER MODE: Reading and sharing positions
  @ DRIVER MODE: Received positions

     Self-consistent Calculation

     iteration #  1     ecut=    29.40 Ry     beta= 0.05
     Davidson diagonalization with overlap
     c_bands:  1 eigenvalues not converged
     c_bands:  1 eigenvalues not converged
     c_bands:  2 eigenvalues not converged
     c_bands:  3 eigenvalues not converged
     c_bands:  3 eigenvalues not converged
     c_bands:  2 eigenvalues not converged
     c_bands:  1 eigenvalues not converged
     ethr =  1.00E-05,  avg # of iterations = 19.3

[...]

     total energy              =   -2614.85201607 Ry
     estimated scf accuracy    <    3584.09824666 Ry

[...]

     iteration #  3     ecut=    29.40 Ry     beta= 0.05
     Davidson diagonalization with overlap
     ethr =  1.00E-02,  avg # of iterations = 14.4

[...]

     iteration # 73     ecut=    29.40 Ry     beta= 0.05
     Davidson diagonalization with overlap
     c_bands:  2 eigenvalues not converged
     c_bands:  1 eigenvalues not converged
     ethr =  8.31E-10,  avg # of iterations = 12.7

[...]

     total energy              =   -2939.00592821 Ry
     estimated scf accuracy    <       0.00000015 Ry

     iteration # 81     ecut=    29.40 Ry     beta= 0.05
     Davidson diagonalization with overlap
     ethr =  3.81E-11,  avg # of iterations =  6.8

     negative rho (up, down):  1.647E-02 0.000E+00

     Adding external electric field

     Computed dipole along edir(3) :
        Dipole                0.3061 Ry au,          0.7780 Debye
        Dipole field          0.0006 Ry au,

        Potential amp.       -0.0535 Ry
        Total length         46.3494 bohr

     End of self-consistent calculation

          k = 0.0000 0.0000 0.0000 ( 18029 PWs)   bands (ev):

   -56.1054 -56.1028 -56.0713 -56.0665 -55.9930 -55.9590 -55.9530 -55.9181
   -55.9024 -55.8682 -55.8663 -55.8321 -55.6420 -55.5829 -55.0748 -55.0408
   -32.6619 -32.5866 -32.4847 -32.4248 -32.4103 -32.4063 -32.3977 -32.3575
   -32.3452 -32.3305 -32.3049 -32.2833 -32.2772 -32.2577 -32.2504 -32.2437
   -32.2086 -32.1951 -32.1923 -32.1878 -32.1834 -32.1628 -32.1546 -32.1403
   -32.1144 -32.1008 -32.0997 -32.0992 -32.0936 -32.0903 -32.0686 -32.0420
   -32.0418 -32.0276 -32.0195 -32.0004 -31.9784 -31.9490 -31.8707 -31.8416
   -31.7991 -31.7335 -31.4815 -31.3943 -31.3718 -31.2984 -31.2120 -31.1007
   -18.0388 -16.8709 -16.5813 -16.3666 -16.2604 -16.2447 -16.1385 -15.9531
   -15.8199 -15.7917 -15.6848 -15.6784 -15.6375 -15.6243 -15.5958 -15.5725
   -15.5637 -15.5374 -15.5349 -15.5188 -15.4740 -15.4508 -15.4316 -15.3343
   -15.2957 -15.2354 -15.2133 -15.1519 -15.0297 -14.7936 -13.5769 -13.4606
   -13.2597  -8.0873  -6.3915  -4.3751  -4.2451  -4.0685  -4.0079  -3.9699
    -3.9611  -3.7175  -3.6848  -3.3256  -3.2933  -3.2751  -3.2633  -3.2519
    -3.1513  -3.0166  -2.9603  -2.9193  -2.9089  -2.8985  -2.8911  -2.8783
    -2.8523  -2.8301  -2.7248  -2.6826  -2.6513  -2.5423  -2.5229  -2.4374
    -2.4153  -2.4042  -2.3702  -2.3500  -2.3402  -2.3140  -2.3030  -2.2798
    -2.1898  -2.1421  -2.0272  -1.9567  -1.8826  -1.8466  -1.7013  -1.6566
    -1.5687  -1.5628  -1.5437  -1.5227  -1.4896  -1.4035  -1.3253  -1.2396
    -1.1985  -1.1594  -1.1243  -1.0807  -0.9997  -0.9806  -0.9633  -0.8669
    -0.8629  -0.8538  -0.8097  -0.6085  -0.5823  -0.5505  -0.5377  -0.4592
    -0.4019  -0.3841  -0.3640  -0.3158  -0.2561  -0.1925  -0.1469  -0.1319
    -0.1207  -0.1176  -0.0824  -0.0569   0.0859   0.0969   0.1909   0.2024
     0.2273   0.3536   0.5275   0.5644   0.5914   0.7102   0.8784   0.9477
     1.0497   1.1406   1.5179   1.5631   2.4034   3.0327   3.1189   3.1528
     3.1723   3.2779   3.3107   3.4801   3.4956   3.5308   3.5500

[...]

          k = 0.0380-0.0419 0.0000 ( 17876 PWs)   bands (ev):

[...]

          k =-0.0760-0.0000 0.0000 ( 17886 PWs)   bands (ev):

[...]

          k =-0.0760-0.0839 0.0000 ( 17948 PWs)   bands (ev):

   -56.0893 -56.0872 -56.0865 -56.0826 -55.9837 -55.9622 -55.9493 -55.9276
   -55.8872 -55.8829 -55.8527 -55.8459 -55.6386 -55.5862 -55.0578 -55.0577
   -32.4654 -32.4609 -32.4026 -32.4013 -32.3841 -32.3825 -32.3641 -32.3518
   -32.3326 -32.3134 -32.2901 -32.2737 -32.2475 -32.2379 -32.2374 -32.2188
   -32.2185 -32.2092 -32.2067 -32.2007 -32.1996 -32.1913 -32.1855 -32.1719
   -32.1669 -32.1488 -32.1325 -32.1295 -32.0866 -32.0845 -32.0829 -32.0787
   -32.0691 -32.0676 -32.0636 -32.0624 -32.0583 -31.9670 -31.8821 -31.8349
   -31.8024 -31.7900 -31.3846 -31.3844 -31.2944 -31.2941 -31.2553 -31.2552
   -18.0294 -16.3067 -16.2908 -16.0742 -16.0297 -16.0256 -16.0048 -15.9160
   -15.8263 -15.8071 -15.7929 -15.7754 -15.7604 -15.6801 -15.6545 -15.6322
   -15.6283 -15.6157 -15.5607 -15.5552 -15.5521 -15.5469 -15.5268 -15.4935
   -15.4111 -15.4061 -15.3946 -15.1563 -15.0908 -15.0192 -13.5627 -13.5622
   -13.2727  -8.0457  -6.3294  -4.3929  -3.5999  -3.5810  -3.3592  -3.3223
    -3.2824  -3.2733  -3.1580  -3.0553  -3.0251  -3.0126  -2.9742  -2.9558
    -2.9436  -2.9310  -2.9182  -2.8989  -2.8733  -2.8389  -2.8339  -2.7882
    -2.7714  -2.7503  -2.7330  -2.7114  -2.7103  -2.6698  -2.6643  -2.6253
    -2.5871  -2.5441  -2.4370  -2.3784  -2.3373  -2.2881  -2.2336  -2.2225
    -2.2130  -2.1600  -2.1549  -2.1223  -2.0363  -1.9602  -1.8246  -1.8030
    -1.7700  -1.7280  -1.6958  -1.5948  -1.5536  -1.5053  -1.4534  -1.3973
    -1.3859  -1.3427  -1.3051  -1.2398  -1.2227  -1.1837  -1.1614  -1.0993
    -1.0586  -1.0543  -0.9906  -0.9233  -0.8654  -0.8612  -0.8408  -0.8261
    -0.7684  -0.7212  -0.6542  -0.6053  -0.5636  -0.4655  -0.4094  -0.2906
    -0.1848  -0.0659   0.0049   0.0091   0.0647   0.1420   0.1879   0.2219
     0.2336   0.2534   0.3429   0.4152   0.4334   0.4484   0.5242   0.6998
     1.3124   1.3136   1.3824   1.3833   2.4022   3.3210   3.3591   3.3734
     3.4045   3.5496   3.5523   3.5643   3.5680   3.6865   3.7221

     the Fermi energy is     3.0299 ev

!    total energy              =   -2939.00593950 Ry
     estimated scf accuracy    <       0.00000005 Ry
     smearing contrib. (-TS)   =      -0.02199755 Ry
     internal energy E=F+TS    =   -2938.98394195 Ry

     The total energy is F=E-TS. E is the sum of the following terms:
     one-electron contribution =  -24452.84219404 Ry
     hartree contribution      =   12311.50196740 Ry
     xc contribution           =    -485.12802931 Ry
     ewald contribution        =    9687.48413720 Ry
     electric field correction =       0.00017680 Ry

     convergence has been achieved in  81 iterations

     Forces acting on atoms (cartesian axes, Ry/au):

     atom    1 type  1   force =     0.00018421   -0.00028766    0.09688144
     atom    2 type  1   force =     0.00005982   -0.00078399   -0.17498191
     atom    3 type  2   force =     0.00014828   -0.00008926   -0.02553891
     atom    4 type  2   force =    -0.00003032   -0.00142549    0.05152507
     atom    5 type  2   force =    -0.01203833   -0.00173214    0.00279161
     atom    6 type  2   force =     0.01346494   -0.00133876    0.00223126
     atom    7 type  1   force =     0.00040338    0.00015289   -0.01207888
     atom    8 type  1   force =     0.00018386    0.02418600    0.02899034
     atom    9 type  2   force =    -0.00004207    0.00051914   -0.00005966
     atom   10 type  2   force =    -0.00266231    0.00014295   -0.01165095
     atom   11 type  2   force =    -0.00000850    0.00027224    0.00002846
     atom   12 type  2   force =    -0.00025105   -0.00001850    0.00012908
     atom   13 type  1   force =    -0.00013345    0.00115565   -0.00006806
     atom   14 type  1   force =    -0.00001386    0.00048730    0.00003676
     atom   15 type  2   force =     0.00008351   -0.00016535   -0.00012452
     atom   16 type  2   force =    -0.00020766    0.00022624   -0.00030391
     atom   17 type  2   force =     0.00024387    0.00019824   -0.00031421
     atom   18 type  2   force =    -0.00033722    0.00015519   -0.00006562
     atom   19 type  1   force =    -0.00023613   -0.00017436   -0.00059411
     atom   20 type  1   force =     0.00015189    0.00024185    0.00004857
     atom   21 type  2   force =     0.00006926   -0.00007299    0.10298980
     atom   22 type  2   force =     0.00005958   -0.00019604   -0.00023895
     atom   23 type  2   force =    -0.07169944   -0.00017010   -0.02790325
     atom   24 type  2   force =     0.07160656    0.00028758   -0.02794048
     atom   25 type  1   force =     0.00004072   -0.00025911    0.09678606
     atom   26 type  1   force =    -0.00001863   -0.00017892   -0.17514157
     atom   27 type  2   force =     0.00015858   -0.00026640   -0.02420491
     atom   28 type  2   force =     0.00001726   -0.00118045    0.05207892
     atom   29 type  2   force =    -0.01219567    0.00078251    0.00247026
     atom   30 type  2   force =     0.01350544    0.00126692    0.00188059
     atom   31 type  1   force =     0.00044845    0.00286408   -0.01397772
     atom   32 type  1   force =     0.00038300   -0.02519119    0.03048730
     atom   33 type  2   force =     0.00004237   -0.00008456   -0.00015562
     atom   34 type  2   force =    -0.00183562   -0.00050063   -0.02073839
     atom   35 type  2   force =     0.00000997    0.00021806   -0.00006392
     atom   36 type  2   force =     0.00016729    0.00032506    0.00014730
     atom   37 type  1   force =    -0.00021280   -0.00085531    0.00000797
     atom   38 type  1   force =     0.00008516    0.00013333   -0.00022326
     atom   39 type  2   force =     0.00012131    0.00030657   -0.00041657
     atom   40 type  2   force =    -0.00005633    0.00009132    0.00044489
     atom   41 type  2   force =     0.00038506   -0.00002191   -0.00008377
     atom   42 type  2   force =    -0.00031421   -0.00017474   -0.00010945
     atom   43 type  1   force =    -0.00038668    0.00031206    0.00005473
     atom   44 type  1   force =    -0.00008712    0.00009925   -0.00017966
     atom   45 type  2   force =     0.00005366   -0.00006636    0.10300794
     atom   46 type  2   force =    -0.07172942   -0.00011754   -0.02789944
     atom   47 type  2   force =     0.07162091    0.00025482   -0.02792351
     atom   48 type  3   force =     0.01702205   -0.00232934    0.00426032
     atom   49 type  4   force =    -0.01006630    0.00141169   -0.00586915
     atom   50 type  5   force =    -0.00098405    0.00036896   -0.00134293
     atom   51 type  3   force =    -0.00395151    0.00045680    0.00226647
     atom   52 type  5   force =    -0.00005611    0.00008700    0.00029547
     atom   53 type  5   force =    -0.00116563    0.00067737    0.00035267

     Total force =     0.369621     Total SCF correction =     0.000688
  @ DRIVER MODE: Message from server: STATUS
  @ DRIVER MODE: Message from server: GETFORCE
  @ DRIVER MODE: Returning v,forces,stress,ensemble

     Writing output data file ./calc.save/
  @ DRIVER MODE: Message from server: EXIT
  @ DRIVE MODE: Exiting

     General routines

     Parallel routines

   This run was terminated on:  22:29: 2   8Sep2021

   JOB DONE.