     Program PWSCF v.6.7GPU starts on 26Sep2021 at  8:16:58

     R & G space division:  proc/nbgrp/npool/nimage =       8
     Reading input from /storage/home/hcoda1/3/ntian30/research/carbon/CxH_vib/H2O_calc/ads_slab/CH3N2OHHO_l/out_0036/pw.inp
Warning: card &CELL ignored
Warning: card   CELL_DYNAMICS='IPI', ignored
Warning: card / ignored

     Current dimensions of program PWSCF are:
     Max number of different atomic species (ntypx) = 10
     Max number of k-points (npk) =  40000
     Max angular momentum in pseudopotentials (lmaxx) =  3
     Presently no symmetry can be used with electric field

     Message from routine cell_base_init:
     DEPRECATED: use true lattice parameter, not A to a.u. conversion factor

     IMPORTANT: XC functional enforced from input :
     Exchange-correlation= BEEF-VDW
                           (   1   4  43  14   2   0   0)
     Any further DFT definition will be discarded
     Please, verify this is what you really want

  @ DRIVER MODE: Connecting to
 qe_1139763_2971669.sched-torque.pace.gatech.eduubld1c_n_scratch
  using UNIX socket
  @ DRIVER MODE: Message from server: STATUS
  @ DRIVER MODE: Message from server: INIT
  @ DRIVER MODE: Receiving replica           0          -1
  @ DRIVER MODE: Receiving encoded integer          25
  @ DRIVER MODE:  SCF:  T  FORCE:  T  STRESS:  F  VC:  F  ENSEMBLE:  F
  @ DRIVER MODE:  SCF:  T  FORCE:  T  STRESS:  F  VC:  F  ENSEMBLE:  F

     Using Slab Decomposition

     bravais-lattice index     =            0
     lattice parameter (alat)  =       1.8897  a.u.
     unit-cell volume          =    6658.9804 (a.u.)^3
     number of atoms/cell      =           57
     number of atomic types    =            5
     number of electrons       =       409.00
     number of Kohn-Sham states=          214
     kinetic-energy cutoff     =      29.3995  Ry
     charge density cutoff     =     293.9946  Ry
     scf convergence threshold =      7.3E-08
     mixing beta               =       0.0500
     number of iterations used =            8  plain     mixing
     Exchange-correlation= BEEF-VDW
                           (   1   4  43  14   2   0   0)

     celldm(1)=   1.889726  celldm(2)=   0.000000  celldm(3)=   0.000000
     celldm(4)=   0.000000  celldm(5)=   0.000000  celldm(6)=   0.000000

     crystal axes: (cart. coord. in units of alat)
               a(1) = (   6.579727   0.000000   0.000000 )
               a(2) = (  -0.000775   5.961596   0.000000 )
               a(3) = (   0.000000   0.000000  25.155947 )

     reciprocal axes: (cart. coord. in units 2 pi/alat)
               b(1) = (  0.151982  0.000020  0.000000 )
               b(2) = (  0.000000  0.167740  0.000000 )
               b(3) = (  0.000000  0.000000  0.039752 )

     PseudoPot. # 1 for Ti read from file:
     /storage/coda1/p-amedford6/0/shared/rich_project_chbe-medford/medford-share/data/pseudos_module/espresso/nninc/pbe/van/Ti.UPF
     MD5 check sum: 8e4df49b7f0d34bbd5052bf3f5ea0213
     Pseudo is Ultrasoft, Zval = 12.0
     Generated by new atomic code, or converted to UPF format
     Using radial grid of  851 points,  6 beta functions with:
                l(1) =   0
                l(2) =   0
                l(3) =   1
                l(4) =   1
                l(5) =   2
                l(6) =   2
     Q(r) pseudized with  8 coefficients,  rinner =    1.000   1.000   1.000
                                                       1.000   1.000

     PseudoPot. # 2 for O  read from file:
     /storage/coda1/p-amedford6/0/shared/rich_project_chbe-medford/medford-share/data/pseudos_module/espresso/nninc/pbe/van/O.UPF
     MD5 check sum: 78c19812648e8988a0fe644b0f25305e
     Pseudo is Ultrasoft, Zval =  6.0
     Generated by new atomic code, or converted to UPF format
     Using radial grid of  737 points,  4 beta functions with:
                l(1) =   0
                l(2) =   0
                l(3) =   1
                l(4) =   1
     Q(r) pseudized with  8 coefficients,  rinner =    0.800   0.800   0.800

     PseudoPot. # 3 for N  read from file:
     /storage/coda1/p-amedford6/0/shared/rich_project_chbe-medford/medford-share/data/pseudos_module/espresso/nninc/pbe/van/N.UPF
     MD5 check sum: 90d10febe142ad51ac9d5be1deb811c4
     Pseudo is Ultrasoft, Zval =  5.0
     Generated by new atomic code, or converted to UPF format
     Using radial grid of  729 points,  4 beta functions with:
                l(1) =   0
                l(2) =   0
                l(3) =   1
                l(4) =   1
     Q(r) pseudized with  8 coefficients,  rinner =    0.800   0.800   0.800

     PseudoPot. # 4 for C  read from file:
     /storage/coda1/p-amedford6/0/shared/rich_project_chbe-medford/medford-share/data/pseudos_module/espresso/nninc/pbe/van/C.UPF
     MD5 check sum: 1a69bf6b8db32088f5b2163dbdb77a27
     Pseudo is Ultrasoft, Zval =  4.0
     Generated by new atomic code, or converted to UPF format
     Using radial grid of  721 points,  4 beta functions with:
                l(1) =   0
                l(2) =   0
                l(3) =   1
                l(4) =   1
     Q(r) pseudized with  8 coefficients,  rinner =    0.800   0.800   0.800

     PseudoPot. # 5 for H  read from file:
     /storage/coda1/p-amedford6/0/shared/rich_project_chbe-medford/medford-share/data/pseudos_module/espresso/nninc/pbe/van/H.UPF
     MD5 check sum: b5ee9d7bfd3a09ee7748110bda690ff7
     Pseudo is Ultrasoft, Zval =  1.0
     Generated by new atomic code, or converted to UPF format
     Using radial grid of  615 points,  1 beta functions with:
                l(1) =   0
     Q(r) pseudized with  8 coefficients,  rinner =    0.800

     atomic species   valence    mass     pseudopotential
        Ti1           12.00    47.86700     Ti( 1.00)
        O1             6.00    15.99900     O ( 1.00)
        N1             5.00    14.00700     N ( 1.00)
        C1             4.00    12.01100     C ( 1.00)
        H1             1.00     1.00800     H ( 1.00)

     No symmetry found

   Cartesian axes

     site n.     atom                  positions (alat units)
         1           Ti1 tau(   1) = (   0.0004258   2.9801865   6.0000000  )
         2           Ti1 tau(   2) = (   3.2906075   1.4906267   6.0002472  )
         3           O1  tau(   3) = (   0.0006271   0.0005054   7.9858123  )
         4           O1  tau(   4) = (   3.2906025   0.0005020   7.3038282  )
         5           O1  tau(   5) = (   4.5942328   1.4918067   9.2879030  )
         6           O1  tau(   6) = (   1.9868534   1.4903216   9.2879459  )
         7           Ti1 tau(   7) = (   3.2907910   2.8959150   9.1758416  )
         8           Ti1 tau(   8) = (   0.0015273   1.4827037   9.2680791  )
         9           O1  tau(   9) = (   3.2779673   5.9607700  11.3423085  )
        10           O1  tau(  10) = (   0.0116148   5.9584955  10.6183126  )
        11           O1  tau(  11) = (   1.2787083   1.4818767  12.6451794  )
        12           O1  tau(  12) = (   5.2707140   1.4872516  12.6060838  )
        13           Ti1 tau(  13) = (   0.0520196   2.9452147  12.6012095  )
        14           Ti1 tau(  14) = (   3.3669591   1.4706787  12.5087448  )
        15           O1  tau(  15) = (   6.5166736   5.9505275  14.6414754  )
        16           O1  tau(  16) = (   3.3002175   0.0041348  13.9548274  )
        17           O1  tau(  17) = (   4.5235890   1.5203341  16.0633414  )
        18           O1  tau(  18) = (   1.9992342   1.5602939  15.9747780  )
        19           Ti1 tau(  19) = (   3.2541499   3.0080313  15.6961896  )
        20           Ti1 tau(  20) = (   6.5591015   1.5323982  15.7823192  )
        21           O1  tau(  21) = (   3.2904802   0.0005063   4.7018136  )
        22           O1  tau(  22) = (   0.0960927   0.0099221  17.2178370  )
        23           O1  tau(  23) = (   1.3043587   1.4918075   6.0039043  )
        24           O1  tau(  24) = (   5.2767064   1.4903225   6.0039473  )
        25           Ti1 tau(  25) = (   0.0000382   5.9609847   6.0000000  )
        26           Ti1 tau(  26) = (   3.2902200   4.4714249   6.0002472  )
        27           O1  tau(  27) = (   0.0002396   2.9813036   7.9858123  )
        28           O1  tau(  28) = (   3.2902150   2.9813002   7.3038282  )
        29           O1  tau(  29) = (   4.5938453   4.4726049   9.2879030  )
        30           O1  tau(  30) = (   1.9864658   4.4711199   9.2879459  )
        31           Ti1 tau(  31) = (   3.2891106   5.8743827   9.1763621  )
        32           Ti1 tau(  32) = (   0.0006254   4.4649316   9.2693709  )
        33           O1  tau(  33) = (   3.2807211   2.9768430  11.3440791  )
        34           O1  tau(  34) = (   0.0092240   2.9805883  10.6323155  )
        35           O1  tau(  35) = (   1.2789702   4.4681595  12.6395138  )
        36           O1  tau(  36) = (   5.2737968   4.4775610  12.6008310  )
        37           Ti1 tau(  37) = (   0.0460201   5.9176504  12.5434570  )
        38           Ti1 tau(  38) = (   3.3658678   4.4646095  12.4976877  )
        39           O1  tau(  39) = (   6.5297297   2.9761478  14.6509524  )
        40           O1  tau(  40) = (   3.3085871   2.9961499  13.9017917  )
        41           O1  tau(  41) = (   4.5138497   4.4896837  16.1272785  )
        42           O1  tau(  42) = (   1.9961282   4.4344792  16.0060688  )
        43           Ti1 tau(  43) = (   3.3116018   0.0224549  15.7990204  )
        44           Ti1 tau(  44) = (   6.5775847   4.6577750  16.0638065  )
        45           O1  tau(  45) = (   3.2900926   2.9813045   4.7018136  )
        46           O1  tau(  46) = (   1.3039711   4.4726057   6.0039043  )
        47           O1  tau(  47) = (   5.2763189   4.4711207   6.0039473  )
        48           N1  tau(  48) = (   6.5065777   2.6139801  18.6303060  )
        49           N1  tau(  49) = (   6.5364102   2.8728423  17.4370429  )
        50           C1  tau(  50) = (   6.4341180   3.7235584  19.6105657  )
        51           H1  tau(  51) = (   6.3066687   4.7022679  19.1488110  )
        52           H1  tau(  52) = (   5.6164842   3.4805663  20.2913871  )
        53           H1  tau(  53) = (   0.7823074   3.6964598  20.1945303  )
        54           O1  tau(  54) = (   3.0314481   5.0835218  18.9911038  )
        55           H1  tau(  55) = (   1.7414717   0.2044793  18.0242669  )
        56           O1  tau(  56) = (   2.7372941   0.2572207  18.0778760  )
        57           H1  tau(  57) = (   3.9343361   5.3466317  19.2487757  )

     number of k points=    10  Fermi-Dirac smearing, width (Ry)=  0.0073
                       cart. coord. in units 2pi/alat
        k(    1) = (   0.0000000   0.0000000   0.0000000), wk =   0.1250000
        k(    2) = (   0.0000000   0.0419351   0.0000000), wk =   0.2500000
        k(    3) = (   0.0000000  -0.0838702   0.0000000), wk =   0.1250000
        k(    4) = (   0.0379955   0.0000049   0.0000000), wk =   0.2500000
        k(    5) = (   0.0379955   0.0419400   0.0000000), wk =   0.2500000
        k(    6) = (   0.0379955  -0.0838652   0.0000000), wk =   0.2500000
        k(    7) = (   0.0379955  -0.0419301   0.0000000), wk =   0.2500000
        k(    8) = (  -0.0759910  -0.0000099   0.0000000), wk =   0.1250000
        k(    9) = (  -0.0759910   0.0419252   0.0000000), wk =   0.2500000
        k(   10) = (  -0.0759910  -0.0838800   0.0000000), wk =   0.1250000

     Initial potential from superposition of free atoms

     starting charge  392.99914, renormalised to  409.00000

     negative rho (up, down):  1.421E-02 0.000E+00

     %%%%%%%%%%%%%%%%%%%%%%%%%%%%%%%%%%%%%%%%%%%%%%%%%%%%%%%%%%%%%%%%%%%%%%%%
     %                                                                      %
     % You are using vdW-DF, which was implemented by the Thonhauser group. %
     % Please cite the following two papers that made this development      %
     % possible and the two reviews that describe the various versions:     %
     %                                                                      %
     %   T. Thonhauser et al., PRL 115, 136402 (2015).                      %
     %   T. Thonhauser et al., PRB 76, 125112 (2007).                       %
     %   K. Berland et al., Rep. Prog. Phys. 78, 066501 (2015).             %
     %   D.C. Langreth et al., J. Phys.: Condens. Matter 21, 084203 (2009). %
     %                                                                      %
     %                                                                      %
     % If you are calculating the stress with vdW-DF, please also cite:     %
     %                                                                      %
     %   R. Sabatini et al., J. Phys.: Condens. Matter 24, 424209 (2012).   %
     %                                                                      %
     %%%%%%%%%%%%%%%%%%%%%%%%%%%%%%%%%%%%%%%%%%%%%%%%%%%%%%%%%%%%%%%%%%%%%%%%

     Adding external electric field

     Computed dipole along edir(3) :
        Dipole              -16.7512 Ry au,        -42.5774 Debye
        Dipole field         -0.0316 Ry au,

        Potential amp.        2.9304 Ry
        Total length         46.3494 bohr

     Starting wfcs are  309 atomic wfcs
  @ DRIVER MODE: Message from server: STATUS
  @ DRIVER MODE: Message from server: POSDATA
  @ DRIVER MODE: Reading and sharing cell
  @ DRIVER MODE: Reading and sharing positions
  @ DRIVER MODE: Received positions

     Self-consistent Calculation

     iteration #  1     ecut=    29.40 Ry     beta= 0.05
     Davidson diagonalization with overlap
     c_bands:  5 eigenvalues not converged
     c_bands:  5 eigenvalues not converged
     c_bands:  3 eigenvalues not converged
     c_bands:  1 eigenvalues not converged
     c_bands:  4 eigenvalues not converged
     c_bands:  2 eigenvalues not converged
     c_bands:  5 eigenvalues not converged
     ethr =  1.00E-05,  avg # of iterations = 26.6

[...]

     total energy              =   -2110.47751926 Ry
     estimated scf accuracy    <   10326.53176956 Ry

     iteration #  2     ecut=    29.40 Ry     beta= 0.05
     Davidson diagonalization with overlap
     ethr =  1.00E-02,  avg # of iterations = 31.8

[...]

     iteration # 66     ecut=    29.40 Ry     beta= 0.05
     Davidson diagonalization with overlap
     c_bands:  1 eigenvalues not converged
     ethr =  1.95E-11,  avg # of iterations = 13.0

[...]

     total energy              =   -3006.13721458 Ry
     estimated scf accuracy    <       0.00000008 Ry

     iteration # 69     ecut=    29.40 Ry     beta= 0.05
     Davidson diagonalization with overlap
     ethr =  1.95E-11,  avg # of iterations =  8.0

     negative rho (up, down):  1.469E-02 0.000E+00

     Adding external electric field

     Computed dipole along edir(3) :
        Dipole                0.8090 Ry au,          2.0561 Debye
        Dipole field          0.0015 Ry au,

        Potential amp.       -0.1415 Ry
        Total length         46.3494 bohr

     End of self-consistent calculation

          k = 0.0000 0.0000 0.0000 ( 18029 PWs)   bands (ev):

   -55.6049 -55.5708 -55.5628 -55.5341 -55.5265 -55.4410 -55.4195 -55.4040
   -55.3855 -55.3834 -55.3661 -55.3497 -54.9886 -54.9180 -54.5859 -54.5519
   -32.1035 -32.0880 -31.9488 -31.9408 -31.9179 -31.8976 -31.8733 -31.8600
   -31.8489 -31.7944 -31.7794 -31.7639 -31.7571 -31.7405 -31.7291 -31.7188
   -31.7099 -31.7014 -31.6896 -31.6628 -31.6620 -31.6421 -31.6104 -31.6091
   -31.5997 -31.5952 -31.5927 -31.5821 -31.5640 -31.5598 -31.5540 -31.5490
   -31.5382 -31.5367 -31.5272 -31.5153 -31.4955 -31.2665 -31.2097 -31.1783
   -31.1250 -31.1025 -30.9931 -30.9044 -30.8820 -30.8098 -30.7233 -30.6123
   -20.7360 -18.2974 -16.3051 -16.0790 -15.8950 -15.7655 -15.7106 -15.5530
   -15.4955 -15.4098 -15.3393 -15.2026 -15.1501 -15.1415 -15.1356 -15.1168
   -15.1108 -15.0507 -15.0395 -15.0380 -15.0270 -14.9992 -14.9603 -14.9470
   -14.9421 -14.8593 -14.7659 -14.7431 -14.7227 -14.7195 -14.6618 -14.2758
   -13.0878 -12.9714 -11.2725  -6.8130  -5.7509  -5.3619  -4.1828  -3.8073
    -3.7532  -3.6724  -3.5500  -3.5111  -3.4316  -3.3846  -3.2307  -3.0793
    -3.0254  -2.8517  -2.7828  -2.7556  -2.7118  -2.6284  -2.5212  -2.4679
    -2.4126  -2.4084  -2.3946  -2.3778  -2.3614  -2.3449  -2.2372  -2.2187
    -2.1655  -2.1456  -2.1184  -1.9846  -1.9569  -1.9283  -1.9184  -1.8907
    -1.8781  -1.8641  -1.8374  -1.8188  -1.7783  -1.7550  -1.6239  -1.5808
    -1.5412  -1.4477  -1.3879  -1.3267  -1.2332  -1.2010  -1.1320  -1.0618
    -1.0561  -1.0363  -1.0030  -0.9948  -0.8686  -0.7642  -0.7540  -0.6804
    -0.6192  -0.5690  -0.5279  -0.4626  -0.3792  -0.3617  -0.3540  -0.3333
    -0.2813  -0.2571  -0.0979  -0.0591  -0.0109   0.0144   0.0715   0.1046
     0.1475   0.1877   0.2276   0.2775   0.3116   0.3448   0.3632   0.3774
     0.3928   0.4241   0.4449   0.6107   0.6459   0.6692   0.7303   0.7596
     0.8467   0.9031   0.9672   1.0504   1.1587   1.3639   1.4367   1.5281
     1.6286   2.0081   2.0539   2.8298   3.5243   3.6163   3.6572   3.6876
     3.7690   3.7809   3.9822   4.0040   4.0337   4.1101

[...]

          k = 0.0380-0.0419 0.0000 ( 17876 PWs)   bands (ev):

[...]

          k =-0.0760-0.0000 0.0000 ( 17886 PWs)   bands (ev):

[...]

          k =-0.0760-0.0839 0.0000 ( 17948 PWs)   bands (ev):

   -55.5883 -55.5872 -55.5476 -55.5415 -55.5322 -55.4291 -55.4159 -55.4027
   -55.4018 -55.3680 -55.3678 -55.3653 -54.9847 -54.9218 -54.5689 -54.5687
   -31.9177 -31.9037 -31.9028 -31.9003 -31.8836 -31.8825 -31.8263 -31.8176
   -31.8053 -31.7856 -31.7771 -31.7534 -31.7486 -31.7227 -31.7169 -31.7162
   -31.7079 -31.7073 -31.7070 -31.7056 -31.7033 -31.7012 -31.6745 -31.6462
   -31.6325 -31.6286 -31.6198 -31.6036 -31.6026 -31.5976 -31.5923 -31.5834
   -31.5803 -31.5728 -31.5719 -31.5701 -31.4173 -31.2682 -31.2483 -31.1864
   -31.1639 -31.1263 -30.8948 -30.8946 -30.8060 -30.8057 -30.7666 -30.7665
   -20.7353 -18.2934 -15.7426 -15.6953 -15.6306 -15.5640 -15.5289 -15.4588
   -15.4153 -15.3732 -15.3213 -15.2833 -15.2742 -15.2146 -15.1943 -15.1617
   -15.1523 -15.1228 -15.1132 -15.1111 -15.0575 -15.0515 -15.0456 -15.0386
   -15.0324 -14.9735 -14.9337 -14.9257 -14.9207 -14.8223 -14.7000 -14.4443
   -13.0732 -13.0731 -11.2708  -6.8358  -5.7482  -5.3386  -4.1112  -3.7885
    -3.7597  -3.1127  -3.0211  -2.8275  -2.7970  -2.7144  -2.7103  -2.6675
    -2.5453  -2.5123  -2.4662  -2.4482  -2.4270  -2.4184  -2.4128  -2.3918
    -2.3857  -2.3680  -2.3388  -2.3183  -2.2856  -2.2736  -2.2607  -2.2519
    -2.2381  -2.2152  -2.2131  -2.1648  -2.1442  -2.1256  -2.0624  -2.0285
    -1.8430  -1.7938  -1.7489  -1.7421  -1.7213  -1.6895  -1.6747  -1.6578
    -1.6111  -1.5890  -1.5118  -1.4693  -1.3262  -1.3093  -1.2934  -1.2725
    -1.2060  -1.1482  -1.0985  -1.0122  -1.0074  -0.9583  -0.8654  -0.8063
    -0.7983  -0.7666  -0.7113  -0.7016  -0.6613  -0.5680  -0.5624  -0.5446
    -0.5384  -0.4628  -0.4183  -0.3561  -0.3480  -0.3281  -0.2973  -0.2692
    -0.2359  -0.1966  -0.1011  -0.0678   0.0259   0.1314   0.2084   0.3435
     0.4623   0.4750   0.5598   0.5840   0.6852   0.6968   0.7089   0.7503
     0.7861   0.8108   0.9303   0.9442   0.9674   0.9955   1.0817   1.8001
     1.8010   1.8736   1.8738   2.8195   3.7657   3.8799   3.9117   3.9223
     4.0073   4.0442   4.0631   4.0650   4.1299   4.2024

     the Fermi energy is     3.5271 ev

!    total energy              =   -3006.13723899 Ry
     estimated scf accuracy    <       0.00000002 Ry
     smearing contrib. (-TS)   =      -0.02166789 Ry
     internal energy E=F+TS    =   -3006.11557110 Ry

     The total energy is F=E-TS. E is the sum of the following terms:
     one-electron contribution =  -23513.50934903 Ry
     hartree contribution      =   11854.73036526 Ry
     xc contribution           =    -501.16407751 Ry
     ewald contribution        =    9153.82625523 Ry
     electric field correction =       0.00123494 Ry

     convergence has been achieved in  69 iterations

     Forces acting on atoms (cartesian axes, Ry/au):

     atom    1 type  1   force =     0.00021052   -0.00032173    0.09616309
     atom    2 type  1   force =    -0.00012572   -0.00050903   -0.17559115
     atom    3 type  2   force =    -0.00003034   -0.00015993   -0.02418773
     atom    4 type  2   force =     0.00000723   -0.00155708    0.05346732
     atom    5 type  2   force =    -0.01167443   -0.00075408    0.00385523
     atom    6 type  2   force =     0.01286439   -0.00001967    0.00197025
     atom    7 type  1   force =    -0.00131812    0.00026343   -0.00660782
     atom    8 type  1   force =     0.00074414    0.00795130    0.02423829
     atom    9 type  2   force =     0.00000751    0.00003071    0.00003280
     atom   10 type  2   force =    -0.00082757    0.00166484   -0.01689572
     atom   11 type  2   force =    -0.00002498    0.00003512   -0.00001092
     atom   12 type  2   force =    -0.00001490    0.00001789   -0.00001309
     atom   13 type  1   force =     0.00001378   -0.00000624    0.00002056
     atom   14 type  1   force =     0.00000966    0.00003799    0.00001297
     atom   15 type  2   force =    -0.00000559    0.00001997   -0.00000078
     atom   16 type  2   force =    -0.00001125   -0.00003251   -0.00005398
     atom   17 type  2   force =    -0.00002353   -0.00000762    0.00002013
     atom   18 type  2   force =    -0.00003709    0.00000408   -0.00003133
     atom   19 type  1   force =     0.00004339   -0.00006309    0.00002006
     atom   20 type  1   force =     0.00002437   -0.00001448   -0.00003628
     atom   21 type  2   force =     0.00005858   -0.00004924    0.10321986
     atom   22 type  2   force =    -0.00003185   -0.00005154   -0.00008727
     atom   23 type  2   force =    -0.07147137   -0.00011682   -0.02772294
     atom   24 type  2   force =     0.07137276    0.00028537   -0.02772884
     atom   25 type  1   force =    -0.00003143   -0.00028477    0.09579498
     atom   26 type  1   force =    -0.00023027   -0.00034653   -0.17585637
     atom   27 type  2   force =     0.00004794   -0.00016955   -0.02323343
     atom   28 type  2   force =     0.00007086   -0.00125711    0.05306910
     atom   29 type  2   force =    -0.01202286    0.00042957    0.00403094
     atom   30 type  2   force =     0.01310857    0.00077285    0.00211745
     atom   31 type  1   force =    -0.00118086    0.00400472   -0.00990552
     atom   32 type  1   force =     0.00067783   -0.01006202    0.02471957
     atom   33 type  2   force =     0.00001525   -0.00000968    0.00001674
     atom   34 type  2   force =    -0.00025106    0.00012920   -0.02259362
     atom   35 type  2   force =    -0.00001662    0.00000053   -0.00002421
     atom   36 type  2   force =    -0.00001808    0.00001828   -0.00002997
     atom   37 type  1   force =    -0.00000149   -0.00004490    0.00002089
     atom   38 type  1   force =     0.00002632    0.00007275    0.00005246
     atom   39 type  2   force =    -0.00005815   -0.00002435   -0.00003153
     atom   40 type  2   force =    -0.00000686   -0.00003848   -0.00002157
     atom   41 type  2   force =     0.00000584   -0.00000734   -0.00002454
     atom   42 type  2   force =    -0.00000176   -0.00001179   -0.00002475
     atom   43 type  1   force =     0.00004432   -0.00002524   -0.00003666
     atom   44 type  1   force =     0.00004878    0.00000181    0.00001979
     atom   45 type  2   force =     0.00004524   -0.00008784    0.10322493
     atom   46 type  2   force =    -0.07148744   -0.00008156   -0.02773292
     atom   47 type  2   force =     0.07140208    0.00035761   -0.02772873
     atom   48 type  3   force =     0.00068907    0.00004035    0.00094581
     atom   49 type  3   force =    -0.00001539    0.00018337   -0.00015992
     atom   50 type  4   force =     0.00431681   -0.00022354    0.00396764
     atom   51 type  5   force =     0.00041227   -0.00003346    0.00026236
     atom   52 type  5   force =    -0.00062963   -0.00001679   -0.00038889
     atom   53 type  5   force =    -0.00477630    0.00004929   -0.00461313
     atom   54 type  2   force =     0.00101271   -0.00003026   -0.00128977
     atom   55 type  5   force =    -0.00010344   -0.00001012   -0.00002356
     atom   56 type  2   force =    -0.00113171   -0.00002168    0.00136449
     atom   57 type  5   force =     0.00027987    0.00007902    0.00005922

     Total force =     0.367223     Total SCF correction =     0.000267
  @ DRIVER MODE: Message from server: STATUS
  @ DRIVER MODE: Message from server: GETFORCE
  @ DRIVER MODE: Returning v,forces,stress,ensemble

     Writing output data file ./calc.save/
  @ DRIVER MODE: Message from server: EXIT
  @ DRIVE MODE: Exiting

     General routines

     Parallel routines

   This run was terminated on:   8:46:40  26Sep2021

   JOB DONE.