     Program PWSCF v.6.7GPU starts on 23Sep2021 at 14:48:57

     R & G space division:  proc/nbgrp/npool/nimage =       8
     Reading input from /storage/home/hcoda1/3/ntian30/research/carbon/CxH_vib/H2O_calc/ads_slab/CH3NHHO_a/out_0011/pw.inp
Warning: card &CELL ignored
Warning: card   CELL_DYNAMICS='IPI', ignored
Warning: card / ignored

     Current dimensions of program PWSCF are:
     Max number of different atomic species (ntypx) = 10
     Max number of k-points (npk) =  40000
     Max angular momentum in pseudopotentials (lmaxx) =  3
     Presently no symmetry can be used with electric field

     Message from routine cell_base_init:
     DEPRECATED: use true lattice parameter, not A to a.u. conversion factor

     IMPORTANT: XC functional enforced from input :
     Exchange-correlation= BEEF-VDW
                           (   1   4  43  14   2   0   0)
     Any further DFT definition will be discarded
     Please, verify this is what you really want

  @ DRIVER MODE: Connecting to
 qe_1139763_2947309.sched-torque.pace.gatech.eduozbqghzl_scratch
  using UNIX socket
  @ DRIVER MODE: Message from server: STATUS
  @ DRIVER MODE: Message from server: INIT
  @ DRIVER MODE: Receiving replica           0          -1
  @ DRIVER MODE: Receiving encoded integer          25
  @ DRIVER MODE:  SCF:  T  FORCE:  T  STRESS:  F  VC:  F  ENSEMBLE:  F
  @ DRIVER MODE:  SCF:  T  FORCE:  T  STRESS:  F  VC:  F  ENSEMBLE:  F

     Using Slab Decomposition

     bravais-lattice index     =            0
     lattice parameter (alat)  =       1.8897  a.u.
     unit-cell volume          =    6658.9804 (a.u.)^3
     number of atoms/cell      =           55
     number of atomic types    =            5
     number of electrons       =       398.00
     number of Kohn-Sham states=          209
     kinetic-energy cutoff     =      29.3995  Ry
     charge density cutoff     =     293.9946  Ry
     scf convergence threshold =      7.3E-08
     mixing beta               =       0.0500
     number of iterations used =            8  plain     mixing
     Exchange-correlation= BEEF-VDW
                           (   1   4  43  14   2   0   0)

     celldm(1)=   1.889726  celldm(2)=   0.000000  celldm(3)=   0.000000
     celldm(4)=   0.000000  celldm(5)=   0.000000  celldm(6)=   0.000000

     crystal axes: (cart. coord. in units of alat)
               a(1) = (   6.579727   0.000000   0.000000 )
               a(2) = (  -0.000775   5.961596   0.000000 )
               a(3) = (   0.000000   0.000000  25.155947 )

     reciprocal axes: (cart. coord. in units 2 pi/alat)
               b(1) = (  0.151982  0.000020  0.000000 )
               b(2) = (  0.000000  0.167740  0.000000 )
               b(3) = (  0.000000  0.000000  0.039752 )

     PseudoPot. # 1 for Ti read from file:
     /storage/coda1/p-amedford6/0/shared/rich_project_chbe-medford/medford-share/data/pseudos_module/espresso/nninc/pbe/van/Ti.UPF
     MD5 check sum: 8e4df49b7f0d34bbd5052bf3f5ea0213
     Pseudo is Ultrasoft, Zval = 12.0
     Generated by new atomic code, or converted to UPF format
     Using radial grid of  851 points,  6 beta functions with:
                l(1) =   0
                l(2) =   0
                l(3) =   1
                l(4) =   1
                l(5) =   2
                l(6) =   2
     Q(r) pseudized with  8 coefficients,  rinner =    1.000   1.000   1.000
                                                       1.000   1.000

     PseudoPot. # 2 for O  read from file:
     /storage/coda1/p-amedford6/0/shared/rich_project_chbe-medford/medford-share/data/pseudos_module/espresso/nninc/pbe/van/O.UPF
     MD5 check sum: 78c19812648e8988a0fe644b0f25305e
     Pseudo is Ultrasoft, Zval =  6.0
     Generated by new atomic code, or converted to UPF format
     Using radial grid of  737 points,  4 beta functions with:
                l(1) =   0
                l(2) =   0
                l(3) =   1
                l(4) =   1
     Q(r) pseudized with  8 coefficients,  rinner =    0.800   0.800   0.800

     PseudoPot. # 3 for H  read from file:
     /storage/coda1/p-amedford6/0/shared/rich_project_chbe-medford/medford-share/data/pseudos_module/espresso/nninc/pbe/van/H.UPF
     MD5 check sum: b5ee9d7bfd3a09ee7748110bda690ff7
     Pseudo is Ultrasoft, Zval =  1.0
     Generated by new atomic code, or converted to UPF format
     Using radial grid of  615 points,  1 beta functions with:
                l(1) =   0
     Q(r) pseudized with  8 coefficients,  rinner =    0.800

     PseudoPot. # 4 for N  read from file:
     /storage/coda1/p-amedford6/0/shared/rich_project_chbe-medford/medford-share/data/pseudos_module/espresso/nninc/pbe/van/N.UPF
     MD5 check sum: 90d10febe142ad51ac9d5be1deb811c4
     Pseudo is Ultrasoft, Zval =  5.0
     Generated by new atomic code, or converted to UPF format
     Using radial grid of  729 points,  4 beta functions with:
                l(1) =   0
                l(2) =   0
                l(3) =   1
                l(4) =   1
     Q(r) pseudized with  8 coefficients,  rinner =    0.800   0.800   0.800

     PseudoPot. # 5 for C  read from file:
     /storage/coda1/p-amedford6/0/shared/rich_project_chbe-medford/medford-share/data/pseudos_module/espresso/nninc/pbe/van/C.UPF
     MD5 check sum: 1a69bf6b8db32088f5b2163dbdb77a27
     Pseudo is Ultrasoft, Zval =  4.0
     Generated by new atomic code, or converted to UPF format
     Using radial grid of  721 points,  4 beta functions with:
                l(1) =   0
                l(2) =   0
                l(3) =   1
                l(4) =   1
     Q(r) pseudized with  8 coefficients,  rinner =    0.800   0.800   0.800

     atomic species   valence    mass     pseudopotential
        Ti1           12.00    47.86700     Ti( 1.00)
        O1             6.00    15.99900     O ( 1.00)
        H1             1.00     1.00800     H ( 1.00)
        N1             5.00    14.00700     N ( 1.00)
        C1             4.00    12.01100     C ( 1.00)

     No symmetry found

   Cartesian axes

     site n.     atom                  positions (alat units)
         1           Ti1 tau(   1) = (   0.0004258   2.9801865   6.0000000  )
         2           Ti1 tau(   2) = (   3.2906075   1.4906267   6.0002472  )
         3           O1  tau(   3) = (   0.0006271   0.0005054   7.9858123  )
         4           O1  tau(   4) = (   3.2906025   0.0005020   7.3038282  )
         5           O1  tau(   5) = (   4.5942328   1.4918067   9.2879030  )
         6           O1  tau(   6) = (   1.9868534   1.4903216   9.2879459  )
         7           Ti1 tau(   7) = (   3.2907910   2.8959150   9.1758416  )
         8           Ti1 tau(   8) = (   0.0015273   1.4827037   9.2680791  )
         9           O1  tau(   9) = (   3.2831040   5.9360571  11.2641146  )
        10           O1  tau(  10) = (   0.0116148   5.9584955  10.6183126  )
        11           O1  tau(  11) = (   1.2851963   1.4867209  12.6255510  )
        12           O1  tau(  12) = (   5.2924406   1.4772461  12.6192171  )
        13           Ti1 tau(  13) = (   0.0036382   2.8404764  12.7021481  )
        14           Ti1 tau(  14) = (   3.2814461   1.2926050  12.6442039  )
        15           O1  tau(  15) = (   6.5789252   5.9354829  14.6389027  )
        16           O1  tau(  16) = (   3.2852549   0.0163589  13.8648689  )
        17           O1  tau(  17) = (   4.5445832   1.5164849  16.0197972  )
        18           O1  tau(  18) = (   2.0258823   1.4930055  16.0750729  )
        19           Ti1 tau(  19) = (   3.3156224   2.9699746  15.6194889  )
        20           Ti1 tau(  20) = (   0.0515760   1.3234122  16.0730098  )
        21           O1  tau(  21) = (   3.2904802   0.0005063   4.7018136  )
        22           O1  tau(  22) = (   6.5454194   5.9222349  17.1870725  )
        23           O1  tau(  23) = (   1.3043587   1.4918075   6.0039043  )
        24           O1  tau(  24) = (   5.2767064   1.4903225   6.0039473  )
        25           Ti1 tau(  25) = (   0.0000382   5.9609847   6.0000000  )
        26           Ti1 tau(  26) = (   3.2902200   4.4714249   6.0002472  )
        27           O1  tau(  27) = (   0.0002396   2.9813036   7.9858123  )
        28           O1  tau(  28) = (   3.2902150   2.9813002   7.3038282  )
        29           O1  tau(  29) = (   4.5938453   4.4726049   9.2879030  )
        30           O1  tau(  30) = (   1.9864658   4.4711199   9.2879459  )
        31           Ti1 tau(  31) = (   3.2891106   5.8743827   9.1763621  )
        32           Ti1 tau(  32) = (   0.0006254   4.4649316   9.2693709  )
        33           O1  tau(  33) = (   3.2861177   3.0127509  11.2320142  )
        34           O1  tau(  34) = (   0.0092240   2.9805883  10.6323155  )
        35           O1  tau(  35) = (   1.2872320   4.4646868  12.6147789  )
        36           O1  tau(  36) = (   5.2799320   4.4658550  12.6114028  )
        37           Ti1 tau(  37) = (   6.5510365   5.8261734  12.6423015  )
        38           Ti1 tau(  38) = (   3.2652589   4.3917841  12.4002916  )
        39           O1  tau(  39) = (   0.0003569   2.9920414  14.6539809  )
        40           O1  tau(  40) = (   3.2835110   2.9651371  13.8409569  )
        41           O1  tau(  41) = (   4.5245492   4.4030193  16.0142317  )
        42           O1  tau(  42) = (   2.0132503   4.4096711  16.0494848  )
        43           Ti1 tau(  43) = (   3.3389516   5.9588577  16.2858146  )
        44           Ti1 tau(  44) = (   0.0865397   4.4271626  15.8895714  )
        45           O1  tau(  45) = (   3.2900926   2.9813045   4.7018136  )
        46           O1  tau(  46) = (   1.3039711   4.4726057   6.0039043  )
        47           O1  tau(  47) = (   5.2763189   4.4711207   6.0039473  )
        48           H1  tau(  48) = (   5.5649379   3.0085428  17.7754687  )
        49           N1  tau(  49) = (   6.5266086   2.9804045  17.4351690  )
        50           C1  tau(  50) = (   0.8252436   3.0135910  18.6253707  )
        51           H1  tau(  51) = (   0.7415300   3.9712607  19.1474969  )
        52           H1  tau(  52) = (   0.5789590   2.2014881  19.3161603  )
        53           H1  tau(  53) = (   1.8636945   2.8847911  18.3311598  )
        54           O1  tau(  54) = (   3.4430348   5.9447220  18.1074838  )
        55           H1  tau(  55) = (   4.3135669   5.8364121  18.5244127  )

     number of k points=    10  Fermi-Dirac smearing, width (Ry)=  0.0073
                       cart. coord. in units 2pi/alat
        k(    1) = (   0.0000000   0.0000000   0.0000000), wk =   0.1250000
        k(    2) = (   0.0000000   0.0419351   0.0000000), wk =   0.2500000
        k(    3) = (   0.0000000  -0.0838702   0.0000000), wk =   0.1250000
        k(    4) = (   0.0379955   0.0000049   0.0000000), wk =   0.2500000
        k(    5) = (   0.0379955   0.0419400   0.0000000), wk =   0.2500000
        k(    6) = (   0.0379955  -0.0838652   0.0000000), wk =   0.2500000
        k(    7) = (   0.0379955  -0.0419301   0.0000000), wk =   0.2500000
        k(    8) = (  -0.0759910  -0.0000099   0.0000000), wk =   0.1250000
        k(    9) = (  -0.0759910   0.0419252   0.0000000), wk =   0.2500000
        k(   10) = (  -0.0759910  -0.0838800   0.0000000), wk =   0.1250000

     Initial potential from superposition of free atoms

     starting charge  381.99915, renormalised to  398.00000

     negative rho (up, down):  1.688E-02 0.000E+00

     %%%%%%%%%%%%%%%%%%%%%%%%%%%%%%%%%%%%%%%%%%%%%%%%%%%%%%%%%%%%%%%%%%%%%%%%
     %                                                                      %
     % You are using vdW-DF, which was implemented by the Thonhauser group. %
     % Please cite the following two papers that made this development      %
     % possible and the two reviews that describe the various versions:     %
     %                                                                      %
     %   T. Thonhauser et al., PRL 115, 136402 (2015).                      %
     %   T. Thonhauser et al., PRB 76, 125112 (2007).                       %
     %   K. Berland et al., Rep. Prog. Phys. 78, 066501 (2015).             %
     %   D.C. Langreth et al., J. Phys.: Condens. Matter 21, 084203 (2009). %
     %                                                                      %
     %                                                                      %
     % If you are calculating the stress with vdW-DF, please also cite:     %
     %                                                                      %
     %   R. Sabatini et al., J. Phys.: Condens. Matter 24, 424209 (2012).   %
     %                                                                      %
     %%%%%%%%%%%%%%%%%%%%%%%%%%%%%%%%%%%%%%%%%%%%%%%%%%%%%%%%%%%%%%%%%%%%%%%%

     Adding external electric field

     Computed dipole along edir(3) :
        Dipole               -8.7590 Ry au,        -22.2631 Debye
        Dipole field         -0.0165 Ry au,

        Potential amp.        1.5323 Ry
        Total length         46.3494 bohr

     Starting wfcs are  301 atomic wfcs
  @ DRIVER MODE: Message from server: STATUS
  @ DRIVER MODE: Message from server: POSDATA
  @ DRIVER MODE: Reading and sharing cell
  @ DRIVER MODE: Reading and sharing positions
  @ DRIVER MODE: Received positions

     Self-consistent Calculation

     iteration #  1     ecut=    29.40 Ry     beta= 0.05
     Davidson diagonalization with overlap
     c_bands:  1 eigenvalues not converged
     c_bands:  1 eigenvalues not converged
     c_bands:  1 eigenvalues not converged
     c_bands:  2 eigenvalues not converged
     ethr =  1.00E-05,  avg # of iterations = 18.0

[...]

     total energy              =   -2565.45621391 Ry
     estimated scf accuracy    <    4292.32648941 Ry

     iteration #  2     ecut=    29.40 Ry     beta= 0.05
     Davidson diagonalization with overlap
     ethr =  1.00E-02,  avg # of iterations = 22.8

[...]

     iteration # 48     ecut=    29.40 Ry     beta= 0.05
     Davidson diagonalization with overlap
     c_bands:  1 eigenvalues not converged
     ethr =  2.10E-06,  avg # of iterations = 14.9

[...]

     total energy              =   -2954.01275551 Ry
     estimated scf accuracy    <       0.00000009 Ry

     iteration # 77     ecut=    29.40 Ry     beta= 0.05
     Davidson diagonalization with overlap
     ethr =  2.20E-11,  avg # of iterations =  5.0

     negative rho (up, down):  1.730E-02 0.000E+00

     Adding external electric field

     Computed dipole along edir(3) :
        Dipole                0.2178 Ry au,          0.5535 Debye
        Dipole field          0.0004 Ry au,

        Potential amp.       -0.0381 Ry
        Total length         46.3494 bohr

     End of self-consistent calculation

          k = 0.0000 0.0000 0.0000 ( 18029 PWs)   bands (ev):

   -56.9311 -56.8975 -56.0264 -55.9915 -55.7912 -55.7231 -55.6307 -55.4808
   -55.4470 -55.4010 -55.3872 -55.3227 -55.3186 -55.2689 -55.1270 -55.0455
   -33.3501 -33.2028 -33.1747 -33.1098 -33.0196 -32.9771 -32.5092 -32.2669
   -32.2472 -32.2212 -32.1688 -32.1638 -32.1382 -32.0269 -32.0070 -31.9601
   -31.9374 -31.9278 -31.9056 -31.8884 -31.8820 -31.8598 -31.8592 -31.8281
   -31.8226 -31.8036 -31.7523 -31.7087 -31.6851 -31.6712 -31.6106 -31.6046
   -31.6014 -31.5813 -31.5706 -31.5408 -31.5173 -31.5143 -31.5024 -31.4945
   -31.4929 -31.4336 -31.3928 -31.3695 -31.3306 -31.3012 -31.2951 -31.2287
   -17.0363 -16.4888 -16.4415 -16.2482 -16.1417 -16.1256 -16.0866 -16.0330
   -15.8392 -15.7820 -15.7489 -15.6835 -15.5813 -15.4289 -15.3319 -15.1525
   -15.1060 -15.0724 -15.0565 -15.0538 -15.0426 -15.0303 -14.9760 -14.9220
   -14.8800 -14.7987 -14.7407 -14.6321 -14.4063 -14.3743 -13.9784 -13.8715
   -13.7643  -8.4951  -4.6104  -4.1003  -3.9641  -3.9290  -3.7781  -3.6264
    -3.4963  -3.4499  -3.4144  -3.3110  -3.2975  -3.2878  -3.1987  -3.0711
    -2.9977  -2.9862  -2.9127  -2.8967  -2.8689  -2.8492  -2.6939  -2.6590
    -2.5662  -2.5114  -2.4912  -2.4135  -2.4022  -2.3412  -2.2899  -2.2785
    -2.2553  -2.2001  -2.1937  -2.1292  -2.0894  -2.0160  -1.9914  -1.9625
    -1.9446  -1.8672  -1.7923  -1.7593  -1.6032  -1.5711  -1.5347  -1.5012
    -1.4860  -1.4050  -1.3327  -1.2518  -1.2182  -1.1535  -1.1010  -1.0591
    -1.0477  -0.9314  -0.9063  -0.8503  -0.7862  -0.7739  -0.7641  -0.7170
    -0.6050  -0.5382  -0.5198  -0.4972  -0.4332  -0.4125  -0.3756  -0.3499
    -0.2719  -0.2576  -0.1480  -0.0747  -0.0423  -0.0183   0.0820   0.1607
     0.1822   0.2266   0.2668   0.3120   0.3390   0.3833   0.4510   0.4995
     0.5238   0.5404   0.5729   0.6693   0.7217   0.7555   0.8148   0.8252
     0.8951   0.9649   0.9926   1.0757   1.1202   1.4911   1.6171   2.3627
     2.5336   2.8095   2.9851   3.3017   3.3484   3.3648   3.3659   3.6554
     3.7799

[...]

          k = 0.0380-0.0419 0.0000 ( 17876 PWs)   bands (ev):

[...]

          k =-0.0760-0.0000 0.0000 ( 17886 PWs)   bands (ev):

[...]

          k =-0.0760-0.0839 0.0000 ( 17948 PWs)   bands (ev):

   -56.9149 -56.9136 -56.0136 -56.0041 -55.7866 -55.7276 -55.6299 -55.4644
   -55.4632 -55.3969 -55.3878 -55.3263 -55.3174 -55.2676 -55.1284 -55.0466
   -33.1892 -33.1879 -33.1680 -33.1667 -33.0638 -33.0628 -32.3333 -32.3252
   -32.2086 -32.1990 -32.1980 -32.1922 -32.0902 -32.0444 -32.0201 -32.0058
   -31.9546 -31.9538 -31.9023 -31.8701 -31.8589 -31.8171 -31.8162 -31.7663
   -31.7289 -31.6975 -31.6844 -31.6826 -31.6712 -31.6682 -31.6455 -31.6445
   -31.6253 -31.6232 -31.6007 -31.5905 -31.5691 -31.5603 -31.5254 -31.5178
   -31.5106 -31.4781 -31.4291 -31.3942 -31.3646 -31.3351 -31.3031 -31.2567
   -16.4283 -16.3968 -16.3948 -16.3481 -16.3465 -16.0908 -16.0862 -15.8391
   -15.8071 -15.6809 -15.5316 -15.5026 -15.4652 -15.4159 -15.3649 -15.2954
   -15.2780 -15.2350 -15.2019 -15.1468 -15.1209 -15.0439 -15.0101 -14.9515
   -14.9125 -14.8267 -14.7779 -14.7743 -14.5511 -14.5361 -13.9759 -13.9756
   -13.7812  -8.4999  -4.0671  -3.9775  -3.4703  -3.4653  -3.4429  -3.4336
    -3.2203  -3.2148  -3.0435  -3.0018  -2.9823  -2.9400  -2.9248  -2.8289
    -2.8183  -2.7770  -2.7476  -2.7453  -2.7348  -2.7159  -2.6700  -2.6610
    -2.6195  -2.4795  -2.4640  -2.4453  -2.3866  -2.3236  -2.2903  -2.2393
    -2.2127  -2.2017  -2.1741  -2.1645  -2.1609  -2.1331  -2.1031  -1.9463
    -1.8925  -1.8039  -1.7715  -1.7490  -1.7254  -1.6750  -1.6686  -1.6396
    -1.6173  -1.5832  -1.5259  -1.4924  -1.4495  -1.3273  -1.3013  -1.2627
    -1.2440  -1.1865  -1.0873  -1.0021  -0.9897  -0.9446  -0.9265  -0.8789
    -0.8641  -0.8354  -0.7558  -0.6996  -0.5916  -0.5625  -0.5497  -0.5267
    -0.4960  -0.4555  -0.4077  -0.3393  -0.3261  -0.2056  -0.1372  -0.0946
    -0.0242   0.0414   0.0817   0.1193   0.1743   0.2709   0.2895   0.3638
     0.3786   0.5007   0.6074   0.6278   0.7804   0.8116   0.8796   0.9158
     0.9203   0.9335   0.9496   0.9642   1.0166   1.0941   1.5666   2.9546
     2.9575   3.0148   3.0206   3.3306   3.3316   3.4419   3.4437   3.7617
     3.7718

     the Fermi energy is     2.0547 ev

!    total energy              =   -2954.01279250 Ry
     estimated scf accuracy    <       0.00000007 Ry
     smearing contrib. (-TS)   =      -0.00162585 Ry
     internal energy E=F+TS    =   -2954.01116666 Ry

     The total energy is F=E-TS. E is the sum of the following terms:
     one-electron contribution =  -24216.64768399 Ry
     hartree contribution      =   12198.44370375 Ry
     xc contribution           =    -488.74464329 Ry
     ewald contribution        =    9552.93736739 Ry
     electric field correction =       0.00008949 Ry

     convergence has been achieved in  77 iterations

     Forces acting on atoms (cartesian axes, Ry/au):

     atom    1 type  1   force =     0.00017780   -0.00053088    0.12580662
     atom    2 type  1   force =     0.00000426    0.00025393   -0.15435038
     atom    3 type  2   force =     0.00002351   -0.00022600   -0.06692119
     atom    4 type  2   force =    -0.00001814    0.00008655    0.01659054
     atom    5 type  2   force =    -0.00391334   -0.00228932   -0.01295206
     atom    6 type  2   force =     0.00531052   -0.00149212   -0.01436267
     atom    7 type  1   force =    -0.00048964   -0.00698116    0.05747014
     atom    8 type  1   force =     0.00072247    0.00722118    0.09851865
     atom    9 type  2   force =     0.00002891    0.00008026   -0.00023225
     atom   10 type  2   force =    -0.00289900    0.00059937   -0.06214164
     atom   11 type  2   force =     0.00000538   -0.00007179   -0.00008022
     atom   12 type  2   force =    -0.00008736    0.00015177    0.00008643
     atom   13 type  1   force =     0.00009845    0.00018262    0.00032192
     atom   14 type  1   force =     0.00000744   -0.00003027    0.00025967
     atom   15 type  2   force =    -0.00011115    0.00020859   -0.00060656
     atom   16 type  2   force =     0.00004903    0.00016656   -0.00026371
     atom   17 type  2   force =    -0.00027025   -0.00006029    0.00008574
     atom   18 type  2   force =     0.00012333    0.00020773   -0.00005466
     atom   19 type  1   force =    -0.00006242    0.00001190    0.00012321
     atom   20 type  1   force =     0.00030118   -0.00045756   -0.00078027
     atom   21 type  2   force =     0.00006968    0.00021586    0.09784255
     atom   22 type  2   force =     0.00033811   -0.00010879    0.00020393
     atom   23 type  2   force =    -0.08277566    0.00009093   -0.03303891
     atom   24 type  2   force =     0.08273615    0.00050607   -0.03308811
     atom   25 type  1   force =     0.00010183   -0.00059988    0.12564728
     atom   26 type  1   force =     0.00000685   -0.00169332   -0.15476499
     atom   27 type  2   force =     0.00008851   -0.00077062   -0.06535315
     atom   28 type  2   force =     0.00005002    0.00188928    0.01144188
     atom   29 type  2   force =    -0.00251476    0.00468584   -0.01589646
     atom   30 type  2   force =     0.00368541    0.00502305   -0.01732506
     atom   31 type  1   force =    -0.00029692    0.00179726    0.04034148
     atom   32 type  1   force =     0.00092066   -0.01041259    0.09817131
     atom   33 type  2   force =    -0.00004300   -0.00005985   -0.00004901
     atom   34 type  2   force =    -0.00229934    0.00078662   -0.07422656
     atom   35 type  2   force =     0.00014419    0.00002212   -0.00005062
     atom   36 type  2   force =    -0.00011823   -0.00008270   -0.00010526
     atom   37 type  1   force =     0.00034869    0.00009657    0.00054551
     atom   38 type  1   force =     0.00010969   -0.00006336   -0.00013286
     atom   39 type  2   force =     0.00018968   -0.00012907   -0.00091668
     atom   40 type  2   force =     0.00001410    0.00004196   -0.00028084
     atom   41 type  2   force =    -0.00028359    0.00033630   -0.00000701
     atom   42 type  2   force =     0.00014283    0.00008731    0.00008471
     atom   43 type  1   force =     0.00026840   -0.00017781   -0.00033517
     atom   44 type  1   force =     0.00045954    0.00082370   -0.00100648
     atom   45 type  2   force =     0.00004572    0.00004767    0.09760397
     atom   46 type  2   force =    -0.08283597    0.00004972   -0.03305569
     atom   47 type  2   force =     0.08276575    0.00048294   -0.03307405
     atom   48 type  3   force =     0.00381969   -0.00016126   -0.00327941
     atom   49 type  4   force =    -0.00135067    0.00041663    0.01390506
     atom   50 type  5   force =    -0.00125831   -0.00074377   -0.00512034
     atom   51 type  3   force =    -0.00074781   -0.00001850   -0.00072343
     atom   52 type  3   force =    -0.00093331    0.00047974   -0.00101466
     atom   53 type  3   force =     0.00021507    0.00029954    0.00034421
     atom   54 type  2   force =     0.00033206   -0.00062554    0.00115095
     atom   55 type  3   force =    -0.00039605    0.00043688   -0.00095540

     Total force =     0.417872     Total SCF correction =     0.000757
  @ DRIVER MODE: Message from server: STATUS
  @ DRIVER MODE: Message from server: GETFORCE
  @ DRIVER MODE: Returning v,forces,stress,ensemble

     Writing output data file ./calc.save/
  @ DRIVER MODE: Message from server: EXIT
  @ DRIVE MODE: Exiting

     General routines

     Parallel routines

   This run was terminated on:  15:16:44  23Sep2021

   JOB DONE.