     Program PWSCF v.6.7GPU starts on  9Sep2021 at  4:43:28

     R & G space division:  proc/nbgrp/npool/nimage =      10
     Reading input from /storage/home/hcoda1/3/ntian30/research/carbon/CxH_vib/CH3_calc/ads_slab/CH3NNH3_a/out_0021/pw.inp
Warning: card &CELL ignored
Warning: card   CELL_DYNAMICS='IPI', ignored
Warning: card / ignored

     Current dimensions of program PWSCF are:
     Max number of different atomic species (ntypx) = 10
     Max number of k-points (npk) =  40000
     Max angular momentum in pseudopotentials (lmaxx) =  3
     Presently no symmetry can be used with electric field

     Message from routine cell_base_init:
     DEPRECATED: use true lattice parameter, not A to a.u. conversion factor

     IMPORTANT: XC functional enforced from input :
     Exchange-correlation= BEEF-VDW
                           (   1   4  43  14   2   0   0)
     Any further DFT definition will be discarded
     Please, verify this is what you really want

  @ DRIVER MODE: Connecting to
 qe_1139763_2767402.sched-torque.pace.gatech.edubvkj1ofj_scratch
  using UNIX socket
  @ DRIVER MODE: Message from server: STATUS
  @ DRIVER MODE: Message from server: INIT
  @ DRIVER MODE: Receiving replica           0          -1
  @ DRIVER MODE: Receiving encoded integer          25
  @ DRIVER MODE:  SCF:  T  FORCE:  T  STRESS:  F  VC:  F  ENSEMBLE:  F
  @ DRIVER MODE:  SCF:  T  FORCE:  T  STRESS:  F  VC:  F  ENSEMBLE:  F

     Using Slab Decomposition

     bravais-lattice index     =            0
     lattice parameter (alat)  =       1.8897  a.u.
     unit-cell volume          =    6658.9804 (a.u.)^3
     number of atoms/cell      =           56
     number of atomic types    =            5
     number of electrons       =       398.00
     number of Kohn-Sham states=          209
     kinetic-energy cutoff     =      29.3995  Ry
     charge density cutoff     =     293.9946  Ry
     scf convergence threshold =      7.3E-08
     mixing beta               =       0.0500
     number of iterations used =            8  plain     mixing
     Exchange-correlation= BEEF-VDW
                           (   1   4  43  14   2   0   0)

     celldm(1)=   1.889726  celldm(2)=   0.000000  celldm(3)=   0.000000
     celldm(4)=   0.000000  celldm(5)=   0.000000  celldm(6)=   0.000000

     crystal axes: (cart. coord. in units of alat)
               a(1) = (   6.579727   0.000000   0.000000 )
               a(2) = (  -0.000775   5.961596   0.000000 )
               a(3) = (   0.000000   0.000000  25.155947 )

     reciprocal axes: (cart. coord. in units 2 pi/alat)
               b(1) = (  0.151982  0.000020  0.000000 )
               b(2) = (  0.000000  0.167740  0.000000 )
               b(3) = (  0.000000  0.000000  0.039752 )

     PseudoPot. # 1 for Ti read from file:
     /storage/coda1/p-amedford6/0/shared/rich_project_chbe-medford/medford-share/data/pseudos_module/espresso/nninc/pbe/van/Ti.UPF
     MD5 check sum: 8e4df49b7f0d34bbd5052bf3f5ea0213
     Pseudo is Ultrasoft, Zval = 12.0
     Generated by new atomic code, or converted to UPF format
     Using radial grid of  851 points,  6 beta functions with:
                l(1) =   0
                l(2) =   0
                l(3) =   1
                l(4) =   1
                l(5) =   2
                l(6) =   2
     Q(r) pseudized with  8 coefficients,  rinner =    1.000   1.000   1.000
                                                       1.000   1.000

     PseudoPot. # 2 for O  read from file:
     /storage/coda1/p-amedford6/0/shared/rich_project_chbe-medford/medford-share/data/pseudos_module/espresso/nninc/pbe/van/O.UPF
     MD5 check sum: 78c19812648e8988a0fe644b0f25305e
     Pseudo is Ultrasoft, Zval =  6.0
     Generated by new atomic code, or converted to UPF format
     Using radial grid of  737 points,  4 beta functions with:
                l(1) =   0
                l(2) =   0
                l(3) =   1
                l(4) =   1
     Q(r) pseudized with  8 coefficients,  rinner =    0.800   0.800   0.800

     PseudoPot. # 3 for N  read from file:
     /storage/coda1/p-amedford6/0/shared/rich_project_chbe-medford/medford-share/data/pseudos_module/espresso/nninc/pbe/van/N.UPF
     MD5 check sum: 90d10febe142ad51ac9d5be1deb811c4
     Pseudo is Ultrasoft, Zval =  5.0
     Generated by new atomic code, or converted to UPF format
     Using radial grid of  729 points,  4 beta functions with:
                l(1) =   0
                l(2) =   0
                l(3) =   1
                l(4) =   1
     Q(r) pseudized with  8 coefficients,  rinner =    0.800   0.800   0.800

     PseudoPot. # 4 for C  read from file:
     /storage/coda1/p-amedford6/0/shared/rich_project_chbe-medford/medford-share/data/pseudos_module/espresso/nninc/pbe/van/C.UPF
     MD5 check sum: 1a69bf6b8db32088f5b2163dbdb77a27
     Pseudo is Ultrasoft, Zval =  4.0
     Generated by new atomic code, or converted to UPF format
     Using radial grid of  721 points,  4 beta functions with:
                l(1) =   0
                l(2) =   0
                l(3) =   1
                l(4) =   1
     Q(r) pseudized with  8 coefficients,  rinner =    0.800   0.800   0.800

     PseudoPot. # 5 for H  read from file:
     /storage/coda1/p-amedford6/0/shared/rich_project_chbe-medford/medford-share/data/pseudos_module/espresso/nninc/pbe/van/H.UPF
     MD5 check sum: b5ee9d7bfd3a09ee7748110bda690ff7
     Pseudo is Ultrasoft, Zval =  1.0
     Generated by new atomic code, or converted to UPF format
     Using radial grid of  615 points,  1 beta functions with:
                l(1) =   0
     Q(r) pseudized with  8 coefficients,  rinner =    0.800

     atomic species   valence    mass     pseudopotential
        Ti1           12.00    47.86700     Ti( 1.00)
        O1             6.00    15.99900     O ( 1.00)
        N1             5.00    14.00700     N ( 1.00)
        C1             4.00    12.01100     C ( 1.00)
        H1             1.00     1.00800     H ( 1.00)

     No symmetry found

   Cartesian axes

     site n.     atom                  positions (alat units)
         1           Ti1 tau(   1) = (   0.0004258   2.9801865   6.0000000  )
         2           Ti1 tau(   2) = (   3.2906075   1.4906267   6.0002472  )
         3           O1  tau(   3) = (   0.0006271   0.0005054   7.9858123  )
         4           O1  tau(   4) = (   3.2906025   0.0005020   7.3038282  )
         5           O1  tau(   5) = (   4.5942328   1.4918067   9.2879030  )
         6           O1  tau(   6) = (   1.9868534   1.4903216   9.2879459  )
         7           Ti1 tau(   7) = (   3.2907910   2.8959150   9.1758416  )
         8           Ti1 tau(   8) = (   0.0015273   1.4827037   9.2680791  )
         9           O1  tau(   9) = (   3.2915376   0.0135470  11.3011085  )
        10           O1  tau(  10) = (   0.0116148   5.9584955  10.6183126  )
        11           O1  tau(  11) = (   1.3264285   1.5112823  12.6233503  )
        12           O1  tau(  12) = (   5.3038506   1.5117067  12.6402039  )
        13           Ti1 tau(  13) = (   6.4820107   2.9926285  12.7699842  )
        14           Ti1 tau(  14) = (   3.1705855   1.5046985  12.4703807  )
        15           O1  tau(  15) = (   0.0265921   0.0018185  14.6022993  )
        16           O1  tau(  16) = (   3.3077976   0.0231332  13.8844522  )
        17           O1  tau(  17) = (   4.5431088   1.5356983  16.0582573  )
        18           O1  tau(  18) = (   2.0919096   1.5355568  16.0602035  )
        19           Ti1 tau(  19) = (   3.3160089   3.0194793  15.6930983  )
        20           Ti1 tau(  20) = (   0.0166562   1.5958061  16.1043543  )
        21           O1  tau(  21) = (   3.2904802   0.0005063   4.7018136  )
        22           O1  tau(  22) = (   0.0292894   0.0555714  17.2141426  )
        23           O1  tau(  23) = (   1.3043587   1.4918075   6.0039043  )
        24           O1  tau(  24) = (   5.2767064   1.4903225   6.0039473  )
        25           Ti1 tau(  25) = (   0.0000382   5.9609847   6.0000000  )
        26           Ti1 tau(  26) = (   3.2902200   4.4714249   6.0002472  )
        27           O1  tau(  27) = (   0.0002396   2.9813036   7.9858123  )
        28           O1  tau(  28) = (   3.2902150   2.9813002   7.3038282  )
        29           O1  tau(  29) = (   4.5938453   4.4726049   9.2879030  )
        30           O1  tau(  30) = (   1.9864658   4.4711199   9.2879459  )
        31           Ti1 tau(  31) = (   3.2891106   5.8743827   9.1763621  )
        32           Ti1 tau(  32) = (   0.0006254   4.4649316   9.2693709  )
        33           O1  tau(  33) = (   3.2938734   2.9940915  11.3014364  )
        34           O1  tau(  34) = (   0.0092240   2.9805883  10.6323155  )
        35           O1  tau(  35) = (   1.3265148   4.4779228  12.6213786  )
        36           O1  tau(  36) = (   5.3043665   4.4729268  12.6387898  )
        37           Ti1 tau(  37) = (   6.5102921   0.0103953  12.7821347  )
        38           Ti1 tau(  38) = (   3.1702703   4.4844908  12.4724723  )
        39           O1  tau(  39) = (   0.0044238   2.9856840  14.6711682  )
        40           O1  tau(  40) = (   3.3052367   3.0047533  13.8869641  )
        41           O1  tau(  41) = (   4.5463945   4.5179403  16.0573015  )
        42           O1  tau(  42) = (   2.0913021   4.5186677  16.0620504  )
        43           Ti1 tau(  43) = (   3.3128124   0.0388915  15.6953448  )
        44           Ti1 tau(  44) = (   0.0191476   4.5695365  16.1495174  )
        45           O1  tau(  45) = (   3.2900926   2.9813045   4.7018136  )
        46           O1  tau(  46) = (   1.3039711   4.4726057   6.0039043  )
        47           O1  tau(  47) = (   5.2763189   4.4711207   6.0039473  )
        48           N1  tau(  48) = (   0.0657769   3.0188755  17.3428317  )
        49           N1  tau(  49) = (   6.3710133   2.5762042  22.6422586  )
        50           C1  tau(  50) = (   0.3130180   3.0007025  18.7658599  )
        51           H1  tau(  51) = (   0.2928038   3.9966326  19.1970245  )
        52           H1  tau(  52) = (   6.1505335   2.3845869  19.2855718  )
        53           H1  tau(  53) = (   1.2957935   2.5555442  18.9776258  )
        54           H1  tau(  54) = (   5.9555952   3.1943721  23.3306195  )
        55           H1  tau(  55) = (   0.0098814   1.7053999  23.1148127  )
        56           H1  tau(  56) = (   0.6724875   2.9916800  22.3598805  )

     number of k points=    10  Fermi-Dirac smearing, width (Ry)=  0.0073
                       cart. coord. in units 2pi/alat
        k(    1) = (   0.0000000   0.0000000   0.0000000), wk =   0.1250000
        k(    2) = (   0.0000000   0.0419351   0.0000000), wk =   0.2500000
        k(    3) = (   0.0000000  -0.0838702   0.0000000), wk =   0.1250000
        k(    4) = (   0.0379955   0.0000049   0.0000000), wk =   0.2500000
        k(    5) = (   0.0379955   0.0419400   0.0000000), wk =   0.2500000
        k(    6) = (   0.0379955  -0.0838652   0.0000000), wk =   0.2500000
        k(    7) = (   0.0379955  -0.0419301   0.0000000), wk =   0.2500000
        k(    8) = (  -0.0759910  -0.0000099   0.0000000), wk =   0.1250000
        k(    9) = (  -0.0759910   0.0419252   0.0000000), wk =   0.2500000
        k(   10) = (  -0.0759910  -0.0838800   0.0000000), wk =   0.1250000

     Initial potential from superposition of free atoms

     starting charge  381.99914, renormalised to  398.00000

     negative rho (up, down):  7.228E-03 0.000E+00

     %%%%%%%%%%%%%%%%%%%%%%%%%%%%%%%%%%%%%%%%%%%%%%%%%%%%%%%%%%%%%%%%%%%%%%%%
     %                                                                      %
     % You are using vdW-DF, which was implemented by the Thonhauser group. %
     % Please cite the following two papers that made this development      %
     % possible and the two reviews that describe the various versions:     %
     %                                                                      %
     %   T. Thonhauser et al., PRL 115, 136402 (2015).                      %
     %   T. Thonhauser et al., PRB 76, 125112 (2007).                       %
     %   K. Berland et al., Rep. Prog. Phys. 78, 066501 (2015).             %
     %   D.C. Langreth et al., J. Phys.: Condens. Matter 21, 084203 (2009). %
     %                                                                      %
     %                                                                      %
     % If you are calculating the stress with vdW-DF, please also cite:     %
     %                                                                      %
     %   R. Sabatini et al., J. Phys.: Condens. Matter 24, 424209 (2012).   %
     %                                                                      %
     %%%%%%%%%%%%%%%%%%%%%%%%%%%%%%%%%%%%%%%%%%%%%%%%%%%%%%%%%%%%%%%%%%%%%%%%

     Adding external electric field

     Computed dipole along edir(3) :
        Dipole              -12.0378 Ry au,        -30.5970 Debye
        Dipole field         -0.0227 Ry au,

        Potential amp.        2.1058 Ry
        Total length         46.3494 bohr

     Starting wfcs are  302 atomic wfcs
  @ DRIVER MODE: Message from server: STATUS
  @ DRIVER MODE: Message from server: POSDATA
  @ DRIVER MODE: Reading and sharing cell
  @ DRIVER MODE: Reading and sharing positions
  @ DRIVER MODE: Received positions

     Self-consistent Calculation

     iteration #  1     ecut=    29.40 Ry     beta= 0.05
     Davidson diagonalization with overlap
     c_bands:  1 eigenvalues not converged
     c_bands:  1 eigenvalues not converged
     c_bands:  1 eigenvalues not converged
     c_bands:  1 eigenvalues not converged
     c_bands:  1 eigenvalues not converged
     c_bands:  1 eigenvalues not converged
     c_bands:  1 eigenvalues not converged
     c_bands:  2 eigenvalues not converged
     c_bands:  1 eigenvalues not converged
     ethr =  1.00E-05,  avg # of iterations = 19.6

[...]

     total energy              =   -2520.02794962 Ry
     estimated scf accuracy    <    4725.39423887 Ry

     iteration #  2     ecut=    29.40 Ry     beta= 0.05
     Davidson diagonalization with overlap
     ethr =  1.00E-02,  avg # of iterations = 21.8

[...]

     iteration # 50     ecut=    29.40 Ry     beta= 0.05
     Davidson diagonalization with overlap
     c_bands:  1 eigenvalues not converged
     ethr =  1.92E-07,  avg # of iterations =  5.8

[...]

     total energy              =   -2942.90429281 Ry
     estimated scf accuracy    <       0.00000008 Ry

     iteration # 78     ecut=    29.40 Ry     beta= 0.05
     Davidson diagonalization with overlap
     ethr =  1.99E-11,  avg # of iterations =  5.1

     negative rho (up, down):  9.750E-03 0.000E+00

     Adding external electric field

     Computed dipole along edir(3) :
        Dipole                0.6816 Ry au,          1.7324 Debye
        Dipole field          0.0013 Ry au,

        Potential amp.       -0.1192 Ry
        Total length         46.3494 bohr

     End of self-consistent calculation

          k = 0.0000 0.0000 0.0000 ( 18029 PWs)   bands (ev):

   -56.5037 -56.4701 -55.6119 -55.6029 -55.5767 -55.5704 -55.4738 -55.4382
   -55.2590 -55.2239 -55.1672 -55.1608 -55.1333 -55.0481 -54.6081 -54.5651
   -32.9312 -32.7775 -32.7493 -32.6805 -32.5895 -32.5572 -32.0912 -32.0694
   -32.0152 -31.8998 -31.8587 -31.8192 -31.8171 -31.7835 -31.7546 -31.7536
   -31.7521 -31.7343 -31.7236 -31.7196 -31.6984 -31.6823 -31.6561 -31.6424
   -31.6294 -31.6091 -31.6026 -31.5788 -31.5594 -31.5056 -31.4906 -31.4814
   -31.4026 -31.3979 -31.3780 -31.3342 -31.3262 -31.2945 -31.2780 -31.2542
   -31.2350 -31.1838 -31.1354 -30.8526 -30.8288 -30.8119 -30.7867 -30.6665
   -16.6652 -16.2233 -15.9952 -15.8651 -15.7918 -15.7432 -15.6904 -15.5740
   -15.4967 -15.4942 -15.4571 -15.4205 -15.3512 -15.2084 -15.1106 -15.0539
   -15.0118 -14.8971 -14.8311 -14.8044 -14.7945 -14.7630 -14.7455 -14.5468
   -14.5032 -14.4128 -14.4034 -14.2667 -14.0643 -13.9992 -13.6659 -13.5558
   -12.7006  -7.4499  -4.2322  -4.0945  -4.0754  -3.7194  -3.4775  -3.3913
    -3.2882  -3.2760  -3.2027  -3.0830  -3.0299  -2.9840  -2.8693  -2.8668
    -2.7239  -2.7225  -2.6786  -2.6681  -2.6339  -2.5851  -2.5546  -2.5082
    -2.5021  -2.4927  -2.3390  -2.2417  -2.1759  -2.1468  -2.1316  -2.1023
    -2.0272  -2.0023  -1.9909  -1.9828  -1.8944  -1.7452  -1.7394  -1.7112
    -1.6662  -1.6660  -1.6224  -1.6110  -1.4697  -1.3948  -1.2845  -1.2790
    -1.2433  -1.1756  -1.1736  -1.0714  -1.0008  -0.9491  -0.9101  -0.8042
    -0.7605  -0.7341  -0.6488  -0.5781  -0.5442  -0.5283  -0.5049  -0.4075
    -0.3905  -0.3677  -0.2845  -0.2750  -0.2268  -0.1392  -0.1184  -0.1148
    -0.0267  -0.0185   0.0825   0.1200   0.1620   0.1902   0.2800   0.3089
     0.4094   0.4536   0.4688   0.5914   0.6087   0.6677   0.7435   0.8053
     0.8253   0.8542   0.8866   0.8972   0.9792   1.0990   1.1039   1.1345
     1.2065   1.2531   1.4081   1.4469   1.7284   1.7433   2.4161   2.7716
     2.9330   3.2317   3.4327   3.5394   3.7486   3.7668   3.9443   3.9912
     4.0821

[...]

          k = 0.0380-0.0419 0.0000 ( 17876 PWs)   bands (ev):

[...]

          k =-0.0760-0.0000 0.0000 ( 17886 PWs)   bands (ev):

[...]

          k =-0.0760-0.0839 0.0000 ( 17948 PWs)   bands (ev):

   -56.4870 -56.4867 -55.5939 -55.5931 -55.5901 -55.5846 -55.4580 -55.4539
   -55.2439 -55.2389 -55.1581 -55.1502 -55.1501 -55.0508 -54.5990 -54.5741
   -32.7634 -32.7630 -32.7481 -32.7479 -32.6336 -32.6333 -31.9199 -31.9176
   -31.8941 -31.8878 -31.8493 -31.8484 -31.8064 -31.8039 -31.8036 -31.8028
   -31.7805 -31.7785 -31.7771 -31.7734 -31.7092 -31.7057 -31.6604 -31.6547
   -31.5945 -31.5861 -31.5263 -31.5216 -31.4945 -31.4944 -31.4872 -31.4426
   -31.4418 -31.4103 -31.3758 -31.3756 -31.3716 -31.3365 -31.3364 -31.3297
   -31.2938 -31.2558 -30.9976 -30.9251 -30.8250 -30.7977 -30.7941 -30.7521
   -16.0121 -16.0102 -15.9803 -15.9800 -15.7058 -15.7022 -15.6547 -15.6527
   -15.4834 -15.4771 -15.2671 -15.2588 -15.2546 -15.2505 -15.1223 -15.1158
   -15.0575 -15.0400 -14.9568 -14.9527 -14.8907 -14.8805 -14.8449 -14.8265
   -14.5051 -14.4842 -14.3658 -14.3475 -14.2123 -13.9985 -13.6593 -13.6593
   -12.7171  -7.4407  -4.1053  -4.0793  -3.1123  -3.1117  -3.0408  -3.0399
    -2.9175  -2.9124  -2.8442  -2.8435  -2.7329  -2.7305  -2.6980  -2.5983
    -2.5967  -2.5943  -2.5753  -2.5551  -2.4439  -2.4357  -2.4232  -2.4047
    -2.3593  -2.3563  -2.3475  -2.2661  -2.2519  -2.2158  -2.1759  -2.0698
    -2.0577  -2.0428  -2.0132  -1.9528  -1.9419  -1.9268  -1.8775  -1.8606
    -1.7776  -1.7225  -1.6590  -1.5517  -1.5474  -1.5380  -1.5257  -1.3709
    -1.3315  -1.3032  -1.2970  -1.2882  -1.2438  -1.1453  -1.1378  -0.9956
    -0.9952  -0.9231  -0.8429  -0.8271  -0.7970  -0.6664  -0.6235  -0.5831
    -0.5765  -0.5544  -0.5302  -0.5102  -0.4778  -0.3316  -0.3195  -0.2887
    -0.2481  -0.2404  -0.1939  -0.1266  -0.0387   0.0246   0.0262   0.0892
     0.1525   0.2130   0.2925   0.3089   0.3140   0.5951   0.6783   0.7660
     0.8425   0.9101   0.9746   0.9963   1.0654   1.0973   1.1336   1.2344
     1.2384   1.2554   1.2558   1.3272   1.3291   1.7069   2.3080   3.3455
     3.3459   3.4138   3.4143   3.7382   3.7437   3.8540   3.8643   3.9743
     3.9783

     the Fermi energy is     2.6042 ev

!    total energy              =   -2942.90430941 Ry
     estimated scf accuracy    <       0.00000004 Ry
     smearing contrib. (-TS)   =      -0.00455205 Ry
     internal energy E=F+TS    =   -2942.89975736 Ry

     The total energy is F=E-TS. E is the sum of the following terms:
     one-electron contribution =  -23043.06523770 Ry
     hartree contribution      =   11612.16127272 Ry
     xc contribution           =    -487.44844055 Ry
     ewald contribution        =    8975.45177150 Ry
     electric field correction =       0.00087666 Ry

     convergence has been achieved in  78 iterations

     Forces acting on atoms (cartesian axes, Ry/au):

     atom    1 type  1   force =     0.00001279   -0.00050128    0.12498808
     atom    2 type  1   force =    -0.00013201   -0.00063156   -0.16061083
     atom    3 type  2   force =     0.00017159   -0.00022263   -0.06934756
     atom    4 type  2   force =    -0.00004203   -0.00027809    0.02763118
     atom    5 type  2   force =    -0.01719203    0.00222521   -0.00888439
     atom    6 type  2   force =     0.01887409    0.00287658   -0.00920477
     atom    7 type  1   force =     0.00088288   -0.00376049    0.02232464
     atom    8 type  1   force =    -0.00036683   -0.00328364    0.11353187
     atom    9 type  2   force =     0.00050081   -0.00039778    0.00005242
     atom   10 type  2   force =    -0.00234672    0.00260187   -0.07319552
     atom   11 type  2   force =     0.00014208   -0.00095208   -0.00011576
     atom   12 type  2   force =     0.00000505   -0.00058198   -0.00003249
     atom   13 type  1   force =     0.00019786   -0.00019230   -0.00028579
     atom   14 type  1   force =    -0.00008086   -0.00053899   -0.00005431
     atom   15 type  2   force =    -0.00035481   -0.00099115    0.00083219
     atom   16 type  2   force =    -0.00013270   -0.00016784    0.00046603
     atom   17 type  2   force =     0.00088780   -0.00042633   -0.00033984
     atom   18 type  2   force =    -0.00058306   -0.00046106   -0.00030968
     atom   19 type  1   force =    -0.00024345    0.00006503   -0.00054152
     atom   20 type  1   force =     0.00054953   -0.00085775   -0.00094207
     atom   21 type  2   force =     0.00005106   -0.00006382    0.09969555
     atom   22 type  2   force =     0.00015548   -0.00039728   -0.00094465
     atom   23 type  2   force =    -0.07921750   -0.00005967   -0.03251817
     atom   24 type  2   force =     0.07907285    0.00037117   -0.03254702
     atom   25 type  1   force =     0.00002582   -0.00049991    0.12432697
     atom   26 type  1   force =    -0.00012761   -0.00048432   -0.16061801
     atom   27 type  2   force =     0.00028230   -0.00044336   -0.06835208
     atom   28 type  2   force =     0.00000280   -0.00013521    0.02748494
     atom   29 type  2   force =    -0.01765054    0.00173655   -0.00895730
     atom   30 type  2   force =     0.01922351    0.00199957   -0.00929473
     atom   31 type  1   force =     0.00080729   -0.00116819    0.02194709
     atom   32 type  1   force =    -0.00029565    0.00070842    0.11416567
     atom   33 type  2   force =    -0.00008127    0.00003937   -0.00056782
     atom   34 type  2   force =    -0.00201857    0.00206281   -0.07185610
     atom   35 type  2   force =     0.00002853   -0.00020935    0.00012214
     atom   36 type  2   force =    -0.00051370    0.00020463    0.00021400
     atom   37 type  1   force =     0.00087502    0.00095212   -0.00021407
     atom   38 type  1   force =    -0.00020824    0.00026988   -0.00018288
     atom   39 type  2   force =    -0.00002157   -0.00029785    0.00000495
     atom   40 type  2   force =    -0.00001204   -0.00019398   -0.00024155
     atom   41 type  2   force =     0.00022570   -0.00042712   -0.00032096
     atom   42 type  2   force =    -0.00000324   -0.00038872   -0.00036863
     atom   43 type  1   force =    -0.00036383    0.00007790   -0.00042062
     atom   44 type  1   force =     0.00005568    0.00095607    0.00037279
     atom   45 type  2   force =     0.00003702   -0.00007232    0.09972414
     atom   46 type  2   force =    -0.07922168   -0.00002824   -0.03252348
     atom   47 type  2   force =     0.07907353    0.00041696   -0.03252667
     atom   48 type  3   force =    -0.00037966    0.00124319   -0.00110840
     atom   49 type  3   force =    -0.00074509   -0.00083597    0.00014785
     atom   50 type  4   force =     0.00014484   -0.00945883   -0.00172744
     atom   51 type  5   force =    -0.00076600    0.01028594    0.00310027
     atom   52 type  5   force =     0.00005383   -0.00039110   -0.00037843
     atom   53 type  5   force =    -0.00013807    0.00000369   -0.00025367
     atom   54 type  5   force =     0.00050390   -0.00007305   -0.00010957
     atom   55 type  5   force =     0.00031695    0.00094998   -0.00054220
     atom   56 type  5   force =     0.00007815   -0.00017370   -0.00069379

     Total force =     0.426889     Total SCF correction =     0.000348
  @ DRIVER MODE: Message from server: STATUS
  @ DRIVER MODE: Message from server: GETFORCE
  @ DRIVER MODE: Returning v,forces,stress,ensemble

     Writing output data file ./calc.save/
  @ DRIVER MODE: Message from server: EXIT
  @ DRIVE MODE: Exiting

     General routines

     Parallel routines

   This run was terminated on:   5: 3:24   9Sep2021

   JOB DONE.