     Program PWSCF v.6.7GPU starts on 16Jul2021 at  7:45:42

     R & G space division:  proc/nbgrp/npool/nimage =      16
     Reading input from /storage/home/hcoda1/3/ntian30/research/carbon/15Jul_vib/ads_slab/CH3NH_a/out_0031/pw.inp
Warning: card &CELL ignored
Warning: card   CELL_DYNAMICS='IPI', ignored
Warning: card / ignored

     Current dimensions of program PWSCF are:
     Max number of different atomic species (ntypx) = 10
     Max number of k-points (npk) =  40000
     Max angular momentum in pseudopotentials (lmaxx) =  3
     Presently no symmetry can be used with electric field

     Message from routine cell_base_init:
     DEPRECATED: use true lattice parameter, not A to a.u. conversion factor

     IMPORTANT: XC functional enforced from input :
     Exchange-correlation= BEEF-VDW
                           (   1   4  43  14   2   0   0)
     Any further DFT definition will be discarded
     Please, verify this is what you really want

  @ DRIVER MODE: Connecting to
 qe_1139763_2351648.sched-torque.pace.gatech.eduvvkod1ej_scratch
  using UNIX socket
  @ DRIVER MODE: Message from server: STATUS
  @ DRIVER MODE: Message from server: INIT
  @ DRIVER MODE: Receiving replica           0          -1
  @ DRIVER MODE: Receiving encoded integer          25
  @ DRIVER MODE:  SCF:  T  FORCE:  T  STRESS:  F  VC:  F  ENSEMBLE:  F
  @ DRIVER MODE:  SCF:  T  FORCE:  T  STRESS:  F  VC:  F  ENSEMBLE:  F

     Using Slab Decomposition

     bravais-lattice index     =            0
     lattice parameter (alat)  =       1.8897  a.u.
     unit-cell volume          =    6658.9804 (a.u.)^3
     number of atoms/cell      =           53
     number of atomic types    =            5
     number of electrons       =       391.00
     number of Kohn-Sham states=          205
     kinetic-energy cutoff     =      29.3995  Ry
     charge density cutoff     =     293.9946  Ry
     scf convergence threshold =      7.3E-08
     mixing beta               =       0.0500
     number of iterations used =            8  plain     mixing
     Exchange-correlation= BEEF-VDW
                           (   1   4  43  14   2   0   0)

     celldm(1)=   1.889726  celldm(2)=   0.000000  celldm(3)=   0.000000
     celldm(4)=   0.000000  celldm(5)=   0.000000  celldm(6)=   0.000000

     crystal axes: (cart. coord. in units of alat)
               a(1) = (   6.579727   0.000000   0.000000 )
               a(2) = (  -0.000775   5.961596   0.000000 )
               a(3) = (   0.000000   0.000000  25.155947 )

     reciprocal axes: (cart. coord. in units 2 pi/alat)
               b(1) = (  0.151982  0.000020  0.000000 )
               b(2) = (  0.000000  0.167740  0.000000 )
               b(3) = (  0.000000  0.000000  0.039752 )

     PseudoPot. # 1 for Ti read from file:
     /storage/coda1/p-amedford6/0/shared/rich_project_chbe-medford/medford-share/data/pseudos_module/espresso/nninc/pbe/van/Ti.UPF
     MD5 check sum: 8e4df49b7f0d34bbd5052bf3f5ea0213
     Pseudo is Ultrasoft, Zval = 12.0
     Generated by new atomic code, or converted to UPF format
     Using radial grid of  851 points,  6 beta functions with:
                l(1) =   0
                l(2) =   0
                l(3) =   1
                l(4) =   1
                l(5) =   2
                l(6) =   2
     Q(r) pseudized with  8 coefficients,  rinner =    1.000   1.000   1.000
                                                       1.000   1.000

     PseudoPot. # 2 for O  read from file:
     /storage/coda1/p-amedford6/0/shared/rich_project_chbe-medford/medford-share/data/pseudos_module/espresso/nninc/pbe/van/O.UPF
     MD5 check sum: 78c19812648e8988a0fe644b0f25305e
     Pseudo is Ultrasoft, Zval =  6.0
     Generated by new atomic code, or converted to UPF format
     Using radial grid of  737 points,  4 beta functions with:
                l(1) =   0
                l(2) =   0
                l(3) =   1
                l(4) =   1
     Q(r) pseudized with  8 coefficients,  rinner =    0.800   0.800   0.800

     PseudoPot. # 3 for H  read from file:
     /storage/coda1/p-amedford6/0/shared/rich_project_chbe-medford/medford-share/data/pseudos_module/espresso/nninc/pbe/van/H.UPF
     MD5 check sum: b5ee9d7bfd3a09ee7748110bda690ff7
     Pseudo is Ultrasoft, Zval =  1.0
     Generated by new atomic code, or converted to UPF format
     Using radial grid of  615 points,  1 beta functions with:
                l(1) =   0
     Q(r) pseudized with  8 coefficients,  rinner =    0.800

     PseudoPot. # 4 for N  read from file:
     /storage/coda1/p-amedford6/0/shared/rich_project_chbe-medford/medford-share/data/pseudos_module/espresso/nninc/pbe/van/N.UPF
     MD5 check sum: 90d10febe142ad51ac9d5be1deb811c4
     Pseudo is Ultrasoft, Zval =  5.0
     Generated by new atomic code, or converted to UPF format
     Using radial grid of  729 points,  4 beta functions with:
                l(1) =   0
                l(2) =   0
                l(3) =   1
                l(4) =   1
     Q(r) pseudized with  8 coefficients,  rinner =    0.800   0.800   0.800

     PseudoPot. # 5 for C  read from file:
     /storage/coda1/p-amedford6/0/shared/rich_project_chbe-medford/medford-share/data/pseudos_module/espresso/nninc/pbe/van/C.UPF
     MD5 check sum: 1a69bf6b8db32088f5b2163dbdb77a27
     Pseudo is Ultrasoft, Zval =  4.0
     Generated by new atomic code, or converted to UPF format
     Using radial grid of  721 points,  4 beta functions with:
                l(1) =   0
                l(2) =   0
                l(3) =   1
                l(4) =   1
     Q(r) pseudized with  8 coefficients,  rinner =    0.800   0.800   0.800

     atomic species   valence    mass     pseudopotential
        Ti1           12.00    47.86700     Ti( 1.00)
        O1             6.00    15.99900     O ( 1.00)
        H1             1.00     1.00800     H ( 1.00)
        N1             5.00    14.00700     N ( 1.00)
        C1             4.00    12.01100     C ( 1.00)

     Starting magnetic structure
     atomic species   magnetization
        Ti1          0.000
        O1           0.000
        H1           0.000
        N1           0.000
        C1           0.025

     No symmetry found

   Cartesian axes

     site n.     atom                  positions (alat units)
         1           Ti1 tau(   1) = (   0.0004258   2.9801865   6.0000000  )
         2           Ti1 tau(   2) = (   3.2906075   1.4906267   6.0002472  )
         3           O1  tau(   3) = (   0.0006271   0.0005054   7.9858123  )
         4           O1  tau(   4) = (   3.2906025   0.0005020   7.3038282  )
         5           O1  tau(   5) = (   4.5942328   1.4918067   9.2879030  )
         6           O1  tau(   6) = (   1.9868534   1.4903216   9.2879459  )
         7           Ti1 tau(   7) = (   3.2907910   2.8959150   9.1758416  )
         8           Ti1 tau(   8) = (   0.0015273   1.4827037   9.2680791  )
         9           O1  tau(   9) = (   3.2884659   0.0075485  11.3235732  )
        10           O1  tau(  10) = (   0.0116148   5.9584955  10.6183126  )
        11           O1  tau(  11) = (   1.3171120   1.5008813  12.6157184  )
        12           O1  tau(  12) = (   5.2946386   1.4924346  12.6071097  )
        13           Ti1 tau(  13) = (   6.5241923   2.9548932  12.6217359  )
        14           Ti1 tau(  14) = (   3.2094326   1.4975571  12.4685497  )
        15           O1  tau(  15) = (   6.5712017   0.0435206  14.6415704  )
        16           O1  tau(  16) = (   3.3105969   0.0188825  13.9167609  )
        17           O1  tau(  17) = (   4.5276945   1.5520673  16.0775932  )
        18           O1  tau(  18) = (   2.0451199   1.5488911  16.0433559  )
        19           Ti1 tau(  19) = (   3.3056363   3.0248959  15.6834923  )
        20           Ti1 tau(  20) = (   0.0598299   1.5678558  15.8702049  )
        21           O1  tau(  21) = (   3.2904802   0.0005063   4.7018136  )
        22           O1  tau(  22) = (   0.0261329   0.0581799  17.1997403  )
        23           O1  tau(  23) = (   1.3043587   1.4918075   6.0039043  )
        24           O1  tau(  24) = (   5.2767064   1.4903225   6.0039473  )
        25           Ti1 tau(  25) = (   0.0000382   5.9609847   6.0000000  )
        26           Ti1 tau(  26) = (   3.2902200   4.4714249   6.0002472  )
        27           O1  tau(  27) = (   0.0002396   2.9813036   7.9858123  )
        28           O1  tau(  28) = (   3.2902150   2.9813002   7.3038282  )
        29           O1  tau(  29) = (   4.5938453   4.4726049   9.2879030  )
        30           O1  tau(  30) = (   1.9864658   4.4711199   9.2879459  )
        31           Ti1 tau(  31) = (   3.2891106   5.8743827   9.1763621  )
        32           Ti1 tau(  32) = (   0.0006254   4.4649316   9.2693709  )
        33           O1  tau(  33) = (   3.2900467   2.9919642  11.3219399  )
        34           O1  tau(  34) = (   0.0092240   2.9805883  10.6323155  )
        35           O1  tau(  35) = (   1.3109590   4.4888342  12.6262493  )
        36           O1  tau(  36) = (   5.2962169   4.4808628  12.6191006  )
        37           Ti1 tau(  37) = (   6.5213093   5.9327278  12.5667326  )
        38           Ti1 tau(  38) = (   3.2063601   4.4772876  12.4706241  )
        39           O1  tau(  39) = (   6.5765807   2.9606619  14.6437028  )
        40           O1  tau(  40) = (   3.3047873   3.0036736  13.8926904  )
        41           O1  tau(  41) = (   4.5386289   4.5058657  16.0833063  )
        42           O1  tau(  42) = (   2.0584685   4.5123608  16.0729366  )
        43           Ti1 tau(  43) = (   3.3398093   0.0384087  15.7085799  )
        44           Ti1 tau(  44) = (   0.0478225   4.6849499  16.0879628  )
        45           O1  tau(  45) = (   3.2900926   2.9813045   4.7018136  )
        46           O1  tau(  46) = (   1.3039711   4.4726057   6.0039043  )
        47           O1  tau(  47) = (   5.2763189   4.4711207   6.0039473  )
        48           H1  tau(  48) = (   5.6109407   2.9912845  17.7881963  )
        49           N1  tau(  49) = (   6.5652763   3.0051276  17.4431066  )
        50           C1  tau(  50) = (   0.8863280   2.9891452  18.6126320  )
        51           H1  tau(  51) = (   1.3596840   3.9617220  18.7724638  )
        52           H1  tau(  52) = (   0.3315535   2.7344040  19.5171108  )
        53           H1  tau(  53) = (   1.6605027   2.2407838  18.4910999  )

     number of k points=    10  Fermi-Dirac smearing, width (Ry)=  0.0073
                       cart. coord. in units 2pi/alat
        k(    1) = (   0.0000000   0.0000000   0.0000000), wk =   0.0625000
        k(    2) = (   0.0000000   0.0419351   0.0000000), wk =   0.1250000
        k(    3) = (   0.0000000  -0.0838702   0.0000000), wk =   0.0625000
        k(    4) = (   0.0379955   0.0000049   0.0000000), wk =   0.1250000
        k(    5) = (   0.0379955   0.0419400   0.0000000), wk =   0.1250000
        k(    6) = (   0.0379955  -0.0838652   0.0000000), wk =   0.1250000
        k(    7) = (   0.0379955  -0.0419301   0.0000000), wk =   0.1250000
        k(    8) = (  -0.0759910  -0.0000099   0.0000000), wk =   0.0625000
[...]

     Initial potential from superposition of free atoms

     starting charge  374.99916, renormalised to  391.00000

     negative rho (up, down):  8.890E-03 8.897E-03

     %%%%%%%%%%%%%%%%%%%%%%%%%%%%%%%%%%%%%%%%%%%%%%%%%%%%%%%%%%%%%%%%%%%%%%%%
     %                                                                      %
     % You are using vdW-DF, which was implemented by the Thonhauser group. %
     % Please cite the following two papers that made this development      %
     % possible and the two reviews that describe the various versions:     %
     %                                                                      %
     %   T. Thonhauser et al., PRL 115, 136402 (2015).                      %
     %   T. Thonhauser et al., PRB 76, 125112 (2007).                       %
     %   K. Berland et al., Rep. Prog. Phys. 78, 066501 (2015).             %
     %   D.C. Langreth et al., J. Phys.: Condens. Matter 21, 084203 (2009). %
     %                                                                      %
     %                                                                      %
     % If you are calculating the stress with vdW-DF, please also cite:     %
     %                                                                      %
     %   R. Sabatini et al., J. Phys.: Condens. Matter 24, 424209 (2012).   %
     %                                                                      %
     %%%%%%%%%%%%%%%%%%%%%%%%%%%%%%%%%%%%%%%%%%%%%%%%%%%%%%%%%%%%%%%%%%%%%%%%

     Adding external electric field

     Computed dipole along edir(3) :
        Dipole               -5.8084 Ry au,        -14.7635 Debye
        Dipole field         -0.0110 Ry au,

        Potential amp.        1.0161 Ry
        Total length         46.3494 bohr

[...]

     Starting wfcs are  296 atomic wfcs
  @ DRIVER MODE: Message from server: STATUS
  @ DRIVER MODE: Message from server: POSDATA
  @ DRIVER MODE: Reading and sharing cell
  @ DRIVER MODE: Reading and sharing positions
  @ DRIVER MODE: Received positions

     Self-consistent Calculation

     iteration #  1     ecut=    29.40 Ry     beta= 0.05
     Davidson diagonalization with overlap
     c_bands:  3 eigenvalues not converged
     c_bands:  1 eigenvalues not converged
     c_bands:  1 eigenvalues not converged
     c_bands:  2 eigenvalues not converged
     c_bands:  4 eigenvalues not converged
     c_bands:  2 eigenvalues not converged
     c_bands:  1 eigenvalues not converged
     c_bands:  1 eigenvalues not converged
     c_bands:  2 eigenvalues not converged
     c_bands:  3 eigenvalues not converged
     c_bands:  1 eigenvalues not converged
     c_bands:  1 eigenvalues not converged
     c_bands:  3 eigenvalues not converged
     c_bands:  4 eigenvalues not converged
     c_bands:  2 eigenvalues not converged
     c_bands:  1 eigenvalues not converged
     c_bands:  1 eigenvalues not converged
     c_bands:  2 eigenvalues not converged
     ethr =  1.00E-05,  avg # of iterations = 19.5

[...]

     total energy              =   -2770.93269436 Ry
     estimated scf accuracy    <    1638.35644882 Ry

     total magnetization       =     0.01 Bohr mag/cell
     absolute magnetization    =     0.02 Bohr mag/cell

[...]

     iteration #  3     ecut=    29.40 Ry     beta= 0.05
     Davidson diagonalization with overlap
     ethr =  1.00E-02,  avg # of iterations = 15.8

[...]

     iteration # 59     ecut=    29.40 Ry     beta= 0.05
     Davidson diagonalization with overlap
     c_bands:  1 eigenvalues not converged
     ethr =  2.25E-11,  avg # of iterations = 13.2

[...]

     total energy              =   -2920.42037407 Ry
     estimated scf accuracy    <       0.00000009 Ry

[...]

     iteration # 60     ecut=    29.40 Ry     beta= 0.05
     Davidson diagonalization with overlap
     ethr =  2.25E-11,  avg # of iterations =  7.6

     negative rho (up, down):  9.153E-03 9.154E-03

[...]

     Adding external electric field

     Computed dipole along edir(3) :
        Dipole                0.6956 Ry au,          1.7680 Debye
        Dipole field          0.0013 Ry au,

        Potential amp.       -0.1217 Ry
        Total length         46.3494 bohr

     Magnetic moment per site  (integrated on atomic sphere of radius R)
     atom   1 (R=0.717)  charge=  7.8575  magn=  0.0108
     atom   2 (R=0.717)  charge=  7.8410  magn=  0.0003
     atom   3 (R=0.717)  charge=  4.8648  magn= -0.0008
     atom   4 (R=0.717)  charge=  4.9003  magn= -0.0001
     atom   5 (R=0.717)  charge=  4.8705  magn= -0.0001
     atom   6 (R=0.717)  charge=  4.8712  magn= -0.0001
     atom   7 (R=0.717)  charge=  7.8399  magn=  0.0003
     atom   8 (R=0.717)  charge=  7.8316  magn=  0.0028
     atom   9 (R=0.717)  charge=  4.8873  magn=  0.0000
     atom  10 (R=0.717)  charge=  4.8598  magn= -0.0002
     atom  11 (R=0.717)  charge=  4.8722  magn=  0.0000
     atom  12 (R=0.717)  charge=  4.8711  magn= -0.0000
     atom  13 (R=0.717)  charge=  7.8297  magn=  0.0004
     atom  14 (R=0.717)  charge=  7.8426  magn= -0.0001
     atom  15 (R=0.717)  charge=  4.8599  magn=  0.0000
     atom  16 (R=0.717)  charge=  4.8822  magn=  0.0001
     atom  17 (R=0.717)  charge=  4.8579  magn=  0.0000
     atom  18 (R=0.717)  charge=  4.8644  magn=  0.0000
     atom  19 (R=0.717)  charge=  7.8685  magn= -0.0001
     atom  20 (R=0.717)  charge=  7.8397  magn=  0.0001
     atom  21 (R=0.717)  charge=  4.7571  magn= -0.0001
     atom  22 (R=0.717)  charge=  4.8381  magn=  0.0001
     atom  23 (R=0.717)  charge=  4.8628  magn= -0.0013
     atom  24 (R=0.717)  charge=  4.8628  magn= -0.0013
     atom  25 (R=0.717)  charge=  7.8575  magn=  0.0108
     atom  26 (R=0.717)  charge=  7.8411  magn=  0.0003
     atom  27 (R=0.717)  charge=  4.8641  magn= -0.0008
     atom  28 (R=0.717)  charge=  4.9005  magn= -0.0001
     atom  29 (R=0.717)  charge=  4.8713  magn= -0.0001
     atom  30 (R=0.717)  charge=  4.8719  magn= -0.0001
     atom  31 (R=0.717)  charge=  7.8401  magn=  0.0003
     atom  32 (R=0.717)  charge=  7.8317  magn=  0.0028
     atom  33 (R=0.717)  charge=  4.8864  magn=  0.0000
     atom  34 (R=0.717)  charge=  4.8464  magn= -0.0002
     atom  35 (R=0.717)  charge=  4.8726  magn=  0.0000
     atom  36 (R=0.717)  charge=  4.8718  magn= -0.0000
     atom  37 (R=0.717)  charge=  7.8315  magn=  0.0005
     atom  38 (R=0.717)  charge=  7.8429  magn= -0.0001
     atom  39 (R=0.717)  charge=  4.8525  magn=  0.0000
     atom  40 (R=0.717)  charge=  4.8881  magn=  0.0001
     atom  41 (R=0.717)  charge=  4.8602  magn=  0.0000
     atom  42 (R=0.717)  charge=  4.8621  magn=  0.0000
     atom  43 (R=0.717)  charge=  7.8659  magn= -0.0001
     atom  44 (R=0.717)  charge=  7.8696  magn= -0.0000
     atom  45 (R=0.717)  charge=  4.7572  magn= -0.0000
     atom  46 (R=0.717)  charge=  4.8628  magn= -0.0013
     atom  47 (R=0.717)  charge=  4.8628  magn= -0.0013
     atom  48 (R=0.419)  charge=  0.4541  magn=  0.0000
     atom  49 (R=0.419)  charge=  1.3227  magn= -0.0000
     atom  50 (R=0.447)  charge=  0.8350  magn=  0.0000
     atom  51 (R=0.419)  charge=  0.4419  magn= -0.0000
     atom  52 (R=0.419)  charge=  0.4440  magn= -0.0000
     atom  53 (R=0.419)  charge=  0.4476  magn= -0.0000

     End of self-consistent calculation

 ------ SPIN UP ------------

          k = 0.0000 0.0000 0.0000 ( 18029 PWs)   bands (ev):

   -55.9911 -55.9724 -55.9571 -55.9363 -55.8845 -55.8237 -55.8196 -55.7887
   -55.7849 -55.7548 -55.7458 -55.7121 -55.5546 -55.2745 -54.9536 -54.9196
   -32.5323 -32.4665 -32.3334 -32.3204 -32.2996 -32.2907 -32.2853 -32.2366
   -32.2311 -32.2198 -32.1955 -32.1884 -32.1555 -32.1449 -32.1241 -32.1172
   -32.1153 -32.0885 -32.0654 -32.0502 -32.0306 -32.0274 -32.0101 -31.9888
   -31.9796 -31.9774 -31.9745 -31.9635 -31.9491 -31.9420 -31.9400 -31.9345
   -31.9235 -31.9184 -31.8990 -31.8955 -31.8583 -31.8192 -31.7233 -31.5488
   -31.5421 -31.4710 -31.3600 -31.2728 -31.2502 -31.1770 -31.0906 -30.9792
   -16.7419 -16.4580 -16.2792 -16.1355 -16.1030 -16.0181 -15.8171 -15.6916
   -15.6793 -15.5762 -15.5385 -15.5143 -15.5077 -15.4809 -15.4773 -15.4188
   -15.4156 -15.4028 -15.3902 -15.3346 -15.3106 -15.2710 -15.1771 -15.1527
   -15.1374 -15.1098 -15.0296 -15.0225 -14.5833 -14.1028 -13.4560 -13.3397
    -8.9467  -4.3691  -4.1126  -3.9358  -3.8969  -3.8837  -3.8350  -3.5835
    -3.5674  -3.3293  -3.1957  -3.1757  -3.1671  -3.1509  -3.1368  -3.1172
    -2.8801  -2.8108  -2.7962  -2.7738  -2.7666  -2.7633  -2.7514  -2.7472
    -2.7046  -2.6450  -2.5268  -2.5143  -2.4082  -2.3609  -2.3374  -2.2911
    -2.2467  -2.2404  -2.2279  -2.2109  -2.1964  -2.1772  -2.1593  -2.0250
    -1.9612  -1.8338  -1.7856  -1.7795  -1.5814  -1.5371  -1.4478  -1.4236
    -1.4075  -1.4000  -1.3678  -1.2875  -1.1964  -1.1392  -1.1258  -1.0729
    -0.9962  -0.9845  -0.8743  -0.8695  -0.8068  -0.7496  -0.7398  -0.7306
    -0.6868  -0.6118  -0.5406  -0.4647  -0.4159  -0.3946  -0.3672  -0.2886
    -0.2587  -0.1617  -0.1433  -0.0970  -0.0937  -0.0444  -0.0019   0.0074
     0.0138   0.0284   0.0463   0.1947   0.3019   0.3584   0.3918   0.4028
     0.5584   0.5940   0.6825   0.7700   0.9954   1.0684   1.1623   1.2615
     1.3234   1.6394   1.6844   3.1570   3.2288   3.2913   3.3024   3.4033
     3.4060   3.6058   3.6232   3.6338   3.7044

[...]

          k =-0.0760-0.0000 0.0000 ( 17886 PWs)   bands (ev):

[...]

 ------ SPIN DOWN ----------

[...]

          k = 0.0380-0.0419 0.0000 ( 17876 PWs)   bands (ev):

[...]

          k =-0.0760-0.0839 0.0000 ( 17948 PWs)   bands (ev):

   -55.9557 -55.9539 -55.9536 -55.9532 -55.8796 -55.8293 -55.8037 -55.7994
   -55.7674 -55.7656 -55.7291 -55.7279 -55.5536 -55.2755 -54.9363 -54.9362
   -32.3370 -32.3341 -32.2736 -32.2730 -32.2655 -32.2479 -32.2472 -32.2450
   -32.1828 -32.1818 -32.1751 -32.1713 -32.1483 -32.1199 -32.1012 -32.0971
   -32.0840 -32.0831 -32.0782 -32.0711 -32.0704 -32.0684 -32.0661 -32.0353
   -32.0240 -32.0181 -31.9930 -31.9837 -31.9648 -31.9644 -31.9616 -31.9605
   -31.9439 -31.9432 -31.9397 -31.9381 -31.8873 -31.8219 -31.7185 -31.6120
   -31.5444 -31.4965 -31.2624 -31.2623 -31.1730 -31.1729 -31.1335 -31.1335
   -16.1937 -16.1603 -15.9248 -15.9155 -15.9064 -15.8905 -15.7457 -15.6938
   -15.6854 -15.6789 -15.6544 -15.6306 -15.5794 -15.5489 -15.5151 -15.5087
   -15.5022 -15.4965 -15.4403 -15.4338 -15.4117 -15.4043 -15.2904 -15.2862
   -15.2848 -15.2087 -15.1443 -15.0110 -14.7534 -14.1238 -13.4413 -13.4410
    -8.9504  -4.3801  -3.4882  -3.4501  -3.2995  -3.1898  -3.1647  -3.1515
    -3.1306  -3.0502  -2.8913  -2.8766  -2.8584  -2.8451  -2.8050  -2.7998
    -2.7880  -2.7744  -2.7673  -2.7495  -2.7157  -2.6756  -2.6463  -2.6393
    -2.6302  -2.6056  -2.5933  -2.5674  -2.5614  -2.5286  -2.5205  -2.5017
    -2.4780  -2.2162  -2.1973  -2.1803  -2.1110  -2.1041  -2.0694  -2.0615
    -2.0421  -2.0288  -1.9769  -1.8761  -1.7129  -1.6795  -1.6667  -1.6497
    -1.5847  -1.5646  -1.4155  -1.3872  -1.3702  -1.3306  -1.2817  -1.2517
    -1.2150  -1.1758  -1.1382  -1.0777  -1.0702  -0.9907  -0.9404  -0.9400
    -0.9126  -0.8430  -0.7641  -0.7462  -0.7349  -0.6942  -0.6804  -0.5986
    -0.5759  -0.4776  -0.4647  -0.3950  -0.3643  -0.2975  -0.0927   0.0043
     0.0631   0.0870   0.1399   0.2374   0.2914   0.3054   0.3383   0.3432
     0.4033   0.4439   0.5587   0.5663   0.6346   0.7382   1.2718   1.4332
     1.4338   1.5048   1.5050   3.4240   3.4298   3.4792   3.5101   3.6681
     3.6726   3.6936   3.6946   3.8137   3.8336

     the Fermi energy is     3.1552 ev

!    total energy              =   -2920.42041599 Ry
     estimated scf accuracy    <       0.00000005 Ry
     smearing contrib. (-TS)   =      -0.02201856 Ry
     internal energy E=F+TS    =   -2920.39839743 Ry

     The total energy is F=E-TS. E is the sum of the following terms:
     one-electron contribution =  -24727.78456002 Ry
     hartree contribution      =   12448.56220331 Ry
     xc contribution           =    -480.88155810 Ry
     ewald contribution        =    9839.70460428 Ry
     electric field correction =       0.00091310 Ry

     total magnetization       =     0.04 Bohr mag/cell
     absolute magnetization    =     0.06 Bohr mag/cell

     convergence has been achieved in  60 iterations

     Forces acting on atoms (cartesian axes, Ry/au):

     atom    1 type  1   force =     0.00010156   -0.00018649    0.09687854
     atom    2 type  1   force =     0.00004693   -0.00050308   -0.17505525
     atom    3 type  2   force =     0.00012902    0.00000880   -0.02531273
     atom    4 type  2   force =    -0.00003348   -0.00128609    0.05237711
     atom    5 type  2   force =    -0.01223224   -0.00000649    0.00299623
     atom    6 type  2   force =     0.01366006    0.00058755    0.00233083
     atom    7 type  1   force =     0.00058701    0.00034203   -0.01305067
     atom    8 type  1   force =     0.00047836    0.00729130    0.03066634
     atom    9 type  2   force =     0.00055857    0.00003652   -0.00019048
     atom   10 type  2   force =    -0.00267826    0.00210959   -0.01739138
     atom   11 type  2   force =    -0.00014253    0.00007396   -0.00002855
     atom   12 type  2   force =     0.00047725    0.00034170    0.00017687
     atom   13 type  1   force =    -0.00011912   -0.00056667   -0.00016325
     atom   14 type  1   force =    -0.00043452    0.00004928    0.00080921
     atom   15 type  2   force =    -0.00000133   -0.00079339    0.00079679
     atom   16 type  2   force =     0.00025589    0.00063476   -0.00047575
     atom   17 type  2   force =     0.00063412    0.00007647    0.00062286
     atom   18 type  2   force =    -0.00011080   -0.00006142    0.00010841
     atom   19 type  1   force =     0.00003522    0.00050186   -0.00025343
     atom   20 type  1   force =    -0.00028682   -0.00042841    0.00007291
     atom   21 type  2   force =     0.00005535   -0.00002758    0.10313035
     atom   22 type  2   force =     0.00017054   -0.00085227    0.00108278
     atom   23 type  2   force =    -0.07165233   -0.00015297   -0.02781596
     atom   24 type  2   force =     0.07155495    0.00034427   -0.02787253
     atom   25 type  1   force =     0.00008891   -0.00013755    0.09658483
     atom   26 type  1   force =     0.00009626   -0.00023360   -0.17518086
     atom   27 type  2   force =     0.00011816   -0.00011526   -0.02438003
     atom   28 type  2   force =     0.00004214   -0.00104215    0.05229262
     atom   29 type  2   force =    -0.01243078    0.00064193    0.00278910
     atom   30 type  2   force =     0.01373221    0.00098569    0.00213660
     atom   31 type  1   force =     0.00045061    0.00314204   -0.01359792
     atom   32 type  1   force =     0.00033483   -0.00951661    0.03105819
     atom   33 type  2   force =    -0.00007256    0.00031190   -0.00058393
     atom   34 type  2   force =    -0.00206515    0.00181799   -0.02539091
     atom   35 type  2   force =    -0.00018365   -0.00029259    0.00037182
     atom   36 type  2   force =     0.00026918   -0.00078231    0.00040033
     atom   37 type  1   force =     0.00003016    0.00023492    0.00100771
     atom   38 type  1   force =    -0.00022201    0.00041324    0.00077432
     atom   39 type  2   force =    -0.00005260   -0.00016982   -0.00062912
     atom   40 type  2   force =     0.00042076    0.00007277    0.00058093
     atom   41 type  2   force =     0.00026221   -0.00022404   -0.00006152
     atom   42 type  2   force =    -0.00050745   -0.00040374   -0.00034710
     atom   43 type  1   force =    -0.00073363   -0.00020018    0.00041746
     atom   44 type  1   force =    -0.00038217   -0.00078663    0.00048253
     atom   45 type  2   force =     0.00003767   -0.00004688    0.10314337
     atom   46 type  2   force =    -0.07164840   -0.00006696   -0.02781321
     atom   47 type  2   force =     0.07156740    0.00034681   -0.02787863
     atom   48 type  3   force =    -0.00007373   -0.00033831   -0.00017042
     atom   49 type  4   force =    -0.00093266    0.00023337   -0.00068610
     atom   50 type  5   force =    -0.00596530    0.00409558    0.00156949
     atom   51 type  3   force =    -0.00045104   -0.00008288    0.00021119
     atom   52 type  3   force =    -0.00021450   -0.00012382   -0.00031852
     atom   53 type  3   force =     0.00743171   -0.00526610   -0.00122148

     Total force =     0.368637     Total SCF correction =     0.000573
  @ DRIVER MODE: Message from server: STATUS
  @ DRIVER MODE: Message from server: GETFORCE
  @ DRIVER MODE: Returning v,forces,stress,ensemble

     Writing output data file ./calc.save/
  @ DRIVER MODE: Message from server: EXIT
  @ DRIVE MODE: Exiting

     General routines

     Parallel routines

   This run was terminated on:   8:14:20  16Jul2021

   JOB DONE.