     Program PWSCF v.6.7GPU starts on 25Sep2021 at 20:41:17

     R & G space division:  proc/nbgrp/npool/nimage =       8
     Reading input from /storage/home/hcoda1/3/ntian30/research/carbon/CxH_vib/H2O_calc/ads_slab/CH3ON2H2O_a/out_0013/pw.inp
Warning: card &CELL ignored
Warning: card   CELL_DYNAMICS='IPI', ignored
Warning: card / ignored

     Current dimensions of program PWSCF are:
     Max number of different atomic species (ntypx) = 10
     Max number of k-points (npk) =  40000
     Max angular momentum in pseudopotentials (lmaxx) =  3
     Presently no symmetry can be used with electric field

     Message from routine cell_base_init:
     DEPRECATED: use true lattice parameter, not A to a.u. conversion factor

     IMPORTANT: XC functional enforced from input :
     Exchange-correlation= BEEF-VDW
                           (   1   4  43  14   2   0   0)
     Any further DFT definition will be discarded
     Please, verify this is what you really want

  @ DRIVER MODE: Connecting to
 qe_1139763_2971672.sched-torque.pace.gatech.edu_qnq93i9_scratch
  using UNIX socket
  @ DRIVER MODE: Message from server: STATUS
  @ DRIVER MODE: Message from server: INIT
  @ DRIVER MODE: Receiving replica           0          -1
  @ DRIVER MODE: Receiving encoded integer          25
  @ DRIVER MODE:  SCF:  T  FORCE:  T  STRESS:  F  VC:  F  ENSEMBLE:  F
  @ DRIVER MODE:  SCF:  T  FORCE:  T  STRESS:  F  VC:  F  ENSEMBLE:  F

     Using Slab Decomposition

     bravais-lattice index     =            0
     lattice parameter (alat)  =       1.8897  a.u.
     unit-cell volume          =    6658.9804 (a.u.)^3
     number of atoms/cell      =           57
     number of atomic types    =            5
     number of electrons       =       409.00
     number of Kohn-Sham states=          214
     kinetic-energy cutoff     =      29.3995  Ry
     charge density cutoff     =     293.9946  Ry
     scf convergence threshold =      7.3E-08
     mixing beta               =       0.0500
     number of iterations used =            8  plain     mixing
     Exchange-correlation= BEEF-VDW
                           (   1   4  43  14   2   0   0)

     celldm(1)=   1.889726  celldm(2)=   0.000000  celldm(3)=   0.000000
     celldm(4)=   0.000000  celldm(5)=   0.000000  celldm(6)=   0.000000

     crystal axes: (cart. coord. in units of alat)
               a(1) = (   6.579727   0.000000   0.000000 )
               a(2) = (  -0.000775   5.961596   0.000000 )
               a(3) = (   0.000000   0.000000  25.155947 )

     reciprocal axes: (cart. coord. in units 2 pi/alat)
               b(1) = (  0.151982  0.000020  0.000000 )
               b(2) = (  0.000000  0.167740  0.000000 )
               b(3) = (  0.000000  0.000000  0.039752 )

     PseudoPot. # 1 for Ti read from file:
     /storage/coda1/p-amedford6/0/shared/rich_project_chbe-medford/medford-share/data/pseudos_module/espresso/nninc/pbe/van/Ti.UPF
     MD5 check sum: 8e4df49b7f0d34bbd5052bf3f5ea0213
     Pseudo is Ultrasoft, Zval = 12.0
     Generated by new atomic code, or converted to UPF format
     Using radial grid of  851 points,  6 beta functions with:
                l(1) =   0
                l(2) =   0
                l(3) =   1
                l(4) =   1
                l(5) =   2
                l(6) =   2
     Q(r) pseudized with  8 coefficients,  rinner =    1.000   1.000   1.000
                                                       1.000   1.000

     PseudoPot. # 2 for O  read from file:
     /storage/coda1/p-amedford6/0/shared/rich_project_chbe-medford/medford-share/data/pseudos_module/espresso/nninc/pbe/van/O.UPF
     MD5 check sum: 78c19812648e8988a0fe644b0f25305e
     Pseudo is Ultrasoft, Zval =  6.0
     Generated by new atomic code, or converted to UPF format
     Using radial grid of  737 points,  4 beta functions with:
                l(1) =   0
                l(2) =   0
                l(3) =   1
                l(4) =   1
     Q(r) pseudized with  8 coefficients,  rinner =    0.800   0.800   0.800

     PseudoPot. # 3 for C  read from file:
     /storage/coda1/p-amedford6/0/shared/rich_project_chbe-medford/medford-share/data/pseudos_module/espresso/nninc/pbe/van/C.UPF
     MD5 check sum: 1a69bf6b8db32088f5b2163dbdb77a27
     Pseudo is Ultrasoft, Zval =  4.0
     Generated by new atomic code, or converted to UPF format
     Using radial grid of  721 points,  4 beta functions with:
                l(1) =   0
                l(2) =   0
                l(3) =   1
                l(4) =   1
     Q(r) pseudized with  8 coefficients,  rinner =    0.800   0.800   0.800

     PseudoPot. # 4 for H  read from file:
     /storage/coda1/p-amedford6/0/shared/rich_project_chbe-medford/medford-share/data/pseudos_module/espresso/nninc/pbe/van/H.UPF
     MD5 check sum: b5ee9d7bfd3a09ee7748110bda690ff7
     Pseudo is Ultrasoft, Zval =  1.0
     Generated by new atomic code, or converted to UPF format
     Using radial grid of  615 points,  1 beta functions with:
                l(1) =   0
     Q(r) pseudized with  8 coefficients,  rinner =    0.800

     PseudoPot. # 5 for N  read from file:
     /storage/coda1/p-amedford6/0/shared/rich_project_chbe-medford/medford-share/data/pseudos_module/espresso/nninc/pbe/van/N.UPF
     MD5 check sum: 90d10febe142ad51ac9d5be1deb811c4
     Pseudo is Ultrasoft, Zval =  5.0
     Generated by new atomic code, or converted to UPF format
     Using radial grid of  729 points,  4 beta functions with:
                l(1) =   0
                l(2) =   0
                l(3) =   1
                l(4) =   1
     Q(r) pseudized with  8 coefficients,  rinner =    0.800   0.800   0.800

     atomic species   valence    mass     pseudopotential
        Ti1           12.00    47.86700     Ti( 1.00)
        O1             6.00    15.99900     O ( 1.00)
        C1             4.00    12.01100     C ( 1.00)
        H1             1.00     1.00800     H ( 1.00)
        N1             5.00    14.00700     N ( 1.00)

     No symmetry found

   Cartesian axes

     site n.     atom                  positions (alat units)
         1           Ti1 tau(   1) = (   0.0004258   2.9801865   6.0000000  )
         2           Ti1 tau(   2) = (   3.2906075   1.4906267   6.0002472  )
         3           O1  tau(   3) = (   0.0006271   0.0005054   7.9858123  )
         4           O1  tau(   4) = (   3.2906025   0.0005020   7.3038282  )
         5           O1  tau(   5) = (   4.5942328   1.4918067   9.2879030  )
         6           O1  tau(   6) = (   1.9868534   1.4903216   9.2879459  )
         7           Ti1 tau(   7) = (   3.3113259   3.0354369   9.1618307  )
         8           Ti1 tau(   8) = (   0.0141821   1.6139659   9.3625064  )
         9           O1  tau(   9) = (   3.2964399   0.0287090  11.3517035  )
        10           O1  tau(  10) = (   0.0046459   0.0167322  10.6079620  )
        11           O1  tau(  11) = (   1.2916403   1.5142126  12.6509924  )
        12           O1  tau(  12) = (   5.2954765   1.5212855  12.6445515  )
        13           Ti1 tau(  13) = (   0.0303381   3.0181167  12.7741416  )
        14           Ti1 tau(  14) = (   3.3376880   1.5190318  12.5019279  )
        15           O1  tau(  15) = (   6.5702980   0.0162101  14.7136675  )
        16           O1  tau(  16) = (   3.3118210   0.0215951  13.9605728  )
        17           O1  tau(  17) = (   4.5586303   1.5408398  16.0643691  )
        18           O1  tau(  18) = (   2.0376984   1.5397913  16.0346728  )
        19           Ti1 tau(  19) = (   3.2806018   3.0126274  15.6982083  )
        20           Ti1 tau(  20) = (   0.0204579   1.3876160  16.0921805  )
        21           O1  tau(  21) = (   3.2904802   0.0005063   4.7018136  )
        22           O1  tau(  22) = (   0.0362274   0.0182013  17.2505027  )
        23           O1  tau(  23) = (   1.3043587   1.4918075   6.0039043  )
        24           O1  tau(  24) = (   5.2767064   1.4903225   6.0039473  )
        25           Ti1 tau(  25) = (   0.0000382   5.9609847   6.0000000  )
        26           Ti1 tau(  26) = (   3.2902200   4.4714249   6.0002472  )
        27           O1  tau(  27) = (   0.0002396   2.9813036   7.9858123  )
        28           O1  tau(  28) = (   3.2902150   2.9813002   7.3038282  )
        29           O1  tau(  29) = (   4.5938453   4.4726049   9.2879030  )
        30           O1  tau(  30) = (   1.9864658   4.4711199   9.2879459  )
        31           Ti1 tau(  31) = (   3.2918133   0.0584897   9.1554610  )
        32           Ti1 tau(  32) = (   0.0176696   4.5429683   9.2683582  )
        33           O1  tau(  33) = (   3.2944385   3.0046939  11.3531965  )
        34           O1  tau(  34) = (   0.0071923   2.9964285  10.5824339  )
        35           O1  tau(  35) = (   1.2923070   4.5060354  12.6395470  )
        36           O1  tau(  36) = (   5.2930342   4.4972821  12.6335129  )
        37           Ti1 tau(  37) = (   0.0360028   0.0369787  12.5252624  )
        38           Ti1 tau(  38) = (   3.3378333   4.5109478  12.5016189  )
        39           O1  tau(  39) = (   0.0182598   3.0415135  14.6926035  )
        40           O1  tau(  40) = (   3.2973286   3.0139918  13.9115332  )
        41           O1  tau(  41) = (   4.5518717   4.4752506  16.0920674  )
        42           O1  tau(  42) = (   2.0385343   4.4722040  16.0556704  )
        43           Ti1 tau(  43) = (   3.3273276   0.0437280  15.7880462  )
        44           Ti1 tau(  44) = (   0.0148993   4.5306414  15.9319406  )
        45           O1  tau(  45) = (   3.2900926   2.9813045   4.7018136  )
        46           O1  tau(  46) = (   1.3039711   4.4726057   6.0039043  )
        47           O1  tau(  47) = (   5.2763189   4.4711207   6.0039473  )
        48           C1  tau(  48) = (   6.0619278   3.0088867  18.6555636  )
        49           O1  tau(  49) = (   6.5788924   2.9994598  17.3400993  )
        50           H1  tau(  50) = (   4.9613474   2.8828304  18.6515055  )
        51           H1  tau(  51) = (   6.4909130   2.1836263  19.2313859  )
        52           H1  tau(  52) = (   6.3070107   3.9563896  19.1453893  )
        53           N1  tau(  53) = (   5.9950546   3.0301018  22.7159517  )
        54           N1  tau(  54) = (   5.2276613   3.1827328  21.9368001  )
        55           O1  tau(  55) = (   3.1818816   0.0591848  18.2205797  )
        56           H1  tau(  56) = (   3.8437189   5.3938241  18.5518935  )
        57           H1  tau(  57) = (   2.3086839   5.6188137  18.3735615  )

     number of k points=    10  Fermi-Dirac smearing, width (Ry)=  0.0073
                       cart. coord. in units 2pi/alat
        k(    1) = (   0.0000000   0.0000000   0.0000000), wk =   0.1250000
        k(    2) = (   0.0000000   0.0419351   0.0000000), wk =   0.2500000
        k(    3) = (   0.0000000  -0.0838702   0.0000000), wk =   0.1250000
        k(    4) = (   0.0379955   0.0000049   0.0000000), wk =   0.2500000
        k(    5) = (   0.0379955   0.0419400   0.0000000), wk =   0.2500000
        k(    6) = (   0.0379955  -0.0838652   0.0000000), wk =   0.2500000
        k(    7) = (   0.0379955  -0.0419301   0.0000000), wk =   0.2500000
        k(    8) = (  -0.0759910  -0.0000099   0.0000000), wk =   0.1250000
        k(    9) = (  -0.0759910   0.0419252   0.0000000), wk =   0.2500000
        k(   10) = (  -0.0759910  -0.0838800   0.0000000), wk =   0.1250000

     Initial potential from superposition of free atoms

     starting charge  392.99914, renormalised to  409.00000

     negative rho (up, down):  9.746E-03 0.000E+00

     %%%%%%%%%%%%%%%%%%%%%%%%%%%%%%%%%%%%%%%%%%%%%%%%%%%%%%%%%%%%%%%%%%%%%%%%
     %                                                                      %
     % You are using vdW-DF, which was implemented by the Thonhauser group. %
     % Please cite the following two papers that made this development      %
     % possible and the two reviews that describe the various versions:     %
     %                                                                      %
     %   T. Thonhauser et al., PRL 115, 136402 (2015).                      %
     %   T. Thonhauser et al., PRB 76, 125112 (2007).                       %
     %   K. Berland et al., Rep. Prog. Phys. 78, 066501 (2015).             %
     %   D.C. Langreth et al., J. Phys.: Condens. Matter 21, 084203 (2009). %
     %                                                                      %
     %                                                                      %
     % If you are calculating the stress with vdW-DF, please also cite:     %
     %                                                                      %
     %   R. Sabatini et al., J. Phys.: Condens. Matter 24, 424209 (2012).   %
     %                                                                      %
     %%%%%%%%%%%%%%%%%%%%%%%%%%%%%%%%%%%%%%%%%%%%%%%%%%%%%%%%%%%%%%%%%%%%%%%%

     Adding external electric field

     Computed dipole along edir(3) :
        Dipole              -18.5715 Ry au,        -47.2041 Debye
        Dipole field         -0.0350 Ry au,

        Potential amp.        3.2488 Ry
        Total length         46.3494 bohr

     Starting wfcs are  309 atomic wfcs
  @ DRIVER MODE: Message from server: STATUS
  @ DRIVER MODE: Message from server: POSDATA
  @ DRIVER MODE: Reading and sharing cell
  @ DRIVER MODE: Reading and sharing positions
  @ DRIVER MODE: Received positions

     Self-consistent Calculation

     iteration #  1     ecut=    29.40 Ry     beta= 0.05
     Davidson diagonalization with overlap
     c_bands:  3 eigenvalues not converged
     c_bands:  2 eigenvalues not converged
     c_bands:  2 eigenvalues not converged
     c_bands:  5 eigenvalues not converged
     c_bands:  5 eigenvalues not converged
     c_bands:  5 eigenvalues not converged
     c_bands:  1 eigenvalues not converged
     c_bands:  3 eigenvalues not converged
     ethr =  1.00E-05,  avg # of iterations = 28.5

[...]

     total energy              =   -2113.13399070 Ry
     estimated scf accuracy    <   10297.57567395 Ry

     iteration #  2     ecut=    29.40 Ry     beta= 0.05
     Davidson diagonalization with overlap
     ethr =  1.00E-02,  avg # of iterations = 30.8

[...]

     iteration # 82     ecut=    29.40 Ry     beta= 0.05
     Davidson diagonalization with overlap
     c_bands:  1 eigenvalues not converged
     c_bands:  1 eigenvalues not converged
     ethr =  1.24E-09,  avg # of iterations = 17.7

[...]

     total energy              =   -3006.52125100 Ry
     estimated scf accuracy    <       0.00000015 Ry

     iteration # 89     ecut=    29.40 Ry     beta= 0.05
     Davidson diagonalization with overlap
     ethr =  3.56E-11,  avg # of iterations =  8.9

     negative rho (up, down):  1.093E-02 0.000E+00

     Adding external electric field

     Computed dipole along edir(3) :
        Dipole                0.9961 Ry au,          2.5317 Debye
        Dipole field          0.0019 Ry au,

        Potential amp.       -0.1742 Ry
        Total length         46.3494 bohr

     End of self-consistent calculation

          k = 0.0000 0.0000 0.0000 ( 18029 PWs)   bands (ev):

   -55.2862 -55.2515 -55.2503 -55.2151 -55.1926 -55.1772 -55.1696 -55.1339
   -55.0831 -55.0648 -55.0497 -55.0417 -55.0078 -54.9538 -54.2930 -54.2590
   -31.8085 -31.7554 -31.6787 -31.6466 -31.6250 -31.5780 -31.5608 -31.5570
   -31.5210 -31.5159 -31.4791 -31.4654 -31.4589 -31.4500 -31.4459 -31.4329
   -31.4269 -31.3906 -31.3853 -31.3777 -31.3736 -31.3548 -31.3508 -31.3418
   -31.3341 -31.3279 -31.3122 -31.2907 -31.2802 -31.2747 -31.2715 -31.2643
   -31.2611 -31.2456 -31.2328 -31.2228 -31.2208 -31.1863 -31.1712 -31.1508
   -31.1385 -31.1372 -30.7023 -30.6066 -30.5842 -30.5189 -30.4329 -30.3217
   -21.4234 -18.7330 -17.2002 -16.0009 -15.7304 -15.5701 -15.4391 -15.4039
   -15.2168 -15.0952 -14.9626 -14.9384 -14.8846 -14.8573 -14.8230 -14.8123
   -14.8074 -14.7951 -14.7868 -14.7403 -14.7058 -14.6884 -14.6879 -14.6645
   -14.6159 -14.5623 -14.4971 -14.4323 -14.4037 -14.3619 -14.2928 -14.2847
   -12.7936 -12.6757  -9.1025  -6.6000  -6.5263  -4.5614  -4.5505  -3.9091
    -3.7671  -3.4548  -3.3644  -3.2839  -3.2127  -3.1901  -3.1687  -3.0932
    -2.9815  -2.8464  -2.7506  -2.5117  -2.4563  -2.4136  -2.3817  -2.3529
    -2.1962  -2.1715  -2.1027  -2.0916  -2.0828  -2.0721  -2.0445  -2.0159
    -1.9903  -1.9585  -1.8978  -1.8755  -1.8049  -1.6740  -1.6653  -1.6334
    -1.5870  -1.5707  -1.5690  -1.5423  -1.4983  -1.4794  -1.4551  -1.4495
    -1.3524  -1.2598  -1.2170  -1.1233  -1.0435  -0.9706  -0.8478  -0.8093
    -0.7362  -0.7030  -0.6869  -0.6331  -0.5834  -0.5720  -0.5150  -0.4680
    -0.3603  -0.3179  -0.2760  -0.2387  -0.1877  -0.1434  -0.0723  -0.0390
    -0.0069  -0.0023   0.0188   0.2171   0.2283   0.2797   0.2925   0.3895
     0.4419   0.4767   0.4897   0.4989   0.5370   0.6126   0.6681   0.6766
     0.7084   0.7442   0.7636   0.8102   0.8502   0.9029   0.9325   0.9673
     1.0338   1.0744   1.2282   1.3227   1.3669   1.4827   1.6399   1.7312
     1.8048   1.9052   2.3180   2.3753   3.8953   3.9295   3.9561   3.9746
     4.0425   4.1415   4.2582   4.3490   4.3587   4.3891

[...]

          k = 0.0380-0.0419 0.0000 ( 17876 PWs)   bands (ev):

[...]

          k =-0.0760-0.0000 0.0000 ( 17886 PWs)   bands (ev):

[...]

          k =-0.0760-0.0839 0.0000 ( 17948 PWs)   bands (ev):

   -55.2739 -55.2624 -55.2354 -55.2309 -55.1895 -55.1750 -55.1589 -55.1447
   -55.0857 -55.0617 -55.0519 -55.0271 -55.0226 -54.9564 -54.2765 -54.2754
   -31.6203 -31.6039 -31.5782 -31.5766 -31.5662 -31.5648 -31.5475 -31.5143
   -31.5074 -31.4907 -31.4872 -31.4769 -31.4416 -31.4312 -31.4109 -31.4066
   -31.4017 -31.3997 -31.3982 -31.3922 -31.3891 -31.3858 -31.3744 -31.3660
   -31.3598 -31.3511 -31.3503 -31.3486 -31.3433 -31.3177 -31.2917 -31.2789
   -31.2763 -31.2751 -31.2721 -31.2633 -31.2548 -31.2422 -31.2327 -31.2234
   -31.1817 -31.1480 -30.5975 -30.5962 -30.5157 -30.5148 -30.4764 -30.4755
   -21.4233 -18.7321 -17.1698 -15.4688 -15.3598 -15.2309 -15.1662 -15.1435
   -15.1168 -15.0640 -15.0477 -14.9921 -14.9879 -14.9373 -14.9311 -14.8879
   -14.8811 -14.8273 -14.7991 -14.7901 -14.7610 -14.7284 -14.7124 -14.7114
   -14.6714 -14.6499 -14.6413 -14.6108 -14.6036 -14.5415 -14.5041 -14.4711
   -12.7779 -12.7760  -9.1044  -6.6007  -6.5197  -4.5618  -4.5577  -3.8173
    -3.7253  -3.4838  -3.2706  -3.0007  -2.7543  -2.5714  -2.4805  -2.4115
    -2.3584  -2.3404  -2.2309  -2.2064  -2.1765  -2.1417  -2.1193  -2.1086
    -2.0910  -2.0820  -2.0748  -2.0572  -2.0236  -2.0037  -1.9779  -1.9529
    -1.9373  -1.9145  -1.8968  -1.8893  -1.8648  -1.8369  -1.8300  -1.8273
    -1.7642  -1.7238  -1.5664  -1.5213  -1.4999  -1.4102  -1.3907  -1.3742
    -1.3486  -1.3347  -1.3180  -1.1982  -1.1480  -1.1190  -1.0116  -0.9936
    -0.9676  -0.8292  -0.8054  -0.7728  -0.7443  -0.7027  -0.6328  -0.6088
    -0.5538  -0.5412  -0.4400  -0.4029  -0.3779  -0.3645  -0.2688  -0.2466
    -0.2410  -0.2150  -0.1520  -0.1204  -0.0739  -0.0450  -0.0144   0.0103
     0.0561   0.0761   0.1700   0.1902   0.2265   0.2694   0.3633   0.5296
     0.6230   0.7332   0.7590   0.8058   0.8664   0.9086   0.9590   1.0125
     1.0599   1.0668   1.1292   1.1664   1.2513   1.2652   1.2685   1.3369
     2.0925   2.0928   2.1806   2.1897   4.1368   4.1452   4.2023   4.2219
     4.3611   4.3673   4.3807   4.3883   4.4836   4.5470

     the Fermi energy is     3.8653 ev

!    total energy              =   -3006.52125385 Ry
     estimated scf accuracy    <       0.00000007 Ry
     smearing contrib. (-TS)   =      -0.02294509 Ry
     internal energy E=F+TS    =   -3006.49830876 Ry

     The total energy is F=E-TS. E is the sum of the following terms:
     one-electron contribution =  -22563.02323547 Ry
     hartree contribution      =   11380.84906778 Ry
     xc contribution           =    -501.13887055 Ry
     ewald contribution        =    8676.81285723 Ry
     electric field correction =       0.00187225 Ry

     convergence has been achieved in  89 iterations

     Forces acting on atoms (cartesian axes, Ry/au):

     atom    1 type  1   force =    -0.00014689   -0.00167378    0.10541068
     atom    2 type  1   force =    -0.00022302    0.00113338   -0.17918025
     atom    3 type  2   force =     0.00020561   -0.00553269   -0.03235017
     atom    4 type  2   force =     0.00010250    0.00072042    0.04629659
     atom    5 type  2   force =    -0.01803485    0.00052557    0.00424119
     atom    6 type  2   force =     0.01843161   -0.00044603    0.00411074
     atom    7 type  1   force =     0.00007503    0.00020056    0.00005258
     atom    8 type  1   force =     0.00006909    0.00030756   -0.00013700
     atom    9 type  2   force =     0.00017368    0.00034534   -0.00008243
     atom   10 type  2   force =     0.00017155   -0.00000754    0.00004512
     atom   11 type  2   force =     0.00005168   -0.00034482   -0.00037363
     atom   12 type  2   force =    -0.00006117   -0.00051826   -0.00051402
     atom   13 type  1   force =     0.00047613    0.00023639    0.00005204
     atom   14 type  1   force =    -0.00027011   -0.00047925   -0.00041889
     atom   15 type  2   force =     0.00005172   -0.00054652    0.00034025
     atom   16 type  2   force =    -0.00009033    0.00030408   -0.00023771
     atom   17 type  2   force =    -0.00039836   -0.00062340    0.00003114
     atom   18 type  2   force =     0.00002010   -0.00048113    0.00020014
     atom   19 type  1   force =     0.00044491   -0.00027171   -0.00008028
     atom   20 type  1   force =    -0.00012497   -0.00089848   -0.00091536
     atom   21 type  2   force =    -0.00003580    0.00010082    0.10393623
     atom   22 type  2   force =    -0.00000748   -0.00051918    0.00048373
     atom   23 type  2   force =    -0.06943851    0.00051751   -0.02946301
     atom   24 type  2   force =     0.06919230    0.00097601   -0.02951889
     atom   25 type  1   force =    -0.00003238    0.00156561    0.11482652
     atom   26 type  1   force =    -0.00022099   -0.00047673   -0.17918941
     atom   27 type  2   force =     0.00021356    0.00414480   -0.02604885
     atom   28 type  2   force =     0.00042808    0.00092933    0.04808101
     atom   29 type  2   force =    -0.01630811    0.00162432    0.00385353
     atom   30 type  2   force =     0.01736072    0.00217530    0.00362322
     atom   31 type  1   force =    -0.00014555    0.00010682   -0.00023288
     atom   32 type  1   force =     0.00010634   -0.00009144    0.00025243
     atom   33 type  2   force =     0.00028711   -0.00050779    0.00019062
     atom   34 type  2   force =    -0.00004039   -0.00030787   -0.00025605
     atom   35 type  2   force =    -0.00045724   -0.00013479    0.00001815
     atom   36 type  2   force =     0.00053971    0.00001797    0.00000924
     atom   37 type  1   force =     0.00046726   -0.00072838   -0.00006017
     atom   38 type  1   force =    -0.00037364   -0.00002564   -0.00036112
     atom   39 type  2   force =    -0.00042220   -0.00050105   -0.00045881
     atom   40 type  2   force =     0.00035513   -0.00041048   -0.00026175
     atom   41 type  2   force =    -0.00016076   -0.00002374    0.00000856
     atom   42 type  2   force =    -0.00035061   -0.00022790    0.00005070
     atom   43 type  1   force =     0.00028481    0.00010433    0.00143255
     atom   44 type  1   force =    -0.00001564   -0.00021290   -0.00085451
     atom   45 type  2   force =    -0.00003714    0.00007598    0.10399241
     atom   46 type  2   force =    -0.06904608   -0.00107046   -0.02951645
     atom   47 type  2   force =     0.06885843   -0.00062650   -0.02959450
     atom   48 type  3   force =    -0.01021332   -0.00092389   -0.00036621
     atom   49 type  2   force =    -0.00040776    0.00024849   -0.00008073
     atom   50 type  4   force =     0.01075581    0.00102518    0.00025824
     atom   51 type  4   force =    -0.00021945   -0.00035470    0.00004302
     atom   52 type  4   force =    -0.00030045    0.00034300   -0.00051293
     atom   53 type  5   force =    -0.00106815   -0.00018268   -0.00111818
     atom   54 type  5   force =     0.00052253    0.00037455    0.00082206
     atom   55 type  2   force =     0.00068451   -0.00004793    0.00038212
     atom   56 type  4   force =    -0.00157223    0.00012794   -0.00064930
     atom   57 type  4   force =    -0.00010632    0.00096641   -0.00021132

     Total force =     0.374858     Total SCF correction =     0.000658
  @ DRIVER MODE: Message from server: STATUS
  @ DRIVER MODE: Message from server: GETFORCE
  @ DRIVER MODE: Returning v,forces,stress,ensemble

     Writing output data file ./calc.save/
  @ DRIVER MODE: Message from server: EXIT
  @ DRIVE MODE: Exiting

     General routines

     Parallel routines

   This run was terminated on:  21:15:33  25Sep2021

   JOB DONE.