     Program PWSCF v.6.7GPU starts on 15Sep2021 at 14:54:44

     R & G space division:  proc/nbgrp/npool/nimage =      10
     Reading input from /storage/home/hcoda1/3/ntian30/research/carbon/CxH_vib/CH_calc/ads_slab/CHNHNH2_b/out_0017/pw.inp
Warning: card &CELL ignored
Warning: card   CELL_DYNAMICS='IPI', ignored
Warning: card / ignored

     Current dimensions of program PWSCF are:
     Max number of different atomic species (ntypx) = 10
     Max number of k-points (npk) =  40000
     Max angular momentum in pseudopotentials (lmaxx) =  3
     Presently no symmetry can be used with electric field

     Message from routine cell_base_init:
     DEPRECATED: use true lattice parameter, not A to a.u. conversion factor

     IMPORTANT: XC functional enforced from input :
     Exchange-correlation= BEEF-VDW
                           (   1   4  43  14   2   0   0)
     Any further DFT definition will be discarded
     Please, verify this is what you really want

  @ DRIVER MODE: Connecting to
 qe_1139763_2850203.sched-torque.pace.gatech.edu1cbj1hmi_scratch
  using UNIX socket
  @ DRIVER MODE: Message from server: STATUS
  @ DRIVER MODE: Message from server: INIT
  @ DRIVER MODE: Receiving replica           0          -1
  @ DRIVER MODE: Receiving encoded integer          25
  @ DRIVER MODE:  SCF:  T  FORCE:  T  STRESS:  F  VC:  F  ENSEMBLE:  F
  @ DRIVER MODE:  SCF:  T  FORCE:  T  STRESS:  F  VC:  F  ENSEMBLE:  F

     Using Slab Decomposition

     bravais-lattice index     =            0
     lattice parameter (alat)  =       1.8897  a.u.
     unit-cell volume          =    6658.9804 (a.u.)^3
     number of atoms/cell      =           54
     number of atomic types    =            5
     number of electrons       =       396.00
     number of Kohn-Sham states=          208
     kinetic-energy cutoff     =      29.3995  Ry
     charge density cutoff     =     293.9946  Ry
     scf convergence threshold =      7.3E-08
     mixing beta               =       0.0500
     number of iterations used =            8  plain     mixing
     Exchange-correlation= BEEF-VDW
                           (   1   4  43  14   2   0   0)

     celldm(1)=   1.889726  celldm(2)=   0.000000  celldm(3)=   0.000000
     celldm(4)=   0.000000  celldm(5)=   0.000000  celldm(6)=   0.000000

     crystal axes: (cart. coord. in units of alat)
               a(1) = (   6.579727   0.000000   0.000000 )
               a(2) = (  -0.000775   5.961596   0.000000 )
               a(3) = (   0.000000   0.000000  25.155947 )

     reciprocal axes: (cart. coord. in units 2 pi/alat)
               b(1) = (  0.151982  0.000020  0.000000 )
               b(2) = (  0.000000  0.167740  0.000000 )
               b(3) = (  0.000000  0.000000  0.039752 )

     PseudoPot. # 1 for Ti read from file:
     /storage/coda1/p-amedford6/0/shared/rich_project_chbe-medford/medford-share/data/pseudos_module/espresso/nninc/pbe/van/Ti.UPF
     MD5 check sum: 8e4df49b7f0d34bbd5052bf3f5ea0213
     Pseudo is Ultrasoft, Zval = 12.0
     Generated by new atomic code, or converted to UPF format
     Using radial grid of  851 points,  6 beta functions with:
                l(1) =   0
                l(2) =   0
                l(3) =   1
                l(4) =   1
                l(5) =   2
                l(6) =   2
     Q(r) pseudized with  8 coefficients,  rinner =    1.000   1.000   1.000
                                                       1.000   1.000

     PseudoPot. # 2 for O  read from file:
     /storage/coda1/p-amedford6/0/shared/rich_project_chbe-medford/medford-share/data/pseudos_module/espresso/nninc/pbe/van/O.UPF
     MD5 check sum: 78c19812648e8988a0fe644b0f25305e
     Pseudo is Ultrasoft, Zval =  6.0
     Generated by new atomic code, or converted to UPF format
     Using radial grid of  737 points,  4 beta functions with:
                l(1) =   0
                l(2) =   0
                l(3) =   1
                l(4) =   1
     Q(r) pseudized with  8 coefficients,  rinner =    0.800   0.800   0.800

     PseudoPot. # 3 for N  read from file:
     /storage/coda1/p-amedford6/0/shared/rich_project_chbe-medford/medford-share/data/pseudos_module/espresso/nninc/pbe/van/N.UPF
     MD5 check sum: 90d10febe142ad51ac9d5be1deb811c4
     Pseudo is Ultrasoft, Zval =  5.0
     Generated by new atomic code, or converted to UPF format
     Using radial grid of  729 points,  4 beta functions with:
                l(1) =   0
                l(2) =   0
                l(3) =   1
                l(4) =   1
     Q(r) pseudized with  8 coefficients,  rinner =    0.800   0.800   0.800

     PseudoPot. # 4 for C  read from file:
     /storage/coda1/p-amedford6/0/shared/rich_project_chbe-medford/medford-share/data/pseudos_module/espresso/nninc/pbe/van/C.UPF
     MD5 check sum: 1a69bf6b8db32088f5b2163dbdb77a27
     Pseudo is Ultrasoft, Zval =  4.0
     Generated by new atomic code, or converted to UPF format
     Using radial grid of  721 points,  4 beta functions with:
                l(1) =   0
                l(2) =   0
                l(3) =   1
                l(4) =   1
     Q(r) pseudized with  8 coefficients,  rinner =    0.800   0.800   0.800

     PseudoPot. # 5 for H  read from file:
     /storage/coda1/p-amedford6/0/shared/rich_project_chbe-medford/medford-share/data/pseudos_module/espresso/nninc/pbe/van/H.UPF
     MD5 check sum: b5ee9d7bfd3a09ee7748110bda690ff7
     Pseudo is Ultrasoft, Zval =  1.0
     Generated by new atomic code, or converted to UPF format
     Using radial grid of  615 points,  1 beta functions with:
                l(1) =   0
     Q(r) pseudized with  8 coefficients,  rinner =    0.800

     atomic species   valence    mass     pseudopotential
        Ti1           12.00    47.86700     Ti( 1.00)
        O1             6.00    15.99900     O ( 1.00)
        N1             5.00    14.00700     N ( 1.00)
        C1             4.00    12.01100     C ( 1.00)
        H1             1.00     1.00800     H ( 1.00)

     No symmetry found

   Cartesian axes

     site n.     atom                  positions (alat units)
         1           Ti1 tau(   1) = (   0.0004258   2.9801865   6.0000000  )
         2           Ti1 tau(   2) = (   3.2906075   1.4906267   6.0002472  )
         3           O1  tau(   3) = (   0.0006271   0.0005054   7.9858123  )
         4           O1  tau(   4) = (   3.2906025   0.0005020   7.3038282  )
         5           O1  tau(   5) = (   4.5942328   1.4918067   9.2879030  )
         6           O1  tau(   6) = (   1.9868534   1.4903216   9.2879459  )
         7           Ti1 tau(   7) = (   3.2907910   2.8959150   9.1758416  )
         8           Ti1 tau(   8) = (   0.0015273   1.4827037   9.2680791  )
         9           O1  tau(   9) = (   3.2793096   0.0109766  11.3808719  )
        10           O1  tau(  10) = (   0.0116148   5.9584955  10.6183126  )
        11           O1  tau(  11) = (   1.2765542   1.4933007  12.7034215  )
        12           O1  tau(  12) = (   5.2857700   1.4936877  12.6893616  )
        13           Ti1 tau(  13) = (   6.5704964   2.9736084  12.5041408  )
        14           Ti1 tau(  14) = (   3.2751742   1.4933391  12.5393049  )
        15           O1  tau(  15) = (   6.5372820   5.8718772  14.6936981  )
        16           O1  tau(  16) = (   3.2837545   5.9462538  13.9991140  )
        17           O1  tau(  17) = (   4.5218413   1.5222141  16.1415557  )
        18           O1  tau(  18) = (   2.0028246   1.5144184  16.0917912  )
        19           Ti1 tau(  19) = (   3.2608137   3.0032599  15.7731319  )
        20           Ti1 tau(  20) = (   6.5347537   1.3176600  15.8357148  )
        21           O1  tau(  21) = (   3.2904802   0.0005063   4.7018136  )
        22           O1  tau(  22) = (   0.0001116   0.1817366  17.2468837  )
        23           O1  tau(  23) = (   1.3043587   1.4918075   6.0039043  )
        24           O1  tau(  24) = (   5.2767064   1.4903225   6.0039473  )
        25           Ti1 tau(  25) = (   0.0000382   5.9609847   6.0000000  )
        26           Ti1 tau(  26) = (   3.2902200   4.4714249   6.0002472  )
        27           O1  tau(  27) = (   0.0002396   2.9813036   7.9858123  )
        28           O1  tau(  28) = (   3.2902150   2.9813002   7.3038282  )
        29           O1  tau(  29) = (   4.5938453   4.4726049   9.2879030  )
        30           O1  tau(  30) = (   1.9864658   4.4711199   9.2879459  )
        31           Ti1 tau(  31) = (   3.2891106   5.8743827   9.1763621  )
        32           Ti1 tau(  32) = (   0.0006254   4.4649316   9.2693709  )
        33           O1  tau(  33) = (   3.2784652   2.9723947  11.3763700  )
        34           O1  tau(  34) = (   0.0092240   2.9805883  10.6323155  )
        35           O1  tau(  35) = (   1.2785823   4.4627939  12.6603399  )
        36           O1  tau(  36) = (   5.2819334   4.4612839  12.6411408  )
        37           Ti1 tau(  37) = (   6.5651122   5.9414744  12.5010122  )
        38           Ti1 tau(  38) = (   3.2748416   4.4711967  12.5285960  )
        39           O1  tau(  39) = (   6.5535135   3.0442902  14.9788272  )
        40           O1  tau(  40) = (   3.2854610   3.0101546  13.9792171  )
        41           O1  tau(  41) = (   4.5276217   4.4805847  16.2446860  )
        42           O1  tau(  42) = (   2.0020726   4.4828838  16.2214318  )
        43           Ti1 tau(  43) = (   3.2599196   0.0196740  15.7976440  )
        44           Ti1 tau(  44) = (   6.5457193   4.5363361  16.0654255  )
        45           O1  tau(  45) = (   3.2900926   2.9813045   4.7018136  )
        46           O1  tau(  46) = (   1.3039711   4.4726057   6.0039043  )
        47           O1  tau(  47) = (   5.2763189   4.4711207   6.0039473  )
        48           N1  tau(  48) = (   1.1367570   2.6896871  18.7516802  )
        49           N1  tau(  49) = (   6.5001796   3.3781512  18.2049158  )
        50           C1  tau(  50) = (   2.1807708   3.2122984  19.2650733  )
        51           H1  tau(  51) = (   2.0427863   4.2979755  19.4033283  )
        52           H1  tau(  52) = (   1.0785778   1.7047639  18.4906217  )
        53           H1  tau(  53) = (   6.4055442   4.2515232  18.7250902  )
        54           H1  tau(  54) = (   5.6874363   2.7987760  18.4315970  )

     number of k points=    10  Fermi-Dirac smearing, width (Ry)=  0.0073
                       cart. coord. in units 2pi/alat
        k(    1) = (   0.0000000   0.0000000   0.0000000), wk =   0.1250000
        k(    2) = (   0.0000000   0.0419351   0.0000000), wk =   0.2500000
        k(    3) = (   0.0000000  -0.0838702   0.0000000), wk =   0.1250000
        k(    4) = (   0.0379955   0.0000049   0.0000000), wk =   0.2500000
        k(    5) = (   0.0379955   0.0419400   0.0000000), wk =   0.2500000
        k(    6) = (   0.0379955  -0.0838652   0.0000000), wk =   0.2500000
        k(    7) = (   0.0379955  -0.0419301   0.0000000), wk =   0.2500000
        k(    8) = (  -0.0759910  -0.0000099   0.0000000), wk =   0.1250000
        k(    9) = (  -0.0759910   0.0419252   0.0000000), wk =   0.2500000
        k(   10) = (  -0.0759910  -0.0838800   0.0000000), wk =   0.1250000

     Initial potential from superposition of free atoms

     starting charge  379.99915, renormalised to  396.00000

     negative rho (up, down):  1.652E-02 0.000E+00

     %%%%%%%%%%%%%%%%%%%%%%%%%%%%%%%%%%%%%%%%%%%%%%%%%%%%%%%%%%%%%%%%%%%%%%%%
     %                                                                      %
     % You are using vdW-DF, which was implemented by the Thonhauser group. %
     % Please cite the following two papers that made this development      %
     % possible and the two reviews that describe the various versions:     %
     %                                                                      %
     %   T. Thonhauser et al., PRL 115, 136402 (2015).                      %
     %   T. Thonhauser et al., PRB 76, 125112 (2007).                       %
     %   K. Berland et al., Rep. Prog. Phys. 78, 066501 (2015).             %
     %   D.C. Langreth et al., J. Phys.: Condens. Matter 21, 084203 (2009). %
     %                                                                      %
     %                                                                      %
     % If you are calculating the stress with vdW-DF, please also cite:     %
     %                                                                      %
     %   R. Sabatini et al., J. Phys.: Condens. Matter 24, 424209 (2012).   %
     %                                                                      %
     %%%%%%%%%%%%%%%%%%%%%%%%%%%%%%%%%%%%%%%%%%%%%%%%%%%%%%%%%%%%%%%%%%%%%%%%

     Adding external electric field

     Computed dipole along edir(3) :
        Dipole               -9.9883 Ry au,        -25.3877 Debye
        Dipole field         -0.0188 Ry au,

        Potential amp.        1.7473 Ry
        Total length         46.3494 bohr

     Starting wfcs are  300 atomic wfcs
  @ DRIVER MODE: Message from server: STATUS
  @ DRIVER MODE: Message from server: POSDATA
  @ DRIVER MODE: Reading and sharing cell
  @ DRIVER MODE: Reading and sharing positions
  @ DRIVER MODE: Received positions

     Self-consistent Calculation

     iteration #  1     ecut=    29.40 Ry     beta= 0.05
     Davidson diagonalization with overlap
     c_bands:  2 eigenvalues not converged
     c_bands:  2 eigenvalues not converged
     c_bands:  3 eigenvalues not converged
     c_bands:  2 eigenvalues not converged
     c_bands:  3 eigenvalues not converged
     c_bands:  1 eigenvalues not converged
     c_bands:  3 eigenvalues not converged
     c_bands:  2 eigenvalues not converged
     c_bands:  1 eigenvalues not converged
     c_bands:  1 eigenvalues not converged
     ethr =  1.00E-05,  avg # of iterations = 20.0

[...]

     total energy              =   -2520.90128178 Ry
     estimated scf accuracy    <    4690.78298317 Ry

     iteration #  2     ecut=    29.40 Ry     beta= 0.05
     Davidson diagonalization with overlap
     ethr =  1.00E-02,  avg # of iterations = 25.3

[...]

     iteration # 82     ecut=    29.40 Ry     beta= 0.05
     Davidson diagonalization with overlap
     c_bands:  2 eigenvalues not converged
     ethr =  9.05E-11,  avg # of iterations = 16.6

[...]

     total energy              =   -2940.25625416 Ry
     estimated scf accuracy    <       0.00000012 Ry

     iteration # 86     ecut=    29.40 Ry     beta= 0.05
     Davidson diagonalization with overlap
     ethr =  2.91E-11,  avg # of iterations =  4.0

     negative rho (up, down):  1.614E-02 0.000E+00

     Adding external electric field

     Computed dipole along edir(3) :
        Dipole                0.8194 Ry au,          2.0827 Debye
        Dipole field          0.0015 Ry au,

        Potential amp.       -0.1433 Ry
        Total length         46.3494 bohr

     End of self-consistent calculation

          k = 0.0000 0.0000 0.0000 ( 18029 PWs)   bands (ev):

   -55.6631 -55.6260 -55.6143 -55.5824 -55.5802 -55.5450 -55.5399 -55.5054
   -55.4864 -55.4758 -55.4520 -55.4455 -55.4118 -55.3276 -54.6464 -54.6123
   -32.2282 -32.1205 -32.1072 -32.0282 -31.9759 -31.9746 -31.9718 -31.9517
   -31.9032 -31.8969 -31.8720 -31.8681 -31.8591 -31.8471 -31.8302 -31.8186
   -31.8166 -31.8078 -31.7999 -31.7823 -31.7670 -31.7638 -31.7287 -31.7286
   -31.7179 -31.7169 -31.7045 -31.6888 -31.6716 -31.6707 -31.6658 -31.6457
   -31.6444 -31.6419 -31.6351 -31.6326 -31.5998 -31.5917 -31.5736 -31.5568
   -31.5357 -31.5233 -31.0559 -30.9613 -30.9392 -30.8722 -30.7854 -30.6746
   -18.5132 -16.4934 -16.2322 -16.0870 -15.9750 -15.8639 -15.7511 -15.7081
   -15.5941 -15.5199 -15.3916 -15.3571 -15.3199 -15.3048 -15.2918 -15.2911
   -15.2106 -15.2047 -15.1857 -15.1616 -15.1588 -15.1152 -15.1040 -15.0636
   -15.0395 -15.0084 -14.9103 -14.8251 -14.7515 -14.5956 -14.5148 -13.1491
   -13.0316  -9.5968  -6.7402  -5.8066  -4.1291  -3.9174  -3.8199  -3.6843
    -3.5793  -3.5564  -3.5047  -3.4194  -3.2453  -3.1095  -3.0588  -2.9519
    -2.8730  -2.8613  -2.8305  -2.7061  -2.6617  -2.6187  -2.5464  -2.5282
    -2.4706  -2.4491  -2.4320  -2.4154  -2.3947  -2.3841  -2.2949  -2.2336
    -2.1346  -2.0848  -2.0663  -2.0174  -2.0028  -1.9767  -1.9535  -1.9443
    -1.8913  -1.8868  -1.8587  -1.8100  -1.6915  -1.5576  -1.5255  -1.4253
    -1.3037  -1.2656  -1.2464  -1.1571  -1.1465  -1.1210  -1.0718  -1.0418
    -1.0055  -0.9305  -0.8765  -0.7863  -0.7441  -0.7376  -0.6752  -0.6528
    -0.5635  -0.4787  -0.4451  -0.4306  -0.4062  -0.2932  -0.2710  -0.2062
    -0.1470  -0.1364  -0.1285  -0.0491  -0.0039   0.0701   0.1025   0.1236
     0.2152   0.2366   0.2669   0.2684   0.3002   0.3209   0.3660   0.4082
     0.4346   0.5219   0.6384   0.8616   0.9463   0.9509   1.2731   1.2806
     1.3762   1.5597   1.6479   1.9528   2.0012   3.4338   3.5054   3.5799
     3.5839   3.5978   3.6698   3.9128   3.9335   3.9406   3.9435   3.9692

[...]

          k = 0.0380-0.0419 0.0000 ( 17876 PWs)   bands (ev):

[...]

          k =-0.0760-0.0000 0.0000 ( 17886 PWs)   bands (ev):

[...]

          k =-0.0760-0.0839 0.0000 ( 17948 PWs)   bands (ev):

   -55.6492 -55.6397 -55.5974 -55.5969 -55.5809 -55.5406 -55.5242 -55.5211
   -55.4802 -55.4704 -55.4675 -55.4289 -55.4286 -55.3288 -54.6295 -54.6291
   -32.0404 -32.0362 -32.0285 -31.9407 -31.9225 -31.9221 -31.9183 -31.8885
   -31.8883 -31.8722 -31.8624 -31.8598 -31.8521 -31.8289 -31.8165 -31.8040
   -31.8029 -31.7992 -31.7960 -31.7882 -31.7867 -31.7831 -31.7430 -31.7407
   -31.7389 -31.7360 -31.7296 -31.7183 -31.7172 -31.7167 -31.7128 -31.7031
   -31.7006 -31.6833 -31.6802 -31.6652 -31.6627 -31.6599 -31.6096 -31.6094
   -31.6003 -31.5404 -30.9520 -30.9517 -30.8685 -30.8683 -30.8289 -30.8287
   -18.5087 -16.0382 -15.8830 -15.8554 -15.7055 -15.6721 -15.6285 -15.6143
   -15.5073 -15.4536 -15.4335 -15.4155 -15.4152 -15.3658 -15.3640 -15.3587
   -15.2866 -15.2676 -15.2649 -15.2390 -15.1835 -15.1769 -15.1703 -15.1652
   -15.1137 -15.1100 -15.0681 -15.0192 -15.0158 -14.8410 -14.5456 -13.1331
   -13.1330  -9.5881  -6.7287  -5.8010  -4.1245  -3.8096  -3.1468  -3.1360
    -3.1159  -2.9208  -2.8520  -2.8222  -2.8189  -2.7258  -2.6849  -2.6473
    -2.6449  -2.5826  -2.5718  -2.5442  -2.5108  -2.4988  -2.4827  -2.4618
    -2.4291  -2.3989  -2.3885  -2.3772  -2.3759  -2.3238  -2.3114  -2.2997
    -2.2670  -2.2470  -2.2279  -2.2171  -2.1491  -2.0479  -2.0306  -1.9472
    -1.8731  -1.8688  -1.7969  -1.7721  -1.7339  -1.7063  -1.6977  -1.6334
    -1.4712  -1.4352  -1.4114  -1.4003  -1.2919  -1.2706  -1.2450  -1.1830
    -1.1701  -1.1490  -1.0218  -0.9863  -0.9729  -0.8893  -0.8783  -0.7987
    -0.7579  -0.6887  -0.6667  -0.6203  -0.6185  -0.5761  -0.5670  -0.5028
    -0.4691  -0.4329  -0.3993  -0.3855  -0.3480  -0.1532  -0.1402  -0.1315
     0.0069   0.0243   0.1881   0.2149   0.2682   0.3648   0.3897   0.4466
     0.4801   0.6222   0.6411   0.6480   0.7100   0.7222   0.7862   0.7976
     1.5417   1.7325   1.7331   1.8211   1.8213   3.5775   3.6895   3.7044
     3.7381   3.8476   3.8735   3.9518   3.9810   4.0186   4.0216   4.0839

     the Fermi energy is     3.4977 ev

!    total energy              =   -2940.25625924 Ry
     estimated scf accuracy    <       0.00000005 Ry
     smearing contrib. (-TS)   =      -0.03709959 Ry
     internal energy E=F+TS    =   -2940.21915965 Ry

     The total energy is F=E-TS. E is the sum of the following terms:
     one-electron contribution =  -23764.67168660 Ry
     hartree contribution      =   11971.25790410 Ry
     xc contribution           =    -485.99646159 Ry
     ewald contribution        =    9339.18981742 Ry
     electric field correction =       0.00126702 Ry

     convergence has been achieved in  86 iterations

     Forces acting on atoms (cartesian axes, Ry/au):

     atom    1 type  1   force =     0.00023105   -0.00026014    0.09312780
     atom    2 type  1   force =     0.00000038   -0.00049157   -0.17830213
     atom    3 type  2   force =     0.00007821   -0.00041404   -0.02010362
     atom    4 type  2   force =     0.00003999   -0.00193145    0.05909332
     atom    5 type  2   force =    -0.01029805   -0.00073414    0.00827821
     atom    6 type  2   force =     0.01151952   -0.00008554    0.00662441
     atom    7 type  1   force =    -0.00058197    0.00210334   -0.01391941
     atom    8 type  1   force =     0.00068950   -0.00092295   -0.00575766
     atom    9 type  2   force =     0.00006915   -0.00011989    0.00005164
     atom   10 type  2   force =    -0.00259731    0.00235618    0.00054054
     atom   11 type  2   force =    -0.00006064   -0.00005459    0.00007785
     atom   12 type  2   force =     0.00002976    0.00018738   -0.00005342
     atom   13 type  1   force =    -0.00008757    0.00007722    0.00004791
     atom   14 type  1   force =    -0.00010007   -0.00034770   -0.00001942
     atom   15 type  2   force =    -0.00013844    0.00010002    0.00008733
     atom   16 type  2   force =     0.00017157   -0.00003461    0.00019189
     atom   17 type  2   force =     0.00000712   -0.00004106   -0.00007422
     atom   18 type  2   force =     0.00008198   -0.00011807    0.00027755
     atom   19 type  1   force =     0.00021104   -0.00014253    0.00008527
     atom   20 type  1   force =    -0.00028027    0.00028531   -0.00023722
     atom   21 type  2   force =     0.00014118   -0.00010922    0.10398863
     atom   22 type  2   force =     0.00005511    0.00025459    0.00015779
     atom   23 type  2   force =    -0.07028346   -0.00020115   -0.02686735
     atom   24 type  2   force =     0.07032526    0.00026231   -0.02690483
     atom   25 type  1   force =     0.00023068   -0.00018684    0.09279112
     atom   26 type  1   force =     0.00003010   -0.00045323   -0.17842939
     atom   27 type  2   force =     0.00013202   -0.00023747   -0.01916961
     atom   28 type  2   force =     0.00006797   -0.00173858    0.05853099
     atom   29 type  2   force =    -0.01092470   -0.00101274    0.00903618
     atom   30 type  2   force =     0.01204169   -0.00059670    0.00745172
     atom   31 type  1   force =    -0.00057121    0.00638599   -0.01466337
     atom   32 type  1   force =     0.00074816    0.00032387   -0.00605817
     atom   33 type  2   force =    -0.00008828   -0.00016824    0.00003605
     atom   34 type  2   force =    -0.00184352   -0.00249464   -0.00037369
     atom   35 type  2   force =    -0.00008624    0.00021830   -0.00008158
     atom   36 type  2   force =     0.00012215    0.00009601   -0.00014023
     atom   37 type  1   force =     0.00008274    0.00011841   -0.00001977
     atom   38 type  1   force =     0.00007856   -0.00045082   -0.00001476
     atom   39 type  2   force =     0.00014254    0.00014230   -0.00014977
     atom   40 type  2   force =    -0.00010309   -0.00007368    0.00014343
     atom   41 type  2   force =    -0.00005460    0.00005263    0.00001298
     atom   42 type  2   force =     0.00001381    0.00004325    0.00000155
     atom   43 type  1   force =     0.00037607   -0.00010146    0.00009936
     atom   44 type  1   force =     0.00017006    0.00021576   -0.00010493
     atom   45 type  2   force =     0.00012750   -0.00011136    0.10396024
     atom   46 type  2   force =    -0.07027992   -0.00011541   -0.02686584
     atom   47 type  2   force =     0.07026948    0.00029567   -0.02687590
     atom   48 type  3   force =    -0.00587475   -0.00444139   -0.00357766
     atom   49 type  3   force =    -0.00133755   -0.00043166    0.00040255
     atom   50 type  4   force =     0.00639103    0.00573608    0.00617524
     atom   51 type  5   force =     0.00057228   -0.00235952   -0.00193309
     atom   52 type  5   force =    -0.00021783    0.00123700   -0.00079257
     atom   53 type  5   force =     0.00048245   -0.00027855    0.00008649
     atom   54 type  5   force =     0.00007938    0.00076931    0.00013157

     Total force =     0.366581     Total SCF correction =     0.000446
  @ DRIVER MODE: Message from server: STATUS
  @ DRIVER MODE: Message from server: GETFORCE
  @ DRIVER MODE: Returning v,forces,stress,ensemble

     Writing output data file ./calc.save/
  @ DRIVER MODE: Message from server: EXIT
  @ DRIVE MODE: Exiting

     General routines

     Parallel routines

   This run was terminated on:  15:17: 1  15Sep2021

   JOB DONE.