     Program PWSCF v.6.7GPU starts on 16Sep2021 at  7: 6:19

     R & G space division:  proc/nbgrp/npool/nimage =      10
     Reading input from /storage/home/hcoda1/3/ntian30/research/carbon/CxH_vib/H2O_calc/ads_slab/CH2N2H2O_b/out_0047/pw.inp
Warning: card &CELL ignored
Warning: card   CELL_DYNAMICS='IPI', ignored
Warning: card / ignored

     Current dimensions of program PWSCF are:
     Max number of different atomic species (ntypx) = 10
     Max number of k-points (npk) =  40000
     Max angular momentum in pseudopotentials (lmaxx) =  3
     Presently no symmetry can be used with electric field

     Message from routine cell_base_init:
     DEPRECATED: use true lattice parameter, not A to a.u. conversion factor

     IMPORTANT: XC functional enforced from input :
     Exchange-correlation= BEEF-VDW
                           (   1   4  43  14   2   0   0)
     Any further DFT definition will be discarded
     Please, verify this is what you really want

  @ DRIVER MODE: Connecting to
 qe_1139763_2852605.sched-torque.pace.gatech.edu48_zqu8w_scratch
  using UNIX socket
  @ DRIVER MODE: Message from server: STATUS
  @ DRIVER MODE: Message from server: INIT
  @ DRIVER MODE: Receiving replica           0          -1
  @ DRIVER MODE: Receiving encoded integer          25
  @ DRIVER MODE:  SCF:  T  FORCE:  T  STRESS:  F  VC:  F  ENSEMBLE:  F
  @ DRIVER MODE:  SCF:  T  FORCE:  T  STRESS:  F  VC:  F  ENSEMBLE:  F

     Using Slab Decomposition

     bravais-lattice index     =            0
     lattice parameter (alat)  =       1.8897  a.u.
     unit-cell volume          =    6658.9804 (a.u.)^3
     number of atoms/cell      =           55
     number of atomic types    =            5
     number of electrons       =       402.00
     number of Kohn-Sham states=          211
     kinetic-energy cutoff     =      29.3995  Ry
     charge density cutoff     =     293.9946  Ry
     scf convergence threshold =      7.3E-08
     mixing beta               =       0.0500
     number of iterations used =            8  plain     mixing
     Exchange-correlation= BEEF-VDW
                           (   1   4  43  14   2   0   0)

     celldm(1)=   1.889726  celldm(2)=   0.000000  celldm(3)=   0.000000
     celldm(4)=   0.000000  celldm(5)=   0.000000  celldm(6)=   0.000000

     crystal axes: (cart. coord. in units of alat)
               a(1) = (   6.579727   0.000000   0.000000 )
               a(2) = (  -0.000775   5.961596   0.000000 )
               a(3) = (   0.000000   0.000000  25.155947 )

     reciprocal axes: (cart. coord. in units 2 pi/alat)
               b(1) = (  0.151982  0.000020  0.000000 )
               b(2) = (  0.000000  0.167740  0.000000 )
               b(3) = (  0.000000  0.000000  0.039752 )

     PseudoPot. # 1 for Ti read from file:
     /storage/coda1/p-amedford6/0/shared/rich_project_chbe-medford/medford-share/data/pseudos_module/espresso/nninc/pbe/van/Ti.UPF
     MD5 check sum: 8e4df49b7f0d34bbd5052bf3f5ea0213
     Pseudo is Ultrasoft, Zval = 12.0
     Generated by new atomic code, or converted to UPF format
     Using radial grid of  851 points,  6 beta functions with:
                l(1) =   0
                l(2) =   0
                l(3) =   1
                l(4) =   1
                l(5) =   2
                l(6) =   2
     Q(r) pseudized with  8 coefficients,  rinner =    1.000   1.000   1.000
                                                       1.000   1.000

     PseudoPot. # 2 for O  read from file:
     /storage/coda1/p-amedford6/0/shared/rich_project_chbe-medford/medford-share/data/pseudos_module/espresso/nninc/pbe/van/O.UPF
     MD5 check sum: 78c19812648e8988a0fe644b0f25305e
     Pseudo is Ultrasoft, Zval =  6.0
     Generated by new atomic code, or converted to UPF format
     Using radial grid of  737 points,  4 beta functions with:
                l(1) =   0
                l(2) =   0
                l(3) =   1
                l(4) =   1
     Q(r) pseudized with  8 coefficients,  rinner =    0.800   0.800   0.800

     PseudoPot. # 3 for N  read from file:
     /storage/coda1/p-amedford6/0/shared/rich_project_chbe-medford/medford-share/data/pseudos_module/espresso/nninc/pbe/van/N.UPF
     MD5 check sum: 90d10febe142ad51ac9d5be1deb811c4
     Pseudo is Ultrasoft, Zval =  5.0
     Generated by new atomic code, or converted to UPF format
     Using radial grid of  729 points,  4 beta functions with:
                l(1) =   0
                l(2) =   0
                l(3) =   1
                l(4) =   1
     Q(r) pseudized with  8 coefficients,  rinner =    0.800   0.800   0.800

     PseudoPot. # 4 for C  read from file:
     /storage/coda1/p-amedford6/0/shared/rich_project_chbe-medford/medford-share/data/pseudos_module/espresso/nninc/pbe/van/C.UPF
     MD5 check sum: 1a69bf6b8db32088f5b2163dbdb77a27
     Pseudo is Ultrasoft, Zval =  4.0
     Generated by new atomic code, or converted to UPF format
     Using radial grid of  721 points,  4 beta functions with:
                l(1) =   0
                l(2) =   0
                l(3) =   1
                l(4) =   1
     Q(r) pseudized with  8 coefficients,  rinner =    0.800   0.800   0.800

     PseudoPot. # 5 for H  read from file:
     /storage/coda1/p-amedford6/0/shared/rich_project_chbe-medford/medford-share/data/pseudos_module/espresso/nninc/pbe/van/H.UPF
     MD5 check sum: b5ee9d7bfd3a09ee7748110bda690ff7
     Pseudo is Ultrasoft, Zval =  1.0
     Generated by new atomic code, or converted to UPF format
     Using radial grid of  615 points,  1 beta functions with:
                l(1) =   0
     Q(r) pseudized with  8 coefficients,  rinner =    0.800

     atomic species   valence    mass     pseudopotential
        Ti1           12.00    47.86700     Ti( 1.00)
        O1             6.00    15.99900     O ( 1.00)
        N1             5.00    14.00700     N ( 1.00)
        C1             4.00    12.01100     C ( 1.00)
        H1             1.00     1.00800     H ( 1.00)

     No symmetry found

   Cartesian axes

     site n.     atom                  positions (alat units)
         1           Ti1 tau(   1) = (   0.0004258   2.9801865   6.0000000  )
         2           Ti1 tau(   2) = (   3.2906075   1.4906267   6.0002472  )
         3           O1  tau(   3) = (   0.0006271   0.0005054   7.9858123  )
         4           O1  tau(   4) = (   3.2906025   0.0005020   7.3038282  )
         5           O1  tau(   5) = (   4.5942328   1.4918067   9.2879030  )
         6           O1  tau(   6) = (   1.9868534   1.4903216   9.2879459  )
         7           Ti1 tau(   7) = (   3.2907910   2.8959150   9.1758416  )
         8           Ti1 tau(   8) = (   0.0015273   1.4827037   9.2680791  )
         9           O1  tau(   9) = (   3.2934429   5.9466490  11.3040654  )
        10           O1  tau(  10) = (   0.0116148   5.9584955  10.6183126  )
        11           O1  tau(  11) = (   1.2867109   1.4782735  12.6190062  )
        12           O1  tau(  12) = (   5.2776945   1.4764076  12.5976694  )
        13           Ti1 tau(  13) = (   0.0846880   2.9559742  12.7004455  )
        14           Ti1 tau(  14) = (   3.4192946   1.4610250  12.4797112  )
        15           O1  tau(  15) = (   0.0040618   5.9510889  14.6015872  )
        16           O1  tau(  16) = (   3.2972055   5.9566395  13.8969661  )
        17           O1  tau(  17) = (   4.5327346   1.5242580  16.0225792  )
        18           O1  tau(  18) = (   2.0474321   1.5095568  15.9818283  )
        19           Ti1 tau(  19) = (   3.2830006   2.9631064  15.6531525  )
        20           Ti1 tau(  20) = (   6.5418150   1.5417905  15.9635021  )
        21           O1  tau(  21) = (   3.2904802   0.0005063   4.7018136  )
        22           O1  tau(  22) = (   0.0063621   0.0138944  17.1794403  )
        23           O1  tau(  23) = (   1.3043587   1.4918075   6.0039043  )
        24           O1  tau(  24) = (   5.2767064   1.4903225   6.0039473  )
        25           Ti1 tau(  25) = (   0.0000382   5.9609847   6.0000000  )
        26           Ti1 tau(  26) = (   3.2902200   4.4714249   6.0002472  )
        27           O1  tau(  27) = (   0.0002396   2.9813036   7.9858123  )
        28           O1  tau(  28) = (   3.2902150   2.9813002   7.3038282  )
        29           O1  tau(  29) = (   4.5938453   4.4726049   9.2879030  )
        30           O1  tau(  30) = (   1.9864658   4.4711199   9.2879459  )
        31           Ti1 tau(  31) = (   3.2891106   5.8743827   9.1763621  )
        32           Ti1 tau(  32) = (   0.0006254   4.4649316   9.2693709  )
        33           O1  tau(  33) = (   3.2987291   2.9703105  11.3060640  )
        34           O1  tau(  34) = (   0.0092240   2.9805883  10.6323155  )
        35           O1  tau(  35) = (   1.2872851   4.4534926  12.6272766  )
        36           O1  tau(  36) = (   5.2800973   4.4624318  12.6062822  )
        37           Ti1 tau(  37) = (   0.1009857   5.9355968  12.6779778  )
        38           Ti1 tau(  38) = (   3.4194502   4.4581092  12.4739500  )
        39           O1  tau(  39) = (   6.5579784   2.9468049  14.6267102  )
        40           O1  tau(  40) = (   3.2950467   2.9662764  13.8528306  )
        41           O1  tau(  41) = (   4.5369278   4.4531499  15.9976687  )
        42           O1  tau(  42) = (   2.0426393   4.4597293  15.9709435  )
        43           Ti1 tau(  43) = (   3.2485613   5.9322867  15.7552632  )
        44           Ti1 tau(  44) = (   6.5504849   4.5932964  16.0494500  )
        45           O1  tau(  45) = (   3.2900926   2.9813045   4.7018136  )
        46           O1  tau(  46) = (   1.3039711   4.4726057   6.0039043  )
        47           O1  tau(  47) = (   5.2763189   4.4711207   6.0039473  )
        48           N1  tau(  48) = (   0.6156314   2.9572148  18.5116157  )
        49           N1  tau(  49) = (   0.0870375   2.9660652  17.3203775  )
        50           C1  tau(  50) = (   6.5561155   3.1780822  19.6039678  )
        51           H1  tau(  51) = (   5.4868456   3.3930584  19.6151425  )
        52           H1  tau(  52) = (   0.5344647   3.1546629  20.5288580  )
        53           O1  tau(  53) = (   3.2552377   5.9566958  18.1335742  )
        54           H1  tau(  54) = (   4.0211122   0.5273114  18.4085372  )
        55           H1  tau(  55) = (   2.4596908   0.4732500  18.4130009  )

     number of k points=    10  Fermi-Dirac smearing, width (Ry)=  0.0073
                       cart. coord. in units 2pi/alat
        k(    1) = (   0.0000000   0.0000000   0.0000000), wk =   0.1250000
        k(    2) = (   0.0000000   0.0419351   0.0000000), wk =   0.2500000
        k(    3) = (   0.0000000  -0.0838702   0.0000000), wk =   0.1250000
        k(    4) = (   0.0379955   0.0000049   0.0000000), wk =   0.2500000
        k(    5) = (   0.0379955   0.0419400   0.0000000), wk =   0.2500000
        k(    6) = (   0.0379955  -0.0838652   0.0000000), wk =   0.2500000
        k(    7) = (   0.0379955  -0.0419301   0.0000000), wk =   0.2500000
        k(    8) = (  -0.0759910  -0.0000099   0.0000000), wk =   0.1250000
        k(    9) = (  -0.0759910   0.0419252   0.0000000), wk =   0.2500000
        k(   10) = (  -0.0759910  -0.0838800   0.0000000), wk =   0.1250000

     Initial potential from superposition of free atoms

     starting charge  385.99915, renormalised to  402.00000

     negative rho (up, down):  1.463E-02 0.000E+00

     %%%%%%%%%%%%%%%%%%%%%%%%%%%%%%%%%%%%%%%%%%%%%%%%%%%%%%%%%%%%%%%%%%%%%%%%
     %                                                                      %
     % You are using vdW-DF, which was implemented by the Thonhauser group. %
     % Please cite the following two papers that made this development      %
     % possible and the two reviews that describe the various versions:     %
     %                                                                      %
     %   T. Thonhauser et al., PRL 115, 136402 (2015).                      %
     %   T. Thonhauser et al., PRB 76, 125112 (2007).                       %
     %   K. Berland et al., Rep. Prog. Phys. 78, 066501 (2015).             %
     %   D.C. Langreth et al., J. Phys.: Condens. Matter 21, 084203 (2009). %
     %                                                                      %
     %                                                                      %
     % If you are calculating the stress with vdW-DF, please also cite:     %
     %                                                                      %
     %   R. Sabatini et al., J. Phys.: Condens. Matter 24, 424209 (2012).   %
     %                                                                      %
     %%%%%%%%%%%%%%%%%%%%%%%%%%%%%%%%%%%%%%%%%%%%%%%%%%%%%%%%%%%%%%%%%%%%%%%%

     Adding external electric field

     Computed dipole along edir(3) :
        Dipole              -11.9600 Ry au,        -30.3993 Debye
        Dipole field         -0.0226 Ry au,

        Potential amp.        2.0922 Ry
        Total length         46.3494 bohr

     Starting wfcs are  304 atomic wfcs
  @ DRIVER MODE: Message from server: STATUS
  @ DRIVER MODE: Message from server: POSDATA
  @ DRIVER MODE: Reading and sharing cell
  @ DRIVER MODE: Reading and sharing positions
  @ DRIVER MODE: Received positions

     Self-consistent Calculation

     iteration #  1     ecut=    29.40 Ry     beta= 0.05
     Davidson diagonalization with overlap
     c_bands:  3 eigenvalues not converged
     c_bands:  1 eigenvalues not converged
     c_bands:  5 eigenvalues not converged
     c_bands:  3 eigenvalues not converged
     c_bands:  3 eigenvalues not converged
     c_bands:  2 eigenvalues not converged
     c_bands:  4 eigenvalues not converged
     c_bands:  4 eigenvalues not converged
     c_bands:  3 eigenvalues not converged
     ethr =  1.00E-05,  avg # of iterations = 21.6

[...]

     total energy              =   -2415.32733754 Ry
     estimated scf accuracy    <    6284.03960683 Ry

     iteration #  2     ecut=    29.40 Ry     beta= 0.05
     Davidson diagonalization with overlap
     ethr =  1.00E-02,  avg # of iterations = 23.0

[...]

     iteration # 45     ecut=    29.40 Ry     beta= 0.05
     Davidson diagonalization with overlap
     c_bands:  1 eigenvalues not converged
     c_bands:  1 eigenvalues not converged
     ethr =  1.12E-06,  avg # of iterations = 15.8

[...]

     total energy              =   -2972.73820468 Ry
     estimated scf accuracy    <       0.00000013 Ry

     iteration # 74     ecut=    29.40 Ry     beta= 0.05
     Davidson diagonalization with overlap
     ethr =  3.09E-11,  avg # of iterations =  5.0

     negative rho (up, down):  1.529E-02 0.000E+00

     Adding external electric field

     Computed dipole along edir(3) :
        Dipole                0.6712 Ry au,          1.7059 Debye
        Dipole field          0.0013 Ry au,

        Potential amp.       -0.1174 Ry
        Total length         46.3494 bohr

     End of self-consistent calculation

          k = 0.0000 0.0000 0.0000 ( 18029 PWs)   bands (ev):

   -56.1206 -56.0868 -55.6581 -55.6243 -55.5659 -55.5415 -55.5315 -55.5061
   -55.4209 -55.3721 -55.3315 -55.2635 -54.9372 -54.9033 -54.8624 -54.8230
   -32.5724 -32.4117 -32.3841 -32.2808 -32.1962 -32.1879 -32.1254 -32.0744
   -32.0522 -31.9014 -31.8785 -31.8742 -31.8426 -31.8411 -31.8226 -31.7886
   -31.7787 -31.7758 -31.7619 -31.7603 -31.7551 -31.7210 -31.7189 -31.7119
   -31.6775 -31.6756 -31.6620 -31.6509 -31.6318 -31.6000 -31.5422 -31.5399
   -31.5104 -31.4837 -31.4561 -31.4234 -31.3935 -31.3373 -31.2663 -31.2428
   -31.1548 -31.1086 -31.0754 -31.0695 -31.0592 -31.0359 -30.9584 -30.9487
   -18.6968 -17.4863 -16.4415 -16.2226 -15.9873 -15.7487 -15.6979 -15.5812
   -15.5675 -15.5601 -15.4467 -15.4296 -15.3727 -15.2667 -15.1966 -15.1602
   -15.1071 -15.0985 -15.0749 -14.9818 -14.9677 -14.9508 -14.9396 -14.8650
   -14.8212 -14.8011 -14.6944 -14.6267 -14.5622 -14.5324 -14.2374 -13.4375
   -13.3242 -11.6634  -6.5515  -6.4659  -4.4138  -3.9422  -3.9312  -3.7222
    -3.5609  -3.4590  -3.3304  -3.3141  -3.1848  -3.0707  -2.9449  -2.8867
    -2.8787  -2.8075  -2.7821  -2.7760  -2.6409  -2.6020  -2.5596  -2.5361
    -2.5057  -2.4295  -2.4161  -2.3604  -2.3203  -2.2876  -2.1813  -2.1423
    -2.1028  -2.0876  -2.0632  -2.0184  -1.9820  -1.9601  -1.9508  -1.9369
    -1.8987  -1.8069  -1.7565  -1.6576  -1.6020  -1.5011  -1.4577  -1.4413
    -1.3757  -1.2866  -1.1653  -1.1525  -1.0817  -1.0426  -0.9950  -0.9676
    -0.8946  -0.8856  -0.8148  -0.7755  -0.7011  -0.6509  -0.6187  -0.5950
    -0.5723  -0.4763  -0.4271  -0.3476  -0.2902  -0.2342  -0.2131  -0.1198
    -0.0911  -0.0587  -0.0343   0.0233   0.0657   0.0827   0.1027   0.1283
     0.1607   0.1851   0.3053   0.3586   0.3718   0.4049   0.4292   0.5397
     0.6006   0.6760   0.7352   0.7763   0.8790   0.8949   0.9394   1.0649
     1.0776   1.0848   1.1432   1.3027   1.6172   1.6431   1.6841   1.7770
     2.9501   3.1080   3.2243   3.4460   3.5445   3.5791   3.8439   3.9499
     3.9885   4.0148   4.0248

[...]

          k = 0.0380-0.0419 0.0000 ( 17876 PWs)   bands (ev):

[...]

          k =-0.0760-0.0000 0.0000 ( 17886 PWs)   bands (ev):

[...]

          k =-0.0760-0.0839 0.0000 ( 17948 PWs)   bands (ev):

   -56.1036 -56.1036 -55.6433 -55.6388 -55.5517 -55.5457 -55.5252 -55.5222
   -55.4189 -55.3622 -55.3412 -55.2653 -54.9203 -54.9201 -54.8524 -54.8328
   -32.3974 -32.3971 -32.3883 -32.3882 -32.2326 -32.2324 -31.9501 -31.9448
   -31.8953 -31.8941 -31.8913 -31.8709 -31.8337 -31.8289 -31.8103 -31.8090
   -31.7929 -31.7893 -31.7665 -31.7608 -31.7577 -31.7522 -31.7518 -31.7460
   -31.7123 -31.6733 -31.6679 -31.6609 -31.6356 -31.6247 -31.5886 -31.5744
   -31.5675 -31.5312 -31.5163 -31.4644 -31.2745 -31.2558 -31.2556 -31.1604
   -31.1513 -31.1511 -31.1123 -31.1123 -31.0680 -31.0554 -31.0467 -31.0284
   -18.6958 -17.4806 -15.8165 -15.8111 -15.7446 -15.7405 -15.6716 -15.6089
   -15.5086 -15.5048 -15.4619 -15.3742 -15.2964 -15.2776 -15.2076 -15.2009
   -15.1992 -15.1905 -15.1218 -15.1115 -15.0768 -15.0540 -15.0285 -15.0249
   -14.9967 -14.9733 -14.7600 -14.7035 -14.6370 -14.5616 -14.4121 -13.4269
   -13.4269 -11.6684  -6.5342  -6.4731  -4.3679  -3.9230  -3.1256  -3.0192
    -2.9371  -2.9256  -2.8988  -2.8055  -2.7838  -2.7372  -2.7117  -2.6908
    -2.6159  -2.6043  -2.5525  -2.5468  -2.5136  -2.4965  -2.4429  -2.4330
    -2.4226  -2.4176  -2.3688  -2.3335  -2.3296  -2.3191  -2.2973  -2.2287
    -2.1665  -2.1280  -2.0905  -2.0742  -2.0718  -2.0149  -1.9886  -1.9556
    -1.9034  -1.8994  -1.8657  -1.8146  -1.6857  -1.6749  -1.5445  -1.4718
    -1.4534  -1.3748  -1.3244  -1.2912  -1.2203  -1.1674  -1.1381  -1.0311
    -1.0092  -0.9775  -0.9635  -0.9282  -0.9235  -0.8835  -0.7762  -0.7553
    -0.7171  -0.7140  -0.6354  -0.6053  -0.5518  -0.5310  -0.5188  -0.4765
    -0.4583  -0.3750  -0.3518  -0.2958  -0.2411  -0.1989  -0.1479  -0.0967
    -0.0137   0.0527   0.1066   0.1981   0.2008   0.2127   0.4186   0.4243
     0.5234   0.6064   0.7326   0.7583   0.7723   0.8765   0.9165   0.9397
     0.9674   1.1317   1.1735   1.4688   1.4704   1.5004   1.5008   1.7260
     2.8905   3.6415   3.6417   3.6776   3.6789   3.9108   3.9153   3.9631
     3.9691   4.0248   4.0488

     the Fermi energy is     3.0495 ev

!    total energy              =   -2972.73822566 Ry
     estimated scf accuracy    <       0.00000005 Ry
     smearing contrib. (-TS)   =      -0.01268068 Ry
     internal energy E=F+TS    =   -2972.72554498 Ry

     The total energy is F=E-TS. E is the sum of the following terms:
     one-electron contribution =  -24071.83107621 Ry
     hartree contribution      =   12129.50102220 Ry
     xc contribution           =    -493.18022521 Ry
     ewald contribution        =    9462.78388415 Ry
     electric field correction =       0.00085009 Ry

     convergence has been achieved in  74 iterations

     Forces acting on atoms (cartesian axes, Ry/au):

     atom    1 type  1   force =     0.00013144   -0.00030227    0.10878861
     atom    2 type  1   force =    -0.00011387   -0.00041141   -0.16774850
     atom    3 type  2   force =    -0.00015621   -0.00000930   -0.04385643
     atom    4 type  2   force =     0.00004901   -0.00075157    0.03934416
     atom    5 type  2   force =    -0.01328843    0.00016514   -0.00457408
     atom    6 type  2   force =     0.01488504    0.00103758   -0.00539841
     atom    7 type  1   force =    -0.00093790   -0.00251497    0.01166528
     atom    8 type  1   force =     0.00124620    0.00154024    0.07743774
     atom    9 type  2   force =    -0.00005675   -0.00014901   -0.00022910
     atom   10 type  2   force =    -0.00114931    0.00038901   -0.05115830
     atom   11 type  2   force =    -0.00007243    0.00036394    0.00011266
     atom   12 type  2   force =    -0.00000567    0.00024768    0.00007127
     atom   13 type  1   force =     0.00046031    0.00000843    0.00003327
     atom   14 type  1   force =    -0.00024103   -0.00008823    0.00014526
     atom   15 type  2   force =    -0.00019866   -0.00011722    0.00042847
     atom   16 type  2   force =     0.00013314    0.00002186   -0.00005953
     atom   17 type  2   force =    -0.00076716    0.00038325   -0.00016852
     atom   18 type  2   force =     0.00035870    0.00022415    0.00002421
     atom   19 type  1   force =     0.00046421   -0.00006797    0.00004619
     atom   20 type  1   force =    -0.00023610    0.00051887   -0.00013763
     atom   21 type  2   force =     0.00007922    0.00005543    0.10122077
     atom   22 type  2   force =    -0.00004538   -0.00001608    0.00008404
     atom   23 type  2   force =    -0.07508539   -0.00002488   -0.03015591
     atom   24 type  2   force =     0.07505844    0.00043177   -0.03015328
     atom   25 type  1   force =     0.00021033   -0.00028780    0.10844637
     atom   26 type  1   force =    -0.00009843   -0.00044812   -0.16777174
     atom   27 type  2   force =    -0.00002083   -0.00025370   -0.04285836
     atom   28 type  2   force =     0.00011486   -0.00047389    0.03870393
     atom   29 type  2   force =    -0.01360664    0.00094437   -0.00480556
     atom   30 type  2   force =     0.01513837    0.00120725   -0.00568030
     atom   31 type  1   force =    -0.00125284    0.00050717    0.00736505
     atom   32 type  1   force =     0.00132902   -0.00408754    0.07787178
     atom   33 type  2   force =    -0.00006051    0.00012465   -0.00025543
     atom   34 type  2   force =    -0.00137852    0.00034686   -0.05721367
     atom   35 type  2   force =    -0.00000688   -0.00050226   -0.00003019
     atom   36 type  2   force =    -0.00035406   -0.00022536   -0.00013065
     atom   37 type  1   force =    -0.00006126   -0.00001978   -0.00026857
     atom   38 type  1   force =    -0.00020300    0.00022144   -0.00013128
     atom   39 type  2   force =     0.00001736   -0.00002558   -0.00047894
     atom   40 type  2   force =    -0.00002032    0.00028272    0.00026475
     atom   41 type  2   force =    -0.00004607   -0.00015434   -0.00001506
     atom   42 type  2   force =    -0.00029926    0.00007519   -0.00004357
     atom   43 type  1   force =     0.00054890    0.00060756    0.00004359
     atom   44 type  1   force =    -0.00010434   -0.00000639    0.00014405
     atom   45 type  2   force =     0.00006651    0.00003741    0.10118307
     atom   46 type  2   force =    -0.07507365    0.00004066   -0.03011745
     atom   47 type  2   force =     0.07504878    0.00047410   -0.03012938
     atom   48 type  3   force =     0.00000464    0.00004690    0.00034270
     atom   49 type  3   force =     0.00019980    0.00018218   -0.00002015
     atom   50 type  4   force =    -0.00011963    0.00008435   -0.00002694
     atom   51 type  5   force =     0.00022857    0.00050719   -0.00022636
     atom   52 type  5   force =    -0.00020907   -0.00017397    0.00001767
     atom   53 type  2   force =     0.00491292   -0.00254497   -0.00192640
     atom   54 type  5   force =    -0.00135394   -0.00069546   -0.00008992
     atom   55 type  5   force =    -0.00406222    0.00327473    0.00207472

     Total force =     0.390536     Total SCF correction =     0.000792
  @ DRIVER MODE: Message from server: STATUS
  @ DRIVER MODE: Message from server: GETFORCE
  @ DRIVER MODE: Returning v,forces,stress,ensemble

     Writing output data file ./calc.save/
  @ DRIVER MODE: Message from server: EXIT
  @ DRIVE MODE: Exiting

     General routines

     Parallel routines

   This run was terminated on:   7:26: 5  16Sep2021

   JOB DONE.