     Program PWSCF v.6.7GPU starts on 23Aug2021 at 20:16:19

     R & G space division:  proc/nbgrp/npool/nimage =       6
     Reading input from /storage/home/hcoda1/3/ntian30/research/carbon/CH_vib/ads_slab/CHNNHH_a/out_0014/pw.inp
Warning: card &CELL ignored
Warning: card   CELL_DYNAMICS='IPI', ignored
Warning: card / ignored

     Current dimensions of program PWSCF are:
     Max number of different atomic species (ntypx) = 10
     Max number of k-points (npk) =  40000
     Max angular momentum in pseudopotentials (lmaxx) =  3
     Presently no symmetry can be used with electric field

     Message from routine cell_base_init:
     DEPRECATED: use true lattice parameter, not A to a.u. conversion factor

     IMPORTANT: XC functional enforced from input :
     Exchange-correlation= BEEF-VDW
                           (   1   4  43  14   2   0   0)
     Any further DFT definition will be discarded
     Please, verify this is what you really want

  @ DRIVER MODE: Connecting to
 qe_1139763_2632796.sched-torque.pace.gatech.edufrhbo84n_scratch
  using UNIX socket
  @ DRIVER MODE: Message from server: STATUS
  @ DRIVER MODE: Message from server: INIT
  @ DRIVER MODE: Receiving replica           0          -1
  @ DRIVER MODE: Receiving encoded integer          25
  @ DRIVER MODE:  SCF:  T  FORCE:  T  STRESS:  F  VC:  F  ENSEMBLE:  F
  @ DRIVER MODE:  SCF:  T  FORCE:  T  STRESS:  F  VC:  F  ENSEMBLE:  F

     Using Slab Decomposition

     bravais-lattice index     =            0
     lattice parameter (alat)  =       1.8897  a.u.
     unit-cell volume          =    6658.9804 (a.u.)^3
     number of atoms/cell      =           53
     number of atomic types    =            5
     number of electrons       =       395.00
     number of Kohn-Sham states=          207
     kinetic-energy cutoff     =      29.3995  Ry
     charge density cutoff     =     293.9946  Ry
     scf convergence threshold =      7.3E-08
     mixing beta               =       0.0500
     number of iterations used =            8  plain     mixing
     Exchange-correlation= BEEF-VDW
                           (   1   4  43  14   2   0   0)

     celldm(1)=   1.889726  celldm(2)=   0.000000  celldm(3)=   0.000000
     celldm(4)=   0.000000  celldm(5)=   0.000000  celldm(6)=   0.000000

     crystal axes: (cart. coord. in units of alat)
               a(1) = (   6.579727   0.000000   0.000000 )
               a(2) = (  -0.000775   5.961596   0.000000 )
               a(3) = (   0.000000   0.000000  25.155947 )

     reciprocal axes: (cart. coord. in units 2 pi/alat)
               b(1) = (  0.151982  0.000020  0.000000 )
               b(2) = (  0.000000  0.167740  0.000000 )
               b(3) = (  0.000000  0.000000  0.039752 )

     PseudoPot. # 1 for Ti read from file:
     /storage/coda1/p-amedford6/0/shared/rich_project_chbe-medford/medford-share/data/pseudos_module/espresso/nninc/pbe/van/Ti.UPF
     MD5 check sum: 8e4df49b7f0d34bbd5052bf3f5ea0213
     Pseudo is Ultrasoft, Zval = 12.0
     Generated by new atomic code, or converted to UPF format
     Using radial grid of  851 points,  6 beta functions with:
                l(1) =   0
                l(2) =   0
                l(3) =   1
                l(4) =   1
                l(5) =   2
                l(6) =   2
     Q(r) pseudized with  8 coefficients,  rinner =    1.000   1.000   1.000
                                                       1.000   1.000

     PseudoPot. # 2 for O  read from file:
     /storage/coda1/p-amedford6/0/shared/rich_project_chbe-medford/medford-share/data/pseudos_module/espresso/nninc/pbe/van/O.UPF
     MD5 check sum: 78c19812648e8988a0fe644b0f25305e
     Pseudo is Ultrasoft, Zval =  6.0
     Generated by new atomic code, or converted to UPF format
     Using radial grid of  737 points,  4 beta functions with:
                l(1) =   0
                l(2) =   0
                l(3) =   1
                l(4) =   1
     Q(r) pseudized with  8 coefficients,  rinner =    0.800   0.800   0.800

     PseudoPot. # 3 for N  read from file:
     /storage/coda1/p-amedford6/0/shared/rich_project_chbe-medford/medford-share/data/pseudos_module/espresso/nninc/pbe/van/N.UPF
     MD5 check sum: 90d10febe142ad51ac9d5be1deb811c4
     Pseudo is Ultrasoft, Zval =  5.0
     Generated by new atomic code, or converted to UPF format
     Using radial grid of  729 points,  4 beta functions with:
                l(1) =   0
                l(2) =   0
                l(3) =   1
                l(4) =   1
     Q(r) pseudized with  8 coefficients,  rinner =    0.800   0.800   0.800

     PseudoPot. # 4 for C  read from file:
     /storage/coda1/p-amedford6/0/shared/rich_project_chbe-medford/medford-share/data/pseudos_module/espresso/nninc/pbe/van/C.UPF
     MD5 check sum: 1a69bf6b8db32088f5b2163dbdb77a27
     Pseudo is Ultrasoft, Zval =  4.0
     Generated by new atomic code, or converted to UPF format
     Using radial grid of  721 points,  4 beta functions with:
                l(1) =   0
                l(2) =   0
                l(3) =   1
                l(4) =   1
     Q(r) pseudized with  8 coefficients,  rinner =    0.800   0.800   0.800

     PseudoPot. # 5 for H  read from file:
     /storage/coda1/p-amedford6/0/shared/rich_project_chbe-medford/medford-share/data/pseudos_module/espresso/nninc/pbe/van/H.UPF
     MD5 check sum: b5ee9d7bfd3a09ee7748110bda690ff7
     Pseudo is Ultrasoft, Zval =  1.0
     Generated by new atomic code, or converted to UPF format
     Using radial grid of  615 points,  1 beta functions with:
                l(1) =   0
     Q(r) pseudized with  8 coefficients,  rinner =    0.800

     atomic species   valence    mass     pseudopotential
        Ti1           12.00    47.86700     Ti( 1.00)
        O1             6.00    15.99900     O ( 1.00)
        N1             5.00    14.00700     N ( 1.00)
        C1             4.00    12.01100     C ( 1.00)
        H1             1.00     1.00800     H ( 1.00)

     No symmetry found

   Cartesian axes

     site n.     atom                  positions (alat units)
         1           Ti1 tau(   1) = (   0.0004258   2.9801865   6.0000000  )
         2           Ti1 tau(   2) = (   3.2906075   1.4906267   6.0002472  )
         3           O1  tau(   3) = (   0.0006271   0.0005054   7.9858123  )
         4           O1  tau(   4) = (   3.2906025   0.0005020   7.3038282  )
         5           O1  tau(   5) = (   4.5942328   1.4918067   9.2879030  )
         6           O1  tau(   6) = (   1.9868534   1.4903216   9.2879459  )
         7           Ti1 tau(   7) = (   3.2907910   2.8959150   9.1758416  )
         8           Ti1 tau(   8) = (   0.0015273   1.4827037   9.2680791  )
         9           O1  tau(   9) = (   3.2912281   5.9459940  11.3193265  )
        10           O1  tau(  10) = (   0.0116148   5.9584955  10.6183126  )
        11           O1  tau(  11) = (   1.3103257   1.4650607  12.6442557  )
        12           O1  tau(  12) = (   5.3047449   1.4806448  12.6312737  )
        13           Ti1 tau(  13) = (   6.5337005   3.0128982  12.6900614  )
        14           Ti1 tau(  14) = (   3.2207025   1.4698770  12.4715817  )
        15           O1  tau(  15) = (   6.5518216   5.9146589  14.6704082  )
        16           O1  tau(  16) = (   3.3240203   5.9583723  13.8895330  )
        17           O1  tau(  17) = (   4.5456974   1.5225049  16.1264218  )
        18           O1  tau(  18) = (   2.0489736   1.4727210  15.9535721  )
        19           Ti1 tau(  19) = (   3.2591190   2.9927146  15.6788090  )
        20           Ti1 tau(  20) = (   0.0289511   1.3544711  15.7732889  )
        21           O1  tau(  21) = (   3.2904802   0.0005063   4.7018136  )
        22           O1  tau(  22) = (   0.0559926   0.0451390  17.2112278  )
        23           O1  tau(  23) = (   1.3043587   1.4918075   6.0039043  )
        24           O1  tau(  24) = (   5.2767064   1.4903225   6.0039473  )
        25           Ti1 tau(  25) = (   0.0000382   5.9609847   6.0000000  )
        26           Ti1 tau(  26) = (   3.2902200   4.4714249   6.0002472  )
        27           O1  tau(  27) = (   0.0002396   2.9813036   7.9858123  )
        28           O1  tau(  28) = (   3.2902150   2.9813002   7.3038282  )
        29           O1  tau(  29) = (   4.5938453   4.4726049   9.2879030  )
        30           O1  tau(  30) = (   1.9864658   4.4711199   9.2879459  )
        31           Ti1 tau(  31) = (   3.2891106   5.8743827   9.1763621  )
        32           Ti1 tau(  32) = (   0.0006254   4.4649316   9.2693709  )
        33           O1  tau(  33) = (   3.2889932   2.9698301  11.3211337  )
        34           O1  tau(  34) = (   0.0092240   2.9805883  10.6323155  )
        35           O1  tau(  35) = (   1.3069247   4.4567274  12.6410950  )
        36           O1  tau(  36) = (   5.3013738   4.4587240  12.6283471  )
        37           Ti1 tau(  37) = (   6.5339814   0.0202798  12.5235249  )
        38           Ti1 tau(  38) = (   3.2191325   4.4512509  12.4750946  )
        39           O1  tau(  39) = (   6.5688456   2.9522374  14.7547250  )
        40           O1  tau(  40) = (   3.3031296   2.9710333  13.8824388  )
        41           O1  tau(  41) = (   4.5425837   4.4734130  15.9989242  )
        42           O1  tau(  42) = (   2.0771424   4.4889556  16.0364895  )
        43           Ti1 tau(  43) = (   3.3121389   0.0026565  15.6888161  )
        44           Ti1 tau(  44) = (   6.5128106   4.4989306  16.3061806  )
        45           O1  tau(  45) = (   3.2900926   2.9813045   4.7018136  )
        46           O1  tau(  46) = (   1.3039711   4.4726057   6.0039043  )
        47           O1  tau(  47) = (   5.2763189   4.4711207   6.0039473  )
        48           N1  tau(  48) = (   0.4628824   2.9849886  17.7976856  )
        49           C1  tau(  49) = (   1.4182946   2.9518240  18.6700831  )
        50           H1  tau(  50) = (   2.3603500   2.6458988  18.1556329  )
        51           N1  tau(  51) = (   5.7893717   3.5482605  18.2279111  )
        52           H1  tau(  52) = (   5.8942619   4.0012392  19.1365464  )
        53           H1  tau(  53) = (   5.0734348   2.8266848  18.2415795  )

     number of k points=    10  Fermi-Dirac smearing, width (Ry)=  0.0073
                       cart. coord. in units 2pi/alat
        k(    1) = (   0.0000000   0.0000000   0.0000000), wk =   0.1250000
        k(    2) = (   0.0000000   0.0419351   0.0000000), wk =   0.2500000
        k(    3) = (   0.0000000  -0.0838702   0.0000000), wk =   0.1250000
        k(    4) = (   0.0379955   0.0000049   0.0000000), wk =   0.2500000
        k(    5) = (   0.0379955   0.0419400   0.0000000), wk =   0.2500000
        k(    6) = (   0.0379955  -0.0838652   0.0000000), wk =   0.2500000
        k(    7) = (   0.0379955  -0.0419301   0.0000000), wk =   0.2500000
        k(    8) = (  -0.0759910  -0.0000099   0.0000000), wk =   0.1250000
        k(    9) = (  -0.0759910   0.0419252   0.0000000), wk =   0.2500000
        k(   10) = (  -0.0759910  -0.0838800   0.0000000), wk =   0.1250000

     Initial potential from superposition of free atoms

     starting charge  378.99916, renormalised to  395.00000

     negative rho (up, down):  1.775E-02 0.000E+00

     %%%%%%%%%%%%%%%%%%%%%%%%%%%%%%%%%%%%%%%%%%%%%%%%%%%%%%%%%%%%%%%%%%%%%%%%
     %                                                                      %
     % You are using vdW-DF, which was implemented by the Thonhauser group. %
     % Please cite the following two papers that made this development      %
     % possible and the two reviews that describe the various versions:     %
     %                                                                      %
     %   T. Thonhauser et al., PRL 115, 136402 (2015).                      %
     %   T. Thonhauser et al., PRB 76, 125112 (2007).                       %
     %   K. Berland et al., Rep. Prog. Phys. 78, 066501 (2015).             %
     %   D.C. Langreth et al., J. Phys.: Condens. Matter 21, 084203 (2009). %
     %                                                                      %
     %                                                                      %
     % If you are calculating the stress with vdW-DF, please also cite:     %
     %                                                                      %
     %   R. Sabatini et al., J. Phys.: Condens. Matter 24, 424209 (2012).   %
     %                                                                      %
     %%%%%%%%%%%%%%%%%%%%%%%%%%%%%%%%%%%%%%%%%%%%%%%%%%%%%%%%%%%%%%%%%%%%%%%%

     Adding external electric field

     Computed dipole along edir(3) :
        Dipole               -8.0620 Ry au,        -20.4914 Debye
        Dipole field         -0.0152 Ry au,

        Potential amp.        1.4103 Ry
        Total length         46.3494 bohr

     Starting wfcs are  299 atomic wfcs
  @ DRIVER MODE: Message from server: STATUS
  @ DRIVER MODE: Message from server: POSDATA
  @ DRIVER MODE: Reading and sharing cell
  @ DRIVER MODE: Reading and sharing positions
  @ DRIVER MODE: Received positions

     Self-consistent Calculation

     iteration #  1     ecut=    29.40 Ry     beta= 0.05
     Davidson diagonalization with overlap
     c_bands:  1 eigenvalues not converged
     c_bands:  1 eigenvalues not converged
     c_bands:  2 eigenvalues not converged
     c_bands:  3 eigenvalues not converged
     c_bands:  3 eigenvalues not converged
     c_bands:  2 eigenvalues not converged
     c_bands:  1 eigenvalues not converged
     ethr =  1.00E-05,  avg # of iterations = 19.3

[...]

     total energy              =   -2614.88424797 Ry
     estimated scf accuracy    <    3583.87130012 Ry

[...]

     iteration #  3     ecut=    29.40 Ry     beta= 0.05
     Davidson diagonalization with overlap
     ethr =  1.00E-02,  avg # of iterations = 13.9

[...]

     iteration # 65     ecut=    29.40 Ry     beta= 0.05
     Davidson diagonalization with overlap
     c_bands:  1 eigenvalues not converged
     c_bands:  1 eigenvalues not converged
     ethr =  3.56E-11,  avg # of iterations = 12.3

[...]

     total energy              =   -2939.00600532 Ry
     estimated scf accuracy    <       0.00000009 Ry

     iteration # 67     ecut=    29.40 Ry     beta= 0.05
     Davidson diagonalization with overlap
     ethr =  2.40E-11,  avg # of iterations =  7.4

     negative rho (up, down):  1.648E-02 0.000E+00

     Adding external electric field

     Computed dipole along edir(3) :
        Dipole                0.3067 Ry au,          0.7795 Debye
        Dipole field          0.0006 Ry au,

        Potential amp.       -0.0537 Ry
        Total length         46.3494 bohr

     End of self-consistent calculation

          k = 0.0000 0.0000 0.0000 ( 18029 PWs)   bands (ev):

   -56.1048 -56.1024 -56.0707 -56.0660 -55.9929 -55.9579 -55.9526 -55.9171
   -55.9021 -55.8679 -55.8668 -55.8325 -55.6466 -55.5843 -55.0744 -55.0404
   -32.6614 -32.5859 -32.4845 -32.4238 -32.4097 -32.4059 -32.3973 -32.3580
   -32.3448 -32.3301 -32.3035 -32.2828 -32.2764 -32.2571 -32.2500 -32.2432
   -32.2078 -32.1943 -32.1921 -32.1875 -32.1836 -32.1621 -32.1568 -32.1399
   -32.1151 -32.1007 -32.0996 -32.0982 -32.0936 -32.0901 -32.0689 -32.0421
   -32.0415 -32.0265 -32.0199 -32.0001 -31.9788 -31.9517 -31.8741 -31.8455
   -31.7997 -31.7363 -31.4811 -31.3938 -31.3713 -31.2980 -31.2115 -31.1003
   -17.9823 -16.8706 -16.5809 -16.3656 -16.2600 -16.2446 -16.1381 -15.9529
   -15.8196 -15.7913 -15.6847 -15.6782 -15.6369 -15.6248 -15.5956 -15.5722
   -15.5637 -15.5375 -15.5346 -15.5182 -15.4741 -15.4508 -15.4317 -15.3359
   -15.2956 -15.2349 -15.2129 -15.1520 -15.0297 -14.7956 -13.5766 -13.4604
   -13.3119  -8.0400  -6.3633  -4.3512  -4.2446  -4.0682  -4.0072  -3.9649
    -3.9582  -3.7173  -3.6843  -3.3255  -3.2931  -3.2734  -3.2629  -3.2515
    -3.1368  -3.0169  -2.9611  -2.9191  -2.9088  -2.8981  -2.8908  -2.8782
    -2.8522  -2.8299  -2.7266  -2.6820  -2.6509  -2.5407  -2.5227  -2.4323
    -2.4147  -2.4041  -2.3694  -2.3489  -2.3401  -2.3140  -2.3027  -2.2765
    -2.1915  -2.1428  -2.0273  -1.9629  -1.8844  -1.8485  -1.7011  -1.6576
    -1.5700  -1.5639  -1.5447  -1.5225  -1.4894  -1.4033  -1.3299  -1.2397
    -1.1973  -1.1600  -1.1242  -1.0808  -0.9994  -0.9805  -0.9629  -0.8668
    -0.8628  -0.8534  -0.8110  -0.6091  -0.5846  -0.5503  -0.5376  -0.4605
    -0.4019  -0.3856  -0.3644  -0.3166  -0.2561  -0.1931  -0.1471  -0.1321
    -0.1207  -0.1172  -0.0831  -0.0570   0.0858   0.0962   0.1903   0.2023
     0.2253   0.3515   0.5262   0.5645   0.5839   0.7049   0.8786   0.9479
     1.0496   1.1409   1.5182   1.5635   2.4089   3.0331   3.1193   3.1530
     3.1725   3.2778   3.3109   3.4806   3.4960   3.5309   3.5504

[...]

          k = 0.0380-0.0419 0.0000 ( 17876 PWs)   bands (ev):

[...]

          k =-0.0760-0.0000 0.0000 ( 17886 PWs)   bands (ev):

[...]

          k =-0.0760-0.0839 0.0000 ( 17948 PWs)   bands (ev):

   -56.0888 -56.0865 -56.0861 -56.0821 -55.9837 -55.9617 -55.9481 -55.9267
   -55.8869 -55.8825 -55.8531 -55.8464 -55.6433 -55.5874 -55.0574 -55.0572
   -32.4649 -32.4604 -32.4018 -32.4005 -32.3836 -32.3820 -32.3632 -32.3513
   -32.3324 -32.3130 -32.2890 -32.2729 -32.2472 -32.2375 -32.2364 -32.2182
   -32.2179 -32.2085 -32.2061 -32.2005 -32.1993 -32.1916 -32.1858 -32.1714
   -32.1666 -32.1478 -32.1320 -32.1293 -32.0866 -32.0847 -32.0828 -32.0790
   -32.0707 -32.0680 -32.0644 -32.0627 -32.0585 -31.9698 -31.8858 -31.8387
   -31.8031 -31.7925 -31.3841 -31.3839 -31.2940 -31.2938 -31.2549 -31.2548
   -17.9724 -16.3062 -16.2905 -16.0742 -16.0294 -16.0252 -16.0045 -15.9161
   -15.8259 -15.8067 -15.7925 -15.7750 -15.7597 -15.6799 -15.6543 -15.6320
   -15.6281 -15.6155 -15.5606 -15.5549 -15.5517 -15.5466 -15.5267 -15.4936
   -15.4110 -15.4061 -15.3953 -15.1575 -15.0922 -15.0201 -13.5624 -13.5619
   -13.3248  -7.9980  -6.3011  -4.3645  -3.5991  -3.5806  -3.3548  -3.3093
    -3.2815  -3.2725  -3.1574  -3.0551  -3.0250  -3.0124  -2.9739  -2.9556
    -2.9432  -2.9308  -2.9179  -2.8986  -2.8730  -2.8394  -2.8340  -2.7877
    -2.7713  -2.7503  -2.7328  -2.7111  -2.7101  -2.6695  -2.6636  -2.6250
    -2.5870  -2.5417  -2.4326  -2.3784  -2.3402  -2.2899  -2.2338  -2.2227
    -2.2138  -2.1598  -2.1546  -2.1213  -2.0359  -1.9602  -1.8248  -1.8029
    -1.7699  -1.7293  -1.6961  -1.5999  -1.5551  -1.5058  -1.4537  -1.3977
    -1.3861  -1.3431  -1.3062  -1.2399  -1.2231  -1.1835  -1.1623  -1.0999
    -1.0580  -1.0539  -0.9906  -0.9232  -0.8653  -0.8622  -0.8415  -0.8262
    -0.7690  -0.7209  -0.6545  -0.6052  -0.5636  -0.4668  -0.4097  -0.2940
    -0.1851  -0.0661   0.0051   0.0090   0.0645   0.1422   0.1871   0.2222
     0.2324   0.2501   0.3424   0.4138   0.4332   0.4466   0.5110   0.6998
     1.3127   1.3138   1.3828   1.3837   2.4038   3.3213   3.3596   3.3738
     3.4050   3.5499   3.5526   3.5647   3.5685   3.6869   3.7308

     the Fermi energy is     3.0302 ev

!    total energy              =   -2939.00602977 Ry
     estimated scf accuracy    <       0.00000005 Ry
     smearing contrib. (-TS)   =      -0.02200348 Ry
     internal energy E=F+TS    =   -2938.98402629 Ry

     The total energy is F=E-TS. E is the sum of the following terms:
     one-electron contribution =  -24452.68920481 Ry
     hartree contribution      =   12311.42574418 Ry
     xc contribution           =    -485.12365650 Ry
     ewald contribution        =    9687.40291333 Ry
     electric field correction =       0.00017750 Ry

     convergence has been achieved in  67 iterations

     Forces acting on atoms (cartesian axes, Ry/au):

     atom    1 type  1   force =     0.00018407   -0.00028342    0.09692851
     atom    2 type  1   force =     0.00006320   -0.00078707   -0.17499118
     atom    3 type  2   force =     0.00014697   -0.00008654   -0.02553417
     atom    4 type  2   force =    -0.00003146   -0.00142674    0.05153988
     atom    5 type  2   force =    -0.01206075   -0.00173434    0.00277908
     atom    6 type  2   force =     0.01348271   -0.00134104    0.00221995
     atom    7 type  1   force =     0.00040714    0.00015412   -0.01208636
     atom    8 type  1   force =     0.00019023    0.02419462    0.02897420
     atom    9 type  2   force =    -0.00004005    0.00052052   -0.00008168
     atom   10 type  2   force =    -0.00266376    0.00014484   -0.01164308
     atom   11 type  2   force =    -0.00003707    0.00026583    0.00003858
     atom   12 type  2   force =    -0.00023851   -0.00001774    0.00013802
     atom   13 type  1   force =    -0.00012420    0.00114744   -0.00017021
     atom   14 type  1   force =    -0.00000675    0.00052037    0.00006768
     atom   15 type  2   force =     0.00009541   -0.00010243   -0.00001443
     atom   16 type  2   force =    -0.00020546    0.00022587   -0.00031981
     atom   17 type  2   force =     0.00043517    0.00016427   -0.00037517
     atom   18 type  2   force =    -0.00032126   -0.00001730   -0.00027495
     atom   19 type  1   force =    -0.00028373   -0.00026176   -0.00022855
     atom   20 type  1   force =     0.00023733   -0.00007054   -0.00027702
     atom   21 type  2   force =     0.00006696   -0.00007221    0.10298774
     atom   22 type  2   force =     0.00001076   -0.00020213   -0.00035563
     atom   23 type  2   force =    -0.07168771   -0.00017154   -0.02790598
     atom   24 type  2   force =     0.07159156    0.00028645   -0.02794281
     atom   25 type  1   force =     0.00003566   -0.00025764    0.09682595
     atom   26 type  1   force =    -0.00000617   -0.00018241   -0.17515666
     atom   27 type  2   force =     0.00015717   -0.00027090   -0.02419799
     atom   28 type  2   force =     0.00001489   -0.00118146    0.05208878
     atom   29 type  2   force =    -0.01221964    0.00078045    0.00245863
     atom   30 type  2   force =     0.01352433    0.00126428    0.00186894
     atom   31 type  1   force =     0.00045096    0.00286628   -0.01397657
     atom   32 type  1   force =     0.00038719   -0.02517845    0.03046448
     atom   33 type  2   force =     0.00004348   -0.00008097   -0.00018803
     atom   34 type  2   force =    -0.00184000   -0.00050372   -0.02072064
     atom   35 type  2   force =    -0.00001429    0.00021910   -0.00005511
     atom   36 type  2   force =     0.00018259    0.00032884    0.00016348
     atom   37 type  1   force =    -0.00020684   -0.00085455   -0.00005302
     atom   38 type  1   force =     0.00008424    0.00010781   -0.00019004
     atom   39 type  2   force =     0.00007927    0.00033956   -0.00016278
     atom   40 type  2   force =    -0.00006716    0.00009057    0.00031585
     atom   41 type  2   force =     0.00061298    0.00002686   -0.00008191
     atom   42 type  2   force =    -0.00037192    0.00000968   -0.00027214
     atom   43 type  1   force =    -0.00045338    0.00038639    0.00010042
     atom   44 type  1   force =     0.00011184    0.00023994   -0.00006527
     atom   45 type  2   force =     0.00005463   -0.00006712    0.10301262
     atom   46 type  2   force =    -0.07171465   -0.00011802   -0.02790728
     atom   47 type  2   force =     0.07160359    0.00025748   -0.02793200
     atom   48 type  3   force =     0.00142576    0.00008626   -0.00070958
     atom   49 type  4   force =     0.00645297   -0.00175452   -0.00279759
     atom   50 type  5   force =    -0.00783296    0.00281533    0.00298941
     atom   51 type  3   force =     0.00034618   -0.00019114    0.00045495
     atom   52 type  5   force =     0.00001439   -0.00013034   -0.00001029
     atom   53 type  5   force =    -0.00006592   -0.00009712    0.00026079

     Total force =     0.369183     Total SCF correction =     0.000634
  @ DRIVER MODE: Message from server: STATUS
  @ DRIVER MODE: Message from server: GETFORCE
  @ DRIVER MODE: Returning v,forces,stress,ensemble

     Writing output data file ./calc.save/
  @ DRIVER MODE: Message from server: EXIT
  @ DRIVE MODE: Exiting

     General routines

     Parallel routines

   This run was terminated on:  20:47:25  23Aug2021

   JOB DONE.