     Program PWSCF v.6.7GPU starts on 10Sep2021 at 14:41:19

     R & G space division:  proc/nbgrp/npool/nimage =      10
     Reading input from /storage/home/hcoda1/3/ntian30/research/carbon/CxH_vib/CH3_calc/ads_slab/CH3N2H2O_g/out_0053/pw.inp
Warning: card &CELL ignored
Warning: card   CELL_DYNAMICS='IPI', ignored
Warning: card / ignored

     Current dimensions of program PWSCF are:
     Max number of different atomic species (ntypx) = 10
     Max number of k-points (npk) =  40000
     Max angular momentum in pseudopotentials (lmaxx) =  3
     Presently no symmetry can be used with electric field

     Message from routine cell_base_init:
     DEPRECATED: use true lattice parameter, not A to a.u. conversion factor

     IMPORTANT: XC functional enforced from input :
     Exchange-correlation= BEEF-VDW
                           (   1   4  43  14   2   0   0)
     Any further DFT definition will be discarded
     Please, verify this is what you really want

  @ DRIVER MODE: Connecting to
 qe_1139763_2779714.sched-torque.pace.gatech.eduk1s9g0rn_scratch
  using UNIX socket
  @ DRIVER MODE: Message from server: STATUS
  @ DRIVER MODE: Message from server: INIT
  @ DRIVER MODE: Receiving replica           0          -1
  @ DRIVER MODE: Receiving encoded integer          25
  @ DRIVER MODE:  SCF:  T  FORCE:  T  STRESS:  F  VC:  F  ENSEMBLE:  F
  @ DRIVER MODE:  SCF:  T  FORCE:  T  STRESS:  F  VC:  F  ENSEMBLE:  F

     Using Slab Decomposition

     bravais-lattice index     =            0
     lattice parameter (alat)  =       1.8897  a.u.
     unit-cell volume          =    6658.9804 (a.u.)^3
     number of atoms/cell      =           56
     number of atomic types    =            5
     number of electrons       =       403.00
     number of Kohn-Sham states=          211
     kinetic-energy cutoff     =      29.3995  Ry
     charge density cutoff     =     293.9946  Ry
     scf convergence threshold =      7.3E-08
     mixing beta               =       0.0500
     number of iterations used =            8  plain     mixing
     Exchange-correlation= BEEF-VDW
                           (   1   4  43  14   2   0   0)

     celldm(1)=   1.889726  celldm(2)=   0.000000  celldm(3)=   0.000000
     celldm(4)=   0.000000  celldm(5)=   0.000000  celldm(6)=   0.000000

     crystal axes: (cart. coord. in units of alat)
               a(1) = (   6.579727   0.000000   0.000000 )
               a(2) = (  -0.000775   5.961596   0.000000 )
               a(3) = (   0.000000   0.000000  25.155947 )

     reciprocal axes: (cart. coord. in units 2 pi/alat)
               b(1) = (  0.151982  0.000020  0.000000 )
               b(2) = (  0.000000  0.167740  0.000000 )
               b(3) = (  0.000000  0.000000  0.039752 )

     PseudoPot. # 1 for Ti read from file:
     /storage/coda1/p-amedford6/0/shared/rich_project_chbe-medford/medford-share/data/pseudos_module/espresso/nninc/pbe/van/Ti.UPF
     MD5 check sum: 8e4df49b7f0d34bbd5052bf3f5ea0213
     Pseudo is Ultrasoft, Zval = 12.0
     Generated by new atomic code, or converted to UPF format
     Using radial grid of  851 points,  6 beta functions with:
                l(1) =   0
                l(2) =   0
                l(3) =   1
                l(4) =   1
                l(5) =   2
                l(6) =   2
     Q(r) pseudized with  8 coefficients,  rinner =    1.000   1.000   1.000
                                                       1.000   1.000

     PseudoPot. # 2 for O  read from file:
     /storage/coda1/p-amedford6/0/shared/rich_project_chbe-medford/medford-share/data/pseudos_module/espresso/nninc/pbe/van/O.UPF
     MD5 check sum: 78c19812648e8988a0fe644b0f25305e
     Pseudo is Ultrasoft, Zval =  6.0
     Generated by new atomic code, or converted to UPF format
     Using radial grid of  737 points,  4 beta functions with:
                l(1) =   0
                l(2) =   0
                l(3) =   1
                l(4) =   1
     Q(r) pseudized with  8 coefficients,  rinner =    0.800   0.800   0.800

     PseudoPot. # 3 for N  read from file:
     /storage/coda1/p-amedford6/0/shared/rich_project_chbe-medford/medford-share/data/pseudos_module/espresso/nninc/pbe/van/N.UPF
     MD5 check sum: 90d10febe142ad51ac9d5be1deb811c4
     Pseudo is Ultrasoft, Zval =  5.0
     Generated by new atomic code, or converted to UPF format
     Using radial grid of  729 points,  4 beta functions with:
                l(1) =   0
                l(2) =   0
                l(3) =   1
                l(4) =   1
     Q(r) pseudized with  8 coefficients,  rinner =    0.800   0.800   0.800

     PseudoPot. # 4 for C  read from file:
     /storage/coda1/p-amedford6/0/shared/rich_project_chbe-medford/medford-share/data/pseudos_module/espresso/nninc/pbe/van/C.UPF
     MD5 check sum: 1a69bf6b8db32088f5b2163dbdb77a27
     Pseudo is Ultrasoft, Zval =  4.0
     Generated by new atomic code, or converted to UPF format
     Using radial grid of  721 points,  4 beta functions with:
                l(1) =   0
                l(2) =   0
                l(3) =   1
                l(4) =   1
     Q(r) pseudized with  8 coefficients,  rinner =    0.800   0.800   0.800

     PseudoPot. # 5 for H  read from file:
     /storage/coda1/p-amedford6/0/shared/rich_project_chbe-medford/medford-share/data/pseudos_module/espresso/nninc/pbe/van/H.UPF
     MD5 check sum: b5ee9d7bfd3a09ee7748110bda690ff7
     Pseudo is Ultrasoft, Zval =  1.0
     Generated by new atomic code, or converted to UPF format
     Using radial grid of  615 points,  1 beta functions with:
                l(1) =   0
     Q(r) pseudized with  8 coefficients,  rinner =    0.800

     atomic species   valence    mass     pseudopotential
        Ti1           12.00    47.86700     Ti( 1.00)
        O1             6.00    15.99900     O ( 1.00)
        N1             5.00    14.00700     N ( 1.00)
        C1             4.00    12.01100     C ( 1.00)
        H1             1.00     1.00800     H ( 1.00)

     No symmetry found

   Cartesian axes

     site n.     atom                  positions (alat units)
         1           Ti1 tau(   1) = (   0.0004258   2.9801865   6.0000000  )
         2           Ti1 tau(   2) = (   3.2906075   1.4906267   6.0002472  )
         3           O1  tau(   3) = (   0.0006271   0.0005054   7.9858123  )
         4           O1  tau(   4) = (   3.2906025   0.0005020   7.3038282  )
         5           O1  tau(   5) = (   4.5942328   1.4918067   9.2879030  )
         6           O1  tau(   6) = (   1.9868534   1.4903216   9.2879459  )
         7           Ti1 tau(   7) = (   3.2907910   2.8959150   9.1758416  )
         8           Ti1 tau(   8) = (   0.0015273   1.4827037   9.2680791  )
         9           O1  tau(   9) = (   3.3002115   5.9463602  11.3460011  )
        10           O1  tau(  10) = (   0.0116148   5.9584955  10.6183126  )
        11           O1  tau(  11) = (   1.3192008   1.4768417  12.6238339  )
        12           O1  tau(  12) = (   5.3062067   1.4698383  12.6193417  )
        13           Ti1 tau(  13) = (   6.5330844   2.9444840  12.6148558  )
        14           Ti1 tau(  14) = (   3.2222230   1.4676475  12.5013840  )
        15           O1  tau(  15) = (   0.0064324   5.9471174  14.6352917  )
        16           O1  tau(  16) = (   3.3028336   5.9445487  13.9678148  )
        17           O1  tau(  17) = (   4.5628415   1.5226527  16.0793330  )
        18           O1  tau(  18) = (   2.0474444   1.5206590  16.0184434  )
        19           Ti1 tau(  19) = (   3.3141275   2.9607752  15.6908890  )
        20           Ti1 tau(  20) = (   6.5660065   1.5097775  15.7997320  )
        21           O1  tau(  21) = (   3.2904802   0.0005063   4.7018136  )
        22           O1  tau(  22) = (   0.0269361   0.0086655  17.1987262  )
        23           O1  tau(  23) = (   1.3043587   1.4918075   6.0039043  )
        24           O1  tau(  24) = (   5.2767064   1.4903225   6.0039473  )
        25           Ti1 tau(  25) = (   0.0000382   5.9609847   6.0000000  )
        26           Ti1 tau(  26) = (   3.2902200   4.4714249   6.0002472  )
        27           O1  tau(  27) = (   0.0002396   2.9813036   7.9858123  )
        28           O1  tau(  28) = (   3.2902150   2.9813002   7.3038282  )
        29           O1  tau(  29) = (   4.5938453   4.4726049   9.2879030  )
        30           O1  tau(  30) = (   1.9864658   4.4711199   9.2879459  )
        31           Ti1 tau(  31) = (   3.2891106   5.8743827   9.1763621  )
        32           Ti1 tau(  32) = (   0.0006254   4.4649316   9.2693709  )
        33           O1  tau(  33) = (   3.2944391   2.9688829  11.3444728  )
        34           O1  tau(  34) = (   0.0092240   2.9805883  10.6323155  )
        35           O1  tau(  35) = (   1.3142520   4.4635248  12.6275686  )
        36           O1  tau(  36) = (   5.3078217   4.4601700  12.6226734  )
        37           Ti1 tau(  37) = (   6.5374036   5.9186568  12.5467527  )
        38           Ti1 tau(  38) = (   3.2213306   4.4595164  12.5065882  )
        39           O1  tau(  39) = (   6.5756885   2.9534048  14.6511233  )
        40           O1  tau(  40) = (   3.3206316   2.9687378  13.8980937  )
        41           O1  tau(  41) = (   4.5543359   4.4428353  16.0905846  )
        42           O1  tau(  42) = (   2.0427057   4.4323087  16.0570365  )
        43           Ti1 tau(  43) = (   3.2570595   5.9269474  15.8069103  )
        44           Ti1 tau(  44) = (   6.5609319   4.6488967  16.0725391  )
        45           O1  tau(  45) = (   3.2900926   2.9813045   4.7018136  )
        46           O1  tau(  46) = (   1.3039711   4.4726057   6.0039043  )
        47           O1  tau(  47) = (   5.2763189   4.4711207   6.0039473  )
        48           N1  tau(  48) = (   0.2492319   2.6641403  18.6309932  )
        49           N1  tau(  49) = (   0.0782707   2.8835230  17.4382120  )
        50           C1  tau(  50) = (   0.2622466   3.8234900  19.5663878  )
        51           H1  tau(  51) = (   6.1755609   4.6233469  19.2444151  )
        52           H1  tau(  52) = (   6.5754044   3.4477461  20.5519103  )
        53           H1  tau(  53) = (   1.2857956   4.2073973  19.6006198  )
        54           O1  tau(  54) = (   3.1761146   0.0362278  18.2233714  )
        55           H1  tau(  55) = (   3.9097821   0.6076051  18.5038283  )
        56           H1  tau(  56) = (   2.3516031   0.5117379  18.4209238  )

     number of k points=    10  Fermi-Dirac smearing, width (Ry)=  0.0073
                       cart. coord. in units 2pi/alat
        k(    1) = (   0.0000000   0.0000000   0.0000000), wk =   0.1250000
        k(    2) = (   0.0000000   0.0419351   0.0000000), wk =   0.2500000
        k(    3) = (   0.0000000  -0.0838702   0.0000000), wk =   0.1250000
        k(    4) = (   0.0379955   0.0000049   0.0000000), wk =   0.2500000
        k(    5) = (   0.0379955   0.0419400   0.0000000), wk =   0.2500000
        k(    6) = (   0.0379955  -0.0838652   0.0000000), wk =   0.2500000
        k(    7) = (   0.0379955  -0.0419301   0.0000000), wk =   0.2500000
        k(    8) = (  -0.0759910  -0.0000099   0.0000000), wk =   0.1250000
        k(    9) = (  -0.0759910   0.0419252   0.0000000), wk =   0.2500000
        k(   10) = (  -0.0759910  -0.0838800   0.0000000), wk =   0.1250000

     Initial potential from superposition of free atoms

     starting charge  386.99914, renormalised to  403.00000

     negative rho (up, down):  1.449E-02 0.000E+00

     %%%%%%%%%%%%%%%%%%%%%%%%%%%%%%%%%%%%%%%%%%%%%%%%%%%%%%%%%%%%%%%%%%%%%%%%
     %                                                                      %
     % You are using vdW-DF, which was implemented by the Thonhauser group. %
     % Please cite the following two papers that made this development      %
     % possible and the two reviews that describe the various versions:     %
     %                                                                      %
     %   T. Thonhauser et al., PRL 115, 136402 (2015).                      %
     %   T. Thonhauser et al., PRB 76, 125112 (2007).                       %
     %   K. Berland et al., Rep. Prog. Phys. 78, 066501 (2015).             %
     %   D.C. Langreth et al., J. Phys.: Condens. Matter 21, 084203 (2009). %
     %                                                                      %
     %                                                                      %
     % If you are calculating the stress with vdW-DF, please also cite:     %
     %                                                                      %
     %   R. Sabatini et al., J. Phys.: Condens. Matter 24, 424209 (2012).   %
     %                                                                      %
     %%%%%%%%%%%%%%%%%%%%%%%%%%%%%%%%%%%%%%%%%%%%%%%%%%%%%%%%%%%%%%%%%%%%%%%%

     Adding external electric field

     Computed dipole along edir(3) :
        Dipole              -13.2081 Ry au,        -33.5717 Debye
        Dipole field         -0.0249 Ry au,

        Potential amp.        2.3106 Ry
        Total length         46.3494 bohr

     Starting wfcs are  305 atomic wfcs
  @ DRIVER MODE: Message from server: STATUS
  @ DRIVER MODE: Message from server: POSDATA
  @ DRIVER MODE: Reading and sharing cell
  @ DRIVER MODE: Reading and sharing positions
  @ DRIVER MODE: Received positions

     Self-consistent Calculation

     iteration #  1     ecut=    29.40 Ry     beta= 0.05
     Davidson diagonalization with overlap
     c_bands:  4 eigenvalues not converged
     c_bands:  2 eigenvalues not converged
     c_bands:  2 eigenvalues not converged
     c_bands:  5 eigenvalues not converged
     c_bands:  1 eigenvalues not converged
     c_bands:  1 eigenvalues not converged
     c_bands:  4 eigenvalues not converged
     c_bands:  1 eigenvalues not converged
     c_bands:  1 eigenvalues not converged
     ethr =  1.00E-05,  avg # of iterations = 28.0

[...]

     total energy              =   -2367.57945830 Ry
     estimated scf accuracy    <    6915.89916383 Ry

     iteration #  2     ecut=    29.40 Ry     beta= 0.05
     Davidson diagonalization with overlap
     ethr =  1.00E-02,  avg # of iterations = 22.7

[...]

     iteration # 52     ecut=    29.40 Ry     beta= 0.05
     Davidson diagonalization with overlap
     c_bands:  1 eigenvalues not converged
     ethr =  1.76E-10,  avg # of iterations = 13.2

[...]

     total energy              =   -2974.00268669 Ry
     estimated scf accuracy    <       0.00000008 Ry

     iteration # 56     ecut=    29.40 Ry     beta= 0.05
     Davidson diagonalization with overlap
     ethr =  2.09E-11,  avg # of iterations =  9.9

     negative rho (up, down):  1.477E-02 0.000E+00

     Adding external electric field

     Computed dipole along edir(3) :
        Dipole                0.8883 Ry au,          2.2579 Debye
        Dipole field          0.0017 Ry au,

        Potential amp.       -0.1554 Ry
        Total length         46.3494 bohr

     End of self-consistent calculation

          k = 0.0000 0.0000 0.0000 ( 18029 PWs)   bands (ev):

   -55.6209 -55.5868 -55.5793 -55.5622 -55.5426 -55.4494 -55.4312 -55.4102
   -55.3973 -55.3963 -55.3680 -55.3626 -55.0049 -54.8650 -54.5998 -54.5658
   -32.1214 -32.1033 -31.9640 -31.9468 -31.9299 -31.9139 -31.8859 -31.8800
   -31.8639 -31.8104 -31.8042 -31.7859 -31.7732 -31.7576 -31.7417 -31.7326
   -31.7252 -31.7126 -31.7068 -31.6781 -31.6696 -31.6522 -31.6236 -31.6195
   -31.6036 -31.6009 -31.6004 -31.5952 -31.5712 -31.5667 -31.5635 -31.5585
   -31.5490 -31.5444 -31.5378 -31.5109 -31.5080 -31.2751 -31.2006 -31.1254
   -31.1081 -31.0738 -31.0070 -30.9185 -30.8960 -30.8237 -30.7372 -30.6262
   -18.8726 -18.3065 -16.3131 -16.0846 -15.8552 -15.7673 -15.7186 -15.5190
   -15.4170 -15.3447 -15.2221 -15.1593 -15.1474 -15.1331 -15.1143 -15.1126
   -15.0599 -15.0529 -15.0490 -15.0412 -15.0079 -14.9674 -14.9525 -14.9420
   -14.8481 -14.7749 -14.7576 -14.7338 -14.6881 -14.6717 -14.1987 -13.1021
   -12.9856 -11.2537  -6.8715  -6.6588  -4.2003  -3.8405  -3.7966  -3.6855
    -3.5582  -3.5250  -3.4427  -3.3695  -3.2327  -3.1944  -3.0341  -2.8486
    -2.7880  -2.7614  -2.7090  -2.6419  -2.5287  -2.4693  -2.4248  -2.4180
    -2.4004  -2.3927  -2.3690  -2.3564  -2.2551  -2.2335  -2.1549  -2.1510
    -2.0993  -1.9824  -1.9678  -1.9332  -1.9202  -1.8969  -1.8750  -1.8548
    -1.8442  -1.8202  -1.7693  -1.7003  -1.6327  -1.5968  -1.5099  -1.4411
    -1.3995  -1.3534  -1.2310  -1.1378  -1.1036  -1.0624  -1.0550  -1.0419
    -1.0130  -0.9953  -0.8823  -0.7683  -0.7513  -0.6860  -0.6262  -0.5450
    -0.5176  -0.4385  -0.3847  -0.3664  -0.3628  -0.3171  -0.2874  -0.2280
    -0.0946  -0.0430  -0.0091   0.0001   0.0590   0.1026   0.1313   0.2188
     0.2248   0.2702   0.3083   0.3408   0.3540   0.3692   0.3875   0.4171
     0.4319   0.6232   0.6597   0.6987   0.7364   0.7791   0.9175   0.9416
     1.0401   1.1492   1.3487   1.4225   1.5271   1.6145   1.9938   2.0396
     2.7448   3.5142   3.6013   3.6462   3.6752   3.7589   3.7729   3.9690
     3.9849   4.0232   4.0942

[...]

          k = 0.0380-0.0419 0.0000 ( 17876 PWs)   bands (ev):

[...]

          k =-0.0760-0.0000 0.0000 ( 17886 PWs)   bands (ev):

[...]

          k =-0.0760-0.0839 0.0000 ( 17948 PWs)   bands (ev):

   -55.6044 -55.6032 -55.5651 -55.5607 -55.5566 -55.4391 -55.4207 -55.4148
   -55.4130 -55.3812 -55.3779 -55.3695 -55.0030 -54.8668 -54.5829 -54.5826
   -31.9350 -31.9190 -31.9188 -31.9182 -31.8998 -31.8987 -31.8494 -31.8431
   -31.8222 -31.7969 -31.7848 -31.7757 -31.7714 -31.7336 -31.7290 -31.7273
   -31.7239 -31.7228 -31.7206 -31.7181 -31.7156 -31.7097 -31.6737 -31.6563
   -31.6376 -31.6334 -31.6260 -31.6142 -31.6137 -31.6108 -31.6052 -31.5959
   -31.5924 -31.5815 -31.5806 -31.5724 -31.4220 -31.2770 -31.2167 -31.1639
   -31.1265 -31.1004 -30.9088 -30.9087 -30.8199 -30.8196 -30.7805 -30.7804
   -18.8715 -18.3028 -15.7716 -15.6611 -15.5705 -15.5363 -15.4789 -15.4098
   -15.4019 -15.3153 -15.2992 -15.2962 -15.2307 -15.2100 -15.1726 -15.1656
   -15.1428 -15.1273 -15.1205 -15.0710 -15.0590 -15.0562 -15.0493 -15.0445
   -14.9684 -14.9378 -14.9340 -14.9251 -14.7973 -14.6728 -14.3704 -13.0875
   -13.0873 -11.2513  -6.8998  -6.6349  -4.1260  -3.8719  -3.7592  -3.2063
    -3.0539  -2.8393  -2.8215  -2.7256  -2.7138  -2.6792  -2.5484  -2.5077
    -2.4667  -2.4504  -2.4314  -2.4300  -2.4129  -2.4072  -2.3860  -2.3603
    -2.3361  -2.3159  -2.2868  -2.2835  -2.2706  -2.2576  -2.2344  -2.2222
    -2.2057  -2.1751  -2.1494  -2.1336  -2.0658  -1.9941  -1.8339  -1.7957
    -1.7565  -1.7503  -1.7333  -1.7029  -1.6869  -1.6691  -1.6219  -1.5858
    -1.5006  -1.3593  -1.3398  -1.3162  -1.2956  -1.2843  -1.2121  -1.1039
    -1.0848  -1.0136  -1.0053  -0.8989  -0.8905  -0.8057  -0.7973  -0.7869
    -0.7122  -0.6851  -0.6703  -0.5815  -0.5793  -0.5552  -0.5058  -0.4786
    -0.4146  -0.3719  -0.3411  -0.3380  -0.2920  -0.2698  -0.2257  -0.1595
    -0.1060  -0.0699   0.0267   0.1310   0.2317   0.3471   0.4621   0.4760
     0.5577   0.5916   0.6762   0.6921   0.7004   0.7726   0.7774   0.8760
     0.9210   0.9355   0.9760   1.0987   1.7857   1.7871   1.8592   1.8594
     2.7691   3.7318   3.8515   3.8936   3.9114   3.9858   4.0283   4.0479
     4.0503   4.0845   4.1904

     the Fermi energy is     3.5129 ev

!    total energy              =   -2974.00275320 Ry
     estimated scf accuracy    <       0.00000005 Ry
     smearing contrib. (-TS)   =      -0.02182595 Ry
     internal energy E=F+TS    =   -2973.98092725 Ry

     The total energy is F=E-TS. E is the sum of the following terms:
     one-electron contribution =  -23848.47703713 Ry
     hartree contribution      =   12018.63896298 Ry
     xc contribution           =    -494.03123804 Ry
     ewald contribution        =    9349.88689573 Ry
     electric field correction =       0.00148921 Ry

     convergence has been achieved in  56 iterations

     Forces acting on atoms (cartesian axes, Ry/au):

     atom    1 type  1   force =     0.00003990   -0.00024486    0.09652100
     atom    2 type  1   force =     0.00005643   -0.00044399   -0.17544374
     atom    3 type  2   force =     0.00011583   -0.00009595   -0.02474846
     atom    4 type  2   force =     0.00004166   -0.00157921    0.05349832
     atom    5 type  2   force =    -0.01198344   -0.00100357    0.00308721
     atom    6 type  2   force =     0.01372591   -0.00064448    0.00292289
     atom    7 type  1   force =     0.00074391    0.00069557   -0.00682067
     atom    8 type  1   force =     0.00021999    0.00949293    0.02713555
     atom    9 type  2   force =    -0.00014755   -0.00006248   -0.00005265
     atom   10 type  2   force =    -0.00204855    0.00048344   -0.01820863
     atom   11 type  2   force =    -0.00058369    0.00032686    0.00012174
     atom   12 type  2   force =     0.00070117    0.00013047    0.00031040
     atom   13 type  1   force =    -0.00015951   -0.00009557   -0.00015235
     atom   14 type  1   force =    -0.00040543   -0.00016047    0.00025577
     atom   15 type  2   force =     0.00004040   -0.00059346    0.00069825
     atom   16 type  2   force =    -0.00026386   -0.00006682   -0.00038041
     atom   17 type  2   force =    -0.00025759    0.00020820   -0.00031948
     atom   18 type  2   force =     0.00000274    0.00012178   -0.00016138
     atom   19 type  1   force =    -0.00021827    0.00027630   -0.00006223
     atom   20 type  1   force =    -0.00054829    0.00003333    0.00032264
     atom   21 type  2   force =     0.00008583    0.00001476    0.10325349
     atom   22 type  2   force =     0.00020594    0.00042450    0.00003305
     atom   23 type  2   force =    -0.07144658   -0.00009235   -0.02774732
     atom   24 type  2   force =     0.07140431    0.00036202   -0.02781908
     atom   25 type  1   force =     0.00017829   -0.00034084    0.09619059
     atom   26 type  1   force =     0.00000411   -0.00037536   -0.17577326
     atom   27 type  2   force =     0.00021119   -0.00020679   -0.02374143
     atom   28 type  2   force =     0.00002423   -0.00128187    0.05296416
     atom   29 type  2   force =    -0.01222163    0.00023610    0.00291468
     atom   30 type  2   force =     0.01388398    0.00081627    0.00273181
     atom   31 type  1   force =     0.00041176    0.00343923   -0.00984718
     atom   32 type  1   force =     0.00036539   -0.01131705    0.02754236
     atom   33 type  2   force =     0.00010279    0.00014556    0.00000057
     atom   34 type  2   force =    -0.00188202   -0.00045084   -0.02415795
     atom   35 type  2   force =     0.00040379    0.00003177   -0.00026919
     atom   36 type  2   force =    -0.00028064   -0.00006298    0.00007888
     atom   37 type  1   force =    -0.00030875   -0.00012999    0.00008920
     atom   38 type  1   force =    -0.00080112    0.00014485   -0.00049004
     atom   39 type  2   force =     0.00010858   -0.00032965   -0.00023025
     atom   40 type  2   force =     0.00019166    0.00033743    0.00048510
     atom   41 type  2   force =     0.00023203    0.00006049   -0.00037011
     atom   42 type  2   force =    -0.00043624   -0.00005631   -0.00031904
     atom   43 type  1   force =     0.00058188    0.00062130    0.00019060
     atom   44 type  1   force =    -0.00014917    0.00105814   -0.00069184
     atom   45 type  2   force =     0.00008482   -0.00002669    0.10324237
     atom   46 type  2   force =    -0.07145552   -0.00002458   -0.02775907
     atom   47 type  2   force =     0.07141315    0.00040144   -0.02781345
     atom   48 type  3   force =    -0.00043814    0.00011673   -0.00153405
     atom   49 type  3   force =    -0.00008080   -0.00043398    0.00130539
     atom   50 type  4   force =     0.00014054    0.00051897    0.00036009
     atom   51 type  5   force =     0.00111815   -0.00072624   -0.00030890
     atom   52 type  5   force =    -0.00011233    0.00012239   -0.00016723
     atom   53 type  5   force =    -0.00003723   -0.00065768    0.00013675
     atom   54 type  2   force =     0.00340598   -0.00177359   -0.00219545
     atom   55 type  5   force =    -0.00059200    0.00013615    0.00001436
     atom   56 type  5   force =    -0.00338799    0.00252070    0.00117757

     Total force =     0.368062     Total SCF correction =     0.000560
  @ DRIVER MODE: Message from server: STATUS
  @ DRIVER MODE: Message from server: GETFORCE
  @ DRIVER MODE: Returning v,forces,stress,ensemble

     Writing output data file ./calc.save/
  @ DRIVER MODE: Message from server: EXIT
  @ DRIVE MODE: Exiting

     General routines

     Parallel routines

   This run was terminated on:  14:57:10  10Sep2021

   JOB DONE.