     Program PWSCF v.6.7GPU starts on  9Sep2021 at  6:17:54

     R & G space division:  proc/nbgrp/npool/nimage =      10
     Reading input from /storage/home/hcoda1/3/ntian30/research/carbon/CxH_vib/CH3_calc/ads_slab/CH3N2_c/out_0027/pw.inp
Warning: card &CELL ignored
Warning: card   CELL_DYNAMICS='IPI', ignored
Warning: card / ignored

     Current dimensions of program PWSCF are:
     Max number of different atomic species (ntypx) = 10
     Max number of k-points (npk) =  40000
     Max angular momentum in pseudopotentials (lmaxx) =  3
     Presently no symmetry can be used with electric field

     Message from routine cell_base_init:
     DEPRECATED: use true lattice parameter, not A to a.u. conversion factor

     IMPORTANT: XC functional enforced from input :
     Exchange-correlation= BEEF-VDW
                           (   1   4  43  14   2   0   0)
     Any further DFT definition will be discarded
     Please, verify this is what you really want

  @ DRIVER MODE: Connecting to
 qe_1139763_2767397.sched-torque.pace.gatech.eduf5ypwkcm_scratch
  using UNIX socket
  @ DRIVER MODE: Message from server: STATUS
  @ DRIVER MODE: Message from server: INIT
  @ DRIVER MODE: Receiving replica           0          -1
  @ DRIVER MODE: Receiving encoded integer          25
  @ DRIVER MODE:  SCF:  T  FORCE:  T  STRESS:  F  VC:  F  ENSEMBLE:  F
  @ DRIVER MODE:  SCF:  T  FORCE:  T  STRESS:  F  VC:  F  ENSEMBLE:  F

     Using Slab Decomposition

     bravais-lattice index     =            0
     lattice parameter (alat)  =       1.8897  a.u.
     unit-cell volume          =    6658.9804 (a.u.)^3
     number of atoms/cell      =           53
     number of atomic types    =            5
     number of electrons       =       395.00
     number of Kohn-Sham states=          207
     kinetic-energy cutoff     =      29.3995  Ry
     charge density cutoff     =     293.9946  Ry
     scf convergence threshold =      7.3E-08
     mixing beta               =       0.0500
     number of iterations used =            8  plain     mixing
     Exchange-correlation= BEEF-VDW
                           (   1   4  43  14   2   0   0)

     celldm(1)=   1.889726  celldm(2)=   0.000000  celldm(3)=   0.000000
     celldm(4)=   0.000000  celldm(5)=   0.000000  celldm(6)=   0.000000

     crystal axes: (cart. coord. in units of alat)
               a(1) = (   6.579727   0.000000   0.000000 )
               a(2) = (  -0.000775   5.961596   0.000000 )
               a(3) = (   0.000000   0.000000  25.155947 )

     reciprocal axes: (cart. coord. in units 2 pi/alat)
               b(1) = (  0.151982  0.000020  0.000000 )
               b(2) = (  0.000000  0.167740  0.000000 )
               b(3) = (  0.000000  0.000000  0.039752 )

     PseudoPot. # 1 for Ti read from file:
     /storage/coda1/p-amedford6/0/shared/rich_project_chbe-medford/medford-share/data/pseudos_module/espresso/nninc/pbe/van/Ti.UPF
     MD5 check sum: 8e4df49b7f0d34bbd5052bf3f5ea0213
     Pseudo is Ultrasoft, Zval = 12.0
     Generated by new atomic code, or converted to UPF format
     Using radial grid of  851 points,  6 beta functions with:
                l(1) =   0
                l(2) =   0
                l(3) =   1
                l(4) =   1
                l(5) =   2
                l(6) =   2
     Q(r) pseudized with  8 coefficients,  rinner =    1.000   1.000   1.000
                                                       1.000   1.000

     PseudoPot. # 2 for O  read from file:
     /storage/coda1/p-amedford6/0/shared/rich_project_chbe-medford/medford-share/data/pseudos_module/espresso/nninc/pbe/van/O.UPF
     MD5 check sum: 78c19812648e8988a0fe644b0f25305e
     Pseudo is Ultrasoft, Zval =  6.0
     Generated by new atomic code, or converted to UPF format
     Using radial grid of  737 points,  4 beta functions with:
                l(1) =   0
                l(2) =   0
                l(3) =   1
                l(4) =   1
     Q(r) pseudized with  8 coefficients,  rinner =    0.800   0.800   0.800

     PseudoPot. # 3 for N  read from file:
     /storage/coda1/p-amedford6/0/shared/rich_project_chbe-medford/medford-share/data/pseudos_module/espresso/nninc/pbe/van/N.UPF
     MD5 check sum: 90d10febe142ad51ac9d5be1deb811c4
     Pseudo is Ultrasoft, Zval =  5.0
     Generated by new atomic code, or converted to UPF format
     Using radial grid of  729 points,  4 beta functions with:
                l(1) =   0
                l(2) =   0
                l(3) =   1
                l(4) =   1
     Q(r) pseudized with  8 coefficients,  rinner =    0.800   0.800   0.800

     PseudoPot. # 4 for C  read from file:
     /storage/coda1/p-amedford6/0/shared/rich_project_chbe-medford/medford-share/data/pseudos_module/espresso/nninc/pbe/van/C.UPF
     MD5 check sum: 1a69bf6b8db32088f5b2163dbdb77a27
     Pseudo is Ultrasoft, Zval =  4.0
     Generated by new atomic code, or converted to UPF format
     Using radial grid of  721 points,  4 beta functions with:
                l(1) =   0
                l(2) =   0
                l(3) =   1
                l(4) =   1
     Q(r) pseudized with  8 coefficients,  rinner =    0.800   0.800   0.800

     PseudoPot. # 5 for H  read from file:
     /storage/coda1/p-amedford6/0/shared/rich_project_chbe-medford/medford-share/data/pseudos_module/espresso/nninc/pbe/van/H.UPF
     MD5 check sum: b5ee9d7bfd3a09ee7748110bda690ff7
     Pseudo is Ultrasoft, Zval =  1.0
     Generated by new atomic code, or converted to UPF format
     Using radial grid of  615 points,  1 beta functions with:
                l(1) =   0
     Q(r) pseudized with  8 coefficients,  rinner =    0.800

     atomic species   valence    mass     pseudopotential
        Ti1           12.00    47.86700     Ti( 1.00)
        O1             6.00    15.99900     O ( 1.00)
        N1             5.00    14.00700     N ( 1.00)
        C1             4.00    12.01100     C ( 1.00)
        H1             1.00     1.00800     H ( 1.00)

     No symmetry found

   Cartesian axes

     site n.     atom                  positions (alat units)
         1           Ti1 tau(   1) = (   0.0004258   2.9801865   6.0000000  )
         2           Ti1 tau(   2) = (   3.2906075   1.4906267   6.0002472  )
         3           O1  tau(   3) = (   0.0006271   0.0005054   7.9858123  )
         4           O1  tau(   4) = (   3.2906025   0.0005020   7.3038282  )
         5           O1  tau(   5) = (   4.5942328   1.4918067   9.2879030  )
         6           O1  tau(   6) = (   1.9868534   1.4903216   9.2879459  )
         7           Ti1 tau(   7) = (   3.2907910   2.8959150   9.1758416  )
         8           Ti1 tau(   8) = (   0.0015273   1.4827037   9.2680791  )
         9           O1  tau(   9) = (   3.2868105   5.9447858  11.3346005  )
        10           O1  tau(  10) = (   0.0116148   5.9584955  10.6183126  )
        11           O1  tau(  11) = (   1.2897616   1.4699164  12.6258314  )
        12           O1  tau(  12) = (   5.2713851   1.4716199  12.6109895  )
        13           Ti1 tau(  13) = (   0.0629619   2.9460495  12.6207869  )
        14           Ti1 tau(  14) = (   3.3778125   1.4702366  12.4807322  )
        15           O1  tau(  15) = (   6.5741670   5.9392046  14.6271830  )
        16           O1  tau(  16) = (   3.2925211   5.9405975  13.9303826  )
        17           O1  tau(  17) = (   4.5331425   1.4971777  16.0590535  )
        18           O1  tau(  18) = (   2.0416154   1.4974824  16.0477615  )
        19           Ti1 tau(  19) = (   3.2901388   2.9722967  15.7036181  )
        20           Ti1 tau(  20) = (   6.5714728   1.5019933  15.8140906  )
        21           O1  tau(  21) = (   3.2904802   0.0005063   4.7018136  )
        22           O1  tau(  22) = (   6.5775371   0.0159386  17.1814867  )
        23           O1  tau(  23) = (   1.3043587   1.4918075   6.0039043  )
        24           O1  tau(  24) = (   5.2767064   1.4903225   6.0039473  )
        25           Ti1 tau(  25) = (   0.0000382   5.9609847   6.0000000  )
        26           Ti1 tau(  26) = (   3.2902200   4.4714249   6.0002472  )
        27           O1  tau(  27) = (   0.0002396   2.9813036   7.9858123  )
        28           O1  tau(  28) = (   3.2902150   2.9813002   7.3038282  )
        29           O1  tau(  29) = (   4.5938453   4.4726049   9.2879030  )
        30           O1  tau(  30) = (   1.9864658   4.4711199   9.2879459  )
        31           Ti1 tau(  31) = (   3.2891106   5.8743827   9.1763621  )
        32           Ti1 tau(  32) = (   0.0006254   4.4649316   9.2693709  )
        33           O1  tau(  33) = (   3.2909631   2.9655588  11.3316111  )
        34           O1  tau(  34) = (   0.0092240   2.9805883  10.6323155  )
        35           O1  tau(  35) = (   1.2884032   4.4536117  12.6269208  )
        36           O1  tau(  36) = (   5.2752684   4.4605011  12.6109535  )
        37           Ti1 tau(  37) = (   0.0626277   5.9200555  12.5524633  )
        38           Ti1 tau(  38) = (   3.3797810   4.4486816  12.4846537  )
        39           O1  tau(  39) = (   6.5720240   2.9440667  14.6479771  )
        40           O1  tau(  40) = (   3.2941106   2.9728877  13.9057494  )
        41           O1  tau(  41) = (   4.5311790   4.4530262  16.1020043  )
        42           O1  tau(  42) = (   2.0427069   4.4534008  16.0946336  )
        43           Ti1 tau(  43) = (   3.2818950   5.9508925  15.7274921  )
        44           Ti1 tau(  44) = (   6.5750914   4.6476268  16.0792144  )
        45           O1  tau(  45) = (   3.2900926   2.9813045   4.7018136  )
        46           O1  tau(  46) = (   1.3039711   4.4726057   6.0039043  )
        47           O1  tau(  47) = (   5.2763189   4.4711207   6.0039473  )
        48           N1  tau(  48) = (   0.0795740   2.6614725  18.6386781  )
        49           N1  tau(  49) = (   0.0132033   2.8794178  17.4383708  )
        50           C1  tau(  50) = (   0.1510961   3.8031638  19.5808395  )
        51           H1  tau(  51) = (   6.4701351   4.7592986  19.1328852  )
        52           H1  tau(  52) = (   6.0910372   3.5504803  20.4266230  )
        53           H1  tau(  53) = (   1.1812797   3.8285794  19.9476819  )

     number of k points=    10  Fermi-Dirac smearing, width (Ry)=  0.0073
                       cart. coord. in units 2pi/alat
        k(    1) = (   0.0000000   0.0000000   0.0000000), wk =   0.1250000
        k(    2) = (   0.0000000   0.0419351   0.0000000), wk =   0.2500000
        k(    3) = (   0.0000000  -0.0838702   0.0000000), wk =   0.1250000
        k(    4) = (   0.0379955   0.0000049   0.0000000), wk =   0.2500000
        k(    5) = (   0.0379955   0.0419400   0.0000000), wk =   0.2500000
        k(    6) = (   0.0379955  -0.0838652   0.0000000), wk =   0.2500000
        k(    7) = (   0.0379955  -0.0419301   0.0000000), wk =   0.2500000
        k(    8) = (  -0.0759910  -0.0000099   0.0000000), wk =   0.1250000
        k(    9) = (  -0.0759910   0.0419252   0.0000000), wk =   0.2500000
        k(   10) = (  -0.0759910  -0.0838800   0.0000000), wk =   0.1250000

     Initial potential from superposition of free atoms

     starting charge  378.99916, renormalised to  395.00000

     negative rho (up, down):  1.506E-02 0.000E+00

     %%%%%%%%%%%%%%%%%%%%%%%%%%%%%%%%%%%%%%%%%%%%%%%%%%%%%%%%%%%%%%%%%%%%%%%%
     %                                                                      %
     % You are using vdW-DF, which was implemented by the Thonhauser group. %
     % Please cite the following two papers that made this development      %
     % possible and the two reviews that describe the various versions:     %
     %                                                                      %
     %   T. Thonhauser et al., PRL 115, 136402 (2015).                      %
     %   T. Thonhauser et al., PRB 76, 125112 (2007).                       %
     %   K. Berland et al., Rep. Prog. Phys. 78, 066501 (2015).             %
     %   D.C. Langreth et al., J. Phys.: Condens. Matter 21, 084203 (2009). %
     %                                                                      %
     %                                                                      %
     % If you are calculating the stress with vdW-DF, please also cite:     %
     %                                                                      %
     %   R. Sabatini et al., J. Phys.: Condens. Matter 24, 424209 (2012).   %
     %                                                                      %
     %%%%%%%%%%%%%%%%%%%%%%%%%%%%%%%%%%%%%%%%%%%%%%%%%%%%%%%%%%%%%%%%%%%%%%%%

     Adding external electric field

     Computed dipole along edir(3) :
        Dipole               -8.8495 Ry au,        -22.4931 Debye
        Dipole field         -0.0167 Ry au,

        Potential amp.        1.5481 Ry
        Total length         46.3494 bohr

     Starting wfcs are  299 atomic wfcs
  @ DRIVER MODE: Message from server: STATUS
  @ DRIVER MODE: Message from server: POSDATA
  @ DRIVER MODE: Reading and sharing cell
  @ DRIVER MODE: Reading and sharing positions
  @ DRIVER MODE: Received positions

     Self-consistent Calculation

     iteration #  1     ecut=    29.40 Ry     beta= 0.05
     Davidson diagonalization with overlap
     c_bands:  1 eigenvalues not converged
     c_bands:  2 eigenvalues not converged
     c_bands:  1 eigenvalues not converged
     c_bands:  3 eigenvalues not converged
     c_bands:  3 eigenvalues not converged
     c_bands:  1 eigenvalues not converged
     ethr =  1.00E-05,  avg # of iterations = 18.9

[...]

     total energy              =   -2605.53489855 Ry
     estimated scf accuracy    <    3700.62007951 Ry

     iteration #  2     ecut=    29.40 Ry     beta= 0.05
     Davidson diagonalization with overlap
     ethr =  1.00E-02,  avg # of iterations = 22.5

[...]

     iteration # 77     ecut=    29.40 Ry     beta= 0.05
     Davidson diagonalization with overlap
     c_bands:  1 eigenvalues not converged
     c_bands:  2 eigenvalues not converged
     c_bands:  1 eigenvalues not converged
     ethr =  3.17E-11,  avg # of iterations = 16.8

[...]

     total energy              =   -2939.15478887 Ry
     estimated scf accuracy    <       0.00000007 Ry

     iteration # 79     ecut=    29.40 Ry     beta= 0.05
     Davidson diagonalization with overlap
     ethr =  1.88E-11,  avg # of iterations = 11.5

     negative rho (up, down):  1.565E-02 0.000E+00

     Adding external electric field

     Computed dipole along edir(3) :
        Dipole                0.7080 Ry au,          1.7997 Debye
        Dipole field          0.0013 Ry au,

        Potential amp.       -0.1239 Ry
        Total length         46.3494 bohr

     End of self-consistent calculation

          k = 0.0000 0.0000 0.0000 ( 18029 PWs)   bands (ev):

   -55.8953 -55.8800 -55.8612 -55.8441 -55.7954 -55.7299 -55.7041 -55.7035
   -55.6933 -55.6694 -55.6684 -55.6348 -55.2859 -55.0952 -54.8726 -54.8386
   -32.4342 -32.3776 -32.2300 -32.2275 -32.2022 -32.1988 -32.1881 -32.1590
   -32.1376 -32.1241 -32.1023 -32.0665 -32.0607 -32.0475 -32.0333 -32.0197
   -32.0174 -31.9995 -31.9848 -31.9524 -31.9440 -31.9395 -31.8986 -31.8937
   -31.8913 -31.8877 -31.8797 -31.8749 -31.8706 -31.8439 -31.8432 -31.8343
   -31.8330 -31.8213 -31.8099 -31.7806 -31.7777 -31.5661 -31.4593 -31.3574
   -31.3554 -31.3110 -31.2797 -31.1914 -31.1690 -31.0964 -31.0099 -30.8988
   -18.4498 -16.6326 -16.3679 -16.1390 -16.0453 -16.0130 -15.8949 -15.7326
   -15.6151 -15.5601 -15.4627 -15.4432 -15.4304 -15.3983 -15.3799 -15.3746
   -15.3406 -15.3366 -15.3182 -15.3029 -15.2546 -15.2309 -15.2092 -15.1098
   -15.0635 -15.0299 -15.0144 -14.9515 -14.9463 -14.4420 -13.3749 -13.2585
   -11.3618  -6.9219  -4.3448  -4.0024  -3.8918  -3.8639  -3.8472  -3.8006
    -3.7437  -3.6247  -3.4989  -3.4366  -3.1260  -3.0780  -3.0621  -3.0448
    -3.0070  -2.7997  -2.7485  -2.7083  -2.6836  -2.6764  -2.6653  -2.6577
    -2.6460  -2.6075  -2.5054  -2.4362  -2.4286  -2.3432  -2.2933  -2.2698
    -2.2071  -2.1872  -2.1653  -2.1421  -2.1307  -2.1097  -2.0898  -2.0787
    -1.9735  -1.8829  -1.7508  -1.6943  -1.6719  -1.6563  -1.6450  -1.5026
    -1.3699  -1.3377  -1.3287  -1.3199  -1.2866  -1.2744  -1.1916  -1.0629
    -1.0519  -1.0121  -0.9598  -0.9018  -0.8767  -0.7748  -0.7379  -0.6613
    -0.6561  -0.6393  -0.5864  -0.5339  -0.3762  -0.3343  -0.3084  -0.2862
    -0.2616  -0.1908  -0.1693  -0.0531  -0.0355  -0.0180   0.0422   0.0654
     0.0784   0.0882   0.1061   0.1242   0.1416   0.3088   0.3812   0.4332
     0.4570   0.5149   0.6399   0.7088   0.7638   0.8642   1.0753   1.1495
     1.2424   1.3417   1.7209   1.7665   2.6486   3.2443   3.3250   3.3741
     3.3889   3.4859   3.5196   3.6960   3.6973   3.7260   3.7960

[...]

          k = 0.0380-0.0419 0.0000 ( 17876 PWs)   bands (ev):

[...]

          k =-0.0760-0.0000 0.0000 ( 17886 PWs)   bands (ev):

[...]

          k =-0.0760-0.0839 0.0000 ( 17948 PWs)   bands (ev):

   -55.8786 -55.8777 -55.8622 -55.8617 -55.7919 -55.7179 -55.7073 -55.7054
   -55.6874 -55.6850 -55.6524 -55.6511 -55.2845 -55.0966 -54.8556 -54.8554
   -32.2388 -32.2369 -32.1932 -32.1926 -32.1739 -32.1731 -32.1693 -32.1340
   -32.0884 -32.0854 -32.0793 -32.0788 -32.0421 -32.0127 -32.0050 -32.0044
   -31.9982 -31.9980 -31.9973 -31.9972 -31.9929 -31.9912 -31.9887 -31.9376
   -31.9238 -31.9119 -31.9108 -31.8995 -31.8864 -31.8859 -31.8834 -31.8824
   -31.8668 -31.8661 -31.8571 -31.8543 -31.6946 -31.5678 -31.4677 -31.4144
   -31.3572 -31.3365 -31.1818 -31.1816 -31.0925 -31.0923 -31.0533 -31.0532
   -18.4456 -16.0684 -16.0424 -15.8425 -15.8094 -15.8052 -15.7908 -15.6821
   -15.5971 -15.5902 -15.5874 -15.5208 -15.4908 -15.4751 -15.4344 -15.4217
   -15.4145 -15.4028 -15.3925 -15.3555 -15.3481 -15.3309 -15.3235 -15.2393
   -15.2115 -15.2074 -15.1816 -15.0636 -14.9323 -14.6183 -13.3603 -13.3603
   -11.3595  -6.9336  -4.2547  -3.8994  -3.8390  -3.3578  -3.3290  -3.0889
    -3.0500  -3.0363  -2.9832  -2.8216  -2.7913  -2.7654  -2.7538  -2.7222
    -2.7170  -2.7049  -2.6999  -2.6798  -2.6384  -2.6169  -2.5991  -2.5817
    -2.5624  -2.5484  -2.5325  -2.5158  -2.5064  -2.4670  -2.4435  -2.4318
    -2.4131  -2.4014  -2.2451  -2.1219  -2.0875  -2.0330  -2.0228  -2.0013
    -1.9613  -1.9575  -1.9458  -1.8815  -1.8081  -1.6522  -1.6122  -1.5940
    -1.5754  -1.5583  -1.5002  -1.4598  -1.3730  -1.2983  -1.2748  -1.2703
    -1.2019  -1.1146  -1.1067  -1.0599  -1.0168  -1.0072  -0.9528  -0.8879
    -0.8574  -0.8532  -0.8009  -0.7322  -0.7136  -0.6633  -0.6564  -0.6120
    -0.5569  -0.5484  -0.5279  -0.4869  -0.4049  -0.3812  -0.2428  -0.1629
    -0.0407   0.0739   0.1681   0.1825   0.2625   0.3144   0.3982   0.4157
     0.4262   0.4354   0.4786   0.5616   0.6373   0.6521   0.6979   0.8189
     1.5133   1.5140   1.5861   1.5863   2.7054   3.4917   3.5363   3.5784
     3.6107   3.7171   3.7493   3.7728   3.7739   3.8024   3.9146

     the Fermi energy is     3.2396 ev

!    total energy              =   -2939.15480066 Ry
     estimated scf accuracy    <       0.00000004 Ry
     smearing contrib. (-TS)   =      -0.02244375 Ry
     internal energy E=F+TS    =   -2939.13235691 Ry

     The total energy is F=E-TS. E is the sum of the following terms:
     one-electron contribution =  -24176.17458910 Ry
     hartree contribution      =   12175.33728276 Ry
     xc contribution           =    -485.18282856 Ry
     ewald contribution        =    9546.88683193 Ry
     electric field correction =       0.00094607 Ry

     convergence has been achieved in  79 iterations

     Forces acting on atoms (cartesian axes, Ry/au):

     atom    1 type  1   force =     0.00011965   -0.00024143    0.09665830
     atom    2 type  1   force =    -0.00012074   -0.00050206   -0.17523771
     atom    3 type  2   force =     0.00000088   -0.00010196   -0.02499367
     atom    4 type  2   force =     0.00005216   -0.00149969    0.05298768
     atom    5 type  2   force =    -0.01214657   -0.00108866    0.00361228
     atom    6 type  2   force =     0.01369618   -0.00028050    0.00228621
     atom    7 type  1   force =    -0.00117331    0.00036892   -0.01148519
     atom    8 type  1   force =     0.00055995    0.00941598    0.02852251
     atom    9 type  2   force =     0.00019616    0.00052905   -0.00015379
     atom   10 type  2   force =    -0.00114594    0.00028360   -0.01823435
     atom   11 type  2   force =    -0.00011841    0.00000223   -0.00012781
     atom   12 type  2   force =     0.00013484    0.00021521    0.00019110
     atom   13 type  1   force =     0.00009395   -0.00029601    0.00015641
     atom   14 type  1   force =     0.00021957    0.00017241    0.00021237
     atom   15 type  2   force =     0.00021910   -0.00007849   -0.00009650
     atom   16 type  2   force =    -0.00033133    0.00033880    0.00038069
     atom   17 type  2   force =    -0.00016195    0.00041124   -0.00014862
     atom   18 type  2   force =     0.00012127    0.00015745    0.00023856
     atom   19 type  1   force =    -0.00007302    0.00014716    0.00006176
     atom   20 type  1   force =    -0.00059255   -0.00016969    0.00021756
     atom   21 type  2   force =     0.00008808    0.00001446    0.10323361
     atom   22 type  2   force =    -0.00019128    0.00022145    0.00086226
     atom   23 type  2   force =    -0.07147203   -0.00007157   -0.02771766
     atom   24 type  2   force =     0.07143864    0.00034788   -0.02772444
     atom   25 type  1   force =     0.00006902   -0.00022426    0.09638105
     atom   26 type  1   force =    -0.00022825   -0.00025784   -0.17563781
     atom   27 type  2   force =     0.00007041   -0.00025106   -0.02399928
     atom   28 type  2   force =     0.00009512   -0.00125958    0.05285850
     atom   29 type  2   force =    -0.01238970    0.00003902    0.00352396
     atom   30 type  2   force =     0.01385594    0.00033087    0.00216817
     atom   31 type  1   force =    -0.00113635    0.00332949   -0.01190098
     atom   32 type  1   force =     0.00065201   -0.01118421    0.02912280
     atom   33 type  2   force =     0.00010888   -0.00019946   -0.00041359
     atom   34 type  2   force =    -0.00089674   -0.00093556   -0.02481956
     atom   35 type  2   force =    -0.00038813    0.00027033    0.00003108
     atom   36 type  2   force =     0.00072223    0.00029173    0.00034877
     atom   37 type  1   force =    -0.00000825   -0.00022728    0.00005404
     atom   38 type  1   force =    -0.00001218    0.00009949    0.00000282
     atom   39 type  2   force =     0.00032384    0.00034377   -0.00043778
     atom   40 type  2   force =    -0.00030572    0.00010318    0.00016791
     atom   41 type  2   force =    -0.00042504    0.00052979    0.00013885
     atom   42 type  2   force =     0.00002510    0.00045925    0.00043706
     atom   43 type  1   force =    -0.00004323    0.00038743    0.00039503
     atom   44 type  1   force =    -0.00042213    0.00017079    0.00069921
     atom   45 type  2   force =     0.00008198   -0.00002556    0.10323201
     atom   46 type  2   force =    -0.07150072   -0.00003268   -0.02773266
     atom   47 type  2   force =     0.07146551    0.00038874   -0.02775852
     atom   48 type  3   force =     0.00096044   -0.00073511   -0.00117202
     atom   49 type  3   force =     0.00054283    0.00012818   -0.00043077
     atom   50 type  4   force =     0.00035271   -0.00197097    0.00159206
     atom   51 type  5   force =    -0.00047815    0.00064210    0.00022900
     atom   52 type  5   force =     0.00028695    0.00163736   -0.00082728
     atom   53 type  5   force =    -0.00079170   -0.00014373    0.00004637

     Total force =     0.368336     Total SCF correction =     0.000390
  @ DRIVER MODE: Message from server: STATUS
  @ DRIVER MODE: Message from server: GETFORCE
  @ DRIVER MODE: Returning v,forces,stress,ensemble

     Writing output data file ./calc.save/
  @ DRIVER MODE: Message from server: EXIT
  @ DRIVE MODE: Exiting

     General routines

     Parallel routines

   This run was terminated on:   6:38:19   9Sep2021

   JOB DONE.