     Program PWSCF v.6.7GPU starts on 23Sep2021 at  6:58: 6

     R & G space division:  proc/nbgrp/npool/nimage =       8
     Reading input from /storage/home/hcoda1/3/ntian30/research/carbon/CxH_vib/H2O_calc/ads_slab/CH3HO_a/out_0026/pw.inp
Warning: card &CELL ignored
Warning: card   CELL_DYNAMICS='IPI', ignored
Warning: card / ignored

     Current dimensions of program PWSCF are:
     Max number of different atomic species (ntypx) = 10
     Max number of k-points (npk) =  40000
     Max angular momentum in pseudopotentials (lmaxx) =  3
     Presently no symmetry can be used with electric field

     Message from routine cell_base_init:
     DEPRECATED: use true lattice parameter, not A to a.u. conversion factor

     IMPORTANT: XC functional enforced from input :
     Exchange-correlation= BEEF-VDW
                           (   1   4  43  14   2   0   0)
     Any further DFT definition will be discarded
     Please, verify this is what you really want

  @ DRIVER MODE: Connecting to
 qe_1139763_2941010.sched-torque.pace.gatech.edu0a370jog_scratch
  using UNIX socket
  @ DRIVER MODE: Message from server: STATUS
  @ DRIVER MODE: Message from server: INIT
  @ DRIVER MODE: Receiving replica           0          -1
  @ DRIVER MODE: Receiving encoded integer          25
  @ DRIVER MODE:  SCF:  T  FORCE:  T  STRESS:  F  VC:  F  ENSEMBLE:  F
  @ DRIVER MODE:  SCF:  T  FORCE:  T  STRESS:  F  VC:  F  ENSEMBLE:  F

     Using Slab Decomposition

     bravais-lattice index     =            0
     lattice parameter (alat)  =       1.8897  a.u.
     unit-cell volume          =    6658.9804 (a.u.)^3
     number of atoms/cell      =           53
     number of atomic types    =            4
     number of electrons       =       392.00
     number of Kohn-Sham states=          206
     kinetic-energy cutoff     =      29.3995  Ry
     charge density cutoff     =     293.9946  Ry
     scf convergence threshold =      7.3E-08
     mixing beta               =       0.0500
     number of iterations used =            8  plain     mixing
     Exchange-correlation= BEEF-VDW
                           (   1   4  43  14   2   0   0)

     celldm(1)=   1.889726  celldm(2)=   0.000000  celldm(3)=   0.000000
     celldm(4)=   0.000000  celldm(5)=   0.000000  celldm(6)=   0.000000

     crystal axes: (cart. coord. in units of alat)
               a(1) = (   6.579727   0.000000   0.000000 )
               a(2) = (  -0.000775   5.961596   0.000000 )
               a(3) = (   0.000000   0.000000  25.155947 )

     reciprocal axes: (cart. coord. in units 2 pi/alat)
               b(1) = (  0.151982  0.000020  0.000000 )
               b(2) = (  0.000000  0.167740  0.000000 )
               b(3) = (  0.000000  0.000000  0.039752 )

     PseudoPot. # 1 for Ti read from file:
     /storage/coda1/p-amedford6/0/shared/rich_project_chbe-medford/medford-share/data/pseudos_module/espresso/nninc/pbe/van/Ti.UPF
     MD5 check sum: 8e4df49b7f0d34bbd5052bf3f5ea0213
     Pseudo is Ultrasoft, Zval = 12.0
     Generated by new atomic code, or converted to UPF format
     Using radial grid of  851 points,  6 beta functions with:
                l(1) =   0
                l(2) =   0
                l(3) =   1
                l(4) =   1
                l(5) =   2
                l(6) =   2
     Q(r) pseudized with  8 coefficients,  rinner =    1.000   1.000   1.000
                                                       1.000   1.000

     PseudoPot. # 2 for O  read from file:
     /storage/coda1/p-amedford6/0/shared/rich_project_chbe-medford/medford-share/data/pseudos_module/espresso/nninc/pbe/van/O.UPF
     MD5 check sum: 78c19812648e8988a0fe644b0f25305e
     Pseudo is Ultrasoft, Zval =  6.0
     Generated by new atomic code, or converted to UPF format
     Using radial grid of  737 points,  4 beta functions with:
                l(1) =   0
                l(2) =   0
                l(3) =   1
                l(4) =   1
     Q(r) pseudized with  8 coefficients,  rinner =    0.800   0.800   0.800

     PseudoPot. # 3 for C  read from file:
     /storage/coda1/p-amedford6/0/shared/rich_project_chbe-medford/medford-share/data/pseudos_module/espresso/nninc/pbe/van/C.UPF
     MD5 check sum: 1a69bf6b8db32088f5b2163dbdb77a27
     Pseudo is Ultrasoft, Zval =  4.0
     Generated by new atomic code, or converted to UPF format
     Using radial grid of  721 points,  4 beta functions with:
                l(1) =   0
                l(2) =   0
                l(3) =   1
                l(4) =   1
     Q(r) pseudized with  8 coefficients,  rinner =    0.800   0.800   0.800

     PseudoPot. # 4 for H  read from file:
     /storage/coda1/p-amedford6/0/shared/rich_project_chbe-medford/medford-share/data/pseudos_module/espresso/nninc/pbe/van/H.UPF
     MD5 check sum: b5ee9d7bfd3a09ee7748110bda690ff7
     Pseudo is Ultrasoft, Zval =  1.0
     Generated by new atomic code, or converted to UPF format
     Using radial grid of  615 points,  1 beta functions with:
                l(1) =   0
     Q(r) pseudized with  8 coefficients,  rinner =    0.800

     atomic species   valence    mass     pseudopotential
        Ti1           12.00    47.86700     Ti( 1.00)
        O1             6.00    15.99900     O ( 1.00)
        C1             4.00    12.01100     C ( 1.00)
        H1             1.00     1.00800     H ( 1.00)

     No symmetry found

   Cartesian axes

     site n.     atom                  positions (alat units)
         1           Ti1 tau(   1) = (   0.0004258   2.9801865   6.0000000  )
         2           Ti1 tau(   2) = (   3.2906075   1.4906267   6.0002472  )
         3           O1  tau(   3) = (   0.0006271   0.0005054   7.9858123  )
         4           O1  tau(   4) = (   3.2906025   0.0005020   7.3038282  )
         5           O1  tau(   5) = (   4.5942328   1.4918067   9.2879030  )
         6           O1  tau(   6) = (   1.9868534   1.4903216   9.2879459  )
         7           Ti1 tau(   7) = (   3.2776386   2.8603028   9.2190116  )
         8           Ti1 tau(   8) = (   6.5598479   1.4304724   9.3580194  )
         9           O1  tau(   9) = (   3.2889234   5.9509398  11.3217173  )
        10           O1  tau(  10) = (   6.5764018   5.9495644  10.5876710  )
        11           O1  tau(  11) = (   1.2812264   1.4943635  12.6442538  )
        12           O1  tau(  12) = (   5.3065913   1.4950901  12.6410841  )
        13           Ti1 tau(  13) = (   0.0201148   2.8652118  12.8170930  )
        14           Ti1 tau(  14) = (   3.2957237   1.3106547  12.6889287  )
        15           O1  tau(  15) = (   6.5548780   5.9443598  14.6367865  )
        16           O1  tau(  16) = (   3.2877845   0.0417723  13.9217912  )
        17           O1  tau(  17) = (   4.5532326   1.5761655  16.0783859  )
        18           O1  tau(  18) = (   2.0366504   1.5601698  16.0762102  )
        19           Ti1 tau(  19) = (   3.2678531   3.0297845  15.6708759  )
        20           Ti1 tau(  20) = (   6.4629285   1.5188837  16.1410570  )
        21           O1  tau(  21) = (   3.2904802   0.0005063   4.7018136  )
        22           O1  tau(  22) = (   6.5629482   0.0231895  17.1619738  )
        23           O1  tau(  23) = (   1.3043587   1.4918075   6.0039043  )
        24           O1  tau(  24) = (   5.2767064   1.4903225   6.0039473  )
        25           Ti1 tau(  25) = (   0.0000382   5.9609847   6.0000000  )
        26           Ti1 tau(  26) = (   3.2902200   4.4714249   6.0002472  )
        27           O1  tau(  27) = (   0.0002396   2.9813036   7.9858123  )
        28           O1  tau(  28) = (   3.2902150   2.9813002   7.3038282  )
        29           O1  tau(  29) = (   4.5938453   4.4726049   9.2879030  )
        30           O1  tau(  30) = (   1.9864658   4.4711199   9.2879459  )
        31           Ti1 tau(  31) = (   3.2699525   5.8470351   9.1790592  )
        32           Ti1 tau(  32) = (   6.5580068   4.3764721   9.3475679  )
        33           O1  tau(  33) = (   3.2877686   3.0124297  11.2895287  )
        34           O1  tau(  34) = (   0.0005883   2.9642609  10.5504472  )
        35           O1  tau(  35) = (   1.2748618   4.4645017  12.6259732  )
        36           O1  tau(  36) = (   5.2954498   4.4639995  12.6225180  )
        37           Ti1 tau(  37) = (   6.5558271   5.8472513  12.6028672  )
        38           Ti1 tau(  38) = (   3.2807834   4.4064534  12.4217905  )
        39           O1  tau(  39) = (   6.5786029   2.9813041  14.7145626  )
        40           O1  tau(  40) = (   3.2869290   2.9992676  13.8921391  )
        41           O1  tau(  41) = (   4.5413935   4.4541386  16.0960746  )
        42           O1  tau(  42) = (   2.0104822   4.4576224  16.0708021  )
        43           Ti1 tau(  43) = (   3.1667734   0.0431258  16.3165854  )
        44           Ti1 tau(  44) = (   6.5007865   4.6242813  15.9014112  )
        45           O1  tau(  45) = (   3.2900926   2.9813045   4.7018136  )
        46           O1  tau(  46) = (   1.3039711   4.4726057   6.0039043  )
        47           O1  tau(  47) = (   5.2763189   4.4711207   6.0039473  )
        48           C1  tau(  48) = (   0.0287742   2.9159372  17.8309569  )
        49           H1  tau(  49) = (   0.0209232   3.9694834  18.1111783  )
        50           H1  tau(  50) = (   0.9459818   2.5003430  18.2552837  )
        51           H1  tau(  51) = (   5.7514102   2.4667126  18.3442606  )
        52           O1  tau(  52) = (   3.2349103   0.0683284  18.1361362  )
        53           H1  tau(  53) = (   3.4857875   5.2839856  18.6954204  )

     number of k points=    10  Fermi-Dirac smearing, width (Ry)=  0.0073
                       cart. coord. in units 2pi/alat
        k(    1) = (   0.0000000   0.0000000   0.0000000), wk =   0.1250000
        k(    2) = (   0.0000000   0.0419351   0.0000000), wk =   0.2500000
        k(    3) = (   0.0000000  -0.0838702   0.0000000), wk =   0.1250000
        k(    4) = (   0.0379955   0.0000049   0.0000000), wk =   0.2500000
        k(    5) = (   0.0379955   0.0419400   0.0000000), wk =   0.2500000
        k(    6) = (   0.0379955  -0.0838652   0.0000000), wk =   0.2500000
        k(    7) = (   0.0379955  -0.0419301   0.0000000), wk =   0.2500000
        k(    8) = (  -0.0759910  -0.0000099   0.0000000), wk =   0.1250000
        k(    9) = (  -0.0759910   0.0419252   0.0000000), wk =   0.2500000
        k(   10) = (  -0.0759910  -0.0838800   0.0000000), wk =   0.1250000

     Initial potential from superposition of free atoms

     starting charge  375.99917, renormalised to  392.00000

     negative rho (up, down):  1.891E-02 0.000E+00

     %%%%%%%%%%%%%%%%%%%%%%%%%%%%%%%%%%%%%%%%%%%%%%%%%%%%%%%%%%%%%%%%%%%%%%%%
     %                                                                      %
     % You are using vdW-DF, which was implemented by the Thonhauser group. %
     % Please cite the following two papers that made this development      %
     % possible and the two reviews that describe the various versions:     %
     %                                                                      %
     %   T. Thonhauser et al., PRL 115, 136402 (2015).                      %
     %   T. Thonhauser et al., PRB 76, 125112 (2007).                       %
     %   K. Berland et al., Rep. Prog. Phys. 78, 066501 (2015).             %
     %   D.C. Langreth et al., J. Phys.: Condens. Matter 21, 084203 (2009). %
     %                                                                      %
     %                                                                      %
     % If you are calculating the stress with vdW-DF, please also cite:     %
     %                                                                      %
     %   R. Sabatini et al., J. Phys.: Condens. Matter 24, 424209 (2012).   %
     %                                                                      %
     %%%%%%%%%%%%%%%%%%%%%%%%%%%%%%%%%%%%%%%%%%%%%%%%%%%%%%%%%%%%%%%%%%%%%%%%

     Adding external electric field

     Computed dipole along edir(3) :
        Dipole               -5.0034 Ry au,        -12.7174 Debye
        Dipole field         -0.0094 Ry au,

        Potential amp.        0.8753 Ry
        Total length         46.3494 bohr

     Starting wfcs are  296 atomic wfcs
  @ DRIVER MODE: Message from server: STATUS
  @ DRIVER MODE: Message from server: POSDATA
  @ DRIVER MODE: Reading and sharing cell
  @ DRIVER MODE: Reading and sharing positions
  @ DRIVER MODE: Received positions

     Self-consistent Calculation

     iteration #  1     ecut=    29.40 Ry     beta= 0.05
     Davidson diagonalization with overlap
     c_bands:  5 eigenvalues not converged
     c_bands:  4 eigenvalues not converged
     c_bands:  5 eigenvalues not converged
     c_bands:  3 eigenvalues not converged
     c_bands:  1 eigenvalues not converged
     c_bands:  2 eigenvalues not converged
     c_bands:  1 eigenvalues not converged
     c_bands:  2 eigenvalues not converged
     c_bands:  3 eigenvalues not converged
     ethr =  1.00E-05,  avg # of iterations = 19.8

[...]

     total energy              =   -2842.48281679 Ry
     estimated scf accuracy    <     997.00315878 Ry

     iteration #  2     ecut=    29.40 Ry     beta= 0.05
     Davidson diagonalization with overlap
     ethr =  1.00E-02,  avg # of iterations = 15.9

[...]

     iteration # 58     ecut=    29.40 Ry     beta= 0.05
     Davidson diagonalization with overlap
     c_bands:  2 eigenvalues not converged
     ethr =  1.97E-07,  avg # of iterations =  8.3

[...]

     total energy              =   -2932.63116374 Ry
     estimated scf accuracy    <       0.00000019 Ry

     iteration # 76     ecut=    29.40 Ry     beta= 0.05
     Davidson diagonalization with overlap
     ethr =  4.93E-11,  avg # of iterations =  4.6

     negative rho (up, down):  1.833E-02 0.000E+00

     Adding external electric field

     Computed dipole along edir(3) :
        Dipole                0.4035 Ry au,          1.0256 Debye
        Dipole field          0.0008 Ry au,

        Potential amp.       -0.0706 Ry
        Total length         46.3494 bohr

     End of self-consistent calculation

          k = 0.0000 0.0000 0.0000 ( 18029 PWs)   bands (ev):

   -56.6140 -56.5639 -56.0793 -56.0397 -56.0049 -55.9342 -55.9082 -55.8951
   -55.8539 -55.8482 -55.8057 -55.7827 -55.7268 -55.6361 -55.2256 -55.1916
   -33.0258 -32.8789 -32.8248 -32.7927 -32.6970 -32.6519 -32.5037 -32.4884
   -32.4515 -32.3439 -32.3244 -32.3195 -32.3131 -32.3059 -32.2863 -32.2690
   -32.2459 -32.2249 -32.2187 -32.1433 -32.1398 -32.1384 -32.1253 -32.1142
   -32.1081 -32.1036 -32.0931 -32.0900 -32.0852 -32.0540 -32.0403 -32.0397
   -32.0099 -31.9995 -31.9958 -31.9835 -31.9679 -31.9510 -31.8926 -31.8595
   -31.8458 -31.8382 -31.6201 -31.5657 -31.5413 -31.4369 -31.3521 -31.2412
   -16.9357 -16.7703 -16.6320 -16.4093 -16.2689 -16.1582 -15.9407 -15.9298
   -15.8080 -15.8035 -15.7619 -15.6367 -15.6220 -15.5854 -15.5748 -15.5492
   -15.5367 -15.5263 -15.5221 -15.4977 -15.4618 -15.4391 -15.3959 -15.3248
   -15.2588 -15.2421 -15.2033 -15.1400 -15.1068 -14.8733 -13.7274 -13.6188
    -9.3759  -4.6768  -4.2964  -4.0805  -3.9663  -3.9244  -3.7867  -3.6409
    -3.4643  -3.3703  -3.2411  -3.2347  -3.1644  -3.1223  -3.1111  -3.1059
    -3.0213  -2.9746  -2.9463  -2.9184  -2.9046  -2.8521  -2.8177  -2.7759
    -2.7547  -2.7532  -2.7091  -2.6809  -2.5361  -2.5054  -2.4890  -2.4808
    -2.4417  -2.4242  -2.3887  -2.3728  -2.2924  -2.2095  -2.1905  -2.1297
    -2.0653  -2.0182  -1.8277  -1.8160  -1.7166  -1.6392  -1.6161  -1.5696
    -1.5302  -1.4891  -1.4218  -1.3954  -1.3085  -1.2541  -1.2012  -1.1880
    -1.1565  -1.1219  -1.0806  -0.9756  -0.9267  -0.9210  -0.8107  -0.7581
    -0.6928  -0.6880  -0.6325  -0.5991  -0.4958  -0.4771  -0.4448  -0.4101
    -0.3779  -0.3543  -0.2963  -0.2774  -0.2470  -0.1857  -0.1467  -0.1265
    -0.0975  -0.0827  -0.0186   0.0384   0.0574   0.1632   0.1821   0.2181
     0.2896   0.3793   0.4327   0.5198   0.6936   0.7916   0.8257   0.9376
     1.0068   1.0525   1.3432   1.3892   2.6875   2.8497   3.1290   3.2819
     3.3043   3.3598   3.4068   3.4625   3.6213   3.6614

[...]

          k = 0.0380-0.0419 0.0000 ( 17876 PWs)   bands (ev):

[...]

          k =-0.0760-0.0000 0.0000 ( 17886 PWs)   bands (ev):

[...]

          k =-0.0760-0.0839 0.0000 ( 17948 PWs)   bands (ev):

   -56.6075 -56.5703 -56.0782 -56.0374 -56.0002 -55.9386 -55.9103 -55.8959
   -55.8519 -55.8398 -55.8141 -55.7808 -55.7288 -55.6379 -55.2088 -55.2082
   -32.8748 -32.8583 -32.8287 -32.8263 -32.7592 -32.7275 -32.3840 -32.3576
   -32.3441 -32.3236 -32.2930 -32.2905 -32.2682 -32.2632 -32.2502 -32.2431
   -32.2197 -32.2174 -32.2076 -32.1890 -32.1840 -32.1661 -32.1608 -32.1371
   -32.1338 -32.1335 -32.1196 -32.1043 -32.1001 -32.0707 -32.0621 -32.0497
   -32.0478 -32.0410 -32.0069 -32.0047 -31.9904 -31.9875 -31.9693 -31.8938
   -31.8817 -31.8493 -31.5545 -31.5542 -31.4358 -31.4340 -31.3942 -31.3933
   -16.9218 -16.1669 -16.0831 -16.0770 -16.0663 -16.0364 -15.9911 -15.9219
   -15.9190 -15.8262 -15.7940 -15.7584 -15.7247 -15.7088 -15.6548 -15.6499
   -15.6328 -15.5689 -15.5265 -15.4999 -15.4818 -15.4769 -15.4490 -15.4299
   -15.4182 -15.3991 -15.3335 -15.2992 -15.2232 -15.0134 -13.7233 -13.7217
    -9.3904  -4.6843  -3.3953  -3.3252  -3.2541  -3.2351  -3.1572  -3.1116
    -3.0984  -3.0748  -3.0499  -3.0172  -2.9889  -2.9736  -2.9268  -2.9158
    -2.9094  -2.9066  -2.8978  -2.8851  -2.8591  -2.8062  -2.7962  -2.7898
    -2.7691  -2.7628  -2.7468  -2.7261  -2.6811  -2.6645  -2.6225  -2.4590
    -2.4306  -2.4231  -2.3751  -2.3519  -2.3020  -2.2730  -2.1963  -2.1828
    -2.1750  -2.1439  -2.0271  -1.9099  -1.7807  -1.7712  -1.7347  -1.6650
    -1.6295  -1.5654  -1.5367  -1.5139  -1.4881  -1.4453  -1.4257  -1.3386
    -1.3298  -1.2880  -1.2735  -1.2576  -1.1740  -1.1134  -1.0855  -1.0631
    -1.0234  -0.9882  -0.9287  -0.8824  -0.8699  -0.8403  -0.8217  -0.7045
    -0.6708  -0.6403  -0.4922  -0.4564  -0.4503  -0.4037  -0.2510  -0.2081
    -0.1573  -0.1145  -0.0832   0.0462   0.0920   0.1371   0.1451   0.1998
     0.3185   0.3414   0.3862   0.4527   0.4758   0.4866   0.5263   1.0282
     1.1846   1.1874   1.1958   1.2010   3.2290   3.2535   3.2659   3.2971
     3.4692   3.5395   3.5752   3.6036   3.6498   3.7119

     the Fermi energy is     2.0965 ev

!    total energy              =   -2932.63117762 Ry
     estimated scf accuracy    <       0.00000007 Ry
     smearing contrib. (-TS)   =      -0.00015663 Ry
     internal energy E=F+TS    =   -2932.63102100 Ry

     The total energy is F=E-TS. E is the sum of the following terms:
     one-electron contribution =  -24308.08121148 Ry
     hartree contribution      =   12238.20427034 Ry
     xc contribution           =    -482.65354680 Ry
     ewald contribution        =    9619.89915970 Ry
     electric field correction =       0.00030724 Ry

     convergence has been achieved in  76 iterations

     Forces acting on atoms (cartesian axes, Ry/au):

     atom    1 type  1   force =     0.00035822   -0.00031464    0.13239529
     atom    2 type  1   force =     0.00005439    0.00688367   -0.15775437
     atom    3 type  2   force =     0.00014894    0.00441103   -0.05305285
     atom    4 type  2   force =    -0.00038227   -0.00087208    0.04048671
     atom    5 type  2   force =    -0.00907135   -0.00265148    0.00214763
     atom    6 type  2   force =     0.00917613   -0.00496530    0.00181754
     atom    7 type  1   force =     0.00069095    0.00106873    0.00045137
     atom    8 type  1   force =    -0.00078802   -0.00012435   -0.00012635
     atom    9 type  2   force =     0.00000694   -0.00017393    0.00051674
     atom   10 type  2   force =     0.00005027   -0.00006748   -0.00013328
     atom   11 type  2   force =    -0.00057268    0.00019918   -0.00040451
     atom   12 type  2   force =    -0.00052616   -0.00056016   -0.00061045
     atom   13 type  1   force =     0.00095906   -0.00085555    0.00001218
     atom   14 type  1   force =    -0.00105743   -0.00092281    0.00006432
     atom   15 type  2   force =     0.00004529    0.00018860   -0.00086002
     atom   16 type  2   force =     0.00009019    0.00001317   -0.00033229
     atom   17 type  2   force =    -0.00000452   -0.00000589   -0.00008506
     atom   18 type  2   force =    -0.00014616   -0.00005593    0.00036799
     atom   19 type  1   force =     0.00033716   -0.00019307   -0.00090133
     atom   20 type  1   force =    -0.00023197   -0.00035576   -0.00005368
     atom   21 type  2   force =     0.00016406    0.00008885    0.09917617
     atom   22 type  2   force =     0.00029381    0.00014811   -0.00005917
     atom   23 type  2   force =    -0.08040093    0.00142289   -0.03412650
     atom   24 type  2   force =     0.08049225    0.00192053   -0.03416731
     atom   25 type  1   force =     0.00020960   -0.00004723    0.14220187
     atom   26 type  1   force =     0.00010285   -0.00847980   -0.15822289
     atom   27 type  2   force =    -0.00010856   -0.00043399   -0.05127993
     atom   28 type  2   force =    -0.00024742   -0.00030644    0.04228230
     atom   29 type  2   force =    -0.00856683    0.00487368    0.00031511
     atom   30 type  2   force =     0.00771770    0.00352402    0.00001712
     atom   31 type  1   force =     0.00053735   -0.00129019    0.00088151
     atom   32 type  1   force =    -0.00091308    0.00038136   -0.00078444
     atom   33 type  2   force =     0.00001982   -0.00027097   -0.00017003
     atom   34 type  2   force =     0.00000488   -0.00100111    0.00033523
     atom   35 type  2   force =    -0.00037234    0.00006169   -0.00021478
     atom   36 type  2   force =     0.00020492   -0.00020471   -0.00024302
     atom   37 type  1   force =     0.00100714    0.00079059    0.00048008
     atom   38 type  1   force =    -0.00047087    0.00000707    0.00019698
     atom   39 type  2   force =    -0.00022321   -0.00026162   -0.00020134
     atom   40 type  2   force =     0.00023006   -0.00027242   -0.00004195
     atom   41 type  2   force =     0.00021771   -0.00036929   -0.00036702
     atom   42 type  2   force =     0.00015043    0.00061827    0.00031520
     atom   43 type  1   force =     0.00049932    0.00025967   -0.00042636
     atom   44 type  1   force =    -0.00002336    0.00016984    0.00005707
     atom   45 type  2   force =     0.00015772    0.00004103    0.09873372
     atom   46 type  2   force =    -0.08043762   -0.00101706   -0.03413101
     atom   47 type  2   force =     0.08053313   -0.00053657   -0.03416415
     atom   48 type  3   force =    -0.00018811    0.00007130   -0.00023699
     atom   49 type  4   force =    -0.00009869    0.00014988    0.00060053
     atom   50 type  4   force =     0.00008201   -0.00030684    0.00044069
     atom   51 type  4   force =    -0.00039176   -0.00015306    0.00015272
     atom   52 type  2   force =    -0.00151416    0.00231211   -0.00391644
     atom   53 type  4   force =     0.00219519   -0.00253552    0.00262149

     Total force =     0.383763     Total SCF correction =     0.001068
  @ DRIVER MODE: Message from server: STATUS
  @ DRIVER MODE: Message from server: GETFORCE
  @ DRIVER MODE: Returning v,forces,stress,ensemble

     Writing output data file ./calc.save/
  @ DRIVER MODE: Message from server: EXIT
  @ DRIVE MODE: Exiting

     General routines

     Parallel routines

   This run was terminated on:   7:20:48  23Sep2021

   JOB DONE.