     Program PWSCF v.6.7GPU starts on 12Oct2021 at 11:55:54

     R & G space division:  proc/nbgrp/npool/nimage =       8
     Reading input from /storage/home/hcoda1/3/ntian30/research/carbon/ACS_vib/ads_slab/N2H6/out_0008/pw.inp
Warning: card &CELL ignored
Warning: card   CELL_DYNAMICS='IPI', ignored
Warning: card / ignored

     Current dimensions of program PWSCF are:
     Max number of different atomic species (ntypx) = 10
     Max number of k-points (npk) =  40000
     Max angular momentum in pseudopotentials (lmaxx) =  3
     Presently no symmetry can be used with electric field

     Message from routine cell_base_init:
     DEPRECATED: use true lattice parameter, not A to a.u. conversion factor

     IMPORTANT: XC functional enforced from input :
     Exchange-correlation= BEEF-VDW
                           (   1   4  43  14   2   0   0)
     Any further DFT definition will be discarded
     Please, verify this is what you really want

  @ DRIVER MODE: Connecting to
 qe_1139763_3181315.sched-torque.pace.gatech.eduemb_qw3t_scratch
  using UNIX socket
  @ DRIVER MODE: Message from server: STATUS
  @ DRIVER MODE: Message from server: INIT
  @ DRIVER MODE: Receiving replica           0          -1
  @ DRIVER MODE: Receiving encoded integer          25
  @ DRIVER MODE:  SCF:  T  FORCE:  T  STRESS:  F  VC:  F  ENSEMBLE:  F
  @ DRIVER MODE:  SCF:  T  FORCE:  T  STRESS:  F  VC:  F  ENSEMBLE:  F

     Using Slab Decomposition

     bravais-lattice index     =            0
     lattice parameter (alat)  =       1.8897  a.u.
     unit-cell volume          =    6658.9804 (a.u.)^3
     number of atoms/cell      =           55
     number of atomic types    =            4
     number of electrons       =       394.00
     number of Kohn-Sham states=          207
     kinetic-energy cutoff     =      29.3995  Ry
     charge density cutoff     =     293.9946  Ry
     scf convergence threshold =      7.3E-08
     mixing beta               =       0.0500
     number of iterations used =            8  plain     mixing
     Exchange-correlation= BEEF-VDW
                           (   1   4  43  14   2   0   0)

     celldm(1)=   1.889726  celldm(2)=   0.000000  celldm(3)=   0.000000
     celldm(4)=   0.000000  celldm(5)=   0.000000  celldm(6)=   0.000000

     crystal axes: (cart. coord. in units of alat)
               a(1) = (   6.579727   0.000000   0.000000 )
               a(2) = (  -0.000775   5.961596   0.000000 )
               a(3) = (   0.000000   0.000000  25.155947 )

     reciprocal axes: (cart. coord. in units 2 pi/alat)
               b(1) = (  0.151982  0.000020  0.000000 )
               b(2) = (  0.000000  0.167740  0.000000 )
               b(3) = (  0.000000  0.000000  0.039752 )

     PseudoPot. # 1 for Ti read from file:
     /storage/coda1/p-amedford6/0/shared/rich_project_chbe-medford/medford-share/data/pseudos_module/espresso/nninc/pbe/van/Ti.UPF
     MD5 check sum: 8e4df49b7f0d34bbd5052bf3f5ea0213
     Pseudo is Ultrasoft, Zval = 12.0
     Generated by new atomic code, or converted to UPF format
     Using radial grid of  851 points,  6 beta functions with:
                l(1) =   0
                l(2) =   0
                l(3) =   1
                l(4) =   1
                l(5) =   2
                l(6) =   2
     Q(r) pseudized with  8 coefficients,  rinner =    1.000   1.000   1.000
                                                       1.000   1.000

     PseudoPot. # 2 for O  read from file:
     /storage/coda1/p-amedford6/0/shared/rich_project_chbe-medford/medford-share/data/pseudos_module/espresso/nninc/pbe/van/O.UPF
     MD5 check sum: 78c19812648e8988a0fe644b0f25305e
     Pseudo is Ultrasoft, Zval =  6.0
     Generated by new atomic code, or converted to UPF format
     Using radial grid of  737 points,  4 beta functions with:
                l(1) =   0
                l(2) =   0
                l(3) =   1
                l(4) =   1
     Q(r) pseudized with  8 coefficients,  rinner =    0.800   0.800   0.800

     PseudoPot. # 3 for N  read from file:
     /storage/coda1/p-amedford6/0/shared/rich_project_chbe-medford/medford-share/data/pseudos_module/espresso/nninc/pbe/van/N.UPF
     MD5 check sum: 90d10febe142ad51ac9d5be1deb811c4
     Pseudo is Ultrasoft, Zval =  5.0
     Generated by new atomic code, or converted to UPF format
     Using radial grid of  729 points,  4 beta functions with:
                l(1) =   0
                l(2) =   0
                l(3) =   1
                l(4) =   1
     Q(r) pseudized with  8 coefficients,  rinner =    0.800   0.800   0.800

     PseudoPot. # 4 for H  read from file:
     /storage/coda1/p-amedford6/0/shared/rich_project_chbe-medford/medford-share/data/pseudos_module/espresso/nninc/pbe/van/H.UPF
     MD5 check sum: b5ee9d7bfd3a09ee7748110bda690ff7
     Pseudo is Ultrasoft, Zval =  1.0
     Generated by new atomic code, or converted to UPF format
     Using radial grid of  615 points,  1 beta functions with:
                l(1) =   0
     Q(r) pseudized with  8 coefficients,  rinner =    0.800

     atomic species   valence    mass     pseudopotential
        Ti1           12.00    47.86700     Ti( 1.00)
        O1             6.00    15.99900     O ( 1.00)
        N1             5.00    14.00700     N ( 1.00)
        H1             1.00     1.00800     H ( 1.00)

     No symmetry found

   Cartesian axes

     site n.     atom                  positions (alat units)
         1           Ti1 tau(   1) = (   0.0004258   2.9801865   6.0000000  )
         2           Ti1 tau(   2) = (   3.2906075   1.4906267   6.0002472  )
         3           O1  tau(   3) = (   0.0006271   0.0005054   7.9858123  )
         4           O1  tau(   4) = (   3.2906025   0.0005020   7.3038282  )
         5           O1  tau(   5) = (   4.5942328   1.4918067   9.2879030  )
         6           O1  tau(   6) = (   1.9868534   1.4903216   9.2879459  )
         7           Ti1 tau(   7) = (   3.2905188   2.9817269   9.1608671  )
         8           Ti1 tau(   8) = (   0.0008727   1.4903491   9.2579811  )
         9           O1  tau(   9) = (   3.2897677   5.9391746  11.3820438  )
        10           O1  tau(  10) = (  -0.0000005   5.9544960  10.6146985  )
        11           O1  tau(  11) = (   1.2884133   1.4789655  12.6516217  )
        12           O1  tau(  12) = (   5.2921206   1.4788385  12.6515509  )
        13           Ti1 tau(  13) = (   0.0005720   2.9629092  12.4975245  )
        14           Ti1 tau(  14) = (   3.2903801   1.4745319  12.5205501  )
        15           O1  tau(  15) = (   0.0004407   0.0388239  14.7059933  )
        16           O1  tau(  16) = (   3.2897445   5.9465346  14.0037610  )
        17           O1  tau(  17) = (   4.5472543   1.4569283  16.2215039  )
        18           O1  tau(  18) = (   2.0329396   1.4568822  16.2213506  )
        19           Ti1 tau(  19) = (   3.2899346   2.9358424  15.7577366  )
        20           Ti1 tau(  20) = (   0.0004932   1.4309995  16.0137732  )
        21           O1  tau(  21) = (   3.2904802   0.0005063   4.7018136  )
        22           O1  tau(  22) = (  -0.0003511   5.7889056  17.2622344  )
        23           O1  tau(  23) = (   1.3043587   1.4918075   6.0039043  )
        24           O1  tau(  24) = (   5.2767064   1.4903225   6.0039473  )
        25           Ti1 tau(  25) = (   0.0000382   5.9609847   6.0000000  )
        26           Ti1 tau(  26) = (   3.2902200   4.4714249   6.0002472  )
        27           O1  tau(  27) = (   0.0002396   2.9813036   7.9858123  )
        28           O1  tau(  28) = (   3.2902150   2.9813002   7.3038282  )
        29           O1  tau(  29) = (   4.5938453   4.4726049   9.2879030  )
        30           O1  tau(  30) = (   1.9864658   4.4711199   9.2879459  )
        31           Ti1 tau(  31) = (   3.2908958   0.0009406   9.1591437  )
        32           Ti1 tau(  32) = (   0.0004876   4.4725358   9.2579169  )
        33           O1  tau(  33) = (   3.2901541   2.9707129  11.3740276  )
        34           O1  tau(  34) = (   0.0003862   2.9798045  10.6274311  )
        35           O1  tau(  35) = (   1.2860740   4.4511954  12.6821393  )
        36           O1  tau(  36) = (   5.2936768   4.4510845  12.6820400  )
        37           Ti1 tau(  37) = (   0.0001324   5.9497034  12.4914426  )
        38           Ti1 tau(  38) = (   3.2900283   4.4525324  12.5305491  )
        39           O1  tau(  39) = (   0.0000299   2.9046373  14.9484161  )
        40           O1  tau(  40) = (   3.2901113   2.9423191  13.9685580  )
        41           O1  tau(  41) = (   4.5465916   4.4073028  16.1601725  )
        42           O1  tau(  42) = (   2.0329218   4.4072560  16.1600144  )
        43           Ti1 tau(  43) = (   3.2897320   5.9176933  15.7983882  )
        44           Ti1 tau(  44) = (   0.0000796   4.6311109  15.9036278  )
        45           O1  tau(  45) = (   3.2900926   2.9813045   4.7018136  )
        46           O1  tau(  46) = (   1.3039711   4.4726057   6.0039043  )
        47           O1  tau(  47) = (   5.2763189   4.4711207   6.0039473  )
        48           N1  tau(  48) = (   6.5791966   2.5420708  18.0661808  )
        49           H1  tau(  49) = (   0.0088341   1.6509345  18.5577087  )
        50           H1  tau(  50) = (   0.8131443   3.0604954  18.3807411  )
        51           H1  tau(  51) = (   5.7641953   3.0602838  18.3787844  )
        52           N1  tau(  52) = (  -0.0000615   4.8677125  20.5088556  )
        53           H1  tau(  53) = (   6.5774456   5.1124690  21.4935560  )
        54           H1  tau(  54) = (   0.8078797   5.3121143  20.0844266  )
        55           H1  tau(  55) = (   5.7710899   5.3082688  20.0816402  )

     number of k points=    10  Fermi-Dirac smearing, width (Ry)=  0.0073
                       cart. coord. in units 2pi/alat
        k(    1) = (   0.0000000   0.0000000   0.0000000), wk =   0.1250000
        k(    2) = (   0.0000000   0.0419351   0.0000000), wk =   0.2500000
        k(    3) = (   0.0000000  -0.0838702   0.0000000), wk =   0.1250000
        k(    4) = (   0.0379955   0.0000049   0.0000000), wk =   0.2500000
        k(    5) = (   0.0379955   0.0419400   0.0000000), wk =   0.2500000
        k(    6) = (   0.0379955  -0.0838652   0.0000000), wk =   0.2500000
        k(    7) = (   0.0379955  -0.0419301   0.0000000), wk =   0.2500000
        k(    8) = (  -0.0759910  -0.0000099   0.0000000), wk =   0.1250000
        k(    9) = (  -0.0759910   0.0419252   0.0000000), wk =   0.2500000
        k(   10) = (  -0.0759910  -0.0838800   0.0000000), wk =   0.1250000

     Initial potential from superposition of free atoms

     starting charge  377.99918, renormalised to  394.00000

     negative rho (up, down):  1.302E-02 0.000E+00

     %%%%%%%%%%%%%%%%%%%%%%%%%%%%%%%%%%%%%%%%%%%%%%%%%%%%%%%%%%%%%%%%%%%%%%%%
     %                                                                      %
     % You are using vdW-DF, which was implemented by the Thonhauser group. %
     % Please cite the following two papers that made this development      %
     % possible and the two reviews that describe the various versions:     %
     %                                                                      %
     %   T. Thonhauser et al., PRL 115, 136402 (2015).                      %
     %   T. Thonhauser et al., PRB 76, 125112 (2007).                       %
     %   K. Berland et al., Rep. Prog. Phys. 78, 066501 (2015).             %
     %   D.C. Langreth et al., J. Phys.: Condens. Matter 21, 084203 (2009). %
     %                                                                      %
     %                                                                      %
     % If you are calculating the stress with vdW-DF, please also cite:     %
     %                                                                      %
     %   R. Sabatini et al., J. Phys.: Condens. Matter 24, 424209 (2012).   %
     %                                                                      %
     %%%%%%%%%%%%%%%%%%%%%%%%%%%%%%%%%%%%%%%%%%%%%%%%%%%%%%%%%%%%%%%%%%%%%%%%

     Adding external electric field

     Computed dipole along edir(3) :
        Dipole               -9.7176 Ry au,        -24.6996 Debye
        Dipole field         -0.0183 Ry au,

        Potential amp.        1.6999 Ry
        Total length         46.3494 bohr

     Starting wfcs are  298 atomic wfcs
  @ DRIVER MODE: Message from server: STATUS
  @ DRIVER MODE: Message from server: POSDATA
  @ DRIVER MODE: Reading and sharing cell
  @ DRIVER MODE: Reading and sharing positions
  @ DRIVER MODE: Received positions

     Self-consistent Calculation

     iteration #  1     ecut=    29.40 Ry     beta= 0.05
     Davidson diagonalization with overlap
     c_bands:  1 eigenvalues not converged
     c_bands:  1 eigenvalues not converged
     c_bands:  1 eigenvalues not converged
     c_bands:  1 eigenvalues not converged
     ethr =  1.00E-05,  avg # of iterations = 18.0

[...]

     total energy              =   -2597.73047005 Ry
     estimated scf accuracy    <    3724.93684091 Ry

     iteration #  2     ecut=    29.40 Ry     beta= 0.05
     Davidson diagonalization with overlap
     ethr =  1.00E-02,  avg # of iterations = 22.7

[...]

     iteration # 70     ecut=    29.40 Ry     beta= 0.05
     Davidson diagonalization with overlap
     ethr =  4.36E-11,  avg # of iterations =  3.0

[...]

     total energy              =   -2931.48029678 Ry
     estimated scf accuracy    <       0.00000012 Ry

     iteration # 72     ecut=    29.40 Ry     beta= 0.05
     Davidson diagonalization with overlap
     c_bands:  1 eigenvalues not converged
     ethr =  3.12E-11,  avg # of iterations = 10.5

     negative rho (up, down):  1.427E-02 0.000E+00

     Adding external electric field

     Computed dipole along edir(3) :
        Dipole                1.3615 Ry au,          3.4606 Debye
        Dipole field          0.0026 Ry au,

        Potential amp.       -0.2382 Ry
        Total length         46.3494 bohr

     End of self-consistent calculation

          k = 0.0000 0.0000 0.0000 ( 18029 PWs)   bands (ev):

   -55.2817 -55.2453 -55.2336 -55.2030 -55.1995 -55.1668 -55.1530 -55.1187
   -55.1116 -55.0826 -55.0774 -55.0604 -55.0262 -54.9506 -54.3241 -54.2900
   -31.8497 -31.7363 -31.7329 -31.6393 -31.5993 -31.5884 -31.5855 -31.5721
   -31.5258 -31.5237 -31.4883 -31.4882 -31.4786 -31.4737 -31.4543 -31.4396
   -31.4346 -31.4217 -31.4175 -31.3910 -31.3853 -31.3758 -31.3656 -31.3535
   -31.3505 -31.3373 -31.3323 -31.3192 -31.2896 -31.2841 -31.2677 -31.2633
   -31.2572 -31.2541 -31.2507 -31.2436 -31.2102 -31.2054 -31.1925 -31.1745
   -31.1536 -31.1528 -30.7361 -30.6344 -30.6128 -30.5522 -30.4657 -30.3548
   -16.1133 -15.8760 -15.7460 -15.5877 -15.4976 -15.4575 -15.3579 -15.3327
   -15.2239 -15.1483 -15.0153 -14.9814 -14.9398 -14.9326 -14.9248 -14.9053
   -14.8992 -14.8284 -14.8086 -14.7987 -14.7901 -14.7679 -14.7665 -14.7472
   -14.7179 -14.6647 -14.6446 -14.5154 -14.4340 -14.3761 -14.1264 -12.8257
   -12.7065  -5.6531  -5.5056  -4.9546  -4.8051  -3.4441  -3.2902  -3.2554
    -3.2048  -3.1935  -3.0401  -2.8794  -2.7301  -2.7108  -2.5613  -2.5322
    -2.4802  -2.4582  -2.3069  -2.2814  -2.2370  -2.2109  -2.1616  -2.1512
    -2.1437  -2.1321  -2.0532  -2.0419  -2.0264  -1.8903  -1.8708  -1.7594
    -1.7191  -1.6631  -1.6496  -1.6446  -1.6109  -1.5928  -1.5523  -1.5415
    -1.5247  -1.4995  -1.4894  -1.3251  -1.2987  -1.2001  -1.1393  -1.0484
    -1.0323  -0.8881  -0.8526  -0.7639  -0.7451  -0.7277  -0.7132  -0.6804
    -0.6321  -0.5243  -0.4347  -0.4133  -0.3525  -0.3280  -0.2896  -0.2017
    -0.0980  -0.0695  -0.0367  -0.0343   0.0822   0.1068   0.1520   0.2184
     0.2383   0.2402   0.2626   0.3529   0.3669   0.4651   0.4887   0.4960
     0.5446   0.6336   0.6378   0.6520   0.6620   0.6883   0.7591   0.7656
     0.8653   0.8883   1.0047   1.2158   1.2871   1.3135   1.5920   1.6524
     1.7011   1.8638   2.2841   2.3365   3.8165   3.8831   3.9162   3.9493
     3.9856   4.0263   4.3139   4.3216   4.3343   4.3386   4.3753

[...]

          k = 0.0380-0.0419 0.0000 ( 17876 PWs)   bands (ev):

[...]

          k =-0.0760-0.0000 0.0000 ( 17886 PWs)   bands (ev):

[...]

          k =-0.0760-0.0839 0.0000 ( 17948 PWs)   bands (ev):

   -55.2662 -55.2606 -55.2166 -55.2164 -55.2015 -55.1633 -55.1367 -55.1349
   -55.0957 -55.0929 -55.0861 -55.0454 -55.0412 -54.9519 -54.3071 -54.3069
   -31.6549 -31.6508 -31.6505 -31.5704 -31.5477 -31.5476 -31.5409 -31.5091
   -31.5089 -31.4828 -31.4826 -31.4790 -31.4753 -31.4566 -31.4363 -31.4168
   -31.4119 -31.4102 -31.4102 -31.4041 -31.4029 -31.4001 -31.3611 -31.3601
   -31.3567 -31.3534 -31.3508 -31.3498 -31.3478 -31.3350 -31.3350 -31.3300
   -31.3275 -31.2932 -31.2912 -31.2754 -31.2727 -31.2676 -31.2305 -31.2295
   -31.2255 -31.1575 -30.6255 -30.6253 -30.5487 -30.5486 -30.5090 -30.5089
   -15.6330 -15.5202 -15.5120 -15.4744 -15.3213 -15.3003 -15.2629 -15.2481
   -15.1297 -15.0937 -15.0745 -15.0585 -15.0261 -15.0220 -15.0149 -14.9783
   -14.8945 -14.8747 -14.8692 -14.8570 -14.8129 -14.7930 -14.7876 -14.7810
   -14.7800 -14.7449 -14.7414 -14.6996 -14.6962 -14.6909 -14.3753 -12.8076
   -12.8075  -5.6330  -5.5079  -4.9206  -4.8139  -2.7932  -2.7369  -2.7368
    -2.5462  -2.4751  -2.4580  -2.4410  -2.3582  -2.3186  -2.2891  -2.2657
    -2.2347  -2.1928  -2.1890  -2.1678  -2.1592  -2.1434  -2.0979  -2.0795
    -2.0539  -2.0003  -1.9756  -1.9674  -1.9553  -1.9465  -1.9419  -1.9185
    -1.9163  -1.8902  -1.8791  -1.8234  -1.6719  -1.6563  -1.5780  -1.5092
    -1.5046  -1.5029  -1.4196  -1.3995  -1.3449  -1.3358  -1.3296  -1.0865
    -1.0644  -1.0643  -1.0591  -1.0269  -0.9126  -0.9033  -0.8307  -0.8012
    -0.7827  -0.6758  -0.6652  -0.6053  -0.6014  -0.4942  -0.4924  -0.4339
    -0.3056  -0.2991  -0.2858  -0.2611  -0.2593  -0.2176  -0.2134  -0.1061
    -0.0701  -0.0192  -0.0078   0.0245   0.1836   0.2296   0.2471   0.2720
     0.4054   0.4259   0.5600   0.5677   0.6225   0.7322   0.7622   0.8011
     0.8292   0.9783   0.9891   1.0107   1.1020   1.1160   1.1539   1.1604
     2.0518   2.0533   2.1546   2.1549   3.9771   4.0587   4.0842   4.1237
     4.2288   4.3269   4.3422   4.3430   4.3783   4.3802   4.4762

     the Fermi energy is     3.8801 ev

!    total energy              =   -2931.48032645 Ry
     estimated scf accuracy    <       0.00000006 Ry
     smearing contrib. (-TS)   =      -0.03684836 Ry
     internal energy E=F+TS    =   -2931.44347809 Ry

     The total energy is F=E-TS. E is the sum of the following terms:
     one-electron contribution =  -23481.08667326 Ry
     hartree contribution      =   11831.23456044 Ry
     xc contribution           =    -484.16794791 Ry
     ewald contribution        =    9202.57308444 Ry
     electric field correction =       0.00349820 Ry

     convergence has been achieved in  72 iterations

     Forces acting on atoms (cartesian axes, Ry/au):

     atom    1 type  1   force =     0.00008240   -0.00009304    0.09076155
     atom    2 type  1   force =    -0.00005486    0.00053862   -0.18271647
     atom    3 type  2   force =     0.00005420   -0.00003473   -0.02347155
     atom    4 type  2   force =     0.00001909   -0.00005992    0.05278382
     atom    5 type  2   force =    -0.01301153   -0.00097057    0.00604703
     atom    6 type  2   force =     0.01295737   -0.00047708    0.00603727
     atom    7 type  1   force =     0.00000236    0.00067284   -0.00330807
     atom    8 type  1   force =     0.00001989   -0.00014102    0.00137360
     atom    9 type  2   force =    -0.00003122   -0.00016460   -0.00049910
     atom   10 type  2   force =     0.00001797   -0.00006082   -0.00022391
     atom   11 type  2   force =     0.00016408    0.00016958    0.00017342
     atom   12 type  2   force =    -0.00008079    0.00016589    0.00015067
     atom   13 type  1   force =    -0.00019920   -0.00018988    0.00002726
     atom   14 type  1   force =     0.00014973    0.00046495   -0.00096408
     atom   15 type  2   force =     0.00002357   -0.00058567    0.00009452
     atom   16 type  2   force =    -0.00002856    0.00000812    0.00044480
     atom   17 type  2   force =     0.00043087    0.00001860    0.00045258
     atom   18 type  2   force =    -0.00049564    0.00000602    0.00052461
     atom   19 type  1   force =     0.00007006    0.00002963    0.00030940
     atom   20 type  1   force =    -0.00012369   -0.00085235    0.00030021
     atom   21 type  2   force =     0.00005886    0.00012480    0.10489463
     atom   22 type  2   force =     0.00006372    0.00015247    0.00107404
     atom   23 type  2   force =    -0.06829349   -0.00021817   -0.02626124
     atom   24 type  2   force =     0.06820504    0.00022052   -0.02630809
     atom   25 type  1   force =     0.00009407    0.00004564    0.09038652
     atom   26 type  1   force =    -0.00005589   -0.00044379   -0.18289098
     atom   27 type  2   force =     0.00005038   -0.00093174   -0.02258802
     atom   28 type  2   force =     0.00001835   -0.00006770    0.05256099
     atom   29 type  2   force =    -0.01330438   -0.00073654    0.00527198
     atom   30 type  2   force =     0.01324097   -0.00024294    0.00525747
     atom   31 type  1   force =     0.00001110   -0.00072058   -0.00310698
     atom   32 type  1   force =     0.00001275   -0.00007170    0.00149464
     atom   33 type  2   force =    -0.00003081   -0.00015360    0.00017630
     atom   34 type  2   force =     0.00002005    0.00008036   -0.00047671
     atom   35 type  2   force =     0.00013411   -0.00013735    0.00024309
     atom   36 type  2   force =    -0.00005675   -0.00014942    0.00021847
     atom   37 type  1   force =    -0.00019559    0.00005407    0.00093927
     atom   38 type  1   force =     0.00014463   -0.00028485   -0.00095796
     atom   39 type  2   force =     0.00001472    0.00026426   -0.00015157
     atom   40 type  2   force =    -0.00003184   -0.00001417    0.00108319
     atom   41 type  2   force =     0.00060984   -0.00019291    0.00026777
     atom   42 type  2   force =    -0.00061022   -0.00015520    0.00023751
     atom   43 type  1   force =     0.00008558    0.00009085    0.00064134
     atom   44 type  1   force =    -0.00000393    0.00104218   -0.00110530
     atom   45 type  2   force =     0.00005690    0.00013959    0.10486541
     atom   46 type  2   force =    -0.06829528   -0.00010037   -0.02630169
     atom   47 type  2   force =     0.06819943    0.00034094   -0.02634300
     atom   48 type  3   force =     0.00169707   -0.00005727   -0.00026376
     atom   49 type  4   force =    -0.00213283   -0.00002629    0.00076506
     atom   50 type  4   force =     0.00090681    0.00212368   -0.00062087
     atom   51 type  4   force =    -0.00053569   -0.00039699    0.00054269
     atom   52 type  3   force =    -0.00000309    0.00073773    0.00044257
     atom   53 type  4   force =    -0.00001752    0.00123554   -0.00144306
     atom   54 type  4   force =     0.00009502   -0.00001863   -0.00041714
     atom   55 type  4   force =    -0.00011820    0.00002298   -0.00042412

     Total force =     0.366237     Total SCF correction =     0.000887
  @ DRIVER MODE: Message from server: STATUS
  @ DRIVER MODE: Message from server: GETFORCE
  @ DRIVER MODE: Returning v,forces,stress,ensemble

     Writing output data file ./calc.save/
  @ DRIVER MODE: Message from server: EXIT
  @ DRIVE MODE: Exiting

     General routines

     Parallel routines

   This run was terminated on:  12:20:51  12Oct2021

   JOB DONE.