     Program PWSCF v.6.7GPU starts on 22Sep2021 at 20: 5: 0

     R & G space division:  proc/nbgrp/npool/nimage =      10
     Reading input from /storage/home/hcoda1/3/ntian30/research/carbon/CxH_vib/H2O_calc/ads_slab/CHNNHHHO_a/out_0012/pw.inp
Warning: card &CELL ignored
Warning: card   CELL_DYNAMICS='IPI', ignored
Warning: card / ignored

     Current dimensions of program PWSCF are:
     Max number of different atomic species (ntypx) = 10
     Max number of k-points (npk) =  40000
     Max angular momentum in pseudopotentials (lmaxx) =  3
     Presently no symmetry can be used with electric field

     Message from routine cell_base_init:
     DEPRECATED: use true lattice parameter, not A to a.u. conversion factor

     IMPORTANT: XC functional enforced from input :
     Exchange-correlation= BEEF-VDW
                           (   1   4  43  14   2   0   0)
     Any further DFT definition will be discarded
     Please, verify this is what you really want

  @ DRIVER MODE: Connecting to
 qe_1139763_2937315.sched-torque.pace.gatech.edur7lwwx01_scratch
  using UNIX socket
  @ DRIVER MODE: Message from server: STATUS
  @ DRIVER MODE: Message from server: INIT
  @ DRIVER MODE: Receiving replica           0          -1
  @ DRIVER MODE: Receiving encoded integer          25
  @ DRIVER MODE:  SCF:  T  FORCE:  T  STRESS:  F  VC:  F  ENSEMBLE:  F
  @ DRIVER MODE:  SCF:  T  FORCE:  T  STRESS:  F  VC:  F  ENSEMBLE:  F

     Using Slab Decomposition

     bravais-lattice index     =            0
     lattice parameter (alat)  =       1.8897  a.u.
     unit-cell volume          =    6658.9804 (a.u.)^3
     number of atoms/cell      =           55
     number of atomic types    =            5
     number of electrons       =       402.00
     number of Kohn-Sham states=          211
     kinetic-energy cutoff     =      29.3995  Ry
     charge density cutoff     =     293.9946  Ry
     scf convergence threshold =      7.3E-08
     mixing beta               =       0.0500
     number of iterations used =            8  plain     mixing
     Exchange-correlation= BEEF-VDW
                           (   1   4  43  14   2   0   0)

     celldm(1)=   1.889726  celldm(2)=   0.000000  celldm(3)=   0.000000
     celldm(4)=   0.000000  celldm(5)=   0.000000  celldm(6)=   0.000000

     crystal axes: (cart. coord. in units of alat)
               a(1) = (   6.579727   0.000000   0.000000 )
               a(2) = (  -0.000775   5.961596   0.000000 )
               a(3) = (   0.000000   0.000000  25.155947 )

     reciprocal axes: (cart. coord. in units 2 pi/alat)
               b(1) = (  0.151982  0.000020  0.000000 )
               b(2) = (  0.000000  0.167740  0.000000 )
               b(3) = (  0.000000  0.000000  0.039752 )

     PseudoPot. # 1 for Ti read from file:
     /storage/coda1/p-amedford6/0/shared/rich_project_chbe-medford/medford-share/data/pseudos_module/espresso/nninc/pbe/van/Ti.UPF
     MD5 check sum: 8e4df49b7f0d34bbd5052bf3f5ea0213
     Pseudo is Ultrasoft, Zval = 12.0
     Generated by new atomic code, or converted to UPF format
     Using radial grid of  851 points,  6 beta functions with:
                l(1) =   0
                l(2) =   0
                l(3) =   1
                l(4) =   1
                l(5) =   2
                l(6) =   2
     Q(r) pseudized with  8 coefficients,  rinner =    1.000   1.000   1.000
                                                       1.000   1.000

     PseudoPot. # 2 for O  read from file:
     /storage/coda1/p-amedford6/0/shared/rich_project_chbe-medford/medford-share/data/pseudos_module/espresso/nninc/pbe/van/O.UPF
     MD5 check sum: 78c19812648e8988a0fe644b0f25305e
     Pseudo is Ultrasoft, Zval =  6.0
     Generated by new atomic code, or converted to UPF format
     Using radial grid of  737 points,  4 beta functions with:
                l(1) =   0
                l(2) =   0
                l(3) =   1
                l(4) =   1
     Q(r) pseudized with  8 coefficients,  rinner =    0.800   0.800   0.800

     PseudoPot. # 3 for N  read from file:
     /storage/coda1/p-amedford6/0/shared/rich_project_chbe-medford/medford-share/data/pseudos_module/espresso/nninc/pbe/van/N.UPF
     MD5 check sum: 90d10febe142ad51ac9d5be1deb811c4
     Pseudo is Ultrasoft, Zval =  5.0
     Generated by new atomic code, or converted to UPF format
     Using radial grid of  729 points,  4 beta functions with:
                l(1) =   0
                l(2) =   0
                l(3) =   1
                l(4) =   1
     Q(r) pseudized with  8 coefficients,  rinner =    0.800   0.800   0.800

     PseudoPot. # 4 for C  read from file:
     /storage/coda1/p-amedford6/0/shared/rich_project_chbe-medford/medford-share/data/pseudos_module/espresso/nninc/pbe/van/C.UPF
     MD5 check sum: 1a69bf6b8db32088f5b2163dbdb77a27
     Pseudo is Ultrasoft, Zval =  4.0
     Generated by new atomic code, or converted to UPF format
     Using radial grid of  721 points,  4 beta functions with:
                l(1) =   0
                l(2) =   0
                l(3) =   1
                l(4) =   1
     Q(r) pseudized with  8 coefficients,  rinner =    0.800   0.800   0.800

     PseudoPot. # 5 for H  read from file:
     /storage/coda1/p-amedford6/0/shared/rich_project_chbe-medford/medford-share/data/pseudos_module/espresso/nninc/pbe/van/H.UPF
     MD5 check sum: b5ee9d7bfd3a09ee7748110bda690ff7
     Pseudo is Ultrasoft, Zval =  1.0
     Generated by new atomic code, or converted to UPF format
     Using radial grid of  615 points,  1 beta functions with:
                l(1) =   0
     Q(r) pseudized with  8 coefficients,  rinner =    0.800

     atomic species   valence    mass     pseudopotential
        Ti1           12.00    47.86700     Ti( 1.00)
        O1             6.00    15.99900     O ( 1.00)
        N1             5.00    14.00700     N ( 1.00)
        C1             4.00    12.01100     C ( 1.00)
        H1             1.00     1.00800     H ( 1.00)

     No symmetry found

   Cartesian axes

     site n.     atom                  positions (alat units)
         1           Ti1 tau(   1) = (   0.0004258   2.9801865   6.0000000  )
         2           Ti1 tau(   2) = (   3.2906075   1.4906267   6.0002472  )
         3           O1  tau(   3) = (   0.0006271   0.0005054   7.9858123  )
         4           O1  tau(   4) = (   3.2906025   0.0005020   7.3038282  )
         5           O1  tau(   5) = (   4.5942328   1.4918067   9.2879030  )
         6           O1  tau(   6) = (   1.9868534   1.4903216   9.2879459  )
         7           Ti1 tau(   7) = (   3.2907910   2.8959150   9.1758416  )
         8           Ti1 tau(   8) = (   0.0015273   1.4827037   9.2680791  )
         9           O1  tau(   9) = (   3.3019041   5.9340972  11.2780832  )
        10           O1  tau(  10) = (   0.0116148   5.9584955  10.6183126  )
        11           O1  tau(  11) = (   1.2869077   1.4717189  12.6473688  )
        12           O1  tau(  12) = (   5.3188397   1.4655789  12.6430575  )
        13           Ti1 tau(  13) = (   0.0521173   3.0639968  12.7333969  )
        14           Ti1 tau(  14) = (   3.2906581   1.3001642  12.6471297  )
        15           O1  tau(  15) = (   0.0021475   5.9326859  14.6872502  )
        16           O1  tau(  16) = (   3.3040199   0.0265785  13.8678754  )
        17           O1  tau(  17) = (   4.6240569   1.6264218  16.1080407  )
        18           O1  tau(  18) = (   2.0715169   1.5429601  15.9546445  )
        19           Ti1 tau(  19) = (   3.3363059   2.9874148  15.6109769  )
        20           Ti1 tau(  20) = (   0.0492893   1.4028208  15.7974426  )
        21           O1  tau(  21) = (   3.2904802   0.0005063   4.7018136  )
        22           O1  tau(  22) = (   0.0944532   0.0627470  17.1934044  )
        23           O1  tau(  23) = (   1.3043587   1.4918075   6.0039043  )
        24           O1  tau(  24) = (   5.2767064   1.4903225   6.0039473  )
        25           Ti1 tau(  25) = (   0.0000382   5.9609847   6.0000000  )
        26           Ti1 tau(  26) = (   3.2902200   4.4714249   6.0002472  )
        27           O1  tau(  27) = (   0.0002396   2.9813036   7.9858123  )
        28           O1  tau(  28) = (   3.2902150   2.9813002   7.3038282  )
        29           O1  tau(  29) = (   4.5938453   4.4726049   9.2879030  )
        30           O1  tau(  30) = (   1.9864658   4.4711199   9.2879459  )
        31           Ti1 tau(  31) = (   3.2891106   5.8743827   9.1763621  )
        32           Ti1 tau(  32) = (   0.0006254   4.4649316   9.2693709  )
        33           O1  tau(  33) = (   3.3033179   3.0104581  11.2528581  )
        34           O1  tau(  34) = (   0.0092240   2.9805883  10.6323155  )
        35           O1  tau(  35) = (   1.3074756   4.4469578  12.6382572  )
        36           O1  tau(  36) = (   5.3202433   4.4545580  12.6357595  )
        37           Ti1 tau(  37) = (   6.5572640   0.0741000  12.5519234  )
        38           Ti1 tau(  38) = (   3.3179412   4.3950854  12.4030220  )
        39           O1  tau(  39) = (   0.0383827   2.9948909  14.7437145  )
        40           O1  tau(  40) = (   3.3238341   2.9662938  13.8354460  )
        41           O1  tau(  41) = (   4.5722604   4.5101538  15.9256862  )
        42           O1  tau(  42) = (   2.0839069   4.4665637  16.0501180  )
        43           Ti1 tau(  43) = (   3.2507700   5.9423238  16.2547716  )
        44           Ti1 tau(  44) = (   6.5063516   4.5631136  16.2071476  )
        45           O1  tau(  45) = (   3.2900926   2.9813045   4.7018136  )
        46           O1  tau(  46) = (   1.3039711   4.4726057   6.0039043  )
        47           O1  tau(  47) = (   5.2763189   4.4711207   6.0039473  )
        48           N1  tau(  48) = (   0.4124544   2.9287237  17.8391456  )
        49           C1  tau(  49) = (   1.3780350   3.0145335  18.6836463  )
        50           H1  tau(  50) = (   2.3027514   2.5668077  18.2879847  )
        51           N1  tau(  51) = (   5.7762606   3.6115528  18.1636368  )
        52           H1  tau(  52) = (   5.8537390   4.1179332  19.0469945  )
        53           H1  tau(  53) = (   5.0130290   2.9392956  18.1702355  )
        54           O1  tau(  54) = (   3.2882145   0.0116813  18.0866318  )
        55           H1  tau(  55) = (   2.5950809   5.5738040  18.6371346  )

     number of k points=    10  Fermi-Dirac smearing, width (Ry)=  0.0073
                       cart. coord. in units 2pi/alat
        k(    1) = (   0.0000000   0.0000000   0.0000000), wk =   0.1250000
        k(    2) = (   0.0000000   0.0419351   0.0000000), wk =   0.2500000
        k(    3) = (   0.0000000  -0.0838702   0.0000000), wk =   0.1250000
        k(    4) = (   0.0379955   0.0000049   0.0000000), wk =   0.2500000
        k(    5) = (   0.0379955   0.0419400   0.0000000), wk =   0.2500000
        k(    6) = (   0.0379955  -0.0838652   0.0000000), wk =   0.2500000
        k(    7) = (   0.0379955  -0.0419301   0.0000000), wk =   0.2500000
        k(    8) = (  -0.0759910  -0.0000099   0.0000000), wk =   0.1250000
        k(    9) = (  -0.0759910   0.0419252   0.0000000), wk =   0.2500000
        k(   10) = (  -0.0759910  -0.0838800   0.0000000), wk =   0.1250000

     Initial potential from superposition of free atoms

     starting charge  385.99915, renormalised to  402.00000

     negative rho (up, down):  1.702E-02 0.000E+00

     %%%%%%%%%%%%%%%%%%%%%%%%%%%%%%%%%%%%%%%%%%%%%%%%%%%%%%%%%%%%%%%%%%%%%%%%
     %                                                                      %
     % You are using vdW-DF, which was implemented by the Thonhauser group. %
     % Please cite the following two papers that made this development      %
     % possible and the two reviews that describe the various versions:     %
     %                                                                      %
     %   T. Thonhauser et al., PRL 115, 136402 (2015).                      %
     %   T. Thonhauser et al., PRB 76, 125112 (2007).                       %
     %   K. Berland et al., Rep. Prog. Phys. 78, 066501 (2015).             %
     %   D.C. Langreth et al., J. Phys.: Condens. Matter 21, 084203 (2009). %
     %                                                                      %
     %                                                                      %
     % If you are calculating the stress with vdW-DF, please also cite:     %
     %                                                                      %
     %   R. Sabatini et al., J. Phys.: Condens. Matter 24, 424209 (2012).   %
     %                                                                      %
     %%%%%%%%%%%%%%%%%%%%%%%%%%%%%%%%%%%%%%%%%%%%%%%%%%%%%%%%%%%%%%%%%%%%%%%%

     Adding external electric field

     Computed dipole along edir(3) :
        Dipole              -11.1575 Ry au,        -28.3595 Debye
        Dipole field         -0.0211 Ry au,

        Potential amp.        1.9518 Ry
        Total length         46.3494 bohr

     Starting wfcs are  304 atomic wfcs
  @ DRIVER MODE: Message from server: STATUS
  @ DRIVER MODE: Message from server: POSDATA
  @ DRIVER MODE: Reading and sharing cell
  @ DRIVER MODE: Reading and sharing positions
  @ DRIVER MODE: Received positions

     Self-consistent Calculation

     iteration #  1     ecut=    29.40 Ry     beta= 0.05
     Davidson diagonalization with overlap
     c_bands:  3 eigenvalues not converged
     c_bands:  3 eigenvalues not converged
     c_bands:  1 eigenvalues not converged
     c_bands:  1 eigenvalues not converged
     c_bands:  4 eigenvalues not converged
     c_bands:  2 eigenvalues not converged
     c_bands:  1 eigenvalues not converged
     ethr =  1.00E-05,  avg # of iterations = 28.8

[...]

     total energy              =   -2400.34078785 Ry
     estimated scf accuracy    <    6416.39201288 Ry

     iteration #  2     ecut=    29.40 Ry     beta= 0.05
     Davidson diagonalization with overlap
     ethr =  1.00E-02,  avg # of iterations = 22.7

[...]

     iteration # 56     ecut=    29.40 Ry     beta= 0.05
     Davidson diagonalization with overlap
     c_bands:  2 eigenvalues not converged
     ethr =  1.51E-06,  avg # of iterations =  8.3

[...]

     total energy              =   -2972.60987044 Ry
     estimated scf accuracy    <       0.00000013 Ry

     iteration # 80     ecut=    29.40 Ry     beta= 0.05
     Davidson diagonalization with overlap
     ethr =  3.13E-11,  avg # of iterations =  5.9

     negative rho (up, down):  1.638E-02 0.000E+00

     Adding external electric field

     Computed dipole along edir(3) :
        Dipole                0.2059 Ry au,          0.5232 Debye
        Dipole field          0.0004 Ry au,

        Potential amp.       -0.0360 Ry
        Total length         46.3494 bohr

     End of self-consistent calculation

          k = 0.0000 0.0000 0.0000 ( 18029 PWs)   bands (ev):

   -56.4813 -56.4475 -56.0208 -55.9849 -55.7682 -55.7135 -55.6493 -55.6301
   -55.6069 -55.5087 -55.5022 -55.4545 -55.4042 -55.2847 -55.2235 -55.1896
   -32.9275 -32.7725 -32.7452 -32.6413 -32.5520 -32.5490 -32.5024 -32.2514
   -32.2385 -32.2162 -32.1695 -32.1645 -32.1320 -32.1192 -32.0215 -32.0061
   -32.0010 -31.9895 -31.9659 -31.9304 -31.9160 -31.9136 -31.9112 -31.8836
   -31.8744 -31.8659 -31.8529 -31.8090 -31.7886 -31.7676 -31.7499 -31.7183
   -31.7139 -31.6908 -31.6733 -31.6683 -31.6488 -31.6186 -31.5933 -31.5738
   -31.5587 -31.5497 -31.5349 -31.5168 -31.4930 -31.4377 -31.3534 -31.2413
   -17.8719 -16.7508 -16.4672 -16.4097 -16.2066 -16.0217 -15.9304 -15.9027
   -15.8982 -15.7770 -15.7666 -15.6237 -15.5425 -15.4901 -15.4240 -15.4028
   -15.3387 -15.3265 -15.2564 -15.2283 -15.2134 -15.1824 -15.1345 -15.0797
   -15.0699 -15.0492 -14.8506 -14.8353 -14.8122 -14.6245 -14.5369 -13.7208
   -13.6092 -13.1574  -7.8172  -6.1539  -4.2688  -4.2221  -4.1131  -3.9430
    -3.7430  -3.6770  -3.5670  -3.4456  -3.4078  -3.1705  -3.1566  -3.1175
    -3.0267  -2.9764  -2.9606  -2.9087  -2.8513  -2.8299  -2.7596  -2.6971
    -2.6919  -2.6794  -2.6422  -2.6211  -2.5176  -2.4727  -2.4122  -2.3812
    -2.3524  -2.3430  -2.3047  -2.2488  -2.2209  -2.1676  -2.1470  -2.0609
    -2.0295  -1.9499  -1.8889  -1.8710  -1.8086  -1.7724  -1.7640  -1.7008
    -1.5729  -1.4649  -1.4004  -1.3464  -1.3016  -1.2459  -1.2117  -1.1594
    -1.0957  -1.0670  -1.0458  -1.0100  -0.9492  -0.9221  -0.8819  -0.8176
    -0.7390  -0.6708  -0.6322  -0.6021  -0.5091  -0.4413  -0.3974  -0.3877
    -0.3512  -0.2853  -0.2422  -0.1975  -0.1877  -0.1623  -0.1036   0.0197
     0.0332   0.0917   0.1465   0.1793   0.1907   0.2042   0.2694   0.3360
     0.4097   0.4511   0.4633   0.5215   0.5901   0.6286   0.7419   0.8011
     0.8404   0.8709   0.9561   1.0349   1.0403   1.3437   1.3625   1.3848
     2.4992   2.7546   2.8857   3.0675   3.1856   3.3245   3.6498   3.6595
     3.6698   3.7076   3.7433

[...]

          k = 0.0380-0.0419 0.0000 ( 17876 PWs)   bands (ev):

[...]

          k =-0.0760-0.0000 0.0000 ( 17886 PWs)   bands (ev):

[...]

          k =-0.0760-0.0839 0.0000 ( 17948 PWs)   bands (ev):

   -56.4645 -56.4641 -56.0092 -55.9964 -55.7622 -55.7194 -55.6409 -55.6286
   -55.6152 -55.5064 -55.5036 -55.4528 -55.4063 -55.2863 -55.2071 -55.2060
   -32.7582 -32.7578 -32.7437 -32.7435 -32.5938 -32.5930 -32.3312 -32.3202
   -32.2011 -32.1945 -32.1864 -32.1849 -32.0701 -32.0375 -31.9909 -31.9840
   -31.9603 -31.9558 -31.9459 -31.9438 -31.9422 -31.9378 -31.9026 -31.8666
   -31.8646 -31.8580 -31.8520 -31.8422 -31.8240 -31.7922 -31.7829 -31.7688
   -31.7216 -31.7057 -31.7040 -31.6764 -31.6546 -31.6326 -31.6293 -31.5977
   -31.5518 -31.5483 -31.5475 -31.4970 -31.4343 -31.4330 -31.3961 -31.3952
   -17.8624 -16.4465 -16.1562 -16.1455 -16.0284 -16.0229 -15.8580 -15.8496
   -15.8321 -15.7546 -15.6853 -15.6702 -15.5168 -15.5053 -15.4677 -15.4310
   -15.4014 -15.3714 -15.3627 -15.3417 -15.2999 -15.2369 -15.2170 -15.1915
   -15.1818 -15.0996 -14.9223 -14.9025 -14.8942 -14.8287 -14.6853 -13.7128
   -13.7119 -13.1686  -7.7818  -6.0840  -4.3358  -4.0615  -3.3252  -3.2622
    -3.1838  -3.1469  -3.1129  -3.0628  -3.0480  -2.9339  -2.9097  -2.8716
    -2.8427  -2.8314  -2.8084  -2.7596  -2.7306  -2.6939  -2.6760  -2.6694
    -2.6428  -2.5973  -2.5758  -2.5502  -2.5432  -2.4731  -2.4433  -2.4027
    -2.3939  -2.3760  -2.3244  -2.2588  -2.2322  -2.1876  -2.1733  -2.1501
    -2.1138  -2.0468  -2.0027  -1.9684  -1.8678  -1.8380  -1.7792  -1.6647
    -1.6406  -1.5553  -1.5326  -1.5104  -1.4868  -1.4143  -1.3721  -1.3390
    -1.2607  -1.2355  -1.2214  -1.1914  -1.1569  -1.1309  -1.0744  -1.0127
    -0.9232  -0.8626  -0.8465  -0.8313  -0.7867  -0.7611  -0.7182  -0.6288
    -0.6067  -0.5729  -0.5612  -0.5180  -0.4104  -0.3775  -0.2338  -0.1884
    -0.1076  -0.0784  -0.0589  -0.0159   0.1048   0.1325   0.1811   0.2011
     0.2620   0.3048   0.3636   0.4545   0.5527   0.5642   0.6952   0.7197
     0.7437   0.8176   0.9569   0.9918   1.1957   1.1998   1.2014   1.2043
     2.4787   3.3076   3.3101   3.3437   3.3559   3.5605   3.5807   3.7092
     3.7932   3.7990   3.8354

     the Fermi energy is     2.6803 ev

!    total energy              =   -2972.60987910 Ry
     estimated scf accuracy    <       0.00000006 Ry
     smearing contrib. (-TS)   =      -0.01164932 Ry
     internal energy E=F+TS    =   -2972.59822978 Ry

     The total energy is F=E-TS. E is the sum of the following terms:
     one-electron contribution =  -24034.39072010 Ry
     hartree contribution      =   12108.55049129 Ry
     xc contribution           =    -493.06513853 Ry
     ewald contribution        =    9446.30705759 Ry
     electric field correction =       0.00007997 Ry

     convergence has been achieved in  80 iterations

     Forces acting on atoms (cartesian axes, Ry/au):

     atom    1 type  1   force =    -0.00004262   -0.00046082    0.10850261
     atom    2 type  1   force =     0.00002078    0.00009035   -0.16398858
     atom    3 type  2   force =     0.00013246    0.00046641   -0.04142172
     atom    4 type  2   force =     0.00009363   -0.00055963    0.03197577
     atom    5 type  2   force =    -0.00377848   -0.00332793   -0.00782766
     atom    6 type  2   force =     0.00583994   -0.00273572   -0.00765302
     atom    7 type  1   force =     0.00017240   -0.00552874    0.03669674
     atom    8 type  1   force =     0.00012920    0.02542822    0.06383823
     atom    9 type  2   force =     0.00013917    0.00038426   -0.00014967
     atom   10 type  2   force =    -0.00194980    0.00075661   -0.03817179
     atom   11 type  2   force =     0.00005431   -0.00018014   -0.00027674
     atom   12 type  2   force =    -0.00069148    0.00017340   -0.00028155
     atom   13 type  1   force =     0.00045040    0.00042344    0.00143821
     atom   14 type  1   force =    -0.00056317   -0.00019731    0.00051447
     atom   15 type  2   force =    -0.00014491    0.00014287    0.00055836
     atom   16 type  2   force =    -0.00012293    0.00034817   -0.00040296
     atom   17 type  2   force =    -0.00097603    0.00052564   -0.00011117
     atom   18 type  2   force =     0.00060627   -0.00001658   -0.00042864
     atom   19 type  1   force =     0.00021567   -0.00066891    0.00057271
     atom   20 type  1   force =    -0.00030947   -0.00013806    0.00030820
     atom   21 type  2   force =     0.00009612    0.00018770    0.10009311
     atom   22 type  2   force =    -0.00015657   -0.00030163    0.00011278
     atom   23 type  2   force =    -0.07747840    0.00001416   -0.03035715
     atom   24 type  2   force =     0.07747128    0.00043186   -0.03040014
     atom   25 type  1   force =    -0.00000546   -0.00031909    0.10869357
     atom   26 type  1   force =    -0.00003904   -0.00110325   -0.16402130
     atom   27 type  2   force =     0.00011710   -0.00018089   -0.03942211
     atom   28 type  2   force =     0.00011570    0.00118739    0.02818729
     atom   29 type  2   force =    -0.00227923    0.00468045   -0.01056362
     atom   30 type  2   force =     0.00435640    0.00496261   -0.01052269
     atom   31 type  1   force =     0.00005827    0.00317498    0.01950303
     atom   32 type  1   force =     0.00036436   -0.02765435    0.06556663
     atom   33 type  2   force =    -0.00003504   -0.00084829   -0.00070981
     atom   34 type  2   force =    -0.00063250    0.00085487   -0.05601072
     atom   35 type  2   force =    -0.00035957   -0.00021709   -0.00036436
     atom   36 type  2   force =    -0.00005391   -0.00001837   -0.00029166
     atom   37 type  1   force =     0.00029082   -0.00047933    0.00063466
     atom   38 type  1   force =    -0.00036950   -0.00019524    0.00063262
     atom   39 type  2   force =    -0.00018442    0.00038546   -0.00053489
     atom   40 type  2   force =    -0.00016822   -0.00026635   -0.00074947
     atom   41 type  2   force =    -0.00038369    0.00011491   -0.00012877
     atom   42 type  2   force =    -0.00035621    0.00003647   -0.00006688
     atom   43 type  1   force =     0.00025290    0.00017767    0.00039705
     atom   44 type  1   force =    -0.00016713   -0.00010970    0.00040074
     atom   45 type  2   force =     0.00010263    0.00001248    0.09990329
     atom   46 type  2   force =    -0.07751105   -0.00001064   -0.03036700
     atom   47 type  2   force =     0.07753077    0.00042035   -0.03040659
     atom   48 type  3   force =     0.00700574    0.00198722    0.00831228
     atom   49 type  4   force =    -0.00523440   -0.00273436   -0.01176918
     atom   50 type  5   force =    -0.00260430    0.00121446    0.00210253
     atom   51 type  3   force =     0.00129179   -0.00132703   -0.00042152
     atom   52 type  5   force =     0.00015673    0.00016744   -0.00046914
     atom   53 type  5   force =    -0.00010373    0.00082007    0.00011937
     atom   54 type  2   force =     0.00079960    0.00064196   -0.00158360
     atom   55 type  5   force =    -0.00116317   -0.00063242    0.00080984

     Total force =     0.383605     Total SCF correction =     0.000676
  @ DRIVER MODE: Message from server: STATUS
  @ DRIVER MODE: Message from server: GETFORCE
  @ DRIVER MODE: Returning v,forces,stress,ensemble

     Writing output data file ./calc.save/
  @ DRIVER MODE: Message from server: EXIT
  @ DRIVE MODE: Exiting

     General routines

     Parallel routines

   This run was terminated on:  20:27:14  22Sep2021

   JOB DONE.