     Program PWSCF v.6.7GPU starts on 23Sep2021 at 21:24:48

     R & G space division:  proc/nbgrp/npool/nimage =       8
     Reading input from /storage/home/hcoda1/3/ntian30/research/carbon/CxH_vib/H2O_calc/ads_slab/CH3NHNHHO_a/out_0059/pw.inp
Warning: card &CELL ignored
Warning: card   CELL_DYNAMICS='IPI', ignored
Warning: card / ignored

     Current dimensions of program PWSCF are:
     Max number of different atomic species (ntypx) = 10
     Max number of k-points (npk) =  40000
     Max angular momentum in pseudopotentials (lmaxx) =  3
     Presently no symmetry can be used with electric field

     Message from routine cell_base_init:
     DEPRECATED: use true lattice parameter, not A to a.u. conversion factor

     IMPORTANT: XC functional enforced from input :
     Exchange-correlation= BEEF-VDW
                           (   1   4  43  14   2   0   0)
     Any further DFT definition will be discarded
     Please, verify this is what you really want

  @ DRIVER MODE: Connecting to
 qe_1139763_2941006.sched-torque.pace.gatech.edu_qvutur5_scratch
  using UNIX socket
  @ DRIVER MODE: Message from server: STATUS
  @ DRIVER MODE: Message from server: INIT
  @ DRIVER MODE: Receiving replica           0          -1
  @ DRIVER MODE: Receiving encoded integer          25
  @ DRIVER MODE:  SCF:  T  FORCE:  T  STRESS:  F  VC:  F  ENSEMBLE:  F
  @ DRIVER MODE:  SCF:  T  FORCE:  T  STRESS:  F  VC:  F  ENSEMBLE:  F

     Using Slab Decomposition

     bravais-lattice index     =            0
     lattice parameter (alat)  =       1.8897  a.u.
     unit-cell volume          =    6658.9804 (a.u.)^3
     number of atoms/cell      =           57
     number of atomic types    =            5
     number of electrons       =       404.00
     number of Kohn-Sham states=          212
     kinetic-energy cutoff     =      29.3995  Ry
     charge density cutoff     =     293.9946  Ry
     scf convergence threshold =      7.3E-08
     mixing beta               =       0.0500
     number of iterations used =            8  plain     mixing
     Exchange-correlation= BEEF-VDW
                           (   1   4  43  14   2   0   0)

     celldm(1)=   1.889726  celldm(2)=   0.000000  celldm(3)=   0.000000
     celldm(4)=   0.000000  celldm(5)=   0.000000  celldm(6)=   0.000000

     crystal axes: (cart. coord. in units of alat)
               a(1) = (   6.579727   0.000000   0.000000 )
               a(2) = (  -0.000775   5.961596   0.000000 )
               a(3) = (   0.000000   0.000000  25.155947 )

     reciprocal axes: (cart. coord. in units 2 pi/alat)
               b(1) = (  0.151982  0.000020  0.000000 )
               b(2) = (  0.000000  0.167740  0.000000 )
               b(3) = (  0.000000  0.000000  0.039752 )

     PseudoPot. # 1 for Ti read from file:
     /storage/coda1/p-amedford6/0/shared/rich_project_chbe-medford/medford-share/data/pseudos_module/espresso/nninc/pbe/van/Ti.UPF
     MD5 check sum: 8e4df49b7f0d34bbd5052bf3f5ea0213
     Pseudo is Ultrasoft, Zval = 12.0
     Generated by new atomic code, or converted to UPF format
     Using radial grid of  851 points,  6 beta functions with:
                l(1) =   0
                l(2) =   0
                l(3) =   1
                l(4) =   1
                l(5) =   2
                l(6) =   2
     Q(r) pseudized with  8 coefficients,  rinner =    1.000   1.000   1.000
                                                       1.000   1.000

     PseudoPot. # 2 for O  read from file:
     /storage/coda1/p-amedford6/0/shared/rich_project_chbe-medford/medford-share/data/pseudos_module/espresso/nninc/pbe/van/O.UPF
     MD5 check sum: 78c19812648e8988a0fe644b0f25305e
     Pseudo is Ultrasoft, Zval =  6.0
     Generated by new atomic code, or converted to UPF format
     Using radial grid of  737 points,  4 beta functions with:
                l(1) =   0
                l(2) =   0
                l(3) =   1
                l(4) =   1
     Q(r) pseudized with  8 coefficients,  rinner =    0.800   0.800   0.800

     PseudoPot. # 3 for N  read from file:
     /storage/coda1/p-amedford6/0/shared/rich_project_chbe-medford/medford-share/data/pseudos_module/espresso/nninc/pbe/van/N.UPF
     MD5 check sum: 90d10febe142ad51ac9d5be1deb811c4
     Pseudo is Ultrasoft, Zval =  5.0
     Generated by new atomic code, or converted to UPF format
     Using radial grid of  729 points,  4 beta functions with:
                l(1) =   0
                l(2) =   0
                l(3) =   1
                l(4) =   1
     Q(r) pseudized with  8 coefficients,  rinner =    0.800   0.800   0.800

     PseudoPot. # 4 for C  read from file:
     /storage/coda1/p-amedford6/0/shared/rich_project_chbe-medford/medford-share/data/pseudos_module/espresso/nninc/pbe/van/C.UPF
     MD5 check sum: 1a69bf6b8db32088f5b2163dbdb77a27
     Pseudo is Ultrasoft, Zval =  4.0
     Generated by new atomic code, or converted to UPF format
     Using radial grid of  721 points,  4 beta functions with:
                l(1) =   0
                l(2) =   0
                l(3) =   1
                l(4) =   1
     Q(r) pseudized with  8 coefficients,  rinner =    0.800   0.800   0.800

     PseudoPot. # 5 for H  read from file:
     /storage/coda1/p-amedford6/0/shared/rich_project_chbe-medford/medford-share/data/pseudos_module/espresso/nninc/pbe/van/H.UPF
     MD5 check sum: b5ee9d7bfd3a09ee7748110bda690ff7
     Pseudo is Ultrasoft, Zval =  1.0
     Generated by new atomic code, or converted to UPF format
     Using radial grid of  615 points,  1 beta functions with:
                l(1) =   0
     Q(r) pseudized with  8 coefficients,  rinner =    0.800

     atomic species   valence    mass     pseudopotential
        Ti1           12.00    47.86700     Ti( 1.00)
        O1             6.00    15.99900     O ( 1.00)
        N1             5.00    14.00700     N ( 1.00)
        C1             4.00    12.01100     C ( 1.00)
        H1             1.00     1.00800     H ( 1.00)

     No symmetry found

   Cartesian axes

     site n.     atom                  positions (alat units)
         1           Ti1 tau(   1) = (   0.0004258   2.9801865   6.0000000  )
         2           Ti1 tau(   2) = (   3.2906075   1.4906267   6.0002472  )
         3           O1  tau(   3) = (   0.0006271   0.0005054   7.9858123  )
         4           O1  tau(   4) = (   3.2906025   0.0005020   7.3038282  )
         5           O1  tau(   5) = (   4.5942328   1.4918067   9.2879030  )
         6           O1  tau(   6) = (   1.9868534   1.4903216   9.2879459  )
         7           Ti1 tau(   7) = (   3.2907910   2.8959150   9.1758416  )
         8           Ti1 tau(   8) = (   0.0015273   1.4827037   9.2680791  )
         9           O1  tau(   9) = (   3.2953096   5.9421394  11.2884464  )
        10           O1  tau(  10) = (   0.0116148   5.9584955  10.6183126  )
        11           O1  tau(  11) = (   1.3041449   1.4755329  12.6321863  )
        12           O1  tau(  12) = (   5.3089623   1.4871430  12.6059879  )
        13           Ti1 tau(  13) = (   6.5683417   3.1096339  12.6902584  )
        14           Ti1 tau(  14) = (   3.3171551   1.3050273  12.6602886  )
        15           O1  tau(  15) = (   6.5441980   0.0188234  14.6400653  )
        16           O1  tau(  16) = (   3.3305379   0.0354930  13.9003223  )
        17           O1  tau(  17) = (   4.5569828   1.5958521  16.0354584  )
        18           O1  tau(  18) = (   2.0254723   1.5302355  15.9749146  )
        19           Ti1 tau(  19) = (   3.2479256   3.0467527  15.6517507  )
        20           Ti1 tau(  20) = (   6.4631478   1.5268535  15.8454044  )
        21           O1  tau(  21) = (   3.2904802   0.0005063   4.7018136  )
        22           O1  tau(  22) = (   6.5640117   0.0389496  17.1838934  )
        23           O1  tau(  23) = (   1.3043587   1.4918075   6.0039043  )
        24           O1  tau(  24) = (   5.2767064   1.4903225   6.0039473  )
        25           Ti1 tau(  25) = (   0.0000382   5.9609847   6.0000000  )
        26           Ti1 tau(  26) = (   3.2902200   4.4714249   6.0002472  )
        27           O1  tau(  27) = (   0.0002396   2.9813036   7.9858123  )
        28           O1  tau(  28) = (   3.2902150   2.9813002   7.3038282  )
        29           O1  tau(  29) = (   4.5938453   4.4726049   9.2879030  )
        30           O1  tau(  30) = (   1.9864658   4.4711199   9.2879459  )
        31           Ti1 tau(  31) = (   3.2891106   5.8743827   9.1763621  )
        32           Ti1 tau(  32) = (   0.0006254   4.4649316   9.2693709  )
        33           O1  tau(  33) = (   3.2909858   3.0116154  11.2527998  )
        34           O1  tau(  34) = (   0.0092240   2.9805883  10.6323155  )
        35           O1  tau(  35) = (   1.2990260   4.4726261  12.6330189  )
        36           O1  tau(  36) = (   5.2946483   4.4606482  12.6134978  )
        37           Ti1 tau(  37) = (   0.0333947   0.1262769  12.6104238  )
        38           Ti1 tau(  38) = (   3.2900473   4.3917186  12.4086616  )
        39           O1  tau(  39) = (   6.5591047   2.9728048  14.6463482  )
        40           O1  tau(  40) = (   3.3071982   2.9909887  13.8663713  )
        41           O1  tau(  41) = (   4.5374868   4.4330245  16.1128471  )
        42           O1  tau(  42) = (   2.0037144   4.4952966  15.9584979  )
        43           Ti1 tau(  43) = (   3.1911318   0.0573200  16.2061952  )
        44           Ti1 tau(  44) = (   6.5299348   4.6473693  16.0672121  )
        45           O1  tau(  45) = (   3.2900926   2.9813045   4.7018136  )
        46           O1  tau(  46) = (   1.3039711   4.4726057   6.0039043  )
        47           O1  tau(  47) = (   5.2763189   4.4711207   6.0039473  )
        48           N1  tau(  48) = (   1.2509970   2.8552009  18.3001485  )
        49           N1  tau(  49) = (   0.1090600   2.9410495  17.4585617  )
        50           C1  tau(  50) = (   1.1117997   3.5424446  19.5707766  )
        51           H1  tau(  51) = (   0.2696121   3.1616043  20.1716506  )
        52           H1  tau(  52) = (   2.0314425   3.4001925  20.1392599  )
        53           H1  tau(  53) = (   0.9679189   4.6079482  19.3970517  )
        54           H1  tau(  54) = (   1.5306055   1.8840965  18.4148701  )
        55           H1  tau(  55) = (   5.8389999   2.9001924  18.0325661  )
        56           O1  tau(  56) = (   3.2424369   0.1001929  18.0579484  )
        57           H1  tau(  57) = (   3.9792659   5.6040190  18.4797823  )

     number of k points=    10  Fermi-Dirac smearing, width (Ry)=  0.0073
                       cart. coord. in units 2pi/alat
        k(    1) = (   0.0000000   0.0000000   0.0000000), wk =   0.1250000
        k(    2) = (   0.0000000   0.0419351   0.0000000), wk =   0.2500000
        k(    3) = (   0.0000000  -0.0838702   0.0000000), wk =   0.1250000
        k(    4) = (   0.0379955   0.0000049   0.0000000), wk =   0.2500000
        k(    5) = (   0.0379955   0.0419400   0.0000000), wk =   0.2500000
        k(    6) = (   0.0379955  -0.0838652   0.0000000), wk =   0.2500000
        k(    7) = (   0.0379955  -0.0419301   0.0000000), wk =   0.2500000
        k(    8) = (  -0.0759910  -0.0000099   0.0000000), wk =   0.1250000
        k(    9) = (  -0.0759910   0.0419252   0.0000000), wk =   0.2500000
        k(   10) = (  -0.0759910  -0.0838800   0.0000000), wk =   0.1250000

     Initial potential from superposition of free atoms

     starting charge  387.99913, renormalised to  404.00000

     negative rho (up, down):  1.468E-02 0.000E+00

     %%%%%%%%%%%%%%%%%%%%%%%%%%%%%%%%%%%%%%%%%%%%%%%%%%%%%%%%%%%%%%%%%%%%%%%%
     %                                                                      %
     % You are using vdW-DF, which was implemented by the Thonhauser group. %
     % Please cite the following two papers that made this development      %
     % possible and the two reviews that describe the various versions:     %
     %                                                                      %
     %   T. Thonhauser et al., PRL 115, 136402 (2015).                      %
     %   T. Thonhauser et al., PRB 76, 125112 (2007).                       %
     %   K. Berland et al., Rep. Prog. Phys. 78, 066501 (2015).             %
     %   D.C. Langreth et al., J. Phys.: Condens. Matter 21, 084203 (2009). %
     %                                                                      %
     %                                                                      %
     % If you are calculating the stress with vdW-DF, please also cite:     %
     %                                                                      %
     %   R. Sabatini et al., J. Phys.: Condens. Matter 24, 424209 (2012).   %
     %                                                                      %
     %%%%%%%%%%%%%%%%%%%%%%%%%%%%%%%%%%%%%%%%%%%%%%%%%%%%%%%%%%%%%%%%%%%%%%%%

     Adding external electric field

     Computed dipole along edir(3) :
        Dipole              -12.7307 Ry au,        -32.3582 Debye
        Dipole field         -0.0240 Ry au,

        Potential amp.        2.2270 Ry
        Total length         46.3494 bohr

     Starting wfcs are  306 atomic wfcs
  @ DRIVER MODE: Message from server: STATUS
  @ DRIVER MODE: Message from server: POSDATA
  @ DRIVER MODE: Reading and sharing cell
  @ DRIVER MODE: Reading and sharing positions
  @ DRIVER MODE: Received positions

     Self-consistent Calculation

     iteration #  1     ecut=    29.40 Ry     beta= 0.05
     Davidson diagonalization with overlap
     c_bands:  4 eigenvalues not converged
     c_bands:  5 eigenvalues not converged
     c_bands:  5 eigenvalues not converged
     c_bands:  5 eigenvalues not converged
     c_bands:  1 eigenvalues not converged
     c_bands:  3 eigenvalues not converged
     c_bands:  2 eigenvalues not converged
     c_bands:  4 eigenvalues not converged
     ethr =  1.00E-05,  avg # of iterations = 26.4

[...]

     total energy              =   -2345.46596476 Ry
     estimated scf accuracy    <    7121.18634801 Ry

     iteration #  2     ecut=    29.40 Ry     beta= 0.05
     Davidson diagonalization with overlap
     ethr =  1.00E-02,  avg # of iterations = 24.4

[...]

     iteration # 41     ecut=    29.40 Ry     beta= 0.05
     Davidson diagonalization with overlap
     c_bands:  1 eigenvalues not converged
     c_bands:  1 eigenvalues not converged
     c_bands:  1 eigenvalues not converged
     c_bands:  2 eigenvalues not converged
     ethr =  2.38E-06,  avg # of iterations = 13.4

[...]

     total energy              =   -2975.25032585 Ry
     estimated scf accuracy    <       0.00000037 Ry

     iteration # 63     ecut=    29.40 Ry     beta= 0.05
     Davidson diagonalization with overlap
     ethr =  5.10E-11,  avg # of iterations =  5.7

     negative rho (up, down):  1.542E-02 0.000E+00

     Adding external electric field

     Computed dipole along edir(3) :
        Dipole                0.5341 Ry au,          1.3575 Debye
        Dipole field          0.0010 Ry au,

        Potential amp.       -0.0934 Ry
        Total length         46.3494 bohr

     End of self-consistent calculation

          k = 0.0000 0.0000 0.0000 ( 18029 PWs)   bands (ev):

   -56.4286 -56.3950 -55.7731 -55.7383 -55.5414 -55.4803 -55.3688 -55.2139
   -55.2091 -55.1409 -55.1057 -55.0916 -55.0577 -55.0526 -54.9866 -54.8677
   -32.8617 -32.7130 -32.6850 -32.5963 -32.5049 -32.4873 -32.2532 -32.0195
   -31.9925 -31.9697 -31.9168 -31.9113 -31.8817 -31.7694 -31.7575 -31.7488
   -31.7064 -31.6979 -31.6826 -31.6423 -31.6368 -31.6266 -31.5781 -31.5572
   -31.5163 -31.4845 -31.4820 -31.4315 -31.4202 -31.4124 -31.4074 -31.3889
   -31.3686 -31.3682 -31.3314 -31.3131 -31.3079 -31.3019 -31.2841 -31.2396
   -31.2364 -31.2190 -31.2068 -31.1864 -31.1161 -31.1118 -31.1073 -31.0607
   -16.6185 -16.5709 -16.2160 -16.1783 -15.8683 -15.8025 -15.7781 -15.7426
   -15.6807 -15.5595 -15.4398 -15.3941 -15.3868 -15.3383 -15.1788 -15.0816
   -14.9872 -14.9157 -14.9080 -14.8607 -14.8524 -14.8243 -14.8117 -14.8031
   -14.7374 -14.7029 -14.5944 -14.5511 -14.4538 -14.2589 -14.1809 -13.5892
   -13.4794 -11.5365  -8.6604  -5.0365  -4.2569  -4.1692  -3.7880  -3.6948
    -3.5236  -3.4468  -3.2950  -3.2638  -3.1778  -3.0751  -3.0127  -2.9558
    -2.9448  -2.8396  -2.6912  -2.6396  -2.6348  -2.6113  -2.6055  -2.5143
    -2.4463  -2.4127  -2.3453  -2.2754  -2.2439  -2.1580  -2.1527  -2.1266
    -2.1057  -2.0773  -2.0290  -1.9795  -1.9563  -1.9363  -1.8264  -1.7835
    -1.7575  -1.7122  -1.6795  -1.6055  -1.5702  -1.5236  -1.4461  -1.3857
    -1.2620  -1.2354  -1.1703  -1.1555  -1.1258  -1.0015  -0.9638  -0.9290
    -0.8681  -0.8345  -0.7690  -0.7451  -0.7138  -0.6765  -0.6682  -0.6270
    -0.5204  -0.4920  -0.3644  -0.3464  -0.2948  -0.2259  -0.2141  -0.1601
    -0.1382  -0.1020  -0.0562  -0.0213   0.0213   0.0896   0.1285   0.2157
     0.2592   0.3218   0.4178   0.4469   0.4693   0.5317   0.5497   0.5827
     0.6280   0.7221   0.7312   0.7921   0.8675   0.9126   0.9315   0.9915
     1.0513   1.0704   1.1696   1.1969   1.2081   1.2629   1.4715   1.5118
     1.6884   2.4459   2.8358   2.9823   3.2682   3.2996   3.5598   3.7948
     3.8250   3.8270   3.9093   4.0373

[...]

          k = 0.0380-0.0419 0.0000 ( 17876 PWs)   bands (ev):

[...]

          k =-0.0760-0.0000 0.0000 ( 17886 PWs)   bands (ev):

[...]

          k =-0.0760-0.0839 0.0000 ( 17948 PWs)   bands (ev):

   -56.4120 -56.4115 -55.7604 -55.7508 -55.5362 -55.4854 -55.3674 -55.2151
   -55.2044 -55.1453 -55.1034 -55.0752 -55.0740 -55.0511 -54.9889 -54.8691
   -32.6988 -32.6984 -32.6787 -32.6780 -32.5491 -32.5489 -32.0783 -32.0699
   -31.9544 -31.9470 -31.9432 -31.9409 -31.8394 -31.8006 -31.7635 -31.7553
   -31.7109 -31.7056 -31.6671 -31.6177 -31.5858 -31.5667 -31.5417 -31.5023
   -31.4893 -31.4866 -31.4360 -31.4342 -31.4208 -31.4200 -31.4194 -31.3981
   -31.3846 -31.3586 -31.3370 -31.3248 -31.3119 -31.2997 -31.2988 -31.2984
   -31.2613 -31.2602 -31.2434 -31.2368 -31.1935 -31.1781 -31.1173 -31.0923
   -16.5455 -16.2079 -15.9994 -15.9954 -15.9158 -15.9132 -15.7051 -15.6995
   -15.5290 -15.4999 -15.4259 -15.3073 -15.2554 -15.1990 -15.1914 -15.1486
   -15.0949 -15.0755 -15.0331 -15.0160 -14.9534 -14.9103 -14.8607 -14.8147
   -14.7963 -14.7572 -14.6361 -14.5868 -14.5802 -14.3933 -14.3619 -13.5833
   -13.5827 -11.5431  -8.6671  -5.0448  -4.2544  -3.7594  -3.4024  -3.1014
    -3.0833  -3.0377  -3.0286  -2.8130  -2.7923  -2.7674  -2.6939  -2.6812
    -2.6312  -2.6239  -2.5321  -2.4917  -2.4493  -2.4348  -2.4203  -2.3655
    -2.3385  -2.2934  -2.2900  -2.2553  -2.2201  -2.1868  -2.1614  -2.1197
    -2.0962  -2.0815  -2.0427  -2.0117  -1.9842  -1.9341  -1.9140  -1.8820
    -1.8723  -1.8508  -1.6942  -1.6402  -1.5839  -1.5415  -1.5108  -1.4448
    -1.4342  -1.3790  -1.3199  -1.2864  -1.2579  -1.2404  -1.1540  -1.1218
    -1.1053  -1.0703  -1.0284  -0.9675  -0.9102  -0.8608  -0.7846  -0.6898
    -0.6605  -0.6433  -0.6160  -0.6089  -0.5685  -0.5158  -0.4278  -0.3758
    -0.3231  -0.3061  -0.2626  -0.2567  -0.2269  -0.1894  -0.1197   0.0032
     0.0681   0.1049   0.1598   0.2149   0.2715   0.3367   0.3763   0.4605
     0.5394   0.5609   0.6460   0.6797   0.8038   0.8471   0.9623   1.0030
     1.0412   1.0861   1.1553   1.2525   1.2775   1.3226   1.3243   1.3411
     1.3555   2.4715   3.4026   3.4055   3.4559   3.4633   3.7377   3.7459
     3.8796   3.8814   4.0055   4.0182

     the Fermi energy is     2.7171 ev

!    total energy              =   -2975.25036588 Ry
     estimated scf accuracy    <       0.00000004 Ry
     smearing contrib. (-TS)   =      -0.00755591 Ry
     internal energy E=F+TS    =   -2975.24280996 Ry

     The total energy is F=E-TS. E is the sum of the following terms:
     one-electron contribution =  -23774.09984240 Ry
     hartree contribution      =   11982.66144883 Ry
     xc contribution           =    -494.81426034 Ry
     ewald contribution        =    9311.00930564 Ry
     electric field correction =       0.00053831 Ry

     convergence has been achieved in  63 iterations

     Forces acting on atoms (cartesian axes, Ry/au):

     atom    1 type  1   force =     0.00001789   -0.00035116    0.11622850
     atom    2 type  1   force =    -0.00014290    0.00031259   -0.16022762
     atom    3 type  2   force =     0.00004557    0.00032776   -0.05314874
     atom    4 type  2   force =     0.00007155   -0.00041706    0.02651521
     atom    5 type  2   force =    -0.00502698   -0.00225886   -0.01000978
     atom    6 type  2   force =     0.00670966   -0.00183303   -0.01074117
     atom    7 type  1   force =    -0.00038780   -0.00639544    0.04566565
     atom    8 type  1   force =     0.00057342    0.01079180    0.08180293
     atom    9 type  2   force =    -0.00001723    0.00035185   -0.00013257
     atom   10 type  2   force =    -0.00140113    0.00155136   -0.05452005
     atom   11 type  2   force =     0.00072999    0.00028461   -0.00022197
     atom   12 type  2   force =    -0.00115086    0.00020949    0.00019485
     atom   13 type  1   force =    -0.00022046   -0.00092077    0.00034111
     atom   14 type  1   force =     0.00047617    0.00120730   -0.00029682
     atom   15 type  2   force =     0.00000628   -0.00053425    0.00042497
     atom   16 type  2   force =    -0.00029895    0.00060366    0.00087546
     atom   17 type  2   force =    -0.00072070   -0.00046033    0.00021474
     atom   18 type  2   force =     0.00076066   -0.00025616    0.00022127
     atom   19 type  1   force =    -0.00065599   -0.00061301   -0.00048357
     atom   20 type  1   force =     0.00040204   -0.00034642   -0.00029361
     atom   21 type  2   force =     0.00007569    0.00015051    0.09916561
     atom   22 type  2   force =     0.00024999   -0.00044045    0.00078817
     atom   23 type  2   force =    -0.07949484   -0.00002328   -0.03164044
     atom   24 type  2   force =     0.07941487    0.00040612   -0.03167408
     atom   25 type  1   force =     0.00017401   -0.00036703    0.11646870
     atom   26 type  1   force =    -0.00009502   -0.00141909   -0.16036815
     atom   27 type  2   force =     0.00013459   -0.00011827   -0.05153463
     atom   28 type  2   force =     0.00003110    0.00129685    0.02170669
     atom   29 type  2   force =    -0.00384588    0.00422923   -0.01240788
     atom   30 type  2   force =     0.00542860    0.00484151   -0.01300010
     atom   31 type  1   force =    -0.00015123    0.00314183    0.03064003
     atom   32 type  1   force =     0.00051557   -0.01302297    0.08267307
     atom   33 type  2   force =     0.00017941   -0.00050711    0.00025772
     atom   34 type  2   force =    -0.00049890    0.00168487   -0.06789100
     atom   35 type  2   force =    -0.00045758   -0.00064613   -0.00008746
     atom   36 type  2   force =     0.00008202   -0.00003104   -0.00000583
     atom   37 type  1   force =    -0.00012189   -0.00121812   -0.00020413
     atom   38 type  1   force =     0.00047551   -0.00029794    0.00010185
     atom   39 type  2   force =     0.00015433    0.00033583    0.00000213
     atom   40 type  2   force =    -0.00013039   -0.00023387    0.00029799
     atom   41 type  2   force =     0.00110453    0.00004908    0.00032014
     atom   42 type  2   force =    -0.00104207   -0.00039139    0.00023111
     atom   43 type  1   force =    -0.00025743   -0.00053231   -0.00046432
     atom   44 type  1   force =     0.00051864    0.00060482   -0.00045773
     atom   45 type  2   force =     0.00007328   -0.00002760    0.09898638
     atom   46 type  2   force =    -0.07950894   -0.00001288   -0.03165673
     atom   47 type  2   force =     0.07944687    0.00043214   -0.03167847
     atom   48 type  3   force =    -0.00078854    0.00036780   -0.00065164
     atom   49 type  3   force =    -0.00103295    0.00022309   -0.00014773
     atom   50 type  4   force =    -0.00050775    0.00079462   -0.00002593
     atom   51 type  5   force =    -0.00110321    0.00020032   -0.00022818
     atom   52 type  5   force =    -0.00003091   -0.00042489    0.00017130
     atom   53 type  5   force =     0.00052139    0.00019999   -0.00057752
     atom   54 type  5   force =    -0.00011307   -0.00162046    0.00010589
     atom   55 type  5   force =    -0.00049486    0.00011858    0.00033868
     atom   56 type  2   force =    -0.00527354    0.00373686   -0.00411361
     atom   57 type  5   force =     0.00659837   -0.00273321    0.00415130

     Total force =     0.399199     Total SCF correction =     0.000604
  @ DRIVER MODE: Message from server: STATUS
  @ DRIVER MODE: Message from server: GETFORCE
  @ DRIVER MODE: Returning v,forces,stress,ensemble

     Writing output data file ./calc.save/
  @ DRIVER MODE: Message from server: EXIT
  @ DRIVE MODE: Exiting

     General routines

     Parallel routines

   This run was terminated on:  21:46: 5  23Sep2021

   JOB DONE.