     Program PWSCF v.6.7GPU starts on 24Aug2021 at 17:57:56

     R & G space division:  proc/nbgrp/npool/nimage =      72
     Reading input from /storage/home/hcoda1/3/ntian30/research/carbon/CH2_vib/ads_slab/CH2NHH_a/out_0023/pw.inp
Warning: card &CELL ignored
Warning: card   CELL_DYNAMICS='IPI', ignored
Warning: card / ignored

     Current dimensions of program PWSCF are:
     Max number of different atomic species (ntypx) = 10
     Max number of k-points (npk) =  40000
     Max angular momentum in pseudopotentials (lmaxx) =  3
     Presently no symmetry can be used with electric field

     Message from routine cell_base_init:
     DEPRECATED: use true lattice parameter, not A to a.u. conversion factor

     IMPORTANT: XC functional enforced from input :
     Exchange-correlation= BEEF-VDW
                           (   1   4  43  14   2   0   0)
     Any further DFT definition will be discarded
     Please, verify this is what you really want

  @ DRIVER MODE: Connecting to
 qe_1139763_2641439.sched-torque.pace.gatech.eduhpy7n6pn_scratch
  using UNIX socket
  @ DRIVER MODE: Message from server: STATUS
  @ DRIVER MODE: Message from server: INIT
  @ DRIVER MODE: Receiving replica           0          -1
  @ DRIVER MODE: Receiving encoded integer          25
  @ DRIVER MODE:  SCF:  T  FORCE:  T  STRESS:  F  VC:  F  ENSEMBLE:  F
  @ DRIVER MODE:  SCF:  T  FORCE:  T  STRESS:  F  VC:  F  ENSEMBLE:  F

     Using Slab Decomposition

     bravais-lattice index     =            0
     lattice parameter (alat)  =       1.8897  a.u.
     unit-cell volume          =    6658.9804 (a.u.)^3
     number of atoms/cell      =           53
     number of atomic types    =            5
     number of electrons       =       391.00
     number of Kohn-Sham states=          205
     kinetic-energy cutoff     =      29.3995  Ry
     charge density cutoff     =     293.9946  Ry
     scf convergence threshold =      7.3E-08
     mixing beta               =       0.0500
     number of iterations used =            8  plain     mixing
     Exchange-correlation= BEEF-VDW
                           (   1   4  43  14   2   0   0)

     celldm(1)=   1.889726  celldm(2)=   0.000000  celldm(3)=   0.000000
     celldm(4)=   0.000000  celldm(5)=   0.000000  celldm(6)=   0.000000

     crystal axes: (cart. coord. in units of alat)
               a(1) = (   6.579727   0.000000   0.000000 )
               a(2) = (  -0.000775   5.961596   0.000000 )
               a(3) = (   0.000000   0.000000  25.155947 )

     reciprocal axes: (cart. coord. in units 2 pi/alat)
               b(1) = (  0.151982  0.000020  0.000000 )
               b(2) = (  0.000000  0.167740  0.000000 )
               b(3) = (  0.000000  0.000000  0.039752 )

     PseudoPot. # 1 for Ti read from file:
     /storage/coda1/p-amedford6/0/shared/rich_project_chbe-medford/medford-share/data/pseudos_module/espresso/nninc/pbe/van/Ti.UPF
     MD5 check sum: 8e4df49b7f0d34bbd5052bf3f5ea0213
     Pseudo is Ultrasoft, Zval = 12.0
     Generated by new atomic code, or converted to UPF format
     Using radial grid of  851 points,  6 beta functions with:
                l(1) =   0
                l(2) =   0
                l(3) =   1
                l(4) =   1
                l(5) =   2
                l(6) =   2
     Q(r) pseudized with  8 coefficients,  rinner =    1.000   1.000   1.000
                                                       1.000   1.000

     PseudoPot. # 2 for O  read from file:
     /storage/coda1/p-amedford6/0/shared/rich_project_chbe-medford/medford-share/data/pseudos_module/espresso/nninc/pbe/van/O.UPF
     MD5 check sum: 78c19812648e8988a0fe644b0f25305e
     Pseudo is Ultrasoft, Zval =  6.0
     Generated by new atomic code, or converted to UPF format
     Using radial grid of  737 points,  4 beta functions with:
                l(1) =   0
                l(2) =   0
                l(3) =   1
                l(4) =   1
     Q(r) pseudized with  8 coefficients,  rinner =    0.800   0.800   0.800

     PseudoPot. # 3 for N  read from file:
     /storage/coda1/p-amedford6/0/shared/rich_project_chbe-medford/medford-share/data/pseudos_module/espresso/nninc/pbe/van/N.UPF
     MD5 check sum: 90d10febe142ad51ac9d5be1deb811c4
     Pseudo is Ultrasoft, Zval =  5.0
     Generated by new atomic code, or converted to UPF format
     Using radial grid of  729 points,  4 beta functions with:
                l(1) =   0
                l(2) =   0
                l(3) =   1
                l(4) =   1
     Q(r) pseudized with  8 coefficients,  rinner =    0.800   0.800   0.800

     PseudoPot. # 4 for C  read from file:
     /storage/coda1/p-amedford6/0/shared/rich_project_chbe-medford/medford-share/data/pseudos_module/espresso/nninc/pbe/van/C.UPF
     MD5 check sum: 1a69bf6b8db32088f5b2163dbdb77a27
     Pseudo is Ultrasoft, Zval =  4.0
     Generated by new atomic code, or converted to UPF format
     Using radial grid of  721 points,  4 beta functions with:
                l(1) =   0
                l(2) =   0
                l(3) =   1
                l(4) =   1
     Q(r) pseudized with  8 coefficients,  rinner =    0.800   0.800   0.800

     PseudoPot. # 5 for H  read from file:
     /storage/coda1/p-amedford6/0/shared/rich_project_chbe-medford/medford-share/data/pseudos_module/espresso/nninc/pbe/van/H.UPF
     MD5 check sum: b5ee9d7bfd3a09ee7748110bda690ff7
     Pseudo is Ultrasoft, Zval =  1.0
     Generated by new atomic code, or converted to UPF format
     Using radial grid of  615 points,  1 beta functions with:
                l(1) =   0
     Q(r) pseudized with  8 coefficients,  rinner =    0.800

     atomic species   valence    mass     pseudopotential
        Ti1           12.00    47.86700     Ti( 1.00)
        O1             6.00    15.99900     O ( 1.00)
        N1             5.00    14.00700     N ( 1.00)
        C1             4.00    12.01100     C ( 1.00)
        H1             1.00     1.00800     H ( 1.00)

     No symmetry found

   Cartesian axes

     site n.     atom                  positions (alat units)
         1           Ti1 tau(   1) = (   0.0004258   2.9801865   6.0000000  )
         2           Ti1 tau(   2) = (   3.2906075   1.4906267   6.0002472  )
         3           O1  tau(   3) = (   0.0006271   0.0005054   7.9858123  )
         4           O1  tau(   4) = (   3.2906025   0.0005020   7.3038282  )
         5           O1  tau(   5) = (   4.5942328   1.4918067   9.2879030  )
         6           O1  tau(   6) = (   1.9868534   1.4903216   9.2879459  )
         7           Ti1 tau(   7) = (   3.2907910   2.8959150   9.1758416  )
         8           Ti1 tau(   8) = (   0.0015273   1.4827037   9.2680791  )
         9           O1  tau(   9) = (   3.2941312   5.9515177  11.3840049  )
        10           O1  tau(  10) = (   0.0116148   5.9584955  10.6183126  )
        11           O1  tau(  11) = (   1.2915503   1.4777401  12.6967708  )
        12           O1  tau(  12) = (   5.3002239   1.4803738  12.6794006  )
        13           Ti1 tau(  13) = (   0.0161863   2.9610389  12.5056540  )
        14           Ti1 tau(  14) = (   3.3199580   1.4690355  12.5397617  )
        15           O1  tau(  15) = (   6.5577523   5.8663973  14.6994336  )
        16           O1  tau(  16) = (   3.3105950   5.9380289  14.0083265  )
        17           O1  tau(  17) = (   4.5355139   1.5078041  16.1868020  )
        18           O1  tau(  18) = (   2.0231344   1.4922588  16.1350940  )
        19           Ti1 tau(  19) = (   3.2781988   2.9761027  15.7713632  )
        20           Ti1 tau(  20) = (   0.0162001   1.2772015  15.8797579  )
        21           O1  tau(  21) = (   3.2904802   0.0005063   4.7018136  )
        22           O1  tau(  22) = (   6.5682446   0.1140876  17.2519115  )
        23           O1  tau(  23) = (   1.3043587   1.4918075   6.0039043  )
        24           O1  tau(  24) = (   5.2767064   1.4903225   6.0039473  )
        25           Ti1 tau(  25) = (   0.0000382   5.9609847   6.0000000  )
        26           Ti1 tau(  26) = (   3.2902200   4.4714249   6.0002472  )
        27           O1  tau(  27) = (   0.0002396   2.9813036   7.9858123  )
        28           O1  tau(  28) = (   3.2902150   2.9813002   7.3038282  )
        29           O1  tau(  29) = (   4.5938453   4.4726049   9.2879030  )
        30           O1  tau(  30) = (   1.9864658   4.4711199   9.2879459  )
        31           Ti1 tau(  31) = (   3.2891106   5.8743827   9.1763621  )
        32           Ti1 tau(  32) = (   0.0006254   4.4649316   9.2693709  )
        33           O1  tau(  33) = (   3.2958891   2.9587481  11.3780895  )
        34           O1  tau(  34) = (   0.0092240   2.9805883  10.6323155  )
        35           O1  tau(  35) = (   1.2947421   4.4484190  12.6652604  )
        36           O1  tau(  36) = (   5.2996063   4.4466420  12.6515021  )
        37           Ti1 tau(  37) = (   0.0283143   5.9336383  12.5061025  )
        38           Ti1 tau(  38) = (   3.3214233   4.4478814  12.5310514  )
        39           O1  tau(  39) = (   6.5589476   3.0029366  14.9874712  )
        40           O1  tau(  40) = (   3.3011147   2.9794859  13.9794371  )
        41           O1  tau(  41) = (   4.5155863   4.4560770  16.2359875  )
        42           O1  tau(  42) = (   2.0187475   4.4548860  16.2131175  )
        43           Ti1 tau(  43) = (   3.3138217   5.9556645  15.8088081  )
        44           Ti1 tau(  44) = (   0.0451788   4.5003401  16.0524233  )
        45           O1  tau(  45) = (   3.2900926   2.9813045   4.7018136  )
        46           O1  tau(  46) = (   1.3039711   4.4726057   6.0039043  )
        47           O1  tau(  47) = (   5.2763189   4.4711207   6.0039473  )
        48           N1  tau(  48) = (   6.2013940   3.4221407  18.2524812  )
        49           C1  tau(  49) = (   0.6861764   3.1362451  19.0985974  )
        50           H1  tau(  50) = (   1.2250757   3.9700495  19.5149693  )
        51           H1  tau(  51) = (   1.1126790   2.1486344  19.0381404  )
        52           H1  tau(  52) = (   5.7034377   4.2789310  18.4761913  )
        53           H1  tau(  53) = (   5.5430662   2.6552022  18.1284619  )

     number of k points=    10  Fermi-Dirac smearing, width (Ry)=  0.0073
                       cart. coord. in units 2pi/alat
        k(    1) = (   0.0000000   0.0000000   0.0000000), wk =   0.1250000
        k(    2) = (   0.0000000   0.0419351   0.0000000), wk =   0.2500000
        k(    3) = (   0.0000000  -0.0838702   0.0000000), wk =   0.1250000
        k(    4) = (   0.0379955   0.0000049   0.0000000), wk =   0.2500000
        k(    5) = (   0.0379955   0.0419400   0.0000000), wk =   0.2500000
        k(    6) = (   0.0379955  -0.0838652   0.0000000), wk =   0.2500000
        k(    7) = (   0.0379955  -0.0419301   0.0000000), wk =   0.2500000
        k(    8) = (  -0.0759910  -0.0000099   0.0000000), wk =   0.1250000
        k(    9) = (  -0.0759910   0.0419252   0.0000000), wk =   0.2500000
        k(   10) = (  -0.0759910  -0.0838800   0.0000000), wk =   0.1250000

     Initial potential from superposition of free atoms

     starting charge  374.99916, renormalised to  391.00000

     negative rho (up, down):  1.685E-02 0.000E+00

     %%%%%%%%%%%%%%%%%%%%%%%%%%%%%%%%%%%%%%%%%%%%%%%%%%%%%%%%%%%%%%%%%%%%%%%%
     %                                                                      %
     % You are using vdW-DF, which was implemented by the Thonhauser group. %
     % Please cite the following two papers that made this development      %
     % possible and the two reviews that describe the various versions:     %
     %                                                                      %
     %   T. Thonhauser et al., PRL 115, 136402 (2015).                      %
     %   T. Thonhauser et al., PRB 76, 125112 (2007).                       %
     %   K. Berland et al., Rep. Prog. Phys. 78, 066501 (2015).             %
     %   D.C. Langreth et al., J. Phys.: Condens. Matter 21, 084203 (2009). %
     %                                                                      %
     %                                                                      %
     % If you are calculating the stress with vdW-DF, please also cite:     %
     %                                                                      %
     %   R. Sabatini et al., J. Phys.: Condens. Matter 24, 424209 (2012).   %
     %                                                                      %
     %%%%%%%%%%%%%%%%%%%%%%%%%%%%%%%%%%%%%%%%%%%%%%%%%%%%%%%%%%%%%%%%%%%%%%%%

     Adding external electric field

     Computed dipole along edir(3) :
        Dipole               -6.9313 Ry au,        -17.6176 Debye
        Dipole field         -0.0131 Ry au,

        Potential amp.        1.2125 Ry
        Total length         46.3494 bohr

     Starting wfcs are  296 atomic wfcs
  @ DRIVER MODE: Message from server: STATUS
  @ DRIVER MODE: Message from server: POSDATA
  @ DRIVER MODE: Reading and sharing cell
  @ DRIVER MODE: Reading and sharing positions
  @ DRIVER MODE: Received positions

     Self-consistent Calculation

     iteration #  1     ecut=    29.40 Ry     beta= 0.05
     Davidson diagonalization with overlap
     c_bands:  1 eigenvalues not converged
     ethr =  1.00E-05,  avg # of iterations = 15.4

[...]

     total energy              =   -2713.44769791 Ry
     estimated scf accuracy    <    2282.64654179 Ry

     iteration #  2     ecut=    29.40 Ry     beta= 0.05
     Davidson diagonalization with overlap
     ethr =  1.00E-02,  avg # of iterations = 18.4

[...]

     iteration # 73     ecut=    29.40 Ry     beta= 0.05
     Davidson diagonalization with overlap
     c_bands:  1 eigenvalues not converged
     ethr =  3.51E-11,  avg # of iterations = 12.3

[...]

     total energy              =   -2920.25696420 Ry
     estimated scf accuracy    <       0.00000007 Ry

     iteration # 75     ecut=    29.40 Ry     beta= 0.05
     Davidson diagonalization with overlap
     ethr =  1.90E-11,  avg # of iterations = 10.7

     negative rho (up, down):  1.611E-02 0.000E+00

     Adding external electric field

     Computed dipole along edir(3) :
        Dipole                0.8909 Ry au,          2.2645 Debye
        Dipole field          0.0017 Ry au,

        Potential amp.       -0.1559 Ry
        Total length         46.3494 bohr

     End of self-consistent calculation

          k = 0.0000 0.0000 0.0000 ( 18029 PWs)   bands (ev):

   -55.7242 -55.6882 -55.6757 -55.6416 -55.6136 -55.6043 -55.5699 -55.5484
   -55.5406 -55.5139 -55.5075 -55.4739 -55.4667 -55.3065 -54.7078 -54.6738
   -32.2895 -32.1687 -32.0923 -32.0592 -32.0449 -32.0374 -32.0342 -32.0135
   -31.9648 -31.9592 -31.9360 -31.9303 -31.9208 -31.8932 -31.8778 -31.8758
   -31.8630 -31.8517 -31.8439 -31.8283 -31.8230 -31.7900 -31.7829 -31.7790
   -31.7507 -31.7467 -31.7364 -31.7328 -31.7272 -31.7229 -31.7069 -31.7051
   -31.6969 -31.6940 -31.6735 -31.6618 -31.6594 -31.6442 -31.6354 -31.6191
   -31.5272 -31.4744 -31.1174 -31.0227 -31.0007 -30.9337 -30.8469 -30.7361
   -16.6727 -16.5308 -16.2753 -16.1153 -16.0205 -15.9237 -15.7924 -15.7649
   -15.6487 -15.5720 -15.4305 -15.3999 -15.3843 -15.3626 -15.3452 -15.3328
   -15.2717 -15.2657 -15.2459 -15.2201 -15.2170 -15.1701 -15.1653 -15.1249
   -15.1007 -15.0481 -14.9704 -14.8859 -14.8128 -14.4912 -13.2106 -13.0931
    -9.5198  -6.8583  -4.9318  -3.8886  -3.7451  -3.6765  -3.6268  -3.6177
    -3.4764  -3.3026  -3.1593  -3.1413  -3.0945  -2.9971  -2.9292  -2.9154
    -2.8910  -2.7493  -2.7351  -2.6809  -2.6540  -2.5767  -2.5722  -2.5290
    -2.5101  -2.4755  -2.4713  -2.4415  -2.3012  -2.2940  -2.2526  -2.1924
    -2.1333  -2.1306  -2.0754  -2.0561  -2.0147  -2.0054  -1.9965  -1.9537
    -1.9491  -1.9151  -1.8201  -1.7498  -1.6228  -1.5863  -1.4435  -1.3653
    -1.3177  -1.2975  -1.2167  -1.2096  -1.1500  -1.1050  -1.1032  -1.0632
    -0.9517  -0.8701  -0.8177  -0.7601  -0.7261  -0.7096  -0.6249  -0.5273
    -0.5039  -0.4912  -0.4551  -0.3555  -0.3305  -0.2695  -0.2055  -0.1932
    -0.1803  -0.0950  -0.0577   0.0147   0.0649   0.0848   0.1618   0.1840
     0.2076   0.2135   0.2442   0.2601   0.3317   0.3509   0.3758   0.4632
     0.5838   0.8262   0.8851   0.8939   1.2140   1.2191   1.3148   1.4979
     1.8913   1.9397   3.3688   3.3864   3.4505   3.5189   3.5226   3.5846
     3.6096   3.8559   3.8754   3.8834   3.9010

[...]

          k = 0.0380-0.0419 0.0000 ( 17876 PWs)   bands (ev):

[...]

          k =-0.0760-0.0000 0.0000 ( 17886 PWs)   bands (ev):

[...]

          k =-0.0760-0.0839 0.0000 ( 17948 PWs)   bands (ev):

   -55.7075 -55.7047 -55.6587 -55.6584 -55.6093 -55.5879 -55.5862 -55.5447
   -55.5329 -55.5290 -55.4911 -55.4904 -55.4646 -55.3086 -54.6909 -54.6906
   -32.0952 -32.0926 -32.0020 -31.9838 -31.9836 -31.9810 -31.9710 -31.9501
   -31.9500 -31.9339 -31.9274 -31.9204 -31.9159 -31.8766 -31.8681 -31.8651
   -31.8608 -31.8560 -31.8517 -31.8468 -31.8331 -31.8141 -31.8023 -31.8014
   -31.7829 -31.7791 -31.7784 -31.7780 -31.7659 -31.7619 -31.7456 -31.7435
   -31.7416 -31.7320 -31.7241 -31.7213 -31.6876 -31.6713 -31.6708 -31.6519
   -31.5666 -31.5293 -31.0135 -31.0132 -30.9300 -30.9297 -30.8904 -30.8903
   -16.6391 -16.0403 -15.9478 -15.9098 -15.7618 -15.7241 -15.6891 -15.6768
   -15.5542 -15.5280 -15.5024 -15.4814 -15.4460 -15.4298 -15.4228 -15.3751
   -15.3435 -15.3240 -15.3184 -15.3063 -15.2433 -15.2354 -15.2315 -15.2245
   -15.1749 -15.1714 -15.0805 -15.0775 -15.0651 -14.7765 -13.1946 -13.1945
    -9.5214  -6.8406  -4.9124  -3.2174  -3.1953  -3.1630  -3.1363  -2.9803
    -2.9122  -2.8974  -2.8765  -2.7984  -2.7578  -2.7367  -2.6959  -2.6848
    -2.6328  -2.6061  -2.5783  -2.5625  -2.5581  -2.5416  -2.5207  -2.4862
    -2.4577  -2.4549  -2.4444  -2.4040  -2.3768  -2.3630  -2.3290  -2.3194
    -2.3120  -2.2824  -2.2226  -2.1165  -2.0928  -2.0605  -1.9664  -1.9333
    -1.9285  -1.8482  -1.8179  -1.7596  -1.7566  -1.7456  -1.5988  -1.5169
    -1.4739  -1.4713  -1.4492  -1.3221  -1.3128  -1.2280  -1.2056  -1.1958
    -1.1070  -1.0829  -1.0451  -1.0196  -0.9371  -0.9118  -0.8459  -0.7578
    -0.7214  -0.7134  -0.6816  -0.6789  -0.6298  -0.6183  -0.5372  -0.4949
    -0.4587  -0.4486  -0.4075  -0.2229  -0.2059  -0.1629  -0.0343   0.0115
     0.1435   0.1611   0.2257   0.3022   0.3344   0.3886   0.4247   0.5708
     0.5807   0.6131   0.6573   0.6667   0.7264   0.7356   1.6709   1.6716
     1.7595   1.7598   3.3904   3.6175   3.6241   3.6631   3.6859   3.8387
     3.8893   3.9275   3.9530   3.9583   3.9740

     the Fermi energy is     3.4366 ev

!    total energy              =   -2920.25697372 Ry
     estimated scf accuracy    <       0.00000003 Ry
     smearing contrib. (-TS)   =      -0.04299434 Ry
     internal energy E=F+TS    =   -2920.21397939 Ry

     The total energy is F=E-TS. E is the sum of the following terms:
     one-electron contribution =  -24044.43721624 Ry
     hartree contribution      =   12108.34030266 Ry
     xc contribution           =    -480.85726527 Ry
     ewald contribution        =    9496.73870155 Ry
     electric field correction =       0.00149792 Ry

     convergence has been achieved in  75 iterations

     Forces acting on atoms (cartesian axes, Ry/au):

     atom    1 type  1   force =     0.00008637   -0.00016257    0.09316659
     atom    2 type  1   force =    -0.00020066   -0.00025009   -0.17847988
     atom    3 type  2   force =     0.00003852   -0.00036939   -0.02007464
     atom    4 type  2   force =    -0.00001969   -0.00199661    0.05916957
     atom    5 type  2   force =    -0.01040772   -0.00114027    0.00789084
     atom    6 type  2   force =     0.01196576   -0.00052218    0.00731672
     atom    7 type  1   force =    -0.00041581    0.00230423   -0.01387819
     atom    8 type  1   force =     0.00004048   -0.00144904   -0.00478000
     atom    9 type  2   force =     0.00000271   -0.00028650   -0.00033713
     atom   10 type  2   force =    -0.00082768    0.00065868    0.00150944
     atom   11 type  2   force =     0.00010399   -0.00003911    0.00024617
     atom   12 type  2   force =    -0.00008026    0.00008845    0.00032917
     atom   13 type  1   force =    -0.00057191    0.00062048   -0.00008748
     atom   14 type  1   force =     0.00026007    0.00021600    0.00009389
     atom   15 type  2   force =    -0.00017785    0.00057034    0.00038549
     atom   16 type  2   force =    -0.00016455   -0.00006139   -0.00009960
     atom   17 type  2   force =    -0.00015037   -0.00006138   -0.00002717
     atom   18 type  2   force =    -0.00019983   -0.00013391   -0.00041690
     atom   19 type  1   force =    -0.00002419    0.00009776   -0.00010872
     atom   20 type  1   force =    -0.00011724   -0.00015533   -0.00012945
     atom   21 type  2   force =     0.00001242   -0.00001534    0.10398143
     atom   22 type  2   force =     0.00000673    0.00045022    0.00064664
     atom   23 type  2   force =    -0.07036725   -0.00010536   -0.02689703
     atom   24 type  2   force =     0.07018208    0.00032534   -0.02695567
     atom   25 type  1   force =    -0.00000850   -0.00012784    0.09255551
     atom   26 type  1   force =    -0.00017714   -0.00039192   -0.17852219
     atom   27 type  2   force =     0.00009498   -0.00026754   -0.01915937
     atom   28 type  2   force =     0.00002833   -0.00176246    0.05848850
     atom   29 type  2   force =    -0.01089721   -0.00133031    0.00842713
     atom   30 type  2   force =     0.01234964   -0.00099106    0.00777592
     atom   31 type  1   force =    -0.00022685    0.00598578   -0.01475358
     atom   32 type  1   force =     0.00005793    0.00099358   -0.00536475
     atom   33 type  2   force =    -0.00030631    0.00024039    0.00015837
     atom   34 type  2   force =    -0.00022293   -0.00291121    0.00009228
     atom   35 type  2   force =     0.00060625    0.00021950   -0.00004381
     atom   36 type  2   force =    -0.00065369    0.00017952   -0.00027076
     atom   37 type  1   force =    -0.00055174   -0.00047330   -0.00007881
     atom   38 type  1   force =     0.00016480   -0.00050508    0.00011712
     atom   39 type  2   force =     0.00003595   -0.00023008    0.00036395
     atom   40 type  2   force =    -0.00001061    0.00044900   -0.00057010
     atom   41 type  2   force =    -0.00009502    0.00049454   -0.00018926
     atom   42 type  2   force =     0.00010396    0.00054485   -0.00010424
     atom   43 type  1   force =    -0.00007075    0.00028675   -0.00066654
     atom   44 type  1   force =    -0.00052400   -0.00026205    0.00019604
     atom   45 type  2   force =     0.00000362   -0.00002527    0.10395257
     atom   46 type  2   force =    -0.07034103   -0.00005053   -0.02686397
     atom   47 type  2   force =     0.07017586    0.00037683   -0.02691260
     atom   48 type  3   force =    -0.00125228    0.00084361    0.00017639
     atom   49 type  4   force =     0.00101599   -0.00171034   -0.00200096
     atom   50 type  5   force =     0.00048660   -0.00036343   -0.00043037
     atom   51 type  5   force =     0.00029242    0.00139144    0.00110440
     atom   52 type  5   force =     0.00043795   -0.00031578    0.00019673
     atom   53 type  5   force =     0.00050963    0.00112938   -0.00013768

     Total force =     0.366403     Total SCF correction =     0.000402
  @ DRIVER MODE: Message from server: STATUS
  @ DRIVER MODE: Message from server: GETFORCE
  @ DRIVER MODE: Returning v,forces,stress,ensemble

     Writing output data file ./calc.save/
  @ DRIVER MODE: Message from server: EXIT
  @ DRIVE MODE: Exiting

     General routines

     Parallel routines

   This run was terminated on:  18:18:26  24Aug2021

   JOB DONE.