     Program PWSCF v.6.8 starts on 30Aug2021 at 14:39:25

     R & G space division:  proc/nbgrp/npool/nimage =      24

     Reading input from /storage/home/hcoda1/3/ntian30/research/carbon/methanol/ads_slab/CH3OHN2_Z/methanol.log/pw.inp
Warning: card &CELL ignored
Warning: card   CELL_DYNAMICS='IPI', ignored
Warning: card / ignored

     Current dimensions of program PWSCF are:
     Max number of different atomic species (ntypx) = 10
     Max number of k-points (npk) =  40000
     Max angular momentum in pseudopotentials (lmaxx) =  4
     Presently no symmetry can be used with electric field

     Message from routine cell_base_init:
     DEPRECATED: use true lattice parameter, not A to a.u. conversion factor

     IMPORTANT: XC functional enforced from input :
     Exchange-correlation= BEEF-VDW
                           (   1   4  43  14   2   0   0)
     Any further DFT definition will be discarded
     Please, verify this is what you really want

  @ DRIVER MODE: Connecting to
 qe_1139763_2685210.sched-torque.pace.gatech.eduhh5vqmgm_scratch
  using UNIX socket
  @ DRIVER MODE: Message from server: STATUS
  @ DRIVER MODE: Message from server: INIT
  @ DRIVER MODE: Receiving replica           0          -1
  @ DRIVER MODE: Receiving encoded integer          25
  @ DRIVER MODE:  SCF:  T  FORCE:  T  STRESS:  F  VC:  F  ENSEMBLE:  F
  @ DRIVER MODE:  SCF:  T  FORCE:  T  STRESS:  F  VC:  F  ENSEMBLE:  F

     Using Slab Decomposition

     bravais-lattice index     =            0
     lattice parameter (alat)  =       1.8897  a.u.
     unit-cell volume          =    6658.9804 (a.u.)^3
     number of atoms/cell      =           55
     number of atomic types    =            5
     number of electrons       =       402.00
     number of Kohn-Sham states=          211
     kinetic-energy cutoff     =      29.3995  Ry
     charge density cutoff     =     293.9946  Ry
     scf convergence threshold =      7.3E-08
     mixing beta               =       0.0500
     number of iterations used =            8  plain     mixing
     Exchange-correlation= BEEF-VDW
                           (   1   4  43  14   2   0   0)

     celldm(1)=   1.889726  celldm(2)=   0.000000  celldm(3)=   0.000000
     celldm(4)=   0.000000  celldm(5)=   0.000000  celldm(6)=   0.000000

     crystal axes: (cart. coord. in units of alat)
               a(1) = (   6.579727   0.000000   0.000000 )
               a(2) = (  -0.000775   5.961596   0.000000 )
               a(3) = (   0.000000   0.000000  25.155947 )

     reciprocal axes: (cart. coord. in units 2 pi/alat)
               b(1) = (  0.151982  0.000020  0.000000 )
               b(2) = (  0.000000  0.167740  0.000000 )
               b(3) = (  0.000000  0.000000  0.039752 )

     PseudoPot. # 1 for Ti read from file:
     /storage/coda1/p-amedford6/0/shared/rich_project_chbe-medford/medford-share/data/pseudos_module/espresso/nninc/pbe/van/Ti.UPF
     MD5 check sum: 8e4df49b7f0d34bbd5052bf3f5ea0213
     Pseudo is Ultrasoft, Zval = 12.0
     Generated by new atomic code, or converted to UPF format
     Using radial grid of  851 points,  6 beta functions with:
                l(1) =   0
                l(2) =   0
                l(3) =   1
                l(4) =   1
                l(5) =   2
                l(6) =   2
     Q(r) pseudized with  8 coefficients,  rinner =    1.000   1.000   1.000
                                                       1.000   1.000

     PseudoPot. # 2 for O  read from file:
     /storage/coda1/p-amedford6/0/shared/rich_project_chbe-medford/medford-share/data/pseudos_module/espresso/nninc/pbe/van/O.UPF
     MD5 check sum: 78c19812648e8988a0fe644b0f25305e
     Pseudo is Ultrasoft, Zval =  6.0
     Generated by new atomic code, or converted to UPF format
     Using radial grid of  737 points,  4 beta functions with:
                l(1) =   0
                l(2) =   0
                l(3) =   1
                l(4) =   1
     Q(r) pseudized with  8 coefficients,  rinner =    0.800   0.800   0.800

     PseudoPot. # 3 for C  read from file:
     /storage/coda1/p-amedford6/0/shared/rich_project_chbe-medford/medford-share/data/pseudos_module/espresso/nninc/pbe/van/C.UPF
     MD5 check sum: 1a69bf6b8db32088f5b2163dbdb77a27
     Pseudo is Ultrasoft, Zval =  4.0
     Generated by new atomic code, or converted to UPF format
     Using radial grid of  721 points,  4 beta functions with:
                l(1) =   0
                l(2) =   0
                l(3) =   1
                l(4) =   1
     Q(r) pseudized with  8 coefficients,  rinner =    0.800   0.800   0.800

     PseudoPot. # 4 for H  read from file:
     /storage/coda1/p-amedford6/0/shared/rich_project_chbe-medford/medford-share/data/pseudos_module/espresso/nninc/pbe/van/H.UPF
     MD5 check sum: b5ee9d7bfd3a09ee7748110bda690ff7
     Pseudo is Ultrasoft, Zval =  1.0
     Generated by new atomic code, or converted to UPF format
     Using radial grid of  615 points,  1 beta functions with:
                l(1) =   0
     Q(r) pseudized with  8 coefficients,  rinner =    0.800

     PseudoPot. # 5 for N  read from file:
     /storage/coda1/p-amedford6/0/shared/rich_project_chbe-medford/medford-share/data/pseudos_module/espresso/nninc/pbe/van/N.UPF
     MD5 check sum: 90d10febe142ad51ac9d5be1deb811c4
     Pseudo is Ultrasoft, Zval =  5.0
     Generated by new atomic code, or converted to UPF format
     Using radial grid of  729 points,  4 beta functions with:
                l(1) =   0
                l(2) =   0
                l(3) =   1
                l(4) =   1
     Q(r) pseudized with  8 coefficients,  rinner =    0.800   0.800   0.800

     atomic species   valence    mass     pseudopotential
        Ti1           12.00    47.86700     Ti( 1.00)
        O1             6.00    15.99900     O ( 1.00)
        C1             4.00    12.01100     C ( 1.00)
        H1             1.00     1.00800     H ( 1.00)
        N1             5.00    14.00700     N ( 1.00)

     No symmetry found

   Cartesian axes

     site n.     atom                  positions (alat units)
         1           Ti1 tau(   1) = (   0.0004258   2.9801865   6.0000000  )
         2           Ti1 tau(   2) = (   3.2906075   1.4906267   6.0002472  )
         3           O1  tau(   3) = (   0.0006271   0.0005054   7.9858123  )
         4           O1  tau(   4) = (   3.2906025   0.0005020   7.3038282  )
         5           O1  tau(   5) = (   4.5942328   1.4918067   9.2879030  )
         6           O1  tau(   6) = (   1.9868534   1.4903216   9.2879459  )
         7           Ti1 tau(   7) = (   3.3158351   2.9795272   9.1571407  )
         8           Ti1 tau(   8) = (   0.0345117   1.4954568   9.2575666  )
         9           O1  tau(   9) = (   3.2804148   0.0005216  11.3961210  )
        10           O1  tau(  10) = (   6.5754384   0.0027490  10.6104223  )
        11           O1  tau(  11) = (   1.2711157   1.5048091  12.6625889  )
        12           O1  tau(  12) = (   5.2819882   1.5086244  12.6575238  )
        13           Ti1 tau(  13) = (   6.5611464   2.9928142  12.4891984  )
        14           Ti1 tau(  14) = (   3.2628853   1.4881963  12.5400211  )
        15           O1  tau(  15) = (   6.5462708   0.0383706  14.6849076  )
        16           O1  tau(  16) = (   3.2762351   0.0314270  14.0210983  )
        17           O1  tau(  17) = (   4.5480503   1.5258664  16.2093047  )
        18           O1  tau(  18) = (   2.0091799   1.5236472  16.2076768  )
        19           Ti1 tau(  19) = (   3.2615833   3.0079505  15.7899682  )
        20           Ti1 tau(  20) = (   6.5461430   1.3591503  15.9841226  )
        21           O1  tau(  21) = (   3.2904802   0.0005063   4.7018136  )
        22           O1  tau(  22) = (   0.0055641   5.9323274  17.2271586  )
        23           O1  tau(  23) = (   1.3043587   1.4918075   6.0039043  )
        24           O1  tau(  24) = (   5.2767064   1.4903225   6.0039473  )
        25           Ti1 tau(  25) = (   0.0000382   5.9609847   6.0000000  )
        26           Ti1 tau(  26) = (   3.2902200   4.4714249   6.0002472  )
        27           O1  tau(  27) = (   0.0002396   2.9813036   7.9858123  )
        28           O1  tau(  28) = (   3.2902150   2.9813002   7.3038282  )
        29           O1  tau(  29) = (   4.5938453   4.4726049   9.2879030  )
        30           O1  tau(  30) = (   1.9864658   4.4711199   9.2879459  )
        31           Ti1 tau(  31) = (   3.3150948   5.9586858   9.1561628  )
        32           Ti1 tau(  32) = (   0.0340967   4.4763829   9.2524718  )
        33           O1  tau(  33) = (   3.2753113   2.9914731  11.3901290  )
        34           O1  tau(  34) = (   6.5780236   2.9893894  10.6266999  )
        35           O1  tau(  35) = (   1.2714098   4.4783180  12.6834591  )
        36           O1  tau(  36) = (   5.2817444   4.4746391  12.6770453  )
        37           Ti1 tau(  37) = (   6.5518553   0.0146490  12.4787168  )
        38           Ti1 tau(  38) = (   3.2609386   4.4666435  12.5436525  )
        39           O1  tau(  39) = (   6.5727554   2.9765611  15.0046942  )
        40           O1  tau(  40) = (   3.2753211   2.9893216  13.9945429  )
        41           O1  tau(  41) = (   4.5407595   4.4795142  16.1711177  )
        42           O1  tau(  42) = (   2.0079144   4.4851887  16.1445895  )
        43           Ti1 tau(  43) = (   3.2645986   0.0272911  15.8248446  )
        44           Ti1 tau(  44) = (   6.5393768   4.6192689  15.8991084  )
        45           O1  tau(  45) = (   3.2900926   2.9813045   4.7018136  )
        46           O1  tau(  46) = (   1.3039711   4.4726057   6.0039043  )
        47           O1  tau(  47) = (   5.2763189   4.4711207   6.0039473  )
        48           C1  tau(  48) = (   0.2825875   3.2559775  19.2685358  )
        49           O1  tau(  49) = (   1.2951032   4.2390751  19.3812768  )
        50           H1  tau(  50) = (   0.6415048   2.3562466  19.7635977  )
        51           H1  tau(  51) = (   0.9956314   5.0335145  18.9054436  )
        52           H1  tau(  52) = (   5.9119845   3.5690521  19.7114027  )
        53           H1  tau(  53) = (   0.0782633   2.9856970  18.2099924  )
        54           N1  tau(  54) = (   6.5461430   1.0591503  19.2841226  )
        55           N1  tau(  55) = (   6.5461430   1.0591503  18.1541426  )

     number of k points=    10  Fermi-Dirac smearing, width (Ry)=  0.0073
                       cart. coord. in units 2pi/alat
        k(    1) = (   0.0000000   0.0000000   0.0000000), wk =   0.1250000
        k(    2) = (   0.0000000   0.0419351   0.0000000), wk =   0.2500000
        k(    3) = (   0.0000000  -0.0838702   0.0000000), wk =   0.1250000
        k(    4) = (   0.0379955   0.0000049   0.0000000), wk =   0.2500000
        k(    5) = (   0.0379955   0.0419400   0.0000000), wk =   0.2500000
        k(    6) = (   0.0379955  -0.0838652   0.0000000), wk =   0.2500000
        k(    7) = (   0.0379955  -0.0419301   0.0000000), wk =   0.2500000
        k(    8) = (  -0.0759910  -0.0000099   0.0000000), wk =   0.1250000
        k(    9) = (  -0.0759910   0.0419252   0.0000000), wk =   0.2500000
[...]
        43           Ti1 tau(  43) = (   3.2624803   5.7793422  15.7582459  )
        44           Ti1 tau(  44) = (   6.5370191   4.4132052  15.7812380  )
        45           O1  tau(  45) = (   3.2900926   2.9813045   4.7018136  )
        46           O1  tau(  46) = (   1.3039711   4.4726057   6.0039043  )
        47           O1  tau(  47) = (   5.2763189   4.4711207   6.0039473  )
        48           C1  tau(  48) = (   0.7624817   3.8937947  19.6726680  )
        49           O1  tau(  49) = (   1.6873909   4.9791955  19.5031388  )
        50           H1  tau(  50) = (   1.1897726   3.1737120  20.3767267  )
        51           H1  tau(  51) = (   1.4162540   5.4492901  18.6985161  )
        52           H1  tau(  52) = (   6.3738915   4.2520321  20.0477357  )
        53           H1  tau(  53) = (   0.6066641   3.3984936  18.7163777  )
        54           N1  tau(  54) = (   4.9501970   0.8399782  20.2553173  )
        55           N1  tau(  55) = (   5.3199496   1.3820427  19.3599777  )

     number of k points=    10  Fermi-Dirac smearing, width (Ry)=  0.0073
                       cart. coord. in units 2pi/alat
        k(    1) = (   0.0000000   0.0000000   0.0000000), wk =   0.1250000
        k(    2) = (   0.0000000   0.0419351   0.0000000), wk =   0.2500000
        k(    3) = (   0.0000000  -0.0838702   0.0000000), wk =   0.1250000
        k(    4) = (   0.0379955   0.0000049   0.0000000), wk =   0.2500000
        k(    5) = (   0.0379955   0.0419400   0.0000000), wk =   0.2500000
        k(    6) = (   0.0379955  -0.0838652   0.0000000), wk =   0.2500000
        k(    7) = (   0.0379955  -0.0419301   0.0000000), wk =   0.2500000
        k(    8) = (  -0.0759910  -0.0000099   0.0000000), wk =   0.1250000
        k(    9) = (  -0.0759910   0.0419252   0.0000000), wk =   0.2500000
        k(   10) = (  -0.0759910  -0.0838800   0.0000000), wk =   0.1250000

     Initial potential from superposition of free atoms

     starting charge  385.99915, renormalised to  402.00000

[...]

     %%%%%%%%%%%%%%%%%%%%%%%%%%%%%%%%%%%%%%%%%%%%%%%%%%%%%%%%%%%%%%%%%%%%%%%%
     %                                                                      %
     % You are using vdW-DF, which was implemented by the Thonhauser group. %
     % Please cite the following two papers that made this development      %
     % possible and the two reviews that describe the various versions:     %
     %                                                                      %
     %   T. Thonhauser et al., PRL 115, 136402 (2015).                      %
     %   T. Thonhauser et al., PRB 76, 125112 (2007).                       %
     %   K. Berland et al., Rep. Prog. Phys. 78, 066501 (2015).             %
     %   D.C. Langreth et al., J. Phys.: Condens. Matter 21, 084203 (2009). %
     %                                                                      %
     %                                                                      %
     % If you are calculating the stress with vdW-DF, please also cite:     %
     %                                                                      %
     %   R. Sabatini et al., J. Phys.: Condens. Matter 24, 424209 (2012).   %
     %                                                                      %
     %%%%%%%%%%%%%%%%%%%%%%%%%%%%%%%%%%%%%%%%%%%%%%%%%%%%%%%%%%%%%%%%%%%%%%%%

[...]

     Starting wfcs are  304 atomic wfcs
  @ DRIVER MODE: Message from server: STATUS
  @ DRIVER MODE: Message from server: POSDATA
  @ DRIVER MODE: Reading and sharing cell
  @ DRIVER MODE: Reading and sharing positions
  @ DRIVER MODE: Received positions

[...]

     Self-consistent Calculation

[...]

     iteration # 16     ecut=    29.40 Ry     beta= 0.05
     Davidson diagonalization with overlap
     ethr =  1.09E-10,  avg # of iterations =  8.6

[...]

     total energy              =   -2972.78684386 Ry
     estimated scf accuracy    <       0.00000008 Ry

     iteration # 17     ecut=    29.40 Ry     beta= 0.05
     Davidson diagonalization with overlap
     c_bands:  1 eigenvalues not converged
     ethr =  1.89E-11,  avg # of iterations = 15.2

[...]

     End of self-consistent calculation

[...]

          k = 0.0380-0.0419 0.0000 ( 17876 PWs)   bands (ev):

[...]

          k =-0.0760-0.0839 0.0000 ( 17948 PWs)   bands (ev):

   -55.8648 -55.8644 -55.8192 -55.8186 -55.7678 -55.7348 -55.7337 -55.7134
   -55.7124 -55.7088 -55.7030 -55.6594 -55.6460 -55.6456 -54.9299 -54.9298
   -32.3379 -32.2484 -32.2472 -32.1531 -32.1525 -32.1502 -32.1360 -32.1120
   -32.1118 -32.0819 -32.0779 -32.0767 -32.0735 -32.0363 -32.0297 -32.0287
   -32.0275 -32.0270 -32.0162 -32.0036 -32.0019 -31.9995 -31.9945 -31.9736
   -31.9703 -31.9640 -31.9627 -31.9622 -31.9370 -31.9366 -31.9281 -31.9266
   -31.9103 -31.9094 -31.8891 -31.8824 -31.8787 -31.8777 -31.8600 -31.8453
   -31.8322 -31.8314 -31.2467 -31.2466 -31.1725 -31.1723 -31.1325 -31.1325
   -20.4757 -17.5402 -16.4497 -16.0639 -16.0228 -15.9492 -15.9410 -15.8317
   -15.8122 -15.7354 -15.6891 -15.6602 -15.6584 -15.6222 -15.5838 -15.5802
   -15.5607 -15.5056 -15.4898 -15.4629 -15.4527 -15.4055 -15.4032 -15.4013
   -15.3999 -15.3696 -15.3635 -15.3240 -15.3190 -15.2517 -15.1132 -13.4295
   -13.4294  -9.0474  -5.6924  -4.6052  -3.6347  -3.6074  -3.4642  -3.3329
    -3.2733  -3.1758  -3.1153  -3.0569  -3.0123  -3.0047  -2.9353  -2.9265
    -2.8875  -2.8830  -2.7986  -2.7888  -2.7826  -2.7761  -2.7077  -2.7010
    -2.6749  -2.6562  -2.6418  -2.6042  -2.5945  -2.5890  -2.5574  -2.5518
    -2.5483  -2.5361  -2.5263  -2.5024  -2.4923  -2.4742  -2.4340  -2.3690
    -2.2845  -2.2769  -2.1831  -2.1267  -2.1249  -2.0482  -2.0353  -2.0015
    -1.9604  -1.9185  -1.8742  -1.7147  -1.6867  -1.6829  -1.6239  -1.5937
    -1.5213  -1.4676  -1.4452  -1.4030  -1.3640  -1.2131  -1.2075  -1.1699
    -1.0846  -1.0729  -0.9949  -0.9357  -0.8900  -0.8784  -0.8766  -0.8491
    -0.8399  -0.8124  -0.7273  -0.6783  -0.6379  -0.6263  -0.6078  -0.4440
    -0.3821  -0.3515  -0.3352  -0.2244  -0.0937   0.0123   0.0238   0.1023
     0.1803   0.1974   0.2008   0.2296   0.3560   0.3663   0.4422   0.4780
     0.4866   0.5273   0.5321   1.4273   1.4285   1.5301   1.5352   1.5357
     3.3790   3.4510   3.4872   3.5255   3.6611   3.6645   3.7164   3.7580
     3.7686   3.7772   3.8411

     the Fermi energy is     3.2773 ev

!    total energy              =   -2972.78684400 Ry
     estimated scf accuracy    <       0.00000005 Ry
     smearing contrib. (-TS)   =      -0.03677402 Ry
     internal energy E=F+TS    =   -2972.75006998 Ry

     The total energy is F=E-TS. E is the sum of the following terms:
     one-electron contribution =  -22360.45663435 Ry
     hartree contribution      =   11270.46118879 Ry
     xc contribution           =    -493.16634879 Ry
     ewald contribution        =    8610.41152873 Ry
     electric field correction =       0.00019564 Ry

     convergence has been achieved in  17 iterations

     Forces acting on atoms (cartesian axes, Ry/au):

     atom    1 type  1   force =    -0.00003049    0.00003560    0.08944992
     atom    2 type  1   force =    -0.00008281    0.00028603   -0.18415797
     atom    3 type  2   force =     0.00038379    0.00057632   -0.02441301
     atom    4 type  2   force =     0.00069482    0.00016065    0.05302983
     atom    5 type  2   force =    -0.01396520    0.00028849    0.00643241
     atom    6 type  2   force =     0.01335238    0.00043241    0.00580473
     atom    7 type  1   force =    -0.00041508   -0.00108964    0.00016874
     atom    8 type  1   force =     0.00054212    0.00045538    0.00059635
     atom    9 type  2   force =    -0.00016361    0.00017417   -0.00012705
     atom   10 type  2   force =    -0.00009419   -0.00002135   -0.00050729
     atom   11 type  2   force =    -0.00009903    0.00020955    0.00041434
     atom   12 type  2   force =     0.00024469    0.00013862    0.00046911
     atom   13 type  1   force =    -0.00084398    0.00081062   -0.00014562
     atom   14 type  1   force =     0.00004122    0.00064162   -0.00031761
     atom   15 type  2   force =     0.00018816   -0.00030412   -0.00027721
     atom   16 type  2   force =    -0.00014965   -0.00034530   -0.00085230
     atom   17 type  2   force =     0.00060073   -0.00042815    0.00005551
     atom   18 type  2   force =    -0.00053271   -0.00029979    0.00036657
     atom   19 type  1   force =     0.00008298   -0.00015749   -0.00028145
     atom   20 type  1   force =     0.00037043    0.00108371    0.00032593
     atom   21 type  2   force =     0.00007187    0.00001382    0.10523459
     atom   22 type  2   force =    -0.00014519   -0.00052243    0.00011120
     atom   23 type  2   force =    -0.06765736   -0.00032769   -0.02597555
     atom   24 type  2   force =     0.06754251    0.00007015   -0.02603197
     atom   25 type  1   force =    -0.00014453   -0.00005972    0.08878300
     atom   26 type  1   force =    -0.00020416   -0.00037514   -0.18424986
     atom   27 type  2   force =     0.00031919    0.00045669   -0.02332943
     atom   28 type  2   force =     0.00048458    0.00032977    0.05289677
     atom   29 type  2   force =    -0.01409881    0.00034301    0.00619391
     atom   30 type  2   force =     0.01349264    0.00058695    0.00556479
     atom   31 type  1   force =    -0.00056083    0.00104202    0.00001970
     atom   32 type  1   force =     0.00043096   -0.00036713    0.00035219
     atom   33 type  2   force =     0.00001515   -0.00002058   -0.00004196
     atom   34 type  2   force =    -0.00001291   -0.00005593    0.00037220
     atom   35 type  2   force =     0.00012346   -0.00001420   -0.00014582
     atom   36 type  2   force =     0.00021739    0.00007541   -0.00022017
     atom   37 type  1   force =    -0.00084006   -0.00088704    0.00052449
     atom   38 type  1   force =     0.00016366    0.00011347   -0.00070278
     atom   39 type  2   force =    -0.00011319   -0.00111092   -0.00014119
     atom   40 type  2   force =    -0.00005975   -0.00069588    0.00060774
     atom   41 type  2   force =     0.00013177   -0.00034952    0.00042630
     atom   42 type  2   force =    -0.00038374   -0.00047175    0.00028820
     atom   43 type  1   force =    -0.00005272   -0.00022645    0.00035004
     atom   44 type  1   force =     0.00009362   -0.00003999    0.00053260
     atom   45 type  2   force =     0.00003387    0.00003040    0.10518891
     atom   46 type  2   force =    -0.06767600   -0.00028925   -0.02596194
     atom   47 type  2   force =     0.06754958    0.00020471   -0.02604588
     atom   48 type  3   force =     0.00034502   -0.00048775    0.00030397
     atom   49 type  2   force =     0.00019646    0.00006111   -0.00018633
     atom   50 type  4   force =     0.00012264    0.00024684   -0.00034021
     atom   51 type  4   force =     0.00014561    0.00032007   -0.00032364
     atom   52 type  4   force =     0.00017744   -0.00059534    0.00018052
     atom   53 type  4   force =     0.00039126    0.00019552    0.00033434
     atom   54 type  5   force =     0.00078758   -0.00145265   -0.00035734
     atom   55 type  5   force =    -0.00101158    0.00161208   -0.00024532

     Total force =     0.366809     Total SCF correction =     0.000941
  @ DRIVER MODE: Message from server: STATUS
  @ DRIVER MODE: Message from server: GETFORCE
  @ DRIVER MODE: Returning v,forces,stress,ensemble

     Writing config to output data dir ./calc.save/
  @ DRIVER MODE: Message from server: STATUS
  @ DRIVER MODE: Message from server: INIT
  @ DRIVER MODE: Receiving replica           0           0
  @ DRIVER MODE: Receiving encoded integer           2
  @ DRIVER MODE:  SCF:  T  FORCE:  T  STRESS:  F  VC:  F  ENSEMBLE:  F
  @ DRIVER MODE:  SCF:  F  FORCE:  F  STRESS:  F  VC:  F  ENSEMBLE:  T
  @ DRIVER MODE: Message from server: STATUS
  @ DRIVER MODE: Message from server: POSDATA
  @ DRIVER MODE: Reading and sharing positions
  @ DRIVER MODE: Received positions
     NEW-OLD atomic charge density approx. for the potential

[...]

     Adding external electric field

     Computed dipole along edir(3) :
        Dipole                0.3220 Ry au,          0.8184 Debye
        Dipole field          0.0006 Ry au,

        Potential amp.       -0.0563 Ry
        Total length         46.3494 bohr

  @ DRIVER MODE: BEEF-vdw

[...]

     negative rho (up, down):  1.337E-02 0.000E+00

     negative rho (up, down):  1.337E-02 0.000E+00
 BEEFens 2000 ensemble energies
             -0.354102603360853E+02
             -0.203286765213667E+01
             -0.731381928263922E+01
              0.245566301975430E+02
             -0.121771487370164E+02
             -0.941902493244490E+01
             -0.246079715517220E+02
             -0.514263546469250E+02
             -0.219604615378045E+02
             -0.230768914822322E+02
             -0.213569928449705E+02
              0.429775785101101E+01
              0.203030618929556E+01
             -0.107208837319256E+01
              0.178157354084793E+01
              0.270416063333379E+02
             -0.104804559823962E+02
             -0.738905294477622E+01
              0.119467133003863E+02
             -0.632422049338862E+02
              0.316513881263288E+02
             -0.135418271993667E+02
             -0.247954211039336E+01
             -0.572680993922569E+01
             -0.949113801336921E+00
             -0.222942702666256E+01
              0.490843137724305E+02
             -0.152370967025584E+02
             -0.415942043963651E+01
             -0.309862728512533E+02
              0.400993142618689E+02
             -0.446186607223258E+01
             -0.218182422563330E+02
              0.114705168154627E+02
             -0.208988588561664E+01
              0.132621683897814E+02
             -0.556892703986051E+00
              0.279237595852291E+01
              0.192906522017567E+02
             -0.558615868842203E+02
              0.311288157712280E+02
              0.827611575510787E+01
             -0.637134041958424E+01
             -0.178602986174092E+02
              0.703946001050539E+01
             -0.111391755963373E+02
              0.254283507410159E+02
              0.203011347083838E+02
             -0.130842804518389E+02
             -0.166978277013466E+02
             -0.176059605462223E+02
             -0.212395118279859E+02
              0.107748374404828E+02
             -0.277108522636787E+02
              0.849206897435528E+01
              0.353394943257029E+02
              0.407022337201357E+02
              0.189911082549584E+02
              0.854864683849766E+01
              0.177150010285803E+02
[...]
             -0.416462479483368E+02
              0.283005191583834E+01
             -0.141448461369317E+01
             -0.580829870738069E+01
              0.546617194718237E-01
             -0.370860597004672E+02
             -0.718233113589915E+01
              0.506905520351767E+01
              0.754079891797397E+01
              0.277776028973663E+02
             -0.242549526192396E+02
              0.317551912781248E+02
             -0.227055433354472E+02
              0.145909946905366E+02
              0.229791377339076E+02

 BEEF-vdW xc energy contributions
           1 :   -417.701912997381
           2 :    363.523965469669
           3 :   -276.538089048321
           4 :    186.226476649411
           5 :   -115.475779447672
           6 :    73.0697042890471
           7 :   -55.1121366536684
           8 :    51.5657753157167
           9 :   -53.0150841742554
          10 :    54.2046444734506
          11 :   -53.8429740297443
          12 :    52.3953700143738
          13 :   -50.2024717341990
          14 :    46.9885858885941
          15 :   -42.4215918765389
          16 :    36.7527033276255
          17 :   -30.9392099169876
          18 :    26.2009827896701
          19 :   -23.3962067307175
          20 :    22.6467287795166
          21 :   -23.4301980130614
          22 :    24.9655223575480
          23 :   -26.5538925540673
          24 :    27.6754205588305
          25 :   -27.9600394627484
          26 :    27.1994223610321
          27 :   -25.4070388931780
          28 :    22.8420491683459
          29 :   -19.9774932694520
          30 :    17.4014678316140
          31 :   -49.1566241025051
          32 :   -33.3089257361180
  @ DRIVER MODE: Message from server: STATUS
  @ DRIVER MODE: Message from server: GETFORCE
  @ DRIVER MODE: Returning v,forces,stress,ensemble
  @ DRIVE MODE: Returning Ensemble Energies

     Writing config to output data dir ./calc.save/
  @ DRIVER MODE: Message from server: EXIT
  @ DRIVE MODE: Exiting

     General routines

     Parallel routines

   This run was terminated on:  22:23:56  30Aug2021

   JOB DONE.