     Program PWSCF v.6.7GPU starts on 23Sep2021 at  5:54:58

     R & G space division:  proc/nbgrp/npool/nimage =       8
     Reading input from /storage/home/hcoda1/3/ntian30/research/carbon/CxH_vib/H2O_calc/ads_slab/CH3N2HHO_a/out_0020/pw.inp
Warning: card &CELL ignored
Warning: card   CELL_DYNAMICS='IPI', ignored
Warning: card / ignored

     Current dimensions of program PWSCF are:
     Max number of different atomic species (ntypx) = 10
     Max number of k-points (npk) =  40000
     Max angular momentum in pseudopotentials (lmaxx) =  3
     Presently no symmetry can be used with electric field

     Message from routine cell_base_init:
     DEPRECATED: use true lattice parameter, not A to a.u. conversion factor

     IMPORTANT: XC functional enforced from input :
     Exchange-correlation= BEEF-VDW
                           (   1   4  43  14   2   0   0)
     Any further DFT definition will be discarded
     Please, verify this is what you really want

  @ DRIVER MODE: Connecting to
 qe_1139763_2941009.sched-torque.pace.gatech.eduo7y01lkp_scratch
  using UNIX socket
  @ DRIVER MODE: Message from server: STATUS
  @ DRIVER MODE: Message from server: INIT
  @ DRIVER MODE: Receiving replica           0          -1
  @ DRIVER MODE: Receiving encoded integer          25
  @ DRIVER MODE:  SCF:  T  FORCE:  T  STRESS:  F  VC:  F  ENSEMBLE:  F
  @ DRIVER MODE:  SCF:  T  FORCE:  T  STRESS:  F  VC:  F  ENSEMBLE:  F

     Using Slab Decomposition

     bravais-lattice index     =            0
     lattice parameter (alat)  =       1.8897  a.u.
     unit-cell volume          =    6658.9804 (a.u.)^3
     number of atoms/cell      =           56
     number of atomic types    =            5
     number of electrons       =       403.00
     number of Kohn-Sham states=          211
     kinetic-energy cutoff     =      29.3995  Ry
     charge density cutoff     =     293.9946  Ry
     scf convergence threshold =      7.3E-08
     mixing beta               =       0.0500
     number of iterations used =            8  plain     mixing
     Exchange-correlation= BEEF-VDW
                           (   1   4  43  14   2   0   0)

     celldm(1)=   1.889726  celldm(2)=   0.000000  celldm(3)=   0.000000
     celldm(4)=   0.000000  celldm(5)=   0.000000  celldm(6)=   0.000000

     crystal axes: (cart. coord. in units of alat)
               a(1) = (   6.579727   0.000000   0.000000 )
               a(2) = (  -0.000775   5.961596   0.000000 )
               a(3) = (   0.000000   0.000000  25.155947 )

     reciprocal axes: (cart. coord. in units 2 pi/alat)
               b(1) = (  0.151982  0.000020  0.000000 )
               b(2) = (  0.000000  0.167740  0.000000 )
               b(3) = (  0.000000  0.000000  0.039752 )

     PseudoPot. # 1 for Ti read from file:
     /storage/coda1/p-amedford6/0/shared/rich_project_chbe-medford/medford-share/data/pseudos_module/espresso/nninc/pbe/van/Ti.UPF
     MD5 check sum: 8e4df49b7f0d34bbd5052bf3f5ea0213
     Pseudo is Ultrasoft, Zval = 12.0
     Generated by new atomic code, or converted to UPF format
     Using radial grid of  851 points,  6 beta functions with:
                l(1) =   0
                l(2) =   0
                l(3) =   1
                l(4) =   1
                l(5) =   2
                l(6) =   2
     Q(r) pseudized with  8 coefficients,  rinner =    1.000   1.000   1.000
                                                       1.000   1.000

     PseudoPot. # 2 for O  read from file:
     /storage/coda1/p-amedford6/0/shared/rich_project_chbe-medford/medford-share/data/pseudos_module/espresso/nninc/pbe/van/O.UPF
     MD5 check sum: 78c19812648e8988a0fe644b0f25305e
     Pseudo is Ultrasoft, Zval =  6.0
     Generated by new atomic code, or converted to UPF format
     Using radial grid of  737 points,  4 beta functions with:
                l(1) =   0
                l(2) =   0
                l(3) =   1
                l(4) =   1
     Q(r) pseudized with  8 coefficients,  rinner =    0.800   0.800   0.800

     PseudoPot. # 3 for N  read from file:
     /storage/coda1/p-amedford6/0/shared/rich_project_chbe-medford/medford-share/data/pseudos_module/espresso/nninc/pbe/van/N.UPF
     MD5 check sum: 90d10febe142ad51ac9d5be1deb811c4
     Pseudo is Ultrasoft, Zval =  5.0
     Generated by new atomic code, or converted to UPF format
     Using radial grid of  729 points,  4 beta functions with:
                l(1) =   0
                l(2) =   0
                l(3) =   1
                l(4) =   1
     Q(r) pseudized with  8 coefficients,  rinner =    0.800   0.800   0.800

     PseudoPot. # 4 for C  read from file:
     /storage/coda1/p-amedford6/0/shared/rich_project_chbe-medford/medford-share/data/pseudos_module/espresso/nninc/pbe/van/C.UPF
     MD5 check sum: 1a69bf6b8db32088f5b2163dbdb77a27
     Pseudo is Ultrasoft, Zval =  4.0
     Generated by new atomic code, or converted to UPF format
     Using radial grid of  721 points,  4 beta functions with:
                l(1) =   0
                l(2) =   0
                l(3) =   1
                l(4) =   1
     Q(r) pseudized with  8 coefficients,  rinner =    0.800   0.800   0.800

     PseudoPot. # 5 for H  read from file:
     /storage/coda1/p-amedford6/0/shared/rich_project_chbe-medford/medford-share/data/pseudos_module/espresso/nninc/pbe/van/H.UPF
     MD5 check sum: b5ee9d7bfd3a09ee7748110bda690ff7
     Pseudo is Ultrasoft, Zval =  1.0
     Generated by new atomic code, or converted to UPF format
     Using radial grid of  615 points,  1 beta functions with:
                l(1) =   0
     Q(r) pseudized with  8 coefficients,  rinner =    0.800

     atomic species   valence    mass     pseudopotential
        Ti1           12.00    47.86700     Ti( 1.00)
        O1             6.00    15.99900     O ( 1.00)
        N1             5.00    14.00700     N ( 1.00)
        C1             4.00    12.01100     C ( 1.00)
        H1             1.00     1.00800     H ( 1.00)

     No symmetry found

   Cartesian axes

     site n.     atom                  positions (alat units)
         1           Ti1 tau(   1) = (   0.0004258   2.9801865   6.0000000  )
         2           Ti1 tau(   2) = (   3.2906075   1.4906267   6.0002472  )
         3           O1  tau(   3) = (   0.0006271   0.0005054   7.9858123  )
         4           O1  tau(   4) = (   3.2906025   0.0005020   7.3038282  )
         5           O1  tau(   5) = (   4.5942328   1.4918067   9.2879030  )
         6           O1  tau(   6) = (   1.9868534   1.4903216   9.2879459  )
         7           Ti1 tau(   7) = (   3.2907910   2.8959150   9.1758416  )
         8           Ti1 tau(   8) = (   0.0015273   1.4827037   9.2680791  )
         9           O1  tau(   9) = (   3.2827749   5.9542966  11.3123607  )
        10           O1  tau(  10) = (   0.0116148   5.9584955  10.6183126  )
        11           O1  tau(  11) = (   1.2790800   1.4852124  12.6463597  )
        12           O1  tau(  12) = (   5.2943908   1.4901875  12.6352807  )
        13           Ti1 tau(  13) = (   6.5507123   3.1127926  12.6266869  )
        14           Ti1 tau(  14) = (   3.2873181   1.3120036  12.6863921  )
        15           O1  tau(  15) = (   6.5656690   0.0172326  14.6855350  )
        16           O1  tau(  16) = (   3.2842416   0.0515509  13.9244022  )
        17           O1  tau(  17) = (   4.5437539   1.5966601  16.0680646  )
        18           O1  tau(  18) = (   2.0303991   1.5956099  16.0781401  )
        19           Ti1 tau(  19) = (   3.2961159   3.0594788  15.6697774  )
        20           Ti1 tau(  20) = (   6.5318457   1.5630605  15.7780207  )
        21           O1  tau(  21) = (   3.2904802   0.0005063   4.7018136  )
        22           O1  tau(  22) = (   6.5726385   0.0820865  17.2550913  )
        23           O1  tau(  23) = (   1.3043587   1.4918075   6.0039043  )
        24           O1  tau(  24) = (   5.2767064   1.4903225   6.0039473  )
        25           Ti1 tau(  25) = (   0.0000382   5.9609847   6.0000000  )
        26           Ti1 tau(  26) = (   3.2902200   4.4714249   6.0002472  )
        27           O1  tau(  27) = (   0.0002396   2.9813036   7.9858123  )
        28           O1  tau(  28) = (   3.2902150   2.9813002   7.3038282  )
        29           O1  tau(  29) = (   4.5938453   4.4726049   9.2879030  )
        30           O1  tau(  30) = (   1.9864658   4.4711199   9.2879459  )
        31           Ti1 tau(  31) = (   3.2891106   5.8743827   9.1763621  )
        32           Ti1 tau(  32) = (   0.0006254   4.4649316   9.2693709  )
        33           O1  tau(  33) = (   3.2807365   3.0201584  11.2787527  )
        34           O1  tau(  34) = (   0.0092240   2.9805883  10.6323155  )
        35           O1  tau(  35) = (   1.2751182   4.4744369  12.6357194  )
        36           O1  tau(  36) = (   5.2842299   4.4734050  12.6250694  )
        37           Ti1 tau(  37) = (   0.0094520   0.1224552  12.5707632  )
        38           Ti1 tau(  38) = (   3.2670701   4.4034752  12.4162930  )
        39           O1  tau(  39) = (   6.5622168   3.0106679  14.6773207  )
        40           O1  tau(  40) = (   3.2891587   3.0115246  13.8909557  )
        41           O1  tau(  41) = (   4.5321968   4.4927823  16.1577793  )
        42           O1  tau(  42) = (   2.0250423   4.4919485  16.1304878  )
        43           Ti1 tau(  43) = (   3.2250977   0.0853664  16.3312049  )
        44           Ti1 tau(  44) = (   6.5532039   4.7053171  16.1332850  )
        45           O1  tau(  45) = (   3.2900926   2.9813045   4.7018136  )
        46           O1  tau(  46) = (   1.3039711   4.4726057   6.0039043  )
        47           O1  tau(  47) = (   5.2763189   4.4711207   6.0039473  )
        48           N1  tau(  48) = (   0.0650423   2.5931692  18.6004617  )
        49           N1  tau(  49) = (   0.0051179   2.9528117  17.3995676  )
        50           C1  tau(  50) = (   0.1360749   3.5155665  19.7334966  )
        51           H1  tau(  51) = (   6.1182608   4.3937080  19.5213757  )
        52           H1  tau(  52) = (   6.3628389   3.0028702  20.6266755  )
        53           H1  tau(  53) = (   1.1699357   3.8405576  19.8861820  )
        54           H1  tau(  54) = (   0.1060244   1.5775976  18.7788705  )
        55           O1  tau(  55) = (   3.2396048   0.1449850  18.2004881  )
        56           H1  tau(  56) = (   3.4111690   5.2654565  18.6466900  )

     number of k points=    10  Fermi-Dirac smearing, width (Ry)=  0.0073
                       cart. coord. in units 2pi/alat
        k(    1) = (   0.0000000   0.0000000   0.0000000), wk =   0.1250000
        k(    2) = (   0.0000000   0.0419351   0.0000000), wk =   0.2500000
        k(    3) = (   0.0000000  -0.0838702   0.0000000), wk =   0.1250000
        k(    4) = (   0.0379955   0.0000049   0.0000000), wk =   0.2500000
        k(    5) = (   0.0379955   0.0419400   0.0000000), wk =   0.2500000
        k(    6) = (   0.0379955  -0.0838652   0.0000000), wk =   0.2500000
        k(    7) = (   0.0379955  -0.0419301   0.0000000), wk =   0.2500000
        k(    8) = (  -0.0759910  -0.0000099   0.0000000), wk =   0.1250000
        k(    9) = (  -0.0759910   0.0419252   0.0000000), wk =   0.2500000
        k(   10) = (  -0.0759910  -0.0838800   0.0000000), wk =   0.1250000

     Initial potential from superposition of free atoms

     starting charge  386.99914, renormalised to  403.00000

     negative rho (up, down):  1.430E-02 0.000E+00

     %%%%%%%%%%%%%%%%%%%%%%%%%%%%%%%%%%%%%%%%%%%%%%%%%%%%%%%%%%%%%%%%%%%%%%%%
     %                                                                      %
     % You are using vdW-DF, which was implemented by the Thonhauser group. %
     % Please cite the following two papers that made this development      %
     % possible and the two reviews that describe the various versions:     %
     %                                                                      %
     %   T. Thonhauser et al., PRL 115, 136402 (2015).                      %
     %   T. Thonhauser et al., PRB 76, 125112 (2007).                       %
     %   K. Berland et al., Rep. Prog. Phys. 78, 066501 (2015).             %
     %   D.C. Langreth et al., J. Phys.: Condens. Matter 21, 084203 (2009). %
     %                                                                      %
     %                                                                      %
     % If you are calculating the stress with vdW-DF, please also cite:     %
     %                                                                      %
     %   R. Sabatini et al., J. Phys.: Condens. Matter 24, 424209 (2012).   %
     %                                                                      %
     %%%%%%%%%%%%%%%%%%%%%%%%%%%%%%%%%%%%%%%%%%%%%%%%%%%%%%%%%%%%%%%%%%%%%%%%

     Adding external electric field

     Computed dipole along edir(3) :
        Dipole              -12.7219 Ry au,        -32.3358 Debye
        Dipole field         -0.0240 Ry au,

        Potential amp.        2.2255 Ry
        Total length         46.3494 bohr

     Starting wfcs are  305 atomic wfcs
  @ DRIVER MODE: Message from server: STATUS
  @ DRIVER MODE: Message from server: POSDATA
  @ DRIVER MODE: Reading and sharing cell
  @ DRIVER MODE: Reading and sharing positions
  @ DRIVER MODE: Received positions

     Self-consistent Calculation

     iteration #  1     ecut=    29.40 Ry     beta= 0.05
     Davidson diagonalization with overlap
     c_bands:  5 eigenvalues not converged
     c_bands:  4 eigenvalues not converged
     c_bands:  3 eigenvalues not converged
     c_bands:  4 eigenvalues not converged
     c_bands:  5 eigenvalues not converged
     c_bands:  4 eigenvalues not converged
     c_bands:  1 eigenvalues not converged
     c_bands:  4 eigenvalues not converged
     ethr =  1.00E-05,  avg # of iterations = 25.4

[...]

     total energy              =   -2361.21208850 Ry
     estimated scf accuracy    <    6936.01076147 Ry

     iteration #  2     ecut=    29.40 Ry     beta= 0.05
     Davidson diagonalization with overlap
     ethr =  1.00E-02,  avg # of iterations = 23.6

[...]

     iteration # 38     ecut=    29.40 Ry     beta= 0.05
     Davidson diagonalization with overlap
     c_bands:  1 eigenvalues not converged
     ethr =  7.34E-07,  avg # of iterations = 11.2

[...]

     total energy              =   -2973.99524095 Ry
     estimated scf accuracy    <       0.00000010 Ry

     iteration # 66     ecut=    29.40 Ry     beta= 0.05
     Davidson diagonalization with overlap
     ethr =  2.47E-11,  avg # of iterations =  5.8

     negative rho (up, down):  1.502E-02 0.000E+00

     Adding external electric field

     Computed dipole along edir(3) :
        Dipole                1.1956 Ry au,          3.0390 Debye
        Dipole field          0.0023 Ry au,

        Potential amp.       -0.2092 Ry
        Total length         46.3494 bohr

     End of self-consistent calculation

          k = 0.0000 0.0000 0.0000 ( 18029 PWs)   bands (ev):

   -55.7003 -55.6664 -55.3861 -55.3521 -55.2775 -55.1692 -55.1142 -55.0363
   -54.9902 -54.9585 -54.8298 -54.7363 -54.6950 -54.6247 -54.5274 -54.4934
   -32.1602 -31.9945 -31.9707 -31.8616 -31.8553 -31.7837 -31.7621 -31.6514
   -31.6067 -31.6043 -31.5932 -31.5394 -31.5369 -31.5177 -31.4967 -31.4922
   -31.4884 -31.3949 -31.3864 -31.3707 -31.3350 -31.3158 -31.3053 -31.2946
   -31.2745 -31.2712 -31.2373 -31.1995 -31.1763 -31.1745 -31.1652 -31.1469
   -31.0968 -31.0299 -30.9916 -30.9524 -30.9500 -30.9267 -30.9202 -30.9060
   -30.8959 -30.8570 -30.8385 -30.8348 -30.8337 -30.7450 -30.6598 -30.5479
   -19.0761 -16.2301 -16.0567 -15.7654 -15.5946 -15.3875 -15.3589 -15.2636
   -15.1607 -15.1440 -15.0401 -14.9753 -14.8905 -14.8214 -14.8021 -14.7532
   -14.7235 -14.6956 -14.6809 -14.6714 -14.6332 -14.6013 -14.5845 -14.5086
   -14.4637 -14.4453 -14.4180 -14.3530 -14.2569 -13.9918 -13.9282 -13.0251
   -12.9117 -12.5825  -9.3543  -6.2127  -4.7784  -4.7166  -3.7773  -3.5357
    -3.4658  -3.3305  -3.1219  -3.0724  -2.8944  -2.7734  -2.7531  -2.5327
    -2.5050  -2.3932  -2.3781  -2.3296  -2.3254  -2.2913  -2.2248  -2.1965
    -2.1247  -2.0644  -2.0373  -2.0036  -1.9506  -1.8953  -1.8905  -1.8767
    -1.8194  -1.7511  -1.7232  -1.7140  -1.6701  -1.6064  -1.5978  -1.5816
    -1.5624  -1.5410  -1.3980  -1.2917  -1.2306  -1.1926  -1.1428  -1.0859
    -1.0332  -1.0202  -0.9195  -0.8397  -0.7982  -0.6809  -0.6531  -0.6126
    -0.5281  -0.5039  -0.4612  -0.4421  -0.4007  -0.3936  -0.2886  -0.2713
    -0.2371  -0.1942  -0.0756  -0.0274  -0.0192   0.0616   0.1214   0.2016
     0.2431   0.2586   0.2832   0.3692   0.3969   0.4143   0.4224   0.4947
     0.5136   0.5623   0.6160   0.6987   0.7111   0.7510   0.7854   0.7984
     0.9282   0.9364   1.0260   1.0502   1.0611   1.1254   1.2195   1.2793
     1.3906   1.4050   1.4977   1.4979   1.5185   1.7170   1.8912   2.0501
     2.0904   3.5011   3.6203   3.6824   3.7201   3.9309   3.9425   4.2052
     4.2805   4.3731   4.4107

[...]

          k = 0.0380-0.0419 0.0000 ( 17876 PWs)   bands (ev):

[...]

          k =-0.0760-0.0000 0.0000 ( 17886 PWs)   bands (ev):

[...]

          k =-0.0760-0.0839 0.0000 ( 17948 PWs)   bands (ev):

   -55.6834 -55.6831 -55.3716 -55.3663 -55.2768 -55.1634 -55.1199 -55.0285
   -54.9978 -54.9589 -54.8278 -54.7340 -54.6969 -54.6269 -54.5108 -54.5098
   -31.9804 -31.9800 -31.9757 -31.9756 -31.8070 -31.8065 -31.6898 -31.6843
   -31.5698 -31.5657 -31.5643 -31.5580 -31.5537 -31.4929 -31.4828 -31.4675
   -31.4345 -31.3854 -31.3836 -31.3610 -31.3463 -31.3460 -31.3339 -31.3338
   -31.2573 -31.2440 -31.2370 -31.2329 -31.2054 -31.1941 -31.1651 -31.1560
   -31.0889 -31.0395 -31.0350 -30.9921 -30.9589 -30.9535 -30.9530 -30.9109
   -30.8733 -30.8469 -30.8462 -30.8377 -30.7413 -30.7400 -30.7029 -30.7021
   -19.0728 -16.2229 -15.4714 -15.4612 -15.3171 -15.3077 -15.2301 -15.1405
   -15.1223 -15.0935 -15.0450 -15.0227 -14.9414 -14.8851 -14.8657 -14.8403
   -14.8215 -14.8073 -14.7495 -14.7464 -14.7309 -14.7174 -14.6512 -14.6130
   -14.5826 -14.5762 -14.4679 -14.3886 -14.3041 -14.1561 -14.0647 -13.0147
   -13.0141 -12.5829  -9.3610  -6.2053  -4.7637  -4.7221  -3.7703  -3.4380
    -2.6500  -2.6068  -2.5158  -2.4375  -2.4300  -2.3837  -2.3831  -2.3016
    -2.2489  -2.1910  -2.1667  -2.1586  -2.1581  -2.1270  -2.1181  -2.0636
    -2.0587  -2.0411  -2.0382  -1.9818  -1.9569  -1.9426  -1.8909  -1.8355
    -1.7849  -1.7483  -1.7263  -1.6861  -1.6671  -1.6641  -1.5791  -1.5647
    -1.5374  -1.5099  -1.4651  -1.4349  -1.3796  -1.3577  -1.3013  -1.1740
    -1.1029  -1.0169  -0.9115  -0.8902  -0.8573  -0.8241  -0.8113  -0.7888
    -0.7560  -0.6406  -0.6304  -0.5808  -0.5486  -0.5205  -0.5036  -0.4759
    -0.4529  -0.3518  -0.3097  -0.2802  -0.2401  -0.2061  -0.1779  -0.1447
    -0.0933  -0.0540  -0.0440  -0.0129   0.0210   0.0355   0.1887   0.2683
     0.4012   0.4290   0.5194   0.5661   0.5981   0.6274   0.6557   0.7749
     0.8225   0.8448   0.8815   0.9031   1.0017   1.0984   1.1188   1.1867
     1.2216   1.3267   1.3576   1.4453   1.4965   1.8799   1.8877   1.9086
     1.9091   3.3788   4.0462   4.0491   4.0606   4.0739   4.2391   4.2419
     4.3425   4.3667   4.4840

     the Fermi energy is     3.4576 ev

!    total energy              =   -2973.99526634 Ry
     estimated scf accuracy    <       0.00000002 Ry
     smearing contrib. (-TS)   =      -0.01689304 Ry
     internal energy E=F+TS    =   -2973.97837330 Ry

     The total energy is F=E-TS. E is the sum of the following terms:
     one-electron contribution =  -23437.90884752 Ry
     hartree contribution      =   11816.40934871 Ry
     xc contribution           =    -493.95977488 Ry
     ewald contribution        =    9141.47820271 Ry
     electric field correction =       0.00269768 Ry

     convergence has been achieved in  66 iterations

     Forces acting on atoms (cartesian axes, Ry/au):

     atom    1 type  1   force =     0.00012028   -0.00023607    0.10269665
     atom    2 type  1   force =    -0.00011877    0.00008795   -0.16806363
     atom    3 type  2   force =    -0.00000851    0.00045807   -0.03239783
     atom    4 type  2   force =     0.00002769   -0.00097359    0.04010946
     atom    5 type  2   force =    -0.00542874   -0.00191515   -0.00432704
     atom    6 type  2   force =     0.00666255   -0.00136040   -0.00592726
     atom    7 type  1   force =    -0.00053781   -0.00530746    0.03003712
     atom    8 type  1   force =     0.00069475    0.00860800    0.04849773
     atom    9 type  2   force =     0.00012436   -0.00130814   -0.00106268
     atom   10 type  2   force =    -0.00253569    0.00301420   -0.03413563
     atom   11 type  2   force =    -0.00038670   -0.00008920   -0.00023075
     atom   12 type  2   force =     0.00048554   -0.00037114   -0.00011257
     atom   13 type  1   force =     0.00022823   -0.00161955    0.00017965
     atom   14 type  1   force =     0.00017387   -0.00077322    0.00069169
     atom   15 type  2   force =     0.00008727    0.00003569   -0.00026662
     atom   16 type  2   force =    -0.00012980    0.00004894    0.00172176
     atom   17 type  2   force =    -0.00102387   -0.00057796    0.00038140
     atom   18 type  2   force =     0.00064812   -0.00109763    0.00052000
     atom   19 type  1   force =     0.00060822   -0.00097568   -0.00072825
     atom   20 type  1   force =    -0.00078012   -0.00035984   -0.00025127
     atom   21 type  2   force =     0.00004698    0.00012290    0.10112718
     atom   22 type  2   force =    -0.00009986    0.00049872    0.00038088
     atom   23 type  2   force =    -0.07542106   -0.00012293   -0.02930061
     atom   24 type  2   force =     0.07533281    0.00029897   -0.02931957
     atom   25 type  1   force =     0.00014167   -0.00022642    0.10281676
     atom   26 type  1   force =    -0.00004061   -0.00130112   -0.16847301
     atom   27 type  2   force =     0.00011891    0.00017461   -0.03116776
     atom   28 type  2   force =    -0.00000965    0.00072251    0.03582942
     atom   29 type  2   force =    -0.00425858    0.00378634   -0.00625754
     atom   30 type  2   force =     0.00528235    0.00442365   -0.00778250
     atom   31 type  1   force =    -0.00054247    0.00495704    0.01592793
     atom   32 type  1   force =     0.00076870   -0.01041586    0.04918752
     atom   33 type  2   force =     0.00002795   -0.00091324   -0.00138129
     atom   34 type  2   force =    -0.00240615    0.00222377   -0.04430410
     atom   35 type  2   force =     0.00054357    0.00020082   -0.00013549
     atom   36 type  2   force =    -0.00017219    0.00023084   -0.00006510
     atom   37 type  1   force =     0.00026885    0.00038020   -0.00047471
     atom   38 type  1   force =     0.00041905    0.00139944    0.00103890
     atom   39 type  2   force =     0.00036499    0.00045093    0.00011163
     atom   40 type  2   force =     0.00005933    0.00015194    0.00048677
     atom   41 type  2   force =    -0.00091306   -0.00023640    0.00010172
     atom   42 type  2   force =     0.00042742    0.00025020    0.00032289
     atom   43 type  1   force =     0.00027641    0.00026753   -0.00148153
     atom   44 type  1   force =    -0.00066690   -0.00020586   -0.00098048
     atom   45 type  2   force =     0.00007163   -0.00002113    0.10092845
     atom   46 type  2   force =    -0.07547946   -0.00004801   -0.02931804
     atom   47 type  2   force =     0.07539052    0.00038503   -0.02931382
     atom   48 type  3   force =    -0.00079385    0.00016690    0.00073203
     atom   49 type  3   force =     0.00033978   -0.00065300   -0.00122826
     atom   50 type  4   force =     0.00611003   -0.00341630    0.00165179
     atom   51 type  5   force =    -0.00502442    0.00417552   -0.00270429
     atom   52 type  5   force =    -0.00047225   -0.00013647   -0.00053524
     atom   53 type  5   force =     0.00053148   -0.00145225   -0.00073937
     atom   54 type  5   force =    -0.00004494   -0.00061190   -0.00133803
     atom   55 type  2   force =    -0.00034516    0.00036473   -0.00100039
     atom   56 type  5   force =     0.00125732   -0.00115950   -0.00067469

     Total force =     0.372873     Total SCF correction =     0.000396
  @ DRIVER MODE: Message from server: STATUS
  @ DRIVER MODE: Message from server: GETFORCE
  @ DRIVER MODE: Returning v,forces,stress,ensemble

     Writing output data file ./calc.save/
  @ DRIVER MODE: Message from server: EXIT
  @ DRIVE MODE: Exiting

     General routines

     Parallel routines

   This run was terminated on:   6:16:59  23Sep2021

   JOB DONE.