     Program PWSCF v.6.7GPU starts on 23Aug2021 at 22:29:32

     R & G space division:  proc/nbgrp/npool/nimage =       6
     Reading input from /storage/home/hcoda1/3/ntian30/research/carbon/CH_vib/ads_slab/CHNHH_a/out_0020/pw.inp
Warning: card &CELL ignored
Warning: card   CELL_DYNAMICS='IPI', ignored
Warning: card / ignored

     Current dimensions of program PWSCF are:
     Max number of different atomic species (ntypx) = 10
     Max number of k-points (npk) =  40000
     Max angular momentum in pseudopotentials (lmaxx) =  3
     Presently no symmetry can be used with electric field

     Message from routine cell_base_init:
     DEPRECATED: use true lattice parameter, not A to a.u. conversion factor

     IMPORTANT: XC functional enforced from input :
     Exchange-correlation= BEEF-VDW
                           (   1   4  43  14   2   0   0)
     Any further DFT definition will be discarded
     Please, verify this is what you really want

  @ DRIVER MODE: Connecting to
 qe_1139763_2632797.sched-torque.pace.gatech.eduxt88w53i_scratch
  using UNIX socket
  @ DRIVER MODE: Message from server: STATUS
  @ DRIVER MODE: Message from server: INIT
  @ DRIVER MODE: Receiving replica           0          -1
  @ DRIVER MODE: Receiving encoded integer          25
  @ DRIVER MODE:  SCF:  T  FORCE:  T  STRESS:  F  VC:  F  ENSEMBLE:  F
  @ DRIVER MODE:  SCF:  T  FORCE:  T  STRESS:  F  VC:  F  ENSEMBLE:  F

     Using Slab Decomposition

     bravais-lattice index     =            0
     lattice parameter (alat)  =       1.8897  a.u.
     unit-cell volume          =    6658.9804 (a.u.)^3
     number of atoms/cell      =           52
     number of atomic types    =            5
     number of electrons       =       390.00
     number of Kohn-Sham states=          205
     kinetic-energy cutoff     =      29.3995  Ry
     charge density cutoff     =     293.9946  Ry
     scf convergence threshold =      7.3E-08
     mixing beta               =       0.0500
     number of iterations used =            8  plain     mixing
     Exchange-correlation= BEEF-VDW
                           (   1   4  43  14   2   0   0)

     celldm(1)=   1.889726  celldm(2)=   0.000000  celldm(3)=   0.000000
     celldm(4)=   0.000000  celldm(5)=   0.000000  celldm(6)=   0.000000

     crystal axes: (cart. coord. in units of alat)
               a(1) = (   6.579727   0.000000   0.000000 )
               a(2) = (  -0.000775   5.961596   0.000000 )
               a(3) = (   0.000000   0.000000  25.155947 )

     reciprocal axes: (cart. coord. in units 2 pi/alat)
               b(1) = (  0.151982  0.000020  0.000000 )
               b(2) = (  0.000000  0.167740  0.000000 )
               b(3) = (  0.000000  0.000000  0.039752 )

     PseudoPot. # 1 for Ti read from file:
     /storage/coda1/p-amedford6/0/shared/rich_project_chbe-medford/medford-share/data/pseudos_module/espresso/nninc/pbe/van/Ti.UPF
     MD5 check sum: 8e4df49b7f0d34bbd5052bf3f5ea0213
     Pseudo is Ultrasoft, Zval = 12.0
     Generated by new atomic code, or converted to UPF format
     Using radial grid of  851 points,  6 beta functions with:
                l(1) =   0
                l(2) =   0
                l(3) =   1
                l(4) =   1
                l(5) =   2
                l(6) =   2
     Q(r) pseudized with  8 coefficients,  rinner =    1.000   1.000   1.000
                                                       1.000   1.000

     PseudoPot. # 2 for O  read from file:
     /storage/coda1/p-amedford6/0/shared/rich_project_chbe-medford/medford-share/data/pseudos_module/espresso/nninc/pbe/van/O.UPF
     MD5 check sum: 78c19812648e8988a0fe644b0f25305e
     Pseudo is Ultrasoft, Zval =  6.0
     Generated by new atomic code, or converted to UPF format
     Using radial grid of  737 points,  4 beta functions with:
                l(1) =   0
                l(2) =   0
                l(3) =   1
                l(4) =   1
     Q(r) pseudized with  8 coefficients,  rinner =    0.800   0.800   0.800

     PseudoPot. # 3 for N  read from file:
     /storage/coda1/p-amedford6/0/shared/rich_project_chbe-medford/medford-share/data/pseudos_module/espresso/nninc/pbe/van/N.UPF
     MD5 check sum: 90d10febe142ad51ac9d5be1deb811c4
     Pseudo is Ultrasoft, Zval =  5.0
     Generated by new atomic code, or converted to UPF format
     Using radial grid of  729 points,  4 beta functions with:
                l(1) =   0
                l(2) =   0
                l(3) =   1
                l(4) =   1
     Q(r) pseudized with  8 coefficients,  rinner =    0.800   0.800   0.800

     PseudoPot. # 4 for C  read from file:
     /storage/coda1/p-amedford6/0/shared/rich_project_chbe-medford/medford-share/data/pseudos_module/espresso/nninc/pbe/van/C.UPF
     MD5 check sum: 1a69bf6b8db32088f5b2163dbdb77a27
     Pseudo is Ultrasoft, Zval =  4.0
     Generated by new atomic code, or converted to UPF format
     Using radial grid of  721 points,  4 beta functions with:
                l(1) =   0
                l(2) =   0
                l(3) =   1
                l(4) =   1
     Q(r) pseudized with  8 coefficients,  rinner =    0.800   0.800   0.800

     PseudoPot. # 5 for H  read from file:
     /storage/coda1/p-amedford6/0/shared/rich_project_chbe-medford/medford-share/data/pseudos_module/espresso/nninc/pbe/van/H.UPF
     MD5 check sum: b5ee9d7bfd3a09ee7748110bda690ff7
     Pseudo is Ultrasoft, Zval =  1.0
     Generated by new atomic code, or converted to UPF format
     Using radial grid of  615 points,  1 beta functions with:
                l(1) =   0
     Q(r) pseudized with  8 coefficients,  rinner =    0.800

     atomic species   valence    mass     pseudopotential
        Ti1           12.00    47.86700     Ti( 1.00)
        O1             6.00    15.99900     O ( 1.00)
        N1             5.00    14.00700     N ( 1.00)
        C1             4.00    12.01100     C ( 1.00)
        H1             1.00     1.00800     H ( 1.00)

     No symmetry found

   Cartesian axes

     site n.     atom                  positions (alat units)
         1           Ti1 tau(   1) = (   0.0004258   2.9801865   6.0000000  )
         2           Ti1 tau(   2) = (   3.2906075   1.4906267   6.0002472  )
         3           O1  tau(   3) = (   0.0006271   0.0005054   7.9858123  )
         4           O1  tau(   4) = (   3.2906025   0.0005020   7.3038282  )
         5           O1  tau(   5) = (   4.5942328   1.4918067   9.2879030  )
         6           O1  tau(   6) = (   1.9868534   1.4903216   9.2879459  )
         7           Ti1 tau(   7) = (   3.2907910   2.8959150   9.1758416  )
         8           Ti1 tau(   8) = (   0.0015273   1.4827037   9.2680791  )
         9           O1  tau(   9) = (   3.2768318   5.9518058  11.3501096  )
        10           O1  tau(  10) = (   0.0116148   5.9584955  10.6183126  )
        11           O1  tau(  11) = (   1.2820894   1.4890407  12.6429483  )
        12           O1  tau(  12) = (   5.2701592   1.4861355  12.6244956  )
        13           Ti1 tau(  13) = (   0.0263608   2.9732685  12.5725065  )
        14           Ti1 tau(  14) = (   3.3311081   1.4825583  12.4934812  )
        15           O1  tau(  15) = (   6.5448050   0.0382128  14.6485099  )
        16           O1  tau(  16) = (   3.2835306   5.9556129  13.9684075  )
        17           O1  tau(  17) = (   4.5065730   1.5084740  16.1486978  )
        18           O1  tau(  18) = (   2.0110176   1.4968469  16.1316129  )
        19           Ti1 tau(  19) = (   3.2365874   2.9692752  15.7101938  )
        20           Ti1 tau(  20) = (   6.5183500   1.5288441  15.9766389  )
        21           O1  tau(  21) = (   3.2904802   0.0005063   4.7018136  )
        22           O1  tau(  22) = (   6.5552815   5.8936090  17.2115513  )
        23           O1  tau(  23) = (   1.3043587   1.4918075   6.0039043  )
        24           O1  tau(  24) = (   5.2767064   1.4903225   6.0039473  )
        25           Ti1 tau(  25) = (   0.0000382   5.9609847   6.0000000  )
        26           Ti1 tau(  26) = (   3.2902200   4.4714249   6.0002472  )
        27           O1  tau(  27) = (   0.0002396   2.9813036   7.9858123  )
        28           O1  tau(  28) = (   3.2902150   2.9813002   7.3038282  )
        29           O1  tau(  29) = (   4.5938453   4.4726049   9.2879030  )
        30           O1  tau(  30) = (   1.9864658   4.4711199   9.2879459  )
        31           Ti1 tau(  31) = (   3.2891106   5.8743827   9.1763621  )
        32           Ti1 tau(  32) = (   0.0006254   4.4649316   9.2693709  )
        33           O1  tau(  33) = (   3.2825058   2.9767457  11.3441782  )
        34           O1  tau(  34) = (   0.0092240   2.9805883  10.6323155  )
        35           O1  tau(  35) = (   1.2778777   4.4660374  12.6604661  )
        36           O1  tau(  36) = (   5.2710664   4.4675109  12.6369154  )
        37           Ti1 tau(  37) = (   0.0243246   5.9574881  12.5203091  )
        38           Ti1 tau(  38) = (   3.3318591   4.4611298  12.5006215  )
        39           O1  tau(  39) = (   6.5359656   2.9584677  14.7835642  )
        40           O1  tau(  40) = (   3.2771955   2.9708399  13.9242642  )
        41           O1  tau(  41) = (   4.4981441   4.4410618  16.1740548  )
        42           O1  tau(  42) = (   2.0042129   4.4512231  16.1075086  )
        43           Ti1 tau(  43) = (   3.2538698   5.9555144  15.7617387  )
        44           Ti1 tau(  44) = (   6.5531130   4.6830099  15.9084494  )
        45           O1  tau(  45) = (   3.2900926   2.9813045   4.7018136  )
        46           O1  tau(  46) = (   1.3039711   4.4726057   6.0039043  )
        47           O1  tau(  47) = (   5.2763189   4.4711207   6.0039473  )
        48           N1  tau(  48) = (   5.6690603   3.2568973  18.6585782  )
        49           C1  tau(  49) = (   0.0091554   2.6844975  17.9068455  )
        50           H1  tau(  50) = (   0.8805123   2.3964943  18.5001670  )
        51           H1  tau(  51) = (   4.8719660   3.6873350  18.2178346  )
        52           H1  tau(  52) = (   5.8095507   3.4768026  19.6356901  )

     number of k points=    10  Fermi-Dirac smearing, width (Ry)=  0.0073
                       cart. coord. in units 2pi/alat
        k(    1) = (   0.0000000   0.0000000   0.0000000), wk =   0.1250000
        k(    2) = (   0.0000000   0.0419351   0.0000000), wk =   0.2500000
        k(    3) = (   0.0000000  -0.0838702   0.0000000), wk =   0.1250000
        k(    4) = (   0.0379955   0.0000049   0.0000000), wk =   0.2500000
        k(    5) = (   0.0379955   0.0419400   0.0000000), wk =   0.2500000
        k(    6) = (   0.0379955  -0.0838652   0.0000000), wk =   0.2500000
        k(    7) = (   0.0379955  -0.0419301   0.0000000), wk =   0.2500000
        k(    8) = (  -0.0759910  -0.0000099   0.0000000), wk =   0.1250000
        k(    9) = (  -0.0759910   0.0419252   0.0000000), wk =   0.2500000
        k(   10) = (  -0.0759910  -0.0838800   0.0000000), wk =   0.1250000

     Initial potential from superposition of free atoms

     starting charge  373.99917, renormalised to  390.00000

     negative rho (up, down):  1.782E-02 0.000E+00

     %%%%%%%%%%%%%%%%%%%%%%%%%%%%%%%%%%%%%%%%%%%%%%%%%%%%%%%%%%%%%%%%%%%%%%%%
     %                                                                      %
     % You are using vdW-DF, which was implemented by the Thonhauser group. %
     % Please cite the following two papers that made this development      %
     % possible and the two reviews that describe the various versions:     %
     %                                                                      %
     %   T. Thonhauser et al., PRL 115, 136402 (2015).                      %
     %   T. Thonhauser et al., PRB 76, 125112 (2007).                       %
     %   K. Berland et al., Rep. Prog. Phys. 78, 066501 (2015).             %
     %   D.C. Langreth et al., J. Phys.: Condens. Matter 21, 084203 (2009). %
     %                                                                      %
     %                                                                      %
     % If you are calculating the stress with vdW-DF, please also cite:     %
     %                                                                      %
     %   R. Sabatini et al., J. Phys.: Condens. Matter 24, 424209 (2012).   %
     %                                                                      %
     %%%%%%%%%%%%%%%%%%%%%%%%%%%%%%%%%%%%%%%%%%%%%%%%%%%%%%%%%%%%%%%%%%%%%%%%

     Adding external electric field

     Computed dipole along edir(3) :
        Dipole               -5.8555 Ry au,        -14.8831 Debye
        Dipole field         -0.0111 Ry au,

        Potential amp.        1.0243 Ry
        Total length         46.3494 bohr

     Starting wfcs are  295 atomic wfcs
  @ DRIVER MODE: Message from server: STATUS
  @ DRIVER MODE: Message from server: POSDATA
  @ DRIVER MODE: Reading and sharing cell
  @ DRIVER MODE: Reading and sharing positions
  @ DRIVER MODE: Received positions

     Self-consistent Calculation

     iteration #  1     ecut=    29.40 Ry     beta= 0.05
     Davidson diagonalization with overlap
     c_bands:  4 eigenvalues not converged
     c_bands:  1 eigenvalues not converged
     c_bands:  2 eigenvalues not converged
     c_bands:  3 eigenvalues not converged
     c_bands:  3 eigenvalues not converged
     c_bands:  3 eigenvalues not converged
     c_bands:  3 eigenvalues not converged
     c_bands:  3 eigenvalues not converged
     c_bands:  4 eigenvalues not converged
     c_bands:  5 eigenvalues not converged
     ethr =  1.00E-05,  avg # of iterations = 20.0

[...]

     total energy              =   -2777.35323357 Ry
     estimated scf accuracy    <    1560.18559134 Ry

     iteration #  2     ecut=    29.40 Ry     beta= 0.05
     Davidson diagonalization with overlap
     ethr =  1.00E-02,  avg # of iterations = 18.4

[...]

     iteration # 68     ecut=    29.40 Ry     beta= 0.05
     Davidson diagonalization with overlap
     c_bands:  1 eigenvalues not converged
     ethr =  4.80E-11,  avg # of iterations = 16.5

[...]

     total energy              =   -2919.04278899 Ry
     estimated scf accuracy    <       0.00000037 Ry

     iteration # 70     ecut=    29.40 Ry     beta= 0.05
     Davidson diagonalization with overlap
     ethr =  4.80E-11,  avg # of iterations =  9.9

     negative rho (up, down):  1.803E-02 0.000E+00

     Adding external electric field

     Computed dipole along edir(3) :
        Dipole                1.3778 Ry au,          3.5021 Debye
        Dipole field          0.0026 Ry au,

        Potential amp.       -0.2410 Ry
        Total length         46.3494 bohr

     End of self-consistent calculation

          k = 0.0000 0.0000 0.0000 ( 18029 PWs)   bands (ev):

   -55.5105 -55.4851 -55.4742 -55.4510 -55.4241 -55.3793 -55.3373 -55.3288
   -55.3101 -55.3032 -55.2736 -55.2718 -55.0535 -54.9459 -54.4887 -54.4546
   -32.0774 -31.9728 -31.8707 -31.8485 -31.8384 -31.8057 -31.7977 -31.7756
   -31.7652 -31.7290 -31.7249 -31.7198 -31.6870 -31.6619 -31.6521 -31.6493
   -31.6380 -31.6132 -31.6026 -31.5944 -31.5804 -31.5681 -31.5425 -31.5384
   -31.5371 -31.5174 -31.5148 -31.5102 -31.5091 -31.5000 -31.4857 -31.4704
   -31.4591 -31.4589 -31.4361 -31.4248 -31.4094 -31.3567 -31.2898 -31.1910
   -31.1804 -31.0922 -30.8970 -30.8057 -30.7835 -30.7136 -30.6269 -30.5159
   -17.0460 -16.3094 -16.0254 -15.8603 -15.7180 -15.6873 -15.5766 -15.4016
   -15.3228 -15.2484 -15.2292 -15.1495 -15.1320 -15.1169 -15.0980 -15.0397
   -15.0319 -14.9867 -14.9816 -14.9459 -14.9277 -14.8958 -14.8783 -14.8709
   -14.8144 -14.7760 -14.7125 -14.6465 -14.5913 -14.1189 -12.9912 -12.8743
    -9.4670  -7.2510  -4.6118  -3.6668  -3.4973  -3.4165  -3.4073  -3.3852
    -3.1970  -3.1202  -2.8448  -2.7513  -2.7163  -2.7102  -2.6834  -2.6229
    -2.5513  -2.4519  -2.3803  -2.3510  -2.3311  -2.3240  -2.3127  -2.2968
    -2.2874  -2.2564  -2.1825  -2.1248  -2.0528  -1.9711  -1.8959  -1.8803
    -1.8200  -1.7921  -1.7772  -1.7708  -1.7638  -1.7373  -1.7330  -1.6417
    -1.5510  -1.5124  -1.4125  -1.3901  -1.2942  -1.1595  -1.1323  -1.0279
    -1.0209  -0.9652  -0.9401  -0.8969  -0.8467  -0.8388  -0.8200  -0.6776
    -0.6102  -0.5492  -0.4907  -0.4638  -0.4454  -0.3580  -0.2914  -0.2847
    -0.2676  -0.2448  -0.0703  -0.0389  -0.0188   0.0041   0.0186   0.1079
     0.1397   0.2151   0.2951   0.3091   0.3141   0.3917   0.4148   0.4579
     0.4604   0.4878   0.4931   0.6643   0.6747   0.7011   0.7325   0.8132
     0.8963   1.1015   1.1236   1.1662   1.4492   1.5160   1.5337   1.7214
     2.1073   2.1543   3.5800   3.6849   3.7173   3.7329   3.7609   3.8314
     3.8969   4.0758   4.0828   4.1137   4.1197

[...]

          k = 0.0380-0.0419 0.0000 ( 17876 PWs)   bands (ev):

[...]

          k =-0.0760-0.0000 0.0000 ( 17886 PWs)   bands (ev):

[...]

          k =-0.0760-0.0839 0.0000 ( 17948 PWs)   bands (ev):

   -55.4948 -55.4897 -55.4683 -55.4677 -55.4208 -55.3704 -55.3461 -55.3319
   -55.2913 -55.2900 -55.2893 -55.2878 -55.0507 -54.9486 -54.4716 -54.4715
   -31.8829 -31.8788 -31.8131 -31.7882 -31.7877 -31.7761 -31.7613 -31.7607
   -31.7209 -31.7157 -31.7137 -31.7066 -31.6772 -31.6406 -31.6316 -31.6273
   -31.6268 -31.6244 -31.6201 -31.6188 -31.6089 -31.5880 -31.5874 -31.5747
   -31.5712 -31.5607 -31.5482 -31.5319 -31.5246 -31.5221 -31.5060 -31.5054
   -31.5049 -31.5035 -31.4779 -31.4682 -31.4644 -31.3612 -31.2852 -31.2096
   -31.1835 -31.1761 -30.7962 -30.7961 -30.7097 -30.7095 -30.6703 -30.6703
   -17.0411 -15.7670 -15.7054 -15.5691 -15.4885 -15.4665 -15.4550 -15.4308
   -15.2913 -15.2765 -15.2577 -15.2086 -15.2049 -15.2025 -15.1618 -15.1060
   -15.0731 -15.0706 -15.0621 -15.0355 -15.0012 -14.9959 -14.9617 -14.9531
   -14.9396 -14.8499 -14.8448 -14.8424 -14.6690 -14.3431 -12.9759 -12.9759
    -9.4717  -7.2522  -4.5940  -3.0500  -2.9765  -2.8159  -2.7140  -2.6841
    -2.6523  -2.5085  -2.4737  -2.4635  -2.4504  -2.4130  -2.3988  -2.3838
    -2.3543  -2.3402  -2.3359  -2.3175  -2.3065  -2.2945  -2.2503  -2.2091
    -2.2046  -2.1974  -2.1665  -2.1467  -2.1342  -2.1053  -2.0860  -2.0702
    -2.0565  -2.0092  -1.8345  -1.8032  -1.7026  -1.6827  -1.6735  -1.6521
    -1.5853  -1.5582  -1.5259  -1.4858  -1.4351  -1.3117  -1.2460  -1.2251
    -1.1950  -1.1850  -1.1330  -1.0117  -0.9757  -0.9532  -0.9065  -0.8696
    -0.8254  -0.8152  -0.6953  -0.6898  -0.6444  -0.6016  -0.4883  -0.4718
    -0.4625  -0.4494  -0.4353  -0.3066  -0.2970  -0.2903  -0.2729  -0.2291
    -0.2120  -0.1061  -0.0056   0.0080   0.1104   0.1631   0.2878   0.3512
     0.4476   0.4933   0.5174   0.6077   0.6430   0.7253   0.7484   0.8015
     0.8131   0.9096   0.9639   0.9820   0.9900   1.0580   1.8938   1.8946
     1.9742   1.9744   3.7403   3.8365   3.8747   3.8967   3.9424   4.1011
     4.1168   4.1644   4.1672   4.1830   4.2629

     the Fermi energy is     3.6377 ev

!    total energy              =   -2919.04280603 Ry
     estimated scf accuracy    <       0.00000007 Ry
     smearing contrib. (-TS)   =      -0.03610122 Ry
     internal energy E=F+TS    =   -2919.00670481 Ry

     The total energy is F=E-TS. E is the sum of the following terms:
     one-electron contribution =  -24479.32720980 Ry
     hartree contribution      =   12327.82136696 Ry
     xc contribution           =    -480.00563015 Ry
     ewald contribution        =    9712.50118571 Ry
     electric field correction =       0.00358248 Ry

     convergence has been achieved in  70 iterations

     Forces acting on atoms (cartesian axes, Ry/au):

     atom    1 type  1   force =     0.00009644   -0.00020704    0.09493021
     atom    2 type  1   force =    -0.00023199   -0.00036844   -0.17675737
     atom    3 type  2   force =    -0.00004413   -0.00006401   -0.02292482
     atom    4 type  2   force =    -0.00004374   -0.00167873    0.05578313
     atom    5 type  2   force =    -0.01135616   -0.00122971    0.00624298
     atom    6 type  2   force =     0.01253472   -0.00034837    0.00440562
     atom    7 type  1   force =    -0.00113882    0.00152310   -0.01375681
     atom    8 type  1   force =     0.00062617    0.00694479    0.01266000
     atom    9 type  2   force =     0.00020387   -0.00005252    0.00012143
     atom   10 type  2   force =    -0.00163874    0.00010399   -0.00997530
     atom   11 type  2   force =    -0.00020588    0.00002198    0.00012793
     atom   12 type  2   force =     0.00023380    0.00010577   -0.00009481
     atom   13 type  1   force =     0.00006373   -0.00001030    0.00037303
     atom   14 type  1   force =     0.00001678   -0.00014977    0.00023557
     atom   15 type  2   force =     0.00003576    0.00000341   -0.00006057
     atom   16 type  2   force =     0.00025331    0.00028703   -0.00005620
     atom   17 type  2   force =    -0.00010974   -0.00023133    0.00019877
     atom   18 type  2   force =     0.00038467    0.00007843    0.00011463
     atom   19 type  1   force =     0.00042774    0.00005951    0.00001051
     atom   20 type  1   force =     0.00019387    0.00007282    0.00021805
     atom   21 type  2   force =     0.00004659   -0.00004324    0.10365521
     atom   22 type  2   force =     0.00001634    0.00003655    0.00026508
     atom   23 type  2   force =    -0.07100346   -0.00016210   -0.02732577
     atom   24 type  2   force =     0.07085607    0.00032042   -0.02734140
     atom   25 type  1   force =    -0.00012222   -0.00020326    0.09463225
     atom   26 type  1   force =    -0.00019561   -0.00045756   -0.17690521
     atom   27 type  2   force =     0.00007019   -0.00035551   -0.02195226
     atom   28 type  2   force =     0.00003705   -0.00139163    0.05533450
     atom   29 type  2   force =    -0.01158225   -0.00008808    0.00584812
     atom   30 type  2   force =     0.01265248    0.00013323    0.00406486
     atom   31 type  1   force =    -0.00125122    0.00417149   -0.01463572
     atom   32 type  1   force =     0.00055895   -0.00776980    0.01252318
     atom   33 type  2   force =    -0.00001104    0.00009474    0.00003098
     atom   34 type  2   force =    -0.00127330    0.00082826   -0.00838950
     atom   35 type  2   force =     0.00012172    0.00020802   -0.00003596
     atom   36 type  2   force =     0.00011447    0.00004878    0.00015589
     atom   37 type  1   force =     0.00002939    0.00000113    0.00005136
     atom   38 type  1   force =    -0.00002867   -0.00016275   -0.00012545
     atom   39 type  2   force =    -0.00017049   -0.00017352   -0.00014908
     atom   40 type  2   force =     0.00023050   -0.00002799   -0.00021104
     atom   41 type  2   force =     0.00030706   -0.00005181    0.00006161
     atom   42 type  2   force =    -0.00007804    0.00013370   -0.00042701
     atom   43 type  1   force =    -0.00020514   -0.00004436    0.00026285
     atom   44 type  1   force =     0.00045428   -0.00015741    0.00006602
     atom   45 type  2   force =     0.00003371   -0.00005114    0.10363209
     atom   46 type  2   force =    -0.07100668   -0.00007443   -0.02731800
     atom   47 type  2   force =     0.07086504    0.00032385   -0.02734783
     atom   48 type  3   force =     0.00950482   -0.00397526    0.00392876
     atom   49 type  4   force =     0.00089933   -0.00061227    0.00022382
     atom   50 type  5   force =     0.00030412   -0.00035738   -0.00045183
     atom   51 type  5   force =    -0.01036389    0.00513749   -0.00496641
     atom   52 type  5   force =    -0.00011177   -0.00013881    0.00104993

     Total force =     0.366462     Total SCF correction =     0.001056
  @ DRIVER MODE: Message from server: STATUS
  @ DRIVER MODE: Message from server: GETFORCE
  @ DRIVER MODE: Returning v,forces,stress,ensemble

     Writing output data file ./calc.save/
  @ DRIVER MODE: Message from server: EXIT
  @ DRIVE MODE: Exiting

     General routines

     Parallel routines

   This run was terminated on:  23: 0:19  23Aug2021

   JOB DONE.