     Program PWSCF v.6.7GPU starts on 24Aug2021 at  7:40:31

     R & G space division:  proc/nbgrp/npool/nimage =       6
     Reading input from /storage/home/hcoda1/3/ntian30/research/carbon/CH_vib/ads_slab/CHNNHHH_a/out_0036/pw.inp
Warning: card &CELL ignored
Warning: card   CELL_DYNAMICS='IPI', ignored
Warning: card / ignored

     Current dimensions of program PWSCF are:
     Max number of different atomic species (ntypx) = 10
     Max number of k-points (npk) =  40000
     Max angular momentum in pseudopotentials (lmaxx) =  3
     Presently no symmetry can be used with electric field

     Message from routine cell_base_init:
     DEPRECATED: use true lattice parameter, not A to a.u. conversion factor

     IMPORTANT: XC functional enforced from input :
     Exchange-correlation= BEEF-VDW
                           (   1   4  43  14   2   0   0)
     Any further DFT definition will be discarded
     Please, verify this is what you really want

  @ DRIVER MODE: Connecting to
 qe_1139763_2632795.sched-torque.pace.gatech.edutggj52gy_scratch
  using UNIX socket
  @ DRIVER MODE: Message from server: STATUS
  @ DRIVER MODE: Message from server: INIT
  @ DRIVER MODE: Receiving replica           0          -1
  @ DRIVER MODE: Receiving encoded integer          25
  @ DRIVER MODE:  SCF:  T  FORCE:  T  STRESS:  F  VC:  F  ENSEMBLE:  F
  @ DRIVER MODE:  SCF:  T  FORCE:  T  STRESS:  F  VC:  F  ENSEMBLE:  F

     Using Slab Decomposition

     bravais-lattice index     =            0
     lattice parameter (alat)  =       1.8897  a.u.
     unit-cell volume          =    6658.9804 (a.u.)^3
     number of atoms/cell      =           54
     number of atomic types    =            5
     number of electrons       =       396.00
     number of Kohn-Sham states=          208
     kinetic-energy cutoff     =      29.3995  Ry
     charge density cutoff     =     293.9946  Ry
     scf convergence threshold =      7.3E-08
     mixing beta               =       0.0500
     number of iterations used =            8  plain     mixing
     Exchange-correlation= BEEF-VDW
                           (   1   4  43  14   2   0   0)

     celldm(1)=   1.889726  celldm(2)=   0.000000  celldm(3)=   0.000000
     celldm(4)=   0.000000  celldm(5)=   0.000000  celldm(6)=   0.000000

     crystal axes: (cart. coord. in units of alat)
               a(1) = (   6.579727   0.000000   0.000000 )
               a(2) = (  -0.000775   5.961596   0.000000 )
               a(3) = (   0.000000   0.000000  25.155947 )

     reciprocal axes: (cart. coord. in units 2 pi/alat)
               b(1) = (  0.151982  0.000020  0.000000 )
               b(2) = (  0.000000  0.167740  0.000000 )
               b(3) = (  0.000000  0.000000  0.039752 )

     PseudoPot. # 1 for Ti read from file:
     /storage/coda1/p-amedford6/0/shared/rich_project_chbe-medford/medford-share/data/pseudos_module/espresso/nninc/pbe/van/Ti.UPF
     MD5 check sum: 8e4df49b7f0d34bbd5052bf3f5ea0213
     Pseudo is Ultrasoft, Zval = 12.0
     Generated by new atomic code, or converted to UPF format
     Using radial grid of  851 points,  6 beta functions with:
                l(1) =   0
                l(2) =   0
                l(3) =   1
                l(4) =   1
                l(5) =   2
                l(6) =   2
     Q(r) pseudized with  8 coefficients,  rinner =    1.000   1.000   1.000
                                                       1.000   1.000

     PseudoPot. # 2 for O  read from file:
     /storage/coda1/p-amedford6/0/shared/rich_project_chbe-medford/medford-share/data/pseudos_module/espresso/nninc/pbe/van/O.UPF
     MD5 check sum: 78c19812648e8988a0fe644b0f25305e
     Pseudo is Ultrasoft, Zval =  6.0
     Generated by new atomic code, or converted to UPF format
     Using radial grid of  737 points,  4 beta functions with:
                l(1) =   0
                l(2) =   0
                l(3) =   1
                l(4) =   1
     Q(r) pseudized with  8 coefficients,  rinner =    0.800   0.800   0.800

     PseudoPot. # 3 for N  read from file:
     /storage/coda1/p-amedford6/0/shared/rich_project_chbe-medford/medford-share/data/pseudos_module/espresso/nninc/pbe/van/N.UPF
     MD5 check sum: 90d10febe142ad51ac9d5be1deb811c4
     Pseudo is Ultrasoft, Zval =  5.0
     Generated by new atomic code, or converted to UPF format
     Using radial grid of  729 points,  4 beta functions with:
                l(1) =   0
                l(2) =   0
                l(3) =   1
                l(4) =   1
     Q(r) pseudized with  8 coefficients,  rinner =    0.800   0.800   0.800

     PseudoPot. # 4 for C  read from file:
     /storage/coda1/p-amedford6/0/shared/rich_project_chbe-medford/medford-share/data/pseudos_module/espresso/nninc/pbe/van/C.UPF
     MD5 check sum: 1a69bf6b8db32088f5b2163dbdb77a27
     Pseudo is Ultrasoft, Zval =  4.0
     Generated by new atomic code, or converted to UPF format
     Using radial grid of  721 points,  4 beta functions with:
                l(1) =   0
                l(2) =   0
                l(3) =   1
                l(4) =   1
     Q(r) pseudized with  8 coefficients,  rinner =    0.800   0.800   0.800

     PseudoPot. # 5 for H  read from file:
     /storage/coda1/p-amedford6/0/shared/rich_project_chbe-medford/medford-share/data/pseudos_module/espresso/nninc/pbe/van/H.UPF
     MD5 check sum: b5ee9d7bfd3a09ee7748110bda690ff7
     Pseudo is Ultrasoft, Zval =  1.0
     Generated by new atomic code, or converted to UPF format
     Using radial grid of  615 points,  1 beta functions with:
                l(1) =   0
     Q(r) pseudized with  8 coefficients,  rinner =    0.800

     atomic species   valence    mass     pseudopotential
        Ti1           12.00    47.86700     Ti( 1.00)
        O1             6.00    15.99900     O ( 1.00)
        N1             5.00    14.00700     N ( 1.00)
        C1             4.00    12.01100     C ( 1.00)
        H1             1.00     1.00800     H ( 1.00)

     No symmetry found

   Cartesian axes

     site n.     atom                  positions (alat units)
         1           Ti1 tau(   1) = (   0.0004258   2.9801865   6.0000000  )
         2           Ti1 tau(   2) = (   3.2906075   1.4906267   6.0002472  )
         3           O1  tau(   3) = (   0.0006271   0.0005054   7.9858123  )
         4           O1  tau(   4) = (   3.2906025   0.0005020   7.3038282  )
         5           O1  tau(   5) = (   4.5942328   1.4918067   9.2879030  )
         6           O1  tau(   6) = (   1.9868534   1.4903216   9.2879459  )
         7           Ti1 tau(   7) = (   3.2907910   2.8959150   9.1758416  )
         8           Ti1 tau(   8) = (   0.0015273   1.4827037   9.2680791  )
         9           O1  tau(   9) = (   3.3116888   5.9365513  11.3741315  )
        10           O1  tau(  10) = (   0.0116148   5.9584955  10.6183126  )
        11           O1  tau(  11) = (   1.3152863   1.4773744  12.6583839  )
        12           O1  tau(  12) = (   5.3185463   1.4781915  12.6604289  )
        13           Ti1 tau(  13) = (   0.0312267   2.9553392  12.5172039  )
        14           Ti1 tau(  14) = (   3.3247105   1.4628205  12.5237724  )
        15           O1  tau(  15) = (   0.0176705   0.0150782  14.7085838  )
        16           O1  tau(  16) = (   3.3263678   5.9469243  13.9928752  )
        17           O1  tau(  17) = (   4.5829619   1.4750097  16.2211409  )
        18           O1  tau(  18) = (   2.0801478   1.4636096  16.1819230  )
        19           Ti1 tau(  19) = (   3.3264833   2.9461821  15.7545810  )
        20           Ti1 tau(  20) = (   0.0064452   1.3478264  16.0581623  )
        21           O1  tau(  21) = (   3.2904802   0.0005063   4.7018136  )
        22           O1  tau(  22) = (   0.0393124   5.8647722  17.2449945  )
        23           O1  tau(  23) = (   1.3043587   1.4918075   6.0039043  )
        24           O1  tau(  24) = (   5.2767064   1.4903225   6.0039473  )
        25           Ti1 tau(  25) = (   0.0000382   5.9609847   6.0000000  )
        26           Ti1 tau(  26) = (   3.2902200   4.4714249   6.0002472  )
        27           O1  tau(  27) = (   0.0002396   2.9813036   7.9858123  )
        28           O1  tau(  28) = (   3.2902150   2.9813002   7.3038282  )
        29           O1  tau(  29) = (   4.5938453   4.4726049   9.2879030  )
        30           O1  tau(  30) = (   1.9864658   4.4711199   9.2879459  )
        31           Ti1 tau(  31) = (   3.2891106   5.8743827   9.1763621  )
        32           Ti1 tau(  32) = (   0.0006254   4.4649316   9.2693709  )
        33           O1  tau(  33) = (   3.3126387   2.9639063  11.3704323  )
        34           O1  tau(  34) = (   0.0092240   2.9805883  10.6323155  )
        35           O1  tau(  35) = (   1.3140505   4.4512041  12.6779488  )
        36           O1  tau(  36) = (   5.3186431   4.4503656  12.6784002  )
        37           Ti1 tau(  37) = (   0.0306983   5.9434578  12.5012515  )
        38           Ti1 tau(  38) = (   3.3249252   4.4426326  12.5284913  )
        39           O1  tau(  39) = (   0.0332616   2.9308952  14.9693926  )
        40           O1  tau(  40) = (   3.3269026   2.9510973  13.9662216  )
        41           O1  tau(  41) = (   4.5816979   4.4256876  16.1885362  )
        42           O1  tau(  42) = (   2.0739833   4.4348339  16.1471384  )
        43           Ti1 tau(  43) = (   3.3139036   5.9323143  15.7909994  )
        44           Ti1 tau(  44) = (   0.0257917   4.5791344  15.8913375  )
        45           O1  tau(  45) = (   3.2900926   2.9813045   4.7018136  )
        46           O1  tau(  46) = (   1.3039711   4.4726057   6.0039043  )
        47           O1  tau(  47) = (   5.2763189   4.4711207   6.0039473  )
        48           N1  tau(  48) = (   0.2611162   2.7486399  18.0384573  )
        49           C1  tau(  49) = (   1.0666652   3.1333113  18.7681872  )
        50           H1  tau(  50) = (   1.9496291   3.4674532  19.3170853  )
        51           N1  tau(  51) = (   3.9312863   3.7371558  19.5917579  )
        52           H1  tau(  52) = (   4.2637485   4.0673035  20.4913501  )
        53           H1  tau(  53) = (   4.3024207   4.3757745  18.9006580  )
        54           H1  tau(  54) = (   4.4024832   2.8518033  19.4177320  )

     number of k points=    10  Fermi-Dirac smearing, width (Ry)=  0.0073
                       cart. coord. in units 2pi/alat
        k(    1) = (   0.0000000   0.0000000   0.0000000), wk =   0.1250000
        k(    2) = (   0.0000000   0.0419351   0.0000000), wk =   0.2500000
        k(    3) = (   0.0000000  -0.0838702   0.0000000), wk =   0.1250000
        k(    4) = (   0.0379955   0.0000049   0.0000000), wk =   0.2500000
        k(    5) = (   0.0379955   0.0419400   0.0000000), wk =   0.2500000
        k(    6) = (   0.0379955  -0.0838652   0.0000000), wk =   0.2500000
        k(    7) = (   0.0379955  -0.0419301   0.0000000), wk =   0.2500000
        k(    8) = (  -0.0759910  -0.0000099   0.0000000), wk =   0.1250000
        k(    9) = (  -0.0759910   0.0419252   0.0000000), wk =   0.2500000
        k(   10) = (  -0.0759910  -0.0838800   0.0000000), wk =   0.1250000

     Initial potential from superposition of free atoms

     starting charge  379.99915, renormalised to  396.00000

     negative rho (up, down):  1.480E-02 0.000E+00

     %%%%%%%%%%%%%%%%%%%%%%%%%%%%%%%%%%%%%%%%%%%%%%%%%%%%%%%%%%%%%%%%%%%%%%%%
     %                                                                      %
     % You are using vdW-DF, which was implemented by the Thonhauser group. %
     % Please cite the following two papers that made this development      %
     % possible and the two reviews that describe the various versions:     %
     %                                                                      %
     %   T. Thonhauser et al., PRL 115, 136402 (2015).                      %
     %   T. Thonhauser et al., PRB 76, 125112 (2007).                       %
     %   K. Berland et al., Rep. Prog. Phys. 78, 066501 (2015).             %
     %   D.C. Langreth et al., J. Phys.: Condens. Matter 21, 084203 (2009). %
     %                                                                      %
     %                                                                      %
     % If you are calculating the stress with vdW-DF, please also cite:     %
     %                                                                      %
     %   R. Sabatini et al., J. Phys.: Condens. Matter 24, 424209 (2012).   %
     %                                                                      %
     %%%%%%%%%%%%%%%%%%%%%%%%%%%%%%%%%%%%%%%%%%%%%%%%%%%%%%%%%%%%%%%%%%%%%%%%

     Adding external electric field

     Computed dipole along edir(3) :
        Dipole              -10.3179 Ry au,        -26.2255 Debye
        Dipole field         -0.0195 Ry au,

        Potential amp.        1.8050 Ry
        Total length         46.3494 bohr

     Starting wfcs are  300 atomic wfcs
  @ DRIVER MODE: Message from server: STATUS
  @ DRIVER MODE: Message from server: POSDATA
  @ DRIVER MODE: Reading and sharing cell
  @ DRIVER MODE: Reading and sharing positions
  @ DRIVER MODE: Received positions

     Self-consistent Calculation

     iteration #  1     ecut=    29.40 Ry     beta= 0.05
     Davidson diagonalization with overlap
     c_bands:  1 eigenvalues not converged
     c_bands:  2 eigenvalues not converged
     c_bands:  2 eigenvalues not converged
     c_bands:  1 eigenvalues not converged
     c_bands:  3 eigenvalues not converged
     c_bands:  2 eigenvalues not converged
     c_bands:  3 eigenvalues not converged
     c_bands:  2 eigenvalues not converged
     c_bands:  2 eigenvalues not converged
     c_bands:  2 eigenvalues not converged
     ethr =  1.00E-05,  avg # of iterations = 20.0

[...]

     total energy              =   -2527.38198895 Ry
     estimated scf accuracy    <    4624.59554338 Ry

     iteration #  2     ecut=    29.40 Ry     beta= 0.05
     Davidson diagonalization with overlap
     ethr =  1.00E-02,  avg # of iterations = 25.6

[...]

     iteration # 66     ecut=    29.40 Ry     beta= 0.05
     Davidson diagonalization with overlap
     c_bands:  1 eigenvalues not converged
     ethr =  6.05E-09,  avg # of iterations = 15.3

[...]

     total energy              =   -2940.41302617 Ry
     estimated scf accuracy    <       0.00000009 Ry

     iteration # 77     ecut=    29.40 Ry     beta= 0.05
     Davidson diagonalization with overlap
     ethr =  2.28E-11,  avg # of iterations =  9.0

     negative rho (up, down):  1.579E-02 0.000E+00

     Adding external electric field

     Computed dipole along edir(3) :
        Dipole                1.4902 Ry au,          3.7876 Debye
        Dipole field          0.0028 Ry au,

        Potential amp.       -0.2607 Ry
        Total length         46.3494 bohr

     End of self-consistent calculation

          k = 0.0000 0.0000 0.0000 ( 18029 PWs)   bands (ev):

   -55.2537 -55.2178 -55.2052 -55.1711 -55.1310 -55.1228 -55.0987 -55.0957
   -55.0714 -55.0522 -55.0371 -55.0341 -55.0005 -54.9836 -54.2330 -54.1990
   -31.8223 -31.7018 -31.6975 -31.6187 -31.5630 -31.5610 -31.5524 -31.5395
   -31.4941 -31.4814 -31.4625 -31.4592 -31.4497 -31.4249 -31.4089 -31.4044
   -31.3901 -31.3784 -31.3694 -31.3682 -31.3576 -31.3453 -31.3189 -31.3164
   -31.3088 -31.3020 -31.2739 -31.2721 -31.2623 -31.2611 -31.2525 -31.2336
   -31.2326 -31.2245 -31.2207 -31.2190 -31.1853 -31.1851 -31.1674 -31.1621
   -31.1451 -31.0935 -30.6423 -30.5483 -30.5262 -30.4588 -30.3720 -30.2610
   -16.7756 -16.0786 -15.8088 -15.6664 -15.5603 -15.4491 -15.3343 -15.3140
   -15.1822 -15.1761 -15.0886 -14.9699 -14.9191 -14.9002 -14.8861 -14.8720
   -14.8654 -14.7943 -14.7892 -14.7660 -14.7455 -14.7328 -14.6899 -14.6881
   -14.6475 -14.6267 -14.5800 -14.4914 -14.4085 -14.3391 -14.0171 -12.7357
   -12.6182  -7.9784  -5.2454  -5.0815  -4.0137  -3.4175  -3.2671  -3.1711
    -3.1448  -3.1290  -2.9995  -2.8529  -2.8443  -2.7500  -2.6382  -2.5868
    -2.5044  -2.4554  -2.4432  -2.4248  -2.2416  -2.2248  -2.1716  -2.1235
    -2.0937  -2.0578  -2.0374  -2.0181  -2.0010  -1.9918  -1.9279  -1.8140
    -1.7785  -1.7262  -1.6748  -1.6496  -1.5955  -1.5748  -1.5388  -1.5328
    -1.5323  -1.4842  -1.4578  -1.4349  -1.3578  -1.2717  -1.1572  -1.1060
    -0.9507  -0.8886  -0.8324  -0.8201  -0.7562  -0.7367  -0.7068  -0.6304
    -0.6227  -0.5900  -0.4713  -0.3819  -0.3425  -0.3298  -0.2716  -0.2340
    -0.2066  -0.1598  -0.0634  -0.0313  -0.0146  -0.0101   0.1402   0.1539
     0.2232   0.2703   0.2920   0.2926   0.4055   0.4222   0.4944   0.5318
     0.5676   0.6410   0.6807   0.6967   0.6993   0.7330   0.7369   0.8278
     0.8500   0.8584   0.9305   1.0802   1.3066   1.3546   1.3623   1.6960
     1.6977   1.7897   1.9734   2.3656   2.4138   3.8449   3.9164   3.9906
     3.9972   4.0231   4.0830   4.3245   4.3348   4.3474   4.3505   4.3920

[...]

          k = 0.0380-0.0419 0.0000 ( 17876 PWs)   bands (ev):

[...]

          k =-0.0760-0.0000 0.0000 ( 17886 PWs)   bands (ev):

[...]

          k =-0.0760-0.0839 0.0000 ( 17948 PWs)   bands (ev):

   -55.2358 -55.2356 -55.1882 -55.1879 -55.1180 -55.1174 -55.1092 -55.0959
   -55.0565 -55.0552 -55.0528 -55.0178 -55.0169 -54.9865 -54.2160 -54.2159
   -31.6261 -31.6256 -31.6250 -31.5246 -31.5127 -31.5125 -31.5120 -31.4794
   -31.4793 -31.4611 -31.4539 -31.4481 -31.4437 -31.3930 -31.3883 -31.3861
   -31.3850 -31.3849 -31.3793 -31.3738 -31.3496 -31.3463 -31.3355 -31.3266
   -31.3255 -31.3195 -31.3110 -31.3078 -31.3076 -31.3013 -31.2883 -31.2857
   -31.2806 -31.2683 -31.2657 -31.2490 -31.2474 -31.2437 -31.1984 -31.1978
   -31.1922 -31.1857 -30.5389 -30.5389 -30.4548 -30.4548 -30.4154 -30.4153
   -16.7668 -15.6109 -15.4945 -15.4535 -15.2657 -15.2572 -15.2277 -15.2146
   -15.1849 -15.0632 -15.0370 -15.0264 -15.0129 -14.9611 -14.9550 -14.9495
   -14.9281 -14.8571 -14.8487 -14.8468 -14.8297 -14.7636 -14.7588 -14.7544
   -14.7436 -14.7004 -14.6975 -14.6032 -14.6012 -14.5072 -14.3838 -12.7197
   -12.7197  -7.9751  -5.2409  -5.0916  -4.0007  -2.7990  -2.7695  -2.7241
    -2.7132  -2.6965  -2.4772  -2.4545  -2.4174  -2.3674  -2.3059  -2.2547
    -2.2463  -2.2298  -2.1627  -2.1238  -2.1073  -2.0937  -2.0755  -2.0599
    -2.0455  -2.0199  -1.9775  -1.9700  -1.9488  -1.9283  -1.8986  -1.8901
    -1.8590  -1.8381  -1.8228  -1.8055  -1.6910  -1.6672  -1.6087  -1.5695
    -1.5280  -1.4557  -1.4505  -1.3534  -1.3460  -1.2917  -1.2799  -1.2536
    -1.1610  -1.0618  -0.9997  -0.9932  -0.9868  -0.8607  -0.8225  -0.7983
    -0.7613  -0.7331  -0.6741  -0.5958  -0.5743  -0.5399  -0.4554  -0.4473
    -0.3908  -0.3258  -0.2766  -0.2453  -0.2161  -0.2082  -0.1985  -0.1451
    -0.1388  -0.0676  -0.0176   0.0157   0.0269   0.0609   0.2658   0.2823
     0.3353   0.4335   0.5060   0.6264   0.6844   0.7057   0.7769   0.8169
     0.8608   0.9234   1.0259   1.0561   1.0591   1.1337   1.1654   1.2074
     1.2115   2.1467   2.1471   2.2336   2.2339   3.9889   4.0828   4.1049
     4.1531   4.2443   4.2791   4.3626   4.3808   4.4302   4.4321   4.5009

     the Fermi energy is     3.9079 ev

!    total energy              =   -2940.41304193 Ry
     estimated scf accuracy    <       0.00000007 Ry
     smearing contrib. (-TS)   =      -0.03731711 Ry
     internal energy E=F+TS    =   -2940.37572482 Ry

     The total energy is F=E-TS. E is the sum of the following terms:
     one-electron contribution =  -23552.80014182 Ry
     hartree contribution      =   11869.09380238 Ry
     xc contribution           =    -485.97408000 Ry
     ewald contribution        =    9229.30050402 Ry
     electric field correction =       0.00419060 Ry

     convergence has been achieved in  77 iterations

     Forces acting on atoms (cartesian axes, Ry/au):

     atom    1 type  1   force =    -0.00002768   -0.00018261    0.09331742
     atom    2 type  1   force =    -0.00015112   -0.00021658   -0.17809462
     atom    3 type  2   force =     0.00006501   -0.00020871   -0.02045207
     atom    4 type  2   force =     0.00000553   -0.00194808    0.05847866
     atom    5 type  2   force =    -0.01028724   -0.00134913    0.00735682
     atom    6 type  2   force =     0.01228600   -0.00075266    0.00784863
     atom    7 type  1   force =     0.00036216    0.00277227   -0.01407871
     atom    8 type  1   force =    -0.00055975    0.00105846   -0.00336840
     atom    9 type  2   force =     0.00004041    0.00049635   -0.00007479
     atom   10 type  2   force =    -0.00055169   -0.00104164   -0.00006611
     atom   11 type  2   force =     0.00008295    0.00011601    0.00004620
     atom   12 type  2   force =    -0.00025081    0.00016529   -0.00006606
     atom   13 type  1   force =    -0.00002011    0.00090048   -0.00029175
     atom   14 type  1   force =     0.00009940    0.00024604   -0.00017356
     atom   15 type  2   force =    -0.00012721    0.00012142    0.00095962
     atom   16 type  2   force =     0.00004508    0.00011360   -0.00004632
     atom   17 type  2   force =     0.00025211   -0.00031626    0.00002303
     atom   18 type  2   force =    -0.00021243   -0.00046436   -0.00046075
     atom   19 type  1   force =    -0.00057447   -0.00012818    0.00010581
     atom   20 type  1   force =    -0.00023892    0.00069081   -0.00002619
     atom   21 type  2   force =    -0.00001850    0.00000650    0.10388434
     atom   22 type  2   force =    -0.00027475   -0.00065150   -0.00096119
     atom   23 type  2   force =    -0.07042928   -0.00007720   -0.02688655
     atom   24 type  2   force =     0.07026911    0.00035538   -0.02694024
     atom   25 type  1   force =     0.00004309   -0.00004871    0.09294201
     atom   26 type  1   force =    -0.00016860   -0.00018193   -0.17812896
     atom   27 type  2   force =     0.00012517   -0.00033104   -0.01946472
     atom   28 type  2   force =     0.00003353   -0.00168300    0.05804995
     atom   29 type  2   force =    -0.01039759   -0.00124539    0.00692666
     atom   30 type  2   force =     0.01228482   -0.00091762    0.00743771
     atom   31 type  1   force =     0.00034752    0.00516356   -0.01510001
     atom   32 type  1   force =    -0.00046791   -0.00161183   -0.00359152
     atom   33 type  2   force =    -0.00019232   -0.00021697   -0.00019091
     atom   34 type  2   force =     0.00029223   -0.00051931    0.00103030
     atom   35 type  2   force =    -0.00040826    0.00005348    0.00023722
     atom   36 type  2   force =     0.00034182   -0.00003074    0.00029888
     atom   37 type  1   force =    -0.00012106   -0.00043512   -0.00005162
     atom   38 type  1   force =     0.00013523    0.00033511   -0.00030553
     atom   39 type  2   force =    -0.00033714   -0.00043891    0.00116578
     atom   40 type  2   force =     0.00006673    0.00006846   -0.00017629
     atom   41 type  2   force =    -0.00004509    0.00024558   -0.00041895
     atom   42 type  2   force =    -0.00013840    0.00000801   -0.00040459
     atom   43 type  1   force =    -0.00074539   -0.00023646    0.00013452
     atom   44 type  1   force =     0.00002998    0.00050217   -0.00002781
     atom   45 type  2   force =    -0.00000648    0.00000564    0.10386907
     atom   46 type  2   force =    -0.07045460   -0.00004916   -0.02689083
     atom   47 type  2   force =     0.07028057    0.00039139   -0.02696285
     atom   48 type  3   force =     0.00000372   -0.00080672    0.00018922
     atom   49 type  4   force =    -0.00068043    0.00055897   -0.00058269
     atom   50 type  5   force =     0.00002700   -0.00004578    0.00071254
     atom   51 type  3   force =    -0.00307311   -0.00671541    0.00723269
     atom   52 type  5   force =     0.00017185   -0.00006555    0.00180269
     atom   53 type  5   force =     0.00382630    0.00678737   -0.00947430
     atom   54 type  5   force =    -0.00055698    0.00175423   -0.00029088

     Total force =     0.366301     Total SCF correction =     0.000803
  @ DRIVER MODE: Message from server: STATUS
  @ DRIVER MODE: Message from server: GETFORCE
  @ DRIVER MODE: Returning v,forces,stress,ensemble

     Writing output data file ./calc.save/
  @ DRIVER MODE: Message from server: EXIT
  @ DRIVE MODE: Exiting

     General routines

     Parallel routines

   This run was terminated on:   8:13:50  24Aug2021

   JOB DONE.