     Program PWSCF v.6.7GPU starts on 16Sep2021 at 11:27:36

     R & G space division:  proc/nbgrp/npool/nimage =      10
     Reading input from /storage/home/hcoda1/3/ntian30/research/carbon/CxH_vib/H2O_calc/ads_slab/CH2NNHHH2O_a/out_0059/pw.inp
Warning: card &CELL ignored
Warning: card   CELL_DYNAMICS='IPI', ignored
Warning: card / ignored

     Current dimensions of program PWSCF are:
     Max number of different atomic species (ntypx) = 10
     Max number of k-points (npk) =  40000
     Max angular momentum in pseudopotentials (lmaxx) =  3
     Presently no symmetry can be used with electric field

     Message from routine cell_base_init:
     DEPRECATED: use true lattice parameter, not A to a.u. conversion factor

     IMPORTANT: XC functional enforced from input :
     Exchange-correlation= BEEF-VDW
                           (   1   4  43  14   2   0   0)
     Any further DFT definition will be discarded
     Please, verify this is what you really want

  @ DRIVER MODE: Connecting to
 qe_1139763_2852611.sched-torque.pace.gatech.eduddqgg0pz_scratch
  using UNIX socket
  @ DRIVER MODE: Message from server: STATUS
  @ DRIVER MODE: Message from server: INIT
  @ DRIVER MODE: Receiving replica           0          -1
  @ DRIVER MODE: Receiving encoded integer          25
  @ DRIVER MODE:  SCF:  T  FORCE:  T  STRESS:  F  VC:  F  ENSEMBLE:  F
  @ DRIVER MODE:  SCF:  T  FORCE:  T  STRESS:  F  VC:  F  ENSEMBLE:  F

     Using Slab Decomposition

     bravais-lattice index     =            0
     lattice parameter (alat)  =       1.8897  a.u.
     unit-cell volume          =    6658.9804 (a.u.)^3
     number of atoms/cell      =           57
     number of atomic types    =            5
     number of electrons       =       404.00
     number of Kohn-Sham states=          212
     kinetic-energy cutoff     =      29.3995  Ry
     charge density cutoff     =     293.9946  Ry
     scf convergence threshold =      7.3E-08
     mixing beta               =       0.0500
     number of iterations used =            8  plain     mixing
     Exchange-correlation= BEEF-VDW
                           (   1   4  43  14   2   0   0)

     celldm(1)=   1.889726  celldm(2)=   0.000000  celldm(3)=   0.000000
     celldm(4)=   0.000000  celldm(5)=   0.000000  celldm(6)=   0.000000

     crystal axes: (cart. coord. in units of alat)
               a(1) = (   6.579727   0.000000   0.000000 )
               a(2) = (  -0.000775   5.961596   0.000000 )
               a(3) = (   0.000000   0.000000  25.155947 )

     reciprocal axes: (cart. coord. in units 2 pi/alat)
               b(1) = (  0.151982  0.000020  0.000000 )
               b(2) = (  0.000000  0.167740  0.000000 )
               b(3) = (  0.000000  0.000000  0.039752 )

     PseudoPot. # 1 for Ti read from file:
     /storage/coda1/p-amedford6/0/shared/rich_project_chbe-medford/medford-share/data/pseudos_module/espresso/nninc/pbe/van/Ti.UPF
     MD5 check sum: 8e4df49b7f0d34bbd5052bf3f5ea0213
     Pseudo is Ultrasoft, Zval = 12.0
     Generated by new atomic code, or converted to UPF format
     Using radial grid of  851 points,  6 beta functions with:
                l(1) =   0
                l(2) =   0
                l(3) =   1
                l(4) =   1
                l(5) =   2
                l(6) =   2
     Q(r) pseudized with  8 coefficients,  rinner =    1.000   1.000   1.000
                                                       1.000   1.000

     PseudoPot. # 2 for O  read from file:
     /storage/coda1/p-amedford6/0/shared/rich_project_chbe-medford/medford-share/data/pseudos_module/espresso/nninc/pbe/van/O.UPF
     MD5 check sum: 78c19812648e8988a0fe644b0f25305e
     Pseudo is Ultrasoft, Zval =  6.0
     Generated by new atomic code, or converted to UPF format
     Using radial grid of  737 points,  4 beta functions with:
                l(1) =   0
                l(2) =   0
                l(3) =   1
                l(4) =   1
     Q(r) pseudized with  8 coefficients,  rinner =    0.800   0.800   0.800

     PseudoPot. # 3 for N  read from file:
     /storage/coda1/p-amedford6/0/shared/rich_project_chbe-medford/medford-share/data/pseudos_module/espresso/nninc/pbe/van/N.UPF
     MD5 check sum: 90d10febe142ad51ac9d5be1deb811c4
     Pseudo is Ultrasoft, Zval =  5.0
     Generated by new atomic code, or converted to UPF format
     Using radial grid of  729 points,  4 beta functions with:
                l(1) =   0
                l(2) =   0
                l(3) =   1
                l(4) =   1
     Q(r) pseudized with  8 coefficients,  rinner =    0.800   0.800   0.800

     PseudoPot. # 4 for C  read from file:
     /storage/coda1/p-amedford6/0/shared/rich_project_chbe-medford/medford-share/data/pseudos_module/espresso/nninc/pbe/van/C.UPF
     MD5 check sum: 1a69bf6b8db32088f5b2163dbdb77a27
     Pseudo is Ultrasoft, Zval =  4.0
     Generated by new atomic code, or converted to UPF format
     Using radial grid of  721 points,  4 beta functions with:
                l(1) =   0
                l(2) =   0
                l(3) =   1
                l(4) =   1
     Q(r) pseudized with  8 coefficients,  rinner =    0.800   0.800   0.800

     PseudoPot. # 5 for H  read from file:
     /storage/coda1/p-amedford6/0/shared/rich_project_chbe-medford/medford-share/data/pseudos_module/espresso/nninc/pbe/van/H.UPF
     MD5 check sum: b5ee9d7bfd3a09ee7748110bda690ff7
     Pseudo is Ultrasoft, Zval =  1.0
     Generated by new atomic code, or converted to UPF format
     Using radial grid of  615 points,  1 beta functions with:
                l(1) =   0
     Q(r) pseudized with  8 coefficients,  rinner =    0.800

     atomic species   valence    mass     pseudopotential
        Ti1           12.00    47.86700     Ti( 1.00)
        O1             6.00    15.99900     O ( 1.00)
        N1             5.00    14.00700     N ( 1.00)
        C1             4.00    12.01100     C ( 1.00)
        H1             1.00     1.00800     H ( 1.00)

     No symmetry found

   Cartesian axes

     site n.     atom                  positions (alat units)
         1           Ti1 tau(   1) = (   0.0004258   2.9801865   6.0000000  )
         2           Ti1 tau(   2) = (   3.2906075   1.4906267   6.0002472  )
         3           O1  tau(   3) = (   0.0006271   0.0005054   7.9858123  )
         4           O1  tau(   4) = (   3.2906025   0.0005020   7.3038282  )
         5           O1  tau(   5) = (   4.5942328   1.4918067   9.2879030  )
         6           O1  tau(   6) = (   1.9868534   1.4903216   9.2879459  )
         7           Ti1 tau(   7) = (   3.2907910   2.8959150   9.1758416  )
         8           Ti1 tau(   8) = (   0.0015273   1.4827037   9.2680791  )
         9           O1  tau(   9) = (   3.3121314   5.9338840  11.3691909  )
        10           O1  tau(  10) = (   0.0116148   5.9584955  10.6183126  )
        11           O1  tau(  11) = (   1.3134021   1.4784130  12.6451072  )
        12           O1  tau(  12) = (   5.3172625   1.4801399  12.6491864  )
        13           Ti1 tau(  13) = (   0.0380378   2.9573341  12.5222382  )
        14           Ti1 tau(  14) = (   3.3404755   1.4532591  12.5245293  )
        15           O1  tau(  15) = (   0.0239237   0.0366503  14.6894071  )
        16           O1  tau(  16) = (   3.3255740   5.9570089  14.0129324  )
        17           O1  tau(  17) = (   4.5846449   1.4795273  16.1858442  )
        18           O1  tau(  18) = (   2.0539891   1.4908220  16.1938258  )
        19           Ti1 tau(  19) = (   3.3028508   2.9322526  15.7076921  )
        20           Ti1 tau(  20) = (   0.0088316   1.3655950  16.0522487  )
        21           O1  tau(  21) = (   3.2904802   0.0005063   4.7018136  )
        22           O1  tau(  22) = (   0.0586005   5.8320325  17.2288864  )
        23           O1  tau(  23) = (   1.3043587   1.4918075   6.0039043  )
        24           O1  tau(  24) = (   5.2767064   1.4903225   6.0039473  )
        25           Ti1 tau(  25) = (   0.0000382   5.9609847   6.0000000  )
        26           Ti1 tau(  26) = (   3.2902200   4.4714249   6.0002472  )
        27           O1  tau(  27) = (   0.0002396   2.9813036   7.9858123  )
        28           O1  tau(  28) = (   3.2902150   2.9813002   7.3038282  )
        29           O1  tau(  29) = (   4.5938453   4.4726049   9.2879030  )
        30           O1  tau(  30) = (   1.9864658   4.4711199   9.2879459  )
        31           Ti1 tau(  31) = (   3.2891106   5.8743827   9.1763621  )
        32           Ti1 tau(  32) = (   0.0006254   4.4649316   9.2693709  )
        33           O1  tau(  33) = (   3.3142679   2.9660735  11.3641874  )
        34           O1  tau(  34) = (   0.0092240   2.9805883  10.6323155  )
        35           O1  tau(  35) = (   1.3108675   4.4558178  12.6782323  )
        36           O1  tau(  36) = (   5.3175068   4.4537340  12.6790822  )
        37           Ti1 tau(  37) = (   0.0418451   5.9490355  12.4996082  )
        38           Ti1 tau(  38) = (   3.3402151   4.4429940  12.5219265  )
        39           O1  tau(  39) = (   0.0332256   2.9148708  14.9327709  )
        40           O1  tau(  40) = (   3.3156017   2.9437717  13.9283311  )
        41           O1  tau(  41) = (   4.5915719   4.3868214  16.1197993  )
        42           O1  tau(  42) = (   2.0539401   4.4017640  16.0846163  )
        43           Ti1 tau(  43) = (   3.3369130   5.9116756  15.8392261  )
        44           Ti1 tau(  44) = (   0.0533093   4.5818758  15.8415549  )
        45           O1  tau(  45) = (   3.2900926   2.9813045   4.7018136  )
        46           O1  tau(  46) = (   1.3039711   4.4726057   6.0039043  )
        47           O1  tau(  47) = (   5.2763189   4.4711207   6.0039473  )
        48           N1  tau(  48) = (   6.5287229   2.7802708  18.1865785  )
        49           C1  tau(  49) = (   0.9724842   2.7744648  18.9576868  )
        50           H1  tau(  50) = (   0.9153086   3.0669255  20.0057840  )
        51           H1  tau(  51) = (   1.9225290   2.4867234  18.5393133  )
        52           N1  tau(  52) = (   5.2958906   3.1014149  18.7352402  )
        53           H1  tau(  53) = (   5.3913054   3.6367428  19.5974321  )
        54           H1  tau(  54) = (   4.7863746   3.6605970  18.0522289  )
        55           O1  tau(  55) = (   3.2511457   5.8152340  18.3397965  )
        56           H1  tau(  56) = (   3.7467739   0.6636339  18.5518981  )
        57           H1  tau(  57) = (   2.3053106   0.0674530  18.4101010  )

     number of k points=    10  Fermi-Dirac smearing, width (Ry)=  0.0073
                       cart. coord. in units 2pi/alat
        k(    1) = (   0.0000000   0.0000000   0.0000000), wk =   0.1250000
        k(    2) = (   0.0000000   0.0419351   0.0000000), wk =   0.2500000
        k(    3) = (   0.0000000  -0.0838702   0.0000000), wk =   0.1250000
        k(    4) = (   0.0379955   0.0000049   0.0000000), wk =   0.2500000
        k(    5) = (   0.0379955   0.0419400   0.0000000), wk =   0.2500000
        k(    6) = (   0.0379955  -0.0838652   0.0000000), wk =   0.2500000
        k(    7) = (   0.0379955  -0.0419301   0.0000000), wk =   0.2500000
        k(    8) = (  -0.0759910  -0.0000099   0.0000000), wk =   0.1250000
        k(    9) = (  -0.0759910   0.0419252   0.0000000), wk =   0.2500000
        k(   10) = (  -0.0759910  -0.0838800   0.0000000), wk =   0.1250000

     Initial potential from superposition of free atoms

     starting charge  387.99913, renormalised to  404.00000

     negative rho (up, down):  1.527E-02 0.000E+00

     %%%%%%%%%%%%%%%%%%%%%%%%%%%%%%%%%%%%%%%%%%%%%%%%%%%%%%%%%%%%%%%%%%%%%%%%
     %                                                                      %
     % You are using vdW-DF, which was implemented by the Thonhauser group. %
     % Please cite the following two papers that made this development      %
     % possible and the two reviews that describe the various versions:     %
     %                                                                      %
     %   T. Thonhauser et al., PRL 115, 136402 (2015).                      %
     %   T. Thonhauser et al., PRB 76, 125112 (2007).                       %
     %   K. Berland et al., Rep. Prog. Phys. 78, 066501 (2015).             %
     %   D.C. Langreth et al., J. Phys.: Condens. Matter 21, 084203 (2009). %
     %                                                                      %
     %                                                                      %
     % If you are calculating the stress with vdW-DF, please also cite:     %
     %                                                                      %
     %   R. Sabatini et al., J. Phys.: Condens. Matter 24, 424209 (2012).   %
     %                                                                      %
     %%%%%%%%%%%%%%%%%%%%%%%%%%%%%%%%%%%%%%%%%%%%%%%%%%%%%%%%%%%%%%%%%%%%%%%%

     Adding external electric field

     Computed dipole along edir(3) :
        Dipole              -14.3236 Ry au,        -36.4070 Debye
        Dipole field         -0.0270 Ry au,

        Potential amp.        2.5057 Ry
        Total length         46.3494 bohr

     Starting wfcs are  306 atomic wfcs
  @ DRIVER MODE: Message from server: STATUS
  @ DRIVER MODE: Message from server: POSDATA
  @ DRIVER MODE: Reading and sharing cell
  @ DRIVER MODE: Reading and sharing positions
  @ DRIVER MODE: Received positions

     Self-consistent Calculation

     iteration #  1     ecut=    29.40 Ry     beta= 0.05
     Davidson diagonalization with overlap
     c_bands:  4 eigenvalues not converged
     c_bands:  3 eigenvalues not converged
     c_bands:  5 eigenvalues not converged
     c_bands:  1 eigenvalues not converged
     c_bands:  2 eigenvalues not converged
     c_bands:  1 eigenvalues not converged
     c_bands:  2 eigenvalues not converged
     c_bands:  3 eigenvalues not converged
     c_bands:  5 eigenvalues not converged
     ethr =  1.00E-05,  avg # of iterations = 24.6

[...]

     total energy              =   -2233.93746895 Ry
     estimated scf accuracy    <    8445.24279915 Ry

     iteration #  2     ecut=    29.40 Ry     beta= 0.05
     Davidson diagonalization with overlap
     ethr =  1.00E-02,  avg # of iterations = 24.4

[...]

     iteration # 66     ecut=    29.40 Ry     beta= 0.05
     Davidson diagonalization with overlap
     c_bands:  1 eigenvalues not converged
     c_bands:  1 eigenvalues not converged
     ethr =  6.46E-10,  avg # of iterations = 14.1

[...]

     total energy              =   -2975.20597286 Ry
     estimated scf accuracy    <       0.00000008 Ry

     iteration # 74     ecut=    29.40 Ry     beta= 0.05
     Davidson diagonalization with overlap
     ethr =  2.02E-11,  avg # of iterations =  9.6

     negative rho (up, down):  1.521E-02 0.000E+00

     Adding external electric field

     Computed dipole along edir(3) :
        Dipole                1.4000 Ry au,          3.5585 Debye
        Dipole field          0.0026 Ry au,

        Potential amp.       -0.2449 Ry
        Total length         46.3494 bohr

     End of self-consistent calculation

          k = 0.0000 0.0000 0.0000 ( 18029 PWs)   bands (ev):

   -55.1896 -55.1536 -55.1497 -55.1156 -55.1019 -55.0703 -55.0367 -55.0322
   -55.0084 -54.9790 -54.9734 -54.9702 -54.9454 -54.8756 -54.1727 -54.1387
   -31.7549 -31.6413 -31.6006 -31.5589 -31.5081 -31.4978 -31.4909 -31.4836
   -31.4388 -31.4047 -31.4011 -31.3943 -31.3925 -31.3661 -31.3435 -31.3345
   -31.3336 -31.3273 -31.3077 -31.3015 -31.2828 -31.2780 -31.2627 -31.2493
   -31.2382 -31.2362 -31.2158 -31.2089 -31.2067 -31.2005 -31.1945 -31.1767
   -31.1722 -31.1616 -31.1567 -31.1438 -31.1225 -31.1186 -31.1071 -31.0909
   -31.0894 -31.0053 -30.5817 -30.4883 -30.4662 -30.3982 -30.3115 -30.2005
   -18.9171 -18.5449 -16.0155 -15.7503 -15.6145 -15.5044 -15.3882 -15.2589
   -15.2111 -15.0799 -15.0203 -14.9069 -14.8789 -14.8379 -14.8181 -14.8126
   -14.7544 -14.7268 -14.7200 -14.6949 -14.6843 -14.6631 -14.6237 -14.6174
   -14.5814 -14.5715 -14.5665 -14.4220 -14.3441 -14.2796 -13.9696 -13.6692
   -12.6750 -12.5576  -8.8003  -6.7139  -6.4629  -6.0616  -4.1443  -3.3583
    -3.2029  -3.1884  -3.1256  -3.0862  -3.0709  -3.0033  -2.9404  -2.7356
    -2.6025  -2.5755  -2.4563  -2.3902  -2.3854  -2.3329  -2.1898  -2.1853
    -2.1298  -2.0905  -2.0403  -2.0203  -1.9965  -1.9729  -1.9395  -1.9193
    -1.8929  -1.7583  -1.7387  -1.6649  -1.6022  -1.5916  -1.5332  -1.5094
    -1.4905  -1.4853  -1.4762  -1.4650  -1.4259  -1.4119  -1.3686  -1.3111
    -1.2085  -1.1203  -1.0280  -0.9494  -0.8856  -0.8239  -0.7625  -0.7536
    -0.6765  -0.6642  -0.5725  -0.5499  -0.5191  -0.4064  -0.3439  -0.3396
    -0.2763  -0.1743  -0.1459  -0.1303  -0.0585   0.0199   0.0389   0.0462
     0.0548   0.1782   0.2314   0.2635   0.2966   0.3678   0.3894   0.4391
     0.4855   0.4922   0.5714   0.6309   0.6854   0.7349   0.7520   0.7766
     0.7946   0.8042   0.8209   0.9021   0.9250   0.9576   1.0111   1.1666
     1.3250   1.4258   1.4415   1.7599   1.7729   1.8504   2.0347   2.4255
     2.4734   3.9065   3.9833   4.0421   4.0486   4.0578   4.1438   4.3881
     4.4038   4.4165   4.4286   4.4721

[...]

          k = 0.0380-0.0419 0.0000 ( 17876 PWs)   bands (ev):

[...]

          k =-0.0760-0.0000 0.0000 ( 17886 PWs)   bands (ev):

[...]

          k =-0.0760-0.0839 0.0000 ( 17948 PWs)   bands (ev):

   -55.1725 -55.1705 -55.1326 -55.1325 -55.0995 -55.0594 -55.0432 -55.0347
   -54.9939 -54.9873 -54.9723 -54.9625 -54.9621 -54.8775 -54.1557 -54.1556
   -31.5643 -31.5541 -31.5255 -31.4564 -31.4563 -31.4503 -31.4414 -31.4241
   -31.4241 -31.4031 -31.3924 -31.3897 -31.3772 -31.3513 -31.3269 -31.3215
   -31.3213 -31.3210 -31.3186 -31.3093 -31.3036 -31.2853 -31.2720 -31.2691
   -31.2554 -31.2520 -31.2520 -31.2520 -31.2422 -31.2375 -31.2274 -31.2262
   -31.2180 -31.2071 -31.2013 -31.1913 -31.1900 -31.1535 -31.1426 -31.1423
   -31.0991 -31.0916 -30.4789 -30.4789 -30.3943 -30.3941 -30.3549 -30.3549
   -18.9147 -18.5442 -15.5328 -15.4860 -15.3305 -15.1960 -15.1928 -15.1527
   -15.0973 -15.0255 -15.0051 -14.9614 -14.9508 -14.9321 -14.8959 -14.8879
   -14.8621 -14.7909 -14.7815 -14.7731 -14.7393 -14.7000 -14.6893 -14.6879
   -14.6711 -14.6412 -14.6380 -14.5406 -14.5384 -14.4468 -14.3095 -13.6844
   -12.6592 -12.6591  -8.7644  -6.7135  -6.4126  -6.0896  -4.1870  -3.2080
    -2.9248  -2.7501  -2.6448  -2.5430  -2.4157  -2.4098  -2.3245  -2.3162
    -2.2353  -2.2009  -2.1886  -2.1733  -2.0820  -2.0684  -2.0579  -2.0361
    -2.0196  -2.0017  -1.9700  -1.9638  -1.9406  -1.9135  -1.9032  -1.9020
    -1.8827  -1.8496  -1.8179  -1.7994  -1.7784  -1.7478  -1.7365  -1.6706
    -1.6293  -1.5410  -1.5062  -1.3910  -1.3892  -1.3675  -1.3126  -1.2921
    -1.2709  -1.2218  -1.2127  -1.1673  -1.0248  -0.9379  -0.9270  -0.8891
    -0.8402  -0.7917  -0.7444  -0.7295  -0.6628  -0.6424  -0.5493  -0.5338
    -0.4316  -0.3902  -0.3785  -0.3627  -0.2803  -0.2160  -0.1693  -0.1488
    -0.1443  -0.0942  -0.0797  -0.0664   0.0052   0.0527   0.0765   0.0910
     0.1323   0.3005   0.3611   0.3744   0.4941   0.5431   0.6472   0.7071
     0.7829   0.8031   0.8391   0.9298   0.9359   1.0127   1.1077   1.1216
     1.1567   1.2021   1.2509   1.2739   1.2788   2.2077   2.2090   2.2933
     2.2935   4.0501   4.1267   4.1844   4.2325   4.2413   4.3618   4.4238
     4.4663   4.4887   4.4910   4.5653

     the Fermi energy is     3.9645 ev

!    total energy              =   -2975.20599402 Ry
     estimated scf accuracy    <       0.00000004 Ry
     smearing contrib. (-TS)   =      -0.03732443 Ry
     internal energy E=F+TS    =   -2975.16866959 Ry

     The total energy is F=E-TS. E is the sum of the following terms:
     one-electron contribution =  -23538.67192257 Ry
     hartree contribution      =   11867.34295404 Ry
     xc contribution           =    -494.97299888 Ry
     ewald contribution        =    9191.12959886 Ry
     electric field correction =       0.00369896 Ry

     convergence has been achieved in  74 iterations

     Forces acting on atoms (cartesian axes, Ry/au):

     atom    1 type  1   force =     0.00005686   -0.00019955    0.09356684
     atom    2 type  1   force =    -0.00020464   -0.00021279   -0.17804754
     atom    3 type  2   force =     0.00011028   -0.00020289   -0.02065602
     atom    4 type  2   force =     0.00004879   -0.00197802    0.05807003
     atom    5 type  2   force =    -0.01002463   -0.00166923    0.00693472
     atom    6 type  2   force =     0.01217145   -0.00103670    0.00744638
     atom    7 type  1   force =     0.00022657    0.00248572   -0.01211340
     atom    8 type  1   force =    -0.00049603    0.00201590   -0.00193304
     atom    9 type  2   force =     0.00006733    0.00006282   -0.00004271
     atom   10 type  2   force =    -0.00044329   -0.00134925   -0.00316431
     atom   11 type  2   force =     0.00016132   -0.00007578   -0.00007316
     atom   12 type  2   force =    -0.00066551   -0.00011597    0.00008456
     atom   13 type  1   force =     0.00051261    0.00098523    0.00024253
     atom   14 type  1   force =    -0.00140383    0.00026645    0.00015962
     atom   15 type  2   force =    -0.00017910    0.00093508    0.00026335
     atom   16 type  2   force =    -0.00001686   -0.00043289    0.00014442
     atom   17 type  2   force =     0.00071054    0.00006710   -0.00027361
     atom   18 type  2   force =     0.00052675    0.00006864   -0.00024876
     atom   19 type  1   force =    -0.00107701    0.00095179    0.00048578
     atom   20 type  1   force =     0.00050478   -0.00000212   -0.00089555
     atom   21 type  2   force =     0.00001575   -0.00002303    0.10387772
     atom   22 type  2   force =     0.00016306    0.00090026   -0.00009574
     atom   23 type  2   force =    -0.07051374   -0.00011690   -0.02696556
     atom   24 type  2   force =     0.07045369    0.00031218   -0.02702850
     atom   25 type  1   force =     0.00002036   -0.00018705    0.09303021
     atom   26 type  1   force =    -0.00009371   -0.00048135   -0.17796780
     atom   27 type  2   force =     0.00017214   -0.00036579   -0.01953771
     atom   28 type  2   force =     0.00011045   -0.00160395    0.05715045
     atom   29 type  2   force =    -0.01007336   -0.00086208    0.00631418
     atom   30 type  2   force =     0.01213376   -0.00061742    0.00687362
     atom   31 type  1   force =     0.00032071    0.00502910   -0.01528858
     atom   32 type  1   force =    -0.00039076   -0.00266166   -0.00236194
     atom   33 type  2   force =    -0.00003095   -0.00025857   -0.00003640
     atom   34 type  2   force =     0.00046277    0.00031166   -0.00055583
     atom   35 type  2   force =    -0.00011394   -0.00037607   -0.00006850
     atom   36 type  2   force =    -0.00044409   -0.00036740    0.00024891
     atom   37 type  1   force =     0.00026382   -0.00104153    0.00050519
     atom   38 type  1   force =    -0.00122288    0.00025450    0.00128031
     atom   39 type  2   force =    -0.00010588   -0.00048097    0.00029057
     atom   40 type  2   force =     0.00002580   -0.00041928    0.00046690
     atom   41 type  2   force =    -0.00015369   -0.00006116    0.00004827
     atom   42 type  2   force =     0.00126439   -0.00020884    0.00011918
     atom   43 type  1   force =    -0.00094390   -0.00073556   -0.00026618
     atom   44 type  1   force =     0.00088469    0.00057120   -0.00005813
     atom   45 type  2   force =     0.00004241   -0.00002059    0.10381589
     atom   46 type  2   force =    -0.07054465   -0.00007983   -0.02697785
     atom   47 type  2   force =     0.07045240    0.00038906   -0.02700831
     atom   48 type  3   force =    -0.00051028    0.00008265    0.00098233
     atom   49 type  4   force =     0.00049923    0.00056417   -0.00034486
     atom   50 type  5   force =    -0.00044079    0.00005100   -0.00058054
     atom   51 type  5   force =    -0.00041872   -0.00009131   -0.00000910
     atom   52 type  3   force =    -0.00026912    0.00061354   -0.00003300
     atom   53 type  5   force =     0.00019449    0.00050151   -0.00031261
     atom   54 type  5   force =    -0.00057346    0.00074303    0.00018191
     atom   55 type  2   force =     0.00097412    0.00005724   -0.00059583
     atom   56 type  5   force =    -0.00080640   -0.00031741    0.00077053
     atom   57 type  5   force =    -0.00139011    0.00043314    0.00018668

     Total force =     0.365738     Total SCF correction =     0.000350
  @ DRIVER MODE: Message from server: STATUS
  @ DRIVER MODE: Message from server: GETFORCE
  @ DRIVER MODE: Returning v,forces,stress,ensemble

     Writing output data file ./calc.save/
  @ DRIVER MODE: Message from server: EXIT
  @ DRIVE MODE: Exiting

     General routines

     Parallel routines

   This run was terminated on:  11:48:42  16Sep2021

   JOB DONE.