     Program PWSCF v.6.7GPU starts on  2Aug2021 at 18:22: 9

     R & G space division:  proc/nbgrp/npool/nimage =      16
     Reading input from /storage/home/hcoda1/3/ntian30/research/carbon/02Aug_vib_paired/ads_slab/CH3NNHH_a/out_0019/pw.inp
Warning: card &CELL ignored
Warning: card   CELL_DYNAMICS='IPI', ignored
Warning: card / ignored

     Current dimensions of program PWSCF are:
     Max number of different atomic species (ntypx) = 10
     Max number of k-points (npk) =  40000
     Max angular momentum in pseudopotentials (lmaxx) =  3
     Presently no symmetry can be used with electric field

     Message from routine cell_base_init:
     DEPRECATED: use true lattice parameter, not A to a.u. conversion factor

     IMPORTANT: XC functional enforced from input :
     Exchange-correlation= BEEF-VDW
                           (   1   4  43  14   2   0   0)
     Any further DFT definition will be discarded
     Please, verify this is what you really want

  @ DRIVER MODE: Connecting to
 qe_1139763_2482543.sched-torque.pace.gatech.eduotlqku4z_scratch
  using UNIX socket
  @ DRIVER MODE: Message from server: STATUS
  @ DRIVER MODE: Message from server: INIT
  @ DRIVER MODE: Receiving replica           0          -1
  @ DRIVER MODE: Receiving encoded integer          25
  @ DRIVER MODE:  SCF:  T  FORCE:  T  STRESS:  F  VC:  F  ENSEMBLE:  F
  @ DRIVER MODE:  SCF:  T  FORCE:  T  STRESS:  F  VC:  F  ENSEMBLE:  F

     Using Slab Decomposition

     bravais-lattice index     =            0
     lattice parameter (alat)  =       1.8897  a.u.
     unit-cell volume          =    6658.9804 (a.u.)^3
     number of atoms/cell      =           55
     number of atomic types    =            5
     number of electrons       =       397.00
     number of Kohn-Sham states=          208
     kinetic-energy cutoff     =      29.3995  Ry
     charge density cutoff     =     293.9946  Ry
     scf convergence threshold =      7.3E-08
     mixing beta               =       0.0500
     number of iterations used =            8  plain     mixing
     Exchange-correlation= BEEF-VDW
                           (   1   4  43  14   2   0   0)

     celldm(1)=   1.889726  celldm(2)=   0.000000  celldm(3)=   0.000000
     celldm(4)=   0.000000  celldm(5)=   0.000000  celldm(6)=   0.000000

     crystal axes: (cart. coord. in units of alat)
               a(1) = (   6.579727   0.000000   0.000000 )
               a(2) = (  -0.000775   5.961596   0.000000 )
               a(3) = (   0.000000   0.000000  25.155947 )

     reciprocal axes: (cart. coord. in units 2 pi/alat)
               b(1) = (  0.151982  0.000020  0.000000 )
               b(2) = (  0.000000  0.167740  0.000000 )
               b(3) = (  0.000000  0.000000  0.039752 )

     PseudoPot. # 1 for Ti read from file:
     /storage/coda1/p-amedford6/0/shared/rich_project_chbe-medford/medford-share/data/pseudos_module/espresso/nninc/pbe/van/Ti.UPF
     MD5 check sum: 8e4df49b7f0d34bbd5052bf3f5ea0213
     Pseudo is Ultrasoft, Zval = 12.0
     Generated by new atomic code, or converted to UPF format
     Using radial grid of  851 points,  6 beta functions with:
                l(1) =   0
                l(2) =   0
                l(3) =   1
                l(4) =   1
                l(5) =   2
                l(6) =   2
     Q(r) pseudized with  8 coefficients,  rinner =    1.000   1.000   1.000
                                                       1.000   1.000

     PseudoPot. # 2 for O  read from file:
     /storage/coda1/p-amedford6/0/shared/rich_project_chbe-medford/medford-share/data/pseudos_module/espresso/nninc/pbe/van/O.UPF
     MD5 check sum: 78c19812648e8988a0fe644b0f25305e
     Pseudo is Ultrasoft, Zval =  6.0
     Generated by new atomic code, or converted to UPF format
     Using radial grid of  737 points,  4 beta functions with:
                l(1) =   0
                l(2) =   0
                l(3) =   1
                l(4) =   1
     Q(r) pseudized with  8 coefficients,  rinner =    0.800   0.800   0.800

     PseudoPot. # 3 for N  read from file:
     /storage/coda1/p-amedford6/0/shared/rich_project_chbe-medford/medford-share/data/pseudos_module/espresso/nninc/pbe/van/N.UPF
     MD5 check sum: 90d10febe142ad51ac9d5be1deb811c4
     Pseudo is Ultrasoft, Zval =  5.0
     Generated by new atomic code, or converted to UPF format
     Using radial grid of  729 points,  4 beta functions with:
                l(1) =   0
                l(2) =   0
                l(3) =   1
                l(4) =   1
     Q(r) pseudized with  8 coefficients,  rinner =    0.800   0.800   0.800

     PseudoPot. # 4 for C  read from file:
     /storage/coda1/p-amedford6/0/shared/rich_project_chbe-medford/medford-share/data/pseudos_module/espresso/nninc/pbe/van/C.UPF
     MD5 check sum: 1a69bf6b8db32088f5b2163dbdb77a27
     Pseudo is Ultrasoft, Zval =  4.0
     Generated by new atomic code, or converted to UPF format
     Using radial grid of  721 points,  4 beta functions with:
                l(1) =   0
                l(2) =   0
                l(3) =   1
                l(4) =   1
     Q(r) pseudized with  8 coefficients,  rinner =    0.800   0.800   0.800

     PseudoPot. # 5 for H  read from file:
     /storage/coda1/p-amedford6/0/shared/rich_project_chbe-medford/medford-share/data/pseudos_module/espresso/nninc/pbe/van/H.UPF
     MD5 check sum: b5ee9d7bfd3a09ee7748110bda690ff7
     Pseudo is Ultrasoft, Zval =  1.0
     Generated by new atomic code, or converted to UPF format
     Using radial grid of  615 points,  1 beta functions with:
                l(1) =   0
     Q(r) pseudized with  8 coefficients,  rinner =    0.800

     atomic species   valence    mass     pseudopotential
        Ti1           12.00    47.86700     Ti( 1.00)
        O1             6.00    15.99900     O ( 1.00)
        N1             5.00    14.00700     N ( 1.00)
        C1             4.00    12.01100     C ( 1.00)
        H1             1.00     1.00800     H ( 1.00)

     No symmetry found

   Cartesian axes

     site n.     atom                  positions (alat units)
         1           Ti1 tau(   1) = (   0.0004258   2.9801865   6.0000000  )
         2           Ti1 tau(   2) = (   3.2906075   1.4906267   6.0002472  )
         3           O1  tau(   3) = (   0.0006271   0.0005054   7.9858123  )
         4           O1  tau(   4) = (   3.2906025   0.0005020   7.3038282  )
         5           O1  tau(   5) = (   4.5942328   1.4918067   9.2879030  )
         6           O1  tau(   6) = (   1.9868534   1.4903216   9.2879459  )
         7           Ti1 tau(   7) = (   3.2907910   2.8959150   9.1758416  )
         8           Ti1 tau(   8) = (   0.0015273   1.4827037   9.2680791  )
         9           O1  tau(   9) = (   3.3049802   0.0007868  11.3057318  )
        10           O1  tau(  10) = (   0.0116148   5.9584955  10.6183126  )
        11           O1  tau(  11) = (   1.3244024   1.4905818  12.6109357  )
        12           O1  tau(  12) = (   5.3168099   1.4893704  12.6271843  )
        13           Ti1 tau(  13) = (   6.5373159   3.0114403  12.6515439  )
        14           Ti1 tau(  14) = (   3.2156784   1.4952808  12.4541107  )
        15           O1  tau(  15) = (   0.0550716   5.9579553  14.6769760  )
        16           O1  tau(  16) = (   3.3119233   0.0240268  13.8744051  )
        17           O1  tau(  17) = (   4.5754650   1.5399768  16.1198157  )
        18           O1  tau(  18) = (   2.0928293   1.5118261  15.9950610  )
        19           Ti1 tau(  19) = (   3.3312717   3.0210965  15.6459898  )
        20           Ti1 tau(  20) = (   0.0837956   1.4057146  15.8023643  )
        21           O1  tau(  21) = (   3.2904802   0.0005063   4.7018136  )
        22           O1  tau(  22) = (   0.0662678   0.0194342  17.2484716  )
        23           O1  tau(  23) = (   1.3043587   1.4918075   6.0039043  )
        24           O1  tau(  24) = (   5.2767064   1.4903225   6.0039473  )
        25           Ti1 tau(  25) = (   0.0000382   5.9609847   6.0000000  )
        26           Ti1 tau(  26) = (   3.2902200   4.4714249   6.0002472  )
        27           O1  tau(  27) = (   0.0002396   2.9813036   7.9858123  )
        28           O1  tau(  28) = (   3.2902150   2.9813002   7.3038282  )
        29           O1  tau(  29) = (   4.5938453   4.4726049   9.2879030  )
        30           O1  tau(  30) = (   1.9864658   4.4711199   9.2879459  )
        31           Ti1 tau(  31) = (   3.2891106   5.8743827   9.1763621  )
        32           Ti1 tau(  32) = (   0.0006254   4.4649316   9.2693709  )
        33           O1  tau(  33) = (   3.3066024   2.9928613  11.3071500  )
        34           O1  tau(  34) = (   0.0092240   2.9805883  10.6323155  )
        35           O1  tau(  35) = (   1.3207996   4.4694119  12.6241097  )
        36           O1  tau(  36) = (   5.3140488   4.4801720  12.6365454  )
        37           Ti1 tau(  37) = (   6.5381296   0.0208815  12.5444857  )
        38           Ti1 tau(  38) = (   3.2183512   4.4801350  12.4586296  )
        39           O1  tau(  39) = (   0.0202472   2.9427232  14.7250097  )
        40           O1  tau(  40) = (   3.3152672   2.9848540  13.8607131  )
        41           O1  tau(  41) = (   4.5737023   4.5140360  15.9163038  )
        42           O1  tau(  42) = (   2.1295162   4.4918226  16.0779194  )
        43           Ti1 tau(  43) = (   3.3279662   0.0229233  15.6733299  )
        44           Ti1 tau(  44) = (   6.5520288   4.5036137  16.2892914  )
        45           O1  tau(  45) = (   3.2900926   2.9813045   4.7018136  )
        46           O1  tau(  46) = (   1.3039711   4.4726057   6.0039043  )
        47           O1  tau(  47) = (   5.2763189   4.4711207   6.0039473  )
        48           N1  tau(  48) = (   0.3708600   2.9881754  17.6030774  )
        49           C1  tau(  49) = (   1.3543844   2.7351176  18.6431602  )
        50           H1  tau(  50) = (   1.5086739   3.6319226  19.2591966  )
        51           H1  tau(  51) = (   1.0220479   1.9069190  19.2840631  )
        52           H1  tau(  52) = (   2.3019873   2.4496563  18.1994378  )
        53           N1  tau(  53) = (   5.7269228   3.4566738  18.1314761  )
        54           H1  tau(  54) = (   5.8315057   4.0292447  18.9662490  )
        55           H1  tau(  55) = (   5.0361168   2.7172796  18.2515220  )

     number of k points=    10  Fermi-Dirac smearing, width (Ry)=  0.0073
                       cart. coord. in units 2pi/alat
        k(    1) = (   0.0000000   0.0000000   0.0000000), wk =   0.1250000
        k(    2) = (   0.0000000   0.0419351   0.0000000), wk =   0.2500000
        k(    3) = (   0.0000000  -0.0838702   0.0000000), wk =   0.1250000
        k(    4) = (   0.0379955   0.0000049   0.0000000), wk =   0.2500000
        k(    5) = (   0.0379955   0.0419400   0.0000000), wk =   0.2500000
        k(    6) = (   0.0379955  -0.0838652   0.0000000), wk =   0.2500000
        k(    7) = (   0.0379955  -0.0419301   0.0000000), wk =   0.2500000
        k(    8) = (  -0.0759910  -0.0000099   0.0000000), wk =   0.1250000
        k(    9) = (  -0.0759910   0.0419252   0.0000000), wk =   0.2500000
        k(   10) = (  -0.0759910  -0.0838800   0.0000000), wk =   0.1250000

     Initial potential from superposition of free atoms

     starting charge  380.99914, renormalised to  397.00000

     negative rho (up, down):  1.665E-02 0.000E+00

     %%%%%%%%%%%%%%%%%%%%%%%%%%%%%%%%%%%%%%%%%%%%%%%%%%%%%%%%%%%%%%%%%%%%%%%%
     %                                                                      %
     % You are using vdW-DF, which was implemented by the Thonhauser group. %
     % Please cite the following two papers that made this development      %
     % possible and the two reviews that describe the various versions:     %
     %                                                                      %
     %   T. Thonhauser et al., PRL 115, 136402 (2015).                      %
     %   T. Thonhauser et al., PRB 76, 125112 (2007).                       %
     %   K. Berland et al., Rep. Prog. Phys. 78, 066501 (2015).             %
     %   D.C. Langreth et al., J. Phys.: Condens. Matter 21, 084203 (2009). %
     %                                                                      %
     %                                                                      %
     % If you are calculating the stress with vdW-DF, please also cite:     %
     %                                                                      %
     %   R. Sabatini et al., J. Phys.: Condens. Matter 24, 424209 (2012).   %
     %                                                                      %
     %%%%%%%%%%%%%%%%%%%%%%%%%%%%%%%%%%%%%%%%%%%%%%%%%%%%%%%%%%%%%%%%%%%%%%%%

     Adding external electric field

     Computed dipole along edir(3) :
        Dipole               -9.2540 Ry au,        -23.5213 Debye
        Dipole field         -0.0175 Ry au,

        Potential amp.        1.6188 Ry
        Total length         46.3494 bohr

     Starting wfcs are  301 atomic wfcs
  @ DRIVER MODE: Message from server: STATUS
  @ DRIVER MODE: Message from server: POSDATA
  @ DRIVER MODE: Reading and sharing cell
  @ DRIVER MODE: Reading and sharing positions
  @ DRIVER MODE: Received positions

     Self-consistent Calculation

     iteration #  1     ecut=    29.40 Ry     beta= 0.05
     Davidson diagonalization with overlap
     c_bands:  1 eigenvalues not converged
     c_bands:  2 eigenvalues not converged
     c_bands:  1 eigenvalues not converged
     c_bands:  2 eigenvalues not converged
     c_bands:  2 eigenvalues not converged
     c_bands:  1 eigenvalues not converged
     c_bands:  2 eigenvalues not converged
     c_bands:  2 eigenvalues not converged
     c_bands:  4 eigenvalues not converged
     ethr =  1.00E-05,  avg # of iterations = 19.7

[...]

     total energy              =   -2525.58816655 Ry
     estimated scf accuracy    <    4612.79199898 Ry

     iteration #  2     ecut=    29.40 Ry     beta= 0.05
     Davidson diagonalization with overlap
     ethr =  1.00E-02,  avg # of iterations = 23.2

[...]

     iteration # 59     ecut=    29.40 Ry     beta= 0.05
     Davidson diagonalization with overlap
     c_bands:  1 eigenvalues not converged
     ethr =  2.37E-09,  avg # of iterations =  5.0

[...]

     total energy              =   -2941.63750856 Ry
     estimated scf accuracy    <       0.00000012 Ry

     iteration # 69     ecut=    29.40 Ry     beta= 0.05
     Davidson diagonalization with overlap
     ethr =  3.02E-11,  avg # of iterations = 12.3

     negative rho (up, down):  1.674E-02 0.000E+00

     Adding external electric field

     Computed dipole along edir(3) :
        Dipole                1.1488 Ry au,          2.9199 Debye
        Dipole field          0.0022 Ry au,

        Potential amp.       -0.2010 Ry
        Total length         46.3494 bohr

     End of self-consistent calculation

          k = 0.0000 0.0000 0.0000 ( 18029 PWs)   bands (ev):

   -55.5726 -55.5696 -55.5357 -55.5355 -55.4591 -55.4228 -55.4212 -55.3876
   -55.3701 -55.3361 -55.3251 -55.2913 -55.0320 -54.8866 -54.5358 -54.5018
   -32.1353 -32.0508 -31.9563 -31.8921 -31.8870 -31.8722 -31.8622 -31.8177
   -31.8102 -31.8039 -31.7837 -31.7585 -31.7546 -31.7251 -31.7219 -31.7144
   -31.6728 -31.6598 -31.6569 -31.6478 -31.6470 -31.6269 -31.6109 -31.5952
   -31.5684 -31.5675 -31.5657 -31.5577 -31.5555 -31.5290 -31.5053 -31.5043
   -31.4983 -31.4920 -31.4797 -31.4735 -31.4388 -31.3082 -31.2570 -31.1579
   -31.1396 -31.0474 -30.9422 -30.8557 -30.8331 -30.7593 -30.6728 -30.5614
   -17.5940 -16.3613 -16.0480 -15.8370 -15.7257 -15.7212 -15.6373 -15.4163
   -15.2962 -15.2808 -15.1645 -15.1596 -15.1009 -15.0603 -15.0539 -15.0483
   -15.0134 -15.0012 -14.9828 -14.9525 -14.9141 -14.8964 -14.8765 -14.7704
   -14.7084 -14.6985 -14.6829 -14.6159 -14.5718 -14.2075 -13.0379 -12.9217
   -12.5444  -9.2003  -6.3489  -5.0911  -4.2103  -3.7395  -3.5485  -3.4728
    -3.4380  -3.3743  -3.3489  -3.1816  -3.1743  -2.7964  -2.7756  -2.7565
    -2.7349  -2.7322  -2.4643  -2.4111  -2.3949  -2.3925  -2.3750  -2.3572
    -2.3359  -2.3252  -2.2968  -2.2908  -2.1552  -2.1104  -2.0315  -2.0012
    -1.9912  -1.8778  -1.8544  -1.8330  -1.8220  -1.8077  -1.7794  -1.7715
    -1.7512  -1.6424  -1.5335  -1.4601  -1.4146  -1.3606  -1.3439  -1.1616
    -1.1113  -1.0521  -1.0271  -1.0020  -0.9870  -0.9534  -0.8791  -0.8553
    -0.7134  -0.6752  -0.6220  -0.5959  -0.5653  -0.5094  -0.4745  -0.4467
    -0.3502  -0.3374  -0.3257  -0.3128  -0.2532  -0.0649  -0.0176   0.0005
     0.0162   0.1162   0.1559   0.1788   0.2157   0.2714   0.2973   0.3640
     0.3941   0.4137   0.4235   0.4475   0.4699   0.6015   0.6292   0.6594
     0.7182   0.7721   0.8489   0.9609   1.0469   1.0998   1.2009   1.4194
     1.4866   1.5704   1.6803   1.7040   2.0561   2.1010   3.5656   3.6558
     3.6941   3.7080   3.8150   3.8667   4.0145   4.0243   4.0670   4.0962

[...]

          k = 0.0380-0.0419 0.0000 ( 17876 PWs)   bands (ev):

[...]

          k =-0.0760-0.0000 0.0000 ( 17886 PWs)   bands (ev):

[...]

          k =-0.0760-0.0839 0.0000 ( 17948 PWs)   bands (ev):

   -55.5573 -55.5531 -55.5519 -55.5507 -55.4483 -55.4319 -55.4078 -55.4025
   -55.3546 -55.3512 -55.3099 -55.3067 -55.0306 -54.8879 -54.5188 -54.5186
   -31.9403 -31.9315 -31.8665 -31.8658 -31.8481 -31.8471 -31.8426 -31.8273
   -31.8005 -31.7868 -31.7674 -31.7485 -31.7204 -31.7118 -31.7068 -31.6818
   -31.6794 -31.6728 -31.6714 -31.6671 -31.6643 -31.6512 -31.6480 -31.6441
   -31.6249 -31.6129 -31.6028 -31.6008 -31.5519 -31.5498 -31.5427 -31.5410
   -31.5339 -31.5303 -31.5252 -31.5236 -31.4135 -31.3202 -31.2588 -31.2192
   -31.1451 -31.0593 -30.8459 -30.8458 -30.7551 -30.7548 -30.7161 -30.7160
   -17.5822 -15.8189 -15.7833 -15.5256 -15.5181 -15.5163 -15.4747 -15.3520
   -15.3035 -15.2769 -15.2653 -15.2464 -15.2401 -15.1352 -15.1226 -15.1053
   -15.0955 -15.0697 -15.0259 -15.0201 -15.0130 -15.0026 -14.9908 -14.9264
   -14.8714 -14.8676 -14.7590 -14.6644 -14.5218 -14.4377 -13.0238 -13.0234
   -12.5638  -9.1611  -6.3082  -5.1207  -4.1437  -3.4198  -3.1201  -3.0761
    -2.7875  -2.7683  -2.7544  -2.6381  -2.5182  -2.5091  -2.4844  -2.4613
    -2.4284  -2.4142  -2.4059  -2.3975  -2.3790  -2.3602  -2.3492  -2.3106
    -2.2415  -2.2341  -2.2258  -2.2165  -2.2000  -2.1760  -2.1662  -2.1380
    -2.1137  -2.0807  -2.0214  -1.9904  -1.8398  -1.7934  -1.7400  -1.6950
    -1.6866  -1.6573  -1.6238  -1.6162  -1.5086  -1.4945  -1.4589  -1.3288
    -1.2675  -1.2595  -1.2269  -1.1414  -1.1017  -0.9724  -0.9591  -0.9233
    -0.8694  -0.8585  -0.8212  -0.7838  -0.7318  -0.6802  -0.6362  -0.6118
    -0.5951  -0.5233  -0.5226  -0.4766  -0.4190  -0.3506  -0.3257  -0.3180
    -0.2867  -0.2426  -0.1967  -0.1317  -0.0571  -0.0368  -0.0213   0.0764
     0.1527   0.3688   0.4143   0.5160   0.5358   0.5608   0.6241   0.6728
     0.7425   0.7564   0.7858   0.8596   0.8814   0.9726   0.9831   0.9995
     1.1782   1.6359   1.8520   1.8530   1.9207   1.9213   3.8596   3.8731
     3.8993   3.9233   4.0847   4.0885   4.1008   4.1035   4.2238   4.2545

     the Fermi energy is     3.5643 ev

!    total energy              =   -2941.63752504 Ry
     estimated scf accuracy    <       0.00000006 Ry
     smearing contrib. (-TS)   =      -0.02170736 Ry
     internal energy E=F+TS    =   -2941.61581768 Ry

     The total energy is F=E-TS. E is the sum of the following terms:
     one-electron contribution =  -24405.29172722 Ry
     hartree contribution      =   12294.59463468 Ry
     xc contribution           =    -486.94302557 Ry
     ewald contribution        =    9656.02181007 Ry
     electric field correction =       0.00249036 Ry

     convergence has been achieved in  69 iterations

     Forces acting on atoms (cartesian axes, Ry/au):

     atom    1 type  1   force =     0.00002217   -0.00018579    0.09683189
     atom    2 type  1   force =     0.00010419   -0.00066644   -0.17457876
     atom    3 type  2   force =     0.00020148   -0.00005153   -0.02505323
     atom    4 type  2   force =     0.00001447   -0.00122552    0.05109309
     atom    5 type  2   force =    -0.01107984   -0.00078524    0.00213706
     atom    6 type  2   force =     0.01302683   -0.00028865    0.00281571
     atom    7 type  1   force =     0.00114286    0.00019447   -0.01336903
     atom    8 type  1   force =    -0.00018118    0.01541017    0.02797328
     atom    9 type  2   force =    -0.00011549    0.00045080    0.00002947
     atom   10 type  2   force =    -0.00221728    0.00097832   -0.01127283
     atom   11 type  2   force =     0.00029940   -0.00011530    0.00016312
     atom   12 type  2   force =    -0.00025820   -0.00012516    0.00039070
     atom   13 type  1   force =    -0.00008820   -0.00027478    0.00009852
     atom   14 type  1   force =     0.00012012    0.00012497   -0.00006418
     atom   15 type  2   force =     0.00011826   -0.00051300   -0.00036512
     atom   16 type  2   force =    -0.00044003    0.00017042    0.00028440
     atom   17 type  2   force =    -0.00019411   -0.00002576   -0.00007188
     atom   18 type  2   force =    -0.00037146    0.00001000    0.00019849
     atom   19 type  1   force =     0.00000028    0.00038114   -0.00035849
     atom   20 type  1   force =    -0.00032335   -0.00000317    0.00021598
     atom   21 type  2   force =     0.00004964   -0.00009812    0.10298889
     atom   22 type  2   force =    -0.00075937   -0.00036360    0.00040922
     atom   23 type  2   force =    -0.07180205   -0.00021920   -0.02779325
     atom   24 type  2   force =     0.07177496    0.00023680   -0.02785358
     atom   25 type  1   force =     0.00004711   -0.00022901    0.09637187
     atom   26 type  1   force =    -0.00000894   -0.00030991   -0.17484535
     atom   27 type  2   force =     0.00020156   -0.00025608   -0.02389772
     atom   28 type  2   force =     0.00007511   -0.00096238    0.05131562
     atom   29 type  2   force =    -0.01108046    0.00096012    0.00150076
     atom   30 type  2   force =     0.01288046    0.00120123    0.00213089
     atom   31 type  1   force =     0.00115385    0.00256909   -0.01567633
     atom   32 type  1   force =    -0.00001771   -0.01667744    0.02889022
     atom   33 type  2   force =    -0.00018088   -0.00045273    0.00045474
     atom   34 type  2   force =    -0.00258461    0.00114471   -0.01891457
     atom   35 type  2   force =    -0.00010692   -0.00011083    0.00002785
     atom   36 type  2   force =    -0.00002820   -0.00018728    0.00021581
     atom   37 type  1   force =    -0.00025207   -0.00016246    0.00048214
     atom   38 type  1   force =     0.00010417   -0.00053707    0.00033085
     atom   39 type  2   force =     0.00004890    0.00045874    0.00018246
     atom   40 type  2   force =    -0.00031959   -0.00013121   -0.00069474
     atom   41 type  2   force =     0.00015379    0.00000660    0.00004722
     atom   42 type  2   force =    -0.00014667    0.00017222    0.00022571
     atom   43 type  1   force =     0.00006275   -0.00047105   -0.00080962
     atom   44 type  1   force =    -0.00056451    0.00131362   -0.00030373
     atom   45 type  2   force =     0.00006172   -0.00011255    0.10299886
     atom   46 type  2   force =    -0.07182418   -0.00017177   -0.02780988
     atom   47 type  2   force =     0.07178047    0.00021610   -0.02785684
     atom   48 type  3   force =    -0.00023236   -0.00048417   -0.00089137
     atom   49 type  4   force =    -0.00264252   -0.00133169    0.00228440
     atom   50 type  5   force =     0.00005139   -0.00015612    0.00043250
     atom   51 type  5   force =     0.00205893    0.00171727   -0.00169015
     atom   52 type  5   force =     0.00106269   -0.00111401    0.00056826
     atom   53 type  3   force =     0.00054171    0.00046455    0.00067977
     atom   54 type  5   force =     0.00062064   -0.00021231    0.00112894
     atom   55 type  5   force =     0.00004025    0.00083003   -0.00172805

     Total force =     0.367153     Total SCF correction =     0.000670
  @ DRIVER MODE: Message from server: STATUS
  @ DRIVER MODE: Message from server: GETFORCE
  @ DRIVER MODE: Returning v,forces,stress,ensemble

     Writing output data file ./calc.save/
  @ DRIVER MODE: Message from server: EXIT
  @ DRIVE MODE: Exiting

     General routines

     Parallel routines

   This run was terminated on:  18:38:55   2Aug2021

   JOB DONE.