     Program PWSCF v.6.7GPU starts on 16Sep2021 at  4:48:47

     R & G space division:  proc/nbgrp/npool/nimage =      10
     Reading input from /storage/home/hcoda1/3/ntian30/research/carbon/CxH_vib/H2O_calc/ads_slab/CHN2HH2O_a/out_0043/pw.inp
Warning: card &CELL ignored
Warning: card   CELL_DYNAMICS='IPI', ignored
Warning: card / ignored

     Current dimensions of program PWSCF are:
     Max number of different atomic species (ntypx) = 10
     Max number of k-points (npk) =  40000
     Max angular momentum in pseudopotentials (lmaxx) =  3
     Presently no symmetry can be used with electric field

     Message from routine cell_base_init:
     DEPRECATED: use true lattice parameter, not A to a.u. conversion factor

     IMPORTANT: XC functional enforced from input :
     Exchange-correlation= BEEF-VDW
                           (   1   4  43  14   2   0   0)
     Any further DFT definition will be discarded
     Please, verify this is what you really want

  @ DRIVER MODE: Connecting to
 qe_1139763_2852626.sched-torque.pace.gatech.eduwdnu06s6_scratch
  using UNIX socket
  @ DRIVER MODE: Message from server: STATUS
  @ DRIVER MODE: Message from server: INIT
  @ DRIVER MODE: Receiving replica           0          -1
  @ DRIVER MODE: Receiving encoded integer          25
  @ DRIVER MODE:  SCF:  T  FORCE:  T  STRESS:  F  VC:  F  ENSEMBLE:  F
  @ DRIVER MODE:  SCF:  T  FORCE:  T  STRESS:  F  VC:  F  ENSEMBLE:  F

     Using Slab Decomposition

     bravais-lattice index     =            0
     lattice parameter (alat)  =       1.8897  a.u.
     unit-cell volume          =    6658.9804 (a.u.)^3
     number of atoms/cell      =           55
     number of atomic types    =            5
     number of electrons       =       402.00
     number of Kohn-Sham states=          211
     kinetic-energy cutoff     =      29.3995  Ry
     charge density cutoff     =     293.9946  Ry
     scf convergence threshold =      7.3E-08
     mixing beta               =       0.0500
     number of iterations used =            8  plain     mixing
     Exchange-correlation= BEEF-VDW
                           (   1   4  43  14   2   0   0)

     celldm(1)=   1.889726  celldm(2)=   0.000000  celldm(3)=   0.000000
     celldm(4)=   0.000000  celldm(5)=   0.000000  celldm(6)=   0.000000

     crystal axes: (cart. coord. in units of alat)
               a(1) = (   6.579727   0.000000   0.000000 )
               a(2) = (  -0.000775   5.961596   0.000000 )
               a(3) = (   0.000000   0.000000  25.155947 )

     reciprocal axes: (cart. coord. in units 2 pi/alat)
               b(1) = (  0.151982  0.000020  0.000000 )
               b(2) = (  0.000000  0.167740  0.000000 )
               b(3) = (  0.000000  0.000000  0.039752 )

     PseudoPot. # 1 for Ti read from file:
     /storage/coda1/p-amedford6/0/shared/rich_project_chbe-medford/medford-share/data/pseudos_module/espresso/nninc/pbe/van/Ti.UPF
     MD5 check sum: 8e4df49b7f0d34bbd5052bf3f5ea0213
     Pseudo is Ultrasoft, Zval = 12.0
     Generated by new atomic code, or converted to UPF format
     Using radial grid of  851 points,  6 beta functions with:
                l(1) =   0
                l(2) =   0
                l(3) =   1
                l(4) =   1
                l(5) =   2
                l(6) =   2
     Q(r) pseudized with  8 coefficients,  rinner =    1.000   1.000   1.000
                                                       1.000   1.000

     PseudoPot. # 2 for O  read from file:
     /storage/coda1/p-amedford6/0/shared/rich_project_chbe-medford/medford-share/data/pseudos_module/espresso/nninc/pbe/van/O.UPF
     MD5 check sum: 78c19812648e8988a0fe644b0f25305e
     Pseudo is Ultrasoft, Zval =  6.0
     Generated by new atomic code, or converted to UPF format
     Using radial grid of  737 points,  4 beta functions with:
                l(1) =   0
                l(2) =   0
                l(3) =   1
                l(4) =   1
     Q(r) pseudized with  8 coefficients,  rinner =    0.800   0.800   0.800

     PseudoPot. # 3 for N  read from file:
     /storage/coda1/p-amedford6/0/shared/rich_project_chbe-medford/medford-share/data/pseudos_module/espresso/nninc/pbe/van/N.UPF
     MD5 check sum: 90d10febe142ad51ac9d5be1deb811c4
     Pseudo is Ultrasoft, Zval =  5.0
     Generated by new atomic code, or converted to UPF format
     Using radial grid of  729 points,  4 beta functions with:
                l(1) =   0
                l(2) =   0
                l(3) =   1
                l(4) =   1
     Q(r) pseudized with  8 coefficients,  rinner =    0.800   0.800   0.800

     PseudoPot. # 4 for C  read from file:
     /storage/coda1/p-amedford6/0/shared/rich_project_chbe-medford/medford-share/data/pseudos_module/espresso/nninc/pbe/van/C.UPF
     MD5 check sum: 1a69bf6b8db32088f5b2163dbdb77a27
     Pseudo is Ultrasoft, Zval =  4.0
     Generated by new atomic code, or converted to UPF format
     Using radial grid of  721 points,  4 beta functions with:
                l(1) =   0
                l(2) =   0
                l(3) =   1
                l(4) =   1
     Q(r) pseudized with  8 coefficients,  rinner =    0.800   0.800   0.800

     PseudoPot. # 5 for H  read from file:
     /storage/coda1/p-amedford6/0/shared/rich_project_chbe-medford/medford-share/data/pseudos_module/espresso/nninc/pbe/van/H.UPF
     MD5 check sum: b5ee9d7bfd3a09ee7748110bda690ff7
     Pseudo is Ultrasoft, Zval =  1.0
     Generated by new atomic code, or converted to UPF format
     Using radial grid of  615 points,  1 beta functions with:
                l(1) =   0
     Q(r) pseudized with  8 coefficients,  rinner =    0.800

     atomic species   valence    mass     pseudopotential
        Ti1           12.00    47.86700     Ti( 1.00)
        O1             6.00    15.99900     O ( 1.00)
        N1             5.00    14.00700     N ( 1.00)
        C1             4.00    12.01100     C ( 1.00)
        H1             1.00     1.00800     H ( 1.00)

     No symmetry found

   Cartesian axes

     site n.     atom                  positions (alat units)
         1           Ti1 tau(   1) = (   0.0004258   2.9801865   6.0000000  )
         2           Ti1 tau(   2) = (   3.2906075   1.4906267   6.0002472  )
         3           O1  tau(   3) = (   0.0006271   0.0005054   7.9858123  )
         4           O1  tau(   4) = (   3.2906025   0.0005020   7.3038282  )
         5           O1  tau(   5) = (   4.5942328   1.4918067   9.2879030  )
         6           O1  tau(   6) = (   1.9868534   1.4903216   9.2879459  )
         7           Ti1 tau(   7) = (   3.2907910   2.8959150   9.1758416  )
         8           Ti1 tau(   8) = (   0.0015273   1.4827037   9.2680791  )
         9           O1  tau(   9) = (   3.2768631   0.0039008  11.3091060  )
        10           O1  tau(  10) = (   0.0116148   5.9584955  10.6183126  )
        11           O1  tau(  11) = (   1.2710838   1.4709840  12.6395574  )
        12           O1  tau(  12) = (   5.2772223   1.5075092  12.6020671  )
        13           Ti1 tau(  13) = (   0.0276258   2.9086511  12.7028215  )
        14           Ti1 tau(  14) = (   3.3492493   1.4375301  12.4845766  )
        15           O1  tau(  15) = (   6.5006329   5.9509897  14.6081112  )
        16           O1  tau(  16) = (   3.3450391   0.0041935  13.9069437  )
        17           O1  tau(  17) = (   4.5555219   1.5659029  16.0522165  )
        18           O1  tau(  18) = (   1.9836904   1.4119734  15.8927236  )
        19           Ti1 tau(  19) = (   3.2827818   2.9316656  15.8555152  )
        20           Ti1 tau(  20) = (   6.5629331   1.3437128  15.9803530  )
        21           O1  tau(  21) = (   3.2904802   0.0005063   4.7018136  )
        22           O1  tau(  22) = (   6.5074089   5.9525318  17.1494500  )
        23           O1  tau(  23) = (   1.3043587   1.4918075   6.0039043  )
        24           O1  tau(  24) = (   5.2767064   1.4903225   6.0039473  )
        25           Ti1 tau(  25) = (   0.0000382   5.9609847   6.0000000  )
        26           Ti1 tau(  26) = (   3.2902200   4.4714249   6.0002472  )
        27           O1  tau(  27) = (   0.0002396   2.9813036   7.9858123  )
        28           O1  tau(  28) = (   3.2902150   2.9813002   7.3038282  )
        29           O1  tau(  29) = (   4.5938453   4.4726049   9.2879030  )
        30           O1  tau(  30) = (   1.9864658   4.4711199   9.2879459  )
        31           Ti1 tau(  31) = (   3.2891106   5.8743827   9.1763621  )
        32           Ti1 tau(  32) = (   0.0006254   4.4649316   9.2693709  )
        33           O1  tau(  33) = (   3.2854303   2.9668816  11.2996989  )
        34           O1  tau(  34) = (   0.0092240   2.9805883  10.6323155  )
        35           O1  tau(  35) = (   1.2743094   4.4851408  12.6236879  )
        36           O1  tau(  36) = (   5.2782958   4.4707264  12.5946799  )
        37           Ti1 tau(  37) = (   0.0481499   5.8920156  12.5607908  )
        38           Ti1 tau(  38) = (   3.3544845   4.3749597  12.5572158  )
        39           O1  tau(  39) = (   6.5410016   3.0017514  14.6365314  )
        40           O1  tau(  40) = (   3.2441134   3.0029108  13.8718978  )
        41           O1  tau(  41) = (   4.5385932   4.4028810  16.0550583  )
        42           O1  tau(  42) = (   1.9619458   4.5383001  15.8611175  )
        43           Ti1 tau(  43) = (   3.2178196   5.9097812  15.7399460  )
        44           Ti1 tau(  44) = (   6.5330930   4.4908980  15.8705378  )
        45           O1  tau(  45) = (   3.2900926   2.9813045   4.7018136  )
        46           O1  tau(  46) = (   1.3039711   4.4726057   6.0039043  )
        47           O1  tau(  47) = (   5.2763189   4.4711207   6.0039473  )
        48           N1  tau(  48) = (   1.2867840   3.0293760  18.3347772  )
        49           C1  tau(  49) = (   2.5003166   3.0326976  17.9707196  )
        50           H1  tau(  50) = (   3.2053588   3.1791635  18.8000936  )
        51           N1  tau(  51) = (   0.2138509   2.9871109  17.4421441  )
        52           H1  tau(  52) = (   5.9621615   2.9869774  18.0311354  )
        53           O1  tau(  53) = (   3.4290693   5.9360351  18.0748810  )
        54           H1  tau(  54) = (   4.3780305   0.1327944  18.2306609  )
        55           H1  tau(  55) = (   2.9358904   0.7245148  18.4607207  )

     number of k points=    10  Fermi-Dirac smearing, width (Ry)=  0.0073
                       cart. coord. in units 2pi/alat
        k(    1) = (   0.0000000   0.0000000   0.0000000), wk =   0.1250000
        k(    2) = (   0.0000000   0.0419351   0.0000000), wk =   0.2500000
        k(    3) = (   0.0000000  -0.0838702   0.0000000), wk =   0.1250000
        k(    4) = (   0.0379955   0.0000049   0.0000000), wk =   0.2500000
        k(    5) = (   0.0379955   0.0419400   0.0000000), wk =   0.2500000
        k(    6) = (   0.0379955  -0.0838652   0.0000000), wk =   0.2500000
        k(    7) = (   0.0379955  -0.0419301   0.0000000), wk =   0.2500000
        k(    8) = (  -0.0759910  -0.0000099   0.0000000), wk =   0.1250000
        k(    9) = (  -0.0759910   0.0419252   0.0000000), wk =   0.2500000
        k(   10) = (  -0.0759910  -0.0838800   0.0000000), wk =   0.1250000

     Initial potential from superposition of free atoms

     starting charge  385.99915, renormalised to  402.00000

     negative rho (up, down):  1.831E-02 0.000E+00

     %%%%%%%%%%%%%%%%%%%%%%%%%%%%%%%%%%%%%%%%%%%%%%%%%%%%%%%%%%%%%%%%%%%%%%%%
     %                                                                      %
     % You are using vdW-DF, which was implemented by the Thonhauser group. %
     % Please cite the following two papers that made this development      %
     % possible and the two reviews that describe the various versions:     %
     %                                                                      %
     %   T. Thonhauser et al., PRL 115, 136402 (2015).                      %
     %   T. Thonhauser et al., PRB 76, 125112 (2007).                       %
     %   K. Berland et al., Rep. Prog. Phys. 78, 066501 (2015).             %
     %   D.C. Langreth et al., J. Phys.: Condens. Matter 21, 084203 (2009). %
     %                                                                      %
     %                                                                      %
     % If you are calculating the stress with vdW-DF, please also cite:     %
     %                                                                      %
     %   R. Sabatini et al., J. Phys.: Condens. Matter 24, 424209 (2012).   %
     %                                                                      %
     %%%%%%%%%%%%%%%%%%%%%%%%%%%%%%%%%%%%%%%%%%%%%%%%%%%%%%%%%%%%%%%%%%%%%%%%

     Adding external electric field

     Computed dipole along edir(3) :
        Dipole              -11.0899 Ry au,        -28.1877 Debye
        Dipole field         -0.0209 Ry au,

        Potential amp.        1.9400 Ry
        Total length         46.3494 bohr

     Starting wfcs are  304 atomic wfcs
  @ DRIVER MODE: Message from server: STATUS
  @ DRIVER MODE: Message from server: POSDATA
  @ DRIVER MODE: Reading and sharing cell
  @ DRIVER MODE: Reading and sharing positions
  @ DRIVER MODE: Received positions

     Self-consistent Calculation

     iteration #  1     ecut=    29.40 Ry     beta= 0.05
     Davidson diagonalization with overlap
     c_bands:  5 eigenvalues not converged
     c_bands:  1 eigenvalues not converged
     c_bands:  3 eigenvalues not converged
     c_bands:  4 eigenvalues not converged
     c_bands:  1 eigenvalues not converged
     c_bands:  1 eigenvalues not converged
     c_bands:  1 eigenvalues not converged
     c_bands:  1 eigenvalues not converged
     ethr =  1.00E-05,  avg # of iterations = 28.9

[...]

     total energy              =   -2403.82952160 Ry
     estimated scf accuracy    <    6374.29743747 Ry

     iteration #  2     ecut=    29.40 Ry     beta= 0.05
     Davidson diagonalization with overlap
     ethr =  1.00E-02,  avg # of iterations = 25.5

[...]

     iteration # 47     ecut=    29.40 Ry     beta= 0.05
     Davidson diagonalization with overlap
     c_bands:  1 eigenvalues not converged
     ethr =  1.78E-07,  avg # of iterations =  8.2

[...]

     total energy              =   -2972.69105832 Ry
     estimated scf accuracy    <       0.00000009 Ry

     iteration # 64     ecut=    29.40 Ry     beta= 0.05
     Davidson diagonalization with overlap
     ethr =  2.27E-11,  avg # of iterations =  5.4

     negative rho (up, down):  1.793E-02 0.000E+00

     Adding external electric field

     Computed dipole along edir(3) :
        Dipole                0.3626 Ry au,          0.9216 Debye
        Dipole field          0.0007 Ry au,

        Potential amp.       -0.0634 Ry
        Total length         46.3494 bohr

     End of self-consistent calculation

          k = 0.0000 0.0000 0.0000 ( 18029 PWs)   bands (ev):

   -56.3431 -56.3093 -55.9411 -55.9074 -55.7529 -55.7163 -55.5607 -55.5554
   -55.5477 -55.5242 -55.5144 -55.4519 -55.2537 -55.2401 -55.1465 -55.1125
   -32.7966 -32.6356 -32.6087 -32.5012 -32.4205 -32.4162 -32.4083 -32.2417
   -32.1586 -32.1543 -32.0959 -32.0831 -32.0685 -32.0441 -32.0384 -31.9780
   -31.9755 -31.9672 -31.9339 -31.9101 -31.9096 -31.8667 -31.8516 -31.8426
   -31.8180 -31.7801 -31.7596 -31.7322 -31.7290 -31.7101 -31.7083 -31.7053
   -31.6899 -31.6700 -31.6532 -31.6394 -31.5514 -31.5451 -31.5125 -31.4987
   -31.4771 -31.4704 -31.4536 -31.4413 -31.3632 -31.3336 -31.2783 -31.1666
   -18.7080 -16.9407 -16.6599 -16.3479 -16.1459 -15.9627 -15.8992 -15.8406
   -15.7882 -15.6673 -15.6053 -15.5769 -15.5049 -15.4000 -15.3805 -15.3533
   -15.3023 -15.2852 -15.2681 -15.2391 -15.1852 -15.1510 -15.1334 -15.0576
   -15.0362 -15.0246 -14.8998 -14.8324 -14.8084 -14.7731 -14.5214 -13.6452
   -13.5322 -12.2827  -6.7313  -6.5232  -4.1616  -4.0812  -3.9065  -3.7711
    -3.6672  -3.6188  -3.4642  -3.4082  -3.3653  -3.2510  -3.1196  -3.0884
    -3.0157  -2.9653  -2.9210  -2.8643  -2.8046  -2.7597  -2.7182  -2.6346
    -2.6298  -2.6168  -2.5995  -2.5809  -2.5630  -2.4479  -2.3562  -2.3374
    -2.3148  -2.2722  -2.2527  -2.2404  -2.1905  -2.1607  -2.0775  -2.0682
    -2.0213  -1.9633  -1.9162  -1.8084  -1.7967  -1.7193  -1.7029  -1.6613
    -1.5292  -1.4058  -1.3754  -1.3228  -1.3065  -1.2251  -1.2048  -1.1763
    -1.0793  -1.0671  -1.0230  -1.0013  -0.8770  -0.8510  -0.8034  -0.7956
    -0.7654  -0.6685  -0.6321  -0.5199  -0.4762  -0.4310  -0.4212  -0.3469
    -0.3180  -0.2737  -0.2232  -0.1700  -0.1683  -0.1402  -0.0569  -0.0162
     0.0298   0.0787   0.1141   0.2021   0.2558   0.2923   0.3071   0.3952
     0.4380   0.4533   0.5184   0.5872   0.6382   0.7049   0.7485   0.8624
     0.8773   0.8944   0.9765   1.0993   1.4088   1.4303   1.4706   1.6590
     2.6477   2.8800   3.0010   3.1652   3.3102   3.3599   3.6300   3.6850
     3.7275   3.7604   3.8346

[...]

          k = 0.0380-0.0419 0.0000 ( 17876 PWs)   bands (ev):

[...]

          k =-0.0760-0.0000 0.0000 ( 17886 PWs)   bands (ev):

[...]

          k =-0.0760-0.0839 0.0000 ( 17948 PWs)   bands (ev):

   -56.3267 -56.3256 -55.9260 -55.9223 -55.7415 -55.7276 -55.5549 -55.5449
   -55.5383 -55.5334 -55.5295 -55.4505 -55.2549 -55.2410 -55.1294 -55.1294
   -32.6217 -32.6204 -32.6128 -32.6122 -32.4535 -32.4522 -32.2416 -32.2375
   -32.1313 -32.1279 -32.1184 -32.1111 -32.0417 -32.0315 -31.9695 -31.9596
   -31.9501 -31.9473 -31.8983 -31.8876 -31.8671 -31.8652 -31.8584 -31.8283
   -31.8122 -31.7813 -31.7746 -31.7584 -31.7557 -31.7473 -31.7464 -31.7310
   -31.7260 -31.7167 -31.7055 -31.6362 -31.6089 -31.5558 -31.5263 -31.5110
   -31.4749 -31.4665 -31.4665 -31.3594 -31.3592 -31.3350 -31.3209 -31.3208
   -18.7055 -16.9193 -16.0643 -16.0519 -15.9341 -15.9291 -15.7505 -15.7322
   -15.6982 -15.6729 -15.6363 -15.5499 -15.4854 -15.4777 -15.4709 -15.4071
   -15.3620 -15.3528 -15.3337 -15.3057 -15.2794 -15.2533 -15.1616 -15.1356
   -15.1317 -15.1021 -15.0205 -15.0083 -14.9481 -14.8111 -14.7400 -13.6353
   -13.6348 -12.3039  -6.7116  -6.4464  -3.9942  -3.8291  -3.2347  -3.1756
    -3.1698  -3.0654  -3.0377  -2.9647  -2.8678  -2.8478  -2.8362  -2.8023
    -2.7776  -2.7691  -2.7519  -2.7084  -2.6606  -2.6391  -2.6233  -2.6147
    -2.6095  -2.5963  -2.5660  -2.5369  -2.4790  -2.4698  -2.4361  -2.4180
    -2.3897  -2.3128  -2.3037  -2.2895  -2.2877  -2.2318  -2.1329  -2.1173
    -2.1085  -2.0656  -2.0009  -1.9310  -1.8424  -1.8005  -1.7336  -1.6785
    -1.6225  -1.5939  -1.5815  -1.4826  -1.4231  -1.4127  -1.3655  -1.3130
    -1.2325  -1.1975  -1.1599  -1.1485  -1.1360  -1.0961  -1.0420  -0.9851
    -0.8701  -0.8456  -0.8357  -0.7727  -0.7684  -0.7583  -0.6487  -0.6178
    -0.5671  -0.5419  -0.5222  -0.4840  -0.4550  -0.3800  -0.2892  -0.2420
    -0.1146  -0.0987  -0.0444   0.0032   0.0151   0.1064   0.1947   0.2187
     0.3575   0.3716   0.4040   0.5367   0.6065   0.6574   0.6752   0.7977
     0.8170   0.8527   1.0195   1.2637   1.2681   1.2869   1.2880   1.6088
     2.6244   3.4193   3.4215   3.4515   3.4537   3.6636   3.6770   3.7552
     3.7933   3.8857   3.9062

     the Fermi energy is     2.8215 ev

!    total energy              =   -2972.69111213 Ry
     estimated scf accuracy    <       0.00000006 Ry
     smearing contrib. (-TS)   =      -0.01345378 Ry
     internal energy E=F+TS    =   -2972.67765835 Ry

     The total energy is F=E-TS. E is the sum of the following terms:
     one-electron contribution =  -24586.69335735 Ry
     hartree contribution      =   12385.36712202 Ry
     xc contribution           =    -493.16987234 Ry
     ewald contribution        =    9721.81820125 Ry
     electric field correction =       0.00024808 Ry

     convergence has been achieved in  64 iterations

     Forces acting on atoms (cartesian axes, Ry/au):

     atom    1 type  1   force =    -0.00001188   -0.00027865    0.10610468
     atom    2 type  1   force =    -0.00022492   -0.00076479   -0.16689918
     atom    3 type  2   force =    -0.00002471   -0.00013673   -0.03888580
     atom    4 type  2   force =    -0.00009969   -0.00037539    0.03647571
     atom    5 type  2   force =    -0.00755886   -0.00013244   -0.00577782
     atom    6 type  2   force =     0.00857146    0.00077759   -0.00746257
     atom    7 type  1   force =    -0.00079664   -0.00145411    0.01972997
     atom    8 type  1   force =     0.00110170    0.01827331    0.06310439
     atom    9 type  2   force =    -0.00008553   -0.00019870    0.00033366
     atom   10 type  2   force =    -0.00265161    0.00203305   -0.04762304
     atom   11 type  2   force =    -0.00024466   -0.00001997    0.00010612
     atom   12 type  2   force =     0.00038817   -0.00013752    0.00007227
     atom   13 type  1   force =     0.00005884   -0.00010940   -0.00044161
     atom   14 type  1   force =    -0.00048816   -0.00001059    0.00002900
     atom   15 type  2   force =     0.00026239    0.00009142   -0.00027665
     atom   16 type  2   force =    -0.00011868   -0.00028879    0.00053079
     atom   17 type  2   force =     0.00009493   -0.00021995    0.00033239
     atom   18 type  2   force =     0.00009117    0.00007599   -0.00024152
     atom   19 type  1   force =     0.00011350    0.00005617    0.00121910
     atom   20 type  1   force =     0.00013836    0.00028475   -0.00006733
     atom   21 type  2   force =     0.00004658   -0.00001961    0.10087956
     atom   22 type  2   force =     0.00032500    0.00025801    0.00059814
     atom   23 type  2   force =    -0.07577594   -0.00011948   -0.02986530
     atom   24 type  2   force =     0.07566863    0.00033549   -0.02987610
     atom   25 type  1   force =     0.00020283   -0.00056075    0.10647014
     atom   26 type  1   force =    -0.00005930   -0.00026918   -0.16734050
     atom   27 type  2   force =    -0.00006319   -0.00032045   -0.03753868
     atom   28 type  2   force =     0.00007188   -0.00045696    0.03693353
     atom   29 type  2   force =    -0.00852889    0.00126225   -0.00517272
     atom   30 type  2   force =     0.00948419    0.00122533   -0.00688864
     atom   31 type  1   force =    -0.00129693   -0.00008173    0.02605618
     atom   32 type  1   force =     0.00115779   -0.02137649    0.06369058
     atom   33 type  2   force =    -0.00002461    0.00024767   -0.00004746
     atom   34 type  2   force =    -0.00008391    0.00090806   -0.05941938
     atom   35 type  2   force =    -0.00009795    0.00009588   -0.00014280
     atom   36 type  2   force =    -0.00009716    0.00036975   -0.00015740
     atom   37 type  1   force =     0.00002486   -0.00032295    0.00000132
     atom   38 type  1   force =    -0.00042931   -0.00007700   -0.00014759
     atom   39 type  2   force =    -0.00021324    0.00038278    0.00053239
     atom   40 type  2   force =     0.00045783    0.00013097   -0.00040386
     atom   41 type  2   force =    -0.00002587    0.00035972   -0.00010645
     atom   42 type  2   force =     0.00043833    0.00019170    0.00008056
     atom   43 type  1   force =    -0.00033204   -0.00002270    0.00008878
     atom   44 type  1   force =     0.00039613    0.00001026   -0.00039706
     atom   45 type  2   force =     0.00002432   -0.00000158    0.10090735
     atom   46 type  2   force =    -0.07578567   -0.00010394   -0.02982112
     atom   47 type  2   force =     0.07565421    0.00032460   -0.02986037
     atom   48 type  3   force =    -0.00016129    0.00023397    0.00005744
     atom   49 type  4   force =     0.00100931    0.00092553    0.00099880
     atom   50 type  5   force =    -0.00031341   -0.00136448   -0.00030911
     atom   51 type  3   force =     0.00017491    0.00005147   -0.00027002
     atom   52 type  5   force =     0.00000310    0.00027600    0.00025150
     atom   53 type  2   force =    -0.00626618    0.00546138    0.00160501
     atom   54 type  5   force =    -0.00097555    0.00147502    0.00116451
     atom   55 type  5   force =     0.00687538   -0.00689381   -0.00291379

     Total force =     0.383791     Total SCF correction =     0.000670
  @ DRIVER MODE: Message from server: STATUS
  @ DRIVER MODE: Message from server: GETFORCE
  @ DRIVER MODE: Returning v,forces,stress,ensemble

     Writing output data file ./calc.save/
  @ DRIVER MODE: Message from server: EXIT
  @ DRIVE MODE: Exiting

     General routines

     Parallel routines

   This run was terminated on:   5: 5:30  16Sep2021

   JOB DONE.