     Program PWSCF v.6.7GPU starts on  2Aug2021 at 17:23:50

     R & G space division:  proc/nbgrp/npool/nimage =      16
     Reading input from /storage/home/hcoda1/3/ntian30/research/carbon/02Aug_vib_paired/ads_slab/CH3NHHH_a/out_0016/pw.inp
Warning: card &CELL ignored
Warning: card   CELL_DYNAMICS='IPI', ignored
Warning: card / ignored

     Current dimensions of program PWSCF are:
     Max number of different atomic species (ntypx) = 10
     Max number of k-points (npk) =  40000
     Max angular momentum in pseudopotentials (lmaxx) =  3
     Presently no symmetry can be used with electric field

     Message from routine cell_base_init:
     DEPRECATED: use true lattice parameter, not A to a.u. conversion factor

     IMPORTANT: XC functional enforced from input :
     Exchange-correlation= BEEF-VDW
                           (   1   4  43  14   2   0   0)
     Any further DFT definition will be discarded
     Please, verify this is what you really want

  @ DRIVER MODE: Connecting to
 qe_1139763_2482537.sched-torque.pace.gatech.edu20fvloa6_scratch
  using UNIX socket
  @ DRIVER MODE: Message from server: STATUS
  @ DRIVER MODE: Message from server: INIT
  @ DRIVER MODE: Receiving replica           0          -1
  @ DRIVER MODE: Receiving encoded integer          25
  @ DRIVER MODE:  SCF:  T  FORCE:  T  STRESS:  F  VC:  F  ENSEMBLE:  F
  @ DRIVER MODE:  SCF:  T  FORCE:  T  STRESS:  F  VC:  F  ENSEMBLE:  F

     Using Slab Decomposition

     bravais-lattice index     =            0
     lattice parameter (alat)  =       1.8897  a.u.
     unit-cell volume          =    6658.9804 (a.u.)^3
     number of atoms/cell      =           55
     number of atomic types    =            5
     number of electrons       =       393.00
     number of Kohn-Sham states=          206
     kinetic-energy cutoff     =      29.3995  Ry
     charge density cutoff     =     293.9946  Ry
     scf convergence threshold =      7.3E-08
     mixing beta               =       0.0500
     number of iterations used =            8  plain     mixing
     Exchange-correlation= BEEF-VDW
                           (   1   4  43  14   2   0   0)

     celldm(1)=   1.889726  celldm(2)=   0.000000  celldm(3)=   0.000000
     celldm(4)=   0.000000  celldm(5)=   0.000000  celldm(6)=   0.000000

     crystal axes: (cart. coord. in units of alat)
               a(1) = (   6.579727   0.000000   0.000000 )
               a(2) = (  -0.000775   5.961596   0.000000 )
               a(3) = (   0.000000   0.000000  25.155947 )

     reciprocal axes: (cart. coord. in units 2 pi/alat)
               b(1) = (  0.151982  0.000020  0.000000 )
               b(2) = (  0.000000  0.167740  0.000000 )
               b(3) = (  0.000000  0.000000  0.039752 )

     PseudoPot. # 1 for Ti read from file:
     /storage/coda1/p-amedford6/0/shared/rich_project_chbe-medford/medford-share/data/pseudos_module/espresso/nninc/pbe/van/Ti.UPF
     MD5 check sum: 8e4df49b7f0d34bbd5052bf3f5ea0213
     Pseudo is Ultrasoft, Zval = 12.0
     Generated by new atomic code, or converted to UPF format
     Using radial grid of  851 points,  6 beta functions with:
                l(1) =   0
                l(2) =   0
                l(3) =   1
                l(4) =   1
                l(5) =   2
                l(6) =   2
     Q(r) pseudized with  8 coefficients,  rinner =    1.000   1.000   1.000
                                                       1.000   1.000

     PseudoPot. # 2 for O  read from file:
     /storage/coda1/p-amedford6/0/shared/rich_project_chbe-medford/medford-share/data/pseudos_module/espresso/nninc/pbe/van/O.UPF
     MD5 check sum: 78c19812648e8988a0fe644b0f25305e
     Pseudo is Ultrasoft, Zval =  6.0
     Generated by new atomic code, or converted to UPF format
     Using radial grid of  737 points,  4 beta functions with:
                l(1) =   0
                l(2) =   0
                l(3) =   1
                l(4) =   1
     Q(r) pseudized with  8 coefficients,  rinner =    0.800   0.800   0.800

     PseudoPot. # 3 for N  read from file:
     /storage/coda1/p-amedford6/0/shared/rich_project_chbe-medford/medford-share/data/pseudos_module/espresso/nninc/pbe/van/N.UPF
     MD5 check sum: 90d10febe142ad51ac9d5be1deb811c4
     Pseudo is Ultrasoft, Zval =  5.0
     Generated by new atomic code, or converted to UPF format
     Using radial grid of  729 points,  4 beta functions with:
                l(1) =   0
                l(2) =   0
                l(3) =   1
                l(4) =   1
     Q(r) pseudized with  8 coefficients,  rinner =    0.800   0.800   0.800

     PseudoPot. # 4 for C  read from file:
     /storage/coda1/p-amedford6/0/shared/rich_project_chbe-medford/medford-share/data/pseudos_module/espresso/nninc/pbe/van/C.UPF
     MD5 check sum: 1a69bf6b8db32088f5b2163dbdb77a27
     Pseudo is Ultrasoft, Zval =  4.0
     Generated by new atomic code, or converted to UPF format
     Using radial grid of  721 points,  4 beta functions with:
                l(1) =   0
                l(2) =   0
                l(3) =   1
                l(4) =   1
     Q(r) pseudized with  8 coefficients,  rinner =    0.800   0.800   0.800

     PseudoPot. # 5 for H  read from file:
     /storage/coda1/p-amedford6/0/shared/rich_project_chbe-medford/medford-share/data/pseudos_module/espresso/nninc/pbe/van/H.UPF
     MD5 check sum: b5ee9d7bfd3a09ee7748110bda690ff7
     Pseudo is Ultrasoft, Zval =  1.0
     Generated by new atomic code, or converted to UPF format
     Using radial grid of  615 points,  1 beta functions with:
                l(1) =   0
     Q(r) pseudized with  8 coefficients,  rinner =    0.800

     atomic species   valence    mass     pseudopotential
        Ti1           12.00    47.86700     Ti( 1.00)
        O1             6.00    15.99900     O ( 1.00)
        N1             5.00    14.00700     N ( 1.00)
        C1             4.00    12.01100     C ( 1.00)
        H1             1.00     1.00800     H ( 1.00)

     No symmetry found

   Cartesian axes

     site n.     atom                  positions (alat units)
         1           Ti1 tau(   1) = (   0.0004258   2.9801865   6.0000000  )
         2           Ti1 tau(   2) = (   3.2906075   1.4906267   6.0002472  )
         3           O1  tau(   3) = (   0.0006271   0.0005054   7.9858123  )
         4           O1  tau(   4) = (   3.2906025   0.0005020   7.3038282  )
         5           O1  tau(   5) = (   4.5942328   1.4918067   9.2879030  )
         6           O1  tau(   6) = (   1.9868534   1.4903216   9.2879459  )
         7           Ti1 tau(   7) = (   3.2907910   2.8959150   9.1758416  )
         8           Ti1 tau(   8) = (   0.0015273   1.4827037   9.2680791  )
         9           O1  tau(   9) = (   3.2636084   5.9406443  11.4082010  )
        10           O1  tau(  10) = (   0.0116148   5.9584955  10.6183126  )
        11           O1  tau(  11) = (   1.2642105   1.4849797  12.6947803  )
        12           O1  tau(  12) = (   5.2691575   1.4821021  12.6650678  )
        13           Ti1 tau(  13) = (   6.5574234   2.9640577  12.4921542  )
        14           Ti1 tau(  14) = (   3.2619390   1.4709553  12.5527290  )
        15           O1  tau(  15) = (   6.5247406   5.9594380  14.6832748  )
        16           O1  tau(  16) = (   3.2695906   5.9428997  14.0562986  )
        17           O1  tau(  17) = (   4.5175969   1.4707097  16.2986306  )
        18           O1  tau(  18) = (   1.9406912   1.4777946  16.2473769  )
        19           Ti1 tau(  19) = (   3.2491105   2.9422209  15.8109686  )
        20           Ti1 tau(  20) = (   6.5361480   1.3378720  15.9626387  )
        21           O1  tau(  21) = (   3.2904802   0.0005063   4.7018136  )
        22           O1  tau(  22) = (   6.5280740   5.8897732  17.4332532  )
        23           O1  tau(  23) = (   1.3043587   1.4918075   6.0039043  )
        24           O1  tau(  24) = (   5.2767064   1.4903225   6.0039473  )
        25           Ti1 tau(  25) = (   0.0000382   5.9609847   6.0000000  )
        26           Ti1 tau(  26) = (   3.2902200   4.4714249   6.0002472  )
        27           O1  tau(  27) = (   0.0002396   2.9813036   7.9858123  )
        28           O1  tau(  28) = (   3.2902150   2.9813002   7.3038282  )
        29           O1  tau(  29) = (   4.5938453   4.4726049   9.2879030  )
        30           O1  tau(  30) = (   1.9864658   4.4711199   9.2879459  )
        31           Ti1 tau(  31) = (   3.2891106   5.8743827   9.1763621  )
        32           Ti1 tau(  32) = (   0.0006254   4.4649316   9.2693709  )
        33           O1  tau(  33) = (   3.2649920   2.9642658  11.3997388  )
        34           O1  tau(  34) = (   0.0092240   2.9805883  10.6323155  )
        35           O1  tau(  35) = (   1.2634527   4.4478426  12.7061968  )
        36           O1  tau(  36) = (   5.2693862   4.4495813  12.6755241  )
        37           Ti1 tau(  37) = (   6.5522441   5.9483113  12.5008436  )
        38           Ti1 tau(  38) = (   3.2626494   4.4468850  12.5575576  )
        39           O1  tau(  39) = (   6.4970557   2.9363996  15.0046851  )
        40           O1  tau(  40) = (   3.2722650   2.9529576  14.0194401  )
        41           O1  tau(  41) = (   4.5170401   4.4205294  16.2730734  )
        42           O1  tau(  42) = (   1.9466746   4.4191161  16.2235312  )
        43           Ti1 tau(  43) = (   3.2419262   5.9323414  15.8513663  )
        44           Ti1 tau(  44) = (   6.5549466   4.5556212  15.8889459  )
        45           O1  tau(  45) = (   3.2900926   2.9813045   4.7018136  )
        46           O1  tau(  46) = (   1.3039711   4.4726057   6.0039043  )
        47           O1  tau(  47) = (   5.2763189   4.4711207   6.0039473  )
        48           N1  tau(  48) = (   4.8657738   4.5798987  19.4796958  )
        49           C1  tau(  49) = (   5.7271871   3.4329544  19.8049648  )
        50           H1  tau(  50) = (   6.3241292   3.1821029  18.9298488  )
        51           H1  tau(  51) = (   6.4229137   3.7195585  20.5942015  )
        52           H1  tau(  52) = (   5.1874390   2.5328885  20.1195193  )
        53           H1  tau(  53) = (   5.9066942   5.7389963  18.1772939  )
        54           H1  tau(  54) = (   4.2103208   4.3266459  18.7469397  )
        55           H1  tau(  55) = (   4.3187305   4.8545830  20.2870342  )

     number of k points=    10  Fermi-Dirac smearing, width (Ry)=  0.0073
                       cart. coord. in units 2pi/alat
        k(    1) = (   0.0000000   0.0000000   0.0000000), wk =   0.1250000
        k(    2) = (   0.0000000   0.0419351   0.0000000), wk =   0.2500000
        k(    3) = (   0.0000000  -0.0838702   0.0000000), wk =   0.1250000
        k(    4) = (   0.0379955   0.0000049   0.0000000), wk =   0.2500000
        k(    5) = (   0.0379955   0.0419400   0.0000000), wk =   0.2500000
        k(    6) = (   0.0379955  -0.0838652   0.0000000), wk =   0.2500000
        k(    7) = (   0.0379955  -0.0419301   0.0000000), wk =   0.2500000
        k(    8) = (  -0.0759910  -0.0000099   0.0000000), wk =   0.1250000
        k(    9) = (  -0.0759910   0.0419252   0.0000000), wk =   0.2500000
        k(   10) = (  -0.0759910  -0.0838800   0.0000000), wk =   0.1250000

     Initial potential from superposition of free atoms

     starting charge  376.99914, renormalised to  393.00000

     negative rho (up, down):  1.330E-02 0.000E+00

     %%%%%%%%%%%%%%%%%%%%%%%%%%%%%%%%%%%%%%%%%%%%%%%%%%%%%%%%%%%%%%%%%%%%%%%%
     %                                                                      %
     % You are using vdW-DF, which was implemented by the Thonhauser group. %
     % Please cite the following two papers that made this development      %
     % possible and the two reviews that describe the various versions:     %
     %                                                                      %
     %   T. Thonhauser et al., PRL 115, 136402 (2015).                      %
     %   T. Thonhauser et al., PRB 76, 125112 (2007).                       %
     %   K. Berland et al., Rep. Prog. Phys. 78, 066501 (2015).             %
     %   D.C. Langreth et al., J. Phys.: Condens. Matter 21, 084203 (2009). %
     %                                                                      %
     %                                                                      %
     % If you are calculating the stress with vdW-DF, please also cite:     %
     %                                                                      %
     %   R. Sabatini et al., J. Phys.: Condens. Matter 24, 424209 (2012).   %
     %                                                                      %
     %%%%%%%%%%%%%%%%%%%%%%%%%%%%%%%%%%%%%%%%%%%%%%%%%%%%%%%%%%%%%%%%%%%%%%%%

     Adding external electric field

     Computed dipole along edir(3) :
        Dipole               -9.4918 Ry au,        -24.1257 Debye
        Dipole field         -0.0179 Ry au,

        Potential amp.        1.6604 Ry
        Total length         46.3494 bohr

     Starting wfcs are  298 atomic wfcs
  @ DRIVER MODE: Message from server: STATUS
  @ DRIVER MODE: Message from server: POSDATA
  @ DRIVER MODE: Reading and sharing cell
  @ DRIVER MODE: Reading and sharing positions
  @ DRIVER MODE: Received positions

     Self-consistent Calculation

     iteration #  1     ecut=    29.40 Ry     beta= 0.05
     Davidson diagonalization with overlap
     c_bands:  2 eigenvalues not converged
     c_bands:  1 eigenvalues not converged
     c_bands:  2 eigenvalues not converged
     c_bands:  3 eigenvalues not converged
     c_bands:  3 eigenvalues not converged
     c_bands:  1 eigenvalues not converged
     ethr =  1.00E-05,  avg # of iterations = 18.9

[...]

     total energy              =   -2620.44182379 Ry
     estimated scf accuracy    <    3390.30577314 Ry

[...]

     iteration #  3     ecut=    29.40 Ry     beta= 0.05
     Davidson diagonalization with overlap
     ethr =  1.00E-02,  avg # of iterations = 14.6

[...]

     iteration # 61     ecut=    29.40 Ry     beta= 0.05
     Davidson diagonalization with overlap
     c_bands:  1 eigenvalues not converged
     ethr =  6.29E-11,  avg # of iterations = 16.1

[...]

     total energy              =   -2922.77377994 Ry
     estimated scf accuracy    <       0.00000009 Ry

     iteration # 63     ecut=    29.40 Ry     beta= 0.05
     Davidson diagonalization with overlap
     ethr =  2.29E-11,  avg # of iterations = 10.3

     negative rho (up, down):  1.445E-02 0.000E+00

     Adding external electric field

     Computed dipole along edir(3) :
        Dipole                1.4044 Ry au,          3.5696 Debye
        Dipole field          0.0027 Ry au,

        Potential amp.       -0.2457 Ry
        Total length         46.3494 bohr

     End of self-consistent calculation

          k = 0.0000 0.0000 0.0000 ( 18029 PWs)   bands (ev):

   -55.3087 -55.2729 -55.2571 -55.2230 -55.1728 -55.1487 -55.1476 -55.1385
   -55.1143 -55.0843 -55.0733 -55.0504 -55.0313 -54.9732 -54.3008 -54.2668
   -31.8757 -31.7514 -31.6890 -31.6612 -31.6365 -31.6157 -31.5913 -31.5506
   -31.5464 -31.5451 -31.5160 -31.5049 -31.5010 -31.4763 -31.4657 -31.4609
   -31.4474 -31.4374 -31.4101 -31.4017 -31.3972 -31.3809 -31.3727 -31.3554
   -31.3528 -31.3152 -31.3144 -31.3051 -31.3027 -31.2898 -31.2849 -31.2829
   -31.2763 -31.2754 -31.2604 -31.2572 -31.2251 -31.2116 -31.2005 -31.1950
   -31.1820 -31.1069 -30.7111 -30.6146 -30.5927 -30.5271 -30.4402 -30.3297
   -16.8246 -16.1477 -15.8915 -15.7706 -15.6614 -15.5894 -15.5209 -15.4418
   -15.3578 -15.2574 -15.1959 -15.0908 -15.0561 -15.0166 -15.0018 -14.9828
   -14.9560 -14.8761 -14.8650 -14.8544 -14.8288 -14.8105 -14.7820 -14.7734
   -14.7666 -14.7274 -14.6901 -14.5777 -14.4872 -14.4018 -12.8042 -12.6865
   -10.0149  -5.8553  -4.7420  -4.4222  -3.5264  -3.4760  -3.3436  -3.2388
    -3.2051  -3.1969  -3.0761  -2.8929  -2.7980  -2.7707  -2.6891  -2.6297
    -2.5339  -2.5301  -2.4899  -2.3896  -2.3517  -2.3251  -2.2418  -2.2150
    -2.1687  -2.1179  -2.1077  -2.1045  -2.0839  -2.0433  -2.0046  -1.8859
    -1.8011  -1.7792  -1.7057  -1.6893  -1.6833  -1.6551  -1.6121  -1.5929
    -1.5436  -1.5265  -1.4859  -1.4170  -1.3559  -1.2736  -1.2366  -1.1996
    -0.9936  -0.9649  -0.9143  -0.9119  -0.8834  -0.8151  -0.7854  -0.7558
    -0.6899  -0.6873  -0.6589  -0.5526  -0.5098  -0.3890  -0.3185  -0.2388
    -0.1171  -0.1040  -0.0801  -0.0304  -0.0069   0.0528   0.1128   0.1494
     0.1889   0.2015   0.2889   0.3184   0.3955   0.4100   0.4480   0.5112
     0.5277   0.5536   0.5710   0.5834   0.6176   0.6335   0.6675   0.7343
     0.7664   0.8678   0.9166   1.2003   1.2856   1.5946   1.6178   1.7212
     1.9026   2.2996   2.3488   3.7855   3.8467   3.8873   3.9298   3.9335
     4.0151   4.1459   4.2888   4.2982   4.3095   4.3163

[...]

          k = 0.0380-0.0419 0.0000 ( 17876 PWs)   bands (ev):

[...]

          k =-0.0760-0.0000 0.0000 ( 17886 PWs)   bands (ev):

[...]

          k =-0.0760-0.0839 0.0000 ( 17948 PWs)   bands (ev):

   -55.2921 -55.2893 -55.2404 -55.2396 -55.1561 -55.1551 -55.1436 -55.1334
   -55.1292 -55.0771 -55.0686 -55.0660 -55.0243 -54.9803 -54.2838 -54.2837
   -31.6834 -31.6783 -31.5882 -31.5827 -31.5667 -31.5662 -31.5570 -31.5307
   -31.5300 -31.5095 -31.5045 -31.5027 -31.4894 -31.4633 -31.4584 -31.4573
   -31.4314 -31.4309 -31.4244 -31.4033 -31.3809 -31.3788 -31.3686 -31.3646
   -31.3641 -31.3599 -31.3592 -31.3506 -31.3489 -31.3427 -31.3390 -31.3235
   -31.3208 -31.3081 -31.3050 -31.2937 -31.2650 -31.2483 -31.2462 -31.2436
   -31.2264 -31.1734 -30.6053 -30.6053 -30.5236 -30.5235 -30.4837 -30.4836
   -16.7632 -15.8206 -15.5906 -15.5402 -15.4994 -15.4049 -15.3312 -15.3001
   -15.2899 -15.2768 -15.1508 -15.1226 -15.1132 -15.0851 -15.0532 -15.0289
   -15.0250 -14.9899 -14.9329 -14.9268 -14.9189 -14.9107 -14.8470 -14.8388
   -14.8350 -14.8282 -14.7627 -14.7603 -14.6784 -14.6764 -12.7879 -12.7879
   -10.0246  -5.8555  -4.8693  -4.4043  -3.5398  -2.8241  -2.7964  -2.7443
    -2.7054  -2.6133  -2.5277  -2.5003  -2.4638  -2.4061  -2.3539  -2.3066
    -2.3044  -2.2687  -2.2492  -2.2303  -2.1866  -2.1650  -2.1426  -2.1244
    -2.1097  -2.0559  -2.0531  -2.0439  -2.0195  -1.9854  -1.9681  -1.9548
    -1.9385  -1.9202  -1.8948  -1.8755  -1.7325  -1.7115  -1.6709  -1.5538
    -1.5358  -1.5324  -1.4993  -1.4555  -1.4308  -1.4232  -1.3494  -1.3423
    -1.3096  -1.1524  -1.0802  -1.0785  -1.0551  -1.0312  -0.9361  -0.8846
    -0.8442  -0.7944  -0.7185  -0.6872  -0.6684  -0.5959  -0.5691  -0.4775
    -0.3881  -0.3613  -0.3531  -0.2758  -0.2743  -0.2409  -0.2277  -0.1587
    -0.0985  -0.0470  -0.0430  -0.0389   0.0899   0.1269   0.2070   0.3211
     0.4015   0.4099   0.4610   0.5214   0.6047   0.6504   0.6662   0.7880
     0.7899   0.9764   0.9797   1.0281   1.0432   1.1235   1.1286   2.0753
     2.0761   2.1684   2.1687   3.7610   3.9441   3.9982   4.0711   4.0965
     4.1946   4.2794   4.3131   4.3433   4.3651   4.3712

     the Fermi energy is     3.8541 ev

!    total energy              =   -2922.77381268 Ry
     estimated scf accuracy    <       0.00000003 Ry
     smearing contrib. (-TS)   =      -0.04551970 Ry
     internal energy E=F+TS    =   -2922.72829299 Ry

     The total energy is F=E-TS. E is the sum of the following terms:
     one-electron contribution =  -23201.68342940 Ry
     hartree contribution      =   11691.12508702 Ry
     xc contribution           =    -482.55002184 Ry
     ewald contribution        =    9070.37634920 Ry
     electric field correction =       0.00372204 Ry

     convergence has been achieved in  63 iterations

     Forces acting on atoms (cartesian axes, Ry/au):

     atom    1 type  1   force =     0.00016620   -0.00007912    0.09302571
     atom    2 type  1   force =    -0.00000995   -0.00014532   -0.17878094
     atom    3 type  2   force =     0.00002116   -0.00029585   -0.02022821
     atom    4 type  2   force =    -0.00000230   -0.00223879    0.06096543
     atom    5 type  2   force =    -0.01150765   -0.00128203    0.01054331
     atom    6 type  2   force =     0.01241976   -0.00058543    0.00810560
     atom    7 type  1   force =    -0.00124454    0.00346497   -0.01488033
     atom    8 type  1   force =     0.00123188   -0.00359095   -0.00845963
     atom    9 type  2   force =     0.00001576   -0.00004773   -0.00024216
     atom   10 type  2   force =    -0.00281370   -0.00047769    0.00153741
     atom   11 type  2   force =     0.00010494   -0.00023729   -0.00030599
     atom   12 type  2   force =     0.00002144    0.00008462   -0.00011235
     atom   13 type  1   force =    -0.00019265   -0.00030827   -0.00062966
     atom   14 type  1   force =    -0.00003040   -0.00004925    0.00019622
     atom   15 type  2   force =    -0.00011430   -0.00022808   -0.00010855
     atom   16 type  2   force =     0.00032414    0.00035057   -0.00012623
     atom   17 type  2   force =     0.00076964    0.00029370   -0.00025918
     atom   18 type  2   force =     0.00010158   -0.00026389   -0.00005039
     atom   19 type  1   force =     0.00027149    0.00044304   -0.00035298
     atom   20 type  1   force =     0.00009971    0.00007683    0.00054617
     atom   21 type  2   force =     0.00012451   -0.00003080    0.10424712
     atom   22 type  2   force =    -0.00050250    0.00013086    0.00017371
     atom   23 type  2   force =    -0.06992546   -0.00011374   -0.02680058
     atom   24 type  2   force =     0.06989747    0.00034316   -0.02680455
     atom   25 type  1   force =     0.00019184   -0.00021359    0.09230525
     atom   26 type  1   force =    -0.00008015   -0.00037413   -0.17898131
     atom   27 type  2   force =     0.00004016   -0.00025665   -0.01895521
     atom   28 type  2   force =     0.00006672   -0.00192767    0.06021021
     atom   29 type  2   force =    -0.01169720   -0.00162572    0.01033433
     atom   30 type  2   force =     0.01248362   -0.00120766    0.00786632
     atom   31 type  1   force =    -0.00101184    0.00608986   -0.01576753
     atom   32 type  1   force =     0.00116786    0.00334232   -0.00864029
     atom   33 type  2   force =     0.00003284    0.00020125   -0.00022869
     atom   34 type  2   force =    -0.00240819   -0.00053805    0.00058697
     atom   35 type  2   force =    -0.00001390   -0.00000083    0.00003976
     atom   36 type  2   force =     0.00005488   -0.00007607    0.00035500
     atom   37 type  1   force =     0.00035875   -0.00003445   -0.00005554
     atom   38 type  1   force =    -0.00034788   -0.00029530    0.00045005
     atom   39 type  2   force =     0.00037028   -0.00014653    0.00064114
     atom   40 type  2   force =     0.00025191   -0.00017361    0.00004175
     atom   41 type  2   force =     0.00005061    0.00034526   -0.00041417
     atom   42 type  2   force =     0.00050447    0.00020535   -0.00018216
     atom   43 type  1   force =     0.00026293   -0.00017900   -0.00029701
     atom   44 type  1   force =     0.00014930   -0.00129976    0.00055903
     atom   45 type  2   force =     0.00011806   -0.00005493    0.10419768
     atom   46 type  2   force =    -0.06993666   -0.00005188   -0.02679440
     atom   47 type  2   force =     0.06992714    0.00035416   -0.02681554
     atom   48 type  3   force =     0.00058541    0.00060711   -0.00048638
     atom   49 type  4   force =    -0.00041575    0.00333483    0.00093137
     atom   50 type  5   force =     0.00152446   -0.00246366   -0.00187874
     atom   51 type  5   force =    -0.00084270   -0.00022779    0.00051472
     atom   52 type  5   force =     0.00035639   -0.00055014   -0.00051491
     atom   53 type  5   force =     0.00011313    0.00076930   -0.00099736
     atom   54 type  5   force =    -0.00029663    0.00019856   -0.00047211
     atom   55 type  5   force =    -0.00078609    0.00103591    0.00124879

     Total force =     0.367597     Total SCF correction =     0.000368
  @ DRIVER MODE: Message from server: STATUS
  @ DRIVER MODE: Message from server: GETFORCE
  @ DRIVER MODE: Returning v,forces,stress,ensemble

     Writing output data file ./calc.save/
  @ DRIVER MODE: Message from server: EXIT
  @ DRIVE MODE: Exiting

     General routines

     Parallel routines

   This run was terminated on:  17:38:36   2Aug2021

   JOB DONE.