     Program PWSCF v.6.7GPU starts on 15Jul2021 at 18:27:40

     R & G space division:  proc/nbgrp/npool/nimage =      16
     Reading input from /storage/home/hcoda1/3/ntian30/research/carbon/15Jul_vib/ads_slab/CH3NH_b/out_0004/pw.inp
Warning: card &CELL ignored
Warning: card   CELL_DYNAMICS='IPI', ignored
Warning: card / ignored

     Current dimensions of program PWSCF are:
     Max number of different atomic species (ntypx) = 10
     Max number of k-points (npk) =  40000
     Max angular momentum in pseudopotentials (lmaxx) =  3
     Presently no symmetry can be used with electric field

     Message from routine cell_base_init:
     DEPRECATED: use true lattice parameter, not A to a.u. conversion factor

     IMPORTANT: XC functional enforced from input :
     Exchange-correlation= BEEF-VDW
                           (   1   4  43  14   2   0   0)
     Any further DFT definition will be discarded
     Please, verify this is what you really want

  @ DRIVER MODE: Connecting to
 qe_1139763_2351649.sched-torque.pace.gatech.eduzatda_f9_scratch
  using UNIX socket
  @ DRIVER MODE: Message from server: STATUS
  @ DRIVER MODE: Message from server: INIT
  @ DRIVER MODE: Receiving replica           0          -1
  @ DRIVER MODE: Receiving encoded integer          25
  @ DRIVER MODE:  SCF:  T  FORCE:  T  STRESS:  F  VC:  F  ENSEMBLE:  F
  @ DRIVER MODE:  SCF:  T  FORCE:  T  STRESS:  F  VC:  F  ENSEMBLE:  F

     Using Slab Decomposition

     bravais-lattice index     =            0
     lattice parameter (alat)  =       1.8897  a.u.
     unit-cell volume          =    6658.9804 (a.u.)^3
     number of atoms/cell      =           53
     number of atomic types    =            5
     number of electrons       =       391.00
     number of Kohn-Sham states=          205
     kinetic-energy cutoff     =      29.3995  Ry
     charge density cutoff     =     293.9946  Ry
     scf convergence threshold =      7.3E-08
     mixing beta               =       0.0500
     number of iterations used =            8  plain     mixing
     Exchange-correlation= BEEF-VDW
                           (   1   4  43  14   2   0   0)

     celldm(1)=   1.889726  celldm(2)=   0.000000  celldm(3)=   0.000000
     celldm(4)=   0.000000  celldm(5)=   0.000000  celldm(6)=   0.000000

     crystal axes: (cart. coord. in units of alat)
               a(1) = (   6.579727   0.000000   0.000000 )
               a(2) = (  -0.000775   5.961596   0.000000 )
               a(3) = (   0.000000   0.000000  25.155947 )

     reciprocal axes: (cart. coord. in units 2 pi/alat)
               b(1) = (  0.151982  0.000020  0.000000 )
               b(2) = (  0.000000  0.167740  0.000000 )
               b(3) = (  0.000000  0.000000  0.039752 )

     PseudoPot. # 1 for Ti read from file:
     /storage/coda1/p-amedford6/0/shared/rich_project_chbe-medford/medford-share/data/pseudos_module/espresso/nninc/pbe/van/Ti.UPF
     MD5 check sum: 8e4df49b7f0d34bbd5052bf3f5ea0213
     Pseudo is Ultrasoft, Zval = 12.0
     Generated by new atomic code, or converted to UPF format
     Using radial grid of  851 points,  6 beta functions with:
                l(1) =   0
                l(2) =   0
                l(3) =   1
                l(4) =   1
                l(5) =   2
                l(6) =   2
     Q(r) pseudized with  8 coefficients,  rinner =    1.000   1.000   1.000
                                                       1.000   1.000

     PseudoPot. # 2 for O  read from file:
     /storage/coda1/p-amedford6/0/shared/rich_project_chbe-medford/medford-share/data/pseudos_module/espresso/nninc/pbe/van/O.UPF
     MD5 check sum: 78c19812648e8988a0fe644b0f25305e
     Pseudo is Ultrasoft, Zval =  6.0
     Generated by new atomic code, or converted to UPF format
     Using radial grid of  737 points,  4 beta functions with:
                l(1) =   0
                l(2) =   0
                l(3) =   1
                l(4) =   1
     Q(r) pseudized with  8 coefficients,  rinner =    0.800   0.800   0.800

     PseudoPot. # 3 for H  read from file:
     /storage/coda1/p-amedford6/0/shared/rich_project_chbe-medford/medford-share/data/pseudos_module/espresso/nninc/pbe/van/H.UPF
     MD5 check sum: b5ee9d7bfd3a09ee7748110bda690ff7
     Pseudo is Ultrasoft, Zval =  1.0
     Generated by new atomic code, or converted to UPF format
     Using radial grid of  615 points,  1 beta functions with:
                l(1) =   0
     Q(r) pseudized with  8 coefficients,  rinner =    0.800

     PseudoPot. # 4 for N  read from file:
     /storage/coda1/p-amedford6/0/shared/rich_project_chbe-medford/medford-share/data/pseudos_module/espresso/nninc/pbe/van/N.UPF
     MD5 check sum: 90d10febe142ad51ac9d5be1deb811c4
     Pseudo is Ultrasoft, Zval =  5.0
     Generated by new atomic code, or converted to UPF format
     Using radial grid of  729 points,  4 beta functions with:
                l(1) =   0
                l(2) =   0
                l(3) =   1
                l(4) =   1
     Q(r) pseudized with  8 coefficients,  rinner =    0.800   0.800   0.800

     PseudoPot. # 5 for C  read from file:
     /storage/coda1/p-amedford6/0/shared/rich_project_chbe-medford/medford-share/data/pseudos_module/espresso/nninc/pbe/van/C.UPF
     MD5 check sum: 1a69bf6b8db32088f5b2163dbdb77a27
     Pseudo is Ultrasoft, Zval =  4.0
     Generated by new atomic code, or converted to UPF format
     Using radial grid of  721 points,  4 beta functions with:
                l(1) =   0
                l(2) =   0
                l(3) =   1
                l(4) =   1
     Q(r) pseudized with  8 coefficients,  rinner =    0.800   0.800   0.800

     atomic species   valence    mass     pseudopotential
        Ti1           12.00    47.86700     Ti( 1.00)
        O1             6.00    15.99900     O ( 1.00)
        H1             1.00     1.00800     H ( 1.00)
        N1             5.00    14.00700     N ( 1.00)
        C1             4.00    12.01100     C ( 1.00)

     Starting magnetic structure
     atomic species   magnetization
        Ti1          0.000
        O1           0.000
        H1           0.000
        N1           0.000
        C1           0.025

     No symmetry found

   Cartesian axes

     site n.     atom                  positions (alat units)
         1           Ti1 tau(   1) = (   0.0004258   2.9801865   6.0000000  )
         2           Ti1 tau(   2) = (   3.2906075   1.4906267   6.0002472  )
         3           O1  tau(   3) = (   0.0006271   0.0005054   7.9858123  )
         4           O1  tau(   4) = (   3.2906025   0.0005020   7.3038282  )
         5           O1  tau(   5) = (   4.5942328   1.4918067   9.2879030  )
         6           O1  tau(   6) = (   1.9868534   1.4903216   9.2879459  )
         7           Ti1 tau(   7) = (   3.2907910   2.8959150   9.1758416  )
         8           Ti1 tau(   8) = (   0.0015273   1.4827037   9.2680791  )
         9           O1  tau(   9) = (   3.2906183   5.9580730  11.3246990  )
        10           O1  tau(  10) = (   0.0116148   5.9584955  10.6183126  )
        11           O1  tau(  11) = (   1.3160896   1.4863360  12.6200149  )
        12           O1  tau(  12) = (   5.2947061   1.4800608  12.6053981  )
        13           Ti1 tau(  13) = (   6.5224157   2.9421717  12.6196007  )
        14           Ti1 tau(  14) = (   3.2076970   1.4879367  12.4696142  )
        15           O1  tau(  15) = (   6.5517659   0.0158556  14.6493665  )
        16           O1  tau(  16) = (   3.3109316   0.0069331  13.9179417  )
        17           O1  tau(  17) = (   4.5083530   1.5297238  16.0872293  )
        18           O1  tau(  18) = (   2.0274073   1.5273405  16.0409094  )
        19           Ti1 tau(  19) = (   3.2920608   3.0081397  15.6838061  )
        20           Ti1 tau(  20) = (   0.0536170   1.5416865  15.8648894  )
        21           O1  tau(  21) = (   3.2904802   0.0005063   4.7018136  )
        22           O1  tau(  22) = (   0.0122827   0.0301012  17.2134340  )
        23           O1  tau(  23) = (   1.3043587   1.4918075   6.0039043  )
        24           O1  tau(  24) = (   5.2767064   1.4903225   6.0039473  )
        25           Ti1 tau(  25) = (   0.0000382   5.9609847   6.0000000  )
        26           Ti1 tau(  26) = (   3.2902200   4.4714249   6.0002472  )
        27           O1  tau(  27) = (   0.0002396   2.9813036   7.9858123  )
        28           O1  tau(  28) = (   3.2902150   2.9813002   7.3038282  )
        29           O1  tau(  29) = (   4.5938453   4.4726049   9.2879030  )
        30           O1  tau(  30) = (   1.9864658   4.4711199   9.2879459  )
        31           Ti1 tau(  31) = (   3.2891106   5.8743827   9.1763621  )
        32           Ti1 tau(  32) = (   0.0006254   4.4649316   9.2693709  )
        33           O1  tau(  33) = (   3.2866862   2.9837957  11.3234553  )
        34           O1  tau(  34) = (   0.0092240   2.9805883  10.6323155  )
        35           O1  tau(  35) = (   1.3095649   4.4762946  12.6335636  )
        36           O1  tau(  36) = (   5.2963019   4.4650584  12.6194355  )
        37           Ti1 tau(  37) = (   6.5192018   5.9199268  12.5733442  )
        38           Ti1 tau(  38) = (   3.2055211   4.4685508  12.4747853  )
        39           O1  tau(  39) = (   6.5624772   2.9349094  14.6472044  )
        40           O1  tau(  40) = (   3.3065106   2.9879112  13.8942307  )
        41           O1  tau(  41) = (   4.5199725   4.4841037  16.0899424  )
        42           O1  tau(  42) = (   2.0389375   4.4882992  16.0664246  )
        43           Ti1 tau(  43) = (   3.3279474   0.0221627  15.7114356  )
        44           Ti1 tau(  44) = (   0.0314192   4.6578676  16.1055029  )
        45           O1  tau(  45) = (   3.2900926   2.9813045   4.7018136  )
        46           O1  tau(  46) = (   1.3039711   4.4726057   6.0039043  )
        47           O1  tau(  47) = (   5.2763189   4.4711207   6.0039473  )
        48           H1  tau(  48) = (   5.5751926   2.9345997  17.7795037  )
        49           N1  tau(  49) = (   6.5345126   2.9709300  17.4463781  )
        50           C1  tau(  50) = (   0.8205834   2.9192471  18.6315588  )
        51           H1  tau(  51) = (   0.6379014   3.7726647  19.2931901  )
        52           H1  tau(  52) = (   0.6616828   1.9903841  19.1881566  )
        53           H1  tau(  53) = (   1.8691752   2.9530840  18.3388921  )

     number of k points=    10  Fermi-Dirac smearing, width (Ry)=  0.0073
                       cart. coord. in units 2pi/alat
        k(    1) = (   0.0000000   0.0000000   0.0000000), wk =   0.0625000
        k(    2) = (   0.0000000   0.0419351   0.0000000), wk =   0.1250000
        k(    3) = (   0.0000000  -0.0838702   0.0000000), wk =   0.0625000
        k(    4) = (   0.0379955   0.0000049   0.0000000), wk =   0.1250000
        k(    5) = (   0.0379955   0.0419400   0.0000000), wk =   0.1250000
        k(    6) = (   0.0379955  -0.0838652   0.0000000), wk =   0.1250000
        k(    7) = (   0.0379955  -0.0419301   0.0000000), wk =   0.1250000
        k(    8) = (  -0.0759910  -0.0000099   0.0000000), wk =   0.0625000
[...]
        k(   10) = (  -0.0759910  -0.0838800   0.0000000), wk =   0.0625000

     Initial potential from superposition of free atoms

     starting charge  374.99916, renormalised to  391.00000

     negative rho (up, down):  8.890E-03 8.897E-03

     %%%%%%%%%%%%%%%%%%%%%%%%%%%%%%%%%%%%%%%%%%%%%%%%%%%%%%%%%%%%%%%%%%%%%%%%
     %                                                                      %
     % You are using vdW-DF, which was implemented by the Thonhauser group. %
     % Please cite the following two papers that made this development      %
     % possible and the two reviews that describe the various versions:     %
     %                                                                      %
     %   T. Thonhauser et al., PRL 115, 136402 (2015).                      %
     %   T. Thonhauser et al., PRB 76, 125112 (2007).                       %
     %   K. Berland et al., Rep. Prog. Phys. 78, 066501 (2015).             %
     %   D.C. Langreth et al., J. Phys.: Condens. Matter 21, 084203 (2009). %
     %                                                                      %
     %                                                                      %
     % If you are calculating the stress with vdW-DF, please also cite:     %
     %                                                                      %
     %   R. Sabatini et al., J. Phys.: Condens. Matter 24, 424209 (2012).   %
     %                                                                      %
     %%%%%%%%%%%%%%%%%%%%%%%%%%%%%%%%%%%%%%%%%%%%%%%%%%%%%%%%%%%%%%%%%%%%%%%%

     Adding external electric field

     Computed dipole along edir(3) :
        Dipole               -5.8162 Ry au,        -14.7834 Debye
        Dipole field         -0.0110 Ry au,

        Potential amp.        1.0175 Ry
        Total length         46.3494 bohr

[...]

     Starting wfcs are  296 atomic wfcs
  @ DRIVER MODE: Message from server: STATUS
  @ DRIVER MODE: Message from server: POSDATA
  @ DRIVER MODE: Reading and sharing cell
  @ DRIVER MODE: Reading and sharing positions
  @ DRIVER MODE: Received positions

     Self-consistent Calculation

     iteration #  1     ecut=    29.40 Ry     beta= 0.05
     Davidson diagonalization with overlap
     c_bands:  3 eigenvalues not converged
     c_bands:  2 eigenvalues not converged
     c_bands:  1 eigenvalues not converged
     c_bands:  3 eigenvalues not converged
     c_bands:  4 eigenvalues not converged
     c_bands:  2 eigenvalues not converged
     c_bands:  1 eigenvalues not converged
     c_bands:  1 eigenvalues not converged
     c_bands:  2 eigenvalues not converged
     c_bands:  3 eigenvalues not converged
     c_bands:  1 eigenvalues not converged
     c_bands:  1 eigenvalues not converged
     c_bands:  3 eigenvalues not converged
     c_bands:  4 eigenvalues not converged
     c_bands:  3 eigenvalues not converged
     c_bands:  1 eigenvalues not converged
     c_bands:  1 eigenvalues not converged
     c_bands:  2 eigenvalues not converged
     ethr =  1.00E-05,  avg # of iterations = 19.6

[...]

     total energy              =   -2770.80869148 Ry
     estimated scf accuracy    <    1639.96403733 Ry

     total magnetization       =     0.01 Bohr mag/cell
     absolute magnetization    =     0.02 Bohr mag/cell

     iteration #  2     ecut=    29.40 Ry     beta= 0.05
     Davidson diagonalization with overlap
     ethr =  1.00E-02,  avg # of iterations = 18.7

[...]

     iteration # 68     ecut=    29.40 Ry     beta= 0.05
     Davidson diagonalization with overlap
     ethr =  1.39E-10,  avg # of iterations =  6.8

[...]

     total energy              =   -2920.42463473 Ry
     estimated scf accuracy    <       0.00000009 Ry

[...]

     iteration # 73     ecut=    29.40 Ry     beta= 0.05
     Davidson diagonalization with overlap
     c_bands:  1 eigenvalues not converged
     ethr =  2.21E-11,  avg # of iterations =  8.7

     negative rho (up, down):  9.093E-03 9.093E-03

[...]

     Adding external electric field

     Computed dipole along edir(3) :
        Dipole                0.6847 Ry au,          1.7403 Debye
        Dipole field          0.0013 Ry au,

        Potential amp.       -0.1198 Ry
        Total length         46.3494 bohr

     Magnetic moment per site  (integrated on atomic sphere of radius R)
     atom   1 (R=0.715)  charge=  7.8452  magn=  0.0007
     atom   2 (R=0.715)  charge=  7.8287  magn=  0.0004
     atom   3 (R=0.715)  charge=  4.8552  magn= -0.0001
     atom   4 (R=0.715)  charge=  4.8904  magn= -0.0001
     atom   5 (R=0.715)  charge=  4.8609  magn= -0.0000
     atom   6 (R=0.715)  charge=  4.8616  magn= -0.0000
     atom   7 (R=0.715)  charge=  7.8276  magn=  0.0001
     atom   8 (R=0.715)  charge=  7.8193  magn=  0.0003
     atom   9 (R=0.715)  charge=  4.8766  magn= -0.0001
     atom  10 (R=0.715)  charge=  4.8485  magn= -0.0000
     atom  11 (R=0.715)  charge=  4.8624  magn= -0.0000
     atom  12 (R=0.715)  charge=  4.8618  magn= -0.0000
     atom  13 (R=0.715)  charge=  7.8170  magn=  0.0001
     atom  14 (R=0.715)  charge=  7.8304  magn=  0.0002
     atom  15 (R=0.715)  charge=  4.8497  magn= -0.0000
     atom  16 (R=0.715)  charge=  4.8722  magn= -0.0001
     atom  17 (R=0.715)  charge=  4.8475  magn= -0.0001
     atom  18 (R=0.715)  charge=  4.8546  magn= -0.0001
     atom  19 (R=0.715)  charge=  7.8557  magn=  0.0003
     atom  20 (R=0.715)  charge=  7.8308  magn=  0.0001
     atom  21 (R=0.715)  charge=  4.7478  magn= -0.0006
     atom  22 (R=0.715)  charge=  4.8258  magn= -0.0001
     atom  23 (R=0.715)  charge=  4.8532  magn= -0.0001
     atom  24 (R=0.715)  charge=  4.8532  magn= -0.0001
     atom  25 (R=0.715)  charge=  7.8451  magn=  0.0007
     atom  26 (R=0.715)  charge=  7.8288  magn=  0.0004
     atom  27 (R=0.715)  charge=  4.8545  magn= -0.0001
     atom  28 (R=0.715)  charge=  4.8906  magn= -0.0001
     atom  29 (R=0.715)  charge=  4.8616  magn= -0.0000
     atom  30 (R=0.715)  charge=  4.8623  magn= -0.0000
     atom  31 (R=0.715)  charge=  7.8277  magn=  0.0001
     atom  32 (R=0.715)  charge=  7.8194  magn=  0.0003
     atom  33 (R=0.715)  charge=  4.8755  magn= -0.0001
     atom  34 (R=0.715)  charge=  4.8372  magn= -0.0000
     atom  35 (R=0.715)  charge=  4.8620  magn= -0.0000
     atom  36 (R=0.715)  charge=  4.8623  magn= -0.0000
     atom  37 (R=0.715)  charge=  7.8196  magn=  0.0001
     atom  38 (R=0.715)  charge=  7.8303  magn=  0.0002
     atom  39 (R=0.715)  charge=  4.8445  magn= -0.0000
     atom  40 (R=0.715)  charge=  4.8783  magn= -0.0001
     atom  41 (R=0.715)  charge=  4.8510  magn= -0.0001
     atom  42 (R=0.715)  charge=  4.8518  magn= -0.0001
     atom  43 (R=0.715)  charge=  7.8536  magn=  0.0003
     atom  44 (R=0.715)  charge=  7.8555  magn=  0.0001
     atom  45 (R=0.715)  charge=  4.7478  magn= -0.0006
     atom  46 (R=0.715)  charge=  4.8532  magn= -0.0001
     atom  47 (R=0.715)  charge=  4.8532  magn= -0.0001
     atom  48 (R=0.419)  charge=  0.4543  magn=  0.0000
     atom  49 (R=0.419)  charge=  1.3276  magn= -0.0000
     atom  50 (R=0.449)  charge=  0.8459  magn=  0.0000
     atom  51 (R=0.419)  charge=  0.4416  magn= -0.0000
     atom  52 (R=0.419)  charge=  0.4408  magn= -0.0000
     atom  53 (R=0.419)  charge=  0.4474  magn= -0.0000

     End of self-consistent calculation

 ------ SPIN UP ------------

          k = 0.0000 0.0000 0.0000 ( 18029 PWs)   bands (ev):

   -55.9956 -55.9880 -55.9616 -55.9518 -55.9028 -55.8381 -55.8378 -55.8034
   -55.7991 -55.7652 -55.7598 -55.7262 -55.5395 -55.2713 -54.9679 -54.9339
   -32.5467 -32.4763 -32.3498 -32.3394 -32.3153 -32.2986 -32.2888 -32.2507
   -32.2366 -32.2357 -32.2116 -32.2043 -32.1705 -32.1477 -32.1399 -32.1340
   -32.1302 -32.0982 -32.0776 -32.0527 -32.0482 -32.0407 -32.0255 -31.9982
   -31.9913 -31.9906 -31.9853 -31.9773 -31.9629 -31.9572 -31.9534 -31.9434
   -31.9360 -31.9287 -31.9130 -31.9063 -31.8722 -31.8085 -31.7103 -31.5461
   -31.5412 -31.4664 -31.3745 -31.2869 -31.2644 -31.1913 -31.1048 -30.9937
   -16.7554 -16.4721 -16.2924 -16.1495 -16.1174 -16.0318 -15.8310 -15.7043
   -15.6920 -15.5884 -15.5553 -15.5288 -15.5222 -15.4960 -15.4910 -15.4301
   -15.4282 -15.4143 -15.4050 -15.3483 -15.3239 -15.2703 -15.1907 -15.1579
   -15.1525 -15.1247 -15.0432 -15.0379 -14.5841 -14.1769 -13.4686 -13.3522
    -8.9307  -4.3613  -4.1266  -3.9523  -3.9129  -3.8972  -3.8476  -3.5934
    -3.5783  -3.3305  -3.2275  -3.1928  -3.1778  -3.1687  -3.1485  -3.1375
    -2.8913  -2.8241  -2.8092  -2.7874  -2.7795  -2.7733  -2.7612  -2.7607
    -2.7210  -2.6583  -2.5326  -2.4978  -2.4194  -2.3823  -2.3519  -2.3043
    -2.2603  -2.2533  -2.2425  -2.2239  -2.2110  -2.1872  -2.1709  -2.0370
    -1.9710  -1.8353  -1.8009  -1.7812  -1.5954  -1.5375  -1.4718  -1.4333
    -1.4202  -1.4131  -1.3812  -1.2996  -1.2078  -1.1519  -1.1417  -1.0854
    -1.0081  -0.9965  -0.8889  -0.8838  -0.8567  -0.7659  -0.7554  -0.7443
    -0.7248  -0.6576  -0.5560  -0.4795  -0.4344  -0.4047  -0.3737  -0.3042
    -0.2742  -0.1722  -0.1563  -0.1074  -0.1031  -0.0615  -0.0161  -0.0068
     0.0020   0.0099   0.0352   0.1777   0.2885   0.3433   0.3839   0.3901
     0.5441   0.5719   0.6690   0.7572   0.9825   1.0556   1.1479   1.2481
     1.3226   1.6265   1.6718   3.1480   3.2263   3.2805   3.2894   3.3918
     3.3972   3.5974   3.6074   3.6202   3.6879

[...]

          k =-0.0760-0.0000 0.0000 ( 17886 PWs)   bands (ev):

[...]

 ------ SPIN DOWN ----------

[...]

          k = 0.0380-0.0419 0.0000 ( 17876 PWs)   bands (ev):

[...]

          k =-0.0760-0.0839 0.0000 ( 17948 PWs)   bands (ev):

   -55.9775 -55.9768 -55.9706 -55.9679 -55.8968 -55.8422 -55.8211 -55.8196
   -55.7823 -55.7804 -55.7433 -55.7422 -55.5382 -55.2719 -54.9497 -54.9496
   -32.3513 -32.3476 -32.2912 -32.2907 -32.2805 -32.2729 -32.2721 -32.2596
   -32.1977 -32.1967 -32.1919 -32.1875 -32.1638 -32.1326 -32.1182 -32.1140
   -32.1005 -32.0986 -32.0967 -32.0961 -32.0934 -32.0828 -32.0805 -32.0481
   -32.0407 -32.0396 -32.0099 -31.9988 -31.9793 -31.9790 -31.9756 -31.9746
   -31.9581 -31.9574 -31.9553 -31.9524 -31.8775 -31.8106 -31.7054 -31.6104
   -31.5428 -31.4908 -31.2761 -31.2760 -31.1862 -31.1861 -31.1470 -31.1470
   -16.2093 -16.1741 -15.9374 -15.9262 -15.9195 -15.9039 -15.7580 -15.7111
   -15.6995 -15.6925 -15.6696 -15.6469 -15.5883 -15.5601 -15.5310 -15.5224
   -15.5162 -15.5141 -15.4526 -15.4475 -15.4243 -15.4175 -15.3039 -15.3001
   -15.2905 -15.2144 -15.1600 -15.0201 -14.7459 -14.2005 -13.4562 -13.4562
    -8.9356  -4.3731  -3.5033  -3.4631  -3.2800  -3.2465  -3.1781  -3.1616
    -3.1373  -3.0690  -2.9048  -2.8880  -2.8766  -2.8614  -2.8192  -2.8130
    -2.8025  -2.7901  -2.7833  -2.7643  -2.7310  -2.6983  -2.6597  -2.6524
    -2.6438  -2.6187  -2.6076  -2.5864  -2.5742  -2.5433  -2.5344  -2.5167
    -2.4871  -2.2256  -2.2059  -2.1949  -2.1238  -2.1172  -2.0835  -2.0655
    -2.0557  -2.0425  -1.9855  -1.8818  -1.7249  -1.6933  -1.6837  -1.6683
    -1.5851  -1.5754  -1.4223  -1.4011  -1.3807  -1.3436  -1.2896  -1.2672
    -1.2266  -1.1675  -1.1503  -1.0868  -1.0691  -1.0107  -0.9553  -0.9534
    -0.9325  -0.8572  -0.7756  -0.7600  -0.7468  -0.7079  -0.6979  -0.6107
    -0.5870  -0.4938  -0.4795  -0.4221  -0.3975  -0.2950  -0.1345  -0.0111
     0.0427   0.0688   0.1264   0.2248   0.2695   0.2804   0.3249   0.3311
     0.3928   0.4332   0.5462   0.5521   0.6270   0.7183   1.2600   1.4185
     1.4191   1.4898   1.4899   3.4119   3.4170   3.4642   3.4935   3.6489
     3.6535   3.6754   3.6765   3.8015   3.8177

     the Fermi energy is     3.1413 ev

!    total energy              =   -2920.42465252 Ry
     estimated scf accuracy    <       0.00000007 Ry
     smearing contrib. (-TS)   =      -0.02203173 Ry
     internal energy E=F+TS    =   -2920.40262079 Ry

     The total energy is F=E-TS. E is the sum of the following terms:
     one-electron contribution =  -24701.77052084 Ry
     hartree contribution      =   12435.49611694 Ry
     xc contribution           =    -480.87192038 Ry
     ewald contribution        =    9826.74281878 Ry
     electric field correction =       0.00088472 Ry

     total magnetization       =     0.00 Bohr mag/cell
     absolute magnetization    =     0.01 Bohr mag/cell

     convergence has been achieved in  73 iterations

     Forces acting on atoms (cartesian axes, Ry/au):

     atom    1 type  1   force =     0.00011225   -0.00026508    0.09688896
     atom    2 type  1   force =     0.00001617   -0.00056207   -0.17510943
     atom    3 type  2   force =     0.00013547   -0.00007760   -0.02544126
     atom    4 type  2   force =    -0.00000568   -0.00137160    0.05234584
     atom    5 type  2   force =    -0.01238428   -0.00013762    0.00302602
     atom    6 type  2   force =     0.01380429    0.00022893    0.00239046
     atom    7 type  1   force =     0.00059941    0.00032707   -0.01266896
     atom    8 type  1   force =     0.00047235    0.00594692    0.03106102
     atom    9 type  2   force =    -0.00033231    0.00024193    0.00040515
     atom   10 type  2   force =    -0.00269364    0.00069581   -0.01624769
     atom   11 type  2   force =    -0.00040372    0.00012809    0.00017008
     atom   12 type  2   force =     0.00013648    0.00013530    0.00019856
     atom   13 type  1   force =    -0.00013725    0.00022059    0.00025185
     atom   14 type  1   force =    -0.00002740   -0.00020729   -0.00013455
     atom   15 type  2   force =     0.00021188    0.00015463    0.00030475
     atom   16 type  2   force =    -0.00006492    0.00026973    0.00022105
     atom   17 type  2   force =    -0.00013814   -0.00022563   -0.00031174
     atom   18 type  2   force =     0.00030167   -0.00010018    0.00025103
     atom   19 type  1   force =    -0.00005245    0.00011867   -0.00006890
     atom   20 type  1   force =    -0.00022043    0.00003310   -0.00012765
     atom   21 type  2   force =     0.00006751   -0.00005673    0.10312038
     atom   22 type  2   force =    -0.00011872   -0.00009503    0.00026571
     atom   23 type  2   force =    -0.07161275   -0.00016758   -0.02783736
     atom   24 type  2   force =     0.07153863    0.00031458   -0.02789720
     atom   25 type  1   force =     0.00011633   -0.00023979    0.09667068
     atom   26 type  1   force =     0.00012161   -0.00031019   -0.17527715
     atom   27 type  2   force =     0.00013379   -0.00023244   -0.02450976
     atom   28 type  2   force =     0.00002721   -0.00112989    0.05227013
     atom   29 type  2   force =    -0.01250456    0.00014320    0.00268218
     atom   30 type  2   force =     0.01381445    0.00069058    0.00202590
     atom   31 type  1   force =     0.00049792    0.00288922   -0.01338714
     atom   32 type  1   force =     0.00030366   -0.00820734    0.03147969
     atom   33 type  2   force =    -0.00005825   -0.00006283   -0.00010306
     atom   34 type  2   force =    -0.00183882    0.00055965   -0.02456455
     atom   35 type  2   force =    -0.00013976    0.00009988    0.00005494
     atom   36 type  2   force =    -0.00024908    0.00020025    0.00012494
     atom   37 type  1   force =    -0.00007895    0.00027510    0.00023767
     atom   38 type  1   force =    -0.00023344   -0.00003633   -0.00015178
     atom   39 type  2   force =     0.00004884    0.00023025   -0.00019026
     atom   40 type  2   force =    -0.00016762    0.00027675   -0.00016261
     atom   41 type  2   force =     0.00011961    0.00003713    0.00030617
     atom   42 type  2   force =    -0.00006584   -0.00000229    0.00036606
     atom   43 type  1   force =    -0.00020480   -0.00009952    0.00048843
     atom   44 type  1   force =     0.00054202   -0.00010225   -0.00004946
     atom   45 type  2   force =     0.00005047   -0.00006521    0.10310955
     atom   46 type  2   force =    -0.07162524   -0.00007531   -0.02783423
     atom   47 type  2   force =     0.07155602    0.00034460   -0.02791075
     atom   48 type  3   force =    -0.00108200   -0.00044466    0.00027633
     atom   49 type  4   force =     0.00102973    0.00014903   -0.00065138
     atom   50 type  5   force =     0.00136492    0.00034247   -0.00016456
     atom   51 type  3   force =    -0.00055339   -0.00121930   -0.00040320
     atom   52 type  3   force =     0.00027583    0.00063978   -0.00003733
     atom   53 type  3   force =    -0.00040509   -0.00019947    0.00024842

     Total force =     0.368411     Total SCF correction =     0.000330
  @ DRIVER MODE: Message from server: STATUS
  @ DRIVER MODE: Message from server: GETFORCE
  @ DRIVER MODE: Returning v,forces,stress,ensemble

     Writing output data file ./calc.save/
  @ DRIVER MODE: Message from server: EXIT
  @ DRIVE MODE: Exiting

     General routines

     Parallel routines

   This run was terminated on:  18:58:54  15Jul2021

   JOB DONE.