     Program PWSCF v.6.7GPU starts on  3Aug2021 at  0:45:47

     R & G space division:  proc/nbgrp/npool/nimage =      16
     Reading input from /storage/home/hcoda1/3/ntian30/research/carbon/02Aug_vib_paired/ads_slab/CH3NHHH_a/out_0041/pw.inp
Warning: card &CELL ignored
Warning: card   CELL_DYNAMICS='IPI', ignored
Warning: card / ignored

     Current dimensions of program PWSCF are:
     Max number of different atomic species (ntypx) = 10
     Max number of k-points (npk) =  40000
     Max angular momentum in pseudopotentials (lmaxx) =  3
     Presently no symmetry can be used with electric field

     Message from routine cell_base_init:
     DEPRECATED: use true lattice parameter, not A to a.u. conversion factor

     IMPORTANT: XC functional enforced from input :
     Exchange-correlation= BEEF-VDW
                           (   1   4  43  14   2   0   0)
     Any further DFT definition will be discarded
     Please, verify this is what you really want

  @ DRIVER MODE: Connecting to
 qe_1139763_2482537.sched-torque.pace.gatech.eduul39q4r__scratch
  using UNIX socket
  @ DRIVER MODE: Message from server: STATUS
  @ DRIVER MODE: Message from server: INIT
  @ DRIVER MODE: Receiving replica           0          -1
  @ DRIVER MODE: Receiving encoded integer          25
  @ DRIVER MODE:  SCF:  T  FORCE:  T  STRESS:  F  VC:  F  ENSEMBLE:  F
  @ DRIVER MODE:  SCF:  T  FORCE:  T  STRESS:  F  VC:  F  ENSEMBLE:  F

     Using Slab Decomposition

     bravais-lattice index     =            0
     lattice parameter (alat)  =       1.8897  a.u.
     unit-cell volume          =    6658.9804 (a.u.)^3
     number of atoms/cell      =           55
     number of atomic types    =            5
     number of electrons       =       393.00
     number of Kohn-Sham states=          206
     kinetic-energy cutoff     =      29.3995  Ry
     charge density cutoff     =     293.9946  Ry
     scf convergence threshold =      7.3E-08
     mixing beta               =       0.0500
     number of iterations used =            8  plain     mixing
     Exchange-correlation= BEEF-VDW
                           (   1   4  43  14   2   0   0)

     celldm(1)=   1.889726  celldm(2)=   0.000000  celldm(3)=   0.000000
     celldm(4)=   0.000000  celldm(5)=   0.000000  celldm(6)=   0.000000

     crystal axes: (cart. coord. in units of alat)
               a(1) = (   6.579727   0.000000   0.000000 )
               a(2) = (  -0.000775   5.961596   0.000000 )
               a(3) = (   0.000000   0.000000  25.155947 )

     reciprocal axes: (cart. coord. in units 2 pi/alat)
               b(1) = (  0.151982  0.000020  0.000000 )
               b(2) = (  0.000000  0.167740  0.000000 )
               b(3) = (  0.000000  0.000000  0.039752 )

     PseudoPot. # 1 for Ti read from file:
     /storage/coda1/p-amedford6/0/shared/rich_project_chbe-medford/medford-share/data/pseudos_module/espresso/nninc/pbe/van/Ti.UPF
     MD5 check sum: 8e4df49b7f0d34bbd5052bf3f5ea0213
     Pseudo is Ultrasoft, Zval = 12.0
     Generated by new atomic code, or converted to UPF format
     Using radial grid of  851 points,  6 beta functions with:
                l(1) =   0
                l(2) =   0
                l(3) =   1
                l(4) =   1
                l(5) =   2
                l(6) =   2
     Q(r) pseudized with  8 coefficients,  rinner =    1.000   1.000   1.000
                                                       1.000   1.000

     PseudoPot. # 2 for O  read from file:
     /storage/coda1/p-amedford6/0/shared/rich_project_chbe-medford/medford-share/data/pseudos_module/espresso/nninc/pbe/van/O.UPF
     MD5 check sum: 78c19812648e8988a0fe644b0f25305e
     Pseudo is Ultrasoft, Zval =  6.0
     Generated by new atomic code, or converted to UPF format
     Using radial grid of  737 points,  4 beta functions with:
                l(1) =   0
                l(2) =   0
                l(3) =   1
                l(4) =   1
     Q(r) pseudized with  8 coefficients,  rinner =    0.800   0.800   0.800

     PseudoPot. # 3 for N  read from file:
     /storage/coda1/p-amedford6/0/shared/rich_project_chbe-medford/medford-share/data/pseudos_module/espresso/nninc/pbe/van/N.UPF
     MD5 check sum: 90d10febe142ad51ac9d5be1deb811c4
     Pseudo is Ultrasoft, Zval =  5.0
     Generated by new atomic code, or converted to UPF format
     Using radial grid of  729 points,  4 beta functions with:
                l(1) =   0
                l(2) =   0
                l(3) =   1
                l(4) =   1
     Q(r) pseudized with  8 coefficients,  rinner =    0.800   0.800   0.800

     PseudoPot. # 4 for C  read from file:
     /storage/coda1/p-amedford6/0/shared/rich_project_chbe-medford/medford-share/data/pseudos_module/espresso/nninc/pbe/van/C.UPF
     MD5 check sum: 1a69bf6b8db32088f5b2163dbdb77a27
     Pseudo is Ultrasoft, Zval =  4.0
     Generated by new atomic code, or converted to UPF format
     Using radial grid of  721 points,  4 beta functions with:
                l(1) =   0
                l(2) =   0
                l(3) =   1
                l(4) =   1
     Q(r) pseudized with  8 coefficients,  rinner =    0.800   0.800   0.800

     PseudoPot. # 5 for H  read from file:
     /storage/coda1/p-amedford6/0/shared/rich_project_chbe-medford/medford-share/data/pseudos_module/espresso/nninc/pbe/van/H.UPF
     MD5 check sum: b5ee9d7bfd3a09ee7748110bda690ff7
     Pseudo is Ultrasoft, Zval =  1.0
     Generated by new atomic code, or converted to UPF format
     Using radial grid of  615 points,  1 beta functions with:
                l(1) =   0
     Q(r) pseudized with  8 coefficients,  rinner =    0.800

     atomic species   valence    mass     pseudopotential
        Ti1           12.00    47.86700     Ti( 1.00)
        O1             6.00    15.99900     O ( 1.00)
        N1             5.00    14.00700     N ( 1.00)
        C1             4.00    12.01100     C ( 1.00)
        H1             1.00     1.00800     H ( 1.00)

     No symmetry found

   Cartesian axes

     site n.     atom                  positions (alat units)
         1           Ti1 tau(   1) = (   0.0004258   2.9801865   6.0000000  )
         2           Ti1 tau(   2) = (   3.2906075   1.4906267   6.0002472  )
         3           O1  tau(   3) = (   0.0006271   0.0005054   7.9858123  )
         4           O1  tau(   4) = (   3.2906025   0.0005020   7.3038282  )
         5           O1  tau(   5) = (   4.5942328   1.4918067   9.2879030  )
         6           O1  tau(   6) = (   1.9868534   1.4903216   9.2879459  )
         7           Ti1 tau(   7) = (   3.2907910   2.8959150   9.1758416  )
         8           Ti1 tau(   8) = (   0.0015273   1.4827037   9.2680791  )
         9           O1  tau(   9) = (   3.2636084   5.9406443  11.4082010  )
        10           O1  tau(  10) = (   0.0116148   5.9584955  10.6183126  )
        11           O1  tau(  11) = (   1.2642105   1.4849797  12.6947803  )
        12           O1  tau(  12) = (   5.2691575   1.4821021  12.6650678  )
        13           Ti1 tau(  13) = (   6.5574234   2.9640577  12.4921542  )
        14           Ti1 tau(  14) = (   3.2619390   1.4709553  12.5527290  )
        15           O1  tau(  15) = (   6.5247406   5.9594380  14.6832748  )
        16           O1  tau(  16) = (   3.2695906   5.9428997  14.0562986  )
        17           O1  tau(  17) = (   4.5175969   1.4707097  16.2986306  )
        18           O1  tau(  18) = (   1.9406912   1.4777946  16.2473769  )
        19           Ti1 tau(  19) = (   3.2491105   2.9422209  15.8109686  )
        20           Ti1 tau(  20) = (   6.5361480   1.3378720  15.9626387  )
        21           O1  tau(  21) = (   3.2904802   0.0005063   4.7018136  )
        22           O1  tau(  22) = (   6.5280740   5.8897732  17.4332532  )
        23           O1  tau(  23) = (   1.3043587   1.4918075   6.0039043  )
        24           O1  tau(  24) = (   5.2767064   1.4903225   6.0039473  )
        25           Ti1 tau(  25) = (   0.0000382   5.9609847   6.0000000  )
        26           Ti1 tau(  26) = (   3.2902200   4.4714249   6.0002472  )
        27           O1  tau(  27) = (   0.0002396   2.9813036   7.9858123  )
        28           O1  tau(  28) = (   3.2902150   2.9813002   7.3038282  )
        29           O1  tau(  29) = (   4.5938453   4.4726049   9.2879030  )
        30           O1  tau(  30) = (   1.9864658   4.4711199   9.2879459  )
        31           Ti1 tau(  31) = (   3.2891106   5.8743827   9.1763621  )
        32           Ti1 tau(  32) = (   0.0006254   4.4649316   9.2693709  )
        33           O1  tau(  33) = (   3.2649920   2.9642658  11.3997388  )
        34           O1  tau(  34) = (   0.0092240   2.9805883  10.6323155  )
        35           O1  tau(  35) = (   1.2634527   4.4478426  12.7061968  )
        36           O1  tau(  36) = (   5.2693862   4.4495813  12.6755241  )
        37           Ti1 tau(  37) = (   6.5522441   5.9483113  12.5008436  )
        38           Ti1 tau(  38) = (   3.2626494   4.4468850  12.5575576  )
        39           O1  tau(  39) = (   6.4970557   2.9363996  15.0046851  )
        40           O1  tau(  40) = (   3.2722650   2.9529576  14.0194401  )
        41           O1  tau(  41) = (   4.5170401   4.4205294  16.2730734  )
        42           O1  tau(  42) = (   1.9466746   4.4191161  16.2235312  )
        43           Ti1 tau(  43) = (   3.2419262   5.9323414  15.8513663  )
        44           Ti1 tau(  44) = (   6.5549466   4.5556212  15.8889459  )
        45           O1  tau(  45) = (   3.2900926   2.9813045   4.7018136  )
        46           O1  tau(  46) = (   1.3039711   4.4726057   6.0039043  )
        47           O1  tau(  47) = (   5.2763189   4.4711207   6.0039473  )
        48           N1  tau(  48) = (   4.8657738   4.5798987  19.4796958  )
        49           C1  tau(  49) = (   5.7271871   3.4329544  19.8049648  )
        50           H1  tau(  50) = (   6.3241292   3.1721029  18.9298488  )
        51           H1  tau(  51) = (   6.4229137   3.7195585  20.5942015  )
        52           H1  tau(  52) = (   5.1874390   2.5328885  20.1195193  )
        53           H1  tau(  53) = (   5.9066942   5.7389963  18.1772939  )
        54           H1  tau(  54) = (   4.2103208   4.3266459  18.7369397  )
        55           H1  tau(  55) = (   4.3187305   4.8545830  20.2870342  )

     number of k points=    10  Fermi-Dirac smearing, width (Ry)=  0.0073
                       cart. coord. in units 2pi/alat
        k(    1) = (   0.0000000   0.0000000   0.0000000), wk =   0.1250000
        k(    2) = (   0.0000000   0.0419351   0.0000000), wk =   0.2500000
        k(    3) = (   0.0000000  -0.0838702   0.0000000), wk =   0.1250000
        k(    4) = (   0.0379955   0.0000049   0.0000000), wk =   0.2500000
        k(    5) = (   0.0379955   0.0419400   0.0000000), wk =   0.2500000
        k(    6) = (   0.0379955  -0.0838652   0.0000000), wk =   0.2500000
        k(    7) = (   0.0379955  -0.0419301   0.0000000), wk =   0.2500000
        k(    8) = (  -0.0759910  -0.0000099   0.0000000), wk =   0.1250000
        k(    9) = (  -0.0759910   0.0419252   0.0000000), wk =   0.2500000
        k(   10) = (  -0.0759910  -0.0838800   0.0000000), wk =   0.1250000

     Initial potential from superposition of free atoms

     starting charge  376.99914, renormalised to  393.00000

     negative rho (up, down):  1.330E-02 0.000E+00

     %%%%%%%%%%%%%%%%%%%%%%%%%%%%%%%%%%%%%%%%%%%%%%%%%%%%%%%%%%%%%%%%%%%%%%%%
     %                                                                      %
     % You are using vdW-DF, which was implemented by the Thonhauser group. %
     % Please cite the following two papers that made this development      %
     % possible and the two reviews that describe the various versions:     %
     %                                                                      %
     %   T. Thonhauser et al., PRL 115, 136402 (2015).                      %
     %   T. Thonhauser et al., PRB 76, 125112 (2007).                       %
     %   K. Berland et al., Rep. Prog. Phys. 78, 066501 (2015).             %
     %   D.C. Langreth et al., J. Phys.: Condens. Matter 21, 084203 (2009). %
     %                                                                      %
     %                                                                      %
     % If you are calculating the stress with vdW-DF, please also cite:     %
     %                                                                      %
     %   R. Sabatini et al., J. Phys.: Condens. Matter 24, 424209 (2012).   %
     %                                                                      %
     %%%%%%%%%%%%%%%%%%%%%%%%%%%%%%%%%%%%%%%%%%%%%%%%%%%%%%%%%%%%%%%%%%%%%%%%

     Adding external electric field

     Computed dipole along edir(3) :
        Dipole               -9.4910 Ry au,        -24.1236 Debye
        Dipole field         -0.0179 Ry au,

        Potential amp.        1.6603 Ry
        Total length         46.3494 bohr

     Starting wfcs are  298 atomic wfcs
  @ DRIVER MODE: Message from server: STATUS
  @ DRIVER MODE: Message from server: POSDATA
  @ DRIVER MODE: Reading and sharing cell
  @ DRIVER MODE: Reading and sharing positions
  @ DRIVER MODE: Received positions

     Self-consistent Calculation

     iteration #  1     ecut=    29.40 Ry     beta= 0.05
     Davidson diagonalization with overlap
     c_bands:  2 eigenvalues not converged
     c_bands:  1 eigenvalues not converged
     c_bands:  2 eigenvalues not converged
     c_bands:  3 eigenvalues not converged
     c_bands:  3 eigenvalues not converged
     c_bands:  1 eigenvalues not converged
     ethr =  1.00E-05,  avg # of iterations = 18.9

[...]

     total energy              =   -2620.46530527 Ry
     estimated scf accuracy    <    3390.21437101 Ry

     iteration #  2     ecut=    29.40 Ry     beta= 0.05
     Davidson diagonalization with overlap
     ethr =  1.00E-02,  avg # of iterations = 23.2

[...]

     iteration # 81     ecut=    29.40 Ry     beta= 0.05
     Davidson diagonalization with overlap
     ethr =  4.99E-11,  avg # of iterations =  6.1

[...]

     total energy              =   -2922.77374663 Ry
     estimated scf accuracy    <       0.00000013 Ry

     iteration # 82     ecut=    29.40 Ry     beta= 0.05
     Davidson diagonalization with overlap
     c_bands:  1 eigenvalues not converged
     c_bands:  1 eigenvalues not converged
     ethr =  3.19E-11,  avg # of iterations = 15.4

     negative rho (up, down):  1.445E-02 0.000E+00

     Adding external electric field

     Computed dipole along edir(3) :
        Dipole                1.4011 Ry au,          3.5613 Debye
        Dipole field          0.0026 Ry au,

        Potential amp.       -0.2451 Ry
        Total length         46.3494 bohr

     End of self-consistent calculation

          k = 0.0000 0.0000 0.0000 ( 18029 PWs)   bands (ev):

   -55.3108 -55.2750 -55.2590 -55.2249 -55.1748 -55.1507 -55.1497 -55.1405
   -55.1163 -55.0863 -55.0755 -55.0524 -55.0338 -54.9757 -54.3026 -54.2686
   -31.8778 -31.7533 -31.6914 -31.6632 -31.6386 -31.6178 -31.5933 -31.5527
   -31.5485 -31.5471 -31.5180 -31.5071 -31.5031 -31.4784 -31.4679 -31.4629
   -31.4494 -31.4395 -31.4120 -31.4037 -31.3994 -31.3830 -31.3746 -31.3574
   -31.3548 -31.3173 -31.3163 -31.3071 -31.3051 -31.2918 -31.2870 -31.2850
   -31.2784 -31.2775 -31.2625 -31.2596 -31.2272 -31.2136 -31.2028 -31.1970
   -31.1841 -31.1094 -30.7129 -30.6165 -30.5946 -30.5289 -30.4421 -30.3314
   -16.8256 -16.1498 -15.8935 -15.7727 -15.6635 -15.5616 -15.5228 -15.4439
   -15.3600 -15.2594 -15.1979 -15.0930 -15.0581 -15.0187 -15.0048 -14.9850
   -14.9581 -14.8780 -14.8671 -14.8564 -14.8308 -14.8124 -14.7846 -14.7754
   -14.7687 -14.7293 -14.6919 -14.5797 -14.4892 -14.4037 -12.8059 -12.6882
    -9.9956  -5.8436  -4.7370  -4.4143  -3.5148  -3.4758  -3.3456  -3.2405
    -3.2071  -3.1992  -3.0781  -2.8951  -2.7999  -2.7728  -2.6848  -2.6316
    -2.5358  -2.5322  -2.4920  -2.3916  -2.3538  -2.3272  -2.2440  -2.2170
    -2.1709  -2.1199  -2.1097  -2.1065  -2.0860  -2.0455  -2.0067  -1.8879
    -1.8031  -1.7812  -1.7077  -1.6913  -1.6853  -1.6571  -1.6141  -1.5948
    -1.5456  -1.5286  -1.4879  -1.4194  -1.3579  -1.2756  -1.2386  -1.2019
    -0.9956  -0.9669  -0.9164  -0.9139  -0.8854  -0.8171  -0.7872  -0.7578
    -0.6918  -0.6894  -0.6610  -0.5547  -0.5121  -0.3910  -0.3204  -0.2410
    -0.1191  -0.1060  -0.0821  -0.0326  -0.0088   0.0507   0.1105   0.1473
     0.1867   0.1995   0.2867   0.3163   0.3943   0.4097   0.4500   0.5094
     0.5266   0.5524   0.5740   0.5820   0.6156   0.6316   0.6656   0.7323
     0.7644   0.8657   0.9144   1.1982   1.2837   1.5926   1.6161   1.7195
     1.9008   2.2979   2.3471   3.7835   3.8447   3.8852   3.9278   3.9315
     4.0132   4.1440   4.2866   4.2963   4.3074   4.3142

[...]

          k = 0.0380-0.0419 0.0000 ( 17876 PWs)   bands (ev):

[...]

          k =-0.0760-0.0000 0.0000 ( 17886 PWs)   bands (ev):

[...]

          k =-0.0760-0.0839 0.0000 ( 17948 PWs)   bands (ev):

   -55.2942 -55.2913 -55.2425 -55.2413 -55.1581 -55.1571 -55.1456 -55.1355
   -55.1312 -55.0793 -55.0706 -55.0681 -55.0267 -54.9827 -54.2856 -54.2854
   -31.6855 -31.6805 -31.5903 -31.5850 -31.5688 -31.5679 -31.5592 -31.5329
   -31.5319 -31.5115 -31.5066 -31.5047 -31.4916 -31.4653 -31.4604 -31.4593
   -31.4334 -31.4329 -31.4264 -31.4054 -31.3829 -31.3808 -31.3707 -31.3668
   -31.3661 -31.3620 -31.3609 -31.3525 -31.3509 -31.3448 -31.3410 -31.3257
   -31.3229 -31.3101 -31.3071 -31.2960 -31.2675 -31.2503 -31.2483 -31.2458
   -31.2288 -31.1758 -30.6073 -30.6072 -30.5254 -30.5252 -30.4855 -30.4855
   -16.7641 -15.8228 -15.5643 -15.5410 -15.5014 -15.4069 -15.3331 -15.3022
   -15.2921 -15.2790 -15.1530 -15.1246 -15.1153 -15.0872 -15.0558 -15.0309
   -15.0271 -14.9924 -14.9350 -14.9288 -14.9210 -14.9127 -14.8490 -14.8408
   -14.8370 -14.8302 -14.7646 -14.7622 -14.6803 -14.6784 -12.7896 -12.7895
   -10.0054  -5.8439  -4.8652  -4.3948  -3.5257  -2.8261  -2.7986  -2.7463
    -2.7017  -2.6153  -2.5297  -2.5024  -2.4659  -2.4082  -2.3559  -2.3086
    -2.3065  -2.2710  -2.2513  -2.2323  -2.1887  -2.1670  -2.1446  -2.1264
    -2.1117  -2.0579  -2.0551  -2.0460  -2.0218  -1.9874  -1.9700  -1.9570
    -1.9405  -1.9222  -1.8967  -1.8775  -1.7345  -1.7136  -1.6730  -1.5557
    -1.5379  -1.5344  -1.5015  -1.4577  -1.4328  -1.4253  -1.3513  -1.3441
    -1.3112  -1.1547  -1.0823  -1.0805  -1.0574  -1.0333  -0.9382  -0.8867
    -0.8463  -0.7963  -0.7206  -0.6894  -0.6705  -0.5981  -0.5712  -0.4796
    -0.3903  -0.3634  -0.3552  -0.2777  -0.2762  -0.2429  -0.2298  -0.1608
    -0.1005  -0.0489  -0.0450  -0.0409   0.0876   0.1247   0.2047   0.3191
     0.3994   0.4075   0.4599   0.5191   0.6112   0.6492   0.6695   0.7861
     0.7880   0.9745   0.9778   1.0261   1.0411   1.1215   1.1266   2.0736
     2.0743   2.1667   2.1670   3.7588   3.9419   3.9961   4.0689   4.0944
     4.1924   4.2773   4.3110   4.3411   4.3640   4.3696

     the Fermi energy is     3.8520 ev

!    total energy              =   -2922.77375655 Ry
     estimated scf accuracy    <       0.00000006 Ry
     smearing contrib. (-TS)   =      -0.04552167 Ry
     internal energy E=F+TS    =   -2922.72823488 Ry

     The total energy is F=E-TS. E is the sum of the following terms:
     one-electron contribution =  -23201.99829479 Ry
     hartree contribution      =   11691.26321038 Ry
     xc contribution           =    -482.54242904 Ry
     ewald contribution        =    9070.54557395 Ry
     electric field correction =       0.00370462 Ry

     convergence has been achieved in  82 iterations

     Forces acting on atoms (cartesian axes, Ry/au):

     atom    1 type  1   force =     0.00016527   -0.00007681    0.09298773
     atom    2 type  1   force =    -0.00000095   -0.00014774   -0.17883414
     atom    3 type  2   force =     0.00002127   -0.00029928   -0.02021577
     atom    4 type  2   force =    -0.00000290   -0.00223766    0.06098445
     atom    5 type  2   force =    -0.01149870   -0.00128113    0.01054589
     atom    6 type  2   force =     0.01241037   -0.00058529    0.00810788
     atom    7 type  1   force =    -0.00124560    0.00346320   -0.01489765
     atom    8 type  1   force =     0.00122849   -0.00358218   -0.00844972
     atom    9 type  2   force =     0.00001445   -0.00004847   -0.00025476
     atom   10 type  2   force =    -0.00281311   -0.00048045    0.00153292
     atom   11 type  2   force =     0.00011064   -0.00023564   -0.00030221
     atom   12 type  2   force =     0.00001443    0.00008482   -0.00011221
     atom   13 type  1   force =    -0.00019058   -0.00031375   -0.00062587
     atom   14 type  1   force =    -0.00003763   -0.00004235    0.00019241
     atom   15 type  2   force =    -0.00011822   -0.00025611   -0.00011895
     atom   16 type  2   force =     0.00032815    0.00034327   -0.00009367
     atom   17 type  2   force =     0.00078601    0.00028196   -0.00025192
     atom   18 type  2   force =     0.00009942   -0.00027954   -0.00006695
     atom   19 type  1   force =     0.00018644    0.00034993   -0.00040590
     atom   20 type  1   force =     0.00012115    0.00004396    0.00055731
     atom   21 type  2   force =     0.00012580   -0.00003252    0.10427950
     atom   22 type  2   force =    -0.00050770    0.00015513    0.00004093
     atom   23 type  2   force =    -0.06990110   -0.00012371   -0.02678198
     atom   24 type  2   force =     0.06987241    0.00033397   -0.02678468
     atom   25 type  1   force =     0.00019324   -0.00021075    0.09227169
     atom   26 type  1   force =    -0.00006885   -0.00035968   -0.17903365
     atom   27 type  2   force =     0.00004044   -0.00025591   -0.01892994
     atom   28 type  2   force =     0.00006589   -0.00192699    0.06023746
     atom   29 type  2   force =    -0.01168560   -0.00162479    0.01033811
     atom   30 type  2   force =     0.01247094   -0.00120707    0.00786789
     atom   31 type  1   force =    -0.00101305    0.00608191   -0.01578342
     atom   32 type  1   force =     0.00116588    0.00334059   -0.00863301
     atom   33 type  2   force =     0.00003106    0.00020199   -0.00024253
     atom   34 type  2   force =    -0.00240673   -0.00053392    0.00058254
     atom   35 type  2   force =    -0.00000805    0.00000084    0.00004387
     atom   36 type  2   force =     0.00004836   -0.00007380    0.00035838
     atom   37 type  1   force =     0.00035598   -0.00003949   -0.00005078
     atom   38 type  1   force =    -0.00035024   -0.00030483    0.00043416
     atom   39 type  2   force =     0.00035333   -0.00012698    0.00062358
     atom   40 type  2   force =     0.00025509   -0.00017089    0.00004221
     atom   41 type  2   force =     0.00006186    0.00035205   -0.00030912
     atom   42 type  2   force =     0.00050773    0.00022899   -0.00019683
     atom   43 type  1   force =     0.00018435   -0.00009545   -0.00037655
     atom   44 type  1   force =     0.00023214   -0.00127490    0.00062467
     atom   45 type  2   force =     0.00011764   -0.00005431    0.10422487
     atom   46 type  2   force =    -0.06991430   -0.00004022   -0.02677371
     atom   47 type  2   force =     0.06990204    0.00036349   -0.02679427
     atom   48 type  3   force =    -0.00439722   -0.00242360   -0.00979399
     atom   49 type  4   force =     0.00032748    0.00121504   -0.00071352
     atom   50 type  5   force =     0.00010158    0.00004363   -0.00006197
     atom   51 type  5   force =    -0.00064173   -0.00026889    0.00029745
     atom   52 type  5   force =    -0.00013316   -0.00036738    0.00028543
     atom   53 type  5   force =     0.00016221    0.00075197   -0.00089736
     atom   54 type  5   force =     0.00632450    0.00316321    0.00883816
     atom   55 type  5   force =    -0.00145062    0.00058255    0.00048754

     Total force =     0.367933     Total SCF correction =     0.000390
  @ DRIVER MODE: Message from server: STATUS
  @ DRIVER MODE: Message from server: GETFORCE
  @ DRIVER MODE: Returning v,forces,stress,ensemble

     Writing output data file ./calc.save/
  @ DRIVER MODE: Message from server: EXIT
  @ DRIVE MODE: Exiting

     General routines

     Parallel routines

   This run was terminated on:   1: 4:45   3Aug2021

   JOB DONE.