     Program PWSCF v.6.7GPU starts on 23Sep2021 at 14:25:37

     R & G space division:  proc/nbgrp/npool/nimage =       8
     Reading input from /storage/home/hcoda1/3/ntian30/research/carbon/CxH_vib/H2O_calc/ads_slab/CH3ON2HO_a/out_0008/pw.inp
Warning: card &CELL ignored
Warning: card   CELL_DYNAMICS='IPI', ignored
Warning: card / ignored

     Current dimensions of program PWSCF are:
     Max number of different atomic species (ntypx) = 10
     Max number of k-points (npk) =  40000
     Max angular momentum in pseudopotentials (lmaxx) =  3
     Presently no symmetry can be used with electric field

     Message from routine cell_base_init:
     DEPRECATED: use true lattice parameter, not A to a.u. conversion factor

     IMPORTANT: XC functional enforced from input :
     Exchange-correlation= BEEF-VDW
                           (   1   4  43  14   2   0   0)
     Any further DFT definition will be discarded
     Please, verify this is what you really want

  @ DRIVER MODE: Connecting to
 qe_1139763_2947306.sched-torque.pace.gatech.eduvbs32n4p_scratch
  using UNIX socket
  @ DRIVER MODE: Message from server: STATUS
  @ DRIVER MODE: Message from server: INIT
  @ DRIVER MODE: Receiving replica           0          -1
  @ DRIVER MODE: Receiving encoded integer          25
  @ DRIVER MODE:  SCF:  T  FORCE:  T  STRESS:  F  VC:  F  ENSEMBLE:  F
  @ DRIVER MODE:  SCF:  T  FORCE:  T  STRESS:  F  VC:  F  ENSEMBLE:  F

     Using Slab Decomposition

     bravais-lattice index     =            0
     lattice parameter (alat)  =       1.8897  a.u.
     unit-cell volume          =    6658.9804 (a.u.)^3
     number of atoms/cell      =           56
     number of atomic types    =            5
     number of electrons       =       408.00
     number of Kohn-Sham states=          214
     kinetic-energy cutoff     =      29.3995  Ry
     charge density cutoff     =     293.9946  Ry
     scf convergence threshold =      7.3E-08
     mixing beta               =       0.0500
     number of iterations used =            8  plain     mixing
     Exchange-correlation= BEEF-VDW
                           (   1   4  43  14   2   0   0)

     celldm(1)=   1.889726  celldm(2)=   0.000000  celldm(3)=   0.000000
     celldm(4)=   0.000000  celldm(5)=   0.000000  celldm(6)=   0.000000

     crystal axes: (cart. coord. in units of alat)
               a(1) = (   6.579727   0.000000   0.000000 )
               a(2) = (  -0.000775   5.961596   0.000000 )
               a(3) = (   0.000000   0.000000  25.155947 )

     reciprocal axes: (cart. coord. in units 2 pi/alat)
               b(1) = (  0.151982  0.000020  0.000000 )
               b(2) = (  0.000000  0.167740  0.000000 )
               b(3) = (  0.000000  0.000000  0.039752 )

     PseudoPot. # 1 for Ti read from file:
     /storage/coda1/p-amedford6/0/shared/rich_project_chbe-medford/medford-share/data/pseudos_module/espresso/nninc/pbe/van/Ti.UPF
     MD5 check sum: 8e4df49b7f0d34bbd5052bf3f5ea0213
     Pseudo is Ultrasoft, Zval = 12.0
     Generated by new atomic code, or converted to UPF format
     Using radial grid of  851 points,  6 beta functions with:
                l(1) =   0
                l(2) =   0
                l(3) =   1
                l(4) =   1
                l(5) =   2
                l(6) =   2
     Q(r) pseudized with  8 coefficients,  rinner =    1.000   1.000   1.000
                                                       1.000   1.000

     PseudoPot. # 2 for O  read from file:
     /storage/coda1/p-amedford6/0/shared/rich_project_chbe-medford/medford-share/data/pseudos_module/espresso/nninc/pbe/van/O.UPF
     MD5 check sum: 78c19812648e8988a0fe644b0f25305e
     Pseudo is Ultrasoft, Zval =  6.0
     Generated by new atomic code, or converted to UPF format
     Using radial grid of  737 points,  4 beta functions with:
                l(1) =   0
                l(2) =   0
                l(3) =   1
                l(4) =   1
     Q(r) pseudized with  8 coefficients,  rinner =    0.800   0.800   0.800

     PseudoPot. # 3 for C  read from file:
     /storage/coda1/p-amedford6/0/shared/rich_project_chbe-medford/medford-share/data/pseudos_module/espresso/nninc/pbe/van/C.UPF
     MD5 check sum: 1a69bf6b8db32088f5b2163dbdb77a27
     Pseudo is Ultrasoft, Zval =  4.0
     Generated by new atomic code, or converted to UPF format
     Using radial grid of  721 points,  4 beta functions with:
                l(1) =   0
                l(2) =   0
                l(3) =   1
                l(4) =   1
     Q(r) pseudized with  8 coefficients,  rinner =    0.800   0.800   0.800

     PseudoPot. # 4 for H  read from file:
     /storage/coda1/p-amedford6/0/shared/rich_project_chbe-medford/medford-share/data/pseudos_module/espresso/nninc/pbe/van/H.UPF
     MD5 check sum: b5ee9d7bfd3a09ee7748110bda690ff7
     Pseudo is Ultrasoft, Zval =  1.0
     Generated by new atomic code, or converted to UPF format
     Using radial grid of  615 points,  1 beta functions with:
                l(1) =   0
     Q(r) pseudized with  8 coefficients,  rinner =    0.800

     PseudoPot. # 5 for N  read from file:
     /storage/coda1/p-amedford6/0/shared/rich_project_chbe-medford/medford-share/data/pseudos_module/espresso/nninc/pbe/van/N.UPF
     MD5 check sum: 90d10febe142ad51ac9d5be1deb811c4
     Pseudo is Ultrasoft, Zval =  5.0
     Generated by new atomic code, or converted to UPF format
     Using radial grid of  729 points,  4 beta functions with:
                l(1) =   0
                l(2) =   0
                l(3) =   1
                l(4) =   1
     Q(r) pseudized with  8 coefficients,  rinner =    0.800   0.800   0.800

     atomic species   valence    mass     pseudopotential
        Ti1           12.00    47.86700     Ti( 1.00)
        O1             6.00    15.99900     O ( 1.00)
        C1             4.00    12.01100     C ( 1.00)
        H1             1.00     1.00800     H ( 1.00)
        N1             5.00    14.00700     N ( 1.00)

     No symmetry found

   Cartesian axes

     site n.     atom                  positions (alat units)
         1           Ti1 tau(   1) = (   0.0004258   2.9801865   6.0000000  )
         2           Ti1 tau(   2) = (   3.2906075   1.4906267   6.0002472  )
         3           O1  tau(   3) = (   0.0006271   0.0005054   7.9858123  )
         4           O1  tau(   4) = (   3.2906025   0.0005020   7.3038282  )
         5           O1  tau(   5) = (   4.5942328   1.4918067   9.2879030  )
         6           O1  tau(   6) = (   1.9868534   1.4903216   9.2879459  )
         7           Ti1 tau(   7) = (   3.3138730   3.1023225   9.2183157  )
         8           Ti1 tau(   8) = (   0.0392070   1.5780841   9.3433077  )
         9           O1  tau(   9) = (   3.2868017   0.0212601  11.3135411  )
        10           O1  tau(  10) = (   0.0022550   0.0140515  10.5858881  )
        11           O1  tau(  11) = (   1.2767464   1.5002397  12.6205121  )
        12           O1  tau(  12) = (   5.2993684   1.4943797  12.6172415  )
        13           Ti1 tau(  13) = (   0.0200588   3.0780815  12.7918821  )
        14           Ti1 tau(  14) = (   3.2574684   1.5637424  12.4212484  )
        15           O1  tau(  15) = (   6.5768379   0.0158506  14.6682411  )
        16           O1  tau(  16) = (   3.2886937   5.9311801  13.9109749  )
        17           O1  tau(  17) = (   4.5620935   1.5260772  16.0398494  )
        18           O1  tau(  18) = (   2.0292830   1.5431627  16.0187044  )
        19           Ti1 tau(  19) = (   3.3027642   2.9567202  15.6520962  )
        20           Ti1 tau(  20) = (   0.0552782   1.4362356  15.9688716  )
        21           O1  tau(  21) = (   3.2904802   0.0005063   4.7018136  )
        22           O1  tau(  22) = (   0.0488089   0.0211857  17.1900833  )
        23           O1  tau(  23) = (   1.3043587   1.4918075   6.0039043  )
        24           O1  tau(  24) = (   5.2767064   1.4903225   6.0039473  )
        25           Ti1 tau(  25) = (   0.0000382   5.9609847   6.0000000  )
        26           Ti1 tau(  26) = (   3.2902200   4.4714249   6.0002472  )
        27           O1  tau(  27) = (   0.0002396   2.9813036   7.9858123  )
        28           O1  tau(  28) = (   3.2902150   2.9813002   7.3038282  )
        29           O1  tau(  29) = (   4.5938453   4.4726049   9.2879030  )
        30           O1  tau(  30) = (   1.9864658   4.4711199   9.2879459  )
        31           Ti1 tau(  31) = (   3.3219941   0.1169887   9.1790125  )
        32           Ti1 tau(  32) = (   0.0373256   4.5280481   9.3594506  )
        33           O1  tau(  33) = (   3.2887547   2.9594671  11.2851190  )
        34           O1  tau(  34) = (   0.0046902   2.9985155  10.5475055  )
        35           O1  tau(  35) = (   1.2817606   4.4707209  12.6310527  )
        36           O1  tau(  36) = (   5.3098963   4.4869072  12.6241852  )
        37           Ti1 tau(  37) = (   6.5328698   0.0937101  12.6083326  )
        38           Ti1 tau(  38) = (   3.2790761   4.6595539  12.6693962  )
        39           O1  tau(  39) = (   0.0062896   2.9920245  14.6683812  )
        40           O1  tau(  40) = (   3.3079832   2.9813091  13.8732900  )
        41           O1  tau(  41) = (   4.5514670   4.4448635  16.0695425  )
        42           O1  tau(  42) = (   2.0242163   4.4286948  16.0089506  )
        43           Ti1 tau(  43) = (   3.3772342   5.9382356  16.2476532  )
        44           Ti1 tau(  44) = (   0.0845355   4.5653432  16.0322982  )
        45           O1  tau(  45) = (   3.2900926   2.9813045   4.7018136  )
        46           O1  tau(  46) = (   1.3039711   4.4726057   6.0039043  )
        47           O1  tau(  47) = (   5.2763189   4.4711207   6.0039473  )
        48           C1  tau(  48) = (   6.0101766   2.9784267  18.6088694  )
        49           O1  tau(  49) = (   6.5749008   2.9952511  17.2928482  )
        50           H1  tau(  50) = (   4.9185495   2.9407445  18.5675634  )
        51           H1  tau(  51) = (   6.3703738   2.0936667  19.1370987  )
        52           H1  tau(  52) = (   6.3118891   3.8824302  19.1399426  )
        53           N1  tau(  53) = (   6.0262039   3.1690275  22.5535725  )
        54           N1  tau(  54) = (   5.1417247   3.1052473  21.8962875  )
        55           O1  tau(  55) = (   3.2068502   5.9581871  18.0710493  )
        56           H1  tau(  56) = (   2.3500504   0.2277792  18.4614507  )

     number of k points=    10  Fermi-Dirac smearing, width (Ry)=  0.0073
                       cart. coord. in units 2pi/alat
        k(    1) = (   0.0000000   0.0000000   0.0000000), wk =   0.1250000
        k(    2) = (   0.0000000   0.0419351   0.0000000), wk =   0.2500000
        k(    3) = (   0.0000000  -0.0838702   0.0000000), wk =   0.1250000
        k(    4) = (   0.0379955   0.0000049   0.0000000), wk =   0.2500000
        k(    5) = (   0.0379955   0.0419400   0.0000000), wk =   0.2500000
        k(    6) = (   0.0379955  -0.0838652   0.0000000), wk =   0.2500000
        k(    7) = (   0.0379955  -0.0419301   0.0000000), wk =   0.2500000
        k(    8) = (  -0.0759910  -0.0000099   0.0000000), wk =   0.1250000
        k(    9) = (  -0.0759910   0.0419252   0.0000000), wk =   0.2500000
        k(   10) = (  -0.0759910  -0.0838800   0.0000000), wk =   0.1250000

     Initial potential from superposition of free atoms

     starting charge  391.99915, renormalised to  408.00000

     negative rho (up, down):  9.978E-03 0.000E+00

     %%%%%%%%%%%%%%%%%%%%%%%%%%%%%%%%%%%%%%%%%%%%%%%%%%%%%%%%%%%%%%%%%%%%%%%%
     %                                                                      %
     % You are using vdW-DF, which was implemented by the Thonhauser group. %
     % Please cite the following two papers that made this development      %
     % possible and the two reviews that describe the various versions:     %
     %                                                                      %
     %   T. Thonhauser et al., PRL 115, 136402 (2015).                      %
     %   T. Thonhauser et al., PRB 76, 125112 (2007).                       %
     %   K. Berland et al., Rep. Prog. Phys. 78, 066501 (2015).             %
     %   D.C. Langreth et al., J. Phys.: Condens. Matter 21, 084203 (2009). %
     %                                                                      %
     %                                                                      %
     % If you are calculating the stress with vdW-DF, please also cite:     %
     %                                                                      %
     %   R. Sabatini et al., J. Phys.: Condens. Matter 24, 424209 (2012).   %
     %                                                                      %
     %%%%%%%%%%%%%%%%%%%%%%%%%%%%%%%%%%%%%%%%%%%%%%%%%%%%%%%%%%%%%%%%%%%%%%%%

     Adding external electric field

     Computed dipole along edir(3) :
        Dipole              -16.8152 Ry au,        -42.7399 Debye
        Dipole field         -0.0317 Ry au,

        Potential amp.        2.9416 Ry
        Total length         46.3494 bohr

     Starting wfcs are  308 atomic wfcs
  @ DRIVER MODE: Message from server: STATUS
  @ DRIVER MODE: Message from server: POSDATA
  @ DRIVER MODE: Reading and sharing cell
  @ DRIVER MODE: Reading and sharing positions
  @ DRIVER MODE: Received positions

     Self-consistent Calculation

     iteration #  1     ecut=    29.40 Ry     beta= 0.05
     Davidson diagonalization with overlap
     c_bands:  4 eigenvalues not converged
     c_bands:  1 eigenvalues not converged
     c_bands:  5 eigenvalues not converged
     c_bands:  1 eigenvalues not converged
     c_bands:  2 eigenvalues not converged
     c_bands:  2 eigenvalues not converged
     c_bands:  1 eigenvalues not converged
     c_bands:  5 eigenvalues not converged
     ethr =  1.00E-05,  avg # of iterations = 27.4

[...]

     total energy              =   -2248.47150274 Ry
     estimated scf accuracy    <    8689.03757352 Ry

     iteration #  2     ecut=    29.40 Ry     beta= 0.05
     Davidson diagonalization with overlap
     ethr =  1.00E-02,  avg # of iterations = 31.0

[...]

     iteration # 49     ecut=    29.40 Ry     beta= 0.05
     Davidson diagonalization with overlap
     c_bands:  1 eigenvalues not converged
     c_bands:  2 eigenvalues not converged
     c_bands:  1 eigenvalues not converged
     c_bands:  1 eigenvalues not converged
     ethr =  4.04E-07,  avg # of iterations = 15.8

[...]

     total energy              =   -3005.28913472 Ry
     estimated scf accuracy    <       0.00000008 Ry

     iteration # 75     ecut=    29.40 Ry     beta= 0.05
     Davidson diagonalization with overlap
     ethr =  1.91E-11,  avg # of iterations =  5.0

     negative rho (up, down):  1.141E-02 0.000E+00

     Adding external electric field

     Computed dipole along edir(3) :
        Dipole                0.5506 Ry au,          1.3996 Debye
        Dipole field          0.0010 Ry au,

        Potential amp.       -0.0963 Ry
        Total length         46.3494 bohr

     End of self-consistent calculation

          k = 0.0000 0.0000 0.0000 ( 18029 PWs)   bands (ev):

   -56.1281 -56.0806 -55.5698 -55.5507 -55.5388 -55.5129 -55.4789 -55.4557
   -55.4206 -55.3958 -55.3613 -55.3195 -55.3182 -55.1823 -54.7411 -54.7072
   -32.5410 -32.3923 -32.3419 -32.3075 -32.2128 -32.1673 -32.0731 -32.0173
   -32.0085 -31.9041 -31.8588 -31.8412 -31.8372 -31.8136 -31.8111 -31.7738
   -31.7713 -31.7584 -31.7369 -31.7298 -31.7269 -31.6850 -31.6749 -31.6603
   -31.6572 -31.6387 -31.6358 -31.6263 -31.6192 -31.6096 -31.6022 -31.5860
   -31.5707 -31.5657 -31.5599 -31.5244 -31.5151 -31.5125 -31.4822 -31.4369
   -31.3989 -31.3874 -31.1355 -31.0813 -31.0569 -30.9524 -30.8675 -30.7566
   -20.8615 -17.3084 -16.3421 -16.2850 -16.1436 -15.9070 -15.7626 -15.6850
   -15.4555 -15.4453 -15.3300 -15.3235 -15.2883 -15.1575 -15.1395 -15.1324
   -15.0820 -15.0668 -15.0438 -15.0419 -15.0380 -15.0295 -14.9718 -14.9526
   -14.9132 -14.8544 -14.7780 -14.7584 -14.7088 -14.6974 -14.6561 -14.4307
   -13.2424 -13.1338  -9.0958  -6.0219  -4.1040  -3.9931  -3.9848  -3.9306
    -3.8116  -3.7536  -3.5863  -3.4877  -3.4544  -3.3825  -3.2896  -3.1846
    -2.9702  -2.8187  -2.7556  -2.7215  -2.7165  -2.6748  -2.6334  -2.5718
    -2.5171  -2.4751  -2.4412  -2.4073  -2.3469  -2.3343  -2.3184  -2.2884
    -2.2686  -2.2477  -2.2093  -2.2005  -2.0685  -2.0321  -2.0030  -1.9908
    -1.9372  -1.9194  -1.9002  -1.8907  -1.8454  -1.7493  -1.6510  -1.6370
    -1.5934  -1.4077  -1.3315  -1.2862  -1.2073  -1.1414  -1.0641  -1.0436
    -1.0337  -0.9791  -0.9406  -0.8403  -0.8057  -0.7672  -0.6991  -0.6944
    -0.6544  -0.5967  -0.5706  -0.5086  -0.4803  -0.4469  -0.3085  -0.2727
    -0.2551  -0.1927  -0.1916  -0.1018  -0.0416   0.0117   0.0310   0.0869
     0.1261   0.1488   0.2002   0.2306   0.2435   0.3279   0.3771   0.3843
     0.4177   0.4572   0.4758   0.5083   0.5962   0.6439   0.6707   0.6961
     0.8404   0.8540   0.9088   1.0154   1.0201   1.2057   1.2766   1.3122
     1.4988   1.5369   1.8282   1.8739   3.1721   3.3353   3.6147   3.7261
     3.7714   3.8113   3.8868   3.9137   4.0691   4.0914

[...]

          k = 0.0380-0.0419 0.0000 ( 17876 PWs)   bands (ev):

[...]

          k =-0.0760-0.0000 0.0000 ( 17886 PWs)   bands (ev):

[...]

          k =-0.0760-0.0839 0.0000 ( 17948 PWs)   bands (ev):

   -56.1211 -56.0874 -55.5678 -55.5458 -55.5378 -55.5069 -55.4834 -55.4615
   -55.4224 -55.3971 -55.3528 -55.3278 -55.3164 -55.1842 -54.7243 -54.7239
   -32.3877 -32.3721 -32.3459 -32.3435 -32.2730 -32.2444 -31.9615 -31.8817
   -31.8533 -31.8372 -31.8130 -31.8052 -31.7898 -31.7844 -31.7765 -31.7604
   -31.7552 -31.7447 -31.7445 -31.7379 -31.7277 -31.7188 -31.7056 -31.7036
   -31.7023 -31.6856 -31.6801 -31.6557 -31.6468 -31.6452 -31.6275 -31.6218
   -31.5996 -31.5920 -31.5767 -31.5647 -31.5621 -31.5345 -31.5192 -31.5016
   -31.4375 -31.3909 -31.0700 -31.0699 -30.9511 -30.9494 -30.9097 -30.9087
   -20.8614 -17.2698 -16.3164 -15.6917 -15.6017 -15.5926 -15.5852 -15.5523
   -15.5163 -15.4516 -15.4368 -15.3689 -15.2966 -15.2664 -15.2259 -15.2013
   -15.1845 -15.1479 -15.1432 -15.0811 -15.0375 -15.0285 -15.0141 -15.0003
   -14.9554 -14.9479 -14.9389 -14.9227 -14.9135 -14.8530 -14.7531 -14.5754
   -13.2381 -13.2369  -9.0960  -6.0234  -4.0455  -3.9990  -3.9758  -3.8532
    -3.6941  -3.4470  -2.9245  -2.8440  -2.7655  -2.7633  -2.7069  -2.6745
    -2.6267  -2.6036  -2.5674  -2.5519  -2.5298  -2.4640  -2.4395  -2.4252
    -2.4217  -2.4132  -2.3969  -2.3778  -2.3357  -2.3263  -2.3128  -2.3042
    -2.2850  -2.2808  -2.2678  -2.2455  -2.2066  -2.1447  -2.0893  -1.9466
    -1.9384  -1.9129  -1.8931  -1.8694  -1.8438  -1.7929  -1.7113  -1.6914
    -1.6728  -1.5969  -1.5382  -1.3332  -1.3119  -1.2945  -1.2247  -1.1561
    -1.0901  -1.0722  -1.0376  -1.0040  -0.9801  -0.9407  -0.8837  -0.8491
    -0.8061  -0.7932  -0.7558  -0.7181  -0.6749  -0.6070  -0.5991  -0.5663
    -0.5167  -0.4930  -0.4028  -0.3949  -0.3701  -0.3528  -0.3198  -0.2281
    -0.1750  -0.1297  -0.0406  -0.0017   0.0394   0.1708   0.2376   0.2741
     0.3469   0.3869   0.4951   0.5165   0.5954   0.6176   0.6466   0.6726
     0.7353   0.8087   0.8604   0.9083   0.9500   0.9647   1.0157   1.0625
     1.6700   1.6725   1.6801   1.6864   3.7150   3.7412   3.7490   3.7823
     3.9864   4.0163   4.0898   4.1065   4.1273   4.1835

     the Fermi energy is     2.5803 ev

!    total energy              =   -3005.28915194 Ry
     estimated scf accuracy    <       0.00000002 Ry
     smearing contrib. (-TS)   =      -0.00015439 Ry
     internal energy E=F+TS    =   -3005.28899755 Ry

     The total energy is F=E-TS. E is the sum of the following terms:
     one-electron contribution =  -22581.80690558 Ry
     hartree contribution      =   11387.21482069 Ry
     xc contribution           =    -500.23829590 Ry
     ewald contribution        =    8689.54081108 Ry
     electric field correction =       0.00057216 Ry

     convergence has been achieved in  75 iterations

     Forces acting on atoms (cartesian axes, Ry/au):

     atom    1 type  1   force =     0.00012028    0.00010458    0.13281435
     atom    2 type  1   force =    -0.00011016    0.00821144   -0.15824762
     atom    3 type  2   force =     0.00029901   -0.00362381   -0.05308282
     atom    4 type  2   force =     0.00059192    0.00104862    0.04009791
     atom    5 type  2   force =    -0.00786067   -0.00195162   -0.00033795
     atom    6 type  2   force =     0.00846116   -0.00490459   -0.00004258
     atom    7 type  1   force =    -0.00017518   -0.00030978   -0.00005974
     atom    8 type  1   force =    -0.00000356   -0.00027114    0.00021796
     atom    9 type  2   force =     0.00013285    0.00009995    0.00004208
     atom   10 type  2   force =    -0.00003174    0.00020305    0.00007704
     atom   11 type  2   force =    -0.00003147    0.00013023   -0.00000771
     atom   12 type  2   force =     0.00035577   -0.00011053   -0.00004856
     atom   13 type  1   force =    -0.00018282    0.00001685    0.00021253
     atom   14 type  1   force =     0.00011160    0.00056665    0.00009861
     atom   15 type  2   force =    -0.00003653    0.00014248   -0.00020710
     atom   16 type  2   force =     0.00005298    0.00005822   -0.00041691
     atom   17 type  2   force =     0.00055535   -0.00022022    0.00046065
     atom   18 type  2   force =     0.00028155   -0.00075087   -0.00011788
     atom   19 type  1   force =    -0.00073652    0.00032397   -0.00010009
     atom   20 type  1   force =     0.00071417   -0.00007741   -0.00013237
     atom   21 type  2   force =    -0.00006526    0.00009392    0.09916048
     atom   22 type  2   force =    -0.00033880    0.00015656    0.00002793
     atom   23 type  2   force =    -0.08059382    0.00058284   -0.03416709
     atom   24 type  2   force =     0.08036712    0.00110463   -0.03420815
     atom   25 type  1   force =    -0.00021900   -0.00018026    0.14172429
     atom   26 type  1   force =    -0.00018711   -0.00687048   -0.15775981
     atom   27 type  2   force =     0.00043862    0.00018026   -0.05212611
     atom   28 type  2   force =     0.00043918    0.00035645    0.04187910
     atom   29 type  2   force =    -0.00939964    0.00598203    0.00165205
     atom   30 type  2   force =     0.00931181    0.00235534    0.00176219
     atom   31 type  1   force =    -0.00002970    0.00010703    0.00013386
     atom   32 type  1   force =     0.00002192   -0.00012574   -0.00010167
     atom   33 type  2   force =    -0.00006254   -0.00032565    0.00029246
     atom   34 type  2   force =    -0.00009920   -0.00005622    0.00001608
     atom   35 type  2   force =     0.00063586    0.00026559   -0.00006906
     atom   36 type  2   force =    -0.00020100    0.00015990    0.00006055
     atom   37 type  1   force =    -0.00038390    0.00047370   -0.00058537
     atom   38 type  1   force =     0.00023181   -0.00034006   -0.00013397
     atom   39 type  2   force =    -0.00010869   -0.00000434    0.00011082
     atom   40 type  2   force =     0.00013466   -0.00008524   -0.00029340
     atom   41 type  2   force =     0.00117932   -0.00011650    0.00043742
     atom   42 type  2   force =    -0.00002446    0.00057000   -0.00023476
     atom   43 type  1   force =    -0.00085902   -0.00034557   -0.00005326
     atom   44 type  1   force =     0.00035790   -0.00025623   -0.00048584
     atom   45 type  2   force =    -0.00007733    0.00018270    0.09872937
     atom   46 type  2   force =    -0.08055747   -0.00156682   -0.03412188
     atom   47 type  2   force =     0.08036252   -0.00103296   -0.03420680
     atom   48 type  3   force =     0.00300721   -0.00008215   -0.00135132
     atom   49 type  2   force =    -0.00452937   -0.00039937    0.00414715
     atom   50 type  4   force =    -0.00001073    0.00018701   -0.00174073
     atom   51 type  4   force =    -0.00030515    0.00004974    0.00013031
     atom   52 type  4   force =     0.00005927    0.00021228   -0.00033020
     atom   53 type  5   force =     0.00097638    0.00011134    0.00073173
     atom   54 type  5   force =    -0.00129105    0.00000154   -0.00083840
     atom   55 type  2   force =    -0.00108665    0.00083880    0.00033599
     atom   56 type  4   force =     0.00039836   -0.00087016    0.00025622

     Total force =     0.383788     Total SCF correction =     0.000535
  @ DRIVER MODE: Message from server: STATUS
  @ DRIVER MODE: Message from server: GETFORCE
  @ DRIVER MODE: Returning v,forces,stress,ensemble

     Writing output data file ./calc.save/
  @ DRIVER MODE: Message from server: EXIT
  @ DRIVE MODE: Exiting

     General routines

     Parallel routines

   This run was terminated on:  14:52:45  23Sep2021

   JOB DONE.