     Program PWSCF v.6.7GPU starts on 16Sep2021 at  0:42: 2

     R & G space division:  proc/nbgrp/npool/nimage =      10
     Reading input from /storage/home/hcoda1/3/ntian30/research/carbon/CxH_vib/H2O_calc/ads_slab/CH2NH2O_a/out_0028/pw.inp
Warning: card &CELL ignored
Warning: card   CELL_DYNAMICS='IPI', ignored
Warning: card / ignored

     Current dimensions of program PWSCF are:
     Max number of different atomic species (ntypx) = 10
     Max number of k-points (npk) =  40000
     Max angular momentum in pseudopotentials (lmaxx) =  3
     Presently no symmetry can be used with electric field

     Message from routine cell_base_init:
     DEPRECATED: use true lattice parameter, not A to a.u. conversion factor

     IMPORTANT: XC functional enforced from input :
     Exchange-correlation= BEEF-VDW
                           (   1   4  43  14   2   0   0)
     Any further DFT definition will be discarded
     Please, verify this is what you really want

  @ DRIVER MODE: Connecting to
 qe_1139763_2852607.sched-torque.pace.gatech.eduseuwd_nx_scratch
  using UNIX socket
  @ DRIVER MODE: Message from server: STATUS
  @ DRIVER MODE: Message from server: INIT
  @ DRIVER MODE: Receiving replica           0          -1
  @ DRIVER MODE: Receiving encoded integer          25
  @ DRIVER MODE:  SCF:  T  FORCE:  T  STRESS:  F  VC:  F  ENSEMBLE:  F
  @ DRIVER MODE:  SCF:  T  FORCE:  T  STRESS:  F  VC:  F  ENSEMBLE:  F

     Using Slab Decomposition

     bravais-lattice index     =            0
     lattice parameter (alat)  =       1.8897  a.u.
     unit-cell volume          =    6658.9804 (a.u.)^3
     number of atoms/cell      =           54
     number of atomic types    =            5
     number of electrons       =       397.00
     number of Kohn-Sham states=          208
     kinetic-energy cutoff     =      29.3995  Ry
     charge density cutoff     =     293.9946  Ry
     scf convergence threshold =      7.3E-08
     mixing beta               =       0.0500
     number of iterations used =            8  plain     mixing
     Exchange-correlation= BEEF-VDW
                           (   1   4  43  14   2   0   0)

     celldm(1)=   1.889726  celldm(2)=   0.000000  celldm(3)=   0.000000
     celldm(4)=   0.000000  celldm(5)=   0.000000  celldm(6)=   0.000000

     crystal axes: (cart. coord. in units of alat)
               a(1) = (   6.579727   0.000000   0.000000 )
               a(2) = (  -0.000775   5.961596   0.000000 )
               a(3) = (   0.000000   0.000000  25.155947 )

     reciprocal axes: (cart. coord. in units 2 pi/alat)
               b(1) = (  0.151982  0.000020  0.000000 )
               b(2) = (  0.000000  0.167740  0.000000 )
               b(3) = (  0.000000  0.000000  0.039752 )

     PseudoPot. # 1 for Ti read from file:
     /storage/coda1/p-amedford6/0/shared/rich_project_chbe-medford/medford-share/data/pseudos_module/espresso/nninc/pbe/van/Ti.UPF
     MD5 check sum: 8e4df49b7f0d34bbd5052bf3f5ea0213
     Pseudo is Ultrasoft, Zval = 12.0
     Generated by new atomic code, or converted to UPF format
     Using radial grid of  851 points,  6 beta functions with:
                l(1) =   0
                l(2) =   0
                l(3) =   1
                l(4) =   1
                l(5) =   2
                l(6) =   2
     Q(r) pseudized with  8 coefficients,  rinner =    1.000   1.000   1.000
                                                       1.000   1.000

     PseudoPot. # 2 for O  read from file:
     /storage/coda1/p-amedford6/0/shared/rich_project_chbe-medford/medford-share/data/pseudos_module/espresso/nninc/pbe/van/O.UPF
     MD5 check sum: 78c19812648e8988a0fe644b0f25305e
     Pseudo is Ultrasoft, Zval =  6.0
     Generated by new atomic code, or converted to UPF format
     Using radial grid of  737 points,  4 beta functions with:
                l(1) =   0
                l(2) =   0
                l(3) =   1
                l(4) =   1
     Q(r) pseudized with  8 coefficients,  rinner =    0.800   0.800   0.800

     PseudoPot. # 3 for N  read from file:
     /storage/coda1/p-amedford6/0/shared/rich_project_chbe-medford/medford-share/data/pseudos_module/espresso/nninc/pbe/van/N.UPF
     MD5 check sum: 90d10febe142ad51ac9d5be1deb811c4
     Pseudo is Ultrasoft, Zval =  5.0
     Generated by new atomic code, or converted to UPF format
     Using radial grid of  729 points,  4 beta functions with:
                l(1) =   0
                l(2) =   0
                l(3) =   1
                l(4) =   1
     Q(r) pseudized with  8 coefficients,  rinner =    0.800   0.800   0.800

     PseudoPot. # 4 for C  read from file:
     /storage/coda1/p-amedford6/0/shared/rich_project_chbe-medford/medford-share/data/pseudos_module/espresso/nninc/pbe/van/C.UPF
     MD5 check sum: 1a69bf6b8db32088f5b2163dbdb77a27
     Pseudo is Ultrasoft, Zval =  4.0
     Generated by new atomic code, or converted to UPF format
     Using radial grid of  721 points,  4 beta functions with:
                l(1) =   0
                l(2) =   0
                l(3) =   1
                l(4) =   1
     Q(r) pseudized with  8 coefficients,  rinner =    0.800   0.800   0.800

     PseudoPot. # 5 for H  read from file:
     /storage/coda1/p-amedford6/0/shared/rich_project_chbe-medford/medford-share/data/pseudos_module/espresso/nninc/pbe/van/H.UPF
     MD5 check sum: b5ee9d7bfd3a09ee7748110bda690ff7
     Pseudo is Ultrasoft, Zval =  1.0
     Generated by new atomic code, or converted to UPF format
     Using radial grid of  615 points,  1 beta functions with:
                l(1) =   0
     Q(r) pseudized with  8 coefficients,  rinner =    0.800

     atomic species   valence    mass     pseudopotential
        Ti1           12.00    47.86700     Ti( 1.00)
        O1             6.00    15.99900     O ( 1.00)
        N1             5.00    14.00700     N ( 1.00)
        C1             4.00    12.01100     C ( 1.00)
        H1             1.00     1.00800     H ( 1.00)

     No symmetry found

   Cartesian axes

     site n.     atom                  positions (alat units)
         1           Ti1 tau(   1) = (   0.0004258   2.9801865   6.0000000  )
         2           Ti1 tau(   2) = (   3.2906075   1.4906267   6.0002472  )
         3           O1  tau(   3) = (   0.0006271   0.0005054   7.9858123  )
         4           O1  tau(   4) = (   3.2906025   0.0005020   7.3038282  )
         5           O1  tau(   5) = (   4.5942328   1.4918067   9.2879030  )
         6           O1  tau(   6) = (   1.9868534   1.4903216   9.2879459  )
         7           Ti1 tau(   7) = (   3.2907910   2.8959150   9.1758416  )
         8           Ti1 tau(   8) = (   0.0015273   1.4827037   9.2680791  )
         9           O1  tau(   9) = (   3.3024300   0.0156651  11.3362489  )
        10           O1  tau(  10) = (   0.0116148   5.9584955  10.6183126  )
        11           O1  tau(  11) = (   1.3202942   1.5021919  12.6211084  )
        12           O1  tau(  12) = (   5.3089492   1.4933221  12.6244093  )
        13           Ti1 tau(  13) = (   6.5318549   2.9554166  12.6004298  )
        14           Ti1 tau(  14) = (   3.2163550   1.4959796  12.4995714  )
        15           O1  tau(  15) = (   0.0198598   0.0281632  14.6562685  )
        16           O1  tau(  16) = (   3.3115091   0.0214956  13.9462002  )
        17           O1  tau(  17) = (   4.5768415   1.5604546  16.0171077  )
        18           O1  tau(  18) = (   2.0579415   1.5629007  16.0064375  )
        19           Ti1 tau(  19) = (   3.3180608   3.0267156  15.6839788  )
        20           Ti1 tau(  20) = (   0.0373526   1.5614015  15.8096867  )
        21           O1  tau(  21) = (   3.2904802   0.0005063   4.7018136  )
        22           O1  tau(  22) = (   0.0417102   0.0258274  17.2400240  )
        23           O1  tau(  23) = (   1.3043587   1.4918075   6.0039043  )
        24           O1  tau(  24) = (   5.2767064   1.4903225   6.0039473  )
        25           Ti1 tau(  25) = (   0.0000382   5.9609847   6.0000000  )
        26           Ti1 tau(  26) = (   3.2902200   4.4714249   6.0002472  )
        27           O1  tau(  27) = (   0.0002396   2.9813036   7.9858123  )
        28           O1  tau(  28) = (   3.2902150   2.9813002   7.3038282  )
        29           O1  tau(  29) = (   4.5938453   4.4726049   9.2879030  )
        30           O1  tau(  30) = (   1.9864658   4.4711199   9.2879459  )
        31           Ti1 tau(  31) = (   3.2891106   5.8743827   9.1763621  )
        32           Ti1 tau(  32) = (   0.0006254   4.4649316   9.2693709  )
        33           O1  tau(  33) = (   3.2972593   2.9937737  11.3378417  )
        34           O1  tau(  34) = (   0.0092240   2.9805883  10.6323155  )
        35           O1  tau(  35) = (   1.3143161   4.4928581  12.6237603  )
        36           O1  tau(  36) = (   5.3098643   4.4818631  12.6293382  )
        37           Ti1 tau(  37) = (   6.5333161   5.9285706  12.5502982  )
        38           Ti1 tau(  38) = (   3.2144982   4.4885123  12.4917375  )
        39           O1  tau(  39) = (   0.0198576   2.9709144  14.6477637  )
        40           O1  tau(  40) = (   3.3145585   3.0140958  13.8917140  )
        41           O1  tau(  41) = (   4.5688195   4.4932876  16.0791699  )
        42           O1  tau(  42) = (   2.0650477   4.4875755  16.0663885  )
        43           Ti1 tau(  43) = (   3.3331689   0.0560974  15.7812046  )
        44           Ti1 tau(  44) = (   0.0348837   4.6827776  16.0884590  )
        45           O1  tau(  45) = (   3.2900926   2.9813045   4.7018136  )
        46           O1  tau(  46) = (   1.3039711   4.4726057   6.0039043  )
        47           O1  tau(  47) = (   5.2763189   4.4711207   6.0039473  )
        48           N1  tau(  48) = (   0.0359943   2.9709886  17.3934402  )
        49           C1  tau(  49) = (   0.0487696   2.8543938  18.6443550  )
        50           H1  tau(  50) = (   0.0551173   3.7295775  19.3121947  )
        51           H1  tau(  51) = (   0.0550652   1.8705629  19.1311967  )
        52           O1  tau(  52) = (   3.2796845   0.1661466  18.1797653  )
        53           H1  tau(  53) = (   4.0301203   5.5808867  18.4795516  )
        54           H1  tau(  54) = (   2.4663764   5.6445902  18.4210942  )

     number of k points=    10  Fermi-Dirac smearing, width (Ry)=  0.0073
                       cart. coord. in units 2pi/alat
        k(    1) = (   0.0000000   0.0000000   0.0000000), wk =   0.1250000
        k(    2) = (   0.0000000   0.0419351   0.0000000), wk =   0.2500000
        k(    3) = (   0.0000000  -0.0838702   0.0000000), wk =   0.1250000
        k(    4) = (   0.0379955   0.0000049   0.0000000), wk =   0.2500000
        k(    5) = (   0.0379955   0.0419400   0.0000000), wk =   0.2500000
        k(    6) = (   0.0379955  -0.0838652   0.0000000), wk =   0.2500000
        k(    7) = (   0.0379955  -0.0419301   0.0000000), wk =   0.2500000
        k(    8) = (  -0.0759910  -0.0000099   0.0000000), wk =   0.1250000
        k(    9) = (  -0.0759910   0.0419252   0.0000000), wk =   0.2500000
        k(   10) = (  -0.0759910  -0.0838800   0.0000000), wk =   0.1250000

     Initial potential from superposition of free atoms

     starting charge  380.99916, renormalised to  397.00000

     negative rho (up, down):  1.694E-02 0.000E+00

     %%%%%%%%%%%%%%%%%%%%%%%%%%%%%%%%%%%%%%%%%%%%%%%%%%%%%%%%%%%%%%%%%%%%%%%%
     %                                                                      %
     % You are using vdW-DF, which was implemented by the Thonhauser group. %
     % Please cite the following two papers that made this development      %
     % possible and the two reviews that describe the various versions:     %
     %                                                                      %
     %   T. Thonhauser et al., PRL 115, 136402 (2015).                      %
     %   T. Thonhauser et al., PRB 76, 125112 (2007).                       %
     %   K. Berland et al., Rep. Prog. Phys. 78, 066501 (2015).             %
     %   D.C. Langreth et al., J. Phys.: Condens. Matter 21, 084203 (2009). %
     %                                                                      %
     %                                                                      %
     % If you are calculating the stress with vdW-DF, please also cite:     %
     %                                                                      %
     %   R. Sabatini et al., J. Phys.: Condens. Matter 24, 424209 (2012).   %
     %                                                                      %
     %%%%%%%%%%%%%%%%%%%%%%%%%%%%%%%%%%%%%%%%%%%%%%%%%%%%%%%%%%%%%%%%%%%%%%%%

     Adding external electric field

     Computed dipole along edir(3) :
        Dipole               -9.2265 Ry au,        -23.4513 Debye
        Dipole field         -0.0174 Ry au,

        Potential amp.        1.6140 Ry
        Total length         46.3494 bohr

     Starting wfcs are  300 atomic wfcs
  @ DRIVER MODE: Message from server: STATUS
  @ DRIVER MODE: Message from server: POSDATA
  @ DRIVER MODE: Reading and sharing cell
  @ DRIVER MODE: Reading and sharing positions
  @ DRIVER MODE: Received positions

     Self-consistent Calculation

     iteration #  1     ecut=    29.40 Ry     beta= 0.05
     Davidson diagonalization with overlap
     c_bands:  1 eigenvalues not converged
     c_bands:  2 eigenvalues not converged
     c_bands:  1 eigenvalues not converged
     c_bands:  1 eigenvalues not converged
     c_bands:  1 eigenvalues not converged
     c_bands:  1 eigenvalues not converged
     c_bands:  1 eigenvalues not converged
     ethr =  1.00E-05,  avg # of iterations = 19.0

[...]

     total energy              =   -2550.57858511 Ry
     estimated scf accuracy    <    4467.37457257 Ry

     iteration #  2     ecut=    29.40 Ry     beta= 0.05
     Davidson diagonalization with overlap
     ethr =  1.00E-02,  avg # of iterations = 24.6

[...]

     iteration # 81     ecut=    29.40 Ry     beta= 0.05
     Davidson diagonalization with overlap
     c_bands:  1 eigenvalues not converged
     ethr =  5.06E-11,  avg # of iterations = 15.5

[...]

     total energy              =   -2952.76135936 Ry
     estimated scf accuracy    <       0.00000013 Ry

     iteration # 84     ecut=    29.40 Ry     beta= 0.05
     Davidson diagonalization with overlap
     ethr =  3.37E-11,  avg # of iterations =  9.0

     negative rho (up, down):  1.681E-02 0.000E+00

     Adding external electric field

     Computed dipole along edir(3) :
        Dipole                1.0227 Ry au,          2.5995 Debye
        Dipole field          0.0019 Ry au,

        Potential amp.       -0.1789 Ry
        Total length         46.3494 bohr

     End of self-consistent calculation

          k = 0.0000 0.0000 0.0000 ( 18029 PWs)   bands (ev):

   -55.6881 -55.6566 -55.6541 -55.6282 -55.6207 -55.5358 -55.5018 -55.5007
   -55.4698 -55.4678 -55.4642 -55.4305 -55.2141 -54.9974 -54.6677 -54.6337
   -32.2008 -32.1713 -32.0425 -32.0390 -32.0003 -31.9808 -31.9611 -31.9544
   -31.9318 -31.8913 -31.8822 -31.8518 -31.8403 -31.8393 -31.8346 -31.8142
   -31.7932 -31.7860 -31.7830 -31.7503 -31.7453 -31.7377 -31.7037 -31.6927
   -31.6925 -31.6911 -31.6813 -31.6637 -31.6635 -31.6553 -31.6501 -31.6412
   -31.6329 -31.6317 -31.6177 -31.6100 -31.5765 -31.4628 -31.4101 -31.2702
   -31.2498 -31.2116 -31.0749 -30.9864 -30.9640 -30.8916 -30.8051 -30.6940
   -19.1029 -16.4044 -16.1619 -15.9442 -15.8447 -15.8075 -15.6097 -15.5074
   -15.4204 -15.3106 -15.2461 -15.2255 -15.2189 -15.1990 -15.1885 -15.1471
   -15.1339 -15.1299 -15.1104 -15.0930 -15.0399 -15.0299 -15.0221 -14.9329
   -14.8595 -14.8250 -14.8133 -14.8066 -14.7889 -14.7463 -14.2994 -13.1697
   -13.0532  -7.4979  -6.8665  -4.2715  -3.8245  -3.7479  -3.6437  -3.5954
    -3.5566  -3.4197  -3.3516  -3.2618  -3.1464  -2.9348  -2.8752  -2.8349
    -2.8077  -2.7476  -2.5964  -2.5523  -2.5006  -2.4906  -2.4791  -2.4661
    -2.4384  -2.4241  -2.3280  -2.2848  -2.2399  -2.2304  -2.0908  -2.0780
    -2.0517  -2.0015  -1.9677  -1.9533  -1.9480  -1.9359  -1.9221  -1.8988
    -1.8741  -1.7703  -1.6811  -1.6110  -1.4992  -1.4558  -1.4044  -1.3115
    -1.3027  -1.2312  -1.1545  -1.1420  -1.1180  -1.0884  -1.0803  -0.9653
    -0.8596  -0.8458  -0.7457  -0.6926  -0.6096  -0.5802  -0.5257  -0.4795
    -0.4513  -0.4474  -0.4319  -0.3798  -0.2376  -0.2121  -0.1734  -0.0941
    -0.0346  -0.0231   0.0207   0.0622   0.1160   0.1412   0.1959   0.2033
     0.2375   0.2816   0.2850   0.3040   0.3213   0.3467   0.5212   0.5622
     0.5736   0.6493   0.6589   0.8269   0.8399   0.9665   1.0771   1.2816
     1.3548   1.4412   1.5471   1.6486   1.9260   1.9717   3.4404   3.5321
     3.5747   3.6057   3.6847   3.6880   3.8983   3.9153   3.9368   4.0199

[...]

          k = 0.0380-0.0419 0.0000 ( 17876 PWs)   bands (ev):

[...]

          k =-0.0760-0.0000 0.0000 ( 17886 PWs)   bands (ev):

[...]

          k =-0.0760-0.0839 0.0000 ( 17948 PWs)   bands (ev):

   -55.6714 -55.6706 -55.6396 -55.6375 -55.6262 -55.5212 -55.5154 -55.4848
   -55.4842 -55.4716 -55.4486 -55.4462 -55.2129 -54.9985 -54.6508 -54.6505
   -32.0131 -31.9986 -31.9869 -31.9863 -31.9665 -31.9657 -31.9227 -31.9172
   -31.9048 -31.8823 -31.8740 -31.8523 -31.8351 -31.8209 -31.8066 -31.8032
   -31.8000 -31.7966 -31.7909 -31.7903 -31.7876 -31.7847 -31.7732 -31.7389
   -31.7316 -31.7197 -31.7093 -31.6855 -31.6843 -31.6790 -31.6742 -31.6713
   -31.6642 -31.6614 -31.6588 -31.6564 -31.5841 -31.4663 -31.4048 -31.3442
   -31.2515 -31.2332 -30.9768 -30.9767 -30.8877 -30.8875 -30.8484 -30.8483
   -19.1020 -15.8559 -15.7575 -15.6430 -15.6124 -15.5612 -15.4966 -15.4844
   -15.4176 -15.3728 -15.3699 -15.2999 -15.2925 -15.2598 -15.2499 -15.2155
   -15.2147 -15.2082 -15.1574 -15.1445 -15.1290 -15.1267 -15.1202 -15.0434
   -15.0079 -15.0029 -14.9947 -14.9114 -14.8288 -14.7700 -14.4585 -13.1551
   -13.1549  -7.4948  -6.8593  -4.2453  -3.5270  -3.4581  -3.1407  -2.9735
    -2.8849  -2.8188  -2.7934  -2.7685  -2.6180  -2.5966  -2.5434  -2.5396
    -2.5156  -2.5132  -2.5092  -2.4909  -2.4830  -2.4575  -2.4317  -2.3907
    -2.3644  -2.3588  -2.3465  -2.3339  -2.3099  -2.2969  -2.2879  -2.2393
    -2.2379  -2.2189  -2.1247  -2.0552  -1.9118  -1.8933  -1.8512  -1.8287
    -1.8161  -1.7821  -1.7559  -1.7383  -1.6856  -1.6057  -1.5147  -1.4215
    -1.3807  -1.3683  -1.3015  -1.2831  -1.1910  -1.1657  -1.0906  -1.0715
    -0.9938  -0.9743  -0.8848  -0.8417  -0.8212  -0.7860  -0.7531  -0.7417
    -0.7115  -0.6555  -0.6434  -0.5904  -0.5643  -0.5014  -0.4394  -0.4181
    -0.4063  -0.3699  -0.3502  -0.3242  -0.1850  -0.1535  -0.1372  -0.0993
     0.0383   0.0692   0.2787   0.3654   0.3863   0.4648   0.5156   0.5963
     0.6203   0.6288   0.6455   0.6811   0.7731   0.8442   0.8556   0.8882
     0.9886   1.4927   1.7184   1.7193   1.7915   1.7916   3.7303   3.7736
     3.8091   3.8313   3.9270   3.9585   3.9794   3.9813   4.0334   4.1137

     the Fermi energy is     3.4441 ev

!    total energy              =   -2952.76136692 Ry
     estimated scf accuracy    <       0.00000003 Ry
     smearing contrib. (-TS)   =      -0.02154865 Ry
     internal energy E=F+TS    =   -2952.73981827 Ry

     The total energy is F=E-TS. E is the sum of the following terms:
     one-electron contribution =  -24472.65129141 Ry
     hartree contribution      =   12327.44400141 Ry
     xc contribution           =    -488.05482029 Ry
     ewald contribution        =    9680.52031810 Ry
     electric field correction =       0.00197393 Ry

     convergence has been achieved in  84 iterations

     Forces acting on atoms (cartesian axes, Ry/au):

     atom    1 type  1   force =    -0.00000873   -0.00027798    0.09608851
     atom    2 type  1   force =     0.00007890   -0.00044219   -0.17559350
     atom    3 type  2   force =     0.00011202   -0.00005125   -0.02422131
     atom    4 type  2   force =     0.00000744   -0.00136931    0.05325589
     atom    5 type  2   force =    -0.01131282    0.00005553    0.00282679
     atom    6 type  2   force =     0.01306351    0.00040173    0.00283383
     atom    7 type  1   force =     0.00079707    0.00048145   -0.00790247
     atom    8 type  1   force =     0.00008287    0.00682659    0.02441544
     atom    9 type  2   force =    -0.00025146   -0.00080606    0.00032193
     atom   10 type  2   force =    -0.00265970    0.00235114   -0.01481577
     atom   11 type  2   force =    -0.00019844   -0.00011530   -0.00055409
     atom   12 type  2   force =     0.00053356   -0.00001712   -0.00062088
     atom   13 type  1   force =    -0.00055737   -0.00160299    0.00047565
     atom   14 type  1   force =     0.00044920   -0.00022379   -0.00029240
     atom   15 type  2   force =     0.00000041   -0.00079999   -0.00069503
     atom   16 type  2   force =    -0.00005634   -0.00042751   -0.00032706
     atom   17 type  2   force =    -0.00103127   -0.00063222   -0.00009364
     atom   18 type  2   force =     0.00144713   -0.00036807   -0.00005788
     atom   19 type  1   force =    -0.00039194    0.00037651    0.00008383
     atom   20 type  1   force =     0.00040885   -0.00076397   -0.00053795
     atom   21 type  2   force =     0.00005125   -0.00001662    0.10320637
     atom   22 type  2   force =    -0.00009805   -0.00040347    0.00087899
     atom   23 type  2   force =    -0.07152612   -0.00012298   -0.02768873
     atom   24 type  2   force =     0.07144294    0.00035460   -0.02776066
     atom   25 type  1   force =     0.00018017   -0.00026363    0.09582411
     atom   26 type  1   force =     0.00006198   -0.00033901   -0.17581912
     atom   27 type  2   force =     0.00014680   -0.00003999   -0.02330493
     atom   28 type  2   force =     0.00000860   -0.00106898    0.05286493
     atom   29 type  2   force =    -0.01165380    0.00075339    0.00296637
     atom   30 type  2   force =     0.01328420    0.00126352    0.00299402
     atom   31 type  1   force =     0.00071508    0.00394446   -0.01080601
     atom   32 type  1   force =     0.00010526   -0.00902077    0.02488468
     atom   33 type  2   force =    -0.00006940    0.00061705   -0.00012662
     atom   34 type  2   force =    -0.00202876    0.00169393   -0.02186327
     atom   35 type  2   force =     0.00005875   -0.00025875   -0.00026837
     atom   36 type  2   force =    -0.00008176   -0.00006845   -0.00060202
     atom   37 type  1   force =    -0.00029897    0.00155843    0.00007242
     atom   38 type  1   force =     0.00054191    0.00041793    0.00021090
     atom   39 type  2   force =    -0.00009328   -0.00006513   -0.00118035
     atom   40 type  2   force =     0.00013128    0.00013675    0.00035221
     atom   41 type  2   force =     0.00001055   -0.00012679    0.00026072
     atom   42 type  2   force =     0.00056287   -0.00019575    0.00034075
     atom   43 type  1   force =    -0.00105534   -0.00031548    0.00034898
     atom   44 type  1   force =     0.00037094    0.00019417    0.00011263
     atom   45 type  2   force =     0.00004303   -0.00005221    0.10319036
     atom   46 type  2   force =    -0.07154800   -0.00006141   -0.02770613
     atom   47 type  2   force =     0.07146240    0.00037551   -0.02776325
     atom   48 type  3   force =    -0.00034357   -0.00027320    0.00002287
     atom   49 type  4   force =    -0.00015003   -0.00019857    0.00072385
     atom   50 type  5   force =    -0.00014349    0.00035075    0.00021698
     atom   51 type  5   force =    -0.00016550   -0.00018746    0.00080903
     atom   52 type  2   force =     0.00180222   -0.01213802    0.00592167
     atom   53 type  5   force =    -0.00678022    0.00617449   -0.00354747
     atom   54 type  5   force =     0.00454319    0.00478645   -0.00235580

     Total force =     0.367429     Total SCF correction =     0.000783
  @ DRIVER MODE: Message from server: STATUS
  @ DRIVER MODE: Message from server: GETFORCE
  @ DRIVER MODE: Returning v,forces,stress,ensemble

     Writing output data file ./calc.save/
  @ DRIVER MODE: Message from server: EXIT
  @ DRIVE MODE: Exiting

     General routines

     Parallel routines

   This run was terminated on:   1: 5:50  16Sep2021

   JOB DONE.