     Program PWSCF v.6.7GPU starts on 26Sep2021 at 18:51:47

     R & G space division:  proc/nbgrp/npool/nimage =       8
     Reading input from /storage/home/hcoda1/3/ntian30/research/carbon/CxH_vib/H2O_calc/ads_slab/CH3OHN2HO_a/out_0047/pw.inp
Warning: card &CELL ignored
Warning: card   CELL_DYNAMICS='IPI', ignored
Warning: card / ignored

     Current dimensions of program PWSCF are:
     Max number of different atomic species (ntypx) = 10
     Max number of k-points (npk) =  40000
     Max angular momentum in pseudopotentials (lmaxx) =  3
     Presently no symmetry can be used with electric field

     Message from routine cell_base_init:
     DEPRECATED: use true lattice parameter, not A to a.u. conversion factor

     IMPORTANT: XC functional enforced from input :
     Exchange-correlation= BEEF-VDW
                           (   1   4  43  14   2   0   0)
     Any further DFT definition will be discarded
     Please, verify this is what you really want

  @ DRIVER MODE: Connecting to
 qe_1139763_2971668.sched-torque.pace.gatech.edum3kio1zl_scratch
  using UNIX socket
  @ DRIVER MODE: Message from server: STATUS
  @ DRIVER MODE: Message from server: INIT
  @ DRIVER MODE: Receiving replica           0          -1
  @ DRIVER MODE: Receiving encoded integer          25
  @ DRIVER MODE:  SCF:  T  FORCE:  T  STRESS:  F  VC:  F  ENSEMBLE:  F
  @ DRIVER MODE:  SCF:  T  FORCE:  T  STRESS:  F  VC:  F  ENSEMBLE:  F

     Using Slab Decomposition

     bravais-lattice index     =            0
     lattice parameter (alat)  =       1.8897  a.u.
     unit-cell volume          =    6658.9804 (a.u.)^3
     number of atoms/cell      =           57
     number of atomic types    =            5
     number of electrons       =       409.00
     number of Kohn-Sham states=          214
     kinetic-energy cutoff     =      29.3995  Ry
     charge density cutoff     =     293.9946  Ry
     scf convergence threshold =      7.3E-08
     mixing beta               =       0.0500
     number of iterations used =            8  plain     mixing
     Exchange-correlation= BEEF-VDW
                           (   1   4  43  14   2   0   0)

     celldm(1)=   1.889726  celldm(2)=   0.000000  celldm(3)=   0.000000
     celldm(4)=   0.000000  celldm(5)=   0.000000  celldm(6)=   0.000000

     crystal axes: (cart. coord. in units of alat)
               a(1) = (   6.579727   0.000000   0.000000 )
               a(2) = (  -0.000775   5.961596   0.000000 )
               a(3) = (   0.000000   0.000000  25.155947 )

     reciprocal axes: (cart. coord. in units 2 pi/alat)
               b(1) = (  0.151982  0.000020  0.000000 )
               b(2) = (  0.000000  0.167740  0.000000 )
               b(3) = (  0.000000  0.000000  0.039752 )

     PseudoPot. # 1 for Ti read from file:
     /storage/coda1/p-amedford6/0/shared/rich_project_chbe-medford/medford-share/data/pseudos_module/espresso/nninc/pbe/van/Ti.UPF
     MD5 check sum: 8e4df49b7f0d34bbd5052bf3f5ea0213
     Pseudo is Ultrasoft, Zval = 12.0
     Generated by new atomic code, or converted to UPF format
     Using radial grid of  851 points,  6 beta functions with:
                l(1) =   0
                l(2) =   0
                l(3) =   1
                l(4) =   1
                l(5) =   2
                l(6) =   2
     Q(r) pseudized with  8 coefficients,  rinner =    1.000   1.000   1.000
                                                       1.000   1.000

     PseudoPot. # 2 for O  read from file:
     /storage/coda1/p-amedford6/0/shared/rich_project_chbe-medford/medford-share/data/pseudos_module/espresso/nninc/pbe/van/O.UPF
     MD5 check sum: 78c19812648e8988a0fe644b0f25305e
     Pseudo is Ultrasoft, Zval =  6.0
     Generated by new atomic code, or converted to UPF format
     Using radial grid of  737 points,  4 beta functions with:
                l(1) =   0
                l(2) =   0
                l(3) =   1
                l(4) =   1
     Q(r) pseudized with  8 coefficients,  rinner =    0.800   0.800   0.800

     PseudoPot. # 3 for C  read from file:
     /storage/coda1/p-amedford6/0/shared/rich_project_chbe-medford/medford-share/data/pseudos_module/espresso/nninc/pbe/van/C.UPF
     MD5 check sum: 1a69bf6b8db32088f5b2163dbdb77a27
     Pseudo is Ultrasoft, Zval =  4.0
     Generated by new atomic code, or converted to UPF format
     Using radial grid of  721 points,  4 beta functions with:
                l(1) =   0
                l(2) =   0
                l(3) =   1
                l(4) =   1
     Q(r) pseudized with  8 coefficients,  rinner =    0.800   0.800   0.800

     PseudoPot. # 4 for H  read from file:
     /storage/coda1/p-amedford6/0/shared/rich_project_chbe-medford/medford-share/data/pseudos_module/espresso/nninc/pbe/van/H.UPF
     MD5 check sum: b5ee9d7bfd3a09ee7748110bda690ff7
     Pseudo is Ultrasoft, Zval =  1.0
     Generated by new atomic code, or converted to UPF format
     Using radial grid of  615 points,  1 beta functions with:
                l(1) =   0
     Q(r) pseudized with  8 coefficients,  rinner =    0.800

     PseudoPot. # 5 for N  read from file:
     /storage/coda1/p-amedford6/0/shared/rich_project_chbe-medford/medford-share/data/pseudos_module/espresso/nninc/pbe/van/N.UPF
     MD5 check sum: 90d10febe142ad51ac9d5be1deb811c4
     Pseudo is Ultrasoft, Zval =  5.0
     Generated by new atomic code, or converted to UPF format
     Using radial grid of  729 points,  4 beta functions with:
                l(1) =   0
                l(2) =   0
                l(3) =   1
                l(4) =   1
     Q(r) pseudized with  8 coefficients,  rinner =    0.800   0.800   0.800

     atomic species   valence    mass     pseudopotential
        Ti1           12.00    47.86700     Ti( 1.00)
        O1             6.00    15.99900     O ( 1.00)
        C1             4.00    12.01100     C ( 1.00)
        H1             1.00     1.00800     H ( 1.00)
        N1             5.00    14.00700     N ( 1.00)

     No symmetry found

   Cartesian axes

     site n.     atom                  positions (alat units)
         1           Ti1 tau(   1) = (   0.0004258   2.9801865   6.0000000  )
         2           Ti1 tau(   2) = (   3.2906075   1.4906267   6.0002472  )
         3           O1  tau(   3) = (   0.0006271   0.0005054   7.9858123  )
         4           O1  tau(   4) = (   3.2906025   0.0005020   7.3038282  )
         5           O1  tau(   5) = (   4.5942328   1.4918067   9.2879030  )
         6           O1  tau(   6) = (   1.9868534   1.4903216   9.2879459  )
         7           Ti1 tau(   7) = (   3.3371032   3.0268772   9.1887580  )
         8           Ti1 tau(   8) = (   0.0611061   1.5258697   9.2809523  )
         9           O1  tau(   9) = (   3.3143856   0.0188946  11.3581724  )
        10           O1  tau(  10) = (   0.0164151   0.0031400  10.5895864  )
        11           O1  tau(  11) = (   1.3088961   1.4994640  12.6347600  )
        12           O1  tau(  12) = (   5.3347766   1.4946156  12.6347356  )
        13           Ti1 tau(  13) = (   0.0202478   3.0292801  12.5720800  )
        14           Ti1 tau(  14) = (   3.3188568   1.5851219  12.4260843  )
        15           O1  tau(  15) = (   0.0445434   5.9450813  14.6510506  )
        16           O1  tau(  16) = (   3.3207065   5.8849141  14.0104376  )
        17           O1  tau(  17) = (   4.6249962   1.5116716  16.1313945  )
        18           O1  tau(  18) = (   2.0639035   1.5439872  16.0680944  )
        19           Ti1 tau(  19) = (   3.3360141   2.9454253  15.6763505  )
        20           Ti1 tau(  20) = (   0.0686920   1.3314864  15.9334539  )
        21           O1  tau(  21) = (   3.2904802   0.0005063   4.7018136  )
        22           O1  tau(  22) = (   0.0979609   0.0039778  17.1657837  )
        23           O1  tau(  23) = (   1.3043587   1.4918075   6.0039043  )
        24           O1  tau(  24) = (   5.2767064   1.4903225   6.0039473  )
        25           Ti1 tau(  25) = (   0.0000382   5.9609847   6.0000000  )
        26           Ti1 tau(  26) = (   3.2902200   4.4714249   6.0002472  )
        27           O1  tau(  27) = (   0.0002396   2.9813036   7.9858123  )
        28           O1  tau(  28) = (   3.2902150   2.9813002   7.3038282  )
        29           O1  tau(  29) = (   4.5938453   4.4726049   9.2879030  )
        30           O1  tau(  30) = (   1.9864658   4.4711199   9.2879459  )
        31           Ti1 tau(  31) = (   3.3368545   0.0404040   9.1664313  )
        32           Ti1 tau(  32) = (   0.0604674   4.4799263   9.2696248  )
        33           O1  tau(  33) = (   3.3137611   2.9662427  11.3084074  )
        34           O1  tau(  34) = (   0.0134136   2.9850836  10.6046154  )
        35           O1  tau(  35) = (   1.3054726   4.4719986  12.6384794  )
        36           O1  tau(  36) = (   5.3362180   4.4781181  12.6390536  )
        37           Ti1 tau(  37) = (   0.0365240   0.0487139  12.4702884  )
        38           Ti1 tau(  38) = (   3.3180881   4.6653017  12.7087268  )
        39           O1  tau(  39) = (   0.0228105   2.9918545  14.7761892  )
        40           O1  tau(  40) = (   3.3431522   2.9700269  13.9040455  )
        41           O1  tau(  41) = (   4.6265974   4.4152401  16.1544535  )
        42           O1  tau(  42) = (   2.0571238   4.3592187  16.1146037  )
        43           Ti1 tau(  43) = (   3.3848590   5.9294639  16.2700006  )
        44           Ti1 tau(  44) = (   0.0517009   4.5268197  15.8466567  )
        45           O1  tau(  45) = (   3.2900926   2.9813045   4.7018136  )
        46           O1  tau(  46) = (   1.3039711   4.4726057   6.0039043  )
        47           O1  tau(  47) = (   5.2763189   4.4711207   6.0039473  )
        48           C1  tau(  48) = (   5.9450987   3.0517216  18.8599509  )
        49           O1  tau(  49) = (   0.1802289   3.0084098  17.6484507  )
        50           H1  tau(  50) = (   4.9625852   2.6832861  18.5889656  )
        51           H1  tau(  51) = (   1.1163247   3.1442434  17.8758057  )
        52           H1  tau(  52) = (   6.3899442   2.3914015  19.6026461  )
        53           H1  tau(  53) = (   5.8846647   4.0795385  19.2151274  )
        54           N1  tau(  54) = (   5.7598779   3.1323611  22.9045362  )
        55           N1  tau(  55) = (   4.9845974   3.1850264  22.1103839  )
        56           O1  tau(  56) = (   3.1467188   0.0118795  18.1166202  )
        57           H1  tau(  57) = (   2.2164505   0.0865285  18.3868412  )

     number of k points=    10  Fermi-Dirac smearing, width (Ry)=  0.0073
                       cart. coord. in units 2pi/alat
        k(    1) = (   0.0000000   0.0000000   0.0000000), wk =   0.1250000
        k(    2) = (   0.0000000   0.0419351   0.0000000), wk =   0.2500000
        k(    3) = (   0.0000000  -0.0838702   0.0000000), wk =   0.1250000
        k(    4) = (   0.0379955   0.0000049   0.0000000), wk =   0.2500000
        k(    5) = (   0.0379955   0.0419400   0.0000000), wk =   0.2500000
        k(    6) = (   0.0379955  -0.0838652   0.0000000), wk =   0.2500000
        k(    7) = (   0.0379955  -0.0419301   0.0000000), wk =   0.2500000
        k(    8) = (  -0.0759910  -0.0000099   0.0000000), wk =   0.1250000
        k(    9) = (  -0.0759910   0.0419252   0.0000000), wk =   0.2500000
        k(   10) = (  -0.0759910  -0.0838800   0.0000000), wk =   0.1250000

     Initial potential from superposition of free atoms

     starting charge  392.99914, renormalised to  409.00000

     negative rho (up, down):  9.146E-03 0.000E+00

     %%%%%%%%%%%%%%%%%%%%%%%%%%%%%%%%%%%%%%%%%%%%%%%%%%%%%%%%%%%%%%%%%%%%%%%%
     %                                                                      %
     % You are using vdW-DF, which was implemented by the Thonhauser group. %
     % Please cite the following two papers that made this development      %
     % possible and the two reviews that describe the various versions:     %
     %                                                                      %
     %   T. Thonhauser et al., PRL 115, 136402 (2015).                      %
     %   T. Thonhauser et al., PRB 76, 125112 (2007).                       %
     %   K. Berland et al., Rep. Prog. Phys. 78, 066501 (2015).             %
     %   D.C. Langreth et al., J. Phys.: Condens. Matter 21, 084203 (2009). %
     %                                                                      %
     %                                                                      %
     % If you are calculating the stress with vdW-DF, please also cite:     %
     %                                                                      %
     %   R. Sabatini et al., J. Phys.: Condens. Matter 24, 424209 (2012).   %
     %                                                                      %
     %%%%%%%%%%%%%%%%%%%%%%%%%%%%%%%%%%%%%%%%%%%%%%%%%%%%%%%%%%%%%%%%%%%%%%%%

     Adding external electric field

     Computed dipole along edir(3) :
        Dipole              -18.8648 Ry au,        -47.9496 Debye
        Dipole field         -0.0356 Ry au,

        Potential amp.        3.3001 Ry
        Total length         46.3494 bohr

     Starting wfcs are  309 atomic wfcs
  @ DRIVER MODE: Message from server: STATUS
  @ DRIVER MODE: Message from server: POSDATA
  @ DRIVER MODE: Reading and sharing cell
  @ DRIVER MODE: Reading and sharing positions
  @ DRIVER MODE: Received positions

     Self-consistent Calculation

     iteration #  1     ecut=    29.40 Ry     beta= 0.05
     Davidson diagonalization with overlap
     c_bands:  5 eigenvalues not converged
     c_bands:  5 eigenvalues not converged
     c_bands:  1 eigenvalues not converged
     c_bands:  4 eigenvalues not converged
     c_bands:  1 eigenvalues not converged
     c_bands:  3 eigenvalues not converged
     ethr =  1.00E-05,  avg # of iterations = 27.3

[...]

     total energy              =   -2113.26658195 Ry
     estimated scf accuracy    <   10330.85652888 Ry

     iteration #  2     ecut=    29.40 Ry     beta= 0.05
     Davidson diagonalization with overlap
     ethr =  1.00E-02,  avg # of iterations = 31.0

[...]

     iteration # 87     ecut=    29.40 Ry     beta= 0.05
     Davidson diagonalization with overlap
     c_bands:  1 eigenvalues not converged
     ethr =  3.80E-11,  avg # of iterations = 11.5

[...]

     total energy              =   -3006.45807330 Ry
     estimated scf accuracy    <       0.00000010 Ry

     iteration # 88     ecut=    29.40 Ry     beta= 0.05
     Davidson diagonalization with overlap
     ethr =  2.38E-11,  avg # of iterations =  3.4

     negative rho (up, down):  1.062E-02 0.000E+00

     Adding external electric field

     Computed dipole along edir(3) :
        Dipole                1.0492 Ry au,          2.6669 Debye
        Dipole field          0.0020 Ry au,

        Potential amp.       -0.1835 Ry
        Total length         46.3494 bohr

     End of self-consistent calculation

          k = 0.0000 0.0000 0.0000 ( 18029 PWs)   bands (ev):

   -55.3283 -55.2526 -55.2174 -55.1435 -55.1214 -55.0868 -55.0505 -55.0459
   -55.0443 -55.0250 -55.0150 -54.9850 -54.8981 -54.8221 -54.2123 -54.1783
   -31.7306 -31.7220 -31.6346 -31.6231 -31.5819 -31.5682 -31.5437 -31.5418
   -31.5069 -31.4955 -31.4843 -31.4195 -31.4062 -31.4062 -31.3798 -31.3614
   -31.3527 -31.3356 -31.3347 -31.3234 -31.3164 -31.3113 -31.2657 -31.2634
   -31.2614 -31.2548 -31.2519 -31.2389 -31.2329 -31.2140 -31.2071 -31.1965
   -31.1949 -31.1749 -31.1703 -31.1624 -31.1612 -31.1271 -31.0869 -31.0675
   -31.0363 -31.0261 -30.6184 -30.5322 -30.5096 -30.4354 -30.3492 -30.2375
   -21.3951 -19.7110 -16.1352 -15.9047 -15.7255 -15.5236 -15.4667 -15.4003
   -15.2130 -15.1396 -14.9837 -14.8586 -14.8440 -14.7870 -14.7862 -14.7760
   -14.7471 -14.7220 -14.6767 -14.6653 -14.6599 -14.6564 -14.5949 -14.5524
   -14.5500 -14.5226 -14.5019 -14.3749 -14.3279 -14.2733 -14.1031 -14.0814
   -12.7118 -12.5957 -10.5717  -6.7354  -6.4107  -4.6422  -4.5756  -4.5579
    -4.4055  -3.6514  -3.3648  -3.2540  -3.1536  -3.1348  -3.0703  -3.0193
    -2.8044  -2.6980  -2.6351  -2.5224  -2.3953  -2.3591  -2.3069  -2.2770
    -2.1851  -2.1671  -2.1353  -2.1053  -2.0501  -2.0220  -2.0145  -2.0017
    -1.9261  -1.9193  -1.7896  -1.7846  -1.7284  -1.6364  -1.6186  -1.5957
    -1.5884  -1.5541  -1.5517  -1.5093  -1.4856  -1.4615  -1.4331  -1.3580
    -1.3386  -1.2756  -1.2382  -1.0060  -0.8514  -0.8269  -0.7466  -0.7303
    -0.6995  -0.6704  -0.6503  -0.6395  -0.6023  -0.5869  -0.4833  -0.3798
    -0.3712  -0.3115  -0.2739  -0.2690  -0.1334  -0.0886  -0.0143   0.0084
     0.0407   0.0618   0.1460   0.1949   0.2165   0.2830   0.3145   0.4200
     0.4574   0.4767   0.5179   0.5734   0.6339   0.6675   0.7071   0.7105
     0.7432   0.7924   0.8218   0.8565   0.8788   0.9259   1.0287   1.0660
     1.0766   1.2170   1.2282   1.3104   1.4353   1.4870   1.7602   1.8127
     1.8594   2.0051   2.3815   2.4284   3.8712   3.9739   3.9949   4.0161
     4.0839   4.1656   4.3311   4.3543   4.4186   4.5193

[...]

          k = 0.0380-0.0419 0.0000 ( 17876 PWs)   bands (ev):

[...]

          k =-0.0760-0.0000 0.0000 ( 17886 PWs)   bands (ev):

[...]

          k =-0.0760-0.0839 0.0000 ( 17948 PWs)   bands (ev):

   -55.3275 -55.2394 -55.2304 -55.1376 -55.1170 -55.0925 -55.0498 -55.0453
   -55.0366 -55.0283 -55.0160 -54.9942 -54.8944 -54.8257 -54.1955 -54.1950
   -31.6416 -31.5780 -31.5682 -31.5504 -31.5416 -31.5415 -31.5356 -31.5199
   -31.4579 -31.4530 -31.4142 -31.3927 -31.3811 -31.3759 -31.3593 -31.3574
   -31.3537 -31.3519 -31.3450 -31.3395 -31.3343 -31.3321 -31.3169 -31.3147
   -31.2960 -31.2853 -31.2558 -31.2493 -31.2465 -31.2423 -31.2344 -31.2332
   -31.2266 -31.2217 -31.2179 -31.2134 -31.2109 -31.1726 -31.1539 -31.0910
   -31.0735 -31.0300 -30.5225 -30.5222 -30.4322 -30.4307 -30.3925 -30.3915
   -21.3950 -19.7072 -16.1116 -15.5347 -15.3782 -15.2071 -15.1933 -15.1139
   -15.0226 -15.0047 -14.9742 -14.9609 -14.9437 -14.9193 -14.9112 -14.8761
   -14.8130 -14.7711 -14.7480 -14.7398 -14.6928 -14.6875 -14.6840 -14.6211
   -14.6138 -14.5957 -14.5710 -14.5111 -14.5024 -14.4017 -14.3869 -14.2144
   -12.6980 -12.6971 -10.5737  -6.7357  -6.4125  -4.6309  -4.5822  -4.5528
    -4.3979  -3.6167  -3.3553  -2.6831  -2.5986  -2.5354  -2.4309  -2.3526
    -2.2990  -2.2492  -2.2282  -2.1833  -2.1621  -2.0926  -2.0580  -2.0492
    -2.0298  -2.0276  -1.9972  -1.9818  -1.9690  -1.9478  -1.9193  -1.9021
    -1.8915  -1.8706  -1.8507  -1.8249  -1.8128  -1.8029  -1.7880  -1.7721
    -1.6614  -1.6445  -1.6119  -1.4492  -1.4377  -1.3685  -1.3369  -1.3104
    -1.3068  -1.2765  -1.2614  -1.2194  -1.1141  -1.0860  -1.0368  -0.9958
    -0.9024  -0.8863  -0.8355  -0.7846  -0.7388  -0.7101  -0.6797  -0.6644
    -0.6108  -0.4724  -0.4516  -0.4065  -0.2874  -0.2141  -0.1984  -0.1859
    -0.1641  -0.1410  -0.0945  -0.0863  -0.0244  -0.0120   0.0589   0.0629
     0.0920   0.1136   0.2160   0.3381   0.4167   0.4605   0.5055   0.5550
     0.5886   0.6709   0.7472   0.8336   0.9097   0.9393   0.9529   1.0707
     1.1030   1.1556   1.2015   1.2218   1.2801   1.3159   1.3561   1.3892
     2.1738   2.1875   2.2437   2.2493   4.0520   4.3020   4.3620   4.3790
     4.3888   4.4212   4.4425   4.4935   4.5114   4.5337

     the Fermi energy is     3.8814 ev

!    total energy              =   -3006.45807690 Ry
     estimated scf accuracy    <       0.00000007 Ry
     smearing contrib. (-TS)   =      -0.02082710 Ry
     internal energy E=F+TS    =   -3006.43724980 Ry

     The total energy is F=E-TS. E is the sum of the following terms:
     one-electron contribution =  -22318.45435402 Ry
     hartree contribution      =   11258.75368704 Ry
     xc contribution           =    -501.12939707 Ry
     ewald contribution        =    8554.39073676 Ry
     electric field correction =       0.00207749 Ry

     convergence has been achieved in  88 iterations

     Forces acting on atoms (cartesian axes, Ry/au):

     atom    1 type  1   force =    -0.00037741   -0.00016505    0.09498380
     atom    2 type  1   force =    -0.00035142    0.00513676   -0.17482656
     atom    3 type  2   force =     0.00070777    0.00012872   -0.02672903
     atom    4 type  2   force =     0.00128884    0.00083343    0.05208128
     atom    5 type  2   force =    -0.01096451   -0.00256184    0.00077474
     atom    6 type  2   force =     0.01193399   -0.00381213    0.00178468
     atom    7 type  1   force =    -0.00021980    0.00039215    0.00067713
     atom    8 type  1   force =     0.00014181    0.00023286    0.00016925
     atom    9 type  2   force =     0.00024959    0.00076678   -0.00066127
     atom   10 type  2   force =    -0.00039025    0.00016188    0.00013169
     atom   11 type  2   force =     0.00044562   -0.00015382    0.00010035
     atom   12 type  2   force =    -0.00085518   -0.00015270    0.00035557
     atom   13 type  1   force =     0.00044173    0.00035426   -0.00022841
     atom   14 type  1   force =    -0.00033840   -0.00071810    0.00092183
     atom   15 type  2   force =    -0.00014411   -0.00053657   -0.00099225
     atom   16 type  2   force =    -0.00027764    0.00000122   -0.00023216
     atom   17 type  2   force =    -0.00098343    0.00030831   -0.00001704
     atom   18 type  2   force =     0.00048481    0.00068993   -0.00008178
     atom   19 type  1   force =     0.00025077   -0.00082312    0.00016630
     atom   20 type  1   force =    -0.00024410    0.00011093    0.00040185
     atom   21 type  2   force =    -0.00000492    0.00007424    0.10305381
     atom   22 type  2   force =    -0.00003045   -0.00014670    0.00098254
     atom   23 type  2   force =    -0.07196176    0.00013862   -0.02801534
     atom   24 type  2   force =     0.07179526    0.00063596   -0.02811867
     atom   25 type  1   force =    -0.00036664    0.00026454    0.10244831
     atom   26 type  1   force =    -0.00011267   -0.00475458   -0.17506313
     atom   27 type  2   force =     0.00084981    0.00117107   -0.02484809
     atom   28 type  2   force =     0.00119659    0.00025451    0.05170900
     atom   29 type  2   force =    -0.01192203    0.00381435    0.00171581
     atom   30 type  2   force =     0.01375963    0.00146420    0.00244743
     atom   31 type  1   force =    -0.00029185   -0.00016368    0.00081507
     atom   32 type  1   force =     0.00028050    0.00028389    0.00059033
     atom   33 type  2   force =     0.00000475    0.00019433    0.00008416
     atom   34 type  2   force =    -0.00027184   -0.00032327   -0.00058168
     atom   35 type  2   force =    -0.00022939    0.00005110   -0.00048018
     atom   36 type  2   force =    -0.00038334    0.00009713   -0.00009663
     atom   37 type  1   force =    -0.00005134   -0.00034289    0.00002709
     atom   38 type  1   force =    -0.00056988    0.00028929   -0.00000264
     atom   39 type  2   force =    -0.00025140   -0.00025181    0.00077536
     atom   40 type  2   force =    -0.00019870    0.00011067    0.00030047
     atom   41 type  2   force =    -0.00140508   -0.00026139   -0.00005531
     atom   42 type  2   force =     0.00107832   -0.00013474   -0.00050366
     atom   43 type  1   force =    -0.00019519    0.00054676    0.00016668
     atom   44 type  1   force =    -0.00007419    0.00011827    0.00009496
     atom   45 type  2   force =     0.00000077    0.00013931    0.10264255
     atom   46 type  2   force =    -0.07185620   -0.00062888   -0.02795885
     atom   47 type  2   force =     0.07171258   -0.00013573   -0.02803616
     atom   48 type  3   force =    -0.00029021   -0.00015285   -0.00000640
     atom   49 type  2   force =    -0.00121479   -0.00078715    0.00017005
     atom   50 type  4   force =    -0.00007710   -0.00044928   -0.00020285
     atom   51 type  4   force =     0.00035820    0.00039498   -0.00067759
     atom   52 type  4   force =    -0.00020193    0.00009679   -0.00049264
     atom   53 type  4   force =    -0.00001473   -0.00040546   -0.00106556
     atom   54 type  5   force =    -0.02822043    0.00185402   -0.02869490
     atom   55 type  5   force =     0.02784752   -0.00188398    0.02880682
     atom   56 type  2   force =     0.00081757   -0.00056480    0.00048646
     atom   57 type  4   force =    -0.00030409   -0.00080076   -0.00119658

     Total force =     0.369249     Total SCF correction =     0.000722
  @ DRIVER MODE: Message from server: STATUS
  @ DRIVER MODE: Message from server: GETFORCE
  @ DRIVER MODE: Returning v,forces,stress,ensemble

     Writing output data file ./calc.save/
  @ DRIVER MODE: Message from server: EXIT
  @ DRIVE MODE: Exiting

     General routines

     Parallel routines

   This run was terminated on:  19:27:50  26Sep2021

   JOB DONE.