     Program PWSCF v.6.7GPU starts on 11Sep2021 at  5:34:15

     R & G space division:  proc/nbgrp/npool/nimage =      10
     Reading input from /storage/home/hcoda1/3/ntian30/research/carbon/CxH_vib/CH2_calc/ads_slab/CH2NHNH2_a/out_0032/pw.inp
Warning: card &CELL ignored
Warning: card   CELL_DYNAMICS='IPI', ignored
Warning: card / ignored

     Current dimensions of program PWSCF are:
     Max number of different atomic species (ntypx) = 10
     Max number of k-points (npk) =  40000
     Max angular momentum in pseudopotentials (lmaxx) =  3
     Presently no symmetry can be used with electric field

     Message from routine cell_base_init:
     DEPRECATED: use true lattice parameter, not A to a.u. conversion factor

     IMPORTANT: XC functional enforced from input :
     Exchange-correlation= BEEF-VDW
                           (   1   4  43  14   2   0   0)
     Any further DFT definition will be discarded
     Please, verify this is what you really want

  @ DRIVER MODE: Connecting to
 qe_1139763_2792044.sched-torque.pace.gatech.edusmsf17iw_scratch
  using UNIX socket
  @ DRIVER MODE: Message from server: STATUS
  @ DRIVER MODE: Message from server: INIT
  @ DRIVER MODE: Receiving replica           0          -1
  @ DRIVER MODE: Receiving encoded integer          25
  @ DRIVER MODE:  SCF:  T  FORCE:  T  STRESS:  F  VC:  F  ENSEMBLE:  F
  @ DRIVER MODE:  SCF:  T  FORCE:  T  STRESS:  F  VC:  F  ENSEMBLE:  F

     Using Slab Decomposition

     bravais-lattice index     =            0
     lattice parameter (alat)  =       1.8897  a.u.
     unit-cell volume          =    6658.9804 (a.u.)^3
     number of atoms/cell      =           55
     number of atomic types    =            5
     number of electrons       =       397.00
     number of Kohn-Sham states=          208
     kinetic-energy cutoff     =      29.3995  Ry
     charge density cutoff     =     293.9946  Ry
     scf convergence threshold =      7.3E-08
     mixing beta               =       0.0500
     number of iterations used =            8  plain     mixing
     Exchange-correlation= BEEF-VDW
                           (   1   4  43  14   2   0   0)

     celldm(1)=   1.889726  celldm(2)=   0.000000  celldm(3)=   0.000000
     celldm(4)=   0.000000  celldm(5)=   0.000000  celldm(6)=   0.000000

     crystal axes: (cart. coord. in units of alat)
               a(1) = (   6.579727   0.000000   0.000000 )
               a(2) = (  -0.000775   5.961596   0.000000 )
               a(3) = (   0.000000   0.000000  25.155947 )

     reciprocal axes: (cart. coord. in units 2 pi/alat)
               b(1) = (  0.151982  0.000020  0.000000 )
               b(2) = (  0.000000  0.167740  0.000000 )
               b(3) = (  0.000000  0.000000  0.039752 )

     PseudoPot. # 1 for Ti read from file:
     /storage/coda1/p-amedford6/0/shared/rich_project_chbe-medford/medford-share/data/pseudos_module/espresso/nninc/pbe/van/Ti.UPF
     MD5 check sum: 8e4df49b7f0d34bbd5052bf3f5ea0213
     Pseudo is Ultrasoft, Zval = 12.0
     Generated by new atomic code, or converted to UPF format
     Using radial grid of  851 points,  6 beta functions with:
                l(1) =   0
                l(2) =   0
                l(3) =   1
                l(4) =   1
                l(5) =   2
                l(6) =   2
     Q(r) pseudized with  8 coefficients,  rinner =    1.000   1.000   1.000
                                                       1.000   1.000

     PseudoPot. # 2 for O  read from file:
     /storage/coda1/p-amedford6/0/shared/rich_project_chbe-medford/medford-share/data/pseudos_module/espresso/nninc/pbe/van/O.UPF
     MD5 check sum: 78c19812648e8988a0fe644b0f25305e
     Pseudo is Ultrasoft, Zval =  6.0
     Generated by new atomic code, or converted to UPF format
     Using radial grid of  737 points,  4 beta functions with:
                l(1) =   0
                l(2) =   0
                l(3) =   1
                l(4) =   1
     Q(r) pseudized with  8 coefficients,  rinner =    0.800   0.800   0.800

     PseudoPot. # 3 for N  read from file:
     /storage/coda1/p-amedford6/0/shared/rich_project_chbe-medford/medford-share/data/pseudos_module/espresso/nninc/pbe/van/N.UPF
     MD5 check sum: 90d10febe142ad51ac9d5be1deb811c4
     Pseudo is Ultrasoft, Zval =  5.0
     Generated by new atomic code, or converted to UPF format
     Using radial grid of  729 points,  4 beta functions with:
                l(1) =   0
                l(2) =   0
                l(3) =   1
                l(4) =   1
     Q(r) pseudized with  8 coefficients,  rinner =    0.800   0.800   0.800

     PseudoPot. # 4 for C  read from file:
     /storage/coda1/p-amedford6/0/shared/rich_project_chbe-medford/medford-share/data/pseudos_module/espresso/nninc/pbe/van/C.UPF
     MD5 check sum: 1a69bf6b8db32088f5b2163dbdb77a27
     Pseudo is Ultrasoft, Zval =  4.0
     Generated by new atomic code, or converted to UPF format
     Using radial grid of  721 points,  4 beta functions with:
                l(1) =   0
                l(2) =   0
                l(3) =   1
                l(4) =   1
     Q(r) pseudized with  8 coefficients,  rinner =    0.800   0.800   0.800

     PseudoPot. # 5 for H  read from file:
     /storage/coda1/p-amedford6/0/shared/rich_project_chbe-medford/medford-share/data/pseudos_module/espresso/nninc/pbe/van/H.UPF
     MD5 check sum: b5ee9d7bfd3a09ee7748110bda690ff7
     Pseudo is Ultrasoft, Zval =  1.0
     Generated by new atomic code, or converted to UPF format
     Using radial grid of  615 points,  1 beta functions with:
                l(1) =   0
     Q(r) pseudized with  8 coefficients,  rinner =    0.800

     atomic species   valence    mass     pseudopotential
        Ti1           12.00    47.86700     Ti( 1.00)
        O1             6.00    15.99900     O ( 1.00)
        N1             5.00    14.00700     N ( 1.00)
        C1             4.00    12.01100     C ( 1.00)
        H1             1.00     1.00800     H ( 1.00)

     No symmetry found

   Cartesian axes

     site n.     atom                  positions (alat units)
         1           Ti1 tau(   1) = (   0.0004258   2.9801865   6.0000000  )
         2           Ti1 tau(   2) = (   3.2906075   1.4906267   6.0002472  )
         3           O1  tau(   3) = (   0.0006271   0.0005054   7.9858123  )
         4           O1  tau(   4) = (   3.2906025   0.0005020   7.3038282  )
         5           O1  tau(   5) = (   4.5942328   1.4918067   9.2879030  )
         6           O1  tau(   6) = (   1.9868534   1.4903216   9.2879459  )
         7           Ti1 tau(   7) = (   3.2907910   2.8959150   9.1758416  )
         8           Ti1 tau(   8) = (   0.0015273   1.4827037   9.2680791  )
         9           O1  tau(   9) = (   3.2904964   5.9585769  11.3857690  )
        10           O1  tau(  10) = (   0.0116148   5.9584955  10.6183126  )
        11           O1  tau(  11) = (   1.2878431   1.4867815  12.6991744  )
        12           O1  tau(  12) = (   5.2968392   1.4897239  12.6840540  )
        13           Ti1 tau(  13) = (   0.0031652   2.9724310  12.5021289  )
        14           Ti1 tau(  14) = (   3.2974598   1.4750309  12.5411678  )
        15           O1  tau(  15) = (   6.5490940   5.8844369  14.7025010  )
        16           O1  tau(  16) = (   3.3056738   5.9474069  14.0077327  )
        17           O1  tau(  17) = (   4.5358307   1.5199601  16.1809847  )
        18           O1  tau(  18) = (   2.0145668   1.5037208  16.1256758  )
        19           Ti1 tau(  19) = (   3.2722398   2.9952086  15.7861162  )
        20           Ti1 tau(  20) = (   6.5630583   1.3046800  15.8709962  )
        21           O1  tau(  21) = (   3.2904802   0.0005063   4.7018136  )
        22           O1  tau(  22) = (   0.0019326   0.1554656  17.2922311  )
        23           O1  tau(  23) = (   1.3043587   1.4918075   6.0039043  )
        24           O1  tau(  24) = (   5.2767064   1.4903225   6.0039473  )
        25           Ti1 tau(  25) = (   0.0000382   5.9609847   6.0000000  )
        26           Ti1 tau(  26) = (   3.2902200   4.4714249   6.0002472  )
        27           O1  tau(  27) = (   0.0002396   2.9813036   7.9858123  )
        28           O1  tau(  28) = (   3.2902150   2.9813002   7.3038282  )
        29           O1  tau(  29) = (   4.5938453   4.4726049   9.2879030  )
        30           O1  tau(  30) = (   1.9864658   4.4711199   9.2879459  )
        31           Ti1 tau(  31) = (   3.2891106   5.8743827   9.1763621  )
        32           Ti1 tau(  32) = (   0.0006254   4.4649316   9.2693709  )
        33           O1  tau(  33) = (   3.2902589   2.9648534  11.3782866  )
        34           O1  tau(  34) = (   0.0092240   2.9805883  10.6323155  )
        35           O1  tau(  35) = (   1.2907939   4.4579819  12.6664495  )
        36           O1  tau(  36) = (   5.2949113   4.4550998  12.6520156  )
        37           Ti1 tau(  37) = (   0.0082621   5.9437129  12.5015890  )
        38           Ti1 tau(  38) = (   3.2989848   4.4491302  12.5337562  )
        39           O1  tau(  39) = (   6.5545586   3.0159292  14.9830317  )
        40           O1  tau(  40) = (   3.2960925   2.9977268  13.9872472  )
        41           O1  tau(  41) = (   4.5245867   4.4695491  16.2648171  )
        42           O1  tau(  42) = (   2.0004542   4.4779941  16.2115700  )
        43           Ti1 tau(  43) = (   3.2998562   0.0139781  15.8031611  )
        44           Ti1 tau(  44) = (   0.0298651   4.5190837  16.0363964  )
        45           O1  tau(  45) = (   3.2900926   2.9813045   4.7018136  )
        46           O1  tau(  46) = (   1.3039711   4.4726057   6.0039043  )
        47           O1  tau(  47) = (   5.2763189   4.4711207   6.0039473  )
        48           N1  tau(  48) = (   0.7490466   2.5008218  18.8353846  )
        49           N1  tau(  49) = (   6.4369825   3.4131575  18.1751453  )
        50           C1  tau(  50) = (   1.9829018   2.9174465  19.1941100  )
        51           H1  tau(  51) = (   2.1359794   3.9544348  19.4490303  )
        52           H1  tau(  52) = (   2.6935556   2.1521737  19.4548401  )
        53           H1  tau(  53) = (   0.6455624   1.5475814  18.4636284  )
        54           H1  tau(  54) = (   6.4936903   4.3158724  18.6511896  )
        55           H1  tau(  55) = (   5.4890587   3.0624770  18.3097170  )

     number of k points=    10  Fermi-Dirac smearing, width (Ry)=  0.0073
                       cart. coord. in units 2pi/alat
        k(    1) = (   0.0000000   0.0000000   0.0000000), wk =   0.1250000
        k(    2) = (   0.0000000   0.0419351   0.0000000), wk =   0.2500000
        k(    3) = (   0.0000000  -0.0838702   0.0000000), wk =   0.1250000
        k(    4) = (   0.0379955   0.0000049   0.0000000), wk =   0.2500000
        k(    5) = (   0.0379955   0.0419400   0.0000000), wk =   0.2500000
        k(    6) = (   0.0379955  -0.0838652   0.0000000), wk =   0.2500000
        k(    7) = (   0.0379955  -0.0419301   0.0000000), wk =   0.2500000
        k(    8) = (  -0.0759910  -0.0000099   0.0000000), wk =   0.1250000
        k(    9) = (  -0.0759910   0.0419252   0.0000000), wk =   0.2500000
        k(   10) = (  -0.0759910  -0.0838800   0.0000000), wk =   0.1250000

     Initial potential from superposition of free atoms

     starting charge  380.99914, renormalised to  397.00000

     negative rho (up, down):  1.606E-02 0.000E+00

     %%%%%%%%%%%%%%%%%%%%%%%%%%%%%%%%%%%%%%%%%%%%%%%%%%%%%%%%%%%%%%%%%%%%%%%%
     %                                                                      %
     % You are using vdW-DF, which was implemented by the Thonhauser group. %
     % Please cite the following two papers that made this development      %
     % possible and the two reviews that describe the various versions:     %
     %                                                                      %
     %   T. Thonhauser et al., PRL 115, 136402 (2015).                      %
     %   T. Thonhauser et al., PRB 76, 125112 (2007).                       %
     %   K. Berland et al., Rep. Prog. Phys. 78, 066501 (2015).             %
     %   D.C. Langreth et al., J. Phys.: Condens. Matter 21, 084203 (2009). %
     %                                                                      %
     %                                                                      %
     % If you are calculating the stress with vdW-DF, please also cite:     %
     %                                                                      %
     %   R. Sabatini et al., J. Phys.: Condens. Matter 24, 424209 (2012).   %
     %                                                                      %
     %%%%%%%%%%%%%%%%%%%%%%%%%%%%%%%%%%%%%%%%%%%%%%%%%%%%%%%%%%%%%%%%%%%%%%%%

     Adding external electric field

     Computed dipole along edir(3) :
        Dipole              -10.6770 Ry au,        -27.1381 Debye
        Dipole field         -0.0201 Ry au,

        Potential amp.        1.8678 Ry
        Total length         46.3494 bohr

     Starting wfcs are  301 atomic wfcs
  @ DRIVER MODE: Message from server: STATUS
  @ DRIVER MODE: Message from server: POSDATA
  @ DRIVER MODE: Reading and sharing cell
  @ DRIVER MODE: Reading and sharing positions
  @ DRIVER MODE: Received positions

     Self-consistent Calculation

     iteration #  1     ecut=    29.40 Ry     beta= 0.05
     Davidson diagonalization with overlap
     c_bands:  2 eigenvalues not converged
     c_bands:  3 eigenvalues not converged
     c_bands:  1 eigenvalues not converged
     c_bands:  4 eigenvalues not converged
     c_bands:  4 eigenvalues not converged
     c_bands:  4 eigenvalues not converged
     c_bands:  1 eigenvalues not converged
     c_bands:  2 eigenvalues not converged
     c_bands:  2 eigenvalues not converged
     ethr =  1.00E-05,  avg # of iterations = 20.0

[...]

     total energy              =   -2465.30392233 Ry
     estimated scf accuracy    <    5331.49195552 Ry

     iteration #  2     ecut=    29.40 Ry     beta= 0.05
     Davidson diagonalization with overlap
     ethr =  1.00E-02,  avg # of iterations = 23.5

[...]

     iteration # 74     ecut=    29.40 Ry     beta= 0.05
     Davidson diagonalization with overlap
     ethr =  8.22E-11,  avg # of iterations =  5.1

[...]

     total energy              =   -2941.51057894 Ry
     estimated scf accuracy    <       0.00000008 Ry

     iteration # 76     ecut=    29.40 Ry     beta= 0.05
     Davidson diagonalization with overlap
     c_bands:  1 eigenvalues not converged
     c_bands:  1 eigenvalues not converged
     c_bands:  1 eigenvalues not converged
     ethr =  2.03E-11,  avg # of iterations = 12.3

     negative rho (up, down):  1.515E-02 0.000E+00

     Adding external electric field

     Computed dipole along edir(3) :
        Dipole                1.2032 Ry au,          3.0582 Debye
        Dipole field          0.0023 Ry au,

        Potential amp.       -0.2105 Ry
        Total length         46.3494 bohr

     End of self-consistent calculation

          k = 0.0000 0.0000 0.0000 ( 18029 PWs)   bands (ev):

   -55.3831 -55.3462 -55.3374 -55.3033 -55.2649 -55.2589 -55.2302 -55.2118
   -55.1874 -55.1850 -55.1774 -55.1680 -55.1343 -55.0321 -54.3705 -54.3364
   -31.9459 -31.8307 -31.7777 -31.7522 -31.7009 -31.6905 -31.6848 -31.6745
   -31.6261 -31.6178 -31.5953 -31.5821 -31.5729 -31.5487 -31.5423 -31.5353
   -31.5229 -31.5069 -31.5054 -31.4900 -31.4894 -31.4521 -31.4520 -31.4421
   -31.4421 -31.4141 -31.3952 -31.3945 -31.3940 -31.3896 -31.3733 -31.3668
   -31.3659 -31.3596 -31.3595 -31.3571 -31.3251 -31.3010 -31.2959 -31.2795
   -31.2473 -31.2022 -30.7800 -30.6854 -30.6633 -30.5964 -30.5096 -30.3987
   -18.8983 -16.2153 -15.9617 -15.8146 -15.7070 -15.5896 -15.4808 -15.4261
   -15.3198 -15.2484 -15.1339 -15.0853 -15.0687 -15.0366 -15.0278 -15.0155
   -14.9360 -14.9295 -14.9118 -14.8887 -14.8830 -14.8411 -14.8294 -14.7885
   -14.7635 -14.7580 -14.6362 -14.5502 -14.4754 -14.3315 -14.3114 -12.8732
   -12.7557  -9.8501  -7.4698  -6.2709  -4.9891  -4.0137  -3.5981  -3.5478
    -3.4089  -3.3006  -3.2798  -3.2436  -3.1434  -2.9627  -2.8260  -2.7922
    -2.6764  -2.5959  -2.5826  -2.5520  -2.4270  -2.3899  -2.3512  -2.2865
    -2.2567  -2.1943  -2.1757  -2.1643  -2.1451  -2.1210  -2.0965  -1.9947
    -1.9567  -1.8609  -1.8211  -1.7876  -1.7465  -1.7294  -1.7090  -1.6783
    -1.6681  -1.6140  -1.6005  -1.5863  -1.5372  -1.4197  -1.2987  -1.2651
    -1.1764  -1.0286  -0.9913  -0.9712  -0.9147  -0.8790  -0.8563  -0.8257
    -0.7654  -0.7265  -0.6684  -0.6099  -0.5409  -0.4971  -0.4499  -0.4142
    -0.3786  -0.2939  -0.2121  -0.1684  -0.1552  -0.1377  -0.0386  -0.0026
     0.0521   0.1287   0.1307   0.1430   0.1864   0.2679   0.3451   0.3633
     0.3860   0.4910   0.4958   0.5386   0.5411   0.5614   0.5956   0.6303
     0.6802   0.7073   0.7946   0.8913   1.1178   1.2190   1.2216   1.5450
     1.5559   1.6522   1.8352   2.2288   2.2772   3.7087   3.7792   3.8005
     3.8566   3.8595   3.9293   3.9460   4.1917   4.2172   4.2176   4.2368

[...]

          k = 0.0380-0.0419 0.0000 ( 17876 PWs)   bands (ev):

[...]

          k =-0.0760-0.0000 0.0000 ( 17886 PWs)   bands (ev):

[...]

          k =-0.0760-0.0839 0.0000 ( 17948 PWs)   bands (ev):

   -55.3690 -55.3600 -55.3204 -55.3201 -55.2545 -55.2498 -55.2453 -55.1960
   -55.1928 -55.1907 -55.1837 -55.1518 -55.1507 -55.0343 -54.3535 -54.3533
   -31.7550 -31.7460 -31.6866 -31.6629 -31.6458 -31.6457 -31.6276 -31.6113
   -31.6113 -31.5948 -31.5868 -31.5786 -31.5632 -31.5313 -31.5290 -31.5247
   -31.5241 -31.5230 -31.5115 -31.5073 -31.4781 -31.4659 -31.4619 -31.4520
   -31.4461 -31.4428 -31.4401 -31.4398 -31.4371 -31.4285 -31.4258 -31.4087
   -31.4074 -31.4052 -31.3856 -31.3840 -31.3839 -31.3738 -31.3324 -31.3310
   -31.2962 -31.2490 -30.6761 -30.6759 -30.5926 -30.5924 -30.5530 -30.5529
   -18.8922 -15.7666 -15.5980 -15.5790 -15.4347 -15.3985 -15.3556 -15.3446
   -15.2505 -15.2154 -15.1894 -15.1585 -15.1375 -15.1017 -15.0883 -15.0714
   -15.0142 -14.9919 -14.9862 -14.9664 -14.9072 -14.9029 -14.8952 -14.8923
   -14.8375 -14.8343 -14.8260 -14.7438 -14.7408 -14.6295 -14.2525 -12.8571
   -12.8571  -9.8200  -7.4306  -6.2670  -5.0865  -3.9560  -3.6234  -2.8554
    -2.8490  -2.8358  -2.6507  -2.5678  -2.5452  -2.5396  -2.4496  -2.4123
    -2.3671  -2.3646  -2.3114  -2.3051  -2.2778  -2.2372  -2.2257  -2.2058
    -2.1871  -2.1782  -2.1424  -2.1193  -2.1095  -2.0794  -2.0483  -2.0318
    -2.0247  -2.0031  -1.9724  -1.9529  -1.9405  -1.8876  -1.7757  -1.7604
    -1.6652  -1.5984  -1.5941  -1.5207  -1.4966  -1.4545  -1.4465  -1.4219
    -1.3768  -1.1978  -1.1662  -1.1354  -1.1276  -1.0420  -0.9897  -0.9179
    -0.9126  -0.8867  -0.8518  -0.7581  -0.7215  -0.7025  -0.6272  -0.6036
    -0.5370  -0.4953  -0.4295  -0.3989  -0.3447  -0.3428  -0.3079  -0.2942
    -0.2738  -0.2051  -0.1589  -0.1245  -0.1123  -0.0804   0.1171   0.1262
     0.1422   0.2519   0.2954   0.4427   0.4575   0.5206   0.6261   0.6523
     0.7224   0.7473   0.9039   0.9155   0.9311   0.9840   0.9921   1.0618
     1.0712   2.0082   2.0087   2.0970   2.0973   3.6773   3.8957   3.9669
     3.9821   4.0148   4.1401   4.2083   4.2264   4.2945   4.2974   4.3274

     the Fermi energy is     3.7746 ev

!    total energy              =   -2941.51059350 Ry
     estimated scf accuracy    <       0.00000002 Ry
     smearing contrib. (-TS)   =      -0.04440059 Ry
     internal energy E=F+TS    =   -2941.46619292 Ry

     The total energy is F=E-TS. E is the sum of the following terms:
     one-electron contribution =  -23633.70929884 Ry
     hartree contribution      =   11909.13467827 Ry
     xc contribution           =    -486.88705312 Ry
     ewald contribution        =    9269.99274879 Ry
     electric field correction =       0.00273198 Ry

     convergence has been achieved in  76 iterations

     Forces acting on atoms (cartesian axes, Ry/au):

     atom    1 type  1   force =     0.00013138   -0.00018114    0.09304816
     atom    2 type  1   force =    -0.00008771   -0.00045663   -0.17841601
     atom    3 type  2   force =     0.00004705   -0.00036559   -0.02005422
     atom    4 type  2   force =    -0.00000941   -0.00201715    0.05931725
     atom    5 type  2   force =    -0.01031112   -0.00098338    0.00817474
     atom    6 type  2   force =     0.01174030   -0.00038578    0.00731604
     atom    7 type  1   force =    -0.00038160    0.00239008   -0.01418992
     atom    8 type  1   force =     0.00023067   -0.00124761   -0.00618585
     atom    9 type  2   force =    -0.00023194    0.00021619    0.00014502
     atom   10 type  2   force =    -0.00162391    0.00148943    0.00162151
     atom   11 type  2   force =    -0.00006060   -0.00016428    0.00008556
     atom   12 type  2   force =    -0.00016372   -0.00016439   -0.00002475
     atom   13 type  1   force =     0.00007063   -0.00027912    0.00006160
     atom   14 type  1   force =     0.00017861    0.00020023    0.00029300
     atom   15 type  2   force =    -0.00007278    0.00022705   -0.00031251
     atom   16 type  2   force =     0.00017116   -0.00021757    0.00012403
     atom   17 type  2   force =    -0.00006478   -0.00001800    0.00041661
     atom   18 type  2   force =    -0.00024202   -0.00004315   -0.00008844
     atom   19 type  1   force =    -0.00005619   -0.00006015    0.00023254
     atom   20 type  1   force =    -0.00021646   -0.00015669    0.00032015
     atom   21 type  2   force =     0.00006100   -0.00008479    0.10399621
     atom   22 type  2   force =     0.00017795   -0.00028243   -0.00060735
     atom   23 type  2   force =    -0.07031871   -0.00017852   -0.02686933
     atom   24 type  2   force =     0.07020744    0.00026764   -0.02689445
     atom   25 type  1   force =    -0.00001769   -0.00014147    0.09261274
     atom   26 type  1   force =    -0.00006067   -0.00039254   -0.17856501
     atom   27 type  2   force =     0.00009616   -0.00030971   -0.01914061
     atom   28 type  2   force =     0.00003924   -0.00178962    0.05866005
     atom   29 type  2   force =    -0.01080876   -0.00126351    0.00872053
     atom   30 type  2   force =     0.01216015   -0.00086218    0.00782191
     atom   31 type  1   force =    -0.00028589    0.00613524   -0.01442780
     atom   32 type  1   force =     0.00028758    0.00071788   -0.00650826
     atom   33 type  2   force =    -0.00022660   -0.00024951    0.00000142
     atom   34 type  2   force =    -0.00093615   -0.00223783   -0.00017147
     atom   35 type  2   force =    -0.00041625    0.00023345    0.00013831
     atom   36 type  2   force =     0.00012441    0.00019203   -0.00028294
     atom   37 type  1   force =     0.00017492   -0.00000522    0.00005782
     atom   38 type  1   force =     0.00032559    0.00018499    0.00009663
     atom   39 type  2   force =    -0.00025573    0.00009751   -0.00027500
     atom   40 type  2   force =    -0.00009581   -0.00015485   -0.00008525
     atom   41 type  2   force =    -0.00008737    0.00031700   -0.00000316
     atom   42 type  2   force =    -0.00020170    0.00010010    0.00003257
     atom   43 type  1   force =     0.00049601   -0.00003992    0.00019058
     atom   44 type  1   force =     0.00006782   -0.00001930   -0.00010004
     atom   45 type  2   force =     0.00004581   -0.00008809    0.10398621
     atom   46 type  2   force =    -0.07029580   -0.00010037   -0.02682613
     atom   47 type  2   force =     0.07017127    0.00031641   -0.02686245
     atom   48 type  3   force =     0.00299429    0.00036041    0.00133461
     atom   49 type  3   force =     0.00052655   -0.00099964   -0.00082020
     atom   50 type  4   force =    -0.00047533    0.00155279   -0.00077561
     atom   51 type  5   force =     0.00057812   -0.00097204    0.00023299
     atom   52 type  5   force =     0.00032561    0.00043224    0.00010599
     atom   53 type  5   force =    -0.00291169    0.00082622   -0.00102234
     atom   54 type  5   force =     0.00003762    0.00102909    0.00043204
     atom   55 type  5   force =    -0.00055090   -0.00037384   -0.00006771

     Total force =     0.366463     Total SCF correction =     0.000544
  @ DRIVER MODE: Message from server: STATUS
  @ DRIVER MODE: Message from server: GETFORCE
  @ DRIVER MODE: Returning v,forces,stress,ensemble

     Writing output data file ./calc.save/
  @ DRIVER MODE: Message from server: EXIT
  @ DRIVE MODE: Exiting

     General routines

     Parallel routines

   This run was terminated on:   5:54:34  11Sep2021

   JOB DONE.