     Program PWSCF v.6.7GPU starts on 16Sep2021 at  1:20:39

     R & G space division:  proc/nbgrp/npool/nimage =      10
     Reading input from /storage/home/hcoda1/3/ntian30/research/carbon/CxH_vib/H2O_calc/ads_slab/CH2H2O_a/out_0033/pw.inp
Warning: card &CELL ignored
Warning: card   CELL_DYNAMICS='IPI', ignored
Warning: card / ignored

     Current dimensions of program PWSCF are:
     Max number of different atomic species (ntypx) = 10
     Max number of k-points (npk) =  40000
     Max angular momentum in pseudopotentials (lmaxx) =  3
     Presently no symmetry can be used with electric field

     Message from routine cell_base_init:
     DEPRECATED: use true lattice parameter, not A to a.u. conversion factor

     IMPORTANT: XC functional enforced from input :
     Exchange-correlation= BEEF-VDW
                           (   1   4  43  14   2   0   0)
     Any further DFT definition will be discarded
     Please, verify this is what you really want

  @ DRIVER MODE: Connecting to
 qe_1139763_2852604.sched-torque.pace.gatech.edujkjcjuo6_scratch
  using UNIX socket
  @ DRIVER MODE: Message from server: STATUS
  @ DRIVER MODE: Message from server: INIT
  @ DRIVER MODE: Receiving replica           0          -1
  @ DRIVER MODE: Receiving encoded integer          25
  @ DRIVER MODE:  SCF:  T  FORCE:  T  STRESS:  F  VC:  F  ENSEMBLE:  F
  @ DRIVER MODE:  SCF:  T  FORCE:  T  STRESS:  F  VC:  F  ENSEMBLE:  F

     Using Slab Decomposition

     bravais-lattice index     =            0
     lattice parameter (alat)  =       1.8897  a.u.
     unit-cell volume          =    6658.9804 (a.u.)^3
     number of atoms/cell      =           53
     number of atomic types    =            4
     number of electrons       =       392.00
     number of Kohn-Sham states=          206
     kinetic-energy cutoff     =      29.3995  Ry
     charge density cutoff     =     293.9946  Ry
     scf convergence threshold =      7.3E-08
     mixing beta               =       0.0500
     number of iterations used =            8  plain     mixing
     Exchange-correlation= BEEF-VDW
                           (   1   4  43  14   2   0   0)

     celldm(1)=   1.889726  celldm(2)=   0.000000  celldm(3)=   0.000000
     celldm(4)=   0.000000  celldm(5)=   0.000000  celldm(6)=   0.000000

     crystal axes: (cart. coord. in units of alat)
               a(1) = (   6.579727   0.000000   0.000000 )
               a(2) = (  -0.000775   5.961596   0.000000 )
               a(3) = (   0.000000   0.000000  25.155947 )

     reciprocal axes: (cart. coord. in units 2 pi/alat)
               b(1) = (  0.151982  0.000020  0.000000 )
               b(2) = (  0.000000  0.167740  0.000000 )
               b(3) = (  0.000000  0.000000  0.039752 )

     PseudoPot. # 1 for Ti read from file:
     /storage/coda1/p-amedford6/0/shared/rich_project_chbe-medford/medford-share/data/pseudos_module/espresso/nninc/pbe/van/Ti.UPF
     MD5 check sum: 8e4df49b7f0d34bbd5052bf3f5ea0213
     Pseudo is Ultrasoft, Zval = 12.0
     Generated by new atomic code, or converted to UPF format
     Using radial grid of  851 points,  6 beta functions with:
                l(1) =   0
                l(2) =   0
                l(3) =   1
                l(4) =   1
                l(5) =   2
                l(6) =   2
     Q(r) pseudized with  8 coefficients,  rinner =    1.000   1.000   1.000
                                                       1.000   1.000

     PseudoPot. # 2 for O  read from file:
     /storage/coda1/p-amedford6/0/shared/rich_project_chbe-medford/medford-share/data/pseudos_module/espresso/nninc/pbe/van/O.UPF
     MD5 check sum: 78c19812648e8988a0fe644b0f25305e
     Pseudo is Ultrasoft, Zval =  6.0
     Generated by new atomic code, or converted to UPF format
     Using radial grid of  737 points,  4 beta functions with:
                l(1) =   0
                l(2) =   0
                l(3) =   1
                l(4) =   1
     Q(r) pseudized with  8 coefficients,  rinner =    0.800   0.800   0.800

     PseudoPot. # 3 for C  read from file:
     /storage/coda1/p-amedford6/0/shared/rich_project_chbe-medford/medford-share/data/pseudos_module/espresso/nninc/pbe/van/C.UPF
     MD5 check sum: 1a69bf6b8db32088f5b2163dbdb77a27
     Pseudo is Ultrasoft, Zval =  4.0
     Generated by new atomic code, or converted to UPF format
     Using radial grid of  721 points,  4 beta functions with:
                l(1) =   0
                l(2) =   0
                l(3) =   1
                l(4) =   1
     Q(r) pseudized with  8 coefficients,  rinner =    0.800   0.800   0.800

     PseudoPot. # 4 for H  read from file:
     /storage/coda1/p-amedford6/0/shared/rich_project_chbe-medford/medford-share/data/pseudos_module/espresso/nninc/pbe/van/H.UPF
     MD5 check sum: b5ee9d7bfd3a09ee7748110bda690ff7
     Pseudo is Ultrasoft, Zval =  1.0
     Generated by new atomic code, or converted to UPF format
     Using radial grid of  615 points,  1 beta functions with:
                l(1) =   0
     Q(r) pseudized with  8 coefficients,  rinner =    0.800

     atomic species   valence    mass     pseudopotential
        Ti1           12.00    47.86700     Ti( 1.00)
        O1             6.00    15.99900     O ( 1.00)
        C1             4.00    12.01100     C ( 1.00)
        H1             1.00     1.00800     H ( 1.00)

     No symmetry found

   Cartesian axes

     site n.     atom                  positions (alat units)
         1           Ti1 tau(   1) = (   0.0004258   2.9801865   6.0000000  )
         2           Ti1 tau(   2) = (   3.2906075   1.4906267   6.0002472  )
         3           O1  tau(   3) = (   0.0006271   0.0005054   7.9858123  )
         4           O1  tau(   4) = (   3.2906025   0.0005020   7.3038282  )
         5           O1  tau(   5) = (   4.5942328   1.4918067   9.2879030  )
         6           O1  tau(   6) = (   1.9868534   1.4903216   9.2879459  )
         7           Ti1 tau(   7) = (   3.2791254   2.8632543   9.1696858  )
         8           Ti1 tau(   8) = (   6.5716288   1.4291880   9.3745659  )
         9           O1  tau(   9) = (   3.2719631   5.9564768  11.3413791  )
        10           O1  tau(  10) = (   6.5766582   5.9454684  10.5603319  )
        11           O1  tau(  11) = (   1.2606928   1.4857163  12.6338655  )
        12           O1  tau(  12) = (   5.2561023   1.4877827  12.6114660  )
        13           Ti1 tau(  13) = (   0.0646731   2.9540699  12.8218634  )
        14           Ti1 tau(  14) = (   3.3836270   1.4660460  12.4955168  )
        15           O1  tau(  15) = (   6.5457659   5.9184216  14.5915085  )
        16           O1  tau(  16) = (   3.2744135   0.0171945  13.9516778  )
        17           O1  tau(  17) = (   4.5159629   1.5536209  16.0418326  )
        18           O1  tau(  18) = (   1.9981799   1.5541948  16.0447984  )
        19           Ti1 tau(  19) = (   3.2528476   3.0136947  15.6822407  )
        20           Ti1 tau(  20) = (   6.5571992   1.6159626  16.1493948  )
        21           O1  tau(  21) = (   3.2904802   0.0005063   4.7018136  )
        22           O1  tau(  22) = (   6.5499432   0.0285508  17.2403840  )
        23           O1  tau(  23) = (   1.3043587   1.4918075   6.0039043  )
        24           O1  tau(  24) = (   5.2767064   1.4903225   6.0039473  )
        25           Ti1 tau(  25) = (   0.0000382   5.9609847   6.0000000  )
        26           Ti1 tau(  26) = (   3.2902200   4.4714249   6.0002472  )
        27           O1  tau(  27) = (   0.0002396   2.9813036   7.9858123  )
        28           O1  tau(  28) = (   3.2902150   2.9813002   7.3038282  )
        29           O1  tau(  29) = (   4.5938453   4.4726049   9.2879030  )
        30           O1  tau(  30) = (   1.9864658   4.4711199   9.2879459  )
        31           Ti1 tau(  31) = (   3.2865685   5.8444178   9.1628351  )
        32           Ti1 tau(  32) = (   6.5743218   4.4049426   9.3738558  )
        33           O1  tau(  33) = (   3.2769956   2.9705820  11.3381082  )
        34           O1  tau(  34) = (   6.5775985   2.9640992  10.5572898  )
        35           O1  tau(  35) = (   1.2629977   4.4457513  12.6272354  )
        36           O1  tau(  36) = (   5.2537740   4.4534837  12.6036699  )
        37           Ti1 tau(  37) = (   0.0534783   5.9329931  12.7718795  )
        38           Ti1 tau(  38) = (   3.3808541   4.4548706  12.4760825  )
        39           O1  tau(  39) = (   6.5578179   2.9671967  14.6759119  )
        40           O1  tau(  40) = (   3.2646438   2.9894133  13.8927730  )
        41           O1  tau(  41) = (   4.5094683   4.4833613  16.0328582  )
        42           O1  tau(  42) = (   2.0033084   4.4836886  16.0339364  )
        43           Ti1 tau(  43) = (   3.2772676   0.0291193  15.7865657  )
        44           Ti1 tau(  44) = (   6.5620481   4.6241259  16.1080240  )
        45           O1  tau(  45) = (   3.2900926   2.9813045   4.7018136  )
        46           O1  tau(  46) = (   1.3039711   4.4726057   6.0039043  )
        47           O1  tau(  47) = (   5.2763189   4.4711207   6.0039473  )
        48           C1  tau(  48) = (   6.5362552   2.9989010  17.5868729  )
        49           H1  tau(  49) = (   0.8535040   3.1223538  18.1993289  )
        50           H1  tau(  50) = (   5.6240823   3.1149880  18.1772116  )
        51           O1  tau(  51) = (   3.2614802   0.0224742  18.1496266  )
        52           H1  tau(  52) = (   4.0528939   5.9570843  18.7024920  )
        53           H1  tau(  53) = (   2.4628001   5.9521060  18.6943540  )

     number of k points=    10  Fermi-Dirac smearing, width (Ry)=  0.0073
                       cart. coord. in units 2pi/alat
        k(    1) = (   0.0000000   0.0000000   0.0000000), wk =   0.1250000
        k(    2) = (   0.0000000   0.0419351   0.0000000), wk =   0.2500000
        k(    3) = (   0.0000000  -0.0838702   0.0000000), wk =   0.1250000
        k(    4) = (   0.0379955   0.0000049   0.0000000), wk =   0.2500000
        k(    5) = (   0.0379955   0.0419400   0.0000000), wk =   0.2500000
        k(    6) = (   0.0379955  -0.0838652   0.0000000), wk =   0.2500000
        k(    7) = (   0.0379955  -0.0419301   0.0000000), wk =   0.2500000
        k(    8) = (  -0.0759910  -0.0000099   0.0000000), wk =   0.1250000
        k(    9) = (  -0.0759910   0.0419252   0.0000000), wk =   0.2500000
        k(   10) = (  -0.0759910  -0.0838800   0.0000000), wk =   0.1250000

     Initial potential from superposition of free atoms

     starting charge  375.99917, renormalised to  392.00000

     negative rho (up, down):  1.851E-02 0.000E+00

     %%%%%%%%%%%%%%%%%%%%%%%%%%%%%%%%%%%%%%%%%%%%%%%%%%%%%%%%%%%%%%%%%%%%%%%%
     %                                                                      %
     % You are using vdW-DF, which was implemented by the Thonhauser group. %
     % Please cite the following two papers that made this development      %
     % possible and the two reviews that describe the various versions:     %
     %                                                                      %
     %   T. Thonhauser et al., PRL 115, 136402 (2015).                      %
     %   T. Thonhauser et al., PRB 76, 125112 (2007).                       %
     %   K. Berland et al., Rep. Prog. Phys. 78, 066501 (2015).             %
     %   D.C. Langreth et al., J. Phys.: Condens. Matter 21, 084203 (2009). %
     %                                                                      %
     %                                                                      %
     % If you are calculating the stress with vdW-DF, please also cite:     %
     %                                                                      %
     %   R. Sabatini et al., J. Phys.: Condens. Matter 24, 424209 (2012).   %
     %                                                                      %
     %%%%%%%%%%%%%%%%%%%%%%%%%%%%%%%%%%%%%%%%%%%%%%%%%%%%%%%%%%%%%%%%%%%%%%%%

     Adding external electric field

     Computed dipole along edir(3) :
        Dipole               -5.1805 Ry au,        -13.1674 Debye
        Dipole field         -0.0098 Ry au,

        Potential amp.        0.9062 Ry
        Total length         46.3494 bohr

     Starting wfcs are  296 atomic wfcs
  @ DRIVER MODE: Message from server: STATUS
  @ DRIVER MODE: Message from server: POSDATA
  @ DRIVER MODE: Reading and sharing cell
  @ DRIVER MODE: Reading and sharing positions
  @ DRIVER MODE: Received positions

     Self-consistent Calculation

     iteration #  1     ecut=    29.40 Ry     beta= 0.05
     Davidson diagonalization with overlap
     c_bands:  5 eigenvalues not converged
     c_bands:  3 eigenvalues not converged
     c_bands:  4 eigenvalues not converged
     c_bands:  1 eigenvalues not converged
     c_bands:  2 eigenvalues not converged
     c_bands:  1 eigenvalues not converged
     c_bands:  3 eigenvalues not converged
     c_bands:  1 eigenvalues not converged
     ethr =  1.00E-05,  avg # of iterations = 19.5

[...]

     total energy              =   -2834.18923773 Ry
     estimated scf accuracy    <    1088.39007101 Ry

     iteration #  2     ecut=    29.40 Ry     beta= 0.05
     Davidson diagonalization with overlap
     ethr =  1.00E-02,  avg # of iterations = 16.1

[...]

     iteration # 50     ecut=    29.40 Ry     beta= 0.05
     Davidson diagonalization with overlap
     c_bands:  1 eigenvalues not converged
     c_bands:  2 eigenvalues not converged
     c_bands:  1 eigenvalues not converged
     c_bands:  1 eigenvalues not converged
     c_bands:  1 eigenvalues not converged
     ethr =  1.04E-06,  avg # of iterations = 16.6

[...]

     total energy              =   -2932.56456486 Ry
     estimated scf accuracy    <       0.00000017 Ry

     iteration # 74     ecut=    29.40 Ry     beta= 0.05
     Davidson diagonalization with overlap
     ethr =  2.54E-11,  avg # of iterations =  5.0

     negative rho (up, down):  1.822E-02 0.000E+00

     Adding external electric field

     Computed dipole along edir(3) :
        Dipole                0.9001 Ry au,          2.2878 Debye
        Dipole field          0.0017 Ry au,

        Potential amp.       -0.1575 Ry
        Total length         46.3494 bohr

     End of self-consistent calculation

          k = 0.0000 0.0000 0.0000 ( 18029 PWs)   bands (ev):

   -56.1848 -56.1507 -55.8905 -55.8412 -55.8033 -55.6986 -55.5896 -55.5621
   -55.5281 -55.5084 -55.4919 -55.4561 -55.1247 -54.9929 -54.9695 -54.9355
   -32.6127 -32.4360 -32.4071 -32.3817 -32.3740 -32.2903 -32.2826 -32.2394
   -32.1767 -32.1100 -32.1036 -32.0682 -32.0572 -32.0543 -32.0478 -32.0226
   -31.9981 -31.9967 -31.9659 -31.8945 -31.8708 -31.8392 -31.8218 -31.8093
   -31.8070 -31.7785 -31.7486 -31.7318 -31.7244 -31.7210 -31.6790 -31.6713
   -31.6708 -31.6643 -31.6498 -31.5956 -31.5732 -31.4208 -31.3723 -31.3693
   -31.3228 -31.2959 -31.2721 -31.1877 -31.1680 -31.1028 -31.0376 -30.9908
   -19.2278 -16.5190 -16.3494 -16.1133 -15.9788 -15.8972 -15.7370 -15.5563
   -15.5475 -15.4587 -15.4356 -15.3593 -15.3506 -15.3162 -15.3038 -15.2960
   -15.2809 -15.2573 -15.2115 -15.2002 -15.1997 -15.1510 -15.0963 -15.0031
   -14.9910 -14.9432 -14.8253 -14.8181 -14.7836 -14.6380 -13.4634 -13.3497
    -8.0686  -7.2684  -3.9970  -3.9293  -3.8115  -3.7194  -3.6945  -3.5795
    -3.3398  -3.2700  -3.0126  -2.9810  -2.9382  -2.8925  -2.8780  -2.7977
    -2.7052  -2.6901  -2.6622  -2.6369  -2.6018  -2.5942  -2.5307  -2.5215
    -2.4988  -2.4933  -2.4293  -2.4147  -2.3724  -2.2360  -2.1860  -2.1612
    -2.1486  -2.1092  -2.0743  -2.0120  -1.9890  -1.9615  -1.9032  -1.7537
    -1.7301  -1.6495  -1.6214  -1.5498  -1.4603  -1.4466  -1.2994  -1.2817
    -1.2457  -1.2347  -1.2072  -1.1547  -1.1348  -1.0281  -0.8975  -0.8182
    -0.7858  -0.7642  -0.7507  -0.7042  -0.6675  -0.6142  -0.6063  -0.5626
    -0.4876  -0.4786  -0.4031  -0.2178  -0.2040  -0.1929  -0.1759  -0.1338
    -0.1046  -0.0826  -0.0387   0.0062   0.0305   0.0891   0.0993   0.1309
     0.1483   0.2257   0.2742   0.3301   0.3361   0.4490   0.5600   0.6223
     0.6401   0.6707   0.7715   0.7831   0.9894   1.0077   1.0581   1.2698
     1.3154   1.6437   1.7154   2.1717   3.0841   3.2595   3.4625   3.5609
     3.5809   3.6761   3.6889   3.8207   3.8781   3.9258

[...]

          k = 0.0380-0.0419 0.0000 ( 17876 PWs)   bands (ev):

[...]

          k =-0.0760-0.0000 0.0000 ( 17886 PWs)   bands (ev):

[...]

          k =-0.0760-0.0839 0.0000 ( 17948 PWs)   bands (ev):

   -56.1707 -56.1646 -55.8889 -55.8286 -55.8157 -55.7000 -55.5858 -55.5460
   -55.5439 -55.5122 -55.4778 -55.4703 -55.1225 -54.9950 -54.9524 -54.9524
   -32.4327 -32.4276 -32.4247 -32.4173 -32.3291 -32.3240 -32.1960 -32.1834
   -32.1691 -32.1580 -32.1060 -32.0914 -32.0523 -32.0323 -32.0284 -32.0166
   -31.9984 -31.9021 -31.9020 -31.8762 -31.8756 -31.8394 -31.8171 -31.8073
   -31.8042 -31.7972 -31.7903 -31.7874 -31.7585 -31.7566 -31.7545 -31.7391
   -31.6932 -31.6860 -31.6829 -31.6760 -31.4831 -31.4194 -31.3762 -31.2952
   -31.2850 -31.2850 -31.2789 -31.1837 -31.1834 -31.1454 -31.1452 -31.0507
   -19.2271 -16.0084 -15.8984 -15.7456 -15.7057 -15.6622 -15.6618 -15.6314
   -15.5978 -15.5624 -15.5560 -15.4660 -15.4346 -15.4209 -15.4086 -15.3438
   -15.3380 -15.3332 -15.3297 -15.2687 -15.2620 -15.1481 -15.1402 -15.0603
   -15.0499 -15.0203 -14.9981 -14.9548 -14.9483 -14.7888 -13.4521 -13.4520
    -8.0731  -7.2615  -3.9177  -3.3090  -3.0907  -2.9694  -2.9306  -2.8049
    -2.7936  -2.7877  -2.7800  -2.7676  -2.7282  -2.6732  -2.6530  -2.6414
    -2.6160  -2.6028  -2.5752  -2.5671  -2.5400  -2.5382  -2.5325  -2.5284
    -2.5103  -2.4921  -2.4359  -2.4276  -2.4115  -2.3819  -2.3026  -2.2875
    -2.1969  -2.1105  -2.0782  -2.0768  -2.0161  -1.9811  -1.8991  -1.8907
    -1.8741  -1.8689  -1.8051  -1.6115  -1.5566  -1.5514  -1.5142  -1.4793
    -1.3188  -1.2801  -1.2188  -1.1775  -1.1472  -1.1320  -1.0583  -1.0472
    -1.0216  -0.9678  -0.9633  -0.9561  -0.9402  -0.8592  -0.8425  -0.8161
    -0.7415  -0.7004  -0.6843  -0.6581  -0.6278  -0.5748  -0.4905  -0.4673
    -0.4550  -0.4405  -0.3116  -0.2738  -0.2447  -0.2064  -0.1579   0.1071
     0.1169   0.1989   0.2997   0.3929   0.4339   0.5355   0.5536   0.5603
     0.6865   0.6996   0.7051   0.7141   0.8146   0.8214   0.8580   1.4433
     1.4456   1.4981   1.4994   2.4414   3.6074   3.6146   3.6259   3.6311
     3.6540   3.6841   3.7036   3.7350   4.0251   4.0407

     the Fermi energy is     2.7915 ev

!    total energy              =   -2932.56458493 Ry
     estimated scf accuracy    <       0.00000003 Ry
     smearing contrib. (-TS)   =      -0.00167242 Ry
     internal energy E=F+TS    =   -2932.56291251 Ry

     The total energy is F=E-TS. E is the sum of the following terms:
     one-electron contribution =  -24523.10260837 Ry
     hartree contribution      =   12349.14672009 Ry
     xc contribution           =    -482.74425528 Ry
     ewald contribution        =    9724.13570211 Ry
     electric field correction =       0.00152894 Ry

     convergence has been achieved in  74 iterations

     Forces acting on atoms (cartesian axes, Ry/au):

     atom    1 type  1   force =     0.00030174   -0.00016679    0.14552096
     atom    2 type  1   force =     0.00005190    0.00071453   -0.16923207
     atom    3 type  2   force =     0.00003624    0.00235154   -0.06021997
     atom    4 type  2   force =    -0.00017142   -0.00141808    0.03906110
     atom    5 type  2   force =    -0.02194513   -0.00032806    0.00360205
     atom    6 type  2   force =     0.01963585   -0.00081823    0.00221285
     atom    7 type  1   force =     0.00012832   -0.00001168    0.00040715
     atom    8 type  1   force =     0.00006659    0.00009533    0.00106573
     atom    9 type  2   force =    -0.00008002   -0.00028679    0.00030721
     atom   10 type  2   force =     0.00010682    0.00014673   -0.00059048
     atom   11 type  2   force =     0.00008041    0.00001921    0.00100718
     atom   12 type  2   force =     0.00071837    0.00009830    0.00106102
     atom   13 type  1   force =    -0.00073274   -0.00016149   -0.00045506
     atom   14 type  1   force =     0.00037832   -0.00104460   -0.00000582
     atom   15 type  2   force =     0.00019530   -0.00015911    0.00097343
     atom   16 type  2   force =    -0.00005609   -0.00028746    0.00144012
     atom   17 type  2   force =     0.00011976   -0.00059600    0.00025823
     atom   18 type  2   force =    -0.00011549   -0.00068699    0.00018634
     atom   19 type  1   force =     0.00080181   -0.00068144   -0.00026512
     atom   20 type  1   force =    -0.00024730    0.00043195   -0.00023478
     atom   21 type  2   force =     0.00012878   -0.00007923    0.10214445
     atom   22 type  2   force =     0.00015115   -0.00001491   -0.00000408
     atom   23 type  2   force =    -0.07475515    0.00032018   -0.03449660
     atom   24 type  2   force =     0.07482968    0.00076682   -0.03456706
     atom   25 type  1   force =     0.00009819   -0.00007059    0.14712166
     atom   26 type  1   force =     0.00001301   -0.00209537   -0.16941372
     atom   27 type  2   force =     0.00001463    0.00193271   -0.05938048
     atom   28 type  2   force =    -0.00028711   -0.00139614    0.03994286
     atom   29 type  2   force =    -0.02159473    0.00107521    0.00382445
     atom   30 type  2   force =     0.02034500   -0.00010943    0.00243759
     atom   31 type  1   force =     0.00013394    0.00017046    0.00129976
     atom   32 type  1   force =     0.00006275   -0.00022558    0.00116186
     atom   33 type  2   force =    -0.00010595   -0.00006787   -0.00058561
     atom   34 type  2   force =     0.00010885    0.00010002   -0.00065377
     atom   35 type  2   force =     0.00027529   -0.00038061    0.00077170
     atom   36 type  2   force =     0.00035054   -0.00045488    0.00084082
     atom   37 type  1   force =    -0.00059399   -0.00014908   -0.00056231
     atom   38 type  1   force =     0.00049224    0.00060483   -0.00034991
     atom   39 type  2   force =     0.00028856   -0.00002412   -0.00019870
     atom   40 type  2   force =    -0.00009838   -0.00013808    0.00177298
     atom   41 type  2   force =     0.00012387    0.00045031    0.00029340
     atom   42 type  2   force =    -0.00014471    0.00054805    0.00044060
     atom   43 type  1   force =     0.00042199    0.00059497   -0.00021318
     atom   44 type  1   force =    -0.00040940    0.00021344   -0.00017747
     atom   45 type  2   force =     0.00012099   -0.00010424    0.10207235
     atom   46 type  2   force =    -0.07474684   -0.00002049   -0.03446679
     atom   47 type  2   force =     0.07483406    0.00043701   -0.03456724
     atom   48 type  3   force =    -0.00002780   -0.00024892    0.00030907
     atom   49 type  4   force =     0.00008516   -0.00024356   -0.00041630
     atom   50 type  4   force =     0.00040208   -0.00007386   -0.00034438
     atom   51 type  2   force =    -0.00024512    0.00122047   -0.00055996
     atom   52 type  4   force =     0.00062910    0.00005182    0.00034413
     atom   53 type  4   force =    -0.00017388    0.00019979    0.00007981

     Total force =     0.400331     Total SCF correction =     0.000523
  @ DRIVER MODE: Message from server: STATUS
  @ DRIVER MODE: Message from server: GETFORCE
  @ DRIVER MODE: Returning v,forces,stress,ensemble

     Writing output data file ./calc.save/
  @ DRIVER MODE: Message from server: EXIT
  @ DRIVE MODE: Exiting

     General routines

     Parallel routines

   This run was terminated on:   1:39: 7  16Sep2021

   JOB DONE.