     Program PWSCF v.6.7GPU starts on 16Sep2021 at  2:59:36

     R & G space division:  proc/nbgrp/npool/nimage =      10
     Reading input from /storage/home/hcoda1/3/ntian30/research/carbon/CxH_vib/H2O_calc/ads_slab/CH3NNH3H2O_a/out_0032/pw.inp
Warning: card &CELL ignored
Warning: card   CELL_DYNAMICS='IPI', ignored
Warning: card / ignored

     Current dimensions of program PWSCF are:
     Max number of different atomic species (ntypx) = 10
     Max number of k-points (npk) =  40000
     Max angular momentum in pseudopotentials (lmaxx) =  3
     Presently no symmetry can be used with electric field

     Message from routine cell_base_init:
     DEPRECATED: use true lattice parameter, not A to a.u. conversion factor

     IMPORTANT: XC functional enforced from input :
     Exchange-correlation= BEEF-VDW
                           (   1   4  43  14   2   0   0)
     Any further DFT definition will be discarded
     Please, verify this is what you really want

  @ DRIVER MODE: Connecting to
 qe_1139763_2852621.sched-torque.pace.gatech.eduq3bobift_scratch
  using UNIX socket
  @ DRIVER MODE: Message from server: STATUS
  @ DRIVER MODE: Message from server: INIT
  @ DRIVER MODE: Receiving replica           0          -1
  @ DRIVER MODE: Receiving encoded integer          25
  @ DRIVER MODE:  SCF:  T  FORCE:  T  STRESS:  F  VC:  F  ENSEMBLE:  F
  @ DRIVER MODE:  SCF:  T  FORCE:  T  STRESS:  F  VC:  F  ENSEMBLE:  F

     Using Slab Decomposition

     bravais-lattice index     =            0
     lattice parameter (alat)  =       1.8897  a.u.
     unit-cell volume          =    6658.9804 (a.u.)^3
     number of atoms/cell      =           59
     number of atomic types    =            5
     number of electrons       =       406.00
     number of Kohn-Sham states=          213
     kinetic-energy cutoff     =      29.3995  Ry
     charge density cutoff     =     293.9946  Ry
     scf convergence threshold =      7.3E-08
     mixing beta               =       0.0500
     number of iterations used =            8  plain     mixing
     Exchange-correlation= BEEF-VDW
                           (   1   4  43  14   2   0   0)

     celldm(1)=   1.889726  celldm(2)=   0.000000  celldm(3)=   0.000000
     celldm(4)=   0.000000  celldm(5)=   0.000000  celldm(6)=   0.000000

     crystal axes: (cart. coord. in units of alat)
               a(1) = (   6.579727   0.000000   0.000000 )
               a(2) = (  -0.000775   5.961596   0.000000 )
               a(3) = (   0.000000   0.000000  25.155947 )

     reciprocal axes: (cart. coord. in units 2 pi/alat)
               b(1) = (  0.151982  0.000020  0.000000 )
               b(2) = (  0.000000  0.167740  0.000000 )
               b(3) = (  0.000000  0.000000  0.039752 )

     PseudoPot. # 1 for Ti read from file:
     /storage/coda1/p-amedford6/0/shared/rich_project_chbe-medford/medford-share/data/pseudos_module/espresso/nninc/pbe/van/Ti.UPF
     MD5 check sum: 8e4df49b7f0d34bbd5052bf3f5ea0213
     Pseudo is Ultrasoft, Zval = 12.0
     Generated by new atomic code, or converted to UPF format
     Using radial grid of  851 points,  6 beta functions with:
                l(1) =   0
                l(2) =   0
                l(3) =   1
                l(4) =   1
                l(5) =   2
                l(6) =   2
     Q(r) pseudized with  8 coefficients,  rinner =    1.000   1.000   1.000
                                                       1.000   1.000

     PseudoPot. # 2 for O  read from file:
     /storage/coda1/p-amedford6/0/shared/rich_project_chbe-medford/medford-share/data/pseudos_module/espresso/nninc/pbe/van/O.UPF
     MD5 check sum: 78c19812648e8988a0fe644b0f25305e
     Pseudo is Ultrasoft, Zval =  6.0
     Generated by new atomic code, or converted to UPF format
     Using radial grid of  737 points,  4 beta functions with:
                l(1) =   0
                l(2) =   0
                l(3) =   1
                l(4) =   1
     Q(r) pseudized with  8 coefficients,  rinner =    0.800   0.800   0.800

     PseudoPot. # 3 for N  read from file:
     /storage/coda1/p-amedford6/0/shared/rich_project_chbe-medford/medford-share/data/pseudos_module/espresso/nninc/pbe/van/N.UPF
     MD5 check sum: 90d10febe142ad51ac9d5be1deb811c4
     Pseudo is Ultrasoft, Zval =  5.0
     Generated by new atomic code, or converted to UPF format
     Using radial grid of  729 points,  4 beta functions with:
                l(1) =   0
                l(2) =   0
                l(3) =   1
                l(4) =   1
     Q(r) pseudized with  8 coefficients,  rinner =    0.800   0.800   0.800

     PseudoPot. # 4 for C  read from file:
     /storage/coda1/p-amedford6/0/shared/rich_project_chbe-medford/medford-share/data/pseudos_module/espresso/nninc/pbe/van/C.UPF
     MD5 check sum: 1a69bf6b8db32088f5b2163dbdb77a27
     Pseudo is Ultrasoft, Zval =  4.0
     Generated by new atomic code, or converted to UPF format
     Using radial grid of  721 points,  4 beta functions with:
                l(1) =   0
                l(2) =   0
                l(3) =   1
                l(4) =   1
     Q(r) pseudized with  8 coefficients,  rinner =    0.800   0.800   0.800

     PseudoPot. # 5 for H  read from file:
     /storage/coda1/p-amedford6/0/shared/rich_project_chbe-medford/medford-share/data/pseudos_module/espresso/nninc/pbe/van/H.UPF
     MD5 check sum: b5ee9d7bfd3a09ee7748110bda690ff7
     Pseudo is Ultrasoft, Zval =  1.0
     Generated by new atomic code, or converted to UPF format
     Using radial grid of  615 points,  1 beta functions with:
                l(1) =   0
     Q(r) pseudized with  8 coefficients,  rinner =    0.800

     atomic species   valence    mass     pseudopotential
        Ti1           12.00    47.86700     Ti( 1.00)
        O1             6.00    15.99900     O ( 1.00)
        N1             5.00    14.00700     N ( 1.00)
        C1             4.00    12.01100     C ( 1.00)
        H1             1.00     1.00800     H ( 1.00)

     No symmetry found

   Cartesian axes

     site n.     atom                  positions (alat units)
         1           Ti1 tau(   1) = (   0.0004258   2.9801865   6.0000000  )
         2           Ti1 tau(   2) = (   3.2906075   1.4906267   6.0002472  )
         3           O1  tau(   3) = (   0.0006271   0.0005054   7.9858123  )
         4           O1  tau(   4) = (   3.2906025   0.0005020   7.3038282  )
         5           O1  tau(   5) = (   4.5942328   1.4918067   9.2879030  )
         6           O1  tau(   6) = (   1.9868534   1.4903216   9.2879459  )
         7           Ti1 tau(   7) = (   3.2907910   2.8959150   9.1758416  )
         8           Ti1 tau(   8) = (   0.0015273   1.4827037   9.2680791  )
         9           O1  tau(   9) = (   3.2954490   0.0159868  11.2922163  )
        10           O1  tau(  10) = (   0.0116148   5.9584955  10.6183126  )
        11           O1  tau(  11) = (   1.3242731   1.5050266  12.6143764  )
        12           O1  tau(  12) = (   5.3073597   1.5103589  12.6267567  )
        13           Ti1 tau(  13) = (   6.4831477   3.0011104  12.7364612  )
        14           Ti1 tau(  14) = (   3.1751638   1.4975352  12.4748964  )
        15           O1  tau(  15) = (   0.0212859   5.9607631  14.5987152  )
        16           O1  tau(  16) = (   3.3058086   0.0238703  13.8910224  )
        17           O1  tau(  17) = (   4.5539421   1.5574750  15.9960573  )
        18           O1  tau(  18) = (   2.0731809   1.5597727  15.9888445  )
        19           Ti1 tau(  19) = (   3.3176354   3.0289328  15.6523405  )
        20           Ti1 tau(  20) = (   0.0198791   1.6227889  16.0606591  )
        21           O1  tau(  21) = (   3.2904802   0.0005063   4.7018136  )
        22           O1  tau(  22) = (   0.0290054   0.0533443  17.2129705  )
        23           O1  tau(  23) = (   1.3043587   1.4918075   6.0039043  )
        24           O1  tau(  24) = (   5.2767064   1.4903225   6.0039473  )
        25           Ti1 tau(  25) = (   0.0000382   5.9609847   6.0000000  )
        26           Ti1 tau(  26) = (   3.2902200   4.4714249   6.0002472  )
        27           O1  tau(  27) = (   0.0002396   2.9813036   7.9858123  )
        28           O1  tau(  28) = (   3.2902150   2.9813002   7.3038282  )
        29           O1  tau(  29) = (   4.5938453   4.4726049   9.2879030  )
        30           O1  tau(  30) = (   1.9864658   4.4711199   9.2879459  )
        31           Ti1 tau(  31) = (   3.2891106   5.8743827   9.1763621  )
        32           Ti1 tau(  32) = (   0.0006254   4.4649316   9.2693709  )
        33           O1  tau(  33) = (   3.2918316   2.9938763  11.2915017  )
        34           O1  tau(  34) = (   0.0092240   2.9805883  10.6323155  )
        35           O1  tau(  35) = (   1.3226278   4.4784642  12.6110361  )
        36           O1  tau(  36) = (   5.3078083   4.4770455  12.6250823  )
        37           Ti1 tau(  37) = (   6.5141033   0.0190828  12.7620745  )
        38           Ti1 tau(  38) = (   3.1722404   4.4939287  12.4712879  )
        39           O1  tau(  39) = (   0.0035410   2.9850241  14.6487316  )
        40           O1  tau(  40) = (   3.3118331   3.0109266  13.8519036  )
        41           O1  tau(  41) = (   4.5522870   4.5059159  16.0259181  )
        42           O1  tau(  42) = (   2.0778134   4.5048723  16.0185459  )
        43           Ti1 tau(  43) = (   3.3116469   0.0596163  15.7453941  )
        44           Ti1 tau(  44) = (   0.0183239   4.5967015  16.1059876  )
        45           O1  tau(  45) = (   3.2900926   2.9813045   4.7018136  )
        46           O1  tau(  46) = (   1.3039711   4.4726057   6.0039043  )
        47           O1  tau(  47) = (   5.2763189   4.4711207   6.0039473  )
        48           N1  tau(  48) = (   0.0600715   3.0265251  17.3188267  )
        49           N1  tau(  49) = (   6.2826239   2.5295367  22.6224490  )
        50           C1  tau(  50) = (   0.2859397   3.0149959  18.7399364  )
        51           H1  tau(  51) = (   0.1411154   4.0060466  19.1894648  )
        52           H1  tau(  52) = (   6.1913215   2.3105648  19.2421896  )
        53           H1  tau(  53) = (   1.3225146   2.6868920  18.9691123  )
        54           H1  tau(  54) = (   6.1000088   3.2491606  23.3142794  )
        55           H1  tau(  55) = (   0.1456284   1.7586669  23.1118534  )
        56           H1  tau(  56) = (   0.3974265   2.9048463  21.9856970  )
        57           O1  tau(  57) = (   3.2908421   0.1144680  18.1630233  )
        58           H1  tau(  58) = (   4.0679411   5.5688996  18.4486002  )
        59           H1  tau(  59) = (   2.5060966   5.5711546  18.4327789  )

     number of k points=    10  Fermi-Dirac smearing, width (Ry)=  0.0073
                       cart. coord. in units 2pi/alat
        k(    1) = (   0.0000000   0.0000000   0.0000000), wk =   0.1250000
        k(    2) = (   0.0000000   0.0419351   0.0000000), wk =   0.2500000
        k(    3) = (   0.0000000  -0.0838702   0.0000000), wk =   0.1250000
        k(    4) = (   0.0379955   0.0000049   0.0000000), wk =   0.2500000
        k(    5) = (   0.0379955   0.0419400   0.0000000), wk =   0.2500000
        k(    6) = (   0.0379955  -0.0838652   0.0000000), wk =   0.2500000
        k(    7) = (   0.0379955  -0.0419301   0.0000000), wk =   0.2500000
        k(    8) = (  -0.0759910  -0.0000099   0.0000000), wk =   0.1250000
        k(    9) = (  -0.0759910   0.0419252   0.0000000), wk =   0.2500000
        k(   10) = (  -0.0759910  -0.0838800   0.0000000), wk =   0.1250000

     Initial potential from superposition of free atoms

     starting charge  389.99912, renormalised to  406.00000

     negative rho (up, down):  6.916E-03 0.000E+00

     %%%%%%%%%%%%%%%%%%%%%%%%%%%%%%%%%%%%%%%%%%%%%%%%%%%%%%%%%%%%%%%%%%%%%%%%
     %                                                                      %
     % You are using vdW-DF, which was implemented by the Thonhauser group. %
     % Please cite the following two papers that made this development      %
     % possible and the two reviews that describe the various versions:     %
     %                                                                      %
     %   T. Thonhauser et al., PRL 115, 136402 (2015).                      %
     %   T. Thonhauser et al., PRB 76, 125112 (2007).                       %
     %   K. Berland et al., Rep. Prog. Phys. 78, 066501 (2015).             %
     %   D.C. Langreth et al., J. Phys.: Condens. Matter 21, 084203 (2009). %
     %                                                                      %
     %                                                                      %
     % If you are calculating the stress with vdW-DF, please also cite:     %
     %                                                                      %
     %   R. Sabatini et al., J. Phys.: Condens. Matter 24, 424209 (2012).   %
     %                                                                      %
     %%%%%%%%%%%%%%%%%%%%%%%%%%%%%%%%%%%%%%%%%%%%%%%%%%%%%%%%%%%%%%%%%%%%%%%%

     Adding external electric field

     Computed dipole along edir(3) :
        Dipole              -16.2336 Ry au,        -41.2616 Debye
        Dipole field         -0.0306 Ry au,

        Potential amp.        2.8398 Ry
        Total length         46.3494 bohr

     Starting wfcs are  308 atomic wfcs
  @ DRIVER MODE: Message from server: STATUS
  @ DRIVER MODE: Message from server: POSDATA
  @ DRIVER MODE: Reading and sharing cell
  @ DRIVER MODE: Reading and sharing positions
  @ DRIVER MODE: Received positions

     Self-consistent Calculation

     iteration #  1     ecut=    29.40 Ry     beta= 0.05
     Davidson diagonalization with overlap
     c_bands:  2 eigenvalues not converged
     c_bands:  3 eigenvalues not converged
     c_bands:  5 eigenvalues not converged
     c_bands:  3 eigenvalues not converged
     c_bands:  3 eigenvalues not converged
     c_bands:  3 eigenvalues not converged
     c_bands:  1 eigenvalues not converged
     c_bands:  5 eigenvalues not converged
     c_bands:  3 eigenvalues not converged
     ethr =  1.00E-05,  avg # of iterations = 20.6

[...]

     total energy              =   -2253.48645041 Ry
     estimated scf accuracy    <    8262.99357083 Ry

     iteration #  2     ecut=    29.40 Ry     beta= 0.05
     Davidson diagonalization with overlap
     ethr =  1.00E-02,  avg # of iterations = 26.9

[...]

     iteration # 50     ecut=    29.40 Ry     beta= 0.05
     Davidson diagonalization with overlap
     c_bands:  1 eigenvalues not converged
     ethr =  2.72E-06,  avg # of iterations = 13.8

[...]

     total energy              =   -2977.74431949 Ry
     estimated scf accuracy    <       0.00000011 Ry

     iteration # 75     ecut=    29.40 Ry     beta= 0.05
     Davidson diagonalization with overlap
     ethr =  2.61E-11,  avg # of iterations =  2.0

     negative rho (up, down):  8.779E-03 0.000E+00

     Adding external electric field

     Computed dipole along edir(3) :
        Dipole                0.7625 Ry au,          1.9380 Debye
        Dipole field          0.0014 Ry au,

        Potential amp.       -0.1334 Ry
        Total length         46.3494 bohr

     End of self-consistent calculation

          k = 0.0000 0.0000 0.0000 ( 18029 PWs)   bands (ev):

   -56.2629 -56.2293 -55.3799 -55.3459 -55.3376 -55.3027 -55.1550 -55.1198
   -55.0330 -54.9124 -54.8944 -54.8928 -54.8785 -54.8079 -54.3919 -54.3425
   -32.6897 -32.5371 -32.5090 -32.4392 -32.3483 -32.3158 -31.8477 -31.8199
   -31.6904 -31.6457 -31.5969 -31.5790 -31.5488 -31.5397 -31.5106 -31.5056
   -31.4871 -31.4807 -31.4586 -31.4441 -31.4310 -31.3817 -31.3715 -31.3328
   -31.3203 -31.3033 -31.2947 -31.2813 -31.2572 -31.2563 -31.2520 -31.2278
   -31.1332 -31.1224 -31.0826 -31.0723 -31.0447 -31.0392 -31.0307 -31.0121
   -30.9814 -30.9283 -30.9066 -30.6355 -30.6132 -30.5823 -30.5615 -30.4527
   -18.4453 -16.4187 -15.9524 -15.7091 -15.6196 -15.5362 -15.4976 -15.4533
   -15.3013 -15.2338 -15.2114 -15.2108 -15.1402 -14.9920 -14.9448 -14.8468
   -14.7532 -14.6184 -14.6013 -14.5680 -14.5502 -14.5174 -14.5102 -14.4584
   -14.2953 -14.2596 -14.2114 -14.1483 -14.0630 -14.0382 -13.8379 -13.4108
   -13.3011 -12.6399  -7.4314  -6.2357  -4.1043  -4.0838  -3.9861  -3.4520
    -3.1828  -3.1550  -3.0266  -3.0219  -2.9762  -2.8358  -2.8253  -2.7542
    -2.7314  -2.6920  -2.6179  -2.5671  -2.5356  -2.4463  -2.4339  -2.4138
    -2.4002  -2.3847  -2.2631  -2.2215  -2.1694  -2.0653  -1.9575  -1.9145
    -1.8875  -1.8435  -1.8056  -1.7584  -1.7462  -1.7313  -1.7247  -1.6135
    -1.4995  -1.4662  -1.4515  -1.4053  -1.3872  -1.3781  -1.3565  -1.2713
    -1.1613  -1.0681  -1.0010  -0.9886  -0.9212  -0.9132  -0.8542  -0.7380
    -0.6774  -0.6729  -0.6569  -0.5536  -0.5268  -0.4555  -0.3925  -0.3345
    -0.2800  -0.2169  -0.1670  -0.1445  -0.1312  -0.0324   0.0391   0.0624
     0.1139   0.1231   0.1322   0.1528   0.2495   0.2851   0.3589   0.4034
     0.4396   0.4839   0.5670   0.6171   0.6848   0.7347   0.7575   0.8192
     0.8726   0.9282   1.0232   1.0741   1.0779   1.0865   1.1092   1.1694
     1.1832   1.2593   1.3425   1.3577   1.4302   1.4985   1.6592   1.6983
     1.9487   2.0196   2.6460   3.0142   3.1756   3.4708   3.6607   3.7982
     3.9935   4.0039   4.0110   4.2375   4.2609

[...]

          k = 0.0380-0.0419 0.0000 ( 17876 PWs)   bands (ev):

[...]

          k =-0.0760-0.0000 0.0000 ( 17886 PWs)   bands (ev):

[...]

          k =-0.0760-0.0839 0.0000 ( 17948 PWs)   bands (ev):

   -56.2462 -56.2458 -55.3649 -55.3605 -55.3251 -55.3154 -55.1385 -55.1362
   -55.0308 -54.8955 -54.8953 -54.8949 -54.8907 -54.8115 -54.3847 -54.3495
   -32.5230 -32.5226 -32.5067 -32.5064 -32.3924 -32.3920 -31.6713 -31.6655
   -31.6557 -31.6482 -31.5719 -31.5568 -31.5549 -31.5506 -31.5443 -31.5428
   -31.5370 -31.5283 -31.4965 -31.4800 -31.3840 -31.3819 -31.3483 -31.3425
   -31.3233 -31.2870 -31.2487 -31.2409 -31.2407 -31.2402 -31.2158 -31.1937
   -31.1509 -31.1202 -31.1199 -31.1169 -31.0939 -31.0811 -31.0810 -31.0666
   -31.0496 -31.0142 -30.7672 -30.7047 -30.6111 -30.5868 -30.5694 -30.5233
   -18.4445 -15.7692 -15.7673 -15.7322 -15.7314 -15.4644 -15.4610 -15.3676
   -15.3623 -15.2279 -15.1109 -15.0093 -14.9965 -14.9610 -14.9339 -14.8219
   -14.8011 -14.7920 -14.7819 -14.6702 -14.6501 -14.6048 -14.5937 -14.5773
   -14.5672 -14.2734 -14.2602 -14.1572 -14.1334 -14.0375 -13.9910 -13.4047
   -13.4047 -12.6585  -7.4250  -6.2282  -4.1143  -4.0855  -2.8653  -2.8587
    -2.8192  -2.8040  -2.8031  -2.7385  -2.6386  -2.5981  -2.5971  -2.5891
    -2.5084  -2.4474  -2.4395  -2.3681  -2.3353  -2.3159  -2.2576  -2.2467
    -2.1818  -2.1555  -2.1472  -2.1306  -2.1073  -2.1060  -2.0099  -1.9473
    -1.8954  -1.8920  -1.8244  -1.8064  -1.7423  -1.7215  -1.7099  -1.6781
    -1.6368  -1.6130  -1.5821  -1.5484  -1.5071  -1.4478  -1.2810  -1.2720
    -1.2627  -1.2412  -1.1159  -1.1089  -1.0780  -1.0479  -1.0421  -0.9681
    -0.9182  -0.8833  -0.8256  -0.7423  -0.7198  -0.6181  -0.5670  -0.5206
    -0.4645  -0.3582  -0.3410  -0.3302  -0.3210  -0.2907  -0.2245  -0.1951
    -0.1796  -0.0591  -0.0395   0.0136   0.0347   0.0911   0.1172   0.1821
     0.2087   0.2804   0.2922   0.3312   0.4054   0.4864   0.5209   0.5688
     0.5735   0.8497   0.9235   1.0540   1.0651   1.1214   1.1800   1.2514
     1.3111   1.3435   1.3703   1.4935   1.4978   1.5070   1.5075   1.5789
     1.5840   1.9264   2.5234   3.5902   3.5905   3.6570   3.6577   3.9784
     3.9847   4.0916   4.1019   4.2629   4.2779

     the Fermi energy is     2.8422 ev

!    total energy              =   -2977.74433448 Ry
     estimated scf accuracy    <       0.00000006 Ry
     smearing contrib. (-TS)   =      -0.00445563 Ry
     internal energy E=F+TS    =   -2977.73987886 Ry

     The total energy is F=E-TS. E is the sum of the following terms:
     one-electron contribution =  -22875.85279209 Ry
     hartree contribution      =   11535.62384299 Ry
     xc contribution           =    -496.32041583 Ry
     ewald contribution        =    8858.80838896 Ry
     electric field correction =       0.00109711 Ry

     convergence has been achieved in  75 iterations

     Forces acting on atoms (cartesian axes, Ry/au):

     atom    1 type  1   force =    -0.00003419   -0.00046554    0.12452059
     atom    2 type  1   force =    -0.00008402   -0.00048377   -0.15979232
     atom    3 type  2   force =     0.00019148   -0.00024371   -0.06792360
     atom    4 type  2   force =    -0.00000649   -0.00011711    0.02620911
     atom    5 type  2   force =    -0.01448801    0.00182031   -0.00990882
     atom    6 type  2   force =     0.01626775    0.00224439   -0.01025420
     atom    7 type  1   force =     0.00071532   -0.00387734    0.02889544
     atom    8 type  1   force =    -0.00034829   -0.00440120    0.10954170
     atom    9 type  2   force =     0.00023657   -0.00029235   -0.00051996
     atom   10 type  2   force =    -0.00231398    0.00256557   -0.07336049
     atom   11 type  2   force =    -0.00002761   -0.00033489   -0.00000342
     atom   12 type  2   force =    -0.00015215   -0.00082478    0.00001904
     atom   13 type  1   force =     0.00106637   -0.00040817    0.00011190
     atom   14 type  1   force =    -0.00064660    0.00064705   -0.00010724
     atom   15 type  2   force =    -0.00029324   -0.00039151   -0.00074266
     atom   16 type  2   force =    -0.00001546   -0.00011179    0.00067713
     atom   17 type  2   force =     0.00017447   -0.00090720   -0.00022405
     atom   18 type  2   force =     0.00045518   -0.00050505    0.00011835
     atom   19 type  1   force =    -0.00114269   -0.00009384   -0.00095318
     atom   20 type  1   force =     0.00081172   -0.00024217   -0.00049839
     atom   21 type  2   force =     0.00004641   -0.00003755    0.09945930
     atom   22 type  2   force =     0.00001860   -0.00023792   -0.00044316
     atom   23 type  2   force =    -0.07966957   -0.00005803   -0.03248085
     atom   24 type  2   force =     0.07951383    0.00038124   -0.03253140
     atom   25 type  1   force =    -0.00000535   -0.00057147    0.12417058
     atom   26 type  1   force =    -0.00008638   -0.00062597   -0.15994200
     atom   27 type  2   force =     0.00030005   -0.00036238   -0.06697601
     atom   28 type  2   force =    -0.00002034    0.00015110    0.02512618
     atom   29 type  2   force =    -0.01511037    0.00192866   -0.00984710
     atom   30 type  2   force =     0.01678789    0.00242851   -0.01016169
     atom   31 type  1   force =     0.00074397   -0.00075765    0.02407167
     atom   32 type  1   force =    -0.00027718    0.00204828    0.11016707
     atom   33 type  2   force =     0.00007538    0.00029264    0.00057703
     atom   34 type  2   force =    -0.00193674    0.00199966   -0.07167422
     atom   35 type  2   force =    -0.00002077    0.00034311   -0.00001620
     atom   36 type  2   force =    -0.00053243    0.00060985   -0.00005710
     atom   37 type  1   force =     0.00119994    0.00043060    0.00029626
     atom   38 type  1   force =    -0.00054356   -0.00088447   -0.00022175
     atom   39 type  2   force =    -0.00027523   -0.00014664    0.00090913
     atom   40 type  2   force =     0.00017902   -0.00012913    0.00024337
     atom   41 type  2   force =     0.00104902    0.00014857    0.00014823
     atom   42 type  2   force =    -0.00052075   -0.00024264    0.00052070
     atom   43 type  1   force =    -0.00159894    0.00000393   -0.00027373
     atom   44 type  1   force =     0.00093676   -0.00004308   -0.00041707
     atom   45 type  2   force =     0.00002106   -0.00004699    0.09942123
     atom   46 type  2   force =    -0.07968502    0.00000379   -0.03249292
     atom   47 type  2   force =     0.07953764    0.00043875   -0.03252063
     atom   48 type  3   force =    -0.00082524   -0.00077366    0.00013351
     atom   49 type  3   force =    -0.00035796   -0.00048144    0.00129598
     atom   50 type  4   force =     0.00859266   -0.00239550    0.00110087
     atom   51 type  5   force =    -0.00005625    0.00033917    0.00025987
     atom   52 type  5   force =     0.00070029   -0.00078791    0.00081734
     atom   53 type  5   force =    -0.00927543    0.00247415   -0.00138261
     atom   54 type  5   force =     0.00006118   -0.00022664   -0.00058545
     atom   55 type  5   force =     0.00003687    0.00030790   -0.00029354
     atom   56 type  5   force =     0.00030444    0.00035875   -0.00183346
     atom   57 type  2   force =     0.00161301   -0.00048976   -0.00040081
     atom   58 type  5   force =    -0.00048132    0.00089929    0.00003602
     atom   59 type  5   force =    -0.00080532    0.00013399   -0.00000755

     Total force =     0.423736     Total SCF correction =     0.000834
  @ DRIVER MODE: Message from server: STATUS
  @ DRIVER MODE: Message from server: GETFORCE
  @ DRIVER MODE: Returning v,forces,stress,ensemble

     Writing output data file ./calc.save/
  @ DRIVER MODE: Message from server: EXIT
  @ DRIVE MODE: Exiting

     General routines

     Parallel routines

   This run was terminated on:   3:19:41  16Sep2021

   JOB DONE.