     Program PWSCF v.6.7GPU starts on 11Sep2021 at  2:59:37

     R & G space division:  proc/nbgrp/npool/nimage =      10
     Reading input from /storage/home/hcoda1/3/ntian30/research/carbon/CxH_vib/CH2_calc/ads_slab/CH2NHNH2_a/out_0025/pw.inp
Warning: card &CELL ignored
Warning: card   CELL_DYNAMICS='IPI', ignored
Warning: card / ignored

     Current dimensions of program PWSCF are:
     Max number of different atomic species (ntypx) = 10
     Max number of k-points (npk) =  40000
     Max angular momentum in pseudopotentials (lmaxx) =  3
     Presently no symmetry can be used with electric field

     Message from routine cell_base_init:
     DEPRECATED: use true lattice parameter, not A to a.u. conversion factor

     IMPORTANT: XC functional enforced from input :
     Exchange-correlation= BEEF-VDW
                           (   1   4  43  14   2   0   0)
     Any further DFT definition will be discarded
     Please, verify this is what you really want

  @ DRIVER MODE: Connecting to
 qe_1139763_2792044.sched-torque.pace.gatech.eduq29hv0fc_scratch
  using UNIX socket
  @ DRIVER MODE: Message from server: STATUS
  @ DRIVER MODE: Message from server: INIT
  @ DRIVER MODE: Receiving replica           0          -1
  @ DRIVER MODE: Receiving encoded integer          25
  @ DRIVER MODE:  SCF:  T  FORCE:  T  STRESS:  F  VC:  F  ENSEMBLE:  F
  @ DRIVER MODE:  SCF:  T  FORCE:  T  STRESS:  F  VC:  F  ENSEMBLE:  F

     Using Slab Decomposition

     bravais-lattice index     =            0
     lattice parameter (alat)  =       1.8897  a.u.
     unit-cell volume          =    6658.9804 (a.u.)^3
     number of atoms/cell      =           55
     number of atomic types    =            5
     number of electrons       =       397.00
     number of Kohn-Sham states=          208
     kinetic-energy cutoff     =      29.3995  Ry
     charge density cutoff     =     293.9946  Ry
     scf convergence threshold =      7.3E-08
     mixing beta               =       0.0500
     number of iterations used =            8  plain     mixing
     Exchange-correlation= BEEF-VDW
                           (   1   4  43  14   2   0   0)

     celldm(1)=   1.889726  celldm(2)=   0.000000  celldm(3)=   0.000000
     celldm(4)=   0.000000  celldm(5)=   0.000000  celldm(6)=   0.000000

     crystal axes: (cart. coord. in units of alat)
               a(1) = (   6.579727   0.000000   0.000000 )
               a(2) = (  -0.000775   5.961596   0.000000 )
               a(3) = (   0.000000   0.000000  25.155947 )

     reciprocal axes: (cart. coord. in units 2 pi/alat)
               b(1) = (  0.151982  0.000020  0.000000 )
               b(2) = (  0.000000  0.167740  0.000000 )
               b(3) = (  0.000000  0.000000  0.039752 )

     PseudoPot. # 1 for Ti read from file:
     /storage/coda1/p-amedford6/0/shared/rich_project_chbe-medford/medford-share/data/pseudos_module/espresso/nninc/pbe/van/Ti.UPF
     MD5 check sum: 8e4df49b7f0d34bbd5052bf3f5ea0213
     Pseudo is Ultrasoft, Zval = 12.0
     Generated by new atomic code, or converted to UPF format
     Using radial grid of  851 points,  6 beta functions with:
                l(1) =   0
                l(2) =   0
                l(3) =   1
                l(4) =   1
                l(5) =   2
                l(6) =   2
     Q(r) pseudized with  8 coefficients,  rinner =    1.000   1.000   1.000
                                                       1.000   1.000

     PseudoPot. # 2 for O  read from file:
     /storage/coda1/p-amedford6/0/shared/rich_project_chbe-medford/medford-share/data/pseudos_module/espresso/nninc/pbe/van/O.UPF
     MD5 check sum: 78c19812648e8988a0fe644b0f25305e
     Pseudo is Ultrasoft, Zval =  6.0
     Generated by new atomic code, or converted to UPF format
     Using radial grid of  737 points,  4 beta functions with:
                l(1) =   0
                l(2) =   0
                l(3) =   1
                l(4) =   1
     Q(r) pseudized with  8 coefficients,  rinner =    0.800   0.800   0.800

     PseudoPot. # 3 for N  read from file:
     /storage/coda1/p-amedford6/0/shared/rich_project_chbe-medford/medford-share/data/pseudos_module/espresso/nninc/pbe/van/N.UPF
     MD5 check sum: 90d10febe142ad51ac9d5be1deb811c4
     Pseudo is Ultrasoft, Zval =  5.0
     Generated by new atomic code, or converted to UPF format
     Using radial grid of  729 points,  4 beta functions with:
                l(1) =   0
                l(2) =   0
                l(3) =   1
                l(4) =   1
     Q(r) pseudized with  8 coefficients,  rinner =    0.800   0.800   0.800

     PseudoPot. # 4 for C  read from file:
     /storage/coda1/p-amedford6/0/shared/rich_project_chbe-medford/medford-share/data/pseudos_module/espresso/nninc/pbe/van/C.UPF
     MD5 check sum: 1a69bf6b8db32088f5b2163dbdb77a27
     Pseudo is Ultrasoft, Zval =  4.0
     Generated by new atomic code, or converted to UPF format
     Using radial grid of  721 points,  4 beta functions with:
                l(1) =   0
                l(2) =   0
                l(3) =   1
                l(4) =   1
     Q(r) pseudized with  8 coefficients,  rinner =    0.800   0.800   0.800

     PseudoPot. # 5 for H  read from file:
     /storage/coda1/p-amedford6/0/shared/rich_project_chbe-medford/medford-share/data/pseudos_module/espresso/nninc/pbe/van/H.UPF
     MD5 check sum: b5ee9d7bfd3a09ee7748110bda690ff7
     Pseudo is Ultrasoft, Zval =  1.0
     Generated by new atomic code, or converted to UPF format
     Using radial grid of  615 points,  1 beta functions with:
                l(1) =   0
     Q(r) pseudized with  8 coefficients,  rinner =    0.800

     atomic species   valence    mass     pseudopotential
        Ti1           12.00    47.86700     Ti( 1.00)
        O1             6.00    15.99900     O ( 1.00)
        N1             5.00    14.00700     N ( 1.00)
        C1             4.00    12.01100     C ( 1.00)
        H1             1.00     1.00800     H ( 1.00)

     No symmetry found

   Cartesian axes

     site n.     atom                  positions (alat units)
         1           Ti1 tau(   1) = (   0.0004258   2.9801865   6.0000000  )
         2           Ti1 tau(   2) = (   3.2906075   1.4906267   6.0002472  )
         3           O1  tau(   3) = (   0.0006271   0.0005054   7.9858123  )
         4           O1  tau(   4) = (   3.2906025   0.0005020   7.3038282  )
         5           O1  tau(   5) = (   4.5942328   1.4918067   9.2879030  )
         6           O1  tau(   6) = (   1.9868534   1.4903216   9.2879459  )
         7           Ti1 tau(   7) = (   3.2907910   2.8959150   9.1758416  )
         8           Ti1 tau(   8) = (   0.0015273   1.4827037   9.2680791  )
         9           O1  tau(   9) = (   3.2904964   5.9585769  11.3857690  )
        10           O1  tau(  10) = (   0.0116148   5.9584955  10.6183126  )
        11           O1  tau(  11) = (   1.2878431   1.4867815  12.6991744  )
        12           O1  tau(  12) = (   5.2968392   1.4897239  12.6840540  )
        13           Ti1 tau(  13) = (   0.0031652   2.9724310  12.5021289  )
        14           Ti1 tau(  14) = (   3.2974598   1.4750309  12.5411678  )
        15           O1  tau(  15) = (   6.5490940   5.8844369  14.7025010  )
        16           O1  tau(  16) = (   3.3056738   5.9474069  14.0077327  )
        17           O1  tau(  17) = (   4.5358307   1.5199601  16.1809847  )
        18           O1  tau(  18) = (   2.0145668   1.5037208  16.1256758  )
        19           Ti1 tau(  19) = (   3.2722398   2.9952086  15.7861162  )
        20           Ti1 tau(  20) = (   6.5630583   1.3046800  15.8709962  )
        21           O1  tau(  21) = (   3.2904802   0.0005063   4.7018136  )
        22           O1  tau(  22) = (   0.0019326   0.1554656  17.2922311  )
        23           O1  tau(  23) = (   1.3043587   1.4918075   6.0039043  )
        24           O1  tau(  24) = (   5.2767064   1.4903225   6.0039473  )
        25           Ti1 tau(  25) = (   0.0000382   5.9609847   6.0000000  )
        26           Ti1 tau(  26) = (   3.2902200   4.4714249   6.0002472  )
        27           O1  tau(  27) = (   0.0002396   2.9813036   7.9858123  )
        28           O1  tau(  28) = (   3.2902150   2.9813002   7.3038282  )
        29           O1  tau(  29) = (   4.5938453   4.4726049   9.2879030  )
        30           O1  tau(  30) = (   1.9864658   4.4711199   9.2879459  )
        31           Ti1 tau(  31) = (   3.2891106   5.8743827   9.1763621  )
        32           Ti1 tau(  32) = (   0.0006254   4.4649316   9.2693709  )
        33           O1  tau(  33) = (   3.2902589   2.9648534  11.3782866  )
        34           O1  tau(  34) = (   0.0092240   2.9805883  10.6323155  )
        35           O1  tau(  35) = (   1.2907939   4.4579819  12.6664495  )
        36           O1  tau(  36) = (   5.2949113   4.4550998  12.6520156  )
        37           Ti1 tau(  37) = (   0.0082621   5.9437129  12.5015890  )
        38           Ti1 tau(  38) = (   3.2989848   4.4491302  12.5337562  )
        39           O1  tau(  39) = (   6.5545586   3.0159292  14.9830317  )
        40           O1  tau(  40) = (   3.2960925   2.9977268  13.9872472  )
        41           O1  tau(  41) = (   4.5245867   4.4695491  16.2648171  )
        42           O1  tau(  42) = (   2.0004542   4.4779941  16.2115700  )
        43           Ti1 tau(  43) = (   3.2998562   0.0139781  15.8031611  )
        44           Ti1 tau(  44) = (   0.0298651   4.5190837  16.0363964  )
        45           O1  tau(  45) = (   3.2900926   2.9813045   4.7018136  )
        46           O1  tau(  46) = (   1.3039711   4.4726057   6.0039043  )
        47           O1  tau(  47) = (   5.2763189   4.4711207   6.0039473  )
        48           N1  tau(  48) = (   0.7490466   2.5008218  18.8353846  )
        49           N1  tau(  49) = (   6.4369825   3.4131575  18.1751453  )
        50           C1  tau(  50) = (   1.9829018   2.9174465  19.1941100  )
        51           H1  tau(  51) = (   2.1359794   3.9544348  19.4490303  )
        52           H1  tau(  52) = (   2.6835556   2.1521737  19.4548401  )
        53           H1  tau(  53) = (   0.6355624   1.5475814  18.4636284  )
        54           H1  tau(  54) = (   6.4936903   4.3158724  18.6511896  )
        55           H1  tau(  55) = (   5.4890587   3.0624770  18.3097170  )

     number of k points=    10  Fermi-Dirac smearing, width (Ry)=  0.0073
                       cart. coord. in units 2pi/alat
        k(    1) = (   0.0000000   0.0000000   0.0000000), wk =   0.1250000
        k(    2) = (   0.0000000   0.0419351   0.0000000), wk =   0.2500000
        k(    3) = (   0.0000000  -0.0838702   0.0000000), wk =   0.1250000
        k(    4) = (   0.0379955   0.0000049   0.0000000), wk =   0.2500000
        k(    5) = (   0.0379955   0.0419400   0.0000000), wk =   0.2500000
        k(    6) = (   0.0379955  -0.0838652   0.0000000), wk =   0.2500000
        k(    7) = (   0.0379955  -0.0419301   0.0000000), wk =   0.2500000
        k(    8) = (  -0.0759910  -0.0000099   0.0000000), wk =   0.1250000
        k(    9) = (  -0.0759910   0.0419252   0.0000000), wk =   0.2500000
        k(   10) = (  -0.0759910  -0.0838800   0.0000000), wk =   0.1250000

     Initial potential from superposition of free atoms

     starting charge  380.99914, renormalised to  397.00000

     negative rho (up, down):  1.606E-02 0.000E+00

     %%%%%%%%%%%%%%%%%%%%%%%%%%%%%%%%%%%%%%%%%%%%%%%%%%%%%%%%%%%%%%%%%%%%%%%%
     %                                                                      %
     % You are using vdW-DF, which was implemented by the Thonhauser group. %
     % Please cite the following two papers that made this development      %
     % possible and the two reviews that describe the various versions:     %
     %                                                                      %
     %   T. Thonhauser et al., PRL 115, 136402 (2015).                      %
     %   T. Thonhauser et al., PRB 76, 125112 (2007).                       %
     %   K. Berland et al., Rep. Prog. Phys. 78, 066501 (2015).             %
     %   D.C. Langreth et al., J. Phys.: Condens. Matter 21, 084203 (2009). %
     %                                                                      %
     %                                                                      %
     % If you are calculating the stress with vdW-DF, please also cite:     %
     %                                                                      %
     %   R. Sabatini et al., J. Phys.: Condens. Matter 24, 424209 (2012).   %
     %                                                                      %
     %%%%%%%%%%%%%%%%%%%%%%%%%%%%%%%%%%%%%%%%%%%%%%%%%%%%%%%%%%%%%%%%%%%%%%%%

     Adding external electric field

     Computed dipole along edir(3) :
        Dipole              -10.6770 Ry au,        -27.1381 Debye
        Dipole field         -0.0201 Ry au,

        Potential amp.        1.8678 Ry
        Total length         46.3494 bohr

     Starting wfcs are  301 atomic wfcs
  @ DRIVER MODE: Message from server: STATUS
  @ DRIVER MODE: Message from server: POSDATA
  @ DRIVER MODE: Reading and sharing cell
  @ DRIVER MODE: Reading and sharing positions
  @ DRIVER MODE: Received positions

     Self-consistent Calculation

     iteration #  1     ecut=    29.40 Ry     beta= 0.05
     Davidson diagonalization with overlap
     c_bands:  2 eigenvalues not converged
     c_bands:  3 eigenvalues not converged
     c_bands:  1 eigenvalues not converged
     c_bands:  4 eigenvalues not converged
     c_bands:  4 eigenvalues not converged
     c_bands:  4 eigenvalues not converged
     c_bands:  1 eigenvalues not converged
     c_bands:  2 eigenvalues not converged
     c_bands:  2 eigenvalues not converged
     ethr =  1.00E-05,  avg # of iterations = 20.0

[...]

     total energy              =   -2465.29168595 Ry
     estimated scf accuracy    <    5331.50347347 Ry

     iteration #  2     ecut=    29.40 Ry     beta= 0.05
     Davidson diagonalization with overlap
     ethr =  1.00E-02,  avg # of iterations = 22.8

[...]

     iteration # 86     ecut=    29.40 Ry     beta= 0.05
     Davidson diagonalization with overlap
     c_bands:  1 eigenvalues not converged
     ethr =  3.72E-11,  avg # of iterations = 10.0

[...]

     total energy              =   -2941.51054807 Ry
     estimated scf accuracy    <       0.00000013 Ry

     iteration # 88     ecut=    29.40 Ry     beta= 0.05
     Davidson diagonalization with overlap
     ethr =  3.35E-11,  avg # of iterations = 11.0

     negative rho (up, down):  1.515E-02 0.000E+00

     Adding external electric field

     Computed dipole along edir(3) :
        Dipole                1.2051 Ry au,          3.0632 Debye
        Dipole field          0.0023 Ry au,

        Potential amp.       -0.2108 Ry
        Total length         46.3494 bohr

     End of self-consistent calculation

          k = 0.0000 0.0000 0.0000 ( 18029 PWs)   bands (ev):

   -55.3823 -55.3454 -55.3369 -55.3027 -55.2640 -55.2578 -55.2293 -55.2109
   -55.1867 -55.1843 -55.1766 -55.1672 -55.1335 -55.0316 -54.3696 -54.3355
   -31.9451 -31.8303 -31.7772 -31.7513 -31.7000 -31.6896 -31.6840 -31.6737
   -31.6255 -31.6168 -31.5945 -31.5815 -31.5721 -31.5480 -31.5415 -31.5345
   -31.5221 -31.5060 -31.5045 -31.4894 -31.4885 -31.4516 -31.4514 -31.4413
   -31.4412 -31.4133 -31.3944 -31.3939 -31.3933 -31.3887 -31.3726 -31.3660
   -31.3650 -31.3589 -31.3587 -31.3563 -31.3242 -31.3001 -31.2950 -31.2786
   -31.2467 -31.2018 -30.7792 -30.6845 -30.6624 -30.5955 -30.5087 -30.3978
   -18.8963 -16.2146 -15.9610 -15.8140 -15.7064 -15.5889 -15.4802 -15.4253
   -15.3191 -15.2476 -15.1338 -15.0845 -15.0680 -15.0360 -15.0271 -15.0149
   -14.9351 -14.9288 -14.9111 -14.8879 -14.8823 -14.8402 -14.8287 -14.7877
   -14.7628 -14.7569 -14.6355 -14.5495 -14.4748 -14.3261 -14.3127 -12.8724
   -12.7549  -9.8649  -7.4738  -6.2605  -4.9912  -4.0193  -3.6167  -3.5471
    -3.4082  -3.3000  -3.2792  -3.2438  -3.1427  -2.9619  -2.8254  -2.7921
    -2.6758  -2.5951  -2.5819  -2.5513  -2.4263  -2.3892  -2.3505  -2.2857
    -2.2560  -2.1936  -2.1749  -2.1635  -2.1444  -2.1204  -2.0958  -1.9947
    -1.9560  -1.8602  -1.8204  -1.7869  -1.7457  -1.7286  -1.7084  -1.6776
    -1.6675  -1.6133  -1.5997  -1.5855  -1.5366  -1.4188  -1.2979  -1.2644
    -1.1758  -1.0278  -0.9907  -0.9705  -0.9139  -0.8782  -0.8557  -0.8255
    -0.7648  -0.7258  -0.6673  -0.6091  -0.5409  -0.4965  -0.4494  -0.4132
    -0.3779  -0.2932  -0.2116  -0.1677  -0.1545  -0.1372  -0.0379  -0.0018
     0.0528   0.1295   0.1314   0.1436   0.1865   0.2686   0.3458   0.3635
     0.3867   0.4918   0.4964   0.5393   0.5419   0.5621   0.5962   0.6306
     0.6810   0.7081   0.7953   0.8920   1.1180   1.2193   1.2224   1.5457
     1.5567   1.6529   1.8359   2.2296   2.2780   3.7095   3.7800   3.8016
     3.8572   3.8603   3.9302   3.9467   4.1925   4.2180   4.2183   4.2376

[...]

          k = 0.0380-0.0419 0.0000 ( 17876 PWs)   bands (ev):

[...]

          k =-0.0760-0.0000 0.0000 ( 17886 PWs)   bands (ev):

[...]

          k =-0.0760-0.0839 0.0000 ( 17948 PWs)   bands (ev):

   -55.3683 -55.3592 -55.3199 -55.3196 -55.2535 -55.2488 -55.2444 -55.1952
   -55.1919 -55.1899 -55.1830 -55.1510 -55.1498 -55.0338 -54.3526 -54.3523
   -31.7543 -31.7452 -31.6861 -31.6618 -31.6454 -31.6453 -31.6268 -31.6108
   -31.6107 -31.5939 -31.5860 -31.5778 -31.5624 -31.5305 -31.5281 -31.5238
   -31.5233 -31.5221 -31.5107 -31.5065 -31.4774 -31.4651 -31.4610 -31.4511
   -31.4454 -31.4419 -31.4395 -31.4392 -31.4363 -31.4277 -31.4249 -31.4079
   -31.4067 -31.4043 -31.3847 -31.3833 -31.3831 -31.3732 -31.3316 -31.3301
   -31.2959 -31.2484 -30.6752 -30.6749 -30.5918 -30.5915 -30.5521 -30.5520
   -18.8902 -15.7662 -15.5973 -15.5782 -15.4339 -15.3977 -15.3549 -15.3439
   -15.2498 -15.2148 -15.1886 -15.1577 -15.1366 -15.1010 -15.0875 -15.0707
   -15.0135 -14.9912 -14.9855 -14.9657 -14.9065 -14.9021 -14.8945 -14.8916
   -14.8368 -14.8336 -14.8254 -14.7429 -14.7400 -14.6296 -14.2488 -12.8564
   -12.8564  -9.8345  -7.4344  -6.2575  -5.0881  -3.9629  -3.6421  -2.8547
    -2.8484  -2.8350  -2.6500  -2.5671  -2.5445  -2.5390  -2.4490  -2.4115
    -2.3664  -2.3639  -2.3107  -2.3044  -2.2771  -2.2364  -2.2250  -2.2050
    -2.1863  -2.1775  -2.1418  -2.1185  -2.1087  -2.0787  -2.0477  -2.0317
    -2.0240  -2.0024  -1.9716  -1.9522  -1.9401  -1.8869  -1.7750  -1.7597
    -1.6645  -1.5977  -1.5934  -1.5200  -1.4959  -1.4537  -1.4459  -1.4213
    -1.3762  -1.1972  -1.1656  -1.1346  -1.1269  -1.0413  -0.9889  -0.9173
    -0.9120  -0.8860  -0.8512  -0.7575  -0.7210  -0.7018  -0.6265  -0.6029
    -0.5362  -0.4942  -0.4288  -0.3981  -0.3441  -0.3421  -0.3070  -0.2934
    -0.2725  -0.2044  -0.1582  -0.1238  -0.1115  -0.0797   0.1176   0.1269
     0.1426   0.2512   0.2960   0.4433   0.4581   0.5210   0.6269   0.6530
     0.7231   0.7480   0.9044   0.9163   0.9311   0.9847   0.9928   1.0626
     1.0720   2.0090   2.0095   2.0979   2.0981   3.6780   3.8965   3.9677
     3.9828   4.0155   4.1405   4.2090   4.2271   4.2954   4.2983   4.3282

     the Fermi energy is     3.7754 ev

!    total energy              =   -2941.51055202 Ry
     estimated scf accuracy    <       0.00000004 Ry
     smearing contrib. (-TS)   =      -0.04440432 Ry
     internal energy E=F+TS    =   -2941.46614770 Ry

     The total energy is F=E-TS. E is the sum of the following terms:
     one-electron contribution =  -23633.78716140 Ry
     hartree contribution      =   11909.18106922 Ry
     xc contribution           =    -486.89112729 Ry
     ewald contribution        =    9270.02833094 Ry
     electric field correction =       0.00274083 Ry

     convergence has been achieved in  88 iterations

     Forces acting on atoms (cartesian axes, Ry/au):

     atom    1 type  1   force =     0.00013242   -0.00018659    0.09304125
     atom    2 type  1   force =    -0.00008784   -0.00045205   -0.17842050
     atom    3 type  2   force =     0.00004566   -0.00036837   -0.02007566
     atom    4 type  2   force =    -0.00001002   -0.00201873    0.05931229
     atom    5 type  2   force =    -0.01031045   -0.00098628    0.00817312
     atom    6 type  2   force =     0.01173825   -0.00038635    0.00731454
     atom    7 type  1   force =    -0.00038040    0.00239583   -0.01420530
     atom    8 type  1   force =     0.00023307   -0.00124533   -0.00620111
     atom    9 type  2   force =    -0.00023249    0.00021394    0.00014009
     atom   10 type  2   force =    -0.00162589    0.00148498    0.00164172
     atom   11 type  2   force =    -0.00006480   -0.00016414    0.00010300
     atom   12 type  2   force =    -0.00016063   -0.00016301   -0.00000545
     atom   13 type  1   force =     0.00007137   -0.00027969    0.00005649
     atom   14 type  1   force =     0.00017570    0.00019641    0.00031064
     atom   15 type  2   force =    -0.00006292    0.00022201   -0.00029594
     atom   16 type  2   force =     0.00017359   -0.00022079    0.00013538
     atom   17 type  2   force =    -0.00001682   -0.00001920    0.00041693
     atom   18 type  2   force =    -0.00024540   -0.00005298   -0.00015342
     atom   19 type  1   force =    -0.00009653   -0.00009467    0.00025559
     atom   20 type  1   force =    -0.00014930   -0.00000607    0.00012134
     atom   21 type  2   force =     0.00005864   -0.00008432    0.10399496
     atom   22 type  2   force =     0.00009889   -0.00016628   -0.00032799
     atom   23 type  2   force =    -0.07032913   -0.00017830   -0.02686620
     atom   24 type  2   force =     0.07021680    0.00026869   -0.02689263
     atom   25 type  1   force =    -0.00001554   -0.00014376    0.09260618
     atom   26 type  1   force =    -0.00006421   -0.00039537   -0.17856580
     atom   27 type  2   force =     0.00009511   -0.00030480   -0.01915997
     atom   28 type  2   force =     0.00003881   -0.00178638    0.05865352
     atom   29 type  2   force =    -0.01080375   -0.00126578    0.00871881
     atom   30 type  2   force =     0.01215500   -0.00086581    0.00782023
     atom   31 type  1   force =    -0.00028506    0.00612961   -0.01443989
     atom   32 type  1   force =     0.00028984    0.00071778   -0.00652179
     atom   33 type  2   force =    -0.00022634   -0.00024961   -0.00000491
     atom   34 type  2   force =    -0.00093535   -0.00223001   -0.00015469
     atom   35 type  2   force =    -0.00041521    0.00023251    0.00015300
     atom   36 type  2   force =     0.00012441    0.00019336   -0.00026861
     atom   37 type  1   force =     0.00017790   -0.00001358    0.00004838
     atom   38 type  1   force =     0.00032253    0.00019177    0.00011246
     atom   39 type  2   force =    -0.00025934    0.00010708   -0.00025311
     atom   40 type  2   force =    -0.00009304   -0.00015255   -0.00008510
     atom   41 type  2   force =    -0.00005991    0.00032833   -0.00001213
     atom   42 type  2   force =    -0.00022098    0.00010997    0.00002512
     atom   43 type  1   force =     0.00045283   -0.00000480    0.00018918
     atom   44 type  1   force =     0.00006058   -0.00011930   -0.00014263
     atom   45 type  2   force =     0.00004533   -0.00008738    0.10398254
     atom   46 type  2   force =    -0.07030259   -0.00010123   -0.02682163
     atom   47 type  2   force =     0.07017771    0.00031673   -0.02685887
     atom   48 type  3   force =     0.00016500    0.00068848   -0.00029345
     atom   49 type  3   force =     0.00055544   -0.00030518   -0.00029328
     atom   50 type  4   force =    -0.00703264    0.00540730   -0.00341663
     atom   51 type  5   force =     0.00066294   -0.00116198    0.00020491
     atom   52 type  5   force =     0.00732403   -0.00521271    0.00270459
     atom   53 type  5   force =    -0.00041078    0.00145319    0.00022916
     atom   54 type  5   force =    -0.00010476    0.00112522    0.00035737
     atom   55 type  5   force =    -0.00058973   -0.00030983   -0.00008608

     Total force =     0.366680     Total SCF correction =     0.000547
  @ DRIVER MODE: Message from server: STATUS
  @ DRIVER MODE: Message from server: GETFORCE
  @ DRIVER MODE: Returning v,forces,stress,ensemble

     Writing output data file ./calc.save/
  @ DRIVER MODE: Message from server: EXIT
  @ DRIVE MODE: Exiting

     General routines

     Parallel routines

   This run was terminated on:   3:22:35  11Sep2021

   JOB DONE.