     Program PWSCF v.6.7GPU starts on  2Aug2021 at 16: 0:31

     R & G space division:  proc/nbgrp/npool/nimage =      16
     Reading input from /storage/home/hcoda1/3/ntian30/research/carbon/02Aug_vib_paired/ads_slab/CH3NNHHH_a/out_0014/pw.inp
Warning: card &CELL ignored
Warning: card   CELL_DYNAMICS='IPI', ignored
Warning: card / ignored

     Current dimensions of program PWSCF are:
     Max number of different atomic species (ntypx) = 10
     Max number of k-points (npk) =  40000
     Max angular momentum in pseudopotentials (lmaxx) =  3
     Presently no symmetry can be used with electric field

     Message from routine cell_base_init:
     DEPRECATED: use true lattice parameter, not A to a.u. conversion factor

     IMPORTANT: XC functional enforced from input :
     Exchange-correlation= BEEF-VDW
                           (   1   4  43  14   2   0   0)
     Any further DFT definition will be discarded
     Please, verify this is what you really want

  @ DRIVER MODE: Connecting to
 qe_1139763_2482545.sched-torque.pace.gatech.edu_puxzkg8_scratch
  using UNIX socket
  @ DRIVER MODE: Message from server: STATUS
  @ DRIVER MODE: Message from server: INIT
  @ DRIVER MODE: Receiving replica           0          -1
  @ DRIVER MODE: Receiving encoded integer          25
  @ DRIVER MODE:  SCF:  T  FORCE:  T  STRESS:  F  VC:  F  ENSEMBLE:  F
  @ DRIVER MODE:  SCF:  T  FORCE:  T  STRESS:  F  VC:  F  ENSEMBLE:  F

     Using Slab Decomposition

     bravais-lattice index     =            0
     lattice parameter (alat)  =       1.8897  a.u.
     unit-cell volume          =    6658.9804 (a.u.)^3
     number of atoms/cell      =           56
     number of atomic types    =            5
     number of electrons       =       398.00
     number of Kohn-Sham states=          209
     kinetic-energy cutoff     =      29.3995  Ry
     charge density cutoff     =     293.9946  Ry
     scf convergence threshold =      7.3E-08
     mixing beta               =       0.0500
     number of iterations used =            8  plain     mixing
     Exchange-correlation= BEEF-VDW
                           (   1   4  43  14   2   0   0)

     celldm(1)=   1.889726  celldm(2)=   0.000000  celldm(3)=   0.000000
     celldm(4)=   0.000000  celldm(5)=   0.000000  celldm(6)=   0.000000

     crystal axes: (cart. coord. in units of alat)
               a(1) = (   6.579727   0.000000   0.000000 )
               a(2) = (  -0.000775   5.961596   0.000000 )
               a(3) = (   0.000000   0.000000  25.155947 )

     reciprocal axes: (cart. coord. in units 2 pi/alat)
               b(1) = (  0.151982  0.000020  0.000000 )
               b(2) = (  0.000000  0.167740  0.000000 )
               b(3) = (  0.000000  0.000000  0.039752 )

     PseudoPot. # 1 for Ti read from file:
     /storage/coda1/p-amedford6/0/shared/rich_project_chbe-medford/medford-share/data/pseudos_module/espresso/nninc/pbe/van/Ti.UPF
     MD5 check sum: 8e4df49b7f0d34bbd5052bf3f5ea0213
     Pseudo is Ultrasoft, Zval = 12.0
     Generated by new atomic code, or converted to UPF format
     Using radial grid of  851 points,  6 beta functions with:
                l(1) =   0
                l(2) =   0
                l(3) =   1
                l(4) =   1
                l(5) =   2
                l(6) =   2
     Q(r) pseudized with  8 coefficients,  rinner =    1.000   1.000   1.000
                                                       1.000   1.000

     PseudoPot. # 2 for O  read from file:
     /storage/coda1/p-amedford6/0/shared/rich_project_chbe-medford/medford-share/data/pseudos_module/espresso/nninc/pbe/van/O.UPF
     MD5 check sum: 78c19812648e8988a0fe644b0f25305e
     Pseudo is Ultrasoft, Zval =  6.0
     Generated by new atomic code, or converted to UPF format
     Using radial grid of  737 points,  4 beta functions with:
                l(1) =   0
                l(2) =   0
                l(3) =   1
                l(4) =   1
     Q(r) pseudized with  8 coefficients,  rinner =    0.800   0.800   0.800

     PseudoPot. # 3 for N  read from file:
     /storage/coda1/p-amedford6/0/shared/rich_project_chbe-medford/medford-share/data/pseudos_module/espresso/nninc/pbe/van/N.UPF
     MD5 check sum: 90d10febe142ad51ac9d5be1deb811c4
     Pseudo is Ultrasoft, Zval =  5.0
     Generated by new atomic code, or converted to UPF format
     Using radial grid of  729 points,  4 beta functions with:
                l(1) =   0
                l(2) =   0
                l(3) =   1
                l(4) =   1
     Q(r) pseudized with  8 coefficients,  rinner =    0.800   0.800   0.800

     PseudoPot. # 4 for C  read from file:
     /storage/coda1/p-amedford6/0/shared/rich_project_chbe-medford/medford-share/data/pseudos_module/espresso/nninc/pbe/van/C.UPF
     MD5 check sum: 1a69bf6b8db32088f5b2163dbdb77a27
     Pseudo is Ultrasoft, Zval =  4.0
     Generated by new atomic code, or converted to UPF format
     Using radial grid of  721 points,  4 beta functions with:
                l(1) =   0
                l(2) =   0
                l(3) =   1
                l(4) =   1
     Q(r) pseudized with  8 coefficients,  rinner =    0.800   0.800   0.800

     PseudoPot. # 5 for H  read from file:
     /storage/coda1/p-amedford6/0/shared/rich_project_chbe-medford/medford-share/data/pseudos_module/espresso/nninc/pbe/van/H.UPF
     MD5 check sum: b5ee9d7bfd3a09ee7748110bda690ff7
     Pseudo is Ultrasoft, Zval =  1.0
     Generated by new atomic code, or converted to UPF format
     Using radial grid of  615 points,  1 beta functions with:
                l(1) =   0
     Q(r) pseudized with  8 coefficients,  rinner =    0.800

     atomic species   valence    mass     pseudopotential
        Ti1           12.00    47.86700     Ti( 1.00)
        O1             6.00    15.99900     O ( 1.00)
        N1             5.00    14.00700     N ( 1.00)
        C1             4.00    12.01100     C ( 1.00)
        H1             1.00     1.00800     H ( 1.00)

     No symmetry found

   Cartesian axes

     site n.     atom                  positions (alat units)
         1           Ti1 tau(   1) = (   0.0004258   2.9801865   6.0000000  )
         2           Ti1 tau(   2) = (   3.2906075   1.4906267   6.0002472  )
         3           O1  tau(   3) = (   0.0006271   0.0005054   7.9858123  )
         4           O1  tau(   4) = (   3.2906025   0.0005020   7.3038282  )
         5           O1  tau(   5) = (   4.5942328   1.4918067   9.2879030  )
         6           O1  tau(   6) = (   1.9868534   1.4903216   9.2879459  )
         7           Ti1 tau(   7) = (   3.2907910   2.8959150   9.1758416  )
         8           Ti1 tau(   8) = (   0.0015273   1.4827037   9.2680791  )
         9           O1  tau(   9) = (   3.2969863   5.9453513  11.3493076  )
        10           O1  tau(  10) = (   0.0116148   5.9584955  10.6183126  )
        11           O1  tau(  11) = (   1.3059050   1.4736943  12.6642453  )
        12           O1  tau(  12) = (   5.3003793   1.4775083  12.6459419  )
        13           Ti1 tau(  13) = (   0.0167275   2.9625105  12.5508078  )
        14           Ti1 tau(  14) = (   3.3131340   1.4712512  12.4909780  )
        15           O1  tau(  15) = (   6.5517612   5.9325698  14.7566896  )
        16           O1  tau(  16) = (   3.3302114   5.9429442  13.9823395  )
        17           O1  tau(  17) = (   4.5243935   1.5056208  16.2316672  )
        18           O1  tau(  18) = (   2.0170937   1.4633510  16.1378485  )
        19           Ti1 tau(  19) = (   3.2500237   2.9242626  15.6920970  )
        20           Ti1 tau(  20) = (   6.5441017   1.2779805  16.1516014  )
        21           O1  tau(  21) = (   3.2904802   0.0005063   4.7018136  )
        22           O1  tau(  22) = (   6.5540411   5.9581837  17.3465722  )
        23           O1  tau(  23) = (   1.3043587   1.4918075   6.0039043  )
        24           O1  tau(  24) = (   5.2767064   1.4903225   6.0039473  )
        25           Ti1 tau(  25) = (   0.0000382   5.9609847   6.0000000  )
        26           Ti1 tau(  26) = (   3.2902200   4.4714249   6.0002472  )
        27           O1  tau(  27) = (   0.0002396   2.9813036   7.9858123  )
        28           O1  tau(  28) = (   3.2902150   2.9813002   7.3038282  )
        29           O1  tau(  29) = (   4.5938453   4.4726049   9.2879030  )
        30           O1  tau(  30) = (   1.9864658   4.4711199   9.2879459  )
        31           Ti1 tau(  31) = (   3.2891106   5.8743827   9.1763621  )
        32           Ti1 tau(  32) = (   0.0006254   4.4649316   9.2693709  )
        33           O1  tau(  33) = (   3.2962403   2.9651072  11.3429128  )
        34           O1  tau(  34) = (   0.0092240   2.9805883  10.6323155  )
        35           O1  tau(  35) = (   1.3076126   4.4641214  12.6643835  )
        36           O1  tau(  36) = (   5.2981430   4.4591552  12.6429889  )
        37           Ti1 tau(  37) = (   0.0194730   5.9489450  12.5196332  )
        38           Ti1 tau(  38) = (   3.3150505   4.4522436  12.4946186  )
        39           O1  tau(  39) = (   6.5702761   2.9869041  14.8038460  )
        40           O1  tau(  40) = (   3.3119818   2.9576719  13.9204832  )
        41           O1  tau(  41) = (   4.5223198   4.3950437  16.2490866  )
        42           O1  tau(  42) = (   2.0356696   4.4339808  16.1311045  )
        43           Ti1 tau(  43) = (   3.3057863   5.9493229  15.7677403  )
        44           Ti1 tau(  44) = (   0.0958844   4.4293496  15.8701971  )
        45           O1  tau(  45) = (   3.2900926   2.9813045   4.7018136  )
        46           O1  tau(  46) = (   1.3039711   4.4726057   6.0039043  )
        47           O1  tau(  47) = (   5.2763189   4.4711207   6.0039473  )
        48           N1  tau(  48) = (   0.0620580   3.0375546  17.6897758  )
        49           C1  tau(  49) = (   1.1116374   2.9693208  18.6984743  )
        50           H1  tau(  50) = (   1.3051007   3.9532040  19.1583453  )
        51           H1  tau(  51) = (   0.8627774   2.2426413  19.4871689  )
        52           H1  tau(  52) = (   2.0263963   2.6228967  18.2308865  )
        53           N1  tau(  53) = (   5.4279256   3.3744730  18.4033390  )
        54           H1  tau(  54) = (   5.6103604   4.1199394  19.0852601  )
        55           H1  tau(  55) = (   4.7934260   3.8076565  17.6395878  )
        56           H1  tau(  56) = (   5.0090149   2.5598412  18.8678436  )

     number of k points=    10  Fermi-Dirac smearing, width (Ry)=  0.0073
                       cart. coord. in units 2pi/alat
        k(    1) = (   0.0000000   0.0000000   0.0000000), wk =   0.1250000
        k(    2) = (   0.0000000   0.0419351   0.0000000), wk =   0.2500000
        k(    3) = (   0.0000000  -0.0838702   0.0000000), wk =   0.1250000
        k(    4) = (   0.0379955   0.0000049   0.0000000), wk =   0.2500000
        k(    5) = (   0.0379955   0.0419400   0.0000000), wk =   0.2500000
        k(    6) = (   0.0379955  -0.0838652   0.0000000), wk =   0.2500000
        k(    7) = (   0.0379955  -0.0419301   0.0000000), wk =   0.2500000
        k(    8) = (  -0.0759910  -0.0000099   0.0000000), wk =   0.1250000
        k(    9) = (  -0.0759910   0.0419252   0.0000000), wk =   0.2500000
        k(   10) = (  -0.0759910  -0.0838800   0.0000000), wk =   0.1250000

     Initial potential from superposition of free atoms

     starting charge  381.99914, renormalised to  398.00000

     negative rho (up, down):  1.616E-02 0.000E+00

     %%%%%%%%%%%%%%%%%%%%%%%%%%%%%%%%%%%%%%%%%%%%%%%%%%%%%%%%%%%%%%%%%%%%%%%%
     %                                                                      %
     % You are using vdW-DF, which was implemented by the Thonhauser group. %
     % Please cite the following two papers that made this development      %
     % possible and the two reviews that describe the various versions:     %
     %                                                                      %
     %   T. Thonhauser et al., PRL 115, 136402 (2015).                      %
     %   T. Thonhauser et al., PRB 76, 125112 (2007).                       %
     %   K. Berland et al., Rep. Prog. Phys. 78, 066501 (2015).             %
     %   D.C. Langreth et al., J. Phys.: Condens. Matter 21, 084203 (2009). %
     %                                                                      %
     %                                                                      %
     % If you are calculating the stress with vdW-DF, please also cite:     %
     %                                                                      %
     %   R. Sabatini et al., J. Phys.: Condens. Matter 24, 424209 (2012).   %
     %                                                                      %
     %%%%%%%%%%%%%%%%%%%%%%%%%%%%%%%%%%%%%%%%%%%%%%%%%%%%%%%%%%%%%%%%%%%%%%%%

     Adding external electric field

     Computed dipole along edir(3) :
        Dipole              -10.5729 Ry au,        -26.8736 Debye
        Dipole field         -0.0200 Ry au,

        Potential amp.        1.8496 Ry
        Total length         46.3494 bohr

     Starting wfcs are  302 atomic wfcs
  @ DRIVER MODE: Message from server: STATUS
  @ DRIVER MODE: Message from server: POSDATA
  @ DRIVER MODE: Reading and sharing cell
  @ DRIVER MODE: Reading and sharing positions
  @ DRIVER MODE: Received positions

     Self-consistent Calculation

     iteration #  1     ecut=    29.40 Ry     beta= 0.05
     Davidson diagonalization with overlap
     c_bands:  3 eigenvalues not converged
     c_bands:  3 eigenvalues not converged
     c_bands:  1 eigenvalues not converged
     c_bands:  5 eigenvalues not converged
     c_bands:  5 eigenvalues not converged
     c_bands:  5 eigenvalues not converged
     c_bands:  1 eigenvalues not converged
     c_bands:  4 eigenvalues not converged
     c_bands:  3 eigenvalues not converged
     ethr =  1.00E-05,  avg # of iterations = 20.0

[...]

     total energy              =   -2442.74838958 Ry
     estimated scf accuracy    <    5591.59197976 Ry

     iteration #  2     ecut=    29.40 Ry     beta= 0.05
     Davidson diagonalization with overlap
     ethr =  1.00E-02,  avg # of iterations = 24.9

[...]

     iteration # 76     ecut=    29.40 Ry     beta= 0.05
     Davidson diagonalization with overlap
     ethr =  3.83E-11,  avg # of iterations =  9.9

[...]

     total energy              =   -2942.82509146 Ry
     estimated scf accuracy    <       0.00000008 Ry

     iteration # 77     ecut=    29.40 Ry     beta= 0.05
     Davidson diagonalization with overlap
     c_bands:  1 eigenvalues not converged
     ethr =  1.89E-11,  avg # of iterations = 13.1

     negative rho (up, down):  1.412E-02 0.000E+00

     Adding external electric field

     Computed dipole along edir(3) :
        Dipole                1.6004 Ry au,          4.0678 Debye
        Dipole field          0.0030 Ry au,

        Potential amp.       -0.2800 Ry
        Total length         46.3494 bohr

     End of self-consistent calculation

          k = 0.0000 0.0000 0.0000 ( 18029 PWs)   bands (ev):

   -55.1446 -55.1080 -55.1057 -55.0716 -55.0269 -55.0118 -54.9887 -54.9459
   -54.9334 -54.9252 -54.9107 -54.9005 -54.8649 -54.7936 -54.1179 -54.0838
   -31.7244 -31.5954 -31.5132 -31.4814 -31.4367 -31.4358 -31.4336 -31.4033
   -31.3993 -31.3957 -31.3690 -31.3542 -31.3506 -31.3222 -31.3044 -31.2792
   -31.2625 -31.2586 -31.2483 -31.2432 -31.2169 -31.2110 -31.2040 -31.1773
   -31.1627 -31.1561 -31.1489 -31.1415 -31.1413 -31.1301 -31.1280 -31.1218
   -31.1048 -31.0960 -31.0902 -31.0639 -31.0612 -31.0491 -31.0422 -31.0362
   -31.0253 -30.9831 -30.5264 -30.4344 -30.4122 -30.3430 -30.2563 -30.1452
   -18.9352 -16.0082 -15.7530 -15.6182 -15.3836 -15.3318 -15.2752 -15.0677
   -15.0662 -14.9938 -14.9790 -14.9309 -14.9114 -14.8442 -14.7595 -14.7382
   -14.6711 -14.6694 -14.6393 -14.6282 -14.6274 -14.5648 -14.5549 -14.5256
   -14.5126 -14.4872 -14.3691 -14.2848 -14.2264 -13.9735 -13.5931 -12.6205
   -12.5034  -9.7448  -7.7175  -7.2141  -5.4546  -3.8091  -3.3456  -3.2707
    -3.1693  -3.1419  -3.0648  -3.0357  -2.8508  -2.8292  -2.4882  -2.4501
    -2.4020  -2.3840  -2.3620  -2.3452  -2.1764  -2.1510  -2.0783  -2.0445
    -2.0262  -1.9861  -1.9699  -1.9597  -1.9259  -1.9202  -1.9113  -1.7041
    -1.6475  -1.5524  -1.5301  -1.5045  -1.4711  -1.4347  -1.4266  -1.4235
    -1.4176  -1.4039  -1.3910  -1.3111  -1.2509  -1.1718  -1.1620  -1.1266
    -1.0229  -0.9762  -0.7748  -0.7613  -0.7158  -0.6738  -0.6109  -0.5894
    -0.5233  -0.4925  -0.4722  -0.3513  -0.3227  -0.2823  -0.2543  -0.1875
    -0.1560  -0.1120  -0.0264   0.0439   0.0789   0.0973   0.1572   0.2873
     0.2983   0.3272   0.3885   0.4518   0.4930   0.5131   0.5316   0.5685
     0.6178   0.7433   0.7883   0.8079   0.8121   0.8461   0.8695   0.9205
     0.9454   1.0048   1.0104   1.1295   1.1987   1.4280   1.4620   1.4847
     1.8169   1.8405   1.9046   2.0906   2.4787   2.5259   3.9600   4.0207
     4.0776   4.0944   4.1132   4.2019   4.2197   4.4228   4.4501   4.4541
     4.4570

[...]

          k = 0.0380-0.0419 0.0000 ( 17876 PWs)   bands (ev):

[...]

          k =-0.0760-0.0000 0.0000 ( 17886 PWs)   bands (ev):

[...]

          k =-0.0760-0.0839 0.0000 ( 17948 PWs)   bands (ev):

   -55.1290 -55.1233 -55.0886 -55.0885 -55.0162 -55.0082 -54.9993 -54.9297
   -54.9285 -54.9257 -54.9181 -54.9167 -54.8611 -54.7973 -54.1009 -54.1007
   -31.5280 -31.5253 -31.4483 -31.4264 -31.4105 -31.4105 -31.3811 -31.3810
   -31.3554 -31.3498 -31.3469 -31.3462 -31.3115 -31.2774 -31.2708 -31.2664
   -31.2650 -31.2610 -31.2590 -31.2528 -31.2217 -31.2179 -31.2155 -31.2127
   -31.2080 -31.2080 -31.1943 -31.1921 -31.1644 -31.1598 -31.1443 -31.1403
   -31.1380 -31.1373 -31.1356 -31.1276 -31.1028 -31.0991 -31.0964 -31.0733
   -31.0479 -31.0306 -30.4250 -30.4248 -30.3391 -30.3389 -30.2997 -30.2996
   -18.9304 -15.5150 -15.4053 -15.2968 -15.2313 -15.1893 -15.1377 -15.1205
   -15.1101 -15.0642 -15.0344 -14.9654 -14.9017 -14.8491 -14.8480 -14.8130
   -14.7348 -14.7210 -14.7140 -14.7033 -14.6469 -14.6402 -14.6087 -14.5878
   -14.5847 -14.5548 -14.4811 -14.4787 -14.3910 -14.1816 -13.6289 -12.6051
   -12.6049  -9.7139  -7.7142  -7.1601  -5.4581  -3.8314  -3.4229  -2.7639
    -2.6529  -2.4422  -2.4162  -2.3565  -2.3359  -2.2501  -2.1898  -2.1684
    -2.1452  -2.1112  -2.1083  -2.0837  -2.0625  -2.0086  -1.9797  -1.9689
    -1.9628  -1.9479  -1.9353  -1.9145  -1.8585  -1.8485  -1.8411  -1.7988
    -1.7878  -1.7560  -1.7498  -1.7110  -1.6941  -1.6181  -1.5254  -1.5008
    -1.4412  -1.3399  -1.3268  -1.3212  -1.2277  -1.2195  -1.1901  -1.1592
    -1.1037  -1.0041  -0.9491  -0.8741  -0.8708  -0.8404  -0.7529  -0.6898
    -0.6559  -0.6460  -0.6063  -0.5494  -0.5264  -0.4935  -0.4104  -0.3691
    -0.3418  -0.3076  -0.2128  -0.1516  -0.1282  -0.0974  -0.0939  -0.0046
     0.0286   0.0654   0.0860   0.1244   0.1509   0.2177   0.2386   0.3484
     0.4185   0.4490   0.5677   0.5916   0.6560   0.7879   0.8591   0.9003
     0.9540   1.0109   1.0377   1.1679   1.1751   1.2002   1.2937   1.3341
     1.3410   1.3540   2.2634   2.2644   2.3460   2.3461   4.0921   4.1789
     4.2220   4.2595   4.3673   4.4765   4.4952   4.5381   4.5385   4.6137
     4.6197

     the Fermi energy is     4.0123 ev

!    total energy              =   -2942.82510501 Ry
     estimated scf accuracy    <       0.00000004 Ry
     smearing contrib. (-TS)   =      -0.03687209 Ry
     internal energy E=F+TS    =   -2942.78823292 Ry

     The total energy is F=E-TS. E is the sum of the following terms:
     one-electron contribution =  -23972.02053900 Ry
     hartree contribution      =   12081.48468879 Ry
     xc contribution           =    -487.76951749 Ry
     ewald contribution        =    9435.51230128 Ry
     electric field correction =       0.00483349 Ry

     convergence has been achieved in  77 iterations

     Forces acting on atoms (cartesian axes, Ry/au):

     atom    1 type  1   force =     0.00014590   -0.00023568    0.09426729
     atom    2 type  1   force =    -0.00009694   -0.00033260   -0.17741271
     atom    3 type  2   force =     0.00005753   -0.00016651   -0.02135488
     atom    4 type  2   force =    -0.00001634   -0.00172510    0.05657162
     atom    5 type  2   force =    -0.01054764   -0.00127295    0.00623188
     atom    6 type  2   force =     0.01221262   -0.00073908    0.00570353
     atom    7 type  1   force =    -0.00033887    0.00172426   -0.01621567
     atom    8 type  1   force =    -0.00010480    0.00438431    0.00560007
     atom    9 type  2   force =     0.00000799   -0.00003779   -0.00004867
     atom   10 type  2   force =    -0.00074393   -0.00021893   -0.00046566
     atom   11 type  2   force =     0.00034850    0.00012278   -0.00021484
     atom   12 type  2   force =    -0.00052788    0.00000226   -0.00014769
     atom   13 type  1   force =     0.00002480   -0.00033478    0.00020773
     atom   14 type  1   force =     0.00056733    0.00011482   -0.00027965
     atom   15 type  2   force =    -0.00039817    0.00025362   -0.00025868
     atom   16 type  2   force =    -0.00033362    0.00019784   -0.00009681
     atom   17 type  2   force =    -0.00025270    0.00007076    0.00031901
     atom   18 type  2   force =     0.00021672    0.00028301   -0.00024831
     atom   19 type  1   force =     0.00015250    0.00007550    0.00021006
     atom   20 type  1   force =     0.00012502    0.00038575   -0.00014751
     atom   21 type  2   force =     0.00003564    0.00004012    0.10364690
     atom   22 type  2   force =    -0.00004621   -0.00070906   -0.00061251
     atom   23 type  2   force =    -0.07083108   -0.00010028   -0.02719569
     atom   24 type  2   force =     0.07069669    0.00033763   -0.02722806
     atom   25 type  1   force =    -0.00008962   -0.00020915    0.09373691
     atom   26 type  1   force =    -0.00013632   -0.00031440   -0.17731657
     atom   27 type  2   force =     0.00008876   -0.00034964   -0.02046591
     atom   28 type  2   force =     0.00003181   -0.00144116    0.05588423
     atom   29 type  2   force =    -0.01090830   -0.00073437    0.00608148
     atom   30 type  2   force =     0.01246044   -0.00029203    0.00556031
     atom   31 type  1   force =    -0.00016117    0.00465150   -0.01719224
     atom   32 type  1   force =    -0.00003046   -0.00482659    0.00560130
     atom   33 type  2   force =     0.00005900    0.00011928    0.00026192
     atom   34 type  2   force =     0.00005834   -0.00084985   -0.00298732
     atom   35 type  2   force =     0.00023442    0.00003210    0.00005494
     atom   36 type  2   force =    -0.00043331    0.00015634   -0.00008722
     atom   37 type  1   force =    -0.00013038   -0.00011716   -0.00007577
     atom   38 type  1   force =     0.00044701   -0.00028544    0.00042431
     atom   39 type  2   force =    -0.00045284    0.00011638    0.00064785
     atom   40 type  2   force =    -0.00012025    0.00018884   -0.00024245
     atom   41 type  2   force =    -0.00000396    0.00034977    0.00001325
     atom   42 type  2   force =     0.00000095    0.00023714   -0.00013452
     atom   43 type  1   force =    -0.00042376    0.00056018    0.00013734
     atom   44 type  1   force =    -0.00021590    0.00033414   -0.00003853
     atom   45 type  2   force =     0.00002557    0.00000629    0.10365689
     atom   46 type  2   force =    -0.07083458   -0.00004126   -0.02719341
     atom   47 type  2   force =     0.07069931    0.00037908   -0.02719705
     atom   48 type  3   force =     0.00074785   -0.00009286    0.00071188
     atom   49 type  4   force =     0.00171618    0.00119326   -0.00014762
     atom   50 type  5   force =    -0.00212983   -0.00129165   -0.00071117
     atom   51 type  5   force =    -0.00020346    0.00005758    0.00008819
     atom   52 type  5   force =    -0.00054575   -0.00089060   -0.00018498
     atom   53 type  3   force =     0.00010052    0.00102045    0.00119341
     atom   54 type  5   force =     0.00013256    0.00002352   -0.00020406
     atom   55 type  5   force =    -0.00002376    0.00005470   -0.00056018
     atom   56 type  5   force =    -0.00031214    0.00013569   -0.00014598

     Total force =     0.365609     Total SCF correction =     0.000750
  @ DRIVER MODE: Message from server: STATUS
  @ DRIVER MODE: Message from server: GETFORCE
  @ DRIVER MODE: Returning v,forces,stress,ensemble

     Writing output data file ./calc.save/
  @ DRIVER MODE: Message from server: EXIT
  @ DRIVE MODE: Exiting

     General routines

     Parallel routines

   This run was terminated on:  16:17:43   2Aug2021

   JOB DONE.