     Program PWSCF v.6.7GPU starts on  9Sep2021 at  5:31:24

     R & G space division:  proc/nbgrp/npool/nimage =      10
     Reading input from /storage/home/hcoda1/3/ntian30/research/carbon/CxH_vib/CH2_calc/ads_slab/CH2N2_b/out_0022/pw.inp
Warning: card &CELL ignored
Warning: card   CELL_DYNAMICS='IPI', ignored
Warning: card / ignored

     Current dimensions of program PWSCF are:
     Max number of different atomic species (ntypx) = 10
     Max number of k-points (npk) =  40000
     Max angular momentum in pseudopotentials (lmaxx) =  3
     Presently no symmetry can be used with electric field

     Message from routine cell_base_init:
     DEPRECATED: use true lattice parameter, not A to a.u. conversion factor

     IMPORTANT: XC functional enforced from input :
     Exchange-correlation= BEEF-VDW
                           (   1   4  43  14   2   0   0)
     Any further DFT definition will be discarded
     Please, verify this is what you really want

  @ DRIVER MODE: Connecting to
 qe_1139763_2767386.sched-torque.pace.gatech.eduoh1r1359_scratch
  using UNIX socket
  @ DRIVER MODE: Message from server: STATUS
  @ DRIVER MODE: Message from server: INIT
  @ DRIVER MODE: Receiving replica           0          -1
  @ DRIVER MODE: Receiving encoded integer          25
  @ DRIVER MODE:  SCF:  T  FORCE:  T  STRESS:  F  VC:  F  ENSEMBLE:  F
  @ DRIVER MODE:  SCF:  T  FORCE:  T  STRESS:  F  VC:  F  ENSEMBLE:  F

     Using Slab Decomposition

     bravais-lattice index     =            0
     lattice parameter (alat)  =       1.8897  a.u.
     unit-cell volume          =    6658.9804 (a.u.)^3
     number of atoms/cell      =           52
     number of atomic types    =            5
     number of electrons       =       394.00
     number of Kohn-Sham states=          207
     kinetic-energy cutoff     =      29.3995  Ry
     charge density cutoff     =     293.9946  Ry
     scf convergence threshold =      7.3E-08
     mixing beta               =       0.0500
     number of iterations used =            8  plain     mixing
     Exchange-correlation= BEEF-VDW
                           (   1   4  43  14   2   0   0)

     celldm(1)=   1.889726  celldm(2)=   0.000000  celldm(3)=   0.000000
     celldm(4)=   0.000000  celldm(5)=   0.000000  celldm(6)=   0.000000

     crystal axes: (cart. coord. in units of alat)
               a(1) = (   6.579727   0.000000   0.000000 )
               a(2) = (  -0.000775   5.961596   0.000000 )
               a(3) = (   0.000000   0.000000  25.155947 )

     reciprocal axes: (cart. coord. in units 2 pi/alat)
               b(1) = (  0.151982  0.000020  0.000000 )
               b(2) = (  0.000000  0.167740  0.000000 )
               b(3) = (  0.000000  0.000000  0.039752 )

     PseudoPot. # 1 for Ti read from file:
     /storage/coda1/p-amedford6/0/shared/rich_project_chbe-medford/medford-share/data/pseudos_module/espresso/nninc/pbe/van/Ti.UPF
     MD5 check sum: 8e4df49b7f0d34bbd5052bf3f5ea0213
     Pseudo is Ultrasoft, Zval = 12.0
     Generated by new atomic code, or converted to UPF format
     Using radial grid of  851 points,  6 beta functions with:
                l(1) =   0
                l(2) =   0
                l(3) =   1
                l(4) =   1
                l(5) =   2
                l(6) =   2
     Q(r) pseudized with  8 coefficients,  rinner =    1.000   1.000   1.000
                                                       1.000   1.000

     PseudoPot. # 2 for O  read from file:
     /storage/coda1/p-amedford6/0/shared/rich_project_chbe-medford/medford-share/data/pseudos_module/espresso/nninc/pbe/van/O.UPF
     MD5 check sum: 78c19812648e8988a0fe644b0f25305e
     Pseudo is Ultrasoft, Zval =  6.0
     Generated by new atomic code, or converted to UPF format
     Using radial grid of  737 points,  4 beta functions with:
                l(1) =   0
                l(2) =   0
                l(3) =   1
                l(4) =   1
     Q(r) pseudized with  8 coefficients,  rinner =    0.800   0.800   0.800

     PseudoPot. # 3 for N  read from file:
     /storage/coda1/p-amedford6/0/shared/rich_project_chbe-medford/medford-share/data/pseudos_module/espresso/nninc/pbe/van/N.UPF
     MD5 check sum: 90d10febe142ad51ac9d5be1deb811c4
     Pseudo is Ultrasoft, Zval =  5.0
     Generated by new atomic code, or converted to UPF format
     Using radial grid of  729 points,  4 beta functions with:
                l(1) =   0
                l(2) =   0
                l(3) =   1
                l(4) =   1
     Q(r) pseudized with  8 coefficients,  rinner =    0.800   0.800   0.800

     PseudoPot. # 4 for C  read from file:
     /storage/coda1/p-amedford6/0/shared/rich_project_chbe-medford/medford-share/data/pseudos_module/espresso/nninc/pbe/van/C.UPF
     MD5 check sum: 1a69bf6b8db32088f5b2163dbdb77a27
     Pseudo is Ultrasoft, Zval =  4.0
     Generated by new atomic code, or converted to UPF format
     Using radial grid of  721 points,  4 beta functions with:
                l(1) =   0
                l(2) =   0
                l(3) =   1
                l(4) =   1
     Q(r) pseudized with  8 coefficients,  rinner =    0.800   0.800   0.800

     PseudoPot. # 5 for H  read from file:
     /storage/coda1/p-amedford6/0/shared/rich_project_chbe-medford/medford-share/data/pseudos_module/espresso/nninc/pbe/van/H.UPF
     MD5 check sum: b5ee9d7bfd3a09ee7748110bda690ff7
     Pseudo is Ultrasoft, Zval =  1.0
     Generated by new atomic code, or converted to UPF format
     Using radial grid of  615 points,  1 beta functions with:
                l(1) =   0
     Q(r) pseudized with  8 coefficients,  rinner =    0.800

     atomic species   valence    mass     pseudopotential
        Ti1           12.00    47.86700     Ti( 1.00)
        O1             6.00    15.99900     O ( 1.00)
        N1             5.00    14.00700     N ( 1.00)
        C1             4.00    12.01100     C ( 1.00)
        H1             1.00     1.00800     H ( 1.00)

     No symmetry found

   Cartesian axes

     site n.     atom                  positions (alat units)
         1           Ti1 tau(   1) = (   0.0004258   2.9801865   6.0000000  )
         2           Ti1 tau(   2) = (   3.2906075   1.4906267   6.0002472  )
         3           O1  tau(   3) = (   0.0006271   0.0005054   7.9858123  )
         4           O1  tau(   4) = (   3.2906025   0.0005020   7.3038282  )
         5           O1  tau(   5) = (   4.5942328   1.4918067   9.2879030  )
         6           O1  tau(   6) = (   1.9868534   1.4903216   9.2879459  )
         7           Ti1 tau(   7) = (   3.2907910   2.8959150   9.1758416  )
         8           Ti1 tau(   8) = (   0.0015273   1.4827037   9.2680791  )
         9           O1  tau(   9) = (   3.2944872   5.9444814  11.3088555  )
        10           O1  tau(  10) = (   0.0116148   5.9584955  10.6183126  )
        11           O1  tau(  11) = (   1.2913257   1.4757505  12.6225222  )
        12           O1  tau(  12) = (   5.2743172   1.4729811  12.6021195  )
        13           Ti1 tau(  13) = (   0.0890023   2.9564894  12.7220187  )
        14           Ti1 tau(  14) = (   3.4221593   1.4702301  12.4648352  )
        15           O1  tau(  15) = (   0.0068176   5.9411714  14.5947238  )
        16           O1  tau(  16) = (   3.2944910   5.9492763  13.8828731  )
        17           O1  tau(  17) = (   4.5250581   1.4982466  16.0456249  )
        18           O1  tau(  18) = (   2.0665045   1.4881935  16.0281199  )
        19           Ti1 tau(  19) = (   3.2778778   2.9684174  15.6871799  )
        20           Ti1 tau(  20) = (   6.5490154   1.5309925  16.0314916  )
        21           O1  tau(  21) = (   3.2904802   0.0005063   4.7018136  )
        22           O1  tau(  22) = (   0.0123181   0.0076990  17.1679072  )
        23           O1  tau(  23) = (   1.3043587   1.4918075   6.0039043  )
        24           O1  tau(  24) = (   5.2767064   1.4903225   6.0039473  )
        25           Ti1 tau(  25) = (   0.0000382   5.9609847   6.0000000  )
        26           Ti1 tau(  26) = (   3.2902200   4.4714249   6.0002472  )
        27           O1  tau(  27) = (   0.0002396   2.9813036   7.9858123  )
        28           O1  tau(  28) = (   3.2902150   2.9813002   7.3038282  )
        29           O1  tau(  29) = (   4.5938453   4.4726049   9.2879030  )
        30           O1  tau(  30) = (   1.9864658   4.4711199   9.2879459  )
        31           Ti1 tau(  31) = (   3.2891106   5.8743827   9.1763621  )
        32           Ti1 tau(  32) = (   0.0006254   4.4649316   9.2693709  )
        33           O1  tau(  33) = (   3.2980042   2.9668427  11.3079272  )
        34           O1  tau(  34) = (   0.0092240   2.9805883  10.6323155  )
        35           O1  tau(  35) = (   1.2899229   4.4488879  12.6271902  )
        36           O1  tau(  36) = (   5.2743549   4.4545148  12.6090941  )
        37           Ti1 tau(  37) = (   0.1039690   5.9375691  12.6739196  )
        38           Ti1 tau(  38) = (   3.4213609   4.4493060  12.4702176  )
        39           O1  tau(  39) = (   6.5648181   2.9459624  14.6378081  )
        40           O1  tau(  40) = (   3.2943236   2.9658899  13.8785053  )
        41           O1  tau(  41) = (   4.5287159   4.4634493  16.0515226  )
        42           O1  tau(  42) = (   2.0597896   4.4749507  16.0164256  )
        43           Ti1 tau(  43) = (   3.2714021   5.9517381  15.6902239  )
        44           Ti1 tau(  44) = (   6.5616293   4.5902425  16.0297769  )
        45           O1  tau(  45) = (   3.2900926   2.9813045   4.7018136  )
        46           O1  tau(  46) = (   1.3039711   4.4726057   6.0039043  )
        47           O1  tau(  47) = (   5.2763189   4.4711207   6.0039473  )
        48           N1  tau(  48) = (   0.6459789   3.0609845  18.5091170  )
        49           N1  tau(  49) = (   0.0956274   2.9759187  17.3381616  )
        50           C1  tau(  50) = (   0.0579326   3.2697647  19.6266723  )
        51           H1  tau(  51) = (   5.5568954   3.3936083  19.7010695  )
        52           H1  tau(  52) = (   0.6727643   3.3288843  20.5134281  )

     number of k points=    10  Fermi-Dirac smearing, width (Ry)=  0.0073
                       cart. coord. in units 2pi/alat
        k(    1) = (   0.0000000   0.0000000   0.0000000), wk =   0.1250000
        k(    2) = (   0.0000000   0.0419351   0.0000000), wk =   0.2500000
        k(    3) = (   0.0000000  -0.0838702   0.0000000), wk =   0.1250000
        k(    4) = (   0.0379955   0.0000049   0.0000000), wk =   0.2500000
        k(    5) = (   0.0379955   0.0419400   0.0000000), wk =   0.2500000
        k(    6) = (   0.0379955  -0.0838652   0.0000000), wk =   0.2500000
        k(    7) = (   0.0379955  -0.0419301   0.0000000), wk =   0.2500000
        k(    8) = (  -0.0759910  -0.0000099   0.0000000), wk =   0.1250000
        k(    9) = (  -0.0759910   0.0419252   0.0000000), wk =   0.2500000
        k(   10) = (  -0.0759910  -0.0838800   0.0000000), wk =   0.1250000

     Initial potential from superposition of free atoms

     starting charge  377.99917, renormalised to  394.00000

     negative rho (up, down):  1.508E-02 0.000E+00

     %%%%%%%%%%%%%%%%%%%%%%%%%%%%%%%%%%%%%%%%%%%%%%%%%%%%%%%%%%%%%%%%%%%%%%%%
     %                                                                      %
     % You are using vdW-DF, which was implemented by the Thonhauser group. %
     % Please cite the following two papers that made this development      %
     % possible and the two reviews that describe the various versions:     %
     %                                                                      %
     %   T. Thonhauser et al., PRL 115, 136402 (2015).                      %
     %   T. Thonhauser et al., PRB 76, 125112 (2007).                       %
     %   K. Berland et al., Rep. Prog. Phys. 78, 066501 (2015).             %
     %   D.C. Langreth et al., J. Phys.: Condens. Matter 21, 084203 (2009). %
     %                                                                      %
     %                                                                      %
     % If you are calculating the stress with vdW-DF, please also cite:     %
     %                                                                      %
     %   R. Sabatini et al., J. Phys.: Condens. Matter 24, 424209 (2012).   %
     %                                                                      %
     %%%%%%%%%%%%%%%%%%%%%%%%%%%%%%%%%%%%%%%%%%%%%%%%%%%%%%%%%%%%%%%%%%%%%%%%

     Adding external electric field

     Computed dipole along edir(3) :
        Dipole               -7.6437 Ry au,        -19.4284 Debye
        Dipole field         -0.0144 Ry au,

        Potential amp.        1.3372 Ry
        Total length         46.3494 bohr

     Starting wfcs are  298 atomic wfcs
  @ DRIVER MODE: Message from server: STATUS
  @ DRIVER MODE: Message from server: POSDATA
  @ DRIVER MODE: Reading and sharing cell
  @ DRIVER MODE: Reading and sharing positions
  @ DRIVER MODE: Received positions

     Self-consistent Calculation

     iteration #  1     ecut=    29.40 Ry     beta= 0.05
     Davidson diagonalization with overlap
     c_bands:  1 eigenvalues not converged
     c_bands:  1 eigenvalues not converged
     c_bands:  1 eigenvalues not converged
     c_bands:  1 eigenvalues not converged
     c_bands:  1 eigenvalues not converged
     c_bands:  1 eigenvalues not converged
     ethr =  1.00E-05,  avg # of iterations = 18.6

[...]

     total energy              =   -2699.58464937 Ry
     estimated scf accuracy    <    2638.56719641 Ry

[...]

     iteration #  3     ecut=    29.40 Ry     beta= 0.05
     Davidson diagonalization with overlap
     ethr =  1.00E-02,  avg # of iterations = 15.7

[...]

     iteration # 46     ecut=    29.40 Ry     beta= 0.05
     Davidson diagonalization with overlap
     c_bands:  2 eigenvalues not converged
     ethr =  1.65E-06,  avg # of iterations = 10.7

[...]

     total energy              =   -2937.89155633 Ry
     estimated scf accuracy    <       0.00000012 Ry

     iteration # 73     ecut=    29.40 Ry     beta= 0.05
     Davidson diagonalization with overlap
     ethr =  2.98E-11,  avg # of iterations =  6.3

     negative rho (up, down):  1.607E-02 0.000E+00

     Adding external electric field

     Computed dipole along edir(3) :
        Dipole                0.5198 Ry au,          1.3211 Debye
        Dipole field          0.0010 Ry au,

        Potential amp.       -0.0909 Ry
        Total length         46.3494 bohr

     End of self-consistent calculation

          k = 0.0000 0.0000 0.0000 ( 18029 PWs)   bands (ev):

   -56.3155 -56.2817 -55.8956 -55.8931 -55.8596 -55.8591 -55.8303 -55.7965
   -55.6779 -55.6690 -55.6383 -55.6325 -55.1635 -55.1362 -55.1295 -55.0596
   -32.7715 -32.6076 -32.5804 -32.4744 -32.4369 -32.3950 -32.3812 -32.3580
   -32.3166 -32.1936 -32.1803 -32.1503 -32.1411 -32.1183 -32.1082 -32.0776
   -32.0623 -32.0614 -32.0584 -32.0314 -32.0271 -32.0234 -32.0215 -32.0088
   -31.9960 -31.9930 -31.9822 -31.9405 -31.9122 -31.9080 -31.8438 -31.8299
   -31.8144 -31.8024 -31.7878 -31.7421 -31.6622 -31.5653 -31.4904 -31.4671
   -31.3894 -31.3825 -31.3469 -31.3136 -31.2969 -31.2619 -31.1866 -31.1859
   -17.7315 -16.6876 -16.5311 -16.2526 -16.0268 -15.9996 -15.8629 -15.8297
   -15.8057 -15.7778 -15.6574 -15.6172 -15.5796 -15.4628 -15.4198 -15.4076
   -15.3900 -15.3709 -15.3649 -15.2761 -15.2525 -15.2356 -15.1840 -15.0895
   -15.0581 -15.0168 -14.8753 -14.8582 -14.7618 -14.5009 -13.6645 -13.5506
   -11.9287  -6.6340  -4.6173  -4.1558  -4.0827  -4.0188  -3.8661  -3.7829
    -3.5957  -3.5621  -3.4682  -3.2406  -3.1550  -3.1463  -3.0705  -3.0457
    -3.0353  -2.9434  -2.8764  -2.8450  -2.8226  -2.8007  -2.7431  -2.6653
    -2.6193  -2.5863  -2.5676  -2.5343  -2.4286  -2.3726  -2.3572  -2.3335
    -2.2736  -2.2593  -2.2357  -2.2312  -2.1951  -2.1827  -2.1027  -2.0689
    -1.9460  -1.8724  -1.7487  -1.7417  -1.6697  -1.6512  -1.6264  -1.4277
    -1.4030  -1.3285  -1.2933  -1.2375  -1.2110  -1.1576  -1.0953  -1.0617
    -0.9644  -0.9372  -0.9067  -0.8719  -0.8497  -0.8197  -0.8001  -0.7406
    -0.6927  -0.5174  -0.4762  -0.4415  -0.3467  -0.3317  -0.3018  -0.2635
    -0.2495  -0.1968  -0.1911  -0.1774  -0.1190  -0.1046  -0.0198   0.0472
     0.0533   0.1031   0.1773   0.2394   0.2758   0.3935   0.4422   0.5099
     0.6051   0.6133   0.6742   0.8241   0.8384   0.8581   0.8624   1.0704
     1.3184   1.4201   1.4620   1.5668   2.7682   2.9052   3.0142   3.2103
     3.3268   3.3458   3.5225   3.6630   3.7002   3.7565   3.7643

[...]

          k = 0.0380-0.0419 0.0000 ( 17876 PWs)   bands (ev):

[...]

          k =-0.0760-0.0000 0.0000 ( 17886 PWs)   bands (ev):

[...]

          k =-0.0760-0.0839 0.0000 ( 17948 PWs)   bands (ev):

   -56.2987 -56.2983 -55.8799 -55.8785 -55.8751 -55.8733 -55.8143 -55.8125
   -55.6673 -55.6566 -55.6487 -55.6448 -55.1465 -55.1464 -55.1321 -55.0637
   -32.5934 -32.5929 -32.5873 -32.5871 -32.4261 -32.4256 -32.2438 -32.2399
   -32.1835 -32.1779 -32.1550 -32.1529 -32.1364 -32.1334 -32.0933 -32.0895
   -32.0680 -32.0622 -32.0558 -32.0534 -32.0424 -32.0409 -32.0274 -32.0264
   -32.0153 -32.0021 -31.9817 -31.9728 -31.9468 -31.9360 -31.8872 -31.8808
   -31.8732 -31.8479 -31.8161 -31.8124 -31.5512 -31.4800 -31.4799 -31.4062
   -31.3790 -31.3788 -31.3583 -31.3420 -31.3398 -31.3397 -31.2694 -31.2442
   -17.7255 -16.0474 -16.0451 -16.0410 -16.0347 -15.9167 -15.9146 -15.7576
   -15.7556 -15.7299 -15.7245 -15.5789 -15.5555 -15.5143 -15.5134 -15.4734
   -15.4635 -15.3945 -15.3917 -15.3829 -15.3771 -15.3620 -15.3575 -15.3127
   -15.2714 -15.0333 -14.9603 -14.9007 -14.7857 -14.6912 -13.6531 -13.6530
   -11.9329  -6.6284  -4.5567  -4.0777  -3.3376  -3.3329  -3.1697  -3.1520
    -3.0978  -3.0965  -3.0153  -2.9726  -2.9714  -2.8561  -2.8339  -2.7928
    -2.7893  -2.7753  -2.7727  -2.7389  -2.7329  -2.7111  -2.7046  -2.6489
    -2.6341  -2.6272  -2.6222  -2.5490  -2.5048  -2.4770  -2.4440  -2.4105
    -2.3810  -2.2905  -2.2869  -2.2495  -2.2277  -2.1690  -2.1653  -2.1115
    -2.0761  -2.0088  -1.9993  -1.7874  -1.7415  -1.7322  -1.6812  -1.5953
    -1.5729  -1.4279  -1.3966  -1.3348  -1.3216  -1.2722  -1.2540  -1.2454
    -1.1584  -1.1507  -1.1419  -1.0655  -1.0577  -0.9964  -0.9601  -0.9274
    -0.8433  -0.8291  -0.7903  -0.7873  -0.7775  -0.7098  -0.6632  -0.5913
    -0.5431  -0.5297  -0.4109  -0.3617  -0.2964  -0.2318  -0.1896  -0.0847
    -0.0431  -0.0335   0.1761   0.1867   0.2319   0.3224   0.4432   0.4442
     0.4827   0.5742   0.5960   0.6217   0.6385   0.8357   0.9090   1.2378
     1.2389   1.2787   1.2792   1.5309   2.7272   3.4297   3.4306   3.4557
     3.4562   3.5930   3.6167   3.6531   3.6622   3.7452   3.7491

     the Fermi energy is     2.8545 ev

!    total energy              =   -2937.89157024 Ry
     estimated scf accuracy    <       0.00000002 Ry
     smearing contrib. (-TS)   =      -0.01395342 Ry
     internal energy E=F+TS    =   -2937.87761682 Ry

     The total energy is F=E-TS. E is the sum of the following terms:
     one-electron contribution =  -24293.95911637 Ry
     hartree contribution      =   12233.31485048 Ry
     xc contribution           =    -484.31293214 Ry
     ewald contribution        =    9607.07907137 Ry
     electric field correction =       0.00050984 Ry

     convergence has been achieved in  73 iterations

     Forces acting on atoms (cartesian axes, Ry/au):

     atom    1 type  1   force =     0.00011021   -0.00020952    0.10744312
     atom    2 type  1   force =    -0.00012157   -0.00062178   -0.16927831
     atom    3 type  2   force =    -0.00016022    0.00000505   -0.04193247
     atom    4 type  2   force =     0.00005551   -0.00093564    0.04203604
     atom    5 type  2   force =    -0.01491486    0.00022103   -0.00302127
     atom    6 type  2   force =     0.01654977    0.00103643   -0.00399690
     atom    7 type  1   force =    -0.00113342   -0.00212976    0.00241164
     atom    8 type  1   force =     0.00131764    0.00452796    0.07559274
     atom    9 type  2   force =     0.00004229    0.00010857    0.00043291
     atom   10 type  2   force =    -0.00132201    0.00009913   -0.04724028
     atom   11 type  2   force =    -0.00048088    0.00031606    0.00023432
     atom   12 type  2   force =    -0.00007507    0.00050051    0.00013941
     atom   13 type  1   force =     0.00045096   -0.00041521    0.00072727
     atom   14 type  1   force =    -0.00014529   -0.00011949   -0.00006071
     atom   15 type  2   force =    -0.00022751   -0.00018845    0.00016770
     atom   16 type  2   force =     0.00019618    0.00024181   -0.00017622
     atom   17 type  2   force =     0.00012512    0.00049286    0.00029329
     atom   18 type  2   force =    -0.00040909   -0.00004962   -0.00031083
     atom   19 type  1   force =     0.00018570    0.00076482   -0.00022942
     atom   20 type  1   force =     0.00013557    0.00012674    0.00013889
     atom   21 type  2   force =     0.00006972    0.00003749    0.10165039
     atom   22 type  2   force =    -0.00042982    0.00040945    0.00009553
     atom   23 type  2   force =    -0.07421364   -0.00003371   -0.02982031
     atom   24 type  2   force =     0.07417046    0.00041890   -0.02982366
     atom   25 type  1   force =     0.00025536   -0.00034956    0.10693197
     atom   26 type  1   force =    -0.00002845   -0.00037568   -0.16935887
     atom   27 type  2   force =    -0.00004133   -0.00029204   -0.04087513
     atom   28 type  2   force =     0.00011016   -0.00073651    0.04200593
     atom   29 type  2   force =    -0.01521886    0.00063779   -0.00331078
     atom   30 type  2   force =     0.01678277    0.00101202   -0.00428124
     atom   31 type  1   force =    -0.00133514    0.00037791    0.00216896
     atom   32 type  1   force =     0.00130764   -0.00711822    0.07621865
     atom   33 type  2   force =    -0.00004906    0.00017068    0.00015878
     atom   34 type  2   force =    -0.00146227   -0.00007939   -0.05554712
     atom   35 type  2   force =    -0.00000179    0.00006049    0.00011674
     atom   36 type  2   force =    -0.00002875    0.00022259   -0.00014679
     atom   37 type  1   force =     0.00022383    0.00028836    0.00042136
     atom   38 type  1   force =     0.00011008    0.00022682   -0.00031110
     atom   39 type  2   force =    -0.00022055   -0.00003391   -0.00066710
     atom   40 type  2   force =     0.00007929    0.00026837    0.00014894
     atom   41 type  2   force =    -0.00042173    0.00024024   -0.00043558
     atom   42 type  2   force =     0.00019107    0.00022390    0.00022187
     atom   43 type  1   force =    -0.00012895    0.00062112    0.00025119
     atom   44 type  1   force =    -0.00018894    0.00016167   -0.00005902
     atom   45 type  2   force =     0.00006126    0.00000074    0.10166996
     atom   46 type  2   force =    -0.07420321    0.00001397   -0.02979066
     atom   47 type  2   force =     0.07415808    0.00044579   -0.02981169
     atom   48 type  3   force =     0.00019126    0.00000573    0.00018260
     atom   49 type  3   force =     0.00018335    0.00007447   -0.00112454
     atom   50 type  4   force =    -0.00068097    0.00018721    0.00088848
     atom   51 type  5   force =     0.00145607   -0.00052343   -0.00080925
     atom   52 type  5   force =    -0.00087598   -0.00033474   -0.00032943

     Total force =     0.389275     Total SCF correction =     0.000468
  @ DRIVER MODE: Message from server: STATUS
  @ DRIVER MODE: Message from server: GETFORCE
  @ DRIVER MODE: Returning v,forces,stress,ensemble

     Writing output data file ./calc.save/
  @ DRIVER MODE: Message from server: EXIT
  @ DRIVE MODE: Exiting

     General routines

     Parallel routines

   This run was terminated on:   5:51:39   9Sep2021

   JOB DONE.