     Program PWSCF v.6.7GPU starts on 24Aug2021 at 20:38:20

     R & G space division:  proc/nbgrp/npool/nimage =      72
     Reading input from /storage/home/hcoda1/3/ntian30/research/carbon/CH2_vib/ads_slab/CH2NHHH_a/out_0028/pw.inp
Warning: card &CELL ignored
Warning: card   CELL_DYNAMICS='IPI', ignored
Warning: card / ignored

     Current dimensions of program PWSCF are:
     Max number of different atomic species (ntypx) = 10
     Max number of k-points (npk) =  40000
     Max angular momentum in pseudopotentials (lmaxx) =  3
     Presently no symmetry can be used with electric field

     Message from routine cell_base_init:
     DEPRECATED: use true lattice parameter, not A to a.u. conversion factor

     IMPORTANT: XC functional enforced from input :
     Exchange-correlation= BEEF-VDW
                           (   1   4  43  14   2   0   0)
     Any further DFT definition will be discarded
     Please, verify this is what you really want

  @ DRIVER MODE: Connecting to
 qe_1139763_2641440.sched-torque.pace.gatech.eduyu2h43tp_scratch
  using UNIX socket
  @ DRIVER MODE: Message from server: STATUS
  @ DRIVER MODE: Message from server: INIT
  @ DRIVER MODE: Receiving replica           0          -1
  @ DRIVER MODE: Receiving encoded integer          25
  @ DRIVER MODE:  SCF:  T  FORCE:  T  STRESS:  F  VC:  F  ENSEMBLE:  F
  @ DRIVER MODE:  SCF:  T  FORCE:  T  STRESS:  F  VC:  F  ENSEMBLE:  F

     Using Slab Decomposition

     bravais-lattice index     =            0
     lattice parameter (alat)  =       1.8897  a.u.
     unit-cell volume          =    6658.9804 (a.u.)^3
     number of atoms/cell      =           54
     number of atomic types    =            5
     number of electrons       =       392.00
     number of Kohn-Sham states=          206
     kinetic-energy cutoff     =      29.3995  Ry
     charge density cutoff     =     293.9946  Ry
     scf convergence threshold =      7.3E-08
     mixing beta               =       0.0500
     number of iterations used =            8  plain     mixing
     Exchange-correlation= BEEF-VDW
                           (   1   4  43  14   2   0   0)

     celldm(1)=   1.889726  celldm(2)=   0.000000  celldm(3)=   0.000000
     celldm(4)=   0.000000  celldm(5)=   0.000000  celldm(6)=   0.000000

     crystal axes: (cart. coord. in units of alat)
               a(1) = (   6.579727   0.000000   0.000000 )
               a(2) = (  -0.000775   5.961596   0.000000 )
               a(3) = (   0.000000   0.000000  25.155947 )

     reciprocal axes: (cart. coord. in units 2 pi/alat)
               b(1) = (  0.151982  0.000020  0.000000 )
               b(2) = (  0.000000  0.167740  0.000000 )
               b(3) = (  0.000000  0.000000  0.039752 )

     PseudoPot. # 1 for Ti read from file:
     /storage/coda1/p-amedford6/0/shared/rich_project_chbe-medford/medford-share/data/pseudos_module/espresso/nninc/pbe/van/Ti.UPF
     MD5 check sum: 8e4df49b7f0d34bbd5052bf3f5ea0213
     Pseudo is Ultrasoft, Zval = 12.0
     Generated by new atomic code, or converted to UPF format
     Using radial grid of  851 points,  6 beta functions with:
                l(1) =   0
                l(2) =   0
                l(3) =   1
                l(4) =   1
                l(5) =   2
                l(6) =   2
     Q(r) pseudized with  8 coefficients,  rinner =    1.000   1.000   1.000
                                                       1.000   1.000

     PseudoPot. # 2 for O  read from file:
     /storage/coda1/p-amedford6/0/shared/rich_project_chbe-medford/medford-share/data/pseudos_module/espresso/nninc/pbe/van/O.UPF
     MD5 check sum: 78c19812648e8988a0fe644b0f25305e
     Pseudo is Ultrasoft, Zval =  6.0
     Generated by new atomic code, or converted to UPF format
     Using radial grid of  737 points,  4 beta functions with:
                l(1) =   0
                l(2) =   0
                l(3) =   1
                l(4) =   1
     Q(r) pseudized with  8 coefficients,  rinner =    0.800   0.800   0.800

     PseudoPot. # 3 for N  read from file:
     /storage/coda1/p-amedford6/0/shared/rich_project_chbe-medford/medford-share/data/pseudos_module/espresso/nninc/pbe/van/N.UPF
     MD5 check sum: 90d10febe142ad51ac9d5be1deb811c4
     Pseudo is Ultrasoft, Zval =  5.0
     Generated by new atomic code, or converted to UPF format
     Using radial grid of  729 points,  4 beta functions with:
                l(1) =   0
                l(2) =   0
                l(3) =   1
                l(4) =   1
     Q(r) pseudized with  8 coefficients,  rinner =    0.800   0.800   0.800

     PseudoPot. # 4 for C  read from file:
     /storage/coda1/p-amedford6/0/shared/rich_project_chbe-medford/medford-share/data/pseudos_module/espresso/nninc/pbe/van/C.UPF
     MD5 check sum: 1a69bf6b8db32088f5b2163dbdb77a27
     Pseudo is Ultrasoft, Zval =  4.0
     Generated by new atomic code, or converted to UPF format
     Using radial grid of  721 points,  4 beta functions with:
                l(1) =   0
                l(2) =   0
                l(3) =   1
                l(4) =   1
     Q(r) pseudized with  8 coefficients,  rinner =    0.800   0.800   0.800

     PseudoPot. # 5 for H  read from file:
     /storage/coda1/p-amedford6/0/shared/rich_project_chbe-medford/medford-share/data/pseudos_module/espresso/nninc/pbe/van/H.UPF
     MD5 check sum: b5ee9d7bfd3a09ee7748110bda690ff7
     Pseudo is Ultrasoft, Zval =  1.0
     Generated by new atomic code, or converted to UPF format
     Using radial grid of  615 points,  1 beta functions with:
                l(1) =   0
     Q(r) pseudized with  8 coefficients,  rinner =    0.800

     atomic species   valence    mass     pseudopotential
        Ti1           12.00    47.86700     Ti( 1.00)
        O1             6.00    15.99900     O ( 1.00)
        N1             5.00    14.00700     N ( 1.00)
        C1             4.00    12.01100     C ( 1.00)
        H1             1.00     1.00800     H ( 1.00)

     No symmetry found

   Cartesian axes

     site n.     atom                  positions (alat units)
         1           Ti1 tau(   1) = (   0.0004258   2.9801865   6.0000000  )
         2           Ti1 tau(   2) = (   3.2906075   1.4906267   6.0002472  )
         3           O1  tau(   3) = (   0.0006271   0.0005054   7.9858123  )
         4           O1  tau(   4) = (   3.2906025   0.0005020   7.3038282  )
         5           O1  tau(   5) = (   4.5942328   1.4918067   9.2879030  )
         6           O1  tau(   6) = (   1.9868534   1.4903216   9.2879459  )
         7           Ti1 tau(   7) = (   3.2907910   2.8959150   9.1758416  )
         8           Ti1 tau(   8) = (   0.0015273   1.4827037   9.2680791  )
         9           O1  tau(   9) = (   3.2947057   0.0061428  11.3716447  )
        10           O1  tau(  10) = (   0.0116148   5.9584955  10.6183126  )
        11           O1  tau(  11) = (   1.2915649   1.4936813  12.6925814  )
        12           O1  tau(  12) = (   5.2970661   1.4944705  12.6810846  )
        13           Ti1 tau(  13) = (   0.0178387   2.9746902  12.5081746  )
        14           Ti1 tau(  14) = (   3.3154821   1.4870708  12.5273966  )
        15           O1  tau(  15) = (   6.5751158   5.8850184  14.6937530  )
        16           O1  tau(  16) = (   3.3021755   5.9482827  13.9948957  )
        17           O1  tau(  17) = (   4.5403780   1.5298489  16.1548813  )
        18           O1  tau(  18) = (   2.0255877   1.5226301  16.1187562  )
        19           Ti1 tau(  19) = (   3.2919084   3.0021400  15.7465462  )
        20           Ti1 tau(  20) = (   0.0121818   1.3098915  15.8601907  )
        21           O1  tau(  21) = (   3.2904802   0.0005063   4.7018136  )
        22           O1  tau(  22) = (   6.5726150   0.1553292  17.2405045  )
        23           O1  tau(  23) = (   1.3043587   1.4918075   6.0039043  )
        24           O1  tau(  24) = (   5.2767064   1.4903225   6.0039473  )
        25           Ti1 tau(  25) = (   0.0000382   5.9609847   6.0000000  )
        26           Ti1 tau(  26) = (   3.2902200   4.4714249   6.0002472  )
        27           O1  tau(  27) = (   0.0002396   2.9813036   7.9858123  )
        28           O1  tau(  28) = (   3.2902150   2.9813002   7.3038282  )
        29           O1  tau(  29) = (   4.5938453   4.4726049   9.2879030  )
        30           O1  tau(  30) = (   1.9864658   4.4711199   9.2879459  )
        31           Ti1 tau(  31) = (   3.2891106   5.8743827   9.1763621  )
        32           Ti1 tau(  32) = (   0.0006254   4.4649316   9.2693709  )
        33           O1  tau(  33) = (   3.2927311   2.9710310  11.3658552  )
        34           O1  tau(  34) = (   0.0092240   2.9805883  10.6323155  )
        35           O1  tau(  35) = (   1.2954064   4.4636889  12.6531092  )
        36           O1  tau(  36) = (   5.2951753   4.4642890  12.6444158  )
        37           Ti1 tau(  37) = (   0.0208150   5.9452171  12.5004641  )
        38           Ti1 tau(  38) = (   3.3163264   4.4646888  12.5160798  )
        39           O1  tau(  39) = (   6.5606049   3.0383603  14.9590055  )
        40           O1  tau(  40) = (   3.3003749   3.0012653  13.9593002  )
        41           O1  tau(  41) = (   4.5325621   4.4784225  16.2386555  )
        42           O1  tau(  42) = (   2.0180351   4.4745910  16.2101397  )
        43           Ti1 tau(  43) = (   3.2993765   0.0184524  15.7908042  )
        44           Ti1 tau(  44) = (   0.0223033   4.5207704  16.0490861  )
        45           O1  tau(  45) = (   3.2900926   2.9813045   4.7018136  )
        46           O1  tau(  46) = (   1.3039711   4.4726057   6.0039043  )
        47           O1  tau(  47) = (   5.2763189   4.4711207   6.0039473  )
        48           N1  tau(  48) = (   6.4337409   3.4053151  18.1409392  )
        49           C1  tau(  49) = (   1.0285230   3.1422446  19.0018829  )
        50           H1  tau(  50) = (   0.7475518   3.0234394  20.0507379  )
        51           H1  tau(  51) = (   1.7227964   3.9744885  18.9089305  )
        52           H1  tau(  52) = (   5.9280473   4.2250708  18.4935385  )
        53           H1  tau(  53) = (   5.7900178   2.6175148  18.1880975  )
        54           H1  tau(  54) = (   1.5159085   2.2300880  18.6641165  )

     number of k points=    10  Fermi-Dirac smearing, width (Ry)=  0.0073
                       cart. coord. in units 2pi/alat
        k(    1) = (   0.0000000   0.0000000   0.0000000), wk =   0.1250000
        k(    2) = (   0.0000000   0.0419351   0.0000000), wk =   0.2500000
        k(    3) = (   0.0000000  -0.0838702   0.0000000), wk =   0.1250000
        k(    4) = (   0.0379955   0.0000049   0.0000000), wk =   0.2500000
        k(    5) = (   0.0379955   0.0419400   0.0000000), wk =   0.2500000
        k(    6) = (   0.0379955  -0.0838652   0.0000000), wk =   0.2500000
        k(    7) = (   0.0379955  -0.0419301   0.0000000), wk =   0.2500000
        k(    8) = (  -0.0759910  -0.0000099   0.0000000), wk =   0.1250000
        k(    9) = (  -0.0759910   0.0419252   0.0000000), wk =   0.2500000
        k(   10) = (  -0.0759910  -0.0838800   0.0000000), wk =   0.1250000

     Initial potential from superposition of free atoms

     starting charge  375.99915, renormalised to  392.00000

     negative rho (up, down):  1.645E-02 0.000E+00

     %%%%%%%%%%%%%%%%%%%%%%%%%%%%%%%%%%%%%%%%%%%%%%%%%%%%%%%%%%%%%%%%%%%%%%%%
     %                                                                      %
     % You are using vdW-DF, which was implemented by the Thonhauser group. %
     % Please cite the following two papers that made this development      %
     % possible and the two reviews that describe the various versions:     %
     %                                                                      %
     %   T. Thonhauser et al., PRL 115, 136402 (2015).                      %
     %   T. Thonhauser et al., PRB 76, 125112 (2007).                       %
     %   K. Berland et al., Rep. Prog. Phys. 78, 066501 (2015).             %
     %   D.C. Langreth et al., J. Phys.: Condens. Matter 21, 084203 (2009). %
     %                                                                      %
     %                                                                      %
     % If you are calculating the stress with vdW-DF, please also cite:     %
     %                                                                      %
     %   R. Sabatini et al., J. Phys.: Condens. Matter 24, 424209 (2012).   %
     %                                                                      %
     %%%%%%%%%%%%%%%%%%%%%%%%%%%%%%%%%%%%%%%%%%%%%%%%%%%%%%%%%%%%%%%%%%%%%%%%

     Adding external electric field

     Computed dipole along edir(3) :
        Dipole               -7.5123 Ry au,        -19.0944 Debye
        Dipole field         -0.0142 Ry au,

        Potential amp.        1.3142 Ry
        Total length         46.3494 bohr

     Starting wfcs are  297 atomic wfcs
  @ DRIVER MODE: Message from server: STATUS
  @ DRIVER MODE: Message from server: POSDATA
  @ DRIVER MODE: Reading and sharing cell
  @ DRIVER MODE: Reading and sharing positions
  @ DRIVER MODE: Received positions

     Self-consistent Calculation

     iteration #  1     ecut=    29.40 Ry     beta= 0.05
     Davidson diagonalization with overlap
     c_bands:  1 eigenvalues not converged
     c_bands:  1 eigenvalues not converged
     c_bands:  2 eigenvalues not converged
     c_bands:  1 eigenvalues not converged
     c_bands:  1 eigenvalues not converged
     c_bands:  1 eigenvalues not converged
     ethr =  1.00E-05,  avg # of iterations = 19.3

[...]

     total energy              =   -2681.20730568 Ry
     estimated scf accuracy    <    2661.15050428 Ry

[...]

     iteration #  3     ecut=    29.40 Ry     beta= 0.05
     Davidson diagonalization with overlap
     ethr =  1.00E-02,  avg # of iterations = 14.6

[...]

     iteration # 61     ecut=    29.40 Ry     beta= 0.05
     Davidson diagonalization with overlap
     c_bands:  1 eigenvalues not converged
     ethr =  4.05E-10,  avg # of iterations = 14.0

[...]

     total energy              =   -2921.63244704 Ry
     estimated scf accuracy    <       0.00000009 Ry

     iteration # 75     ecut=    29.40 Ry     beta= 0.05
     Davidson diagonalization with overlap
     ethr =  2.39E-11,  avg # of iterations =  3.2

     negative rho (up, down):  1.722E-02 0.000E+00

     Adding external electric field

     Computed dipole along edir(3) :
        Dipole                1.3042 Ry au,          3.3149 Debye
        Dipole field          0.0025 Ry au,

        Potential amp.       -0.2281 Ry
        Total length         46.3494 bohr

     End of self-consistent calculation

          k = 0.0000 0.0000 0.0000 ( 18029 PWs)   bands (ev):

   -55.4321 -55.3950 -55.3822 -55.3573 -55.3481 -55.3146 -55.3096 -55.2752
   -55.2491 -55.2322 -55.2146 -55.2134 -55.1798 -55.1007 -54.4107 -54.3766
   -32.0015 -31.8870 -31.8747 -31.7984 -31.7491 -31.7390 -31.7364 -31.7195
   -31.6743 -31.6711 -31.6424 -31.6403 -31.6271 -31.6201 -31.6022 -31.5951
   -31.5876 -31.5753 -31.5701 -31.5470 -31.5349 -31.5311 -31.5031 -31.4961
   -31.4874 -31.4799 -31.4755 -31.4517 -31.4403 -31.4395 -31.4321 -31.4131
   -31.4124 -31.4062 -31.4002 -31.3970 -31.3632 -31.3538 -31.3418 -31.3248
   -31.3065 -31.2965 -30.8200 -30.7260 -30.7039 -30.6364 -30.5496 -30.4387
   -16.2917 -16.1432 -15.9735 -15.8284 -15.7494 -15.6302 -15.5188 -15.5049
   -15.3644 -15.2827 -15.1670 -15.1422 -15.1128 -15.0906 -15.0823 -15.0652
   -14.9742 -14.9695 -14.9572 -14.9247 -14.9235 -14.8792 -14.8687 -14.8266
   -14.8054 -14.8029 -14.6833 -14.5897 -14.5176 -14.2895 -12.9133 -12.7959
   -10.2011  -6.2960  -4.8008  -3.9493  -3.6108  -3.4526  -3.3696  -3.3346
    -3.3228  -3.1913  -3.0543  -2.9053  -2.8539  -2.8198  -2.7241  -2.6473
    -2.6398  -2.6206  -2.4663  -2.4316  -2.3871  -2.3381  -2.3002  -2.2421
    -2.2215  -2.2129  -2.2005  -2.1832  -2.1746  -2.0571  -2.0009  -1.9172
    -1.8580  -1.8352  -1.7850  -1.7647  -1.7443  -1.7211  -1.7117  -1.6708
    -1.6456  -1.6256  -1.5718  -1.4609  -1.3571  -1.3065  -1.1876  -1.0668
    -1.0296  -1.0176  -0.9650  -0.9376  -0.9170  -0.8594  -0.8082  -0.7786
    -0.7161  -0.6638  -0.6024  -0.5527  -0.4796  -0.4761  -0.4173  -0.3682
    -0.2474  -0.2148  -0.1979  -0.1703  -0.0794  -0.0412   0.0024   0.0826
     0.0937   0.1130   0.2067   0.2173   0.2913   0.3398   0.3563   0.4500
     0.4846   0.4972   0.5017   0.5240   0.5539   0.6038   0.6456   0.6721
     0.7390   0.8654   1.0777   1.1586   1.1825   1.5087   1.5184   1.6120
     1.7958   2.1879   2.2361   3.6658   3.7364   3.8121   3.8184   3.8312
     3.9040   4.1385   4.1622   4.1700   4.1767   4.1974

[...]

          k = 0.0380-0.0419 0.0000 ( 17876 PWs)   bands (ev):

[...]

          k =-0.0760-0.0000 0.0000 ( 17886 PWs)   bands (ev):

[...]

          k =-0.0760-0.0839 0.0000 ( 17948 PWs)   bands (ev):

   -55.4180 -55.4090 -55.3654 -55.3648 -55.3559 -55.3109 -55.2937 -55.2911
   -55.2358 -55.2335 -55.2298 -55.1971 -55.1963 -55.1020 -54.3937 -54.3934
   -31.8086 -31.8044 -31.8014 -31.7188 -31.6931 -31.6900 -31.6896 -31.6566
   -31.6563 -31.6409 -31.6343 -31.6316 -31.6249 -31.6031 -31.5876 -31.5709
   -31.5669 -31.5644 -31.5627 -31.5576 -31.5574 -31.5546 -31.5117 -31.5095
   -31.5067 -31.5028 -31.5003 -31.4870 -31.4852 -31.4847 -31.4828 -31.4666
   -31.4630 -31.4471 -31.4433 -31.4295 -31.4264 -31.4240 -31.3781 -31.3779
   -31.3722 -31.3112 -30.7167 -30.7164 -30.6326 -30.6324 -30.5931 -30.5930
   -16.1038 -15.7825 -15.6965 -15.6406 -15.4651 -15.4373 -15.4232 -15.4035
   -15.2744 -15.2487 -15.2230 -15.2007 -15.1795 -15.1420 -15.1344 -15.1296
   -15.0518 -15.0388 -15.0331 -15.0185 -14.9492 -14.9402 -14.9363 -14.9302
   -14.8798 -14.8761 -14.8330 -14.7823 -14.7791 -14.5660 -12.8975 -12.8973
   -10.2044  -6.2661  -4.7974  -3.9128  -2.9663  -2.9364  -2.8968  -2.8962
    -2.6813  -2.6436  -2.6082  -2.5842  -2.4927  -2.4503  -2.4315  -2.4308
    -2.3564  -2.3361  -2.3246  -2.2730  -2.2680  -2.2562  -2.2326  -2.2005
    -2.1749  -2.1604  -2.1506  -2.1320  -2.0884  -2.0747  -2.0550  -2.0345
    -2.0287  -2.0155  -1.9869  -1.9472  -1.8164  -1.8053  -1.7446  -1.6373
    -1.6323  -1.5572  -1.5465  -1.5013  -1.4882  -1.4638  -1.4287  -1.2497
    -1.2074  -1.1767  -1.1672  -1.1113  -1.0361  -1.0198  -0.9573  -0.9358
    -0.9177  -0.8130  -0.7700  -0.7550  -0.6643  -0.6563  -0.5735  -0.5203
    -0.4627  -0.4373  -0.4001  -0.3868  -0.3848  -0.3369  -0.3313  -0.2474
    -0.2017  -0.1656  -0.1519  -0.1198   0.0791   0.0862   0.1086   0.2541
     0.2733   0.4093   0.4363   0.4876   0.5675   0.6007   0.6810   0.7140
     0.8427   0.8741   0.8767   0.9464   0.9607   1.0228   1.0333   1.9688
     1.9695   2.0560   2.0563   3.8166   3.9082   3.9282   3.9708   4.0840
     4.1578   4.1830   4.2047   4.2517   4.2548   4.3165

     the Fermi energy is     3.7296 ev

!    total energy              =   -2921.63245773 Ry
     estimated scf accuracy    <       0.00000007 Ry
     smearing contrib. (-TS)   =      -0.03703165 Ry
     internal energy E=F+TS    =   -2921.59542608 Ry

     The total energy is F=E-TS. E is the sum of the following terms:
     one-electron contribution =  -24082.10006909 Ry
     hartree contribution      =   12130.18344096 Ry
     xc contribution           =    -481.75427403 Ry
     ewald contribution        =    9512.07226627 Ry
     electric field correction =       0.00320982 Ry

     convergence has been achieved in  75 iterations

     Forces acting on atoms (cartesian axes, Ry/au):

     atom    1 type  1   force =     0.00005472   -0.00024448    0.09320397
     atom    2 type  1   force =    -0.00012818   -0.00044167   -0.17821511
     atom    3 type  2   force =     0.00002161   -0.00040586   -0.02022670
     atom    4 type  2   force =    -0.00001354   -0.00187594    0.05854273
     atom    5 type  2   force =    -0.00994916   -0.00082640    0.00750147
     atom    6 type  2   force =     0.01146857   -0.00027480    0.00679953
     atom    7 type  1   force =    -0.00038914    0.00194719   -0.01462865
     atom    8 type  1   force =     0.00011063   -0.00012458   -0.00501008
     atom    9 type  2   force =    -0.00011741   -0.00005330    0.00000786
     atom   10 type  2   force =    -0.00117946    0.00218923   -0.00032106
     atom   11 type  2   force =    -0.00001055   -0.00019158    0.00007049
     atom   12 type  2   force =     0.00058482   -0.00050871    0.00013052
     atom   13 type  1   force =    -0.00072034    0.00034402   -0.00033905
     atom   14 type  1   force =    -0.00000606   -0.00059747    0.00005584
     atom   15 type  2   force =     0.00003813   -0.00054253   -0.00039973
     atom   16 type  2   force =     0.00023621    0.00060119    0.00049816
     atom   17 type  2   force =     0.00006521   -0.00056471    0.00031689
     atom   18 type  2   force =     0.00016326   -0.00011917    0.00030729
     atom   19 type  1   force =     0.00008137   -0.00032477    0.00180031
     atom   20 type  1   force =    -0.00020324    0.00060483    0.00017216
     atom   21 type  2   force =     0.00001014   -0.00009500    0.10390936
     atom   22 type  2   force =     0.00014840   -0.00014211    0.00064026
     atom   23 type  2   force =    -0.07047330   -0.00018933   -0.02692581
     atom   24 type  2   force =     0.07029517    0.00025291   -0.02696773
     atom   25 type  1   force =    -0.00001190   -0.00016194    0.09270728
     atom   26 type  1   force =    -0.00020683   -0.00049081   -0.17824277
     atom   27 type  2   force =     0.00007415   -0.00024375   -0.01927293
     atom   28 type  2   force =     0.00001692   -0.00165988    0.05789587
     atom   29 type  2   force =    -0.01051920   -0.00097585    0.00820236
     atom   30 type  2   force =     0.01192264   -0.00053236    0.00743008
     atom   31 type  1   force =    -0.00034107    0.00605133   -0.01541906
     atom   32 type  1   force =     0.00011586   -0.00038492   -0.00543026
     atom   33 type  2   force =     0.00030951   -0.00010444   -0.00031780
     atom   34 type  2   force =    -0.00063598   -0.00204737   -0.00050615
     atom   35 type  2   force =    -0.00039716   -0.00002487    0.00024240
     atom   36 type  2   force =     0.00066606   -0.00007417   -0.00003580
     atom   37 type  1   force =    -0.00035798   -0.00023913    0.00026536
     atom   38 type  1   force =     0.00002099    0.00041967   -0.00002030
     atom   39 type  2   force =     0.00022024   -0.00011892    0.00017473
     atom   40 type  2   force =     0.00017284    0.00025887    0.00009841
     atom   41 type  2   force =    -0.00046371    0.00031160   -0.00016497
     atom   42 type  2   force =     0.00047834    0.00087225   -0.00015848
     atom   43 type  1   force =     0.00045230    0.00059573    0.00023143
     atom   44 type  1   force =     0.00053372    0.00029401    0.00019559
     atom   45 type  2   force =     0.00001987   -0.00009864    0.10383012
     atom   46 type  2   force =    -0.07044264   -0.00012171   -0.02686100
     atom   47 type  2   force =     0.07027399    0.00030338   -0.02691581
     atom   48 type  3   force =    -0.00465777    0.00840694    0.00406142
     atom   49 type  4   force =     0.00053671   -0.00070315   -0.00011341
     atom   50 type  5   force =    -0.00048172    0.00019208    0.00046256
     atom   51 type  5   force =    -0.00020051    0.00017820    0.00003883
     atom   52 type  5   force =     0.00441557   -0.01107143   -0.00385725
     atom   53 type  5   force =    -0.00146873    0.00138022    0.00034582
     atom   54 type  5   force =    -0.00013235    0.00137211    0.00021079

     Total force =     0.366358     Total SCF correction =     0.000626
  @ DRIVER MODE: Message from server: STATUS
  @ DRIVER MODE: Message from server: GETFORCE
  @ DRIVER MODE: Returning v,forces,stress,ensemble

     Writing output data file ./calc.save/
  @ DRIVER MODE: Message from server: EXIT
  @ DRIVE MODE: Exiting

     General routines

     Parallel routines

   This run was terminated on:  21: 0:21  24Aug2021

   JOB DONE.