     Program PWSCF v.6.7GPU starts on  4Aug2021 at  6: 9:37

     R & G space division:  proc/nbgrp/npool/nimage =      16
     Reading input from /storage/home/hcoda1/3/ntian30/research/carbon/02Aug_vib_paired/ads_slab/CH3NH3NH3_a/out_0049/pw.inp
Warning: card &CELL ignored
Warning: card   CELL_DYNAMICS='IPI', ignored
Warning: card / ignored

     Current dimensions of program PWSCF are:
     Max number of different atomic species (ntypx) = 10
     Max number of k-points (npk) =  40000
     Max angular momentum in pseudopotentials (lmaxx) =  3
     Presently no symmetry can be used with electric field

     Message from routine cell_base_init:
     DEPRECATED: use true lattice parameter, not A to a.u. conversion factor

     IMPORTANT: XC functional enforced from input :
     Exchange-correlation= BEEF-VDW
                           (   1   4  43  14   2   0   0)
     Any further DFT definition will be discarded
     Please, verify this is what you really want

  @ DRIVER MODE: Connecting to
 qe_1139763_2492108.sched-torque.pace.gatech.eduelppa5dc_scratch
  using UNIX socket
  @ DRIVER MODE: Message from server: STATUS
  @ DRIVER MODE: Message from server: INIT
  @ DRIVER MODE: Receiving replica           0          -1
  @ DRIVER MODE: Receiving encoded integer          25
  @ DRIVER MODE:  SCF:  T  FORCE:  T  STRESS:  F  VC:  F  ENSEMBLE:  F
  @ DRIVER MODE:  SCF:  T  FORCE:  T  STRESS:  F  VC:  F  ENSEMBLE:  F

     Using Slab Decomposition

     bravais-lattice index     =            0
     lattice parameter (alat)  =       1.8897  a.u.
     unit-cell volume          =    6658.9804 (a.u.)^3
     number of atoms/cell      =           59
     number of atomic types    =            5
     number of electrons       =       401.00
     number of Kohn-Sham states=          210
     kinetic-energy cutoff     =      29.3995  Ry
     charge density cutoff     =     293.9946  Ry
     scf convergence threshold =      7.3E-08
     mixing beta               =       0.0500
     number of iterations used =            8  plain     mixing
     Exchange-correlation= BEEF-VDW
                           (   1   4  43  14   2   0   0)

     celldm(1)=   1.889726  celldm(2)=   0.000000  celldm(3)=   0.000000
     celldm(4)=   0.000000  celldm(5)=   0.000000  celldm(6)=   0.000000

     crystal axes: (cart. coord. in units of alat)
               a(1) = (   6.579727   0.000000   0.000000 )
               a(2) = (  -0.000775   5.961596   0.000000 )
               a(3) = (   0.000000   0.000000  25.155947 )

     reciprocal axes: (cart. coord. in units 2 pi/alat)
               b(1) = (  0.151982  0.000020  0.000000 )
               b(2) = (  0.000000  0.167740  0.000000 )
               b(3) = (  0.000000  0.000000  0.039752 )

     PseudoPot. # 1 for Ti read from file:
     /storage/coda1/p-amedford6/0/shared/rich_project_chbe-medford/medford-share/data/pseudos_module/espresso/nninc/pbe/van/Ti.UPF
     MD5 check sum: 8e4df49b7f0d34bbd5052bf3f5ea0213
     Pseudo is Ultrasoft, Zval = 12.0
     Generated by new atomic code, or converted to UPF format
     Using radial grid of  851 points,  6 beta functions with:
                l(1) =   0
                l(2) =   0
                l(3) =   1
                l(4) =   1
                l(5) =   2
                l(6) =   2
     Q(r) pseudized with  8 coefficients,  rinner =    1.000   1.000   1.000
                                                       1.000   1.000

     PseudoPot. # 2 for O  read from file:
     /storage/coda1/p-amedford6/0/shared/rich_project_chbe-medford/medford-share/data/pseudos_module/espresso/nninc/pbe/van/O.UPF
     MD5 check sum: 78c19812648e8988a0fe644b0f25305e
     Pseudo is Ultrasoft, Zval =  6.0
     Generated by new atomic code, or converted to UPF format
     Using radial grid of  737 points,  4 beta functions with:
                l(1) =   0
                l(2) =   0
                l(3) =   1
                l(4) =   1
     Q(r) pseudized with  8 coefficients,  rinner =    0.800   0.800   0.800

     PseudoPot. # 3 for C  read from file:
     /storage/coda1/p-amedford6/0/shared/rich_project_chbe-medford/medford-share/data/pseudos_module/espresso/nninc/pbe/van/C.UPF
     MD5 check sum: 1a69bf6b8db32088f5b2163dbdb77a27
     Pseudo is Ultrasoft, Zval =  4.0
     Generated by new atomic code, or converted to UPF format
     Using radial grid of  721 points,  4 beta functions with:
                l(1) =   0
                l(2) =   0
                l(3) =   1
                l(4) =   1
     Q(r) pseudized with  8 coefficients,  rinner =    0.800   0.800   0.800

     PseudoPot. # 4 for H  read from file:
     /storage/coda1/p-amedford6/0/shared/rich_project_chbe-medford/medford-share/data/pseudos_module/espresso/nninc/pbe/van/H.UPF
     MD5 check sum: b5ee9d7bfd3a09ee7748110bda690ff7
     Pseudo is Ultrasoft, Zval =  1.0
     Generated by new atomic code, or converted to UPF format
     Using radial grid of  615 points,  1 beta functions with:
                l(1) =   0
     Q(r) pseudized with  8 coefficients,  rinner =    0.800

     PseudoPot. # 5 for N  read from file:
     /storage/coda1/p-amedford6/0/shared/rich_project_chbe-medford/medford-share/data/pseudos_module/espresso/nninc/pbe/van/N.UPF
     MD5 check sum: 90d10febe142ad51ac9d5be1deb811c4
     Pseudo is Ultrasoft, Zval =  5.0
     Generated by new atomic code, or converted to UPF format
     Using radial grid of  729 points,  4 beta functions with:
                l(1) =   0
                l(2) =   0
                l(3) =   1
                l(4) =   1
     Q(r) pseudized with  8 coefficients,  rinner =    0.800   0.800   0.800

     atomic species   valence    mass     pseudopotential
        Ti1           12.00    47.86700     Ti( 1.00)
        O1             6.00    15.99900     O ( 1.00)
        C1             4.00    12.01100     C ( 1.00)
        H1             1.00     1.00800     H ( 1.00)
        N1             5.00    14.00700     N ( 1.00)

     No symmetry found

   Cartesian axes

     site n.     atom                  positions (alat units)
         1           Ti1 tau(   1) = (   0.0004258   2.9801865   6.0000000  )
         2           Ti1 tau(   2) = (   3.2906075   1.4906267   6.0002472  )
         3           O1  tau(   3) = (   0.0006271   0.0005054   7.9858123  )
         4           O1  tau(   4) = (   3.2906025   0.0005020   7.3038282  )
         5           O1  tau(   5) = (   4.5942328   1.4918067   9.2879030  )
         6           O1  tau(   6) = (   1.9868534   1.4903216   9.2879459  )
         7           Ti1 tau(   7) = (   3.2907910   2.8959150   9.1758416  )
         8           Ti1 tau(   8) = (   0.0015273   1.4827037   9.2680791  )
         9           O1  tau(   9) = (   3.3006472   5.9526327  11.3326431  )
        10           O1  tau(  10) = (   0.0116148   5.9584955  10.6183126  )
        11           O1  tau(  11) = (   1.2986171   1.4856602  12.6180737  )
        12           O1  tau(  12) = (   5.2832837   1.4869688  12.6136912  )
        13           Ti1 tau(  13) = (   0.0716907   2.9700601  12.6329626  )
        14           Ti1 tau(  14) = (   3.3921379   1.4824266  12.4783935  )
        15           O1  tau(  15) = (   0.0098915   0.0277142  14.6273811  )
        16           O1  tau(  16) = (   3.2980527   0.0034327  13.9214941  )
        17           O1  tau(  17) = (   4.5491770   1.5035522  16.0668258  )
        18           O1  tau(  18) = (   2.0540802   1.5011373  16.0688643  )
        19           Ti1 tau(  19) = (   3.2973159   2.9845483  15.7023000  )
        20           Ti1 tau(  20) = (   6.5754392   1.4353193  15.8239573  )
        21           O1  tau(  21) = (   3.2904802   0.0005063   4.7018136  )
        22           O1  tau(  22) = (   0.0048264   5.9571524  17.1588256  )
        23           O1  tau(  23) = (   1.3043587   1.4918075   6.0039043  )
        24           O1  tau(  24) = (   5.2767064   1.4903225   6.0039473  )
        25           Ti1 tau(  25) = (   0.0000382   5.9609847   6.0000000  )
        26           Ti1 tau(  26) = (   3.2902200   4.4714249   6.0002472  )
        27           O1  tau(  27) = (   0.0002396   2.9813036   7.9858123  )
        28           O1  tau(  28) = (   3.2902150   2.9813002   7.3038282  )
        29           O1  tau(  29) = (   4.5938453   4.4726049   9.2879030  )
        30           O1  tau(  30) = (   1.9864658   4.4711199   9.2879459  )
        31           Ti1 tau(  31) = (   3.2891106   5.8743827   9.1763621  )
        32           Ti1 tau(  32) = (   0.0006254   4.4649316   9.2693709  )
        33           O1  tau(  33) = (   3.3024910   2.9811918  11.3312481  )
        34           O1  tau(  34) = (   0.0092240   2.9805883  10.6323155  )
        35           O1  tau(  35) = (   1.2967186   4.4682081  12.6345707  )
        36           O1  tau(  36) = (   5.2888097   4.4704914  12.6297389  )
        37           Ti1 tau(  37) = (   0.0778612   5.9457776  12.5489457  )
        38           Ti1 tau(  38) = (   3.3928769   4.4622707  12.4864817  )
        39           O1  tau(  39) = (   0.0140712   2.9461142  14.6842920  )
        40           O1  tau(  40) = (   3.2991745   2.9776924  13.9065265  )
        41           O1  tau(  41) = (   4.5418516   4.4678888  16.0645815  )
        42           O1  tau(  42) = (   2.0574864   4.4691885  16.0636024  )
        43           Ti1 tau(  43) = (   3.2861726   0.0051191  15.7195692  )
        44           Ti1 tau(  44) = (   6.5761434   4.5285208  16.1368719  )
        45           O1  tau(  45) = (   3.2900926   2.9813045   4.7018136  )
        46           O1  tau(  46) = (   1.3039711   4.4726057   6.0039043  )
        47           O1  tau(  47) = (   5.2763189   4.4711207   6.0039473  )
        48           C1  tau(  48) = (   0.0175971   3.0427671  17.7901079  )
        49           H1  tau(  49) = (   5.6823727   3.3959267  18.2745233  )
        50           H1  tau(  50) = (   0.1100020   1.9921885  18.0671921  )
        51           H1  tau(  51) = (   0.8707680   3.5346006  18.2680029  )
        52           N1  tau(  52) = (   6.1495222   1.5591847  21.8098380  )
        53           H1  tau(  53) = (   6.1793786   2.4848735  21.3946126  )
        54           H1  tau(  54) = (   6.2462200   0.9013766  21.0428083  )
        55           H1  tau(  55) = (   5.2088654   1.4380024  22.1828036  )
        56           N1  tau(  56) = (   2.8510371   0.9663425  23.1735989  )
        57           H1  tau(  57) = (   2.8683653   5.9129692  23.1556095  )
        58           H1  tau(  58) = (   1.9074079   1.2374795  22.9138124  )
        59           H1  tau(  59) = (   2.9640119   1.2328864  24.1466208  )

     number of k points=    10  Fermi-Dirac smearing, width (Ry)=  0.0073
                       cart. coord. in units 2pi/alat
        k(    1) = (   0.0000000   0.0000000   0.0000000), wk =   0.1250000
        k(    2) = (   0.0000000   0.0419351   0.0000000), wk =   0.2500000
        k(    3) = (   0.0000000  -0.0838702   0.0000000), wk =   0.1250000
        k(    4) = (   0.0379955   0.0000049   0.0000000), wk =   0.2500000
        k(    5) = (   0.0379955   0.0419400   0.0000000), wk =   0.2500000
        k(    6) = (   0.0379955  -0.0838652   0.0000000), wk =   0.2500000
        k(    7) = (   0.0379955  -0.0419301   0.0000000), wk =   0.2500000
        k(    8) = (  -0.0759910  -0.0000099   0.0000000), wk =   0.1250000
        k(    9) = (  -0.0759910   0.0419252   0.0000000), wk =   0.2500000
        k(   10) = (  -0.0759910  -0.0838800   0.0000000), wk =   0.1250000

     Initial potential from superposition of free atoms

     starting charge  384.99911, renormalised to  401.00000

     negative rho (up, down):  4.919E-03 0.000E+00

     %%%%%%%%%%%%%%%%%%%%%%%%%%%%%%%%%%%%%%%%%%%%%%%%%%%%%%%%%%%%%%%%%%%%%%%%
     %                                                                      %
     % You are using vdW-DF, which was implemented by the Thonhauser group. %
     % Please cite the following two papers that made this development      %
     % possible and the two reviews that describe the various versions:     %
     %                                                                      %
     %   T. Thonhauser et al., PRL 115, 136402 (2015).                      %
     %   T. Thonhauser et al., PRB 76, 125112 (2007).                       %
     %   K. Berland et al., Rep. Prog. Phys. 78, 066501 (2015).             %
     %   D.C. Langreth et al., J. Phys.: Condens. Matter 21, 084203 (2009). %
     %                                                                      %
     %                                                                      %
     % If you are calculating the stress with vdW-DF, please also cite:     %
     %                                                                      %
     %   R. Sabatini et al., J. Phys.: Condens. Matter 24, 424209 (2012).   %
     %                                                                      %
     %%%%%%%%%%%%%%%%%%%%%%%%%%%%%%%%%%%%%%%%%%%%%%%%%%%%%%%%%%%%%%%%%%%%%%%%

     Adding external electric field

     Computed dipole along edir(3) :
        Dipole              -16.7060 Ry au,        -42.4625 Debye
        Dipole field         -0.0315 Ry au,

        Potential amp.        2.9225 Ry
        Total length         46.3494 bohr

     Starting wfcs are  305 atomic wfcs
  @ DRIVER MODE: Message from server: STATUS
  @ DRIVER MODE: Message from server: POSDATA
  @ DRIVER MODE: Reading and sharing cell
  @ DRIVER MODE: Reading and sharing positions
  @ DRIVER MODE: Received positions

     Self-consistent Calculation

     iteration #  1     ecut=    29.40 Ry     beta= 0.05
     Davidson diagonalization with overlap
     c_bands:  2 eigenvalues not converged
     c_bands:  3 eigenvalues not converged
     c_bands:  1 eigenvalues not converged
     c_bands:  4 eigenvalues not converged
     c_bands:  4 eigenvalues not converged
     c_bands:  2 eigenvalues not converged
     c_bands:  3 eigenvalues not converged
     c_bands:  3 eigenvalues not converged
     c_bands:  4 eigenvalues not converged
     ethr =  1.00E-05,  avg # of iterations = 19.8

[...]

     total energy              =   -2364.25563173 Ry
     estimated scf accuracy    <    6692.65974503 Ry

     iteration #  2     ecut=    29.40 Ry     beta= 0.05
     Davidson diagonalization with overlap
     ethr =  1.00E-02,  avg # of iterations = 22.1

[...]

     iteration # 75     ecut=    29.40 Ry     beta= 0.05
     Davidson diagonalization with overlap
     c_bands:  1 eigenvalues not converged
     c_bands:  1 eigenvalues not converged
     c_bands:  1 eigenvalues not converged
     ethr =  1.90E-11,  avg # of iterations = 13.4

[...]

     total energy              =   -2946.58247235 Ry
     estimated scf accuracy    <       0.00000015 Ry

     iteration # 76     ecut=    29.40 Ry     beta= 0.05
     Davidson diagonalization with overlap
     ethr =  1.90E-11,  avg # of iterations = 10.5

     negative rho (up, down):  6.996E-03 0.000E+00

     Adding external electric field

     Computed dipole along edir(3) :
        Dipole                0.3167 Ry au,          0.8051 Debye
        Dipole field          0.0006 Ry au,

        Potential amp.       -0.0554 Ry
        Total length         46.3494 bohr

     End of self-consistent calculation

          k = 0.0000 0.0000 0.0000 ( 18029 PWs)   bands (ev):

   -55.9966 -55.9865 -55.9625 -55.9494 -55.8771 -55.8525 -55.8317 -55.8135
   -55.8037 -55.7699 -55.7696 -55.7362 -55.6111 -55.3894 -54.9770 -54.9430
   -32.5403 -32.4791 -32.3514 -32.3315 -32.3030 -32.3005 -32.2892 -32.2603
   -32.2386 -32.2152 -32.2082 -32.1937 -32.1662 -32.1488 -32.1395 -32.1254
   -32.1093 -32.1010 -32.0857 -32.0573 -32.0537 -32.0537 -32.0258 -32.0063
   -32.0058 -32.0008 -31.9918 -31.9877 -31.9744 -31.9721 -31.9639 -31.9441
   -31.9421 -31.9358 -31.9226 -31.9093 -31.8818 -31.8644 -31.8269 -31.6661
   -31.6398 -31.5272 -31.3842 -31.2954 -31.2730 -31.2008 -31.1143 -31.0034
   -16.7414 -16.4721 -16.2458 -16.1497 -16.1225 -16.0033 -15.8381 -15.7161
   -15.6678 -15.5676 -15.5581 -15.5334 -15.5006 -15.4768 -15.4761 -15.4418
   -15.4387 -15.4196 -15.4080 -15.3578 -15.3347 -15.3232 -15.2080 -15.1742
   -15.1318 -15.1108 -15.0530 -15.0405 -14.6182 -13.4801 -13.3638 -13.0456
   -12.9401  -9.1010  -4.1146  -3.9578  -3.9036  -3.8586  -3.8279  -3.6109
    -3.5448  -3.2472  -3.1831  -3.1684  -3.1511  -3.1186  -3.1164  -3.0948
    -3.0389  -2.9858  -2.9002  -2.8386  -2.8270  -2.8079  -2.8049  -2.7754
    -2.7658  -2.7536  -2.7130  -2.6875  -2.6614  -2.6112  -2.5564  -2.4942
    -2.4107  -2.3927  -2.3112  -2.2888  -2.2826  -2.2396  -2.2253  -2.2174
    -2.1984  -2.1733  -2.1602  -1.9768  -1.9383  -1.8355  -1.7794  -1.7773
    -1.6058  -1.5059  -1.4643  -1.4532  -1.4239  -1.3902  -1.3834  -1.2972
    -1.1805  -1.1493  -1.1163  -1.0443  -1.0007  -0.9689  -0.8713  -0.8439
    -0.7609  -0.7586  -0.7365  -0.6486  -0.5949  -0.4812  -0.4333  -0.4233
    -0.3853  -0.3562  -0.2868  -0.2726  -0.2158  -0.1434  -0.1225  -0.0597
    -0.0293  -0.0152  -0.0040   0.0128   0.0392   0.0696   0.1736   0.2040
     0.2835   0.3512   0.4464   0.5440   0.6497   0.6588   0.7601   0.9695
     1.0432   1.1414   1.1997   1.2373   1.6163   1.6622   1.7425   2.1770
     3.1405   3.2245   3.2721   3.2830   3.3740   3.3903   3.5907   3.6152
     3.6361   3.6885

[...]

          k = 0.0380-0.0419 0.0000 ( 17876 PWs)   bands (ev):

[...]

          k =-0.0760-0.0000 0.0000 ( 17886 PWs)   bands (ev):

[...]

          k =-0.0760-0.0839 0.0000 ( 17948 PWs)   bands (ev):

   -55.9800 -55.9789 -55.9725 -55.9632 -55.8691 -55.8422 -55.8395 -55.8236
   -55.7878 -55.7852 -55.7544 -55.7518 -55.6100 -55.3904 -54.9600 -54.9599
   -32.3480 -32.3392 -32.2948 -32.2940 -32.2750 -32.2741 -32.2581 -32.2491
   -32.2026 -32.1908 -32.1847 -32.1820 -32.1442 -32.1283 -32.1266 -32.1173
   -32.1069 -32.0995 -32.0993 -32.0983 -32.0925 -32.0897 -32.0691 -32.0590
   -32.0400 -32.0371 -32.0277 -32.0106 -31.9875 -31.9866 -31.9851 -31.9833
   -31.9686 -31.9672 -31.9644 -31.9604 -31.9320 -31.8556 -31.8301 -31.6798
   -31.6680 -31.5715 -31.2858 -31.2857 -31.1970 -31.1969 -31.1576 -31.1576
   -16.1742 -16.1548 -15.9472 -15.9105 -15.9075 -15.8982 -15.7865 -15.7014
   -15.6915 -15.6908 -15.6084 -15.5963 -15.5800 -15.5357 -15.5315 -15.5222
   -15.5125 -15.5007 -15.4574 -15.4524 -15.4336 -15.4260 -15.3441 -15.3137
   -15.3100 -15.2717 -15.1396 -15.0082 -14.8601 -13.4657 -13.4655 -12.9982
   -12.9870  -9.1175  -3.4663  -3.4406  -3.1905  -3.1542  -3.1449  -3.1139
    -3.0809  -3.0685  -2.9894  -2.9456  -2.9205  -2.8942  -2.8794  -2.8747
    -2.8384  -2.8260  -2.8162  -2.8043  -2.7861  -2.7519  -2.7429  -2.7105
    -2.6996  -2.6796  -2.6661  -2.6507  -2.6261  -2.6135  -2.6072  -2.5760
    -2.5617  -2.5449  -2.5242  -2.5014  -2.4184  -2.2291  -2.1993  -2.1346
    -2.1255  -2.0952  -2.0836  -2.0600  -2.0457  -2.0273  -1.9804  -1.8274
    -1.7254  -1.6992  -1.6713  -1.5963  -1.5754  -1.5276  -1.4136  -1.3789
    -1.3515  -1.3257  -1.2756  -1.2245  -1.2071  -1.1842  -1.1152  -1.1016
    -1.0240  -0.9805  -0.9579  -0.9536  -0.8887  -0.8458  -0.7638  -0.7585
    -0.7145  -0.6788  -0.6314  -0.5912  -0.5865  -0.4994  -0.4737  -0.3572
    -0.3025  -0.0428   0.0067   0.0581   0.0845   0.1432   0.1936   0.2085
     0.3175   0.3218   0.3582   0.4020   0.4425   0.5303   0.5495   0.5843
     0.7304   1.3041   1.4078   1.4084   1.4816   1.4820   1.9454   1.9591
     3.4255   3.4408   3.4712   3.5037   3.6450   3.6488   3.6703   3.6721
     3.7985   3.8147

     the Fermi energy is     3.1382 ev

!    total energy              =   -2946.58249256 Ry
     estimated scf accuracy    <       0.00000003 Ry
     smearing contrib. (-TS)   =      -0.02178801 Ry
     internal energy E=F+TS    =   -2946.56070455 Ry

     The total energy is F=E-TS. E is the sum of the following terms:
     one-electron contribution =  -22199.58781616 Ry
     hartree contribution      =   11188.79557818 Ry
     xc contribution           =    -489.84914084 Ry
     ewald contribution        =    8554.08048495 Ry
     electric field correction =       0.00018932 Ry

     convergence has been achieved in  76 iterations

     Forces acting on atoms (cartesian axes, Ry/au):

     atom    1 type  1   force =     0.00012809   -0.00025583    0.09669796
     atom    2 type  1   force =    -0.00013928   -0.00055449   -0.17510748
     atom    3 type  2   force =    -0.00000239   -0.00002938   -0.02502711
     atom    4 type  2   force =     0.00007469   -0.00144047    0.05268400
     atom    5 type  2   force =    -0.01210264   -0.00083724    0.00339707
     atom    6 type  2   force =     0.01401386   -0.00015354    0.00290481
     atom    7 type  1   force =    -0.00082294    0.00068617   -0.01134558
     atom    8 type  1   force =     0.00026323    0.01149373    0.02859895
     atom    9 type  2   force =    -0.00010234    0.00008781   -0.00002051
     atom   10 type  2   force =    -0.00085195    0.00077211   -0.01660296
     atom   11 type  2   force =    -0.00031799    0.00010247    0.00003287
     atom   12 type  2   force =    -0.00000459    0.00021256    0.00005501
     atom   13 type  1   force =    -0.00011837   -0.00020267    0.00010448
     atom   14 type  1   force =    -0.00021656    0.00000481   -0.00003168
     atom   15 type  2   force =    -0.00003115    0.00005259   -0.00010756
     atom   16 type  2   force =    -0.00012376   -0.00004069    0.00002724
     atom   17 type  2   force =    -0.00002596   -0.00015643   -0.00001584
     atom   18 type  2   force =    -0.00020181   -0.00017423   -0.00001832
     atom   19 type  1   force =     0.00000738   -0.00019803    0.00011293
     atom   20 type  1   force =     0.00009981   -0.00036731   -0.00008312
     atom   21 type  2   force =     0.00006291    0.00001034    0.10295652
     atom   22 type  2   force =    -0.00010707   -0.00008196   -0.00038197
     atom   23 type  2   force =    -0.07140643   -0.00009912   -0.02773097
     atom   24 type  2   force =     0.07136451    0.00030644   -0.02776497
     atom   25 type  1   force =     0.00001092   -0.00030473    0.09647306
     atom   26 type  1   force =    -0.00018341   -0.00027569   -0.17528302
     atom   27 type  2   force =     0.00009250   -0.00020060   -0.02393419
     atom   28 type  2   force =     0.00011359   -0.00119857    0.05272198
     atom   29 type  2   force =    -0.01213458    0.00045529    0.00288044
     atom   30 type  2   force =     0.01396605    0.00080037    0.00242500
     atom   31 type  1   force =    -0.00076705    0.00311259   -0.01226482
     atom   32 type  1   force =     0.00027742   -0.01311341    0.02917981
     atom   33 type  2   force =    -0.00009792   -0.00003032    0.00003400
     atom   34 type  2   force =    -0.00028756    0.00077185   -0.02205265
     atom   35 type  2   force =    -0.00017015    0.00007877   -0.00003696
     atom   36 type  2   force =    -0.00010141    0.00020043   -0.00002763
     atom   37 type  1   force =    -0.00001224   -0.00031429   -0.00017011
     atom   38 type  1   force =     0.00002993    0.00000815    0.00001166
     atom   39 type  2   force =    -0.00008006    0.00013173    0.00027989
     atom   40 type  2   force =    -0.00013493   -0.00001370   -0.00006283
     atom   41 type  2   force =     0.00000504   -0.00021455    0.00001248
     atom   42 type  2   force =    -0.00020039   -0.00022083    0.00018059
     atom   43 type  1   force =     0.00030983   -0.00017479   -0.00019368
     atom   44 type  1   force =     0.00018166   -0.00027335    0.00017434
     atom   45 type  2   force =     0.00006289   -0.00007014    0.10294894
     atom   46 type  2   force =    -0.07142066   -0.00009212   -0.02774007
     atom   47 type  2   force =     0.07137651    0.00036551   -0.02775034
     atom   48 type  3   force =    -0.00018485    0.00038572    0.00004616
     atom   49 type  4   force =    -0.00008207    0.00042098    0.00021680
     atom   50 type  4   force =    -0.00008155    0.00012605    0.00005699
     atom   51 type  4   force =     0.00008824    0.00029735    0.00038842
     atom   52 type  5   force =    -0.00062326   -0.00032313    0.00159083
     atom   53 type  4   force =     0.00009482    0.00055163   -0.00047280
     atom   54 type  4   force =    -0.00039798   -0.00041321   -0.00132163
     atom   55 type  4   force =     0.00065020    0.00026748   -0.00056732
     atom   56 type  5   force =     0.00344934    0.00023654    0.00154918
     atom   57 type  4   force =    -0.00004885   -0.00035211    0.00034595
     atom   58 type  4   force =    -0.00452934    0.00058655   -0.00334499
     atom   59 type  4   force =     0.00139010   -0.00034912    0.00037273

     Total force =     0.367798     Total SCF correction =     0.000449
  @ DRIVER MODE: Message from server: STATUS
  @ DRIVER MODE: Message from server: GETFORCE
  @ DRIVER MODE: Returning v,forces,stress,ensemble

     Writing output data file ./calc.save/
  @ DRIVER MODE: Message from server: EXIT
  @ DRIVE MODE: Exiting

     General routines

     Parallel routines

   This run was terminated on:   6:26:44   4Aug2021

   JOB DONE.