     Program PWSCF v.6.7GPU starts on 26Sep2021 at 22:42:38

     R & G space division:  proc/nbgrp/npool/nimage =       8
     Reading input from /storage/home/hcoda1/3/ntian30/research/carbon/CxH_vib/CH_calc/ads_slab/CHONNHH_a/out_0015/pw.inp
Warning: card &CELL ignored
Warning: card   CELL_DYNAMICS='IPI', ignored
Warning: card / ignored

     Current dimensions of program PWSCF are:
     Max number of different atomic species (ntypx) = 10
     Max number of k-points (npk) =  40000
     Max angular momentum in pseudopotentials (lmaxx) =  3
     Presently no symmetry can be used with electric field

     Message from routine cell_base_init:
     DEPRECATED: use true lattice parameter, not A to a.u. conversion factor

     IMPORTANT: XC functional enforced from input :
     Exchange-correlation= BEEF-VDW
                           (   1   4  43  14   2   0   0)
     Any further DFT definition will be discarded
     Please, verify this is what you really want

  @ DRIVER MODE: Connecting to
 qe_1139763_2985878.sched-torque.pace.gatech.edusggc5a2z_scratch
  using UNIX socket
  @ DRIVER MODE: Message from server: STATUS
  @ DRIVER MODE: Message from server: INIT
  @ DRIVER MODE: Receiving replica           0          -1
  @ DRIVER MODE: Receiving encoded integer          25
  @ DRIVER MODE:  SCF:  T  FORCE:  T  STRESS:  F  VC:  F  ENSEMBLE:  F
  @ DRIVER MODE:  SCF:  T  FORCE:  T  STRESS:  F  VC:  F  ENSEMBLE:  F

     Using Slab Decomposition

     bravais-lattice index     =            0
     lattice parameter (alat)  =       1.8897  a.u.
     unit-cell volume          =    6658.9804 (a.u.)^3
     number of atoms/cell      =           54
     number of atomic types    =            5
     number of electrons       =       401.00
     number of Kohn-Sham states=          210
     kinetic-energy cutoff     =      29.3995  Ry
     charge density cutoff     =     293.9946  Ry
     scf convergence threshold =      7.3E-08
     mixing beta               =       0.0500
     number of iterations used =            8  plain     mixing
     Exchange-correlation= BEEF-VDW
                           (   1   4  43  14   2   0   0)

     celldm(1)=   1.889726  celldm(2)=   0.000000  celldm(3)=   0.000000
     celldm(4)=   0.000000  celldm(5)=   0.000000  celldm(6)=   0.000000

     crystal axes: (cart. coord. in units of alat)
               a(1) = (   6.579727   0.000000   0.000000 )
               a(2) = (  -0.000775   5.961596   0.000000 )
               a(3) = (   0.000000   0.000000  25.155947 )

     reciprocal axes: (cart. coord. in units 2 pi/alat)
               b(1) = (  0.151982  0.000020  0.000000 )
               b(2) = (  0.000000  0.167740  0.000000 )
               b(3) = (  0.000000  0.000000  0.039752 )

     PseudoPot. # 1 for O  read from file:
     /storage/coda1/p-amedford6/0/shared/rich_project_chbe-medford/medford-share/data/pseudos_module/espresso/nninc/pbe/van/O.UPF
     MD5 check sum: 78c19812648e8988a0fe644b0f25305e
     Pseudo is Ultrasoft, Zval =  6.0
     Generated by new atomic code, or converted to UPF format
     Using radial grid of  737 points,  4 beta functions with:
                l(1) =   0
                l(2) =   0
                l(3) =   1
                l(4) =   1
     Q(r) pseudized with  8 coefficients,  rinner =    0.800   0.800   0.800

     PseudoPot. # 2 for Ti read from file:
     /storage/coda1/p-amedford6/0/shared/rich_project_chbe-medford/medford-share/data/pseudos_module/espresso/nninc/pbe/van/Ti.UPF
     MD5 check sum: 8e4df49b7f0d34bbd5052bf3f5ea0213
     Pseudo is Ultrasoft, Zval = 12.0
     Generated by new atomic code, or converted to UPF format
     Using radial grid of  851 points,  6 beta functions with:
                l(1) =   0
                l(2) =   0
                l(3) =   1
                l(4) =   1
                l(5) =   2
                l(6) =   2
     Q(r) pseudized with  8 coefficients,  rinner =    1.000   1.000   1.000
                                                       1.000   1.000

     PseudoPot. # 3 for N  read from file:
     /storage/coda1/p-amedford6/0/shared/rich_project_chbe-medford/medford-share/data/pseudos_module/espresso/nninc/pbe/van/N.UPF
     MD5 check sum: 90d10febe142ad51ac9d5be1deb811c4
     Pseudo is Ultrasoft, Zval =  5.0
     Generated by new atomic code, or converted to UPF format
     Using radial grid of  729 points,  4 beta functions with:
                l(1) =   0
                l(2) =   0
                l(3) =   1
                l(4) =   1
     Q(r) pseudized with  8 coefficients,  rinner =    0.800   0.800   0.800

     PseudoPot. # 4 for H  read from file:
     /storage/coda1/p-amedford6/0/shared/rich_project_chbe-medford/medford-share/data/pseudos_module/espresso/nninc/pbe/van/H.UPF
     MD5 check sum: b5ee9d7bfd3a09ee7748110bda690ff7
     Pseudo is Ultrasoft, Zval =  1.0
     Generated by new atomic code, or converted to UPF format
     Using radial grid of  615 points,  1 beta functions with:
                l(1) =   0
     Q(r) pseudized with  8 coefficients,  rinner =    0.800

     PseudoPot. # 5 for C  read from file:
     /storage/coda1/p-amedford6/0/shared/rich_project_chbe-medford/medford-share/data/pseudos_module/espresso/nninc/pbe/van/C.UPF
     MD5 check sum: 1a69bf6b8db32088f5b2163dbdb77a27
     Pseudo is Ultrasoft, Zval =  4.0
     Generated by new atomic code, or converted to UPF format
     Using radial grid of  721 points,  4 beta functions with:
                l(1) =   0
                l(2) =   0
                l(3) =   1
                l(4) =   1
     Q(r) pseudized with  8 coefficients,  rinner =    0.800   0.800   0.800

     atomic species   valence    mass     pseudopotential
        O1             6.00    15.99900     O ( 1.00)
        Ti1           12.00    47.86700     Ti( 1.00)
        N1             5.00    14.00700     N ( 1.00)
        H1             1.00     1.00800     H ( 1.00)
        C1             4.00    12.01100     C ( 1.00)

     No symmetry found

   Cartesian axes

     site n.     atom                  positions (alat units)
         1           O1  tau(   1) = (   3.2904802   0.0005063   4.7018136  )
         2           O1  tau(   2) = (   3.2900926   2.9813045   4.7018136  )
         3           Ti1 tau(   3) = (   0.0004258   2.9801865   6.0000000  )
         4           Ti1 tau(   4) = (   0.0000382   5.9609847   6.0000000  )
         5           Ti1 tau(   5) = (   3.2906075   1.4906267   6.0002472  )
         6           Ti1 tau(   6) = (   3.2902200   4.4714249   6.0002472  )
         7           O1  tau(   7) = (   1.3043587   1.4918075   6.0039043  )
         8           O1  tau(   8) = (   1.3039711   4.4726057   6.0039043  )
         9           O1  tau(   9) = (   5.2767064   1.4903225   6.0039473  )
        10           O1  tau(  10) = (   5.2763189   4.4711207   6.0039473  )
        11           O1  tau(  11) = (   3.2906025   0.0005020   7.3038282  )
        12           O1  tau(  12) = (   3.2902150   2.9813002   7.3038282  )
        13           O1  tau(  13) = (   0.0006271   0.0005054   7.9858123  )
        14           O1  tau(  14) = (   0.0002396   2.9813036   7.9858123  )
        15           Ti1 tau(  15) = (   3.2907910   2.8959150   9.1758416  )
        16           Ti1 tau(  16) = (   3.2891106   5.8743827   9.1763621  )
        17           Ti1 tau(  17) = (   0.0015273   1.4827037   9.2680791  )
        18           Ti1 tau(  18) = (   0.0006254   4.4649316   9.2693709  )
        19           O1  tau(  19) = (   4.5942328   1.4918067   9.2879030  )
        20           O1  tau(  20) = (   4.5938453   4.4726049   9.2879030  )
        21           O1  tau(  21) = (   1.9868534   1.4903216   9.2879459  )
        22           O1  tau(  22) = (   1.9864658   4.4711199   9.2879459  )
        23           O1  tau(  23) = (   0.0116148   5.9584955  10.6183126  )
        24           O1  tau(  24) = (   0.0092240   2.9805883  10.6323155  )
        25           O1  tau(  25) = (   3.2871924   0.0092975  11.3134720  )
        26           O1  tau(  26) = (   3.2854473   2.9899114  11.3140924  )
        27           Ti1 tau(  27) = (   3.1645864   1.5001695  12.4631195  )
        28           Ti1 tau(  28) = (   3.1630299   4.4806833  12.4603605  )
        29           Ti1 tau(  29) = (   6.4825016   0.0268845  12.6761456  )
        30           O1  tau(  30) = (   5.2927839   4.4803479  12.6175172  )
        31           O1  tau(  31) = (   5.2917030   1.4958386  12.6158568  )
        32           O1  tau(  32) = (   1.3125566   4.4752595  12.6102184  )
        33           O1  tau(  33) = (   1.3147444   1.4884423  12.6074978  )
        34           Ti1 tau(  34) = (   6.4947133   3.0086745  12.6771613  )
        35           O1  tau(  35) = (   3.2927928   3.0034821  13.8909844  )
        36           O1  tau(  36) = (   3.2984538   0.0179784  13.8891953  )
        37           O1  tau(  37) = (   6.5782462   5.9542408  14.6113871  )
        38           O1  tau(  38) = (   0.0063130   2.9565225  14.5996091  )
        39           Ti1 tau(  39) = (   3.2946075   3.0248150  15.6873259  )
        40           Ti1 tau(  40) = (   3.3096140   0.0407809  15.6830396  )
        41           Ti1 tau(  41) = (   0.0052144   1.6347595  16.0230390  )
        42           O1  tau(  42) = (   2.0681981   1.5365669  16.0503333  )
        43           O1  tau(  43) = (   4.5323643   4.5197138  16.0585785  )
        44           O1  tau(  44) = (   2.0637162   4.5219542  16.0519313  )
        45           O1  tau(  45) = (   4.5361195   1.5375365  16.0414673  )
        46           Ti1 tau(  46) = (   0.0121038   4.6470822  16.0779317  )
        47           O1  tau(  47) = (   0.0166110   0.0790660  17.1873875  )
        48           N1  tau(  48) = (   3.1258632   2.7928715  18.8711073  )
        49           H1  tau(  49) = (   5.2135379   2.8994874  18.6379610  )
        50           N1  tau(  50) = (   1.8800116   2.4928027  19.3023652  )
        51           H1  tau(  51) = (   1.1979237   2.7808332  18.5810318  )
        52           C1  tau(  52) = (   4.2825308   2.7641870  19.1985473  )
        53           H1  tau(  53) = (   1.7950530   1.5048916  19.5010168  )
        54           O1  tau(  54) = (   0.0080391   3.0388675  17.2016835  )

     number of k points=    10  Fermi-Dirac smearing, width (Ry)=  0.0073
                       cart. coord. in units 2pi/alat
        k(    1) = (   0.0000000   0.0000000   0.0000000), wk =   0.1250000
        k(    2) = (   0.0000000   0.0419351   0.0000000), wk =   0.2500000
        k(    3) = (   0.0000000  -0.0838702   0.0000000), wk =   0.1250000
        k(    4) = (   0.0379955   0.0000049   0.0000000), wk =   0.2500000
        k(    5) = (   0.0379955   0.0419400   0.0000000), wk =   0.2500000
        k(    6) = (   0.0379955  -0.0838652   0.0000000), wk =   0.2500000
        k(    7) = (   0.0379955  -0.0419301   0.0000000), wk =   0.2500000
        k(    8) = (  -0.0759910  -0.0000099   0.0000000), wk =   0.1250000
        k(    9) = (  -0.0759910   0.0419252   0.0000000), wk =   0.2500000
        k(   10) = (  -0.0759910  -0.0838800   0.0000000), wk =   0.1250000

     Initial potential from superposition of free atoms

     starting charge  384.99916, renormalised to  401.00000

     negative rho (up, down):  1.609E-02 0.000E+00

     %%%%%%%%%%%%%%%%%%%%%%%%%%%%%%%%%%%%%%%%%%%%%%%%%%%%%%%%%%%%%%%%%%%%%%%%
     %                                                                      %
     % You are using vdW-DF, which was implemented by the Thonhauser group. %
     % Please cite the following two papers that made this development      %
     % possible and the two reviews that describe the various versions:     %
     %                                                                      %
     %   T. Thonhauser et al., PRL 115, 136402 (2015).                      %
     %   T. Thonhauser et al., PRB 76, 125112 (2007).                       %
     %   K. Berland et al., Rep. Prog. Phys. 78, 066501 (2015).             %
     %   D.C. Langreth et al., J. Phys.: Condens. Matter 21, 084203 (2009). %
     %                                                                      %
     %                                                                      %
     % If you are calculating the stress with vdW-DF, please also cite:     %
     %                                                                      %
     %   R. Sabatini et al., J. Phys.: Condens. Matter 24, 424209 (2012).   %
     %                                                                      %
     %%%%%%%%%%%%%%%%%%%%%%%%%%%%%%%%%%%%%%%%%%%%%%%%%%%%%%%%%%%%%%%%%%%%%%%%

     Adding external electric field

     Computed dipole along edir(3) :
        Dipole              -11.7434 Ry au,        -29.8489 Debye
        Dipole field         -0.0222 Ry au,

        Potential amp.        2.0543 Ry
        Total length         46.3494 bohr

     Starting wfcs are  303 atomic wfcs
  @ DRIVER MODE: Message from server: STATUS
  @ DRIVER MODE: Message from server: POSDATA
  @ DRIVER MODE: Reading and sharing cell
  @ DRIVER MODE: Reading and sharing positions
  @ DRIVER MODE: Received positions

     Self-consistent Calculation

     iteration #  1     ecut=    29.40 Ry     beta= 0.05
     Davidson diagonalization with overlap
     c_bands:  5 eigenvalues not converged
     c_bands:  1 eigenvalues not converged
     c_bands:  2 eigenvalues not converged
     c_bands:  4 eigenvalues not converged
     c_bands:  3 eigenvalues not converged
     c_bands:  1 eigenvalues not converged
     c_bands:  5 eigenvalues not converged
     ethr =  1.00E-05,  avg # of iterations = 22.9

[...]

     total energy              =   -2426.86478319 Ry
     estimated scf accuracy    <    6127.20432051 Ry

     iteration #  2     ecut=    29.40 Ry     beta= 0.05
     Davidson diagonalization with overlap
     ethr =  1.00E-02,  avg # of iterations = 23.0

[...]

     iteration # 62     ecut=    29.40 Ry     beta= 0.05
     Davidson diagonalization with overlap
     c_bands:  1 eigenvalues not converged
     ethr =  2.06E-06,  avg # of iterations =  8.8

[...]

     total energy              =   -2971.44220374 Ry
     estimated scf accuracy    <       0.00000008 Ry

     iteration # 93     ecut=    29.40 Ry     beta= 0.05
     Davidson diagonalization with overlap
     ethr =  1.98E-11,  avg # of iterations =  3.0

     negative rho (up, down):  1.476E-02 0.000E+00

     Adding external electric field

     Computed dipole along edir(3) :
        Dipole                0.6324 Ry au,          1.6073 Debye
        Dipole field          0.0012 Ry au,

        Potential amp.       -0.1106 Ry
        Total length         46.3494 bohr

     End of self-consistent calculation

          k = 0.0000 0.0000 0.0000 ( 18029 PWs)   bands (ev):

   -55.9341 -55.9002 -55.7389 -55.7030 -55.6237 -55.6223 -55.5886 -55.5868
   -55.5700 -55.5363 -55.5131 -55.4774 -55.2699 -55.1669 -54.8404 -54.8064
   -32.4003 -32.2887 -32.2282 -32.2036 -32.0897 -32.0855 -32.0851 -32.0577
   -32.0573 -32.0242 -32.0230 -31.9957 -31.9670 -31.9547 -31.9486 -31.9268
   -31.9053 -31.8868 -31.8745 -31.8600 -31.8378 -31.7997 -31.7961 -31.7732
   -31.7631 -31.7556 -31.7513 -31.7456 -31.7398 -31.7241 -31.7216 -31.6925
   -31.6918 -31.6806 -31.6690 -31.6325 -31.6318 -31.5094 -31.5024 -31.4081
   -31.3916 -31.3145 -31.2448 -31.1634 -31.1405 -31.0616 -30.9755 -30.8647
   -19.1581 -16.4806 -16.2898 -16.0351 -15.9379 -15.8226 -15.7457 -15.6101
   -15.5109 -15.4284 -15.4239 -15.3340 -15.3087 -15.3054 -15.2547 -15.2121
   -15.2072 -15.1969 -15.1716 -15.1689 -15.1384 -15.0940 -15.0225 -14.8994
   -14.8928 -14.8419 -14.8182 -14.7465 -14.6906 -14.6341 -14.5080 -14.3936
   -13.3427 -13.2277  -8.5952  -6.6795  -5.7217  -4.0139  -3.8625  -3.7906
    -3.6798  -3.6101  -3.5850  -3.3125  -3.3078  -2.9845  -2.9292  -2.9197
    -2.8956  -2.8563  -2.6814  -2.6450  -2.6308  -2.5838  -2.5727  -2.5662
    -2.5643  -2.5248  -2.4707  -2.4694  -2.3781  -2.3632  -2.3141  -2.2136
    -2.2116  -2.1931  -2.1241  -2.0977  -2.0471  -2.0027  -1.9831  -1.9773
    -1.9435  -1.9205  -1.7899  -1.7323  -1.6767  -1.5860  -1.5213  -1.4576
    -1.4372  -1.3009  -1.1854  -1.1790  -1.1433  -1.1037  -1.0889  -1.0617
    -0.9395  -0.8749  -0.8600  -0.8076  -0.7491  -0.6920  -0.6852  -0.6324
    -0.5997  -0.5855  -0.5637  -0.5399  -0.4757  -0.3037  -0.2241  -0.1313
    -0.1213  -0.0766  -0.0640  -0.0488   0.0076   0.0315   0.0445   0.1047
     0.1199   0.1756   0.1989   0.2131   0.2232   0.3089   0.3941   0.4199
     0.5283   0.5373   0.5973   0.6149   0.7887   0.8432   0.8600   0.9054
     1.0217   1.0855   1.1273   1.1806   1.3839   1.4903   1.7475   1.7909
     3.2643   3.2665   3.3528   3.4804   3.5942   3.6474   3.6962   3.7038
     3.8777   3.9368

[...]

          k = 0.0380-0.0419 0.0000 ( 17876 PWs)   bands (ev):

[...]

          k =-0.0760-0.0000 0.0000 ( 17886 PWs)   bands (ev):

[...]

          k =-0.0760-0.0839 0.0000 ( 17948 PWs)   bands (ev):

   -55.9173 -55.9169 -55.7221 -55.7197 -55.6116 -55.6063 -55.6042 -55.5988
   -55.5538 -55.5527 -55.4997 -55.4907 -55.2667 -55.1700 -54.8234 -54.8233
   -32.2164 -32.2160 -32.2134 -32.2129 -32.0937 -32.0918 -32.0406 -32.0405
   -32.0099 -32.0067 -31.9413 -31.9392 -31.9341 -31.9324 -31.9126 -31.9088
   -31.8936 -31.8903 -31.8885 -31.8830 -31.8264 -31.8180 -31.8129 -31.8020
   -31.7955 -31.7934 -31.7897 -31.7894 -31.7860 -31.7844 -31.7669 -31.7661
   -31.7367 -31.7276 -31.6567 -31.6489 -31.5756 -31.5231 -31.5040 -31.4539
   -31.4110 -31.4018 -31.1533 -31.1533 -31.0580 -31.0579 -31.0187 -31.0186
   -19.1558 -15.9140 -15.9088 -15.7361 -15.7293 -15.6745 -15.6725 -15.5385
   -15.5378 -15.4348 -15.4323 -15.3758 -15.3732 -15.3583 -15.3473 -15.2869
   -15.2710 -15.2685 -15.2603 -15.2209 -15.2183 -15.2131 -15.2114 -15.1213
   -15.1146 -14.9370 -14.8336 -14.7937 -14.6927 -14.6456 -14.5921 -14.5458
   -13.3299 -13.3298  -8.5465  -6.6450  -5.8709  -4.0043  -3.2141  -3.2057
    -2.9222  -2.9203  -2.8775  -2.8717  -2.6677  -2.6669  -2.6446  -2.6363
    -2.6015  -2.5904  -2.5673  -2.5634  -2.5112  -2.4857  -2.4725  -2.4702
    -2.4673  -2.4571  -2.4469  -2.4371  -2.4105  -2.4003  -2.3963  -2.3913
    -2.3563  -2.2874  -2.2751  -2.1782  -2.1605  -1.9441  -1.9435  -1.9198
    -1.9156  -1.8991  -1.8860  -1.8598  -1.8504  -1.6996  -1.6551  -1.4902
    -1.4870  -1.4187  -1.4039  -1.3504  -1.3161  -1.2519  -1.2292  -1.1321
    -1.1199  -1.0494  -1.0411  -0.9834  -0.9399  -0.9321  -0.9215  -0.8292
    -0.8269  -0.8064  -0.7667  -0.7000  -0.6889  -0.6172  -0.6115  -0.5612
    -0.5597  -0.4928  -0.4858  -0.3170  -0.3135  -0.2213  -0.1949  -0.0986
    -0.0827   0.1262   0.2078   0.2388   0.2604   0.2664   0.4535   0.4664
     0.4831   0.4886   0.5174   0.5535   0.6767   0.6976   0.7630   0.7769
     0.8116   0.8183   1.0454   1.0617   1.5531   1.5534   1.6090   1.6092
     3.3873   3.6676   3.6832   3.7684   3.7690   3.7880   3.7886   3.8174
     3.8222   4.0397

     the Fermi energy is     3.2280 ev

!    total energy              =   -2971.44220630 Ry
     estimated scf accuracy    <       0.00000005 Ry
     smearing contrib. (-TS)   =      -0.01956478 Ry
     internal energy E=F+TS    =   -2971.42264152 Ry

     The total energy is F=E-TS. E is the sum of the following terms:
     one-electron contribution =  -23899.94467651 Ry
     hartree contribution      =   12042.09566917 Ry
     xc contribution           =    -492.30890667 Ry
     ewald contribution        =    9378.73451786 Ry
     electric field correction =       0.00075462 Ry

     convergence has been achieved in  93 iterations

     Forces acting on atoms (cartesian axes, Ry/au):

     atom    1 type  1   force =     0.00003198   -0.00007859    0.10232230
     atom    2 type  1   force =     0.00004076   -0.00006786    0.10233039
     atom    3 type  2   force =     0.00001656   -0.00025307    0.10288206
     atom    4 type  2   force =     0.00007685   -0.00019453    0.10231033
     atom    5 type  2   force =    -0.00009185   -0.00056218   -0.17191517
     atom    6 type  2   force =    -0.00009326   -0.00033979   -0.17210204
     atom    7 type  1   force =    -0.07286238   -0.00013624   -0.02895974
     atom    8 type  1   force =    -0.07287525   -0.00008259   -0.02896629
     atom    9 type  1   force =     0.07273403    0.00030277   -0.02904373
     atom   10 type  1   force =     0.07275723    0.00033474   -0.02905560
     atom   11 type  1   force =    -0.00004149   -0.00106144    0.04702536
     atom   12 type  1   force =    -0.00001401   -0.00087514    0.04698513
     atom   13 type  1   force =     0.00020293    0.00004712   -0.03513581
     atom   14 type  1   force =     0.00023456   -0.00007869   -0.03434452
     atom   15 type  2   force =     0.00065430   -0.00145376   -0.00639701
     atom   16 type  2   force =     0.00063014    0.00162178   -0.00651634
     atom   17 type  2   force =     0.00002088   -0.00077172    0.06352889
     atom   18 type  2   force =    -0.00004230   -0.00153294    0.06390605
     atom   19 type  1   force =    -0.01510523    0.00120283   -0.00076642
     atom   20 type  1   force =    -0.01543999    0.00065191   -0.00080419
     atom   21 type  1   force =     0.01663710    0.00174674   -0.00154557
     atom   22 type  1   force =     0.01685914    0.00105485   -0.00155831
     atom   23 type  1   force =    -0.00339059    0.00175221   -0.03966871
     atom   24 type  1   force =    -0.00233708    0.00099511   -0.04615364
     atom   25 type  1   force =     0.00003847   -0.00007183    0.00014564
     atom   26 type  1   force =     0.00030325   -0.00004190    0.00006510
     atom   27 type  2   force =    -0.00006089   -0.00010283    0.00000910
     atom   28 type  2   force =     0.00019266   -0.00001867    0.00038905
     atom   29 type  2   force =     0.00064947   -0.00029265    0.00057137
     atom   30 type  1   force =    -0.00037993   -0.00010565    0.00028909
     atom   31 type  1   force =    -0.00022649    0.00009032   -0.00020485
     atom   32 type  1   force =     0.00044342   -0.00013457    0.00015579
     atom   33 type  1   force =     0.00038162    0.00008044    0.00007945
     atom   34 type  2   force =    -0.00007304   -0.00016530    0.00058700
     atom   35 type  1   force =     0.00007542   -0.00025229   -0.00025878
     atom   36 type  1   force =    -0.00003799    0.00011835   -0.00031071
     atom   37 type  1   force =     0.00011805   -0.00021996   -0.00009702
     atom   38 type  1   force =    -0.00017820   -0.00032006   -0.00005471
     atom   39 type  2   force =    -0.00008529   -0.00037548    0.00007447
     atom   40 type  2   force =    -0.00031762   -0.00000949    0.00055289
     atom   41 type  2   force =    -0.00021939    0.00018280    0.00024576
     atom   42 type  1   force =     0.00008841    0.00003509   -0.00023733
     atom   43 type  1   force =    -0.00016579   -0.00004626   -0.00054862
     atom   44 type  1   force =     0.00041239   -0.00040553    0.00017209
     atom   45 type  1   force =    -0.00013554   -0.00011732   -0.00036456
     atom   46 type  2   force =    -0.00012114   -0.00073992    0.00016757
     atom   47 type  1   force =     0.00011512   -0.00010644   -0.00004363
     atom   48 type  3   force =    -0.00324908   -0.00243772    0.00271978
     atom   49 type  4   force =     0.00058503    0.00096885   -0.00032978
     atom   50 type  3   force =     0.00238382    0.01891204   -0.00825610
     atom   51 type  4   force =     0.00071952   -0.00259351    0.00379221
     atom   52 type  5   force =     0.00025719   -0.00069782   -0.00010277
     atom   53 type  4   force =     0.00030932   -0.01391581    0.00265181
     atom   54 type  1   force =    -0.00042582    0.00056159   -0.00021671

     Total force =     0.382405     Total SCF correction =     0.000517
  @ DRIVER MODE: Message from server: STATUS
  @ DRIVER MODE: Message from server: GETFORCE
  @ DRIVER MODE: Returning v,forces,stress,ensemble

     Writing output data file ./calc.save/
  @ DRIVER MODE: Message from server: EXIT
  @ DRIVE MODE: Exiting

     General routines

     Parallel routines

   This run was terminated on:  23:10:51  26Sep2021

   JOB DONE.