     Program PWSCF v.6.7GPU starts on 16Sep2021 at  2:46: 4

     R & G space division:  proc/nbgrp/npool/nimage =      10
     Reading input from /storage/home/hcoda1/3/ntian30/research/carbon/CxH_vib/H2O_calc/ads_slab/CH3N2H2O_c/out_0035/pw.inp
Warning: card &CELL ignored
Warning: card   CELL_DYNAMICS='IPI', ignored
Warning: card / ignored

     Current dimensions of program PWSCF are:
     Max number of different atomic species (ntypx) = 10
     Max number of k-points (npk) =  40000
     Max angular momentum in pseudopotentials (lmaxx) =  3
     Presently no symmetry can be used with electric field

     Message from routine cell_base_init:
     DEPRECATED: use true lattice parameter, not A to a.u. conversion factor

     IMPORTANT: XC functional enforced from input :
     Exchange-correlation= BEEF-VDW
                           (   1   4  43  14   2   0   0)
     Any further DFT definition will be discarded
     Please, verify this is what you really want

  @ DRIVER MODE: Connecting to
 qe_1139763_2852616.sched-torque.pace.gatech.eduvmhg4sg__scratch
  using UNIX socket
  @ DRIVER MODE: Message from server: STATUS
  @ DRIVER MODE: Message from server: INIT
  @ DRIVER MODE: Receiving replica           0          -1
  @ DRIVER MODE: Receiving encoded integer          25
  @ DRIVER MODE:  SCF:  T  FORCE:  T  STRESS:  F  VC:  F  ENSEMBLE:  F
  @ DRIVER MODE:  SCF:  T  FORCE:  T  STRESS:  F  VC:  F  ENSEMBLE:  F

     Using Slab Decomposition

     bravais-lattice index     =            0
     lattice parameter (alat)  =       1.8897  a.u.
     unit-cell volume          =    6658.9804 (a.u.)^3
     number of atoms/cell      =           56
     number of atomic types    =            5
     number of electrons       =       403.00
     number of Kohn-Sham states=          211
     kinetic-energy cutoff     =      29.3995  Ry
     charge density cutoff     =     293.9946  Ry
     scf convergence threshold =      7.3E-08
     mixing beta               =       0.0500
     number of iterations used =            8  plain     mixing
     Exchange-correlation= BEEF-VDW
                           (   1   4  43  14   2   0   0)

     celldm(1)=   1.889726  celldm(2)=   0.000000  celldm(3)=   0.000000
     celldm(4)=   0.000000  celldm(5)=   0.000000  celldm(6)=   0.000000

     crystal axes: (cart. coord. in units of alat)
               a(1) = (   6.579727   0.000000   0.000000 )
               a(2) = (  -0.000775   5.961596   0.000000 )
               a(3) = (   0.000000   0.000000  25.155947 )

     reciprocal axes: (cart. coord. in units 2 pi/alat)
               b(1) = (  0.151982  0.000020  0.000000 )
               b(2) = (  0.000000  0.167740  0.000000 )
               b(3) = (  0.000000  0.000000  0.039752 )

     PseudoPot. # 1 for Ti read from file:
     /storage/coda1/p-amedford6/0/shared/rich_project_chbe-medford/medford-share/data/pseudos_module/espresso/nninc/pbe/van/Ti.UPF
     MD5 check sum: 8e4df49b7f0d34bbd5052bf3f5ea0213
     Pseudo is Ultrasoft, Zval = 12.0
     Generated by new atomic code, or converted to UPF format
     Using radial grid of  851 points,  6 beta functions with:
                l(1) =   0
                l(2) =   0
                l(3) =   1
                l(4) =   1
                l(5) =   2
                l(6) =   2
     Q(r) pseudized with  8 coefficients,  rinner =    1.000   1.000   1.000
                                                       1.000   1.000

     PseudoPot. # 2 for O  read from file:
     /storage/coda1/p-amedford6/0/shared/rich_project_chbe-medford/medford-share/data/pseudos_module/espresso/nninc/pbe/van/O.UPF
     MD5 check sum: 78c19812648e8988a0fe644b0f25305e
     Pseudo is Ultrasoft, Zval =  6.0
     Generated by new atomic code, or converted to UPF format
     Using radial grid of  737 points,  4 beta functions with:
                l(1) =   0
                l(2) =   0
                l(3) =   1
                l(4) =   1
     Q(r) pseudized with  8 coefficients,  rinner =    0.800   0.800   0.800

     PseudoPot. # 3 for N  read from file:
     /storage/coda1/p-amedford6/0/shared/rich_project_chbe-medford/medford-share/data/pseudos_module/espresso/nninc/pbe/van/N.UPF
     MD5 check sum: 90d10febe142ad51ac9d5be1deb811c4
     Pseudo is Ultrasoft, Zval =  5.0
     Generated by new atomic code, or converted to UPF format
     Using radial grid of  729 points,  4 beta functions with:
                l(1) =   0
                l(2) =   0
                l(3) =   1
                l(4) =   1
     Q(r) pseudized with  8 coefficients,  rinner =    0.800   0.800   0.800

     PseudoPot. # 4 for C  read from file:
     /storage/coda1/p-amedford6/0/shared/rich_project_chbe-medford/medford-share/data/pseudos_module/espresso/nninc/pbe/van/C.UPF
     MD5 check sum: 1a69bf6b8db32088f5b2163dbdb77a27
     Pseudo is Ultrasoft, Zval =  4.0
     Generated by new atomic code, or converted to UPF format
     Using radial grid of  721 points,  4 beta functions with:
                l(1) =   0
                l(2) =   0
                l(3) =   1
                l(4) =   1
     Q(r) pseudized with  8 coefficients,  rinner =    0.800   0.800   0.800

     PseudoPot. # 5 for H  read from file:
     /storage/coda1/p-amedford6/0/shared/rich_project_chbe-medford/medford-share/data/pseudos_module/espresso/nninc/pbe/van/H.UPF
     MD5 check sum: b5ee9d7bfd3a09ee7748110bda690ff7
     Pseudo is Ultrasoft, Zval =  1.0
     Generated by new atomic code, or converted to UPF format
     Using radial grid of  615 points,  1 beta functions with:
                l(1) =   0
     Q(r) pseudized with  8 coefficients,  rinner =    0.800

     atomic species   valence    mass     pseudopotential
        Ti1           12.00    47.86700     Ti( 1.00)
        O1             6.00    15.99900     O ( 1.00)
        N1             5.00    14.00700     N ( 1.00)
        C1             4.00    12.01100     C ( 1.00)
        H1             1.00     1.00800     H ( 1.00)

     No symmetry found

   Cartesian axes

     site n.     atom                  positions (alat units)
         1           Ti1 tau(   1) = (   0.0004258   2.9801865   6.0000000  )
         2           Ti1 tau(   2) = (   3.2906075   1.4906267   6.0002472  )
         3           O1  tau(   3) = (   0.0006271   0.0005054   7.9858123  )
         4           O1  tau(   4) = (   3.2906025   0.0005020   7.3038282  )
         5           O1  tau(   5) = (   4.5942328   1.4918067   9.2879030  )
         6           O1  tau(   6) = (   1.9868534   1.4903216   9.2879459  )
         7           Ti1 tau(   7) = (   3.2907910   2.8959150   9.1758416  )
         8           Ti1 tau(   8) = (   0.0015273   1.4827037   9.2680791  )
         9           O1  tau(   9) = (   3.2828550   5.9398922  11.3444325  )
        10           O1  tau(  10) = (   0.0116148   5.9584955  10.6183126  )
        11           O1  tau(  11) = (   1.2785533   1.4626539  12.6279770  )
        12           O1  tau(  12) = (   5.2704455   1.4657548  12.6160130  )
        13           Ti1 tau(  13) = (   0.0600808   2.9393476  12.6134163  )
        14           Ti1 tau(  14) = (   3.3737088   1.4602624  12.5010433  )
        15           O1  tau(  15) = (   6.5684750   5.9323085  14.6353932  )
        16           O1  tau(  16) = (   3.2849856   5.9366180  13.9618146  )
        17           O1  tau(  17) = (   4.5362432   1.5114280  16.0576559  )
        18           O1  tau(  18) = (   2.0240554   1.5008084  16.0383298  )
        19           Ti1 tau(  19) = (   3.2703657   2.9522362  15.6888820  )
        20           Ti1 tau(  20) = (   6.5391562   1.4934284  15.8005638  )
        21           O1  tau(  21) = (   3.2904802   0.0005063   4.7018136  )
        22           O1  tau(  22) = (   6.5583345   5.9570231  17.1947061  )
        23           O1  tau(  23) = (   1.3043587   1.4918075   6.0039043  )
        24           O1  tau(  24) = (   5.2767064   1.4903225   6.0039473  )
        25           Ti1 tau(  25) = (   0.0000382   5.9609847   6.0000000  )
        26           Ti1 tau(  26) = (   3.2902200   4.4714249   6.0002472  )
        27           O1  tau(  27) = (   0.0002396   2.9813036   7.9858123  )
        28           O1  tau(  28) = (   3.2902150   2.9813002   7.3038282  )
        29           O1  tau(  29) = (   4.5938453   4.4726049   9.2879030  )
        30           O1  tau(  30) = (   1.9864658   4.4711199   9.2879459  )
        31           Ti1 tau(  31) = (   3.2891106   5.8743827   9.1763621  )
        32           Ti1 tau(  32) = (   0.0006254   4.4649316   9.2693709  )
        33           O1  tau(  33) = (   3.2888364   2.9620848  11.3424199  )
        34           O1  tau(  34) = (   0.0092240   2.9805883  10.6323155  )
        35           O1  tau(  35) = (   1.2785924   4.4508711  12.6313046  )
        36           O1  tau(  36) = (   5.2742027   4.4576360  12.6186982  )
        37           Ti1 tau(  37) = (   0.0560446   5.9134488  12.5469576  )
        38           Ti1 tau(  38) = (   3.3742563   4.4530221  12.5021653  )
        39           O1  tau(  39) = (   6.5655761   2.9369947  14.6516633  )
        40           O1  tau(  40) = (   3.2805149   2.9594171  13.8967751  )
        41           O1  tau(  41) = (   4.5308665   4.4203993  16.0704334  )
        42           O1  tau(  42) = (   2.0169005   4.4237906  16.0574931  )
        43           Ti1 tau(  43) = (   3.2493829   5.9208236  15.8028744  )
        44           Ti1 tau(  44) = (   6.5423592   4.6318136  16.0678394  )
        45           O1  tau(  45) = (   3.2900926   2.9813045   4.7018136  )
        46           O1  tau(  46) = (   1.3039711   4.4726057   6.0039043  )
        47           O1  tau(  47) = (   5.2763189   4.4711207   6.0039473  )
        48           N1  tau(  48) = (   0.1516996   2.6368831  18.6397825  )
        49           N1  tau(  49) = (   0.0343947   2.8734663  17.4441277  )
        50           C1  tau(  50) = (   0.1908864   3.7705318  19.5986308  )
        51           H1  tau(  51) = (   6.5333492   4.7333814  19.1494580  )
        52           H1  tau(  52) = (   6.0816938   3.5230213  20.4074400  )
        53           H1  tau(  53) = (   1.1988782   3.7880179  20.0120438  )
        54           O1  tau(  54) = (   3.2442500   5.9498283  18.2024067  )
        55           H1  tau(  55) = (   4.0366425   0.4867780  18.4672138  )
        56           H1  tau(  56) = (   2.4709518   0.5160301  18.4623371  )

     number of k points=    10  Fermi-Dirac smearing, width (Ry)=  0.0073
                       cart. coord. in units 2pi/alat
        k(    1) = (   0.0000000   0.0000000   0.0000000), wk =   0.1250000
        k(    2) = (   0.0000000   0.0419351   0.0000000), wk =   0.2500000
        k(    3) = (   0.0000000  -0.0838702   0.0000000), wk =   0.1250000
        k(    4) = (   0.0379955   0.0000049   0.0000000), wk =   0.2500000
        k(    5) = (   0.0379955   0.0419400   0.0000000), wk =   0.2500000
        k(    6) = (   0.0379955  -0.0838652   0.0000000), wk =   0.2500000
        k(    7) = (   0.0379955  -0.0419301   0.0000000), wk =   0.2500000
        k(    8) = (  -0.0759910  -0.0000099   0.0000000), wk =   0.1250000
        k(    9) = (  -0.0759910   0.0419252   0.0000000), wk =   0.2500000
        k(   10) = (  -0.0759910  -0.0838800   0.0000000), wk =   0.1250000

     Initial potential from superposition of free atoms

     starting charge  386.99914, renormalised to  403.00000

     negative rho (up, down):  1.445E-02 0.000E+00

     %%%%%%%%%%%%%%%%%%%%%%%%%%%%%%%%%%%%%%%%%%%%%%%%%%%%%%%%%%%%%%%%%%%%%%%%
     %                                                                      %
     % You are using vdW-DF, which was implemented by the Thonhauser group. %
     % Please cite the following two papers that made this development      %
     % possible and the two reviews that describe the various versions:     %
     %                                                                      %
     %   T. Thonhauser et al., PRL 115, 136402 (2015).                      %
     %   T. Thonhauser et al., PRB 76, 125112 (2007).                       %
     %   K. Berland et al., Rep. Prog. Phys. 78, 066501 (2015).             %
     %   D.C. Langreth et al., J. Phys.: Condens. Matter 21, 084203 (2009). %
     %                                                                      %
     %                                                                      %
     % If you are calculating the stress with vdW-DF, please also cite:     %
     %                                                                      %
     %   R. Sabatini et al., J. Phys.: Condens. Matter 24, 424209 (2012).   %
     %                                                                      %
     %%%%%%%%%%%%%%%%%%%%%%%%%%%%%%%%%%%%%%%%%%%%%%%%%%%%%%%%%%%%%%%%%%%%%%%%

     Adding external electric field

     Computed dipole along edir(3) :
        Dipole              -13.2278 Ry au,        -33.6216 Debye
        Dipole field         -0.0250 Ry au,

        Potential amp.        2.3140 Ry
        Total length         46.3494 bohr

     Starting wfcs are  305 atomic wfcs
  @ DRIVER MODE: Message from server: STATUS
  @ DRIVER MODE: Message from server: POSDATA
  @ DRIVER MODE: Reading and sharing cell
  @ DRIVER MODE: Reading and sharing positions
  @ DRIVER MODE: Received positions

     Self-consistent Calculation

     iteration #  1     ecut=    29.40 Ry     beta= 0.05
     Davidson diagonalization with overlap
     c_bands:  4 eigenvalues not converged
     c_bands:  2 eigenvalues not converged
     c_bands:  4 eigenvalues not converged
     c_bands:  1 eigenvalues not converged
     c_bands:  1 eigenvalues not converged
     c_bands:  1 eigenvalues not converged
     c_bands:  4 eigenvalues not converged
     c_bands:  1 eigenvalues not converged
     c_bands:  1 eigenvalues not converged
     ethr =  1.00E-05,  avg # of iterations = 29.9

[...]

     total energy              =   -2367.53516047 Ry
     estimated scf accuracy    <    6916.33879659 Ry

     iteration #  2     ecut=    29.40 Ry     beta= 0.05
     Davidson diagonalization with overlap
     ethr =  1.00E-02,  avg # of iterations = 23.3

[...]

     iteration # 75     ecut=    29.40 Ry     beta= 0.05
     Davidson diagonalization with overlap
     c_bands:  2 eigenvalues not converged
     ethr =  6.47E-11,  avg # of iterations = 13.1

[...]

     total energy              =   -2974.00310282 Ry
     estimated scf accuracy    <       0.00000029 Ry

     iteration # 76     ecut=    29.40 Ry     beta= 0.05
     Davidson diagonalization with overlap
     ethr =  6.47E-11,  avg # of iterations = 12.3

     negative rho (up, down):  1.458E-02 0.000E+00

     Adding external electric field

     Computed dipole along edir(3) :
        Dipole                0.9236 Ry au,          2.3475 Debye
        Dipole field          0.0017 Ry au,

        Potential amp.       -0.1616 Ry
        Total length         46.3494 bohr

     End of self-consistent calculation

          k = 0.0000 0.0000 0.0000 ( 18029 PWs)   bands (ev):

   -55.6025 -55.5684 -55.5614 -55.5543 -55.5254 -55.4357 -55.4125 -55.3953
   -55.3785 -55.3777 -55.3499 -55.3440 -55.0012 -54.8727 -54.5812 -54.5471
   -32.1036 -32.0850 -31.9535 -31.9357 -31.9113 -31.8953 -31.8675 -31.8648
   -31.8453 -31.7981 -31.7910 -31.7768 -31.7546 -31.7401 -31.7244 -31.7183
   -31.7069 -31.6942 -31.6886 -31.6596 -31.6527 -31.6400 -31.6052 -31.6009
   -31.5902 -31.5880 -31.5845 -31.5767 -31.5527 -31.5494 -31.5473 -31.5423
   -31.5305 -31.5292 -31.5193 -31.5107 -31.4896 -31.2708 -31.2002 -31.1302
   -31.1094 -31.0792 -30.9882 -30.8998 -30.8774 -30.8049 -30.7185 -30.6074
   -18.9022 -18.3026 -16.3016 -16.0686 -15.8431 -15.7515 -15.7102 -15.5038
   -15.4032 -15.3275 -15.2095 -15.1455 -15.1374 -15.1182 -15.1068 -15.1022
   -15.0432 -15.0393 -15.0374 -15.0237 -14.9980 -14.9505 -14.9357 -14.9316
   -14.8366 -14.7640 -14.7399 -14.7226 -14.6800 -14.6549 -14.2031 -13.0833
   -12.9669 -11.3230  -6.8638  -6.6929  -4.2046  -3.8751  -3.8207  -3.6759
    -3.5469  -3.5070  -3.4360  -3.3640  -3.2334  -3.2085  -3.0359  -2.8361
    -2.7761  -2.7474  -2.7016  -2.6302  -2.5154  -2.4593  -2.4088  -2.4061
    -2.3871  -2.3807  -2.3563  -2.3380  -2.2403  -2.2205  -2.1518  -2.1354
    -2.0861  -1.9857  -1.9560  -1.9149  -1.9055  -1.8776  -1.8645  -1.8506
    -1.8276  -1.8033  -1.7628  -1.6965  -1.6168  -1.5811  -1.5071  -1.4488
    -1.4085  -1.3485  -1.2125  -1.1374  -1.0896  -1.0571  -1.0473  -1.0291
    -0.9950  -0.9777  -0.8666  -0.7545  -0.7386  -0.6738  -0.6112  -0.5281
    -0.4949  -0.4337  -0.3694  -0.3517  -0.3466  -0.3103  -0.2689  -0.2221
    -0.0845  -0.0294   0.0042   0.0122   0.0738   0.1151   0.1464   0.2290
     0.2439   0.2834   0.3267   0.3579   0.3690   0.3789   0.4000   0.4307
     0.4355   0.6252   0.6683   0.7129   0.7474   0.7856   0.9315   0.9504
     1.0571   1.1626   1.3679   1.4412   1.5404   1.6333   2.0125   2.0583
     2.7603   3.5318   3.6195   3.6642   3.7019   3.7778   3.7887   3.9869
     4.0023   4.0414   4.1167

[...]

          k = 0.0380-0.0419 0.0000 ( 17876 PWs)   bands (ev):

[...]

          k =-0.0760-0.0000 0.0000 ( 17886 PWs)   bands (ev):

[...]

          k =-0.0760-0.0839 0.0000 ( 17948 PWs)   bands (ev):

   -55.5858 -55.5849 -55.5533 -55.5445 -55.5417 -55.4259 -55.4052 -55.3961
   -55.3942 -55.3628 -55.3591 -55.3513 -54.9991 -54.8747 -54.5642 -54.5639
   -31.9174 -31.9009 -31.9006 -31.8999 -31.8811 -31.8802 -31.8404 -31.8317
   -31.8046 -31.7836 -31.7719 -31.7638 -31.7589 -31.7152 -31.7117 -31.7089
   -31.7066 -31.7053 -31.7044 -31.7000 -31.6975 -31.6968 -31.6569 -31.6445
   -31.6236 -31.6174 -31.6104 -31.5958 -31.5952 -31.5925 -31.5864 -31.5776
   -31.5737 -31.5641 -31.5636 -31.5548 -31.4214 -31.2727 -31.2189 -31.1631
   -31.1320 -31.1062 -30.8902 -30.8900 -30.8011 -30.8009 -30.7618 -30.7617
   -18.9012 -18.2989 -15.7557 -15.6514 -15.5546 -15.5191 -15.4626 -15.4031
   -15.3883 -15.3069 -15.2833 -15.2798 -15.2189 -15.1968 -15.1620 -15.1494
   -15.1281 -15.1147 -15.1111 -15.0550 -15.0485 -15.0393 -15.0325 -15.0291
   -14.9623 -14.9199 -14.9163 -14.9117 -14.7871 -14.6617 -14.3827 -13.0688
   -13.0685 -11.3204  -6.8902  -6.6733  -4.1305  -3.8993  -3.7894  -3.2619
    -3.0385  -2.8363  -2.8077  -2.7131  -2.6981  -2.6681  -2.5356  -2.4958
    -2.4560  -2.4417  -2.4188  -2.4176  -2.4046  -2.3983  -2.3822  -2.3586
    -2.3297  -2.3038  -2.2740  -2.2660  -2.2539  -2.2355  -2.2225  -2.2052
    -2.2022  -2.1582  -2.1369  -2.1276  -2.0448  -1.9904  -1.8274  -1.7851
    -1.7407  -1.7312  -1.7061  -1.7010  -1.6686  -1.6547  -1.6053  -1.5912
    -1.4752  -1.3624  -1.3227  -1.2999  -1.2896  -1.2709  -1.1996  -1.0985
    -1.0740  -0.9994  -0.9949  -0.8915  -0.8773  -0.7970  -0.7867  -0.7619
    -0.7063  -0.6702  -0.6503  -0.5668  -0.5612  -0.5385  -0.4964  -0.4662
    -0.4086  -0.3528  -0.3234  -0.3141  -0.2766  -0.2519  -0.2112  -0.1607
    -0.0982  -0.0601   0.0352   0.1381   0.2219   0.3581   0.4683   0.4959
     0.5707   0.6073   0.6814   0.7111   0.7180   0.7793   0.7924   0.8815
     0.9386   0.9514   0.9874   1.1062   1.8046   1.8060   1.8778   1.8782
     2.7852   3.7570   3.8664   3.9093   3.9301   4.0052   4.0463   4.0661
     4.0686   4.1048   4.2079

     the Fermi energy is     3.5313 ev

!    total energy              =   -2974.00311423 Ry
     estimated scf accuracy    <       0.00000006 Ry
     smearing contrib. (-TS)   =      -0.02181084 Ry
     internal energy E=F+TS    =   -2973.98130338 Ry

     The total energy is F=E-TS. E is the sum of the following terms:
     one-electron contribution =  -23852.13732501 Ry
     hartree contribution      =   12020.65462677 Ry
     xc contribution           =    -494.04095791 Ry
     ewald contribution        =    9351.54074305 Ry
     electric field correction =       0.00160972 Ry

     convergence has been achieved in  76 iterations

     Forces acting on atoms (cartesian axes, Ry/au):

     atom    1 type  1   force =     0.00017722   -0.00020523    0.09632750
     atom    2 type  1   force =    -0.00018057   -0.00044086   -0.17541812
     atom    3 type  2   force =     0.00001831   -0.00014574   -0.02470679
     atom    4 type  2   force =     0.00005635   -0.00161926    0.05343031
     atom    5 type  2   force =    -0.01196288   -0.00148245    0.00369272
     atom    6 type  2   force =     0.01341765   -0.00064228    0.00223139
     atom    7 type  1   force =    -0.00108633    0.00055799   -0.00698756
     atom    8 type  1   force =     0.00064114    0.00917148    0.02676938
     atom    9 type  2   force =     0.00017383    0.00020336   -0.00045851
     atom   10 type  2   force =    -0.00157532   -0.00029767   -0.01790113
     atom   11 type  2   force =     0.00091368    0.00089587    0.00000977
     atom   12 type  2   force =    -0.00061865    0.00059755   -0.00002487
     atom   13 type  1   force =    -0.00027084    0.00023863   -0.00035244
     atom   14 type  1   force =     0.00026073    0.00026283    0.00006119
     atom   15 type  2   force =     0.00008689    0.00018817   -0.00027461
     atom   16 type  2   force =     0.00000886    0.00021096    0.00083736
     atom   17 type  2   force =     0.00104428    0.00003331    0.00014944
     atom   18 type  2   force =    -0.00136141   -0.00005180   -0.00004214
     atom   19 type  1   force =    -0.00006164    0.00129609   -0.00013515
     atom   20 type  1   force =    -0.00024953   -0.00012051   -0.00015544
     atom   21 type  2   force =     0.00010037    0.00001924    0.10321546
     atom   22 type  2   force =    -0.00011991    0.00032212    0.00052236
     atom   23 type  2   force =    -0.07145794   -0.00009134   -0.02777839
     atom   24 type  2   force =     0.07144629    0.00035518   -0.02777677
     atom   25 type  1   force =     0.00001783   -0.00032803    0.09607363
     atom   26 type  1   force =    -0.00031378   -0.00045192   -0.17576993
     atom   27 type  2   force =     0.00008814   -0.00025563   -0.02369456
     atom   28 type  2   force =     0.00012224   -0.00130158    0.05283309
     atom   29 type  2   force =    -0.01223865    0.00021282    0.00356987
     atom   30 type  2   force =     0.01357693    0.00042661    0.00207259
     atom   31 type  1   force =    -0.00117440    0.00349396   -0.01017896
     atom   32 type  1   force =     0.00082732   -0.01099590    0.02706122
     atom   33 type  2   force =     0.00010016   -0.00000079    0.00058698
     atom   34 type  2   force =    -0.00116046   -0.00123902   -0.02346570
     atom   35 type  2   force =     0.00083506   -0.00051848   -0.00010407
     atom   36 type  2   force =    -0.00059773   -0.00018206   -0.00013132
     atom   37 type  1   force =    -0.00056020    0.00020373   -0.00042490
     atom   38 type  1   force =     0.00027633   -0.00024733    0.00011781
     atom   39 type  2   force =     0.00011873    0.00044925    0.00012511
     atom   40 type  2   force =     0.00019638    0.00014948   -0.00052669
     atom   41 type  2   force =     0.00081210    0.00070213    0.00035622
     atom   42 type  2   force =    -0.00089931    0.00067935    0.00023007
     atom   43 type  1   force =    -0.00000491   -0.00092901   -0.00086177
     atom   44 type  1   force =    -0.00027392    0.00110060    0.00033633
     atom   45 type  2   force =     0.00008930   -0.00002880    0.10319659
     atom   46 type  2   force =    -0.07145704   -0.00001647   -0.02778857
     atom   47 type  2   force =     0.07144015    0.00039411   -0.02778598
     atom   48 type  3   force =    -0.00053564   -0.00163604   -0.00115994
     atom   49 type  3   force =     0.00008987   -0.00034732    0.00029023
     atom   50 type  4   force =    -0.00321830    0.00131344   -0.00198198
     atom   51 type  5   force =    -0.00035039   -0.00067747   -0.00112035
     atom   52 type  5   force =     0.00107098   -0.00000179    0.00004427
     atom   53 type  5   force =     0.00378833   -0.00003102    0.00270646
     atom   54 type  2   force =     0.00161734    0.00012161   -0.00022420
     atom   55 type  5   force =    -0.00060674   -0.00007967   -0.00012694
     atom   56 type  5   force =    -0.00107630    0.00076560    0.00051042

     Total force =     0.367795     Total SCF correction =     0.000497
  @ DRIVER MODE: Message from server: STATUS
  @ DRIVER MODE: Message from server: GETFORCE
  @ DRIVER MODE: Returning v,forces,stress,ensemble

     Writing output data file ./calc.save/
  @ DRIVER MODE: Message from server: EXIT
  @ DRIVE MODE: Exiting

     General routines

     Parallel routines

   This run was terminated on:   3: 6:27  16Sep2021

   JOB DONE.