     Program PWSCF v.6.7GPU starts on 16Jul2021 at 12:16: 3

     R & G space division:  proc/nbgrp/npool/nimage =      16
     Reading input from /storage/home/hcoda1/3/ntian30/research/carbon/15Jul_vib/ads_slab/CH3N2H_a/out_0027/pw.inp
Warning: card &CELL ignored
Warning: card   CELL_DYNAMICS='IPI', ignored
Warning: card / ignored

     Current dimensions of program PWSCF are:
     Max number of different atomic species (ntypx) = 10
     Max number of k-points (npk) =  40000
     Max angular momentum in pseudopotentials (lmaxx) =  3
     Presently no symmetry can be used with electric field

     Message from routine cell_base_init:
     DEPRECATED: use true lattice parameter, not A to a.u. conversion factor

     IMPORTANT: XC functional enforced from input :
     Exchange-correlation= BEEF-VDW
                           (   1   4  43  14   2   0   0)
     Any further DFT definition will be discarded
     Please, verify this is what you really want

  @ DRIVER MODE: Connecting to
 qe_1139763_2351646.sched-torque.pace.gatech.edu5te3k30v_scratch
  using UNIX socket
  @ DRIVER MODE: Message from server: STATUS
  @ DRIVER MODE: Message from server: INIT
  @ DRIVER MODE: Receiving replica           0          -1
  @ DRIVER MODE: Receiving encoded integer          25
  @ DRIVER MODE:  SCF:  T  FORCE:  T  STRESS:  F  VC:  F  ENSEMBLE:  F
  @ DRIVER MODE:  SCF:  T  FORCE:  T  STRESS:  F  VC:  F  ENSEMBLE:  F

     Using Slab Decomposition

     bravais-lattice index     =            0
     lattice parameter (alat)  =       1.8897  a.u.
     unit-cell volume          =    6658.9804 (a.u.)^3
     number of atoms/cell      =           54
     number of atomic types    =            5
     number of electrons       =       396.00
     number of Kohn-Sham states=          208
     kinetic-energy cutoff     =      29.3995  Ry
     charge density cutoff     =     293.9946  Ry
     scf convergence threshold =      7.3E-08
     mixing beta               =       0.0500
     number of iterations used =            8  plain     mixing
     Exchange-correlation= BEEF-VDW
                           (   1   4  43  14   2   0   0)

     celldm(1)=   1.889726  celldm(2)=   0.000000  celldm(3)=   0.000000
     celldm(4)=   0.000000  celldm(5)=   0.000000  celldm(6)=   0.000000

     crystal axes: (cart. coord. in units of alat)
               a(1) = (   6.579727   0.000000   0.000000 )
               a(2) = (  -0.000775   5.961596   0.000000 )
               a(3) = (   0.000000   0.000000  25.155947 )

     reciprocal axes: (cart. coord. in units 2 pi/alat)
               b(1) = (  0.151982  0.000020  0.000000 )
               b(2) = (  0.000000  0.167740  0.000000 )
               b(3) = (  0.000000  0.000000  0.039752 )

     PseudoPot. # 1 for Ti read from file:
     /storage/coda1/p-amedford6/0/shared/rich_project_chbe-medford/medford-share/data/pseudos_module/espresso/nninc/pbe/van/Ti.UPF
     MD5 check sum: 8e4df49b7f0d34bbd5052bf3f5ea0213
     Pseudo is Ultrasoft, Zval = 12.0
     Generated by new atomic code, or converted to UPF format
     Using radial grid of  851 points,  6 beta functions with:
                l(1) =   0
                l(2) =   0
                l(3) =   1
                l(4) =   1
                l(5) =   2
                l(6) =   2
     Q(r) pseudized with  8 coefficients,  rinner =    1.000   1.000   1.000
                                                       1.000   1.000

     PseudoPot. # 2 for O  read from file:
     /storage/coda1/p-amedford6/0/shared/rich_project_chbe-medford/medford-share/data/pseudos_module/espresso/nninc/pbe/van/O.UPF
     MD5 check sum: 78c19812648e8988a0fe644b0f25305e
     Pseudo is Ultrasoft, Zval =  6.0
     Generated by new atomic code, or converted to UPF format
     Using radial grid of  737 points,  4 beta functions with:
                l(1) =   0
                l(2) =   0
                l(3) =   1
                l(4) =   1
     Q(r) pseudized with  8 coefficients,  rinner =    0.800   0.800   0.800

     PseudoPot. # 3 for N  read from file:
     /storage/coda1/p-amedford6/0/shared/rich_project_chbe-medford/medford-share/data/pseudos_module/espresso/nninc/pbe/van/N.UPF
     MD5 check sum: 90d10febe142ad51ac9d5be1deb811c4
     Pseudo is Ultrasoft, Zval =  5.0
     Generated by new atomic code, or converted to UPF format
     Using radial grid of  729 points,  4 beta functions with:
                l(1) =   0
                l(2) =   0
                l(3) =   1
                l(4) =   1
     Q(r) pseudized with  8 coefficients,  rinner =    0.800   0.800   0.800

     PseudoPot. # 4 for C  read from file:
     /storage/coda1/p-amedford6/0/shared/rich_project_chbe-medford/medford-share/data/pseudos_module/espresso/nninc/pbe/van/C.UPF
     MD5 check sum: 1a69bf6b8db32088f5b2163dbdb77a27
     Pseudo is Ultrasoft, Zval =  4.0
     Generated by new atomic code, or converted to UPF format
     Using radial grid of  721 points,  4 beta functions with:
                l(1) =   0
                l(2) =   0
                l(3) =   1
                l(4) =   1
     Q(r) pseudized with  8 coefficients,  rinner =    0.800   0.800   0.800

     PseudoPot. # 5 for H  read from file:
     /storage/coda1/p-amedford6/0/shared/rich_project_chbe-medford/medford-share/data/pseudos_module/espresso/nninc/pbe/van/H.UPF
     MD5 check sum: b5ee9d7bfd3a09ee7748110bda690ff7
     Pseudo is Ultrasoft, Zval =  1.0
     Generated by new atomic code, or converted to UPF format
     Using radial grid of  615 points,  1 beta functions with:
                l(1) =   0
     Q(r) pseudized with  8 coefficients,  rinner =    0.800

     atomic species   valence    mass     pseudopotential
        Ti1           12.00    47.86700     Ti( 1.00)
        O1             6.00    15.99900     O ( 1.00)
        N1             5.00    14.00700     N ( 1.00)
        C1             4.00    12.01100     C ( 1.00)
        H1             1.00     1.00800     H ( 1.00)

     Starting magnetic structure
     atomic species   magnetization
        Ti1          0.000
        O1           0.000
        N1           0.000
        C1           0.025
        H1           0.000

     No symmetry found

   Cartesian axes

     site n.     atom                  positions (alat units)
         1           Ti1 tau(   1) = (   0.0004258   2.9801865   6.0000000  )
         2           Ti1 tau(   2) = (   3.2906075   1.4906267   6.0002472  )
         3           O1  tau(   3) = (   0.0006271   0.0005054   7.9858123  )
         4           O1  tau(   4) = (   3.2906025   0.0005020   7.3038282  )
         5           O1  tau(   5) = (   4.5942328   1.4918067   9.2879030  )
         6           O1  tau(   6) = (   1.9868534   1.4903216   9.2879459  )
         7           Ti1 tau(   7) = (   3.2907910   2.8959150   9.1758416  )
         8           Ti1 tau(   8) = (   0.0015273   1.4827037   9.2680791  )
         9           O1  tau(   9) = (   3.3106937   0.0084137  11.2927479  )
        10           O1  tau(  10) = (   0.0116148   5.9584955  10.6183126  )
        11           O1  tau(  11) = (   1.3255326   1.5151957  12.5859258  )
        12           O1  tau(  12) = (   5.3246634   1.4871208  12.6441624  )
        13           Ti1 tau(  13) = (   6.5358624   2.9940264  12.7507449  )
        14           Ti1 tau(  14) = (   3.1828407   1.5032771  12.4528579  )
        15           O1  tau(  15) = (   0.1336207   0.0073438  14.6266748  )
        16           O1  tau(  16) = (   3.2550344   0.0288700  13.8306396  )
        17           O1  tau(  17) = (   4.6334483   1.5013943  15.9792279  )
        18           O1  tau(  18) = (   2.1409664   1.5470880  15.9954950  )
        19           Ti1 tau(  19) = (   3.4798582   3.0305884  15.6593850  )
        20           Ti1 tau(  20) = (   0.1386493   1.3724552  15.8613965  )
        21           O1  tau(  21) = (   3.2904802   0.0005063   4.7018136  )
        22           O1  tau(  22) = (   0.1429122   0.0333940  17.1908172  )
        23           O1  tau(  23) = (   1.3043587   1.4918075   6.0039043  )
        24           O1  tau(  24) = (   5.2767064   1.4903225   6.0039473  )
        25           Ti1 tau(  25) = (   0.0000382   5.9609847   6.0000000  )
        26           Ti1 tau(  26) = (   3.2902200   4.4714249   6.0002472  )
        27           O1  tau(  27) = (   0.0002396   2.9813036   7.9858123  )
        28           O1  tau(  28) = (   3.2902150   2.9813002   7.3038282  )
        29           O1  tau(  29) = (   4.5938453   4.4726049   9.2879030  )
        30           O1  tau(  30) = (   1.9864658   4.4711199   9.2879459  )
        31           Ti1 tau(  31) = (   3.2891106   5.8743827   9.1763621  )
        32           Ti1 tau(  32) = (   0.0006254   4.4649316   9.2693709  )
        33           O1  tau(  33) = (   3.3137399   2.9960163  11.2943833  )
        34           O1  tau(  34) = (   0.0092240   2.9805883  10.6323155  )
        35           O1  tau(  35) = (   1.3234708   4.4688006  12.5930975  )
        36           O1  tau(  36) = (   5.3222282   4.4932535  12.6449723  )
        37           Ti1 tau(  37) = (   6.5041614   0.0053836  12.5833808  )
        38           Ti1 tau(  38) = (   3.1843229   4.4812189  12.4522442  )
        39           O1  tau(  39) = (   0.0584892   2.9792810  14.6723703  )
        40           O1  tau(  40) = (   3.3232524   2.9928384  13.8523860  )
        41           O1  tau(  41) = (   4.6237859   4.5837569  15.7472905  )
        42           O1  tau(  42) = (   2.1882403   4.4693611  16.1038286  )
        43           Ti1 tau(  43) = (   3.3015484   0.0242660  15.6383815  )
        44           Ti1 tau(  44) = (   0.0181797   4.4930750  16.1931172  )
        45           O1  tau(  45) = (   3.2900926   2.9813045   4.7018136  )
        46           O1  tau(  46) = (   1.3039711   4.4726057   6.0039043  )
        47           O1  tau(  47) = (   5.2763189   4.4711207   6.0039473  )
        48           N1  tau(  48) = (   0.2677213   2.8760844  17.5655548  )
        49           C1  tau(  49) = (   1.2271684   2.7639891  18.6598760  )
        50           H1  tau(  50) = (   1.2930054   3.7106696  19.2072709  )
        51           H1  tau(  51) = (   0.8976878   1.9730418  19.3402421  )
        52           H1  tau(  52) = (   2.2102292   2.4872526  18.2850250  )
        53           N1  tau(  53) = (   5.6732178   3.4927010  17.8452151  )
        54           H1  tau(  54) = (   5.7345573   4.0058295  18.7343860  )

     number of k points=    10  Fermi-Dirac smearing, width (Ry)=  0.0073
                       cart. coord. in units 2pi/alat
        k(    1) = (   0.0000000   0.0000000   0.0000000), wk =   0.0625000
        k(    2) = (   0.0000000   0.0419351   0.0000000), wk =   0.1250000
        k(    3) = (   0.0000000  -0.0838702   0.0000000), wk =   0.0625000
        k(    4) = (   0.0379955   0.0000049   0.0000000), wk =   0.1250000
        k(    5) = (   0.0379955   0.0419400   0.0000000), wk =   0.1250000
        k(    6) = (   0.0379955  -0.0838652   0.0000000), wk =   0.1250000
        k(    7) = (   0.0379955  -0.0419301   0.0000000), wk =   0.1250000
[...]
     %                                                                      %
     % You are using vdW-DF, which was implemented by the Thonhauser group. %
     % Please cite the following two papers that made this development      %
     % possible and the two reviews that describe the various versions:     %
     %                                                                      %
     %   T. Thonhauser et al., PRL 115, 136402 (2015).                      %
     %   T. Thonhauser et al., PRB 76, 125112 (2007).                       %
     %   K. Berland et al., Rep. Prog. Phys. 78, 066501 (2015).             %
     %   D.C. Langreth et al., J. Phys.: Condens. Matter 21, 084203 (2009). %
     %                                                                      %
     %                                                                      %
     % If you are calculating the stress with vdW-DF, please also cite:     %
     %                                                                      %
     %   R. Sabatini et al., J. Phys.: Condens. Matter 24, 424209 (2012).   %
     %                                                                      %
     %%%%%%%%%%%%%%%%%%%%%%%%%%%%%%%%%%%%%%%%%%%%%%%%%%%%%%%%%%%%%%%%%%%%%%%%

     Adding external electric field

     Computed dipole along edir(3) :
        Dipole               -8.2222 Ry au,        -20.8988 Debye
        Dipole field         -0.0155 Ry au,

        Potential amp.        1.4384 Ry
        Total length         46.3494 bohr

[...]

     Starting wfcs are  300 atomic wfcs
  @ DRIVER MODE: Message from server: STATUS
  @ DRIVER MODE: Message from server: POSDATA
  @ DRIVER MODE: Reading and sharing cell
  @ DRIVER MODE: Reading and sharing positions
  @ DRIVER MODE: Received positions

     Self-consistent Calculation

     iteration #  1     ecut=    29.40 Ry     beta= 0.05
     Davidson diagonalization with overlap
     c_bands:  1 eigenvalues not converged
     c_bands:  1 eigenvalues not converged
     c_bands:  1 eigenvalues not converged
     c_bands:  1 eigenvalues not converged
     c_bands:  4 eigenvalues not converged
     c_bands:  1 eigenvalues not converged
     c_bands:  4 eigenvalues not converged
     c_bands:  2 eigenvalues not converged
     c_bands:  1 eigenvalues not converged
     c_bands:  1 eigenvalues not converged
     c_bands:  1 eigenvalues not converged
     c_bands:  1 eigenvalues not converged
     c_bands:  1 eigenvalues not converged
     c_bands:  1 eigenvalues not converged
     c_bands:  4 eigenvalues not converged
     c_bands:  1 eigenvalues not converged
     c_bands:  4 eigenvalues not converged
     c_bands:  2 eigenvalues not converged
     c_bands:  1 eigenvalues not converged
     c_bands:  1 eigenvalues not converged
     ethr =  1.00E-05,  avg # of iterations = 20.0

[...]

     total energy              =   -2607.57334226 Ry
     estimated scf accuracy    <    3675.48998734 Ry

     total magnetization       =     0.00 Bohr mag/cell
     absolute magnetization    =     0.03 Bohr mag/cell

[...]

     iteration #  3     ecut=    29.40 Ry     beta= 0.05
     Davidson diagonalization with overlap
     ethr =  1.00E-02,  avg # of iterations = 14.2

[...]

     iteration #133     ecut=    29.40 Ry     beta= 0.05
     Davidson diagonalization with overlap
     c_bands:  1 eigenvalues not converged
     c_bands:  1 eigenvalues not converged
     ethr =  1.97E-11,  avg # of iterations = 12.7

[...]

     total energy              =   -2940.35274715 Ry
     estimated scf accuracy    <       0.00000009 Ry

[...]

     iteration #141     ecut=    29.40 Ry     beta= 0.05
     Davidson diagonalization with overlap
     ethr =  1.97E-11,  avg # of iterations =  7.3

     negative rho (up, down):  8.758E-03 8.757E-03

[...]

     Adding external electric field

     Computed dipole along edir(3) :
        Dipole                0.7374 Ry au,          1.8744 Debye
        Dipole field          0.0014 Ry au,

        Potential amp.       -0.1290 Ry
        Total length         46.3494 bohr

     Magnetic moment per site  (integrated on atomic sphere of radius R)
     atom   1 (R=0.746)  charge=  8.1023  magn= -0.0096
     atom   2 (R=0.746)  charge=  8.0882  magn= -0.0004
     atom   3 (R=0.746)  charge=  5.0689  magn=  0.0006
     atom   4 (R=0.746)  charge=  5.1051  magn=  0.0001
     atom   5 (R=0.746)  charge=  5.0706  magn=  0.0001
     atom   6 (R=0.746)  charge=  5.0718  magn=  0.0001
     atom   7 (R=0.746)  charge=  8.0835  magn= -0.0002
     atom   8 (R=0.746)  charge=  8.0700  magn= -0.0015
     atom   9 (R=0.746)  charge=  5.0893  magn=  0.0000
     atom  10 (R=0.746)  charge=  5.0576  magn=  0.0001
     atom  11 (R=0.746)  charge=  5.0764  magn=  0.0000
     atom  12 (R=0.746)  charge=  5.0718  magn=  0.0000
     atom  13 (R=0.746)  charge=  8.0706  magn= -0.0001
     atom  14 (R=0.746)  charge=  8.0890  magn= -0.0000
     atom  15 (R=0.746)  charge=  5.0553  magn= -0.0000
     atom  16 (R=0.746)  charge=  5.0986  magn=  0.0000
     atom  17 (R=0.746)  charge=  5.0495  magn= -0.0000
     atom  18 (R=0.746)  charge=  5.0673  magn= -0.0000
     atom  19 (R=0.746)  charge=  8.1077  magn= -0.0000
     atom  20 (R=0.746)  charge=  8.0960  magn= -0.0000
     atom  21 (R=0.746)  charge=  4.9490  magn=  0.0004
     atom  22 (R=0.746)  charge=  5.0410  magn= -0.0000
     atom  23 (R=0.746)  charge=  5.0611  magn=  0.0012
     atom  24 (R=0.746)  charge=  5.0612  magn=  0.0012
     atom  25 (R=0.746)  charge=  8.1022  magn= -0.0095
     atom  26 (R=0.746)  charge=  8.0882  magn= -0.0004
     atom  27 (R=0.746)  charge=  5.0670  magn=  0.0006
     atom  28 (R=0.746)  charge=  5.1052  magn=  0.0001
     atom  29 (R=0.746)  charge=  5.0714  magn=  0.0001
     atom  30 (R=0.746)  charge=  5.0726  magn=  0.0001
     atom  31 (R=0.746)  charge=  8.0844  magn= -0.0002
     atom  32 (R=0.746)  charge=  8.0704  magn= -0.0015
     atom  33 (R=0.746)  charge=  5.0889  magn=  0.0000
     atom  34 (R=0.746)  charge=  5.0199  magn=  0.0001
     atom  35 (R=0.746)  charge=  5.0760  magn=  0.0000
     atom  36 (R=0.746)  charge=  5.0724  magn=  0.0000
     atom  37 (R=0.746)  charge=  8.0776  magn= -0.0002
     atom  38 (R=0.746)  charge=  8.0890  magn= -0.0001
     atom  39 (R=0.746)  charge=  5.0527  magn= -0.0000
     atom  40 (R=0.746)  charge=  5.0891  magn=  0.0000
     atom  41 (R=0.746)  charge=  5.0851  magn= -0.0000
     atom  42 (R=0.746)  charge=  5.0438  magn= -0.0000
     atom  43 (R=0.746)  charge=  8.1144  magn= -0.0000
     atom  44 (R=0.746)  charge=  8.1352  magn= -0.0002
     atom  45 (R=0.746)  charge=  4.9490  magn=  0.0004
     atom  46 (R=0.746)  charge=  5.0611  magn=  0.0012
     atom  47 (R=0.746)  charge=  5.0612  magn=  0.0012
     atom  48 (R=0.424)  charge=  1.3499  magn= -0.0002
     atom  49 (R=0.449)  charge=  0.8471  magn= -0.0000
     atom  50 (R=0.424)  charge=  0.4505  magn= -0.0000
     atom  51 (R=0.424)  charge=  0.4492  magn= -0.0000
     atom  52 (R=0.424)  charge=  0.4541  magn=  0.0000
     atom  53 (R=0.424)  charge=  1.3504  magn= -0.0002
     atom  54 (R=0.424)  charge=  0.4593  magn= -0.0000

     End of self-consistent calculation

 ------ SPIN UP ------------

          k = 0.0000 0.0000 0.0000 ( 18029 PWs)   bands (ev):

   -56.0131 -55.9790 -55.8038 -55.7650 -55.7231 -55.6886 -55.6630 -55.6385
   -55.6288 -55.6038 -55.5756 -55.4959 -55.2409 -54.9183 -54.8843 -54.7886
   -32.4848 -32.3459 -32.3058 -32.2832 -32.1889 -32.1659 -32.1657 -32.1280
   -32.1075 -32.0986 -32.0717 -32.0446 -32.0213 -31.9814 -31.9741 -31.9726
   -31.9400 -31.9305 -31.9196 -31.8943 -31.8864 -31.8686 -31.8621 -31.8587
   -31.8386 -31.8368 -31.8280 -31.8241 -31.8174 -31.8015 -31.7936 -31.7925
   -31.7757 -31.7512 -31.6921 -31.6647 -31.6164 -31.4674 -31.4642 -31.3217
   -31.2422 -31.2193 -31.2059 -31.1389 -31.0529 -30.9929 -30.9418 -30.9128
   -17.3094 -16.5587 -16.3683 -16.0782 -15.9270 -15.9077 -15.7881 -15.6911
   -15.6137 -15.5146 -15.4606 -15.4060 -15.3949 -15.3684 -15.3098 -15.2877
   -15.2465 -15.2289 -15.1864 -15.1757 -15.1299 -15.1084 -15.0852 -15.0514
   -14.9861 -14.9157 -14.9030 -14.7468 -14.6073 -14.4549 -13.4198 -13.3049
   -11.5488  -8.3346  -5.0130  -4.0029  -3.9451  -3.8750  -3.8467  -3.7735
    -3.6922  -3.4407  -3.4173  -3.3571  -3.0701  -3.0227  -2.9987  -2.9941
    -2.8963  -2.7565  -2.7260  -2.6661  -2.6603  -2.6396  -2.6198  -2.6029
    -2.5459  -2.4897  -2.4732  -2.4321  -2.2966  -2.2715  -2.2670  -2.2450
    -2.1748  -2.1658  -2.1013  -2.0836  -2.0609  -2.0424  -2.0054  -1.8725
    -1.8390  -1.7736  -1.6932  -1.6037  -1.5240  -1.4886  -1.4017  -1.3857
    -1.3347  -1.2602  -1.2515  -1.1784  -1.1453  -1.0710  -1.0441  -1.0069
    -0.8981  -0.8707  -0.8117  -0.7553  -0.7105  -0.6970  -0.6558  -0.6313
    -0.6257  -0.6112  -0.5981  -0.4035  -0.3741  -0.2311  -0.1853  -0.1605
    -0.1199  -0.0971  -0.0387  -0.0153  -0.0098   0.0294   0.0479   0.0911
     0.1466   0.1612   0.1875   0.2810   0.3132   0.3680   0.4945   0.5081
     0.5958   0.6630   0.7689   0.7817   0.8330   0.9643   1.0605   1.0822
     1.1038   1.3090   1.4138   1.6675   1.7103   3.0260   3.1773   3.2790
     3.3772   3.4965   3.5709   3.6152   3.7840   3.8218   3.8645   3.9216

[...]

          k =-0.0760-0.0000 0.0000 ( 17886 PWs)   bands (ev):

[...]

 ------ SPIN DOWN ----------

[...]

          k = 0.0380-0.0419 0.0000 ( 17876 PWs)   bands (ev):

[...]

          k =-0.0760-0.0839 0.0000 ( 17948 PWs)   bands (ev):

   -56.0153 -56.0133 -55.7918 -55.7770 -55.7123 -55.7048 -55.6479 -55.6446
   -55.6256 -55.6177 -55.5717 -55.4997 -55.2404 -54.9021 -54.9020 -54.7893
   -32.3127 -32.3110 -32.3084 -32.3075 -32.1534 -32.1413 -32.1400 -32.1379
   -32.0498 -32.0371 -32.0270 -32.0245 -32.0174 -32.0137 -31.9705 -31.9651
   -31.9553 -31.9432 -31.9127 -31.9030 -31.8908 -31.8863 -31.8815 -31.8803
   -31.8753 -31.8714 -31.8553 -31.8497 -31.8438 -31.8402 -31.8351 -31.8167
   -31.7972 -31.7942 -31.7646 -31.7060 -31.6067 -31.4699 -31.4638 -31.2561
   -31.2331 -31.2330 -31.1355 -31.1353 -31.0968 -31.0967 -31.0052 -30.9171
   -17.2906 -15.9758 -15.9474 -15.8394 -15.8200 -15.7318 -15.7184 -15.6033
   -15.5957 -15.5831 -15.5167 -15.4706 -15.4601 -15.3784 -15.3516 -15.3402
   -15.3155 -15.3058 -15.2994 -15.2885 -15.2765 -15.1963 -15.1911 -15.1890
   -15.1136 -15.0907 -14.9050 -14.8616 -14.6642 -14.6178 -13.4067 -13.4062
   -11.5525  -8.3150  -5.0194  -3.8987  -3.8437  -3.2779  -3.2418  -3.0262
    -3.0002  -2.9798  -2.9505  -2.7657  -2.7519  -2.7456  -2.7282  -2.7152
    -2.6781  -2.6591  -2.6463  -2.5804  -2.5711  -2.5503  -2.5454  -2.5356
    -2.5166  -2.5013  -2.4936  -2.4740  -2.4594  -2.4147  -2.3602  -2.3377
    -2.2875  -2.1933  -2.0875  -2.0429  -2.0290  -2.0210  -1.9981  -1.9890
    -1.9485  -1.9357  -1.8497  -1.6660  -1.6182  -1.5568  -1.5508  -1.5419
    -1.4830  -1.4274  -1.3843  -1.3096  -1.2450  -1.1918  -1.1626  -1.1379
    -1.1034  -1.0369  -0.9709  -0.9513  -0.9385  -0.9090  -0.9057  -0.8877
    -0.8097  -0.7265  -0.6855  -0.6552  -0.6326  -0.6182  -0.6026  -0.5801
    -0.4729  -0.4048  -0.3570  -0.3116  -0.2693  -0.2272  -0.1087  -0.0939
     0.1004   0.1668   0.1921   0.2707   0.3677   0.3935   0.4042   0.4680
     0.5429   0.6057   0.6404   0.6950   0.7104   0.7315   0.7986   1.0135
     1.0692   1.4782   1.4798   1.5288   1.5298   2.9889   3.6687   3.6736
     3.6783   3.6872   3.7108   3.7353   3.7862   3.8218   3.9231   3.9438

     the Fermi energy is     3.1356 ev

!    total energy              =   -2940.35274728 Ry
     estimated scf accuracy    <       0.00000007 Ry
     smearing contrib. (-TS)   =      -0.01867758 Ry
     internal energy E=F+TS    =   -2940.33406970 Ry

     The total energy is F=E-TS. E is the sum of the following terms:
     one-electron contribution =  -24661.67735899 Ry
     hartree contribution      =   12419.98008494 Ry
     xc contribution           =    -486.04962317 Ry
     ewald contribution        =    9787.41180125 Ry
     electric field correction =       0.00102627 Ry

     total magnetization       =    -0.03 Bohr mag/cell
     absolute magnetization    =     0.05 Bohr mag/cell

     convergence has been achieved in 141 iterations

     Forces acting on atoms (cartesian axes, Ry/au):

     atom    1 type  1   force =     0.00023625   -0.00036377    0.10151772
     atom    2 type  1   force =     0.00001201   -0.00086084   -0.17142576
     atom    3 type  2   force =     0.00029182    0.00021827   -0.03324898
     atom    4 type  2   force =     0.00003279   -0.00078865    0.04482613
     atom    5 type  2   force =    -0.01194753   -0.00021171   -0.00232193
     atom    6 type  2   force =     0.01438185    0.00038198   -0.00112211
     atom    7 type  1   force =     0.00140336   -0.00131453   -0.00429582
     atom    8 type  1   force =    -0.00077083    0.02219764    0.05620179
     atom    9 type  2   force =     0.00002826   -0.00032643    0.00046910
     atom   10 type  2   force =    -0.00266584    0.00207175   -0.02593241
     atom   11 type  2   force =     0.00003413    0.00024558   -0.00006180
     atom   12 type  2   force =     0.00008701    0.00073542    0.00001552
     atom   13 type  1   force =    -0.00003809    0.00014475    0.00023952
     atom   14 type  1   force =     0.00028804    0.00030358    0.00000041
     atom   15 type  2   force =     0.00019433   -0.00022688   -0.00001073
     atom   16 type  2   force =    -0.00002271   -0.00013320    0.00076460
     atom   17 type  2   force =    -0.00010932   -0.00078142    0.00003746
     atom   18 type  2   force =     0.00050166   -0.00074329    0.00026844
     atom   19 type  1   force =    -0.00014162   -0.00044521    0.00025590
     atom   20 type  1   force =    -0.00001987    0.00012288   -0.00020222
     atom   21 type  2   force =     0.00006461   -0.00001046    0.10212273
     atom   22 type  2   force =     0.00000201   -0.00028005    0.00037235
     atom   23 type  2   force =    -0.07329702   -0.00016041   -0.02888176
     atom   24 type  2   force =     0.07324921    0.00033385   -0.02892928
     atom   25 type  1   force =    -0.00026831   -0.00029752    0.10194931
     atom   26 type  1   force =     0.00003344   -0.00020515   -0.17142187
     atom   27 type  2   force =     0.00036541   -0.00022980   -0.03196200
     atom   28 type  2   force =     0.00009327   -0.00057436    0.04544482
     atom   29 type  2   force =    -0.01209517    0.00212942   -0.00287869
     atom   30 type  2   force =     0.01440847    0.00229058   -0.00162040
     atom   31 type  1   force =     0.00158618    0.00092584   -0.00560113
     atom   32 type  1   force =    -0.00059664   -0.02476012    0.05723255
     atom   33 type  2   force =     0.00015105    0.00035914    0.00063039
     atom   34 type  2   force =    -0.00420737    0.00211995   -0.04832070
     atom   35 type  2   force =     0.00062392   -0.00058332    0.00000711
     atom   36 type  2   force =    -0.00040612   -0.00074747    0.00013482
     atom   37 type  1   force =     0.00006007    0.00061894   -0.00003726
     atom   38 type  1   force =     0.00004287   -0.00011727   -0.00012954
     atom   39 type  2   force =     0.00018974   -0.00003049   -0.00066820
     atom   40 type  2   force =    -0.00008294   -0.00003513   -0.00033993
     atom   41 type  2   force =     0.00006011    0.00047986   -0.00006091
     atom   42 type  2   force =     0.00002021    0.00039310    0.00067435
     atom   43 type  1   force =    -0.00024291   -0.00015556    0.00013393
     atom   44 type  1   force =     0.00002521    0.00011457    0.00020858
     atom   45 type  2   force =     0.00004750   -0.00004879    0.10218641
     atom   46 type  2   force =    -0.07330370   -0.00009202   -0.02885221
     atom   47 type  2   force =     0.07325770    0.00028211   -0.02889064
     atom   48 type  3   force =    -0.00027641    0.00046632    0.00058264
     atom   49 type  4   force =     0.00189465   -0.00282830   -0.00098874
     atom   50 type  5   force =     0.00086000   -0.00040810   -0.00044691
     atom   51 type  5   force =    -0.00132465   -0.00023521    0.00085390
     atom   52 type  5   force =    -0.00265468    0.00191071    0.00110215
     atom   53 type  3   force =    -0.00000403   -0.00047408    0.00079331
     atom   54 type  5   force =    -0.00005137   -0.00037671   -0.00037400

     Total force =     0.377851     Total SCF correction =     0.000404
  @ DRIVER MODE: Message from server: STATUS
  @ DRIVER MODE: Message from server: GETFORCE
  @ DRIVER MODE: Returning v,forces,stress,ensemble

     Writing output data file ./calc.save/
  @ DRIVER MODE: Message from server: EXIT
  @ DRIVE MODE: Exiting

     General routines

     Parallel routines

   This run was terminated on:  13: 7:42  16Jul2021

   JOB DONE.