     Program PWSCF v.6.7GPU starts on 16Sep2021 at  4:25:29

     R & G space division:  proc/nbgrp/npool/nimage =      10
     Reading input from /storage/home/hcoda1/3/ntian30/research/carbon/CxH_vib/H2O_calc/ads_slab/CH2OHH2O_a/out_0041/pw.inp
Warning: card &CELL ignored
Warning: card   CELL_DYNAMICS='IPI', ignored
Warning: card / ignored

     Current dimensions of program PWSCF are:
     Max number of different atomic species (ntypx) = 10
     Max number of k-points (npk) =  40000
     Max angular momentum in pseudopotentials (lmaxx) =  3
     Presently no symmetry can be used with electric field

     Message from routine cell_base_init:
     DEPRECATED: use true lattice parameter, not A to a.u. conversion factor

     IMPORTANT: XC functional enforced from input :
     Exchange-correlation= BEEF-VDW
                           (   1   4  43  14   2   0   0)
     Any further DFT definition will be discarded
     Please, verify this is what you really want

  @ DRIVER MODE: Connecting to
 qe_1139763_2852615.sched-torque.pace.gatech.eduruqweghi_scratch
  using UNIX socket
  @ DRIVER MODE: Message from server: STATUS
  @ DRIVER MODE: Message from server: INIT
  @ DRIVER MODE: Receiving replica           0          -1
  @ DRIVER MODE: Receiving encoded integer          25
  @ DRIVER MODE:  SCF:  T  FORCE:  T  STRESS:  F  VC:  F  ENSEMBLE:  F
  @ DRIVER MODE:  SCF:  T  FORCE:  T  STRESS:  F  VC:  F  ENSEMBLE:  F

     Using Slab Decomposition

     bravais-lattice index     =            0
     lattice parameter (alat)  =       1.8897  a.u.
     unit-cell volume          =    6658.9804 (a.u.)^3
     number of atoms/cell      =           55
     number of atomic types    =            4
     number of electrons       =       399.00
     number of Kohn-Sham states=          209
     kinetic-energy cutoff     =      29.3995  Ry
     charge density cutoff     =     293.9946  Ry
     scf convergence threshold =      7.3E-08
     mixing beta               =       0.0500
     number of iterations used =            8  plain     mixing
     Exchange-correlation= BEEF-VDW
                           (   1   4  43  14   2   0   0)

     celldm(1)=   1.889726  celldm(2)=   0.000000  celldm(3)=   0.000000
     celldm(4)=   0.000000  celldm(5)=   0.000000  celldm(6)=   0.000000

     crystal axes: (cart. coord. in units of alat)
               a(1) = (   6.579727   0.000000   0.000000 )
               a(2) = (  -0.000775   5.961596   0.000000 )
               a(3) = (   0.000000   0.000000  25.155947 )

     reciprocal axes: (cart. coord. in units 2 pi/alat)
               b(1) = (  0.151982  0.000020  0.000000 )
               b(2) = (  0.000000  0.167740  0.000000 )
               b(3) = (  0.000000  0.000000  0.039752 )

     PseudoPot. # 1 for Ti read from file:
     /storage/coda1/p-amedford6/0/shared/rich_project_chbe-medford/medford-share/data/pseudos_module/espresso/nninc/pbe/van/Ti.UPF
     MD5 check sum: 8e4df49b7f0d34bbd5052bf3f5ea0213
     Pseudo is Ultrasoft, Zval = 12.0
     Generated by new atomic code, or converted to UPF format
     Using radial grid of  851 points,  6 beta functions with:
                l(1) =   0
                l(2) =   0
                l(3) =   1
                l(4) =   1
                l(5) =   2
                l(6) =   2
     Q(r) pseudized with  8 coefficients,  rinner =    1.000   1.000   1.000
                                                       1.000   1.000

     PseudoPot. # 2 for O  read from file:
     /storage/coda1/p-amedford6/0/shared/rich_project_chbe-medford/medford-share/data/pseudos_module/espresso/nninc/pbe/van/O.UPF
     MD5 check sum: 78c19812648e8988a0fe644b0f25305e
     Pseudo is Ultrasoft, Zval =  6.0
     Generated by new atomic code, or converted to UPF format
     Using radial grid of  737 points,  4 beta functions with:
                l(1) =   0
                l(2) =   0
                l(3) =   1
                l(4) =   1
     Q(r) pseudized with  8 coefficients,  rinner =    0.800   0.800   0.800

     PseudoPot. # 3 for C  read from file:
     /storage/coda1/p-amedford6/0/shared/rich_project_chbe-medford/medford-share/data/pseudos_module/espresso/nninc/pbe/van/C.UPF
     MD5 check sum: 1a69bf6b8db32088f5b2163dbdb77a27
     Pseudo is Ultrasoft, Zval =  4.0
     Generated by new atomic code, or converted to UPF format
     Using radial grid of  721 points,  4 beta functions with:
                l(1) =   0
                l(2) =   0
                l(3) =   1
                l(4) =   1
     Q(r) pseudized with  8 coefficients,  rinner =    0.800   0.800   0.800

     PseudoPot. # 4 for H  read from file:
     /storage/coda1/p-amedford6/0/shared/rich_project_chbe-medford/medford-share/data/pseudos_module/espresso/nninc/pbe/van/H.UPF
     MD5 check sum: b5ee9d7bfd3a09ee7748110bda690ff7
     Pseudo is Ultrasoft, Zval =  1.0
     Generated by new atomic code, or converted to UPF format
     Using radial grid of  615 points,  1 beta functions with:
                l(1) =   0
     Q(r) pseudized with  8 coefficients,  rinner =    0.800

     atomic species   valence    mass     pseudopotential
        Ti1           12.00    47.86700     Ti( 1.00)
        O1             6.00    15.99900     O ( 1.00)
        C1             4.00    12.01100     C ( 1.00)
        H1             1.00     1.00800     H ( 1.00)

     No symmetry found

   Cartesian axes

     site n.     atom                  positions (alat units)
         1           Ti1 tau(   1) = (   0.0004258   2.9801865   6.0000000  )
         2           Ti1 tau(   2) = (   3.2906075   1.4906267   6.0002472  )
         3           O1  tau(   3) = (   0.0006271   0.0005054   7.9858123  )
         4           O1  tau(   4) = (   3.2906025   0.0005020   7.3038282  )
         5           O1  tau(   5) = (   4.5942328   1.4918067   9.2879030  )
         6           O1  tau(   6) = (   1.9868534   1.4903216   9.2879459  )
         7           Ti1 tau(   7) = (   3.2434587   3.0186650   9.1693953  )
         8           Ti1 tau(   8) = (   6.5248695   1.5265067   9.2859949  )
         9           O1  tau(   9) = (   3.3238096   0.0077392  11.3399147  )
        10           O1  tau(  10) = (   0.0083103   0.0007143  10.5763085  )
        11           O1  tau(  11) = (   1.3076427   1.5153157  12.5877682  )
        12           O1  tau(  12) = (   5.3324098   1.4751673  12.6362968  )
        13           Ti1 tau(  13) = (   0.0822926   2.9518924  12.6100891  )
        14           Ti1 tau(  14) = (   3.3652580   1.6116561  12.6031695  )
        15           O1  tau(  15) = (   0.1623142   0.0003102  14.6136642  )
        16           O1  tau(  16) = (   3.2083997   0.0016335  13.9229753  )
        17           O1  tau(  17) = (   4.6427586   1.3635169  15.8692112  )
        18           O1  tau(  18) = (   2.0707938   1.5934636  16.1317492  )
        19           Ti1 tau(  19) = (   3.4055461   2.9583945  15.9219660  )
        20           Ti1 tau(  20) = (   0.0529163   1.3399360  15.9091509  )
        21           O1  tau(  21) = (   3.2904802   0.0005063   4.7018136  )
        22           O1  tau(  22) = (   0.1143047   5.9459637  17.1421970  )
        23           O1  tau(  23) = (   1.3043587   1.4918075   6.0039043  )
        24           O1  tau(  24) = (   5.2767064   1.4903225   6.0039473  )
        25           Ti1 tau(  25) = (   0.0000382   5.9609847   6.0000000  )
        26           Ti1 tau(  26) = (   3.2902200   4.4714249   6.0002472  )
        27           O1  tau(  27) = (   0.0002396   2.9813036   7.9858123  )
        28           O1  tau(  28) = (   3.2902150   2.9813002   7.3038282  )
        29           O1  tau(  29) = (   4.5938453   4.4726049   9.2879030  )
        30           O1  tau(  30) = (   1.9864658   4.4711199   9.2879459  )
        31           Ti1 tau(  31) = (   3.2519499   0.0415563   9.1803751  )
        32           Ti1 tau(  32) = (   6.5223785   4.4699269   9.2708698  )
        33           O1  tau(  33) = (   3.3249262   3.0006027  11.3427062  )
        34           O1  tau(  34) = (   6.5728067   2.9803724  10.5910131  )
        35           O1  tau(  35) = (   1.3048910   4.4590737  12.5876729  )
        36           O1  tau(  36) = (   5.3248012   4.5079456  12.6396186  )
        37           Ti1 tau(  37) = (   0.0305998   5.9348532  12.4502240  )
        38           Ti1 tau(  38) = (   3.3518916   4.5407868  12.4757475  )
        39           O1  tau(  39) = (   0.0741357   2.9755951  14.7167286  )
        40           O1  tau(  40) = (   3.3703583   2.9475192  13.9294239  )
        41           O1  tau(  41) = (   4.6408928   4.5782690  15.8216857  )
        42           O1  tau(  42) = (   2.0743197   4.3710070  16.0958311  )
        43           Ti1 tau(  43) = (   3.3271525   5.9323444  15.7323421  )
        44           Ti1 tau(  44) = (   0.0603002   4.5335970  15.7939964  )
        45           O1  tau(  45) = (   3.2900926   2.9813045   4.7018136  )
        46           O1  tau(  46) = (   1.3039711   4.4726057   6.0039043  )
        47           O1  tau(  47) = (   5.2763189   4.4711207   6.0039473  )
        48           C1  tau(  48) = (   4.5917920   3.0228413  17.9030398  )
        49           O1  tau(  49) = (   6.0625861   3.0006587  17.4562122  )
        50           H1  tau(  50) = (   0.0503952   3.1075262  18.2373115  )
        51           H1  tau(  51) = (   4.5265887   2.1706275  18.5876854  )
        52           H1  tau(  52) = (   4.4781653   3.9549082  18.4551422  )
        53           O1  tau(  53) = (   2.8659371   5.8926936  18.2031264  )
        54           H1  tau(  54) = (   3.0528466   0.8172038  18.5346680  )
        55           H1  tau(  55) = (   1.8959954   5.8777970  18.0521013  )

     number of k points=    10  Fermi-Dirac smearing, width (Ry)=  0.0073
                       cart. coord. in units 2pi/alat
        k(    1) = (   0.0000000   0.0000000   0.0000000), wk =   0.1250000
        k(    2) = (   0.0000000   0.0419351   0.0000000), wk =   0.2500000
        k(    3) = (   0.0000000  -0.0838702   0.0000000), wk =   0.1250000
        k(    4) = (   0.0379955   0.0000049   0.0000000), wk =   0.2500000
        k(    5) = (   0.0379955   0.0419400   0.0000000), wk =   0.2500000
        k(    6) = (   0.0379955  -0.0838652   0.0000000), wk =   0.2500000
        k(    7) = (   0.0379955  -0.0419301   0.0000000), wk =   0.2500000
        k(    8) = (  -0.0759910  -0.0000099   0.0000000), wk =   0.1250000
        k(    9) = (  -0.0759910   0.0419252   0.0000000), wk =   0.2500000
        k(   10) = (  -0.0759910  -0.0838800   0.0000000), wk =   0.1250000

     Initial potential from superposition of free atoms

     starting charge  382.99916, renormalised to  399.00000

     negative rho (up, down):  1.858E-02 0.000E+00

     %%%%%%%%%%%%%%%%%%%%%%%%%%%%%%%%%%%%%%%%%%%%%%%%%%%%%%%%%%%%%%%%%%%%%%%%
     %                                                                      %
     % You are using vdW-DF, which was implemented by the Thonhauser group. %
     % Please cite the following two papers that made this development      %
     % possible and the two reviews that describe the various versions:     %
     %                                                                      %
     %   T. Thonhauser et al., PRL 115, 136402 (2015).                      %
     %   T. Thonhauser et al., PRB 76, 125112 (2007).                       %
     %   K. Berland et al., Rep. Prog. Phys. 78, 066501 (2015).             %
     %   D.C. Langreth et al., J. Phys.: Condens. Matter 21, 084203 (2009). %
     %                                                                      %
     %                                                                      %
     % If you are calculating the stress with vdW-DF, please also cite:     %
     %                                                                      %
     %   R. Sabatini et al., J. Phys.: Condens. Matter 24, 424209 (2012).   %
     %                                                                      %
     %%%%%%%%%%%%%%%%%%%%%%%%%%%%%%%%%%%%%%%%%%%%%%%%%%%%%%%%%%%%%%%%%%%%%%%%

     Adding external electric field

     Computed dipole along edir(3) :
        Dipole               -9.7296 Ry au,        -24.7301 Debye
        Dipole field         -0.0184 Ry au,

        Potential amp.        1.7020 Ry
        Total length         46.3494 bohr

     Starting wfcs are  301 atomic wfcs
  @ DRIVER MODE: Message from server: STATUS
  @ DRIVER MODE: Message from server: POSDATA
  @ DRIVER MODE: Reading and sharing cell
  @ DRIVER MODE: Reading and sharing positions
  @ DRIVER MODE: Received positions

     Self-consistent Calculation

     iteration #  1     ecut=    29.40 Ry     beta= 0.05
     Davidson diagonalization with overlap
     c_bands:  1 eigenvalues not converged
     c_bands:  2 eigenvalues not converged
     c_bands:  3 eigenvalues not converged
     c_bands:  5 eigenvalues not converged
     c_bands:  3 eigenvalues not converged
     c_bands:  2 eigenvalues not converged
     c_bands:  3 eigenvalues not converged
     c_bands:  2 eigenvalues not converged
     ethr =  1.00E-05,  avg # of iterations = 19.8

[...]

     total energy              =   -2478.51030659 Ry
     estimated scf accuracy    <    5415.86291207 Ry

     iteration #  2     ecut=    29.40 Ry     beta= 0.05
     Davidson diagonalization with overlap
     ethr =  1.00E-02,  avg # of iterations = 24.2

[...]

     iteration # 71     ecut=    29.40 Ry     beta= 0.05
     Davidson diagonalization with overlap
     c_bands:  2 eigenvalues not converged
     ethr =  3.99E-10,  avg # of iterations = 12.5

[...]

     total energy              =   -2966.15822377 Ry
     estimated scf accuracy    <       0.00000008 Ry

     iteration # 76     ecut=    29.40 Ry     beta= 0.05
     Davidson diagonalization with overlap
     ethr =  2.02E-11,  avg # of iterations =  9.4

     negative rho (up, down):  1.798E-02 0.000E+00

     Adding external electric field

     Computed dipole along edir(3) :
        Dipole                0.9993 Ry au,          2.5399 Debye
        Dipole field          0.0019 Ry au,

        Potential amp.       -0.1748 Ry
        Total length         46.3494 bohr

     End of self-consistent calculation

          k = 0.0000 0.0000 0.0000 ( 18029 PWs)   bands (ev):

   -55.6912 -55.6547 -55.5837 -55.5753 -55.5190 -55.5168 -55.5109 -55.5081
   -55.4802 -55.4629 -55.4557 -55.4448 -55.4293 -55.3398 -54.6607 -54.6267
   -32.1815 -32.1672 -32.0571 -32.0275 -32.0051 -31.9784 -31.9577 -31.9460
   -31.9324 -31.8729 -31.8455 -31.8389 -31.8354 -31.8263 -31.7989 -31.7893
   -31.7859 -31.7665 -31.7614 -31.7503 -31.7392 -31.7340 -31.7001 -31.6949
   -31.6923 -31.6855 -31.6801 -31.6722 -31.6671 -31.6623 -31.6546 -31.6378
   -31.6340 -31.6318 -31.6262 -31.6231 -31.6147 -31.6142 -31.5888 -31.5660
   -31.5545 -31.4264 -31.0677 -30.9793 -30.9568 -30.8846 -30.7982 -30.6869
   -19.3901 -18.7654 -16.3766 -16.1800 -15.9752 -15.8617 -15.8419 -15.6607
   -15.5368 -15.3905 -15.3382 -15.3096 -15.2883 -15.2191 -15.2122 -15.1972
   -15.1621 -15.1574 -15.1208 -15.1011 -15.0950 -15.0672 -15.0158 -14.9942
   -14.9449 -14.8842 -14.8158 -14.7956 -14.7866 -14.7113 -14.6192 -13.1611
   -13.0444  -9.4336  -6.5175  -6.2816  -4.0761  -3.8432  -3.6883  -3.6460
    -3.6138  -3.5775  -3.4174  -3.3060  -3.1262  -3.0211  -2.9552  -2.9051
    -2.8679  -2.7905  -2.7488  -2.6247  -2.6013  -2.5512  -2.5187  -2.4826
    -2.4756  -2.4542  -2.4093  -2.3922  -2.3765  -2.2193  -2.2090  -2.1753
    -2.1105  -2.0792  -2.0520  -2.0149  -1.9932  -1.9663  -1.9479  -1.9015
    -1.8830  -1.8112  -1.8032  -1.7604  -1.6928  -1.6599  -1.3954  -1.3183
    -1.2974  -1.2603  -1.1955  -1.0983  -1.0946  -1.0881  -1.0876  -1.0306
    -1.0120  -0.8651  -0.8507  -0.8358  -0.7559  -0.6769  -0.5975  -0.5609
    -0.4962  -0.4459  -0.4133  -0.3855  -0.3589  -0.3044  -0.2358  -0.2126
    -0.1425  -0.0683  -0.0351   0.0175   0.0433   0.0880   0.1187   0.1948
     0.2338   0.2676   0.2955   0.3136   0.3237   0.3667   0.3870   0.4764
     0.5537   0.5817   0.5884   0.6625   0.7891   0.8716   0.9835   1.0749
     1.2975   1.3637   1.4149   1.5474   1.5548   1.9355   1.9859   3.4501
     3.5192   3.5786   3.5792   3.6140   3.6945   3.8976   3.9448   4.0028
     4.0359

[...]

          k = 0.0380-0.0419 0.0000 ( 17876 PWs)   bands (ev):

[...]

          k =-0.0760-0.0000 0.0000 ( 17886 PWs)   bands (ev):

[...]

          k =-0.0760-0.0839 0.0000 ( 17948 PWs)   bands (ev):

   -55.6795 -55.6662 -55.5783 -55.5706 -55.5234 -55.5155 -55.5132 -55.5045
   -55.4650 -55.4618 -55.4592 -55.4481 -55.4445 -55.3413 -54.6437 -54.6436
   -32.1004 -31.9887 -31.9779 -31.9759 -31.9538 -31.9032 -31.8766 -31.8556
   -31.8486 -31.8438 -31.8408 -31.8175 -31.8165 -31.8018 -31.8003 -31.7909
   -31.7901 -31.7816 -31.7802 -31.7771 -31.7742 -31.7646 -31.7431 -31.7376
   -31.7316 -31.7200 -31.7129 -31.7062 -31.7038 -31.6895 -31.6753 -31.6678
   -31.6671 -31.6645 -31.6626 -31.6562 -31.6548 -31.6527 -31.6507 -31.6482
   -31.6304 -31.4286 -30.9696 -30.9694 -30.8810 -30.8802 -30.8415 -30.8411
   -19.3836 -18.7643 -15.9948 -15.6558 -15.6428 -15.6376 -15.6068 -15.4856
   -15.4616 -15.4393 -15.3937 -15.3635 -15.3578 -15.3345 -15.2906 -15.2338
   -15.2145 -15.2068 -15.1971 -15.1447 -15.1304 -15.1195 -15.0737 -15.0332
   -15.0307 -15.0069 -14.9806 -14.9753 -14.9749 -14.9472 -14.8798 -13.1477
   -13.1448  -9.4398  -6.5174  -6.2618  -4.0333  -3.7293  -3.1629  -3.0423
    -2.8734  -2.8516  -2.8003  -2.7781  -2.7251  -2.6566  -2.6275  -2.6160
    -2.6144  -2.5806  -2.5179  -2.4839  -2.4799  -2.4408  -2.4225  -2.4147
    -2.3943  -2.3690  -2.3446  -2.3258  -2.3195  -2.2839  -2.2714  -2.2565
    -2.2504  -2.2391  -2.2205  -2.1799  -2.0721  -1.9506  -1.9169  -1.8814
    -1.8411  -1.7822  -1.7758  -1.7622  -1.7276  -1.7268  -1.7108  -1.6325
    -1.4686  -1.4075  -1.3449  -1.3230  -1.2495  -1.2370  -1.2215  -1.1782
    -1.1373  -1.0894  -1.0449  -1.0229  -0.9671  -0.9227  -0.7940  -0.7400
    -0.6555  -0.6504  -0.6278  -0.6128  -0.5587  -0.5340  -0.5085  -0.4639
    -0.4298  -0.3870  -0.3539  -0.3448  -0.3229  -0.2618  -0.1618  -0.1129
    -0.0506  -0.0445   0.0383   0.1676   0.3530   0.3835   0.4419   0.4928
     0.5819   0.6045   0.6532   0.6730   0.7306   0.7576   0.7991   0.8592
     0.9199   0.9481   1.5125   1.7271   1.7336   1.7968   1.8060   3.7416
     3.8292   3.9216   3.9356   3.9699   3.9822   3.9877   4.0173   4.0738
     4.1258

     the Fermi energy is     3.4476 ev

!    total energy              =   -2966.15823466 Ry
     estimated scf accuracy    <       0.00000005 Ry
     smearing contrib. (-TS)   =      -0.02139632 Ry
     internal energy E=F+TS    =   -2966.13683834 Ry

     The total energy is F=E-TS. E is the sum of the following terms:
     one-electron contribution =  -24756.13319372 Ry
     hartree contribution      =   12470.55992691 Ry
     xc contribution           =    -490.96234289 Ry
     ewald contribution        =    9810.39688698 Ry
     electric field correction =       0.00188437 Ry

     convergence has been achieved in  76 iterations

     Forces acting on atoms (cartesian axes, Ry/au):

     atom    1 type  1   force =     0.00075490   -0.00018339    0.09531936
     atom    2 type  1   force =     0.00024561   -0.00220844   -0.17573090
     atom    3 type  2   force =    -0.00066079   -0.00040721   -0.03009070
     atom    4 type  2   force =    -0.00084983    0.00063648    0.05235692
     atom    5 type  2   force =    -0.01386533   -0.00099734    0.00146367
     atom    6 type  2   force =     0.01581642    0.00241050    0.00318810
     atom    7 type  1   force =     0.00033747    0.00039708   -0.00027315
     atom    8 type  1   force =    -0.00035714    0.00140320    0.00065978
     atom    9 type  2   force =     0.00011422   -0.00002461    0.00023533
     atom   10 type  2   force =     0.00017408    0.00017181   -0.00057759
     atom   11 type  2   force =    -0.00022762    0.00024975    0.00018628
     atom   12 type  2   force =    -0.00038610    0.00009082    0.00008100
     atom   13 type  1   force =     0.00022761   -0.00017920   -0.00062464
     atom   14 type  1   force =    -0.00101308    0.00001952    0.00028750
     atom   15 type  2   force =     0.00006501   -0.00109153   -0.00014000
     atom   16 type  2   force =    -0.00001723   -0.00006374   -0.00019305
     atom   17 type  2   force =    -0.00038025   -0.00033683   -0.00011871
     atom   18 type  2   force =     0.00039641   -0.00035340    0.00017941
     atom   19 type  1   force =     0.00006252    0.00046971    0.00011492
     atom   20 type  1   force =     0.00020163    0.00086737    0.00032123
     atom   21 type  2   force =     0.00014622    0.00019909    0.10306520
     atom   22 type  2   force =     0.00015809   -0.00110718    0.00015810
     atom   23 type  2   force =    -0.07129074    0.00093592   -0.02830715
     atom   24 type  2   force =     0.07134447    0.00133033   -0.02834237
     atom   25 type  1   force =     0.00021798    0.00038290    0.10639580
     atom   26 type  1   force =    -0.00000197    0.00253725   -0.17561461
     atom   27 type  2   force =    -0.00037691    0.00013334   -0.02787013
     atom   28 type  2   force =    -0.00096179    0.00076211    0.05166805
     atom   29 type  2   force =    -0.01301621   -0.00122958    0.00107266
     atom   30 type  2   force =     0.01545895    0.00037422    0.00295639
     atom   31 type  1   force =     0.00051878    0.00002597   -0.00001923
     atom   32 type  1   force =    -0.00040795   -0.00140669    0.00018461
     atom   33 type  2   force =    -0.00016700   -0.00031234    0.00020162
     atom   34 type  2   force =     0.00000549    0.00010620   -0.00013566
     atom   35 type  2   force =    -0.00061398   -0.00019777    0.00066281
     atom   36 type  2   force =     0.00002248   -0.00037311    0.00024310
     atom   37 type  1   force =     0.00059802    0.00027021    0.00051655
     atom   38 type  1   force =    -0.00092128    0.00013969    0.00046686
     atom   39 type  2   force =    -0.00017255    0.00063843    0.00024163
     atom   40 type  2   force =    -0.00002446   -0.00052001   -0.00066498
     atom   41 type  2   force =     0.00117795   -0.00005798   -0.00008912
     atom   42 type  2   force =    -0.00093025   -0.00024514    0.00006894
     atom   43 type  1   force =     0.00017534   -0.00120549   -0.00010838
     atom   44 type  1   force =    -0.00031942    0.00028719   -0.00011323
     atom   45 type  2   force =     0.00012230    0.00015633    0.10331410
     atom   46 type  2   force =    -0.07121571   -0.00125220   -0.02830169
     atom   47 type  2   force =     0.07128462   -0.00085471   -0.02834165
     atom   48 type  3   force =    -0.00079195   -0.00016082   -0.00004235
     atom   49 type  2   force =     0.00050102   -0.00006273   -0.00014452
     atom   50 type  4   force =    -0.00000888   -0.00040945   -0.00012841
     atom   51 type  4   force =    -0.00067580   -0.00009718    0.00017234
     atom   52 type  4   force =    -0.00037131   -0.00002433   -0.00036422
     atom   53 type  2   force =     0.00002090   -0.00629314   -0.00177519
     atom   54 type  4   force =     0.00128561    0.00681833    0.00282399
     atom   55 type  4   force =    -0.00140860   -0.00015825   -0.00049454

     Total force =     0.367528     Total SCF correction =     0.000735
  @ DRIVER MODE: Message from server: STATUS
  @ DRIVER MODE: Message from server: GETFORCE
  @ DRIVER MODE: Returning v,forces,stress,ensemble

     Writing output data file ./calc.save/
  @ DRIVER MODE: Message from server: EXIT
  @ DRIVE MODE: Exiting

     General routines

     Parallel routines

   This run was terminated on:   4:46:58  16Sep2021

   JOB DONE.