     Program PWSCF v.6.7GPU starts on  2Aug2021 at 13:25:49

     R & G space division:  proc/nbgrp/npool/nimage =      16
     Reading input from /storage/home/hcoda1/3/ntian30/research/carbon/02Aug_vib_paired/ads_slab/CH3NHHH_a/out_0004/pw.inp
Warning: card &CELL ignored
Warning: card   CELL_DYNAMICS='IPI', ignored
Warning: card / ignored

     Current dimensions of program PWSCF are:
     Max number of different atomic species (ntypx) = 10
     Max number of k-points (npk) =  40000
     Max angular momentum in pseudopotentials (lmaxx) =  3
     Presently no symmetry can be used with electric field

     Message from routine cell_base_init:
     DEPRECATED: use true lattice parameter, not A to a.u. conversion factor

     IMPORTANT: XC functional enforced from input :
     Exchange-correlation= BEEF-VDW
                           (   1   4  43  14   2   0   0)
     Any further DFT definition will be discarded
     Please, verify this is what you really want

  @ DRIVER MODE: Connecting to
 qe_1139763_2482537.sched-torque.pace.gatech.edurfv1lm6v_scratch
  using UNIX socket
  @ DRIVER MODE: Message from server: STATUS
  @ DRIVER MODE: Message from server: INIT
  @ DRIVER MODE: Receiving replica           0          -1
  @ DRIVER MODE: Receiving encoded integer          25
  @ DRIVER MODE:  SCF:  T  FORCE:  T  STRESS:  F  VC:  F  ENSEMBLE:  F
  @ DRIVER MODE:  SCF:  T  FORCE:  T  STRESS:  F  VC:  F  ENSEMBLE:  F

     Using Slab Decomposition

     bravais-lattice index     =            0
     lattice parameter (alat)  =       1.8897  a.u.
     unit-cell volume          =    6658.9804 (a.u.)^3
     number of atoms/cell      =           55
     number of atomic types    =            5
     number of electrons       =       393.00
     number of Kohn-Sham states=          206
     kinetic-energy cutoff     =      29.3995  Ry
     charge density cutoff     =     293.9946  Ry
     scf convergence threshold =      7.3E-08
     mixing beta               =       0.0500
     number of iterations used =            8  plain     mixing
     Exchange-correlation= BEEF-VDW
                           (   1   4  43  14   2   0   0)

     celldm(1)=   1.889726  celldm(2)=   0.000000  celldm(3)=   0.000000
     celldm(4)=   0.000000  celldm(5)=   0.000000  celldm(6)=   0.000000

     crystal axes: (cart. coord. in units of alat)
               a(1) = (   6.579727   0.000000   0.000000 )
               a(2) = (  -0.000775   5.961596   0.000000 )
               a(3) = (   0.000000   0.000000  25.155947 )

     reciprocal axes: (cart. coord. in units 2 pi/alat)
               b(1) = (  0.151982  0.000020  0.000000 )
               b(2) = (  0.000000  0.167740  0.000000 )
               b(3) = (  0.000000  0.000000  0.039752 )

     PseudoPot. # 1 for Ti read from file:
     /storage/coda1/p-amedford6/0/shared/rich_project_chbe-medford/medford-share/data/pseudos_module/espresso/nninc/pbe/van/Ti.UPF
     MD5 check sum: 8e4df49b7f0d34bbd5052bf3f5ea0213
     Pseudo is Ultrasoft, Zval = 12.0
     Generated by new atomic code, or converted to UPF format
     Using radial grid of  851 points,  6 beta functions with:
                l(1) =   0
                l(2) =   0
                l(3) =   1
                l(4) =   1
                l(5) =   2
                l(6) =   2
     Q(r) pseudized with  8 coefficients,  rinner =    1.000   1.000   1.000
                                                       1.000   1.000

     PseudoPot. # 2 for O  read from file:
     /storage/coda1/p-amedford6/0/shared/rich_project_chbe-medford/medford-share/data/pseudos_module/espresso/nninc/pbe/van/O.UPF
     MD5 check sum: 78c19812648e8988a0fe644b0f25305e
     Pseudo is Ultrasoft, Zval =  6.0
     Generated by new atomic code, or converted to UPF format
     Using radial grid of  737 points,  4 beta functions with:
                l(1) =   0
                l(2) =   0
                l(3) =   1
                l(4) =   1
     Q(r) pseudized with  8 coefficients,  rinner =    0.800   0.800   0.800

     PseudoPot. # 3 for N  read from file:
     /storage/coda1/p-amedford6/0/shared/rich_project_chbe-medford/medford-share/data/pseudos_module/espresso/nninc/pbe/van/N.UPF
     MD5 check sum: 90d10febe142ad51ac9d5be1deb811c4
     Pseudo is Ultrasoft, Zval =  5.0
     Generated by new atomic code, or converted to UPF format
     Using radial grid of  729 points,  4 beta functions with:
                l(1) =   0
                l(2) =   0
                l(3) =   1
                l(4) =   1
     Q(r) pseudized with  8 coefficients,  rinner =    0.800   0.800   0.800

     PseudoPot. # 4 for C  read from file:
     /storage/coda1/p-amedford6/0/shared/rich_project_chbe-medford/medford-share/data/pseudos_module/espresso/nninc/pbe/van/C.UPF
     MD5 check sum: 1a69bf6b8db32088f5b2163dbdb77a27
     Pseudo is Ultrasoft, Zval =  4.0
     Generated by new atomic code, or converted to UPF format
     Using radial grid of  721 points,  4 beta functions with:
                l(1) =   0
                l(2) =   0
                l(3) =   1
                l(4) =   1
     Q(r) pseudized with  8 coefficients,  rinner =    0.800   0.800   0.800

     PseudoPot. # 5 for H  read from file:
     /storage/coda1/p-amedford6/0/shared/rich_project_chbe-medford/medford-share/data/pseudos_module/espresso/nninc/pbe/van/H.UPF
     MD5 check sum: b5ee9d7bfd3a09ee7748110bda690ff7
     Pseudo is Ultrasoft, Zval =  1.0
     Generated by new atomic code, or converted to UPF format
     Using radial grid of  615 points,  1 beta functions with:
                l(1) =   0
     Q(r) pseudized with  8 coefficients,  rinner =    0.800

     atomic species   valence    mass     pseudopotential
        Ti1           12.00    47.86700     Ti( 1.00)
        O1             6.00    15.99900     O ( 1.00)
        N1             5.00    14.00700     N ( 1.00)
        C1             4.00    12.01100     C ( 1.00)
        H1             1.00     1.00800     H ( 1.00)

     No symmetry found

   Cartesian axes

     site n.     atom                  positions (alat units)
         1           Ti1 tau(   1) = (   0.0004258   2.9801865   6.0000000  )
         2           Ti1 tau(   2) = (   3.2906075   1.4906267   6.0002472  )
         3           O1  tau(   3) = (   0.0006271   0.0005054   7.9858123  )
         4           O1  tau(   4) = (   3.2906025   0.0005020   7.3038282  )
         5           O1  tau(   5) = (   4.5942328   1.4918067   9.2879030  )
         6           O1  tau(   6) = (   1.9868534   1.4903216   9.2879459  )
         7           Ti1 tau(   7) = (   3.2907910   2.8959150   9.1758416  )
         8           Ti1 tau(   8) = (   0.0015273   1.4827037   9.2680791  )
         9           O1  tau(   9) = (   3.2636084   5.9406443  11.4082010  )
        10           O1  tau(  10) = (   0.0116148   5.9584955  10.6183126  )
        11           O1  tau(  11) = (   1.2642105   1.4849797  12.6947803  )
        12           O1  tau(  12) = (   5.2691575   1.4821021  12.6650678  )
        13           Ti1 tau(  13) = (   6.5574234   2.9640577  12.4921542  )
        14           Ti1 tau(  14) = (   3.2619390   1.4709553  12.5527290  )
        15           O1  tau(  15) = (   6.5247406   5.9594380  14.6832748  )
        16           O1  tau(  16) = (   3.2695906   5.9428997  14.0562986  )
        17           O1  tau(  17) = (   4.5175969   1.4707097  16.2986306  )
        18           O1  tau(  18) = (   1.9406912   1.4777946  16.2473769  )
        19           Ti1 tau(  19) = (   3.2491105   2.9422209  15.8109686  )
        20           Ti1 tau(  20) = (   6.5361480   1.3378720  15.9626387  )
        21           O1  tau(  21) = (   3.2904802   0.0005063   4.7018136  )
        22           O1  tau(  22) = (   6.5280740   5.8897732  17.4332532  )
        23           O1  tau(  23) = (   1.3043587   1.4918075   6.0039043  )
        24           O1  tau(  24) = (   5.2767064   1.4903225   6.0039473  )
        25           Ti1 tau(  25) = (   0.0000382   5.9609847   6.0000000  )
        26           Ti1 tau(  26) = (   3.2902200   4.4714249   6.0002472  )
        27           O1  tau(  27) = (   0.0002396   2.9813036   7.9858123  )
        28           O1  tau(  28) = (   3.2902150   2.9813002   7.3038282  )
        29           O1  tau(  29) = (   4.5938453   4.4726049   9.2879030  )
        30           O1  tau(  30) = (   1.9864658   4.4711199   9.2879459  )
        31           Ti1 tau(  31) = (   3.2891106   5.8743827   9.1763621  )
        32           Ti1 tau(  32) = (   0.0006254   4.4649316   9.2693709  )
        33           O1  tau(  33) = (   3.2649920   2.9642658  11.3997388  )
        34           O1  tau(  34) = (   0.0092240   2.9805883  10.6323155  )
        35           O1  tau(  35) = (   1.2634527   4.4478426  12.7061968  )
        36           O1  tau(  36) = (   5.2693862   4.4495813  12.6755241  )
        37           Ti1 tau(  37) = (   6.5522441   5.9483113  12.5008436  )
        38           Ti1 tau(  38) = (   3.2626494   4.4468850  12.5575576  )
        39           O1  tau(  39) = (   6.4970557   2.9363996  15.0046851  )
        40           O1  tau(  40) = (   3.2722650   2.9529576  14.0194401  )
        41           O1  tau(  41) = (   4.5170401   4.4205294  16.2730734  )
        42           O1  tau(  42) = (   1.9466746   4.4191161  16.2235312  )
        43           Ti1 tau(  43) = (   3.2419262   5.9323414  15.8513663  )
        44           Ti1 tau(  44) = (   6.5549466   4.5556212  15.8889459  )
        45           O1  tau(  45) = (   3.2900926   2.9813045   4.7018136  )
        46           O1  tau(  46) = (   1.3039711   4.4726057   6.0039043  )
        47           O1  tau(  47) = (   5.2763189   4.4711207   6.0039473  )
        48           N1  tau(  48) = (   4.8657738   4.5898987  19.4796958  )
        49           C1  tau(  49) = (   5.7271871   3.4329544  19.8049648  )
        50           H1  tau(  50) = (   6.3241292   3.1721029  18.9298488  )
        51           H1  tau(  51) = (   6.4229137   3.7195585  20.5942015  )
        52           H1  tau(  52) = (   5.1874390   2.5328885  20.1195193  )
        53           H1  tau(  53) = (   5.9066942   5.7389963  18.1772939  )
        54           H1  tau(  54) = (   4.2103208   4.3266459  18.7469397  )
        55           H1  tau(  55) = (   4.3187305   4.8545830  20.2870342  )

     number of k points=    10  Fermi-Dirac smearing, width (Ry)=  0.0073
                       cart. coord. in units 2pi/alat
        k(    1) = (   0.0000000   0.0000000   0.0000000), wk =   0.1250000
        k(    2) = (   0.0000000   0.0419351   0.0000000), wk =   0.2500000
        k(    3) = (   0.0000000  -0.0838702   0.0000000), wk =   0.1250000
        k(    4) = (   0.0379955   0.0000049   0.0000000), wk =   0.2500000
        k(    5) = (   0.0379955   0.0419400   0.0000000), wk =   0.2500000
        k(    6) = (   0.0379955  -0.0838652   0.0000000), wk =   0.2500000
        k(    7) = (   0.0379955  -0.0419301   0.0000000), wk =   0.2500000
        k(    8) = (  -0.0759910  -0.0000099   0.0000000), wk =   0.1250000
        k(    9) = (  -0.0759910   0.0419252   0.0000000), wk =   0.2500000
        k(   10) = (  -0.0759910  -0.0838800   0.0000000), wk =   0.1250000

     Initial potential from superposition of free atoms

     starting charge  376.99914, renormalised to  393.00000

     negative rho (up, down):  1.329E-02 0.000E+00

     %%%%%%%%%%%%%%%%%%%%%%%%%%%%%%%%%%%%%%%%%%%%%%%%%%%%%%%%%%%%%%%%%%%%%%%%
     %                                                                      %
     % You are using vdW-DF, which was implemented by the Thonhauser group. %
     % Please cite the following two papers that made this development      %
     % possible and the two reviews that describe the various versions:     %
     %                                                                      %
     %   T. Thonhauser et al., PRL 115, 136402 (2015).                      %
     %   T. Thonhauser et al., PRB 76, 125112 (2007).                       %
     %   K. Berland et al., Rep. Prog. Phys. 78, 066501 (2015).             %
     %   D.C. Langreth et al., J. Phys.: Condens. Matter 21, 084203 (2009). %
     %                                                                      %
     %                                                                      %
     % If you are calculating the stress with vdW-DF, please also cite:     %
     %                                                                      %
     %   R. Sabatini et al., J. Phys.: Condens. Matter 24, 424209 (2012).   %
     %                                                                      %
     %%%%%%%%%%%%%%%%%%%%%%%%%%%%%%%%%%%%%%%%%%%%%%%%%%%%%%%%%%%%%%%%%%%%%%%%

     Adding external electric field

     Computed dipole along edir(3) :
        Dipole               -9.4918 Ry au,        -24.1257 Debye
        Dipole field         -0.0179 Ry au,

        Potential amp.        1.6604 Ry
        Total length         46.3494 bohr

     Starting wfcs are  298 atomic wfcs
  @ DRIVER MODE: Message from server: STATUS
  @ DRIVER MODE: Message from server: POSDATA
  @ DRIVER MODE: Reading and sharing cell
  @ DRIVER MODE: Reading and sharing positions
  @ DRIVER MODE: Received positions

     Self-consistent Calculation

     iteration #  1     ecut=    29.40 Ry     beta= 0.05
     Davidson diagonalization with overlap
     c_bands:  2 eigenvalues not converged
     c_bands:  1 eigenvalues not converged
     c_bands:  2 eigenvalues not converged
     c_bands:  3 eigenvalues not converged
     c_bands:  3 eigenvalues not converged
     c_bands:  1 eigenvalues not converged
     ethr =  1.00E-05,  avg # of iterations = 18.9

[...]

     total energy              =   -2620.46199779 Ry
     estimated scf accuracy    <    3390.25280272 Ry

[...]

     iteration #  3     ecut=    29.40 Ry     beta= 0.05
     Davidson diagonalization with overlap
     ethr =  1.00E-02,  avg # of iterations = 15.3

[...]

     iteration # 95     ecut=    29.40 Ry     beta= 0.05
     Davidson diagonalization with overlap
     ethr =  6.42E-11,  avg # of iterations = 13.8

[...]

     total energy              =   -2922.77373394 Ry
     estimated scf accuracy    <       0.00000013 Ry

     iteration # 97     ecut=    29.40 Ry     beta= 0.05
     Davidson diagonalization with overlap
     c_bands:  1 eigenvalues not converged
     ethr =  2.89E-11,  avg # of iterations = 13.6

     negative rho (up, down):  1.445E-02 0.000E+00

     Adding external electric field

     Computed dipole along edir(3) :
        Dipole                1.4074 Ry au,          3.5771 Debye
        Dipole field          0.0027 Ry au,

        Potential amp.       -0.2462 Ry
        Total length         46.3494 bohr

     End of self-consistent calculation

          k = 0.0000 0.0000 0.0000 ( 18029 PWs)   bands (ev):

   -55.3070 -55.2712 -55.2553 -55.2212 -55.1711 -55.1469 -55.1459 -55.1367
   -55.1125 -55.0824 -55.0717 -55.0485 -55.0297 -54.9716 -54.2987 -54.2646
   -31.8740 -31.7496 -31.6873 -31.6595 -31.6348 -31.6140 -31.5895 -31.5490
   -31.5447 -31.5434 -31.5143 -31.5033 -31.4993 -31.4747 -31.4641 -31.4591
   -31.4457 -31.4357 -31.4082 -31.3999 -31.3956 -31.3792 -31.3708 -31.3537
   -31.3510 -31.3135 -31.3125 -31.3034 -31.3011 -31.2880 -31.2831 -31.2812
   -31.2746 -31.2736 -31.2587 -31.2555 -31.2234 -31.2098 -31.1988 -31.1932
   -31.1804 -31.1053 -30.7090 -30.6125 -30.5905 -30.5250 -30.4381 -30.3276
   -16.8210 -16.1459 -15.8896 -15.7688 -15.6594 -15.5646 -15.5189 -15.4400
   -15.3561 -15.2556 -15.1942 -15.0889 -15.0544 -15.0148 -15.0001 -14.9811
   -14.9542 -14.8740 -14.8632 -14.8526 -14.8270 -14.8085 -14.7803 -14.7717
   -14.7648 -14.7253 -14.6880 -14.5759 -14.4854 -14.3997 -12.8020 -12.6842
   -10.0189  -5.8470  -4.7373  -4.3969  -3.4984  -3.4677  -3.3419  -3.2365
    -3.2032  -3.1950  -3.0743  -2.8915  -2.7961  -2.7691  -2.7042  -2.6282
    -2.5323  -2.5285  -2.4882  -2.3878  -2.3500  -2.3233  -2.2401  -2.2133
    -2.1670  -2.1160  -2.1058  -2.1026  -2.0821  -2.0415  -2.0030  -1.8841
    -1.7994  -1.7775  -1.7039  -1.6875  -1.6815  -1.6534  -1.6102  -1.5910
    -1.5418  -1.5248  -1.4840  -1.4153  -1.3542  -1.2718  -1.2349  -1.1980
    -0.9916  -0.9629  -0.9126  -0.9101  -0.8816  -0.8133  -0.7834  -0.7539
    -0.6879  -0.6854  -0.6572  -0.5509  -0.5081  -0.3872  -0.3166  -0.2371
    -0.1154  -0.1022  -0.0782  -0.0287  -0.0053   0.0544   0.1143   0.1512
     0.1906   0.2033   0.2907   0.3187   0.3913   0.4062   0.4394   0.5121
     0.5260   0.5530   0.5650   0.5848   0.6193   0.6351   0.6694   0.7360
     0.7682   0.8696   0.9183   1.2020   1.2876   1.5965   1.6200   1.7234
     1.9047   2.3018   2.3510   3.7874   3.8485   3.8890   3.9317   3.9353
     4.0170   4.1473   4.2905   4.3001   4.3112   4.3181

[...]

          k = 0.0380-0.0419 0.0000 ( 17876 PWs)   bands (ev):

[...]

          k =-0.0760-0.0000 0.0000 ( 17886 PWs)   bands (ev):

[...]

          k =-0.0760-0.0839 0.0000 ( 17948 PWs)   bands (ev):

   -55.2904 -55.2876 -55.2386 -55.2378 -55.1543 -55.1534 -55.1419 -55.1317
   -55.1274 -55.0755 -55.0667 -55.0643 -55.0227 -54.9786 -54.2816 -54.2815
   -31.6817 -31.6767 -31.5865 -31.5810 -31.5649 -31.5644 -31.5554 -31.5290
   -31.5283 -31.5078 -31.5029 -31.5010 -31.4878 -31.4615 -31.4567 -31.4555
   -31.4297 -31.4291 -31.4227 -31.4016 -31.3791 -31.3770 -31.3669 -31.3630
   -31.3623 -31.3580 -31.3573 -31.3488 -31.3471 -31.3410 -31.3372 -31.3218
   -31.3190 -31.3063 -31.3033 -31.2921 -31.2635 -31.2464 -31.2445 -31.2420
   -31.2247 -31.1717 -30.6032 -30.6031 -30.5215 -30.5214 -30.4816 -30.4815
   -16.7595 -15.8188 -15.5666 -15.5376 -15.4975 -15.4031 -15.3294 -15.2983
   -15.2881 -15.2750 -15.1489 -15.1209 -15.1115 -15.0833 -15.0515 -15.0269
   -15.0231 -14.9882 -14.9311 -14.9250 -14.9171 -14.9089 -14.8452 -14.8370
   -14.8332 -14.8264 -14.7608 -14.7584 -14.6764 -14.6744 -12.7857 -12.7856
   -10.0286  -5.8473  -4.8651  -4.3786  -3.5040  -2.8225  -2.7948  -2.7440
    -2.7199  -2.6116  -2.5261  -2.4987  -2.4622  -2.4044  -2.3521  -2.3048
    -2.3026  -2.2670  -2.2475  -2.2287  -2.1848  -2.1632  -2.1408  -2.1226
    -2.1079  -2.0542  -2.0513  -2.0422  -2.0178  -1.9837  -1.9663  -1.9531
    -1.9366  -1.9183  -1.8928  -1.8736  -1.7307  -1.7098  -1.6691  -1.5521
    -1.5341  -1.5306  -1.4976  -1.4538  -1.4290  -1.4215  -1.3474  -1.3402
    -1.3072  -1.1506  -1.0784  -1.0767  -1.0535  -1.0296  -0.9343  -0.8828
    -0.8424  -0.7926  -0.7168  -0.6855  -0.6667  -0.5943  -0.5673  -0.4757
    -0.3865  -0.3596  -0.3514  -0.2739  -0.2724  -0.2391  -0.2260  -0.1569
    -0.0966  -0.0451  -0.0411  -0.0370   0.0915   0.1287   0.2087   0.3229
     0.4033   0.4115   0.4603   0.5230   0.5803   0.6484   0.6619   0.7899
     0.7919   0.9783   0.9816   1.0299   1.0449   1.1254   1.1305   2.0775
     2.0782   2.1706   2.1709   3.7628   3.9458   4.0000   4.0729   4.0983
     4.1963   4.2812   4.3149   4.3453   4.3672   4.3745

     the Fermi energy is     3.8559 ev

!    total energy              =   -2922.77373619 Ry
     estimated scf accuracy    <       0.00000003 Ry
     smearing contrib. (-TS)   =      -0.04551996 Ry
     internal energy E=F+TS    =   -2922.72821623 Ry

     The total energy is F=E-TS. E is the sum of the following terms:
     one-electron contribution =  -23201.55759180 Ry
     hartree contribution      =   11691.08018097 Ry
     xc contribution           =    -482.54227739 Ry
     ewald contribution        =    9070.28773422 Ry
     electric field correction =       0.00373776 Ry

     convergence has been achieved in  97 iterations

     Forces acting on atoms (cartesian axes, Ry/au):

     atom    1 type  1   force =     0.00016963   -0.00007373    0.09296515
     atom    2 type  1   force =    -0.00000429   -0.00014385   -0.17881549
     atom    3 type  2   force =     0.00002220   -0.00029807   -0.02021882
     atom    4 type  2   force =    -0.00000162   -0.00223733    0.06097214
     atom    5 type  2   force =    -0.01149333   -0.00128721    0.01054494
     atom    6 type  2   force =     0.01240560   -0.00058998    0.00810839
     atom    7 type  1   force =    -0.00124350    0.00346712   -0.01490915
     atom    8 type  1   force =     0.00122705   -0.00357835   -0.00844607
     atom    9 type  2   force =     0.00001309   -0.00005313   -0.00025559
     atom   10 type  2   force =    -0.00281256   -0.00047933    0.00155024
     atom   11 type  2   force =     0.00011216   -0.00023946   -0.00028561
     atom   12 type  2   force =     0.00001231    0.00008245   -0.00009696
     atom   13 type  1   force =    -0.00019562   -0.00031182   -0.00060582
     atom   14 type  1   force =    -0.00003611   -0.00003842    0.00021614
     atom   15 type  2   force =    -0.00011176   -0.00024611   -0.00012306
     atom   16 type  2   force =     0.00032525    0.00034478   -0.00010093
     atom   17 type  2   force =     0.00078161    0.00029205   -0.00025012
     atom   18 type  2   force =     0.00009355   -0.00026875   -0.00003233
     atom   19 type  1   force =     0.00025700    0.00044285   -0.00041639
     atom   20 type  1   force =     0.00011372   -0.00001012    0.00049564
     atom   21 type  2   force =     0.00012672   -0.00003200    0.10425779
     atom   22 type  2   force =    -0.00041465    0.00017855   -0.00002581
     atom   23 type  2   force =    -0.06987866   -0.00011424   -0.02678701
     atom   24 type  2   force =     0.06985214    0.00034374   -0.02678841
     atom   25 type  1   force =     0.00019429   -0.00020707    0.09225077
     atom   26 type  1   force =    -0.00006706   -0.00036891   -0.17902534
     atom   27 type  2   force =     0.00004081   -0.00026124   -0.01894475
     atom   28 type  2   force =     0.00006622   -0.00192876    0.06022008
     atom   29 type  2   force =    -0.01168350   -0.00162732    0.01033796
     atom   30 type  2   force =     0.01246788   -0.00120851    0.00786970
     atom   31 type  1   force =    -0.00101079    0.00608058   -0.01578655
     atom   32 type  1   force =     0.00116726    0.00334009   -0.00863166
     atom   33 type  2   force =     0.00003028    0.00020418   -0.00024112
     atom   34 type  2   force =    -0.00240549   -0.00053629    0.00060264
     atom   35 type  2   force =    -0.00000414   -0.00000025    0.00005809
     atom   36 type  2   force =     0.00004504   -0.00007464    0.00037236
     atom   37 type  1   force =     0.00035131   -0.00003116   -0.00004306
     atom   38 type  1   force =    -0.00034513   -0.00031317    0.00046173
     atom   39 type  2   force =     0.00036018   -0.00014424    0.00063092
     atom   40 type  2   force =     0.00025066   -0.00017310    0.00003488
     atom   41 type  2   force =     0.00006691    0.00033005   -0.00039342
     atom   42 type  2   force =     0.00050149    0.00021027   -0.00018312
     atom   43 type  1   force =     0.00025344   -0.00019201   -0.00033172
     atom   44 type  1   force =     0.00016247   -0.00123333    0.00061271
     atom   45 type  2   force =     0.00011873   -0.00005404    0.10421398
     atom   46 type  2   force =    -0.06989702   -0.00005122   -0.02677768
     atom   47 type  2   force =     0.06988551    0.00035248   -0.02679848
     atom   48 type  3   force =     0.00531024   -0.01066743   -0.00654548
     atom   49 type  4   force =    -0.00086301    0.00659562   -0.00109394
     atom   50 type  5   force =    -0.00035126    0.00050088   -0.00012119
     atom   51 type  5   force =    -0.00067120   -0.00047892    0.00021330
     atom   52 type  5   force =    -0.00106540    0.00076072   -0.00006307
     atom   53 type  5   force =     0.00005494    0.00084536   -0.00087943
     atom   54 type  5   force =     0.00127078    0.00260052    0.00220477
     atom   55 type  5   force =    -0.00355438    0.00258121    0.00482325

     Total force =     0.367929     Total SCF correction =     0.000468
  @ DRIVER MODE: Message from server: STATUS
  @ DRIVER MODE: Message from server: GETFORCE
  @ DRIVER MODE: Returning v,forces,stress,ensemble

     Writing output data file ./calc.save/
  @ DRIVER MODE: Message from server: EXIT
  @ DRIVE MODE: Exiting

     General routines

     Parallel routines

   This run was terminated on:  14: 4:24   2Aug2021

   JOB DONE.