     Program PWSCF v.6.7GPU starts on  9Sep2021 at  2: 0:53

     R & G space division:  proc/nbgrp/npool/nimage =      10
     Reading input from /storage/home/hcoda1/3/ntian30/research/carbon/CxH_vib/CH2_calc/ads_slab/CH2N2H_a/out_0014/pw.inp
Warning: card &CELL ignored
Warning: card   CELL_DYNAMICS='IPI', ignored
Warning: card / ignored

     Current dimensions of program PWSCF are:
     Max number of different atomic species (ntypx) = 10
     Max number of k-points (npk) =  40000
     Max angular momentum in pseudopotentials (lmaxx) =  3
     Presently no symmetry can be used with electric field

     Message from routine cell_base_init:
     DEPRECATED: use true lattice parameter, not A to a.u. conversion factor

     IMPORTANT: XC functional enforced from input :
     Exchange-correlation= BEEF-VDW
                           (   1   4  43  14   2   0   0)
     Any further DFT definition will be discarded
     Please, verify this is what you really want

  @ DRIVER MODE: Connecting to
 qe_1139763_2767385.sched-torque.pace.gatech.eduy0smyeiq_scratch
  using UNIX socket
  @ DRIVER MODE: Message from server: STATUS
  @ DRIVER MODE: Message from server: INIT
  @ DRIVER MODE: Receiving replica           0          -1
  @ DRIVER MODE: Receiving encoded integer          25
  @ DRIVER MODE:  SCF:  T  FORCE:  T  STRESS:  F  VC:  F  ENSEMBLE:  F
  @ DRIVER MODE:  SCF:  T  FORCE:  T  STRESS:  F  VC:  F  ENSEMBLE:  F

     Using Slab Decomposition

     bravais-lattice index     =            0
     lattice parameter (alat)  =       1.8897  a.u.
     unit-cell volume          =    6658.9804 (a.u.)^3
     number of atoms/cell      =           53
     number of atomic types    =            5
     number of electrons       =       395.00
     number of Kohn-Sham states=          207
     kinetic-energy cutoff     =      29.3995  Ry
     charge density cutoff     =     293.9946  Ry
     scf convergence threshold =      7.3E-08
     mixing beta               =       0.0500
     number of iterations used =            8  plain     mixing
     Exchange-correlation= BEEF-VDW
                           (   1   4  43  14   2   0   0)

     celldm(1)=   1.889726  celldm(2)=   0.000000  celldm(3)=   0.000000
     celldm(4)=   0.000000  celldm(5)=   0.000000  celldm(6)=   0.000000

     crystal axes: (cart. coord. in units of alat)
               a(1) = (   6.579727   0.000000   0.000000 )
               a(2) = (  -0.000775   5.961596   0.000000 )
               a(3) = (   0.000000   0.000000  25.155947 )

     reciprocal axes: (cart. coord. in units 2 pi/alat)
               b(1) = (  0.151982  0.000020  0.000000 )
               b(2) = (  0.000000  0.167740  0.000000 )
               b(3) = (  0.000000  0.000000  0.039752 )

     PseudoPot. # 1 for Ti read from file:
     /storage/coda1/p-amedford6/0/shared/rich_project_chbe-medford/medford-share/data/pseudos_module/espresso/nninc/pbe/van/Ti.UPF
     MD5 check sum: 8e4df49b7f0d34bbd5052bf3f5ea0213
     Pseudo is Ultrasoft, Zval = 12.0
     Generated by new atomic code, or converted to UPF format
     Using radial grid of  851 points,  6 beta functions with:
                l(1) =   0
                l(2) =   0
                l(3) =   1
                l(4) =   1
                l(5) =   2
                l(6) =   2
     Q(r) pseudized with  8 coefficients,  rinner =    1.000   1.000   1.000
                                                       1.000   1.000

     PseudoPot. # 2 for O  read from file:
     /storage/coda1/p-amedford6/0/shared/rich_project_chbe-medford/medford-share/data/pseudos_module/espresso/nninc/pbe/van/O.UPF
     MD5 check sum: 78c19812648e8988a0fe644b0f25305e
     Pseudo is Ultrasoft, Zval =  6.0
     Generated by new atomic code, or converted to UPF format
     Using radial grid of  737 points,  4 beta functions with:
                l(1) =   0
                l(2) =   0
                l(3) =   1
                l(4) =   1
     Q(r) pseudized with  8 coefficients,  rinner =    0.800   0.800   0.800

     PseudoPot. # 3 for N  read from file:
     /storage/coda1/p-amedford6/0/shared/rich_project_chbe-medford/medford-share/data/pseudos_module/espresso/nninc/pbe/van/N.UPF
     MD5 check sum: 90d10febe142ad51ac9d5be1deb811c4
     Pseudo is Ultrasoft, Zval =  5.0
     Generated by new atomic code, or converted to UPF format
     Using radial grid of  729 points,  4 beta functions with:
                l(1) =   0
                l(2) =   0
                l(3) =   1
                l(4) =   1
     Q(r) pseudized with  8 coefficients,  rinner =    0.800   0.800   0.800

     PseudoPot. # 4 for C  read from file:
     /storage/coda1/p-amedford6/0/shared/rich_project_chbe-medford/medford-share/data/pseudos_module/espresso/nninc/pbe/van/C.UPF
     MD5 check sum: 1a69bf6b8db32088f5b2163dbdb77a27
     Pseudo is Ultrasoft, Zval =  4.0
     Generated by new atomic code, or converted to UPF format
     Using radial grid of  721 points,  4 beta functions with:
                l(1) =   0
                l(2) =   0
                l(3) =   1
                l(4) =   1
     Q(r) pseudized with  8 coefficients,  rinner =    0.800   0.800   0.800

     PseudoPot. # 5 for H  read from file:
     /storage/coda1/p-amedford6/0/shared/rich_project_chbe-medford/medford-share/data/pseudos_module/espresso/nninc/pbe/van/H.UPF
     MD5 check sum: b5ee9d7bfd3a09ee7748110bda690ff7
     Pseudo is Ultrasoft, Zval =  1.0
     Generated by new atomic code, or converted to UPF format
     Using radial grid of  615 points,  1 beta functions with:
                l(1) =   0
     Q(r) pseudized with  8 coefficients,  rinner =    0.800

     atomic species   valence    mass     pseudopotential
        Ti1           12.00    47.86700     Ti( 1.00)
        O1             6.00    15.99900     O ( 1.00)
        N1             5.00    14.00700     N ( 1.00)
        C1             4.00    12.01100     C ( 1.00)
        H1             1.00     1.00800     H ( 1.00)

     No symmetry found

   Cartesian axes

     site n.     atom                  positions (alat units)
         1           Ti1 tau(   1) = (   0.0004258   2.9801865   6.0000000  )
         2           Ti1 tau(   2) = (   3.2906075   1.4906267   6.0002472  )
         3           O1  tau(   3) = (   0.0006271   0.0005054   7.9858123  )
         4           O1  tau(   4) = (   3.2906025   0.0005020   7.3038282  )
         5           O1  tau(   5) = (   4.5942328   1.4918067   9.2879030  )
         6           O1  tau(   6) = (   1.9868534   1.4903216   9.2879459  )
         7           Ti1 tau(   7) = (   3.2907910   2.8959150   9.1758416  )
         8           Ti1 tau(   8) = (   0.0015273   1.4827037   9.2680791  )
         9           O1  tau(   9) = (   3.3007851   0.0027079  11.3193151  )
        10           O1  tau(  10) = (   0.0116148   5.9584955  10.6183126  )
        11           O1  tau(  11) = (   1.3147357   1.5019762  12.6210215  )
        12           O1  tau(  12) = (   5.3120411   1.4917641  12.6342566  )
        13           Ti1 tau(  13) = (   6.5359925   2.9538565  12.6086018  )
        14           Ti1 tau(  14) = (   3.2189980   1.4905645  12.4770757  )
        15           O1  tau(  15) = (   0.0426301   5.9606301  14.6312846  )
        16           O1  tau(  16) = (   3.3149351   0.0098317  13.8848037  )
        17           O1  tau(  17) = (   4.5523768   1.5206755  16.0744300  )
        18           O1  tau(  18) = (   2.0715852   1.4807026  15.9918588  )
        19           Ti1 tau(  19) = (   3.2935730   2.9941335  15.6827836  )
        20           Ti1 tau(  20) = (   0.0200723   1.3023755  15.9747514  )
        21           O1  tau(  21) = (   3.2904802   0.0005063   4.7018136  )
        22           O1  tau(  22) = (   6.5179923   0.0002674  17.1556216  )
        23           O1  tau(  23) = (   1.3043587   1.4918075   6.0039043  )
        24           O1  tau(  24) = (   5.2767064   1.4903225   6.0039473  )
        25           Ti1 tau(  25) = (   0.0000382   5.9609847   6.0000000  )
        26           Ti1 tau(  26) = (   3.2902200   4.4714249   6.0002472  )
        27           O1  tau(  27) = (   0.0002396   2.9813036   7.9858123  )
        28           O1  tau(  28) = (   3.2902150   2.9813002   7.3038282  )
        29           O1  tau(  29) = (   4.5938453   4.4726049   9.2879030  )
        30           O1  tau(  30) = (   1.9864658   4.4711199   9.2879459  )
        31           Ti1 tau(  31) = (   3.2891106   5.8743827   9.1763621  )
        32           Ti1 tau(  32) = (   0.0006254   4.4649316   9.2693709  )
        33           O1  tau(  33) = (   3.3053585   2.9833221  11.3185053  )
        34           O1  tau(  34) = (   0.0092240   2.9805883  10.6323155  )
        35           O1  tau(  35) = (   1.3157767   4.4721532  12.6203727  )
        36           O1  tau(  36) = (   5.3104355   4.4689601  12.6331991  )
        37           Ti1 tau(  37) = (   6.5385524   5.9338372  12.5465384  )
        38           Ti1 tau(  38) = (   3.2200853   4.4710709  12.4725482  )
        39           O1  tau(  39) = (   0.0068575   2.9964749  14.7765288  )
        40           O1  tau(  40) = (   3.3021705   2.9848394  13.8818356  )
        41           O1  tau(  41) = (   4.5334443   4.4765196  15.9883447  )
        42           O1  tau(  42) = (   2.0816803   4.4801587  16.0471567  )
        43           Ti1 tau(  43) = (   3.3155128   0.0116264  15.6901768  )
        44           Ti1 tau(  44) = (   6.5575601   4.4671909  15.9479714  )
        45           O1  tau(  45) = (   3.2900926   2.9813045   4.7018136  )
        46           O1  tau(  46) = (   1.3039711   4.4726057   6.0039043  )
        47           O1  tau(  47) = (   5.2763189   4.4711207   6.0039473  )
        48           N1  tau(  48) = (   0.4270260   2.3853988  17.9668900  )
        49           C1  tau(  49) = (   0.9469377   1.9340014  19.0583692  )
        50           H1  tau(  50) = (   1.0889317   2.5769861  19.9249762  )
        51           H1  tau(  51) = (   1.2326487   0.8959138  19.0941702  )
        52           N1  tau(  52) = (   0.0025679   3.6232397  17.7996529  )
        53           H1  tau(  53) = (   0.1020252   4.2324666  18.6151602  )

     number of k points=    10  Fermi-Dirac smearing, width (Ry)=  0.0073
                       cart. coord. in units 2pi/alat
        k(    1) = (   0.0000000   0.0000000   0.0000000), wk =   0.1250000
        k(    2) = (   0.0000000   0.0419351   0.0000000), wk =   0.2500000
        k(    3) = (   0.0000000  -0.0838702   0.0000000), wk =   0.1250000
        k(    4) = (   0.0379955   0.0000049   0.0000000), wk =   0.2500000
        k(    5) = (   0.0379955   0.0419400   0.0000000), wk =   0.2500000
        k(    6) = (   0.0379955  -0.0838652   0.0000000), wk =   0.2500000
        k(    7) = (   0.0379955  -0.0419301   0.0000000), wk =   0.2500000
        k(    8) = (  -0.0759910  -0.0000099   0.0000000), wk =   0.1250000
        k(    9) = (  -0.0759910   0.0419252   0.0000000), wk =   0.2500000
        k(   10) = (  -0.0759910  -0.0838800   0.0000000), wk =   0.1250000

     Initial potential from superposition of free atoms

     starting charge  378.99916, renormalised to  395.00000

     negative rho (up, down):  1.649E-02 0.000E+00

     %%%%%%%%%%%%%%%%%%%%%%%%%%%%%%%%%%%%%%%%%%%%%%%%%%%%%%%%%%%%%%%%%%%%%%%%
     %                                                                      %
     % You are using vdW-DF, which was implemented by the Thonhauser group. %
     % Please cite the following two papers that made this development      %
     % possible and the two reviews that describe the various versions:     %
     %                                                                      %
     %   T. Thonhauser et al., PRL 115, 136402 (2015).                      %
     %   T. Thonhauser et al., PRB 76, 125112 (2007).                       %
     %   K. Berland et al., Rep. Prog. Phys. 78, 066501 (2015).             %
     %   D.C. Langreth et al., J. Phys.: Condens. Matter 21, 084203 (2009). %
     %                                                                      %
     %                                                                      %
     % If you are calculating the stress with vdW-DF, please also cite:     %
     %                                                                      %
     %   R. Sabatini et al., J. Phys.: Condens. Matter 24, 424209 (2012).   %
     %                                                                      %
     %%%%%%%%%%%%%%%%%%%%%%%%%%%%%%%%%%%%%%%%%%%%%%%%%%%%%%%%%%%%%%%%%%%%%%%%

     Adding external electric field

     Computed dipole along edir(3) :
        Dipole               -8.3970 Ry au,        -21.3430 Debye
        Dipole field         -0.0158 Ry au,

        Potential amp.        1.4689 Ry
        Total length         46.3494 bohr

     Starting wfcs are  299 atomic wfcs
  @ DRIVER MODE: Message from server: STATUS
  @ DRIVER MODE: Message from server: POSDATA
  @ DRIVER MODE: Reading and sharing cell
  @ DRIVER MODE: Reading and sharing positions
  @ DRIVER MODE: Received positions

     Self-consistent Calculation

     iteration #  1     ecut=    29.40 Ry     beta= 0.05
     Davidson diagonalization with overlap
     c_bands:  2 eigenvalues not converged
     c_bands:  1 eigenvalues not converged
     c_bands:  2 eigenvalues not converged
     c_bands:  3 eigenvalues not converged
     c_bands:  3 eigenvalues not converged
     c_bands:  2 eigenvalues not converged
     c_bands:  1 eigenvalues not converged
     ethr =  1.00E-05,  avg # of iterations = 19.3

[...]

     total energy              =   -2613.94736269 Ry
     estimated scf accuracy    <    3601.31297379 Ry

[...]

     iteration #  3     ecut=    29.40 Ry     beta= 0.05
     Davidson diagonalization with overlap
     ethr =  1.00E-02,  avg # of iterations = 14.0

[...]

     iteration # 66     ecut=    29.40 Ry     beta= 0.05
     Davidson diagonalization with overlap
     c_bands:  1 eigenvalues not converged
     ethr =  3.69E-11,  avg # of iterations = 16.2

[...]

     total energy              =   -2939.13537658 Ry
     estimated scf accuracy    <       0.00000010 Ry

     iteration # 68     ecut=    29.40 Ry     beta= 0.05
     Davidson diagonalization with overlap
     ethr =  2.61E-11,  avg # of iterations = 12.9

     negative rho (up, down):  1.681E-02 0.000E+00

     Adding external electric field

     Computed dipole along edir(3) :
        Dipole                0.7869 Ry au,          2.0002 Debye
        Dipole field          0.0015 Ry au,

        Potential amp.       -0.1377 Ry
        Total length         46.3494 bohr

     End of self-consistent calculation

          k = 0.0000 0.0000 0.0000 ( 18029 PWs)   bands (ev):

   -55.8527 -55.8516 -55.8187 -55.8156 -55.7460 -55.7029 -55.6651 -55.6633
   -55.6301 -55.6293 -55.6247 -55.5910 -55.1900 -55.1441 -54.8285 -54.7945
   -32.4057 -32.3356 -32.2417 -32.1632 -32.1494 -32.1449 -32.1310 -32.1165
   -32.0958 -32.0827 -32.0297 -32.0118 -32.0052 -32.0034 -31.9933 -31.9898
   -31.9575 -31.9456 -31.9397 -31.9371 -31.9101 -31.9076 -31.8919 -31.8898
   -31.8589 -31.8546 -31.8525 -31.8513 -31.8263 -31.8111 -31.8036 -31.7933
   -31.7813 -31.7792 -31.7715 -31.7381 -31.7315 -31.4544 -31.4171 -31.3898
   -31.3373 -31.3022 -31.2354 -31.1476 -31.1252 -31.0523 -30.9658 -30.8546
   -17.9120 -16.6121 -16.3319 -16.0764 -16.0013 -15.9976 -15.8639 -15.7010
   -15.5883 -15.5214 -15.4412 -15.4113 -15.3893 -15.3538 -15.3475 -15.3098
   -15.3008 -15.2750 -15.2719 -15.2095 -15.2060 -15.1987 -15.1889 -15.1048
   -15.0472 -14.9957 -14.9879 -14.9145 -14.8803 -14.3522 -13.3303 -13.2139
   -12.1613  -7.8724  -5.3685  -4.5308  -3.9889  -3.8296  -3.7598  -3.7253
    -3.6481  -3.4890  -3.4102  -3.1283  -3.0797  -3.0239  -3.0145  -2.9780
    -2.9337  -2.7817  -2.7041  -2.6772  -2.6615  -2.6392  -2.6242  -2.6120
    -2.5963  -2.5768  -2.4950  -2.4144  -2.3703  -2.2937  -2.2802  -2.2447
    -2.1650  -2.1647  -2.1244  -2.1043  -2.0860  -2.0698  -2.0611  -2.0459
    -1.9059  -1.8470  -1.8347  -1.6536  -1.6356  -1.5885  -1.4613  -1.4551
    -1.3389  -1.3235  -1.2833  -1.2456  -1.1727  -1.1512  -1.0396  -0.9983
    -0.9364  -0.8896  -0.8741  -0.7988  -0.7340  -0.6951  -0.6821  -0.6174
    -0.6106  -0.5976  -0.4628  -0.3864  -0.3330  -0.2770  -0.2546  -0.1988
    -0.1592  -0.1160  -0.0287  -0.0015   0.0103   0.0682   0.0901   0.1156
     0.1273   0.1469   0.1759   0.2315   0.3496   0.3812   0.4572   0.4715
     0.5319   0.6664   0.8044   0.8717   0.9241   1.0182   1.1249   1.1944
     1.2676   1.3868   1.7646   1.8100   2.1388   3.2670   3.3690   3.4018
     3.4128   3.5159   3.6648   3.7262   3.7413   3.7827   3.8165

[...]

          k = 0.0380-0.0419 0.0000 ( 17876 PWs)   bands (ev):

[...]

          k =-0.0760-0.0000 0.0000 ( 17886 PWs)   bands (ev):

[...]

          k =-0.0760-0.0839 0.0000 ( 17948 PWs)   bands (ev):

   -55.8360 -55.8353 -55.8340 -55.8329 -55.7374 -55.7115 -55.6484 -55.6466
   -55.6465 -55.6456 -55.6086 -55.6073 -55.1821 -55.1518 -54.8116 -54.8112
   -32.2079 -32.2063 -32.1512 -32.1506 -32.1306 -32.1300 -32.0964 -32.0935
   -32.0844 -32.0678 -32.0020 -31.9994 -31.9939 -31.9921 -31.9700 -31.9624
   -31.9557 -31.9550 -31.9499 -31.9487 -31.9468 -31.9351 -31.9293 -31.9227
   -31.9106 -31.9056 -31.8607 -31.8503 -31.8485 -31.8477 -31.8395 -31.8387
   -31.8254 -31.8248 -31.8243 -31.8230 -31.6840 -31.4497 -31.4159 -31.4114
   -31.3934 -31.3383 -31.1381 -31.1377 -31.0483 -31.0480 -31.0092 -31.0090
   -17.8985 -16.0272 -16.0245 -15.8168 -15.7778 -15.7586 -15.7528 -15.6631
   -15.5774 -15.5437 -15.5408 -15.4536 -15.4276 -15.4116 -15.3954 -15.3900
   -15.3811 -15.3514 -15.3164 -15.3089 -15.2948 -15.2891 -15.2770 -15.2203
   -15.1690 -15.1648 -15.1423 -15.0703 -14.8314 -14.6921 -13.3158 -13.3156
   -12.1221  -7.8129  -5.4136  -4.5918  -3.3217  -3.3122  -3.0659  -3.0230
    -3.0193  -2.9940  -2.9508  -2.7899  -2.7774  -2.7578  -2.7503  -2.7055
    -2.6820  -2.6616  -2.6420  -2.6368  -2.6078  -2.5816  -2.5666  -2.5296
    -2.5226  -2.5138  -2.4822  -2.4715  -2.4246  -2.4196  -2.3988  -2.3714
    -2.3619  -2.3273  -2.1787  -2.1075  -2.0792  -1.9945  -1.9876  -1.9475
    -1.9244  -1.9035  -1.8930  -1.8687  -1.8304  -1.6945  -1.6120  -1.5505
    -1.5418  -1.4573  -1.4297  -1.3681  -1.2783  -1.2527  -1.2319  -1.1602
    -1.0844  -1.0464  -0.9950  -0.9820  -0.9143  -0.9057  -0.8480  -0.8112
    -0.8092  -0.7323  -0.7019  -0.6546  -0.6183  -0.6014  -0.5784  -0.5515
    -0.5362  -0.5130  -0.4369  -0.3530  -0.3014  -0.2408  -0.1478  -0.0187
     0.1020   0.2148   0.2367   0.2811   0.3334   0.3675   0.4611   0.4649
     0.5282   0.5516   0.5934   0.6705   0.6819   0.7062   0.8173   0.8469
     1.5589   1.5593   1.6299   1.6301   2.0794   3.5898   3.6187   3.6379
     3.6696   3.7991   3.8051   3.8154   3.8163   3.9511   3.9556

     the Fermi energy is     3.2769 ev

!    total energy              =   -2939.13539931 Ry
     estimated scf accuracy    <       0.00000005 Ry
     smearing contrib. (-TS)   =      -0.02099099 Ry
     internal energy E=F+TS    =   -2939.11440832 Ry

     The total energy is F=E-TS. E is the sum of the following terms:
     one-electron contribution =  -24492.33803974 Ry
     hartree contribution      =   12334.12584241 Ry
     xc contribution           =    -485.37009549 Ry
     ewald contribution        =    9704.46671584 Ry
     electric field correction =       0.00116866 Ry

     convergence has been achieved in  68 iterations

     Forces acting on atoms (cartesian axes, Ry/au):

     atom    1 type  1   force =     0.00007896   -0.00023635    0.09632642
     atom    2 type  1   force =     0.00005423   -0.00056576   -0.17515173
     atom    3 type  2   force =     0.00015151   -0.00013196   -0.02409401
     atom    4 type  2   force =    -0.00000432   -0.00125206    0.05221420
     atom    5 type  2   force =    -0.01055458   -0.00047756    0.00250225
     atom    6 type  2   force =     0.01237216    0.00022278    0.00287613
     atom    7 type  1   force =     0.00098285    0.00026967   -0.01174105
     atom    8 type  1   force =    -0.00013762    0.00775405    0.02263148
     atom    9 type  2   force =    -0.00019743   -0.00015511   -0.00029076
     atom   10 type  2   force =    -0.00262140    0.00115279   -0.01268765
     atom   11 type  2   force =     0.00006210   -0.00012188    0.00005242
     atom   12 type  2   force =     0.00009276    0.00018523   -0.00038885
     atom   13 type  1   force =     0.00044390   -0.00034584    0.00023965
     atom   14 type  1   force =     0.00015572    0.00032402   -0.00012480
     atom   15 type  2   force =    -0.00022495    0.00015251    0.00002228
     atom   16 type  2   force =     0.00011093   -0.00021493    0.00034716
     atom   17 type  2   force =     0.00048359   -0.00001383    0.00036710
     atom   18 type  2   force =     0.00063980   -0.00014501    0.00029612
     atom   19 type  1   force =    -0.00116642   -0.00002012    0.00022323
     atom   20 type  1   force =     0.00026896   -0.00047218   -0.00046236
     atom   21 type  2   force =     0.00004952    0.00000178    0.10312065
     atom   22 type  2   force =     0.00012935   -0.00028229   -0.00006552
     atom   23 type  2   force =    -0.07163628   -0.00014230   -0.02766268
     atom   24 type  2   force =     0.07157659    0.00035641   -0.02772737
     atom   25 type  1   force =     0.00015539   -0.00023592    0.09587239
     atom   26 type  1   force =     0.00009845   -0.00041116   -0.17542132
     atom   27 type  2   force =     0.00017684   -0.00021537   -0.02293301
     atom   28 type  2   force =     0.00006409   -0.00101052    0.05217233
     atom   29 type  2   force =    -0.01085497    0.00048069    0.00242294
     atom   30 type  2   force =     0.01255050    0.00064223    0.00277047
     atom   31 type  1   force =     0.00086997    0.00348248   -0.01291957
     atom   32 type  1   force =     0.00002817   -0.00925597    0.02306181
     atom   33 type  2   force =    -0.00048244    0.00013642    0.00021027
     atom   34 type  2   force =    -0.00302457    0.00022788   -0.01290481
     atom   35 type  2   force =     0.00008500    0.00008745   -0.00008343
     atom   36 type  2   force =     0.00009945    0.00033276   -0.00039865
     atom   37 type  1   force =     0.00034123    0.00036470    0.00007834
     atom   38 type  1   force =     0.00002938   -0.00043551    0.00017018
     atom   39 type  2   force =     0.00015387    0.00044903    0.00055749
     atom   40 type  2   force =     0.00035467    0.00013163   -0.00038666
     atom   41 type  2   force =     0.00042586    0.00002773    0.00029647
     atom   42 type  2   force =     0.00093274    0.00002176    0.00051510
     atom   43 type  1   force =    -0.00155969   -0.00036778   -0.00030891
     atom   44 type  1   force =     0.00068270   -0.00024232   -0.00076008
     atom   45 type  2   force =     0.00005956   -0.00003662    0.10310078
     atom   46 type  2   force =    -0.07165884   -0.00008137   -0.02768087
     atom   47 type  2   force =     0.07159789    0.00031656   -0.02774643
     atom   48 type  3   force =    -0.00100812   -0.00102522    0.00038692
     atom   49 type  4   force =     0.00050569    0.00030569    0.00077337
     atom   50 type  5   force =    -0.00200647    0.00023256   -0.00085039
     atom   51 type  5   force =     0.00037294   -0.00071219   -0.00003609
     atom   52 type  3   force =    -0.00001826    0.00097267   -0.00151557
     atom   53 type  5   force =    -0.00008093   -0.00002437    0.00073462

     Total force =     0.365753     Total SCF correction =     0.000665
  @ DRIVER MODE: Message from server: STATUS
  @ DRIVER MODE: Message from server: GETFORCE
  @ DRIVER MODE: Returning v,forces,stress,ensemble

     Writing output data file ./calc.save/
  @ DRIVER MODE: Message from server: EXIT
  @ DRIVE MODE: Exiting

     General routines

     Parallel routines

   This run was terminated on:   2:18:55   9Sep2021

   JOB DONE.