     Program PWSCF v.6.7GPU starts on 23Sep2021 at  1: 6:20

     R & G space division:  proc/nbgrp/npool/nimage =      10
     Reading input from /storage/home/hcoda1/3/ntian30/research/carbon/CxH_vib/H2O_calc/ads_slab/CH3OHO_a/out_0028/pw.inp
Warning: card &CELL ignored
Warning: card   CELL_DYNAMICS='IPI', ignored
Warning: card / ignored

     Current dimensions of program PWSCF are:
     Max number of different atomic species (ntypx) = 10
     Max number of k-points (npk) =  40000
     Max angular momentum in pseudopotentials (lmaxx) =  3
     Presently no symmetry can be used with electric field

     Message from routine cell_base_init:
     DEPRECATED: use true lattice parameter, not A to a.u. conversion factor

     IMPORTANT: XC functional enforced from input :
     Exchange-correlation= BEEF-VDW
                           (   1   4  43  14   2   0   0)
     Any further DFT definition will be discarded
     Please, verify this is what you really want

  @ DRIVER MODE: Connecting to
 qe_1139763_2937320.sched-torque.pace.gatech.eduyguopaqp_scratch
  using UNIX socket
  @ DRIVER MODE: Message from server: STATUS
  @ DRIVER MODE: Message from server: INIT
  @ DRIVER MODE: Receiving replica           0          -1
  @ DRIVER MODE: Receiving encoded integer          25
  @ DRIVER MODE:  SCF:  T  FORCE:  T  STRESS:  F  VC:  F  ENSEMBLE:  F
  @ DRIVER MODE:  SCF:  T  FORCE:  T  STRESS:  F  VC:  F  ENSEMBLE:  F

     Using Slab Decomposition

     bravais-lattice index     =            0
     lattice parameter (alat)  =       1.8897  a.u.
     unit-cell volume          =    6658.9804 (a.u.)^3
     number of atoms/cell      =           54
     number of atomic types    =            4
     number of electrons       =       398.00
     number of Kohn-Sham states=          209
     kinetic-energy cutoff     =      29.3995  Ry
     charge density cutoff     =     293.9946  Ry
     scf convergence threshold =      7.3E-08
     mixing beta               =       0.0500
     number of iterations used =            8  plain     mixing
     Exchange-correlation= BEEF-VDW
                           (   1   4  43  14   2   0   0)

     celldm(1)=   1.889726  celldm(2)=   0.000000  celldm(3)=   0.000000
     celldm(4)=   0.000000  celldm(5)=   0.000000  celldm(6)=   0.000000

     crystal axes: (cart. coord. in units of alat)
               a(1) = (   6.579727   0.000000   0.000000 )
               a(2) = (  -0.000775   5.961596   0.000000 )
               a(3) = (   0.000000   0.000000  25.155947 )

     reciprocal axes: (cart. coord. in units 2 pi/alat)
               b(1) = (  0.151982  0.000020  0.000000 )
               b(2) = (  0.000000  0.167740  0.000000 )
               b(3) = (  0.000000  0.000000  0.039752 )

     PseudoPot. # 1 for Ti read from file:
     /storage/coda1/p-amedford6/0/shared/rich_project_chbe-medford/medford-share/data/pseudos_module/espresso/nninc/pbe/van/Ti.UPF
     MD5 check sum: 8e4df49b7f0d34bbd5052bf3f5ea0213
     Pseudo is Ultrasoft, Zval = 12.0
     Generated by new atomic code, or converted to UPF format
     Using radial grid of  851 points,  6 beta functions with:
                l(1) =   0
                l(2) =   0
                l(3) =   1
                l(4) =   1
                l(5) =   2
                l(6) =   2
     Q(r) pseudized with  8 coefficients,  rinner =    1.000   1.000   1.000
                                                       1.000   1.000

     PseudoPot. # 2 for O  read from file:
     /storage/coda1/p-amedford6/0/shared/rich_project_chbe-medford/medford-share/data/pseudos_module/espresso/nninc/pbe/van/O.UPF
     MD5 check sum: 78c19812648e8988a0fe644b0f25305e
     Pseudo is Ultrasoft, Zval =  6.0
     Generated by new atomic code, or converted to UPF format
     Using radial grid of  737 points,  4 beta functions with:
                l(1) =   0
                l(2) =   0
                l(3) =   1
                l(4) =   1
     Q(r) pseudized with  8 coefficients,  rinner =    0.800   0.800   0.800

     PseudoPot. # 3 for C  read from file:
     /storage/coda1/p-amedford6/0/shared/rich_project_chbe-medford/medford-share/data/pseudos_module/espresso/nninc/pbe/van/C.UPF
     MD5 check sum: 1a69bf6b8db32088f5b2163dbdb77a27
     Pseudo is Ultrasoft, Zval =  4.0
     Generated by new atomic code, or converted to UPF format
     Using radial grid of  721 points,  4 beta functions with:
                l(1) =   0
                l(2) =   0
                l(3) =   1
                l(4) =   1
     Q(r) pseudized with  8 coefficients,  rinner =    0.800   0.800   0.800

     PseudoPot. # 4 for H  read from file:
     /storage/coda1/p-amedford6/0/shared/rich_project_chbe-medford/medford-share/data/pseudos_module/espresso/nninc/pbe/van/H.UPF
     MD5 check sum: b5ee9d7bfd3a09ee7748110bda690ff7
     Pseudo is Ultrasoft, Zval =  1.0
     Generated by new atomic code, or converted to UPF format
     Using radial grid of  615 points,  1 beta functions with:
                l(1) =   0
     Q(r) pseudized with  8 coefficients,  rinner =    0.800

     atomic species   valence    mass     pseudopotential
        Ti1           12.00    47.86700     Ti( 1.00)
        O1             6.00    15.99900     O ( 1.00)
        C1             4.00    12.01100     C ( 1.00)
        H1             1.00     1.00800     H ( 1.00)

     No symmetry found

   Cartesian axes

     site n.     atom                  positions (alat units)
         1           Ti1 tau(   1) = (   0.0004258   2.9801865   6.0000000  )
         2           Ti1 tau(   2) = (   3.2906075   1.4906267   6.0002472  )
         3           O1  tau(   3) = (   0.0006271   0.0005054   7.9858123  )
         4           O1  tau(   4) = (   3.2906025   0.0005020   7.3038282  )
         5           O1  tau(   5) = (   4.5942328   1.4918067   9.2879030  )
         6           O1  tau(   6) = (   1.9868534   1.4903216   9.2879459  )
         7           Ti1 tau(   7) = (   3.2957662   3.1068914   9.2181075  )
         8           Ti1 tau(   8) = (   0.0157633   1.6119101   9.3474628  )
         9           O1  tau(   9) = (   3.3075722   0.0245345  11.3221904  )
        10           O1  tau(  10) = (   0.0080709   0.0223756  10.5933645  )
        11           O1  tau(  11) = (   1.2996580   1.5014007  12.6293879  )
        12           O1  tau(  12) = (   5.3220639   1.4985920  12.6296061  )
        13           Ti1 tau(  13) = (   0.0338638   3.0995910  12.8036746  )
        14           Ti1 tau(  14) = (   3.3037623   1.5692239  12.4279754  )
        15           O1  tau(  15) = (   0.0261714   0.0103614  14.6808343  )
        16           O1  tau(  16) = (   3.3158872   5.9294016  13.9235834  )
        17           O1  tau(  17) = (   4.5845781   1.5190771  16.0542726  )
        18           O1  tau(  18) = (   2.0543804   1.5366111  16.0227792  )
        19           Ti1 tau(  19) = (   3.3281905   2.9581697  15.6655982  )
        20           Ti1 tau(  20) = (   0.0947853   1.4300879  15.9722461  )
        21           O1  tau(  21) = (   3.2904802   0.0005063   4.7018136  )
        22           O1  tau(  22) = (   0.0746355   0.0166105  17.2029963  )
        23           O1  tau(  23) = (   1.3043587   1.4918075   6.0039043  )
        24           O1  tau(  24) = (   5.2767064   1.4903225   6.0039473  )
        25           Ti1 tau(  25) = (   0.0000382   5.9609847   6.0000000  )
        26           Ti1 tau(  26) = (   3.2902200   4.4714249   6.0002472  )
        27           O1  tau(  27) = (   0.0002396   2.9813036   7.9858123  )
        28           O1  tau(  28) = (   3.2902150   2.9813002   7.3038282  )
        29           O1  tau(  29) = (   4.5938453   4.4726049   9.2879030  )
        30           O1  tau(  30) = (   1.9864658   4.4711199   9.2879459  )
        31           Ti1 tau(  31) = (   3.3049890   0.1224192   9.1815931  )
        32           Ti1 tau(  32) = (   0.0115838   4.5621182   9.3618056  )
        33           O1  tau(  33) = (   3.3056077   2.9569042  11.2892548  )
        34           O1  tau(  34) = (   0.0073068   3.0072357  10.5542745  )
        35           O1  tau(  35) = (   1.3032543   4.4799722  12.6367586  )
        36           O1  tau(  36) = (   5.3275811   4.4862388  12.6364370  )
        37           Ti1 tau(  37) = (   0.0060541   0.1153383  12.6179110  )
        38           Ti1 tau(  38) = (   3.3135592   4.6638430  12.6816895  )
        39           O1  tau(  39) = (   0.0323206   2.9919573  14.6814448  )
        40           O1  tau(  40) = (   3.3290587   2.9835885  13.8850256  )
        41           O1  tau(  41) = (   4.5809508   4.4372854  16.0867525  )
        42           O1  tau(  42) = (   2.0525355   4.4234120  16.0327814  )
        43           Ti1 tau(  43) = (   3.4083040   5.9395600  16.2643712  )
        44           Ti1 tau(  44) = (   0.1061243   4.5568233  16.0547075  )
        45           O1  tau(  45) = (   3.2900926   2.9813045   4.7018136  )
        46           O1  tau(  46) = (   1.3039711   4.4726057   6.0039043  )
        47           O1  tau(  47) = (   5.2763189   4.4711207   6.0039473  )
        48           C1  tau(  48) = (   6.0247352   2.9430639  18.6208924  )
        49           O1  tau(  49) = (   0.0129984   2.9830681  17.3098104  )
        50           H1  tau(  50) = (   4.9427965   2.8012130  18.5644550  )
        51           H1  tau(  51) = (   6.4567215   2.1053551  19.1708771  )
        52           H1  tau(  52) = (   6.2362830   3.8910018  19.1352789  )
        53           O1  tau(  53) = (   3.2195589   0.0134334  18.0862892  )
        54           H1  tau(  54) = (   2.3313237   0.1261415  18.4590370  )

     number of k points=    10  Fermi-Dirac smearing, width (Ry)=  0.0073
                       cart. coord. in units 2pi/alat
        k(    1) = (   0.0000000   0.0000000   0.0000000), wk =   0.1250000
        k(    2) = (   0.0000000   0.0419351   0.0000000), wk =   0.2500000
        k(    3) = (   0.0000000  -0.0838702   0.0000000), wk =   0.1250000
        k(    4) = (   0.0379955   0.0000049   0.0000000), wk =   0.2500000
        k(    5) = (   0.0379955   0.0419400   0.0000000), wk =   0.2500000
        k(    6) = (   0.0379955  -0.0838652   0.0000000), wk =   0.2500000
        k(    7) = (   0.0379955  -0.0419301   0.0000000), wk =   0.2500000
        k(    8) = (  -0.0759910  -0.0000099   0.0000000), wk =   0.1250000
        k(    9) = (  -0.0759910   0.0419252   0.0000000), wk =   0.2500000
        k(   10) = (  -0.0759910  -0.0838800   0.0000000), wk =   0.1250000

     Initial potential from superposition of free atoms

     starting charge  381.99917, renormalised to  398.00000

     negative rho (up, down):  1.724E-02 0.000E+00

     %%%%%%%%%%%%%%%%%%%%%%%%%%%%%%%%%%%%%%%%%%%%%%%%%%%%%%%%%%%%%%%%%%%%%%%%
     %                                                                      %
     % You are using vdW-DF, which was implemented by the Thonhauser group. %
     % Please cite the following two papers that made this development      %
     % possible and the two reviews that describe the various versions:     %
     %                                                                      %
     %   T. Thonhauser et al., PRL 115, 136402 (2015).                      %
     %   T. Thonhauser et al., PRB 76, 125112 (2007).                       %
     %   K. Berland et al., Rep. Prog. Phys. 78, 066501 (2015).             %
     %   D.C. Langreth et al., J. Phys.: Condens. Matter 21, 084203 (2009). %
     %                                                                      %
     %                                                                      %
     % If you are calculating the stress with vdW-DF, please also cite:     %
     %                                                                      %
     %   R. Sabatini et al., J. Phys.: Condens. Matter 24, 424209 (2012).   %
     %                                                                      %
     %%%%%%%%%%%%%%%%%%%%%%%%%%%%%%%%%%%%%%%%%%%%%%%%%%%%%%%%%%%%%%%%%%%%%%%%

     Adding external electric field

     Computed dipole along edir(3) :
        Dipole               -8.3452 Ry au,        -21.2113 Debye
        Dipole field         -0.0157 Ry au,

        Potential amp.        1.4599 Ry
        Total length         46.3494 bohr

     Starting wfcs are  300 atomic wfcs
  @ DRIVER MODE: Message from server: STATUS
  @ DRIVER MODE: Message from server: POSDATA
  @ DRIVER MODE: Reading and sharing cell
  @ DRIVER MODE: Reading and sharing positions
  @ DRIVER MODE: Received positions

     Self-consistent Calculation

     iteration #  1     ecut=    29.40 Ry     beta= 0.05
     Davidson diagonalization with overlap
     c_bands:  1 eigenvalues not converged
     c_bands:  1 eigenvalues not converged
     c_bands:  1 eigenvalues not converged
     c_bands:  1 eigenvalues not converged
     c_bands:  1 eigenvalues not converged
     ethr =  1.00E-05,  avg # of iterations = 18.4

[...]

     total energy              =   -2612.31813324 Ry
     estimated scf accuracy    <    3898.22217751 Ry

     iteration #  2     ecut=    29.40 Ry     beta= 0.05
     Davidson diagonalization with overlap
     ethr =  1.00E-02,  avg # of iterations = 22.6

[...]

     iteration # 47     ecut=    29.40 Ry     beta= 0.05
     Davidson diagonalization with overlap
     c_bands:  3 eigenvalues not converged
     c_bands:  2 eigenvalues not converged
     c_bands:  2 eigenvalues not converged
     c_bands:  1 eigenvalues not converged
     c_bands:  3 eigenvalues not converged
     ethr =  2.75E-07,  avg # of iterations = 16.4

[...]

     total energy              =   -2965.10857479 Ry
     estimated scf accuracy    <       0.00000028 Ry

     iteration # 68     ecut=    29.40 Ry     beta= 0.05
     Davidson diagonalization with overlap
     ethr =  6.78E-11,  avg # of iterations =  5.1

     negative rho (up, down):  1.731E-02 0.000E+00

     Adding external electric field

     Computed dipole along edir(3) :
        Dipole                0.5342 Ry au,          1.3578 Debye
        Dipole field          0.0010 Ry au,

        Potential amp.       -0.0934 Ry
        Total length         46.3494 bohr

     End of self-consistent calculation

          k = 0.0000 0.0000 0.0000 ( 18029 PWs)   bands (ev):

   -56.4425 -56.3957 -55.8705 -55.8392 -55.8293 -55.8172 -55.7743 -55.7364
   -55.7119 -55.6989 -55.6596 -55.6174 -55.6139 -55.4673 -55.0455 -55.0116
   -32.8549 -32.7075 -32.6580 -32.6220 -32.5275 -32.4814 -32.3628 -32.3158
   -32.3096 -32.1950 -32.1572 -32.1346 -32.1325 -32.1119 -32.1066 -32.0700
   -32.0668 -32.0524 -32.0347 -32.0295 -32.0175 -31.9802 -31.9692 -31.9518
   -31.9438 -31.9315 -31.9289 -31.9189 -31.9165 -31.9053 -31.9006 -31.8885
   -31.8632 -31.8620 -31.8566 -31.8228 -31.8117 -31.8105 -31.7814 -31.7230
   -31.6925 -31.6736 -31.4396 -31.3866 -31.3622 -31.2564 -31.1715 -31.0609
   -17.6033 -16.6295 -16.5872 -16.4422 -16.2043 -16.0579 -15.9765 -15.7569
   -15.7543 -15.6350 -15.6242 -15.5890 -15.4511 -15.4388 -15.4316 -15.3768
   -15.3606 -15.3498 -15.3436 -15.3369 -15.3235 -15.2753 -15.2624 -15.2103
   -15.1519 -15.0854 -15.0561 -15.0124 -14.9937 -14.9573 -14.7270 -13.5477
   -13.4394  -9.3316  -4.3294  -4.2471  -4.1223  -4.0265  -3.8819  -3.7801
    -3.7480  -3.6636  -3.5783  -3.4689  -3.2701  -3.1079  -3.0514  -3.0148
    -2.9817  -2.9280  -2.8734  -2.8147  -2.7693  -2.7406  -2.7116  -2.6440
    -2.6284  -2.6170  -2.5889  -2.5808  -2.5448  -2.5118  -2.5013  -2.3693
    -2.3398  -2.3027  -2.2969  -2.2379  -2.2186  -2.1941  -2.1877  -2.1366
    -2.0436  -1.9630  -1.9272  -1.8882  -1.6977  -1.6430  -1.5725  -1.5069
    -1.4288  -1.3818  -1.3619  -1.3395  -1.2687  -1.2406  -1.1294  -1.1070
    -1.0609  -0.9979  -0.9942  -0.9548  -0.8961  -0.8690  -0.8069  -0.7743
    -0.7482  -0.6051  -0.5794  -0.5512  -0.5092  -0.5009  -0.4020  -0.3376
    -0.2895  -0.2697  -0.2222  -0.1877  -0.1496  -0.1021  -0.0847  -0.0579
     0.0308   0.0567   0.0812   0.1252   0.1609   0.1836   0.2036   0.2960
     0.3437   0.3618   0.3783   0.5339   0.5722   0.5889   0.7179   0.7297
     0.9019   0.9711   1.0087   1.1876   1.2343   1.5208   1.5630   2.8592
     3.0175   3.2887   3.4354   3.5039   3.5430   3.5966   3.6138   3.7553
     3.7943

[...]

          k = 0.0380-0.0419 0.0000 ( 17876 PWs)   bands (ev):

[...]

          k =-0.0760-0.0000 0.0000 ( 17886 PWs)   bands (ev):

[...]

          k =-0.0760-0.0839 0.0000 ( 17948 PWs)   bands (ev):

   -56.4354 -56.4027 -55.8686 -55.8336 -55.8283 -55.8132 -55.7793 -55.7402
   -55.7136 -55.7003 -55.6511 -55.6258 -55.6120 -55.4691 -55.0287 -55.0283
   -32.7029 -32.6857 -32.6621 -32.6580 -32.5872 -32.5594 -32.2507 -32.1863
   -32.1596 -32.1284 -32.1052 -32.1016 -32.0909 -32.0763 -32.0690 -32.0546
   -32.0500 -32.0419 -32.0367 -32.0291 -32.0284 -32.0207 -31.9988 -31.9983
   -31.9950 -31.9805 -31.9685 -31.9543 -31.9452 -31.9393 -31.9186 -31.9051
   -31.9023 -31.8888 -31.8754 -31.8610 -31.8604 -31.8266 -31.8161 -31.7966
   -31.7253 -31.6772 -31.3753 -31.3751 -31.2552 -31.2535 -31.2138 -31.2129
   -17.5655 -16.6015 -15.9845 -15.9047 -15.9005 -15.8891 -15.8625 -15.8206
   -15.7431 -15.7364 -15.6654 -15.5986 -15.5651 -15.5203 -15.4978 -15.4860
   -15.4487 -15.4441 -15.3866 -15.3429 -15.3266 -15.3152 -15.2954 -15.2523
   -15.2463 -15.2434 -15.2200 -15.2053 -15.1540 -15.0540 -14.8676 -13.5438
   -13.5425  -9.3317  -4.2585  -4.1700  -3.9616  -3.7350  -3.2167  -3.1403
    -3.0660  -3.0581  -2.9834  -2.9237  -2.9091  -2.8643  -2.8573  -2.8255
    -2.7538  -2.7432  -2.7304  -2.7200  -2.7125  -2.7039  -2.6812  -2.6360
    -2.6227  -2.6155  -2.5996  -2.5911  -2.5795  -2.5756  -2.5488  -2.5100
    -2.4399  -2.3797  -2.2558  -2.2482  -2.2133  -2.1971  -2.1561  -2.1439
    -2.0901  -1.9980  -1.9857  -1.9830  -1.8942  -1.8379  -1.6249  -1.6097
    -1.5925  -1.5259  -1.4539  -1.3869  -1.3633  -1.3405  -1.3079  -1.2849
    -1.2364  -1.1867  -1.1518  -1.1156  -1.0993  -1.0608  -1.0084  -0.9556
    -0.9072  -0.9035  -0.8604  -0.8130  -0.7816  -0.7020  -0.6959  -0.6729
    -0.6495  -0.6093  -0.5249  -0.4731  -0.4301  -0.3358  -0.2943  -0.2608
    -0.1209  -0.0615  -0.0244   0.0510   0.0946   0.1953   0.2196   0.2964
     0.3094   0.3381   0.3625   0.4376   0.5049   0.5611   0.6031   0.6469
     0.6582   0.7078   0.7706   1.3650   1.3654   1.3727   1.3806   3.4046
     3.4294   3.4372   3.4670   3.6933   3.7108   3.7848   3.8139   3.8307
     3.8856

     the Fermi energy is     2.2690 ev

!    total energy              =   -2965.10860261 Ry
     estimated scf accuracy    <       0.00000005 Ry
     smearing contrib. (-TS)   =      -0.00015948 Ry
     internal energy E=F+TS    =   -2965.10844313 Ry

     The total energy is F=E-TS. E is the sum of the following terms:
     one-electron contribution =  -24222.91812495 Ry
     hartree contribution      =   12200.75410803 Ry
     xc contribution           =    -490.02258312 Ry
     ewald contribution        =    9547.07761841 Ry
     electric field correction =       0.00053850 Ry

     convergence has been achieved in  68 iterations

     Forces acting on atoms (cartesian axes, Ry/au):

     atom    1 type  1   force =    -0.00002042    0.00003084    0.13240334
     atom    2 type  1   force =    -0.00019686    0.00778774   -0.15737220
     atom    3 type  2   force =     0.00008464   -0.00480658   -0.05217602
     atom    4 type  2   force =     0.00035838    0.00109407    0.04043163
     atom    5 type  2   force =    -0.00611103   -0.00278698   -0.00018560
     atom    6 type  2   force =     0.00839846   -0.00338631    0.00079333
     atom    7 type  1   force =    -0.00002841   -0.00014990   -0.00004363
     atom    8 type  1   force =     0.00020891   -0.00057432    0.00038425
     atom    9 type  2   force =    -0.00004523    0.00021389   -0.00004229
     atom   10 type  2   force =    -0.00014477   -0.00037939   -0.00016073
     atom   11 type  2   force =     0.00042967    0.00026332   -0.00017573
     atom   12 type  2   force =    -0.00026308    0.00016019   -0.00003916
     atom   13 type  1   force =    -0.00069101    0.00049243   -0.00031364
     atom   14 type  1   force =     0.00007590   -0.00033139   -0.00023663
     atom   15 type  2   force =    -0.00021220    0.00002161   -0.00076371
     atom   16 type  2   force =    -0.00033273    0.00011273    0.00003893
     atom   17 type  2   force =     0.00009706   -0.00000179    0.00002493
     atom   18 type  2   force =    -0.00065866    0.00017370   -0.00015851
     atom   19 type  1   force =     0.00004106   -0.00041785   -0.00013438
     atom   20 type  1   force =    -0.00003431   -0.00019573    0.00015668
     atom   21 type  2   force =    -0.00002397    0.00002150    0.09911818
     atom   22 type  2   force =     0.00001196    0.00011528    0.00019319
     atom   23 type  2   force =    -0.08090355    0.00049302   -0.03408371
     atom   24 type  2   force =     0.08070384    0.00095800   -0.03414678
     atom   25 type  1   force =    -0.00001884   -0.00027326    0.14102132
     atom   26 type  1   force =    -0.00013474   -0.00647169   -0.15702565
     atom   27 type  2   force =     0.00016223    0.00109340   -0.05217742
     atom   28 type  2   force =     0.00018824    0.00033588    0.04176536
     atom   29 type  2   force =    -0.00752570    0.00512243    0.00202526
     atom   30 type  2   force =     0.00859614    0.00382970    0.00272802
     atom   31 type  1   force =    -0.00002583    0.00016893   -0.00001327
     atom   32 type  1   force =     0.00030587   -0.00006117   -0.00053259
     atom   33 type  2   force =    -0.00005908    0.00039670    0.00021442
     atom   34 type  2   force =    -0.00011964    0.00019545    0.00038927
     atom   35 type  2   force =    -0.00051326   -0.00034616   -0.00006017
     atom   36 type  2   force =     0.00049695   -0.00043757    0.00017155
     atom   37 type  1   force =    -0.00056214   -0.00030631   -0.00011886
     atom   38 type  1   force =     0.00001863   -0.00000695   -0.00046180
     atom   39 type  2   force =    -0.00001196   -0.00014002   -0.00022616
     atom   40 type  2   force =    -0.00013966   -0.00015014   -0.00034916
     atom   41 type  2   force =    -0.00005833    0.00013909   -0.00039648
     atom   42 type  2   force =    -0.00006021    0.00033763   -0.00018101
     atom   43 type  1   force =    -0.00020425    0.00034967   -0.00008507
     atom   44 type  1   force =    -0.00001957   -0.00044996    0.00020334
     atom   45 type  2   force =    -0.00002975    0.00012386    0.09867855
     atom   46 type  2   force =    -0.08086399   -0.00164653   -0.03408203
     atom   47 type  2   force =     0.08067084   -0.00117495   -0.03414713
     atom   48 type  3   force =     0.00159563    0.00929092    0.00343163
     atom   49 type  2   force =    -0.00000904    0.00002765   -0.00072225
     atom   50 type  4   force =    -0.00041849    0.00029075   -0.00003002
     atom   51 type  4   force =     0.00035896    0.00062293    0.00053327
     atom   52 type  4   force =    -0.00193835   -0.00908123   -0.00367774
     atom   53 type  2   force =     0.00035429   -0.00027075   -0.00128005
     atom   54 type  4   force =    -0.00077860   -0.00041636    0.00089312

     Total force =     0.382941     Total SCF correction =     0.000410
  @ DRIVER MODE: Message from server: STATUS
  @ DRIVER MODE: Message from server: GETFORCE
  @ DRIVER MODE: Returning v,forces,stress,ensemble

     Writing output data file ./calc.save/
  @ DRIVER MODE: Message from server: EXIT
  @ DRIVE MODE: Exiting

     General routines

     Parallel routines

   This run was terminated on:   1:25:33  23Sep2021

   JOB DONE.