     Program PWSCF v.6.7GPU starts on  9Sep2021 at  7:24:27

     R & G space division:  proc/nbgrp/npool/nimage =      10
     Reading input from /storage/home/hcoda1/3/ntian30/research/carbon/CxH_vib/CH3_calc/ads_slab/CH3NH2NH_c/out_0028/pw.inp
Warning: card &CELL ignored
Warning: card   CELL_DYNAMICS='IPI', ignored
Warning: card / ignored

     Current dimensions of program PWSCF are:
     Max number of different atomic species (ntypx) = 10
     Max number of k-points (npk) =  40000
     Max angular momentum in pseudopotentials (lmaxx) =  3
     Presently no symmetry can be used with electric field

     Message from routine cell_base_init:
     DEPRECATED: use true lattice parameter, not A to a.u. conversion factor

     IMPORTANT: XC functional enforced from input :
     Exchange-correlation= BEEF-VDW
                           (   1   4  43  14   2   0   0)
     Any further DFT definition will be discarded
     Please, verify this is what you really want

  @ DRIVER MODE: Connecting to
 qe_1139763_2767400.sched-torque.pace.gatech.eduk8g9amue_scratch
  using UNIX socket
  @ DRIVER MODE: Message from server: STATUS
  @ DRIVER MODE: Message from server: INIT
  @ DRIVER MODE: Receiving replica           0          -1
  @ DRIVER MODE: Receiving encoded integer          25
  @ DRIVER MODE:  SCF:  T  FORCE:  T  STRESS:  F  VC:  F  ENSEMBLE:  F
  @ DRIVER MODE:  SCF:  T  FORCE:  T  STRESS:  F  VC:  F  ENSEMBLE:  F

     Using Slab Decomposition

     bravais-lattice index     =            0
     lattice parameter (alat)  =       1.8897  a.u.
     unit-cell volume          =    6658.9804 (a.u.)^3
     number of atoms/cell      =           56
     number of atomic types    =            5
     number of electrons       =       398.00
     number of Kohn-Sham states=          209
     kinetic-energy cutoff     =      29.3995  Ry
     charge density cutoff     =     293.9946  Ry
     scf convergence threshold =      7.3E-08
     mixing beta               =       0.0500
     number of iterations used =            8  plain     mixing
     Exchange-correlation= BEEF-VDW
                           (   1   4  43  14   2   0   0)

     celldm(1)=   1.889726  celldm(2)=   0.000000  celldm(3)=   0.000000
     celldm(4)=   0.000000  celldm(5)=   0.000000  celldm(6)=   0.000000

     crystal axes: (cart. coord. in units of alat)
               a(1) = (   6.579727   0.000000   0.000000 )
               a(2) = (  -0.000775   5.961596   0.000000 )
               a(3) = (   0.000000   0.000000  25.155947 )

     reciprocal axes: (cart. coord. in units 2 pi/alat)
               b(1) = (  0.151982  0.000020  0.000000 )
               b(2) = (  0.000000  0.167740  0.000000 )
               b(3) = (  0.000000  0.000000  0.039752 )

     PseudoPot. # 1 for Ti read from file:
     /storage/coda1/p-amedford6/0/shared/rich_project_chbe-medford/medford-share/data/pseudos_module/espresso/nninc/pbe/van/Ti.UPF
     MD5 check sum: 8e4df49b7f0d34bbd5052bf3f5ea0213
     Pseudo is Ultrasoft, Zval = 12.0
     Generated by new atomic code, or converted to UPF format
     Using radial grid of  851 points,  6 beta functions with:
                l(1) =   0
                l(2) =   0
                l(3) =   1
                l(4) =   1
                l(5) =   2
                l(6) =   2
     Q(r) pseudized with  8 coefficients,  rinner =    1.000   1.000   1.000
                                                       1.000   1.000

     PseudoPot. # 2 for O  read from file:
     /storage/coda1/p-amedford6/0/shared/rich_project_chbe-medford/medford-share/data/pseudos_module/espresso/nninc/pbe/van/O.UPF
     MD5 check sum: 78c19812648e8988a0fe644b0f25305e
     Pseudo is Ultrasoft, Zval =  6.0
     Generated by new atomic code, or converted to UPF format
     Using radial grid of  737 points,  4 beta functions with:
                l(1) =   0
                l(2) =   0
                l(3) =   1
                l(4) =   1
     Q(r) pseudized with  8 coefficients,  rinner =    0.800   0.800   0.800

     PseudoPot. # 3 for N  read from file:
     /storage/coda1/p-amedford6/0/shared/rich_project_chbe-medford/medford-share/data/pseudos_module/espresso/nninc/pbe/van/N.UPF
     MD5 check sum: 90d10febe142ad51ac9d5be1deb811c4
     Pseudo is Ultrasoft, Zval =  5.0
     Generated by new atomic code, or converted to UPF format
     Using radial grid of  729 points,  4 beta functions with:
                l(1) =   0
                l(2) =   0
                l(3) =   1
                l(4) =   1
     Q(r) pseudized with  8 coefficients,  rinner =    0.800   0.800   0.800

     PseudoPot. # 4 for C  read from file:
     /storage/coda1/p-amedford6/0/shared/rich_project_chbe-medford/medford-share/data/pseudos_module/espresso/nninc/pbe/van/C.UPF
     MD5 check sum: 1a69bf6b8db32088f5b2163dbdb77a27
     Pseudo is Ultrasoft, Zval =  4.0
     Generated by new atomic code, or converted to UPF format
     Using radial grid of  721 points,  4 beta functions with:
                l(1) =   0
                l(2) =   0
                l(3) =   1
                l(4) =   1
     Q(r) pseudized with  8 coefficients,  rinner =    0.800   0.800   0.800

     PseudoPot. # 5 for H  read from file:
     /storage/coda1/p-amedford6/0/shared/rich_project_chbe-medford/medford-share/data/pseudos_module/espresso/nninc/pbe/van/H.UPF
     MD5 check sum: b5ee9d7bfd3a09ee7748110bda690ff7
     Pseudo is Ultrasoft, Zval =  1.0
     Generated by new atomic code, or converted to UPF format
     Using radial grid of  615 points,  1 beta functions with:
                l(1) =   0
     Q(r) pseudized with  8 coefficients,  rinner =    0.800

     atomic species   valence    mass     pseudopotential
        Ti1           12.00    47.86700     Ti( 1.00)
        O1             6.00    15.99900     O ( 1.00)
        N1             5.00    14.00700     N ( 1.00)
        C1             4.00    12.01100     C ( 1.00)
        H1             1.00     1.00800     H ( 1.00)

     No symmetry found

   Cartesian axes

     site n.     atom                  positions (alat units)
         1           Ti1 tau(   1) = (   0.0004258   2.9801865   6.0000000  )
         2           Ti1 tau(   2) = (   3.2906075   1.4906267   6.0002472  )
         3           O1  tau(   3) = (   0.0006271   0.0005054   7.9858123  )
         4           O1  tau(   4) = (   3.2906025   0.0005020   7.3038282  )
         5           O1  tau(   5) = (   4.5942328   1.4918067   9.2879030  )
         6           O1  tau(   6) = (   1.9868534   1.4903216   9.2879459  )
         7           Ti1 tau(   7) = (   3.2907910   2.8959150   9.1758416  )
         8           Ti1 tau(   8) = (   0.0015273   1.4827037   9.2680791  )
         9           O1  tau(   9) = (   3.3032705   0.0110091  11.3485381  )
        10           O1  tau(  10) = (   0.0116148   5.9584955  10.6183126  )
        11           O1  tau(  11) = (   1.3020657   1.4959176  12.6398190  )
        12           O1  tau(  12) = (   5.2896457   1.4919019  12.6612249  )
        13           Ti1 tau(  13) = (   0.0353884   3.0012823  12.5523301  )
        14           Ti1 tau(  14) = (   3.3275346   1.5008247  12.4978572  )
        15           O1  tau(  15) = (   0.0424128   0.0047235  14.7277795  )
        16           O1  tau(  16) = (   3.2762846   0.0047332  13.9819514  )
        17           O1  tau(  17) = (   4.5591522   1.5298593  16.0930730  )
        18           O1  tau(  18) = (   2.0612242   1.5646392  16.2256692  )
        19           Ti1 tau(  19) = (   3.3170857   3.0293758  15.7013767  )
        20           Ti1 tau(  20) = (   6.5267591   1.5471840  15.7818195  )
        21           O1  tau(  21) = (   3.2904802   0.0005063   4.7018136  )
        22           O1  tau(  22) = (   0.0258072   0.0396315  17.3287798  )
        23           O1  tau(  23) = (   1.3043587   1.4918075   6.0039043  )
        24           O1  tau(  24) = (   5.2767064   1.4903225   6.0039473  )
        25           Ti1 tau(  25) = (   0.0000382   5.9609847   6.0000000  )
        26           Ti1 tau(  26) = (   3.2902200   4.4714249   6.0002472  )
        27           O1  tau(  27) = (   0.0002396   2.9813036   7.9858123  )
        28           O1  tau(  28) = (   3.2902150   2.9813002   7.3038282  )
        29           O1  tau(  29) = (   4.5938453   4.4726049   9.2879030  )
        30           O1  tau(  30) = (   1.9864658   4.4711199   9.2879459  )
        31           Ti1 tau(  31) = (   3.2891106   5.8743827   9.1763621  )
        32           Ti1 tau(  32) = (   0.0006254   4.4649316   9.2693709  )
        33           O1  tau(  33) = (   3.3047253   2.9863606  11.3412877  )
        34           O1  tau(  34) = (   0.0092240   2.9805883  10.6323155  )
        35           O1  tau(  35) = (   1.3023160   4.4818153  12.6295520  )
        36           O1  tau(  36) = (   5.2910779   4.4839738  12.6480862  )
        37           Ti1 tau(  37) = (   0.0306270   0.0097343  12.5156175  )
        38           Ti1 tau(  38) = (   3.3295341   4.4791655  12.4867326  )
        39           O1  tau(  39) = (   0.0319336   2.9935560  14.7343221  )
        40           O1  tau(  40) = (   3.2835893   3.0037955  13.9224844  )
        41           O1  tau(  41) = (   4.5669158   4.4809188  16.1713821  )
        42           O1  tau(  42) = (   2.0542530   4.4668402  16.2247519  )
        43           Ti1 tau(  43) = (   3.3000170   0.0150779  15.7669526  )
        44           Ti1 tau(  44) = (   0.0416703   4.6955124  16.1636639  )
        45           O1  tau(  45) = (   3.2900926   2.9813045   4.7018136  )
        46           O1  tau(  46) = (   1.3039711   4.4726057   6.0039043  )
        47           O1  tau(  47) = (   5.2763189   4.4711207   6.0039473  )
        48           N1  tau(  48) = (   0.9019483   2.4226080  18.4567899  )
        49           N1  tau(  49) = (   6.4923839   2.9153054  17.5348467  )
        50           C1  tau(  50) = (   1.2734633   3.3482217  19.5544901  )
        51           H1  tau(  51) = (   0.3921683   3.5464126  20.1615046  )
        52           H1  tau(  52) = (   2.0553077   2.8933093  20.1573268  )
        53           H1  tau(  53) = (   1.6239766   4.2728770  19.1044814  )
        54           H1  tau(  54) = (   0.5870980   1.4942747  18.7832689  )
        55           H1  tau(  55) = (   5.5983569   2.8486818  18.0159164  )
        56           H1  tau(  56) = (   1.7025450   2.1792920  17.8234971  )

     number of k points=    10  Fermi-Dirac smearing, width (Ry)=  0.0073
                       cart. coord. in units 2pi/alat
        k(    1) = (   0.0000000   0.0000000   0.0000000), wk =   0.1250000
        k(    2) = (   0.0000000   0.0419351   0.0000000), wk =   0.2500000
        k(    3) = (   0.0000000  -0.0838702   0.0000000), wk =   0.1250000
        k(    4) = (   0.0379955   0.0000049   0.0000000), wk =   0.2500000
        k(    5) = (   0.0379955   0.0419400   0.0000000), wk =   0.2500000
        k(    6) = (   0.0379955  -0.0838652   0.0000000), wk =   0.2500000
        k(    7) = (   0.0379955  -0.0419301   0.0000000), wk =   0.2500000
        k(    8) = (  -0.0759910  -0.0000099   0.0000000), wk =   0.1250000
        k(    9) = (  -0.0759910   0.0419252   0.0000000), wk =   0.2500000
        k(   10) = (  -0.0759910  -0.0838800   0.0000000), wk =   0.1250000

     Initial potential from superposition of free atoms

     starting charge  381.99914, renormalised to  398.00000

     negative rho (up, down):  1.484E-02 0.000E+00

     %%%%%%%%%%%%%%%%%%%%%%%%%%%%%%%%%%%%%%%%%%%%%%%%%%%%%%%%%%%%%%%%%%%%%%%%
     %                                                                      %
     % You are using vdW-DF, which was implemented by the Thonhauser group. %
     % Please cite the following two papers that made this development      %
     % possible and the two reviews that describe the various versions:     %
     %                                                                      %
     %   T. Thonhauser et al., PRL 115, 136402 (2015).                      %
     %   T. Thonhauser et al., PRB 76, 125112 (2007).                       %
     %   K. Berland et al., Rep. Prog. Phys. 78, 066501 (2015).             %
     %   D.C. Langreth et al., J. Phys.: Condens. Matter 21, 084203 (2009). %
     %                                                                      %
     %                                                                      %
     % If you are calculating the stress with vdW-DF, please also cite:     %
     %                                                                      %
     %   R. Sabatini et al., J. Phys.: Condens. Matter 24, 424209 (2012).   %
     %                                                                      %
     %%%%%%%%%%%%%%%%%%%%%%%%%%%%%%%%%%%%%%%%%%%%%%%%%%%%%%%%%%%%%%%%%%%%%%%%

     Adding external electric field

     Computed dipole along edir(3) :
        Dipole              -10.9106 Ry au,        -27.7320 Debye
        Dipole field         -0.0206 Ry au,

        Potential amp.        1.9086 Ry
        Total length         46.3494 bohr

     Starting wfcs are  302 atomic wfcs
  @ DRIVER MODE: Message from server: STATUS
  @ DRIVER MODE: Message from server: POSDATA
  @ DRIVER MODE: Reading and sharing cell
  @ DRIVER MODE: Reading and sharing positions
  @ DRIVER MODE: Received positions

     Self-consistent Calculation

     iteration #  1     ecut=    29.40 Ry     beta= 0.05
     Davidson diagonalization with overlap
     c_bands:  5 eigenvalues not converged
     c_bands:  3 eigenvalues not converged
     c_bands:  1 eigenvalues not converged
     c_bands:  2 eigenvalues not converged
     c_bands:  3 eigenvalues not converged
     c_bands:  4 eigenvalues not converged
     c_bands:  4 eigenvalues not converged
     ethr =  1.00E-05,  avg # of iterations = 24.4

[...]

     total energy              =   -2445.34901617 Ry
     estimated scf accuracy    <    5568.59199061 Ry

     iteration #  2     ecut=    29.40 Ry     beta= 0.05
     Davidson diagonalization with overlap
     ethr =  1.00E-02,  avg # of iterations = 23.0

[...]

     iteration # 58     ecut=    29.40 Ry     beta= 0.05
     Davidson diagonalization with overlap
     ethr =  4.48E-11,  avg # of iterations = 12.4

[...]

     total energy              =   -2942.84147029 Ry
     estimated scf accuracy    <       0.00000023 Ry

     iteration # 61     ecut=    29.40 Ry     beta= 0.05
     Davidson diagonalization with overlap
     c_bands:  1 eigenvalues not converged
     c_bands:  1 eigenvalues not converged
     ethr =  2.16E-11,  avg # of iterations = 11.6

     negative rho (up, down):  1.047E-02 0.000E+00

     Adding external electric field

     Computed dipole along edir(3) :
        Dipole                1.5797 Ry au,          4.0153 Debye
        Dipole field          0.0030 Ry au,

        Potential amp.       -0.2763 Ry
        Total length         46.3494 bohr

     End of self-consistent calculation

          k = 0.0000 0.0000 0.0000 ( 18029 PWs)   bands (ev):

   -55.0915 -55.0561 -55.0524 -55.0220 -54.9688 -54.9661 -54.9286 -54.8920
   -54.8836 -54.8694 -54.8562 -54.8513 -54.8043 -54.7597 -54.0662 -54.0322
   -31.6654 -31.5455 -31.4555 -31.4258 -31.3868 -31.3822 -31.3805 -31.3508
   -31.3477 -31.3464 -31.3032 -31.3013 -31.3005 -31.2660 -31.2478 -31.2282
   -31.2086 -31.2047 -31.1955 -31.1936 -31.1671 -31.1496 -31.1482 -31.1222
   -31.1129 -31.0987 -31.0960 -31.0939 -31.0903 -31.0772 -31.0722 -31.0650
   -31.0526 -31.0419 -31.0231 -31.0152 -31.0076 -31.0018 -30.9974 -30.9916
   -30.9871 -30.9523 -30.4746 -30.3829 -30.3607 -30.2912 -30.2046 -30.0934
   -19.1633 -15.9342 -15.6597 -15.5370 -15.3264 -15.2770 -15.2040 -15.0087
   -14.9438 -14.8878 -14.8775 -14.8661 -14.8494 -14.7781 -14.6989 -14.6186
   -14.6160 -14.6091 -14.5979 -14.5804 -14.5733 -14.5108 -14.5035 -14.4716
   -14.4596 -14.4194 -14.3122 -14.2306 -14.1737 -14.0223 -13.3298 -12.5688
   -12.4518 -11.1156  -7.8808  -6.5643  -5.8667  -4.1059  -3.9506  -3.2794
    -3.0941  -3.0706  -3.0096  -2.9846  -2.8098  -2.7601  -2.5563  -2.4486
    -2.3611  -2.3222  -2.3098  -2.2932  -2.1429  -2.0753  -2.0409  -1.9936
    -1.9699  -1.9472  -1.9059  -1.8982  -1.8677  -1.8496  -1.8411  -1.6638
    -1.5880  -1.5396  -1.5095  -1.4711  -1.4216  -1.3935  -1.3752  -1.3705
    -1.3653  -1.3462  -1.3145  -1.2536  -1.2249  -1.1688  -1.1009  -1.0741
    -0.9844  -0.9022  -0.7150  -0.6691  -0.6515  -0.6154  -0.5554  -0.5064
    -0.4724  -0.4374  -0.4230  -0.3567  -0.2877  -0.2552  -0.1925  -0.1282
    -0.1176  -0.0547  -0.0474   0.1139   0.1256   0.1469   0.2382   0.3244
     0.3723   0.3805   0.4388   0.5128   0.5350   0.5448   0.5811   0.6016
     0.6781   0.7873   0.8120   0.8537   0.8652   0.8989   0.9219   0.9766
     1.0004   1.0631   1.0693   1.1739   1.2226   1.2558   1.5056   1.5385
     1.8690   1.9024   1.9563   2.1429   2.5302   2.5773   4.0167   4.0794
     4.0929   4.1424   4.1656   4.1845   4.2567   4.4775   4.5027   4.5089
     4.5163

[...]

          k = 0.0380-0.0419 0.0000 ( 17876 PWs)   bands (ev):

[...]

          k =-0.0760-0.0000 0.0000 ( 17886 PWs)   bands (ev):

[...]

          k =-0.0760-0.0839 0.0000 ( 17948 PWs)   bands (ev):

   -55.0794 -55.0643 -55.0392 -55.0389 -54.9657 -54.9551 -54.9396 -54.8749
   -54.8722 -54.8714 -54.8694 -54.8672 -54.7983 -54.7657 -54.0492 -54.0490
   -31.4731 -31.4634 -31.4007 -31.3608 -31.3605 -31.3592 -31.3320 -31.3316
   -31.3004 -31.2965 -31.2915 -31.2855 -31.2599 -31.2257 -31.2185 -31.2124
   -31.2106 -31.2067 -31.2058 -31.1970 -31.1649 -31.1638 -31.1602 -31.1583
   -31.1580 -31.1551 -31.1506 -31.1342 -31.1089 -31.1051 -31.0990 -31.0900
   -31.0879 -31.0860 -31.0849 -31.0689 -31.0505 -31.0492 -31.0381 -31.0325
   -31.0079 -30.9915 -30.3735 -30.3733 -30.2873 -30.2871 -30.2479 -30.2479
   -19.1593 -15.4175 -15.3271 -15.1787 -15.1592 -15.1101 -15.0621 -15.0457
   -15.0281 -14.9718 -14.9324 -14.8866 -14.8380 -14.7950 -14.7928 -14.7541
   -14.6821 -14.6606 -14.6586 -14.6440 -14.5932 -14.5825 -14.5549 -14.5362
   -14.5311 -14.4879 -14.4284 -14.4248 -14.3854 -14.2059 -13.3401 -12.5534
   -12.5533 -11.1181  -7.8910  -6.5483  -5.8557  -4.0778  -3.9435  -2.6863
    -2.5871  -2.5285  -2.4205  -2.3337  -2.2934  -2.2590  -2.1241  -2.1046
    -2.0861  -2.0601  -2.0471  -2.0129  -2.0051  -1.9571  -1.9279  -1.9175
    -1.9113  -1.8984  -1.8762  -1.8282  -1.8058  -1.7963  -1.7869  -1.7482
    -1.7343  -1.7023  -1.6964  -1.6575  -1.6359  -1.5508  -1.4616  -1.4218
    -1.3716  -1.3062  -1.2723  -1.2656  -1.1722  -1.1640  -1.1410  -1.1076
    -1.0621  -0.9416  -0.8843  -0.8215  -0.8176  -0.8044  -0.6975  -0.6599
    -0.6294  -0.5942  -0.5570  -0.5267  -0.4883  -0.4415  -0.3647  -0.3339
    -0.2944  -0.2580  -0.1857  -0.0978  -0.0786  -0.0476  -0.0434   0.0426
     0.0677   0.1060   0.1153   0.1345   0.1911   0.2042   0.2915   0.3814
     0.4460   0.5341   0.6476   0.6523   0.7296   0.8215   0.9089   0.9471
     0.9991   1.0643   1.0666   1.1002   1.2213   1.2286   1.3501   1.3889
     1.3976   1.4201   2.3153   2.3164   2.3975   2.3975   4.1457   4.2434
     4.2824   4.3235   4.3756   4.5210   4.5441   4.5898   4.5901   4.6638
     4.6749

     the Fermi energy is     4.0632 ev

!    total energy              =   -2942.84152712 Ry
     estimated scf accuracy    <       0.00000006 Ry
     smearing contrib. (-TS)   =      -0.03725123 Ry
     internal energy E=F+TS    =   -2942.80427589 Ry

     The total energy is F=E-TS. E is the sum of the following terms:
     one-electron contribution =  -23856.54021252 Ry
     hartree contribution      =   12023.60255935 Ry
     xc contribution           =    -487.75881159 Ry
     ewald contribution        =    9377.88747948 Ry
     electric field correction =       0.00470940 Ry

     convergence has been achieved in  61 iterations

     Forces acting on atoms (cartesian axes, Ry/au):

     atom    1 type  1   force =     0.00002122   -0.00023815    0.09431560
     atom    2 type  1   force =    -0.00015673   -0.00054442   -0.17708665
     atom    3 type  2   force =     0.00001876   -0.00024559   -0.02145308
     atom    4 type  2   force =    -0.00001286   -0.00167548    0.05642791
     atom    5 type  2   force =    -0.01050017   -0.00075188    0.00562962
     atom    6 type  2   force =     0.01226750   -0.00009552    0.00552395
     atom    7 type  1   force =    -0.00024303    0.00108401   -0.01570271
     atom    8 type  1   force =    -0.00007301    0.00525424    0.00656591
     atom    9 type  2   force =    -0.00030473    0.00055747    0.00022356
     atom   10 type  2   force =    -0.00199941    0.00266228   -0.00434163
     atom   11 type  2   force =     0.00039335   -0.00022374    0.00028690
     atom   12 type  2   force =    -0.00007831   -0.00029318   -0.00018592
     atom   13 type  1   force =    -0.00073399    0.00043581   -0.00004824
     atom   14 type  1   force =     0.00038839   -0.00016218    0.00004093
     atom   15 type  2   force =    -0.00019390   -0.00057746   -0.00037386
     atom   16 type  2   force =     0.00005460    0.00037774   -0.00030984
     atom   17 type  2   force =     0.00079804    0.00017189    0.00040346
     atom   18 type  2   force =    -0.00013411    0.00008960   -0.00015146
     atom   19 type  1   force =     0.00030431    0.00077124    0.00034066
     atom   20 type  1   force =    -0.00046797    0.00015321    0.00052744
     atom   21 type  2   force =    -0.00002025   -0.00011777    0.10364123
     atom   22 type  2   force =     0.00015663    0.00030175    0.00031345
     atom   23 type  2   force =    -0.07091695   -0.00021049   -0.02719952
     atom   24 type  2   force =     0.07071686    0.00024107   -0.02724774
     atom   25 type  1   force =     0.00001265   -0.00027521    0.09399655
     atom   26 type  1   force =    -0.00024924   -0.00054958   -0.17736613
     atom   27 type  2   force =     0.00006046   -0.00008052   -0.02058699
     atom   28 type  2   force =     0.00002610   -0.00136272    0.05571968
     atom   29 type  2   force =    -0.01080459   -0.00000181    0.00592579
     atom   30 type  2   force =     0.01249352    0.00028482    0.00577527
     atom   31 type  1   force =    -0.00017616    0.00518201   -0.01629228
     atom   32 type  1   force =    -0.00009162   -0.00625615    0.00669657
     atom   33 type  2   force =    -0.00009901   -0.00047406    0.00024385
     atom   34 type  2   force =    -0.00163659    0.00066910   -0.00773847
     atom   35 type  2   force =    -0.00033449    0.00005985    0.00042624
     atom   36 type  2   force =     0.00057985    0.00005876   -0.00006232
     atom   37 type  1   force =    -0.00083790   -0.00079025   -0.00008633
     atom   38 type  1   force =     0.00049214    0.00001501    0.00044122
     atom   39 type  2   force =    -0.00029265   -0.00020249    0.00060158
     atom   40 type  2   force =    -0.00005257   -0.00019352   -0.00022675
     atom   41 type  2   force =     0.00011159   -0.00048383    0.00028198
     atom   42 type  2   force =    -0.00017490   -0.00029158    0.00048943
     atom   43 type  1   force =     0.00000676   -0.00069788   -0.00017370
     atom   44 type  1   force =     0.00029281    0.00046841    0.00038004
     atom   45 type  2   force =    -0.00002584   -0.00011388    0.10363587
     atom   46 type  2   force =    -0.07092566   -0.00014412   -0.02717314
     atom   47 type  2   force =     0.07072918    0.00027912   -0.02724546
     atom   48 type  3   force =     0.00056256    0.00063891    0.00107486
     atom   49 type  3   force =     0.00035682   -0.00084006    0.00087013
     atom   50 type  4   force =    -0.00244774    0.00372567   -0.00253293
     atom   51 type  5   force =     0.00013790   -0.00045767    0.00052900
     atom   52 type  5   force =     0.00284655   -0.00340283    0.00242501
     atom   53 type  5   force =    -0.00034870   -0.00016654   -0.00020305
     atom   54 type  5   force =     0.00018816   -0.00024763   -0.00006432
     atom   55 type  5   force =    -0.00015276   -0.00053996    0.00017624
     atom   56 type  5   force =     0.00046911   -0.00077379   -0.00007740

     Total force =     0.365726     Total SCF correction =     0.000767
  @ DRIVER MODE: Message from server: STATUS
  @ DRIVER MODE: Message from server: GETFORCE
  @ DRIVER MODE: Returning v,forces,stress,ensemble

     Writing output data file ./calc.save/
  @ DRIVER MODE: Message from server: EXIT
  @ DRIVE MODE: Exiting

     General routines

     Parallel routines

   This run was terminated on:   7:41:53   9Sep2021

   JOB DONE.