     Program PWSCF v.6.7GPU starts on 24Sep2021 at  4:47:18

     R & G space division:  proc/nbgrp/npool/nimage =       8
     Reading input from /storage/home/hcoda1/3/ntian30/research/carbon/CxH_vib/H2O_calc/ads_slab/CH3NNHHHHO_a/out_0044/pw.inp
Warning: card &CELL ignored
Warning: card   CELL_DYNAMICS='IPI', ignored
Warning: card / ignored

     Current dimensions of program PWSCF are:
     Max number of different atomic species (ntypx) = 10
     Max number of k-points (npk) =  40000
     Max angular momentum in pseudopotentials (lmaxx) =  3
     Presently no symmetry can be used with electric field

     Message from routine cell_base_init:
     DEPRECATED: use true lattice parameter, not A to a.u. conversion factor

     IMPORTANT: XC functional enforced from input :
     Exchange-correlation= BEEF-VDW
                           (   1   4  43  14   2   0   0)
     Any further DFT definition will be discarded
     Please, verify this is what you really want

  @ DRIVER MODE: Connecting to
 qe_1139763_2947308.sched-torque.pace.gatech.edut2cxarv4_scratch
  using UNIX socket
  @ DRIVER MODE: Message from server: STATUS
  @ DRIVER MODE: Message from server: INIT
  @ DRIVER MODE: Receiving replica           0          -1
  @ DRIVER MODE: Receiving encoded integer          25
  @ DRIVER MODE:  SCF:  T  FORCE:  T  STRESS:  F  VC:  F  ENSEMBLE:  F
  @ DRIVER MODE:  SCF:  T  FORCE:  T  STRESS:  F  VC:  F  ENSEMBLE:  F

     Using Slab Decomposition

     bravais-lattice index     =            0
     lattice parameter (alat)  =       1.8897  a.u.
     unit-cell volume          =    6658.9804 (a.u.)^3
     number of atoms/cell      =           58
     number of atomic types    =            5
     number of electrons       =       405.00
     number of Kohn-Sham states=          212
     kinetic-energy cutoff     =      29.3995  Ry
     charge density cutoff     =     293.9946  Ry
     scf convergence threshold =      7.3E-08
     mixing beta               =       0.0500
     number of iterations used =            8  plain     mixing
     Exchange-correlation= BEEF-VDW
                           (   1   4  43  14   2   0   0)

     celldm(1)=   1.889726  celldm(2)=   0.000000  celldm(3)=   0.000000
     celldm(4)=   0.000000  celldm(5)=   0.000000  celldm(6)=   0.000000

     crystal axes: (cart. coord. in units of alat)
               a(1) = (   6.579727   0.000000   0.000000 )
               a(2) = (  -0.000775   5.961596   0.000000 )
               a(3) = (   0.000000   0.000000  25.155947 )

     reciprocal axes: (cart. coord. in units 2 pi/alat)
               b(1) = (  0.151982  0.000020  0.000000 )
               b(2) = (  0.000000  0.167740  0.000000 )
               b(3) = (  0.000000  0.000000  0.039752 )

     PseudoPot. # 1 for Ti read from file:
     /storage/coda1/p-amedford6/0/shared/rich_project_chbe-medford/medford-share/data/pseudos_module/espresso/nninc/pbe/van/Ti.UPF
     MD5 check sum: 8e4df49b7f0d34bbd5052bf3f5ea0213
     Pseudo is Ultrasoft, Zval = 12.0
     Generated by new atomic code, or converted to UPF format
     Using radial grid of  851 points,  6 beta functions with:
                l(1) =   0
                l(2) =   0
                l(3) =   1
                l(4) =   1
                l(5) =   2
                l(6) =   2
     Q(r) pseudized with  8 coefficients,  rinner =    1.000   1.000   1.000
                                                       1.000   1.000

     PseudoPot. # 2 for O  read from file:
     /storage/coda1/p-amedford6/0/shared/rich_project_chbe-medford/medford-share/data/pseudos_module/espresso/nninc/pbe/van/O.UPF
     MD5 check sum: 78c19812648e8988a0fe644b0f25305e
     Pseudo is Ultrasoft, Zval =  6.0
     Generated by new atomic code, or converted to UPF format
     Using radial grid of  737 points,  4 beta functions with:
                l(1) =   0
                l(2) =   0
                l(3) =   1
                l(4) =   1
     Q(r) pseudized with  8 coefficients,  rinner =    0.800   0.800   0.800

     PseudoPot. # 3 for N  read from file:
     /storage/coda1/p-amedford6/0/shared/rich_project_chbe-medford/medford-share/data/pseudos_module/espresso/nninc/pbe/van/N.UPF
     MD5 check sum: 90d10febe142ad51ac9d5be1deb811c4
     Pseudo is Ultrasoft, Zval =  5.0
     Generated by new atomic code, or converted to UPF format
     Using radial grid of  729 points,  4 beta functions with:
                l(1) =   0
                l(2) =   0
                l(3) =   1
                l(4) =   1
     Q(r) pseudized with  8 coefficients,  rinner =    0.800   0.800   0.800

     PseudoPot. # 4 for C  read from file:
     /storage/coda1/p-amedford6/0/shared/rich_project_chbe-medford/medford-share/data/pseudos_module/espresso/nninc/pbe/van/C.UPF
     MD5 check sum: 1a69bf6b8db32088f5b2163dbdb77a27
     Pseudo is Ultrasoft, Zval =  4.0
     Generated by new atomic code, or converted to UPF format
     Using radial grid of  721 points,  4 beta functions with:
                l(1) =   0
                l(2) =   0
                l(3) =   1
                l(4) =   1
     Q(r) pseudized with  8 coefficients,  rinner =    0.800   0.800   0.800

     PseudoPot. # 5 for H  read from file:
     /storage/coda1/p-amedford6/0/shared/rich_project_chbe-medford/medford-share/data/pseudos_module/espresso/nninc/pbe/van/H.UPF
     MD5 check sum: b5ee9d7bfd3a09ee7748110bda690ff7
     Pseudo is Ultrasoft, Zval =  1.0
     Generated by new atomic code, or converted to UPF format
     Using radial grid of  615 points,  1 beta functions with:
                l(1) =   0
     Q(r) pseudized with  8 coefficients,  rinner =    0.800

     atomic species   valence    mass     pseudopotential
        Ti1           12.00    47.86700     Ti( 1.00)
        O1             6.00    15.99900     O ( 1.00)
        N1             5.00    14.00700     N ( 1.00)
        C1             4.00    12.01100     C ( 1.00)
        H1             1.00     1.00800     H ( 1.00)

     No symmetry found

   Cartesian axes

     site n.     atom                  positions (alat units)
         1           Ti1 tau(   1) = (   0.0004258   2.9801865   6.0000000  )
         2           Ti1 tau(   2) = (   3.2906075   1.4906267   6.0002472  )
         3           O1  tau(   3) = (   0.0006271   0.0005054   7.9858123  )
         4           O1  tau(   4) = (   3.2906025   0.0005020   7.3038282  )
         5           O1  tau(   5) = (   4.5942328   1.4918067   9.2879030  )
         6           O1  tau(   6) = (   1.9868534   1.4903216   9.2879459  )
         7           Ti1 tau(   7) = (   3.2907910   2.8959150   9.1758416  )
         8           Ti1 tau(   8) = (   0.0015273   1.4827037   9.2680791  )
         9           O1  tau(   9) = (   3.3066316   0.0080679  11.3583267  )
        10           O1  tau(  10) = (   0.0116148   5.9584955  10.6183126  )
        11           O1  tau(  11) = (   1.3000076   1.5005770  12.6434233  )
        12           O1  tau(  12) = (   5.3281586   1.4930334  12.6431679  )
        13           Ti1 tau(  13) = (   0.0126194   3.0144704  12.5166071  )
        14           Ti1 tau(  14) = (   3.3185830   1.5708444  12.4374219  )
        15           O1  tau(  15) = (   0.0449490   0.0685618  14.6579901  )
        16           O1  tau(  16) = (   3.3164028   5.8986079  13.9921319  )
        17           O1  tau(  17) = (   4.5763498   1.4919541  16.1892649  )
        18           O1  tau(  18) = (   2.0390356   1.5007807  16.1677599  )
        19           Ti1 tau(  19) = (   3.3152479   2.9236451  15.6986563  )
        20           Ti1 tau(  20) = (   0.0808212   1.4292116  16.0039943  )
        21           O1  tau(  21) = (   3.2904802   0.0005063   4.7018136  )
        22           O1  tau(  22) = (   0.0303022   5.8046116  17.1736243  )
        23           O1  tau(  23) = (   1.3043587   1.4918075   6.0039043  )
        24           O1  tau(  24) = (   5.2767064   1.4903225   6.0039473  )
        25           Ti1 tau(  25) = (   0.0000382   5.9609847   6.0000000  )
        26           Ti1 tau(  26) = (   3.2902200   4.4714249   6.0002472  )
        27           O1  tau(  27) = (   0.0002396   2.9813036   7.9858123  )
        28           O1  tau(  28) = (   3.2902150   2.9813002   7.3038282  )
        29           O1  tau(  29) = (   4.5938453   4.4726049   9.2879030  )
        30           O1  tau(  30) = (   1.9864658   4.4711199   9.2879459  )
        31           Ti1 tau(  31) = (   3.2891106   5.8743827   9.1763621  )
        32           Ti1 tau(  32) = (   0.0006254   4.4649316   9.2693709  )
        33           O1  tau(  33) = (   3.3101163   2.9547251  11.3177968  )
        34           O1  tau(  34) = (   0.0092240   2.9805883  10.6323155  )
        35           O1  tau(  35) = (   1.2917786   4.4638488  12.6831265  )
        36           O1  tau(  36) = (   5.3332004   4.4701953  12.6833355  )
        37           Ti1 tau(  37) = (   0.0360484   0.0435164  12.5022323  )
        38           Ti1 tau(  38) = (   3.3166134   4.6596848  12.7231989  )
        39           O1  tau(  39) = (   6.5734590   2.9070644  14.8960501  )
        40           O1  tau(  40) = (   3.3256711   2.9499323  13.9293234  )
        41           O1  tau(  41) = (   4.5718193   4.3849529  16.1598725  )
        42           O1  tau(  42) = (   2.0293811   4.3548050  16.0908550  )
        43           Ti1 tau(  43) = (   3.3839698   5.9011270  16.3477160  )
        44           Ti1 tau(  44) = (   0.0762916   4.6312412  15.8077656  )
        45           O1  tau(  45) = (   3.2900926   2.9813045   4.7018136  )
        46           O1  tau(  46) = (   1.3039711   4.4726057   6.0039043  )
        47           O1  tau(  47) = (   5.2763189   4.4711207   6.0039473  )
        48           N1  tau(  48) = (   1.0338470   3.0145746  18.8549854  )
        49           N1  tau(  49) = (   6.4614719   2.5758313  18.0922931  )
        50           C1  tau(  50) = (   0.6385090   3.7489381  20.0602371  )
        51           H1  tau(  51) = (   6.5128770   4.5633600  19.8465500  )
        52           H1  tau(  52) = (   0.1876125   3.0656416  20.7809517  )
        53           H1  tau(  53) = (   1.5398112   4.1767214  20.4987412  )
        54           H1  tau(  54) = (   5.7034478   3.2665398  18.1448723  )
        55           H1  tau(  55) = (   6.1195767   1.7263867  18.5341855  )
        56           H1  tau(  56) = (   1.5400177   3.6533120  18.2466354  )
        57           O1  tau(  57) = (   3.2295176   5.8880611  18.1942677  )
        58           H1  tau(  58) = (   2.6769533   0.6239085  18.5854980  )

     number of k points=    10  Fermi-Dirac smearing, width (Ry)=  0.0073
                       cart. coord. in units 2pi/alat
        k(    1) = (   0.0000000   0.0000000   0.0000000), wk =   0.1250000
        k(    2) = (   0.0000000   0.0419351   0.0000000), wk =   0.2500000
        k(    3) = (   0.0000000  -0.0838702   0.0000000), wk =   0.1250000
        k(    4) = (   0.0379955   0.0000049   0.0000000), wk =   0.2500000
        k(    5) = (   0.0379955   0.0419400   0.0000000), wk =   0.2500000
        k(    6) = (   0.0379955  -0.0838652   0.0000000), wk =   0.2500000
        k(    7) = (   0.0379955  -0.0419301   0.0000000), wk =   0.2500000
        k(    8) = (  -0.0759910  -0.0000099   0.0000000), wk =   0.1250000
        k(    9) = (  -0.0759910   0.0419252   0.0000000), wk =   0.2500000
        k(   10) = (  -0.0759910  -0.0838800   0.0000000), wk =   0.1250000

     Initial potential from superposition of free atoms

     starting charge  388.99913, renormalised to  405.00000

     negative rho (up, down):  1.325E-02 0.000E+00

     %%%%%%%%%%%%%%%%%%%%%%%%%%%%%%%%%%%%%%%%%%%%%%%%%%%%%%%%%%%%%%%%%%%%%%%%
     %                                                                      %
     % You are using vdW-DF, which was implemented by the Thonhauser group. %
     % Please cite the following two papers that made this development      %
     % possible and the two reviews that describe the various versions:     %
     %                                                                      %
     %   T. Thonhauser et al., PRL 115, 136402 (2015).                      %
     %   T. Thonhauser et al., PRB 76, 125112 (2007).                       %
     %   K. Berland et al., Rep. Prog. Phys. 78, 066501 (2015).             %
     %   D.C. Langreth et al., J. Phys.: Condens. Matter 21, 084203 (2009). %
     %                                                                      %
     %                                                                      %
     % If you are calculating the stress with vdW-DF, please also cite:     %
     %                                                                      %
     %   R. Sabatini et al., J. Phys.: Condens. Matter 24, 424209 (2012).   %
     %                                                                      %
     %%%%%%%%%%%%%%%%%%%%%%%%%%%%%%%%%%%%%%%%%%%%%%%%%%%%%%%%%%%%%%%%%%%%%%%%

     Adding external electric field

     Computed dipole along edir(3) :
        Dipole              -14.7651 Ry au,        -37.5293 Debye
        Dipole field         -0.0279 Ry au,

        Potential amp.        2.5829 Ry
        Total length         46.3494 bohr

     Starting wfcs are  307 atomic wfcs
  @ DRIVER MODE: Message from server: STATUS
  @ DRIVER MODE: Message from server: POSDATA
  @ DRIVER MODE: Reading and sharing cell
  @ DRIVER MODE: Reading and sharing positions
  @ DRIVER MODE: Received positions

     Self-consistent Calculation

     iteration #  1     ecut=    29.40 Ry     beta= 0.05
     Davidson diagonalization with overlap
     c_bands:  3 eigenvalues not converged
     c_bands:  4 eigenvalues not converged
     c_bands:  2 eigenvalues not converged
     c_bands:  3 eigenvalues not converged
     c_bands:  3 eigenvalues not converged
     c_bands:  3 eigenvalues not converged
     ethr =  1.00E-05,  avg # of iterations = 23.2

[...]

     total energy              =   -2204.22346655 Ry
     estimated scf accuracy    <    8785.90934542 Ry

     iteration #  2     ecut=    29.40 Ry     beta= 0.05
     Davidson diagonalization with overlap
     ethr =  1.00E-02,  avg # of iterations = 31.2

[...]

     iteration # 49     ecut=    29.40 Ry     beta= 0.05
     Davidson diagonalization with overlap
     c_bands:  2 eigenvalues not converged
     c_bands:  1 eigenvalues not converged
     ethr =  6.24E-07,  avg # of iterations = 16.4

[...]

     total energy              =   -2976.49821681 Ry
     estimated scf accuracy    <       0.00000011 Ry

     iteration # 70     ecut=    29.40 Ry     beta= 0.05
     Davidson diagonalization with overlap
     ethr =  2.70E-11,  avg # of iterations =  4.1

     negative rho (up, down):  1.443E-02 0.000E+00

     Adding external electric field

     Computed dipole along edir(3) :
        Dipole                0.9936 Ry au,          2.5254 Debye
        Dipole field          0.0019 Ry au,

        Potential amp.       -0.1738 Ry
        Total length         46.3494 bohr

     End of self-consistent calculation

          k = 0.0000 0.0000 0.0000 ( 18029 PWs)   bands (ev):

   -55.5818 -55.4990 -55.4650 -55.3639 -55.3427 -55.3269 -55.3129 -55.3063
   -55.2932 -55.2634 -55.2198 -55.0974 -55.0869 -55.0096 -54.4681 -54.4341
   -31.9836 -31.9184 -31.8778 -31.8305 -31.8288 -31.8091 -31.7986 -31.7899
   -31.7500 -31.7450 -31.7267 -31.6516 -31.6278 -31.6072 -31.6056 -31.6035
   -31.5977 -31.5856 -31.5832 -31.5566 -31.5502 -31.5249 -31.5244 -31.5127
   -31.4974 -31.4863 -31.4785 -31.4617 -31.4571 -31.4542 -31.4445 -31.4386
   -31.4347 -31.4155 -31.3736 -31.3716 -31.3014 -31.2940 -31.2801 -31.2593
   -31.2224 -31.2151 -30.8738 -30.7883 -30.7658 -30.6914 -30.6051 -30.4932
   -17.5881 -16.3998 -16.1398 -15.9773 -15.7614 -15.6760 -15.6476 -15.4550
   -15.3497 -15.2968 -15.1106 -15.0640 -15.0339 -15.0224 -15.0074 -14.9847
   -14.9647 -14.9266 -14.9183 -14.9079 -14.9023 -14.8637 -14.8413 -14.7907
   -14.7677 -14.7054 -14.6334 -14.5656 -14.5181 -14.2575 -14.2393 -12.9710
   -12.9664 -12.8502  -9.4590  -6.1790  -5.2008  -4.6347  -3.9616  -3.5045
    -3.4037  -3.3877  -3.3325  -3.2691  -3.1699  -2.9960  -2.8874  -2.8336
    -2.7329  -2.6255  -2.5706  -2.5069  -2.4784  -2.4306  -2.3976  -2.3858
    -2.3792  -2.2830  -2.2741  -2.2472  -2.2117  -2.1559  -2.1402  -2.0624
    -2.0260  -2.0174  -1.8926  -1.8804  -1.8147  -1.8105  -1.8041  -1.7705
    -1.7494  -1.7345  -1.7054  -1.6216  -1.5686  -1.4983  -1.4756  -1.4455
    -1.1864  -1.0945  -1.0569  -1.0289  -0.9313  -0.9145  -0.9013  -0.8980
    -0.8840  -0.8342  -0.7879  -0.7038  -0.5942  -0.5734  -0.5654  -0.5204
    -0.4551  -0.3731  -0.2999  -0.2705  -0.2333  -0.2199  -0.1536  -0.0764
    -0.0603  -0.0481   0.0610   0.0751   0.1574   0.2161   0.2301   0.2750
     0.3160   0.3486   0.4051   0.4415   0.4719   0.4777   0.5113   0.5557
     0.6114   0.6418   0.6697   0.7520   0.8076   0.8529   0.8807   1.0521
     1.0821   1.1386   1.1783   1.2656   1.5082   1.5585   1.5978   1.7529
     2.1247   2.1699   3.5857   3.7367   3.7519   3.8216   3.8465   3.9377
     4.0750   4.1429   4.2748   4.2834

[...]

          k = 0.0380-0.0419 0.0000 ( 17876 PWs)   bands (ev):

[...]

          k =-0.0760-0.0000 0.0000 ( 17886 PWs)   bands (ev):

[...]

          k =-0.0760-0.0839 0.0000 ( 17948 PWs)   bands (ev):

   -55.5811 -55.4821 -55.4818 -55.3627 -55.3296 -55.3194 -55.3135 -55.3100
   -55.3096 -55.2555 -55.2278 -55.0943 -55.0880 -55.0127 -54.4512 -54.4509
   -31.8656 -31.8076 -31.8032 -31.7990 -31.7988 -31.7836 -31.7756 -31.7752
   -31.7061 -31.6501 -31.6422 -31.6348 -31.6300 -31.6166 -31.6021 -31.6020
   -31.5997 -31.5992 -31.5851 -31.5746 -31.5670 -31.5583 -31.5374 -31.5193
   -31.5165 -31.5127 -31.5054 -31.5023 -31.4901 -31.4827 -31.4802 -31.4744
   -31.4692 -31.4507 -31.4449 -31.3676 -31.3560 -31.3416 -31.3033 -31.2981
   -31.2645 -31.2185 -30.7787 -30.7784 -30.6869 -30.6864 -30.6485 -30.6481
   -17.5821 -16.3856 -15.7480 -15.5698 -15.4738 -15.4673 -15.3365 -15.2707
   -15.2619 -15.2273 -15.2087 -15.1935 -15.1607 -15.1431 -15.1036 -15.0510
   -15.0177 -14.9951 -14.9834 -14.9464 -14.9338 -14.9118 -14.9045 -14.8959
   -14.8376 -14.8056 -14.7965 -14.7655 -14.5703 -14.5487 -14.3718 -12.9725
   -12.9521 -12.9520  -9.4565  -6.1642  -5.2024  -4.6449  -3.9578  -3.1713
    -2.9223  -2.7788  -2.7027  -2.5686  -2.5586  -2.5010  -2.4903  -2.4480
    -2.4396  -2.3986  -2.3447  -2.3285  -2.2855  -2.2804  -2.2497  -2.2372
    -2.2265  -2.2175  -2.1922  -2.1729  -2.1639  -2.1231  -2.1186  -2.1027
    -2.0827  -2.0668  -2.0392  -2.0280  -1.9878  -1.9485  -1.8828  -1.8093
    -1.7237  -1.6409  -1.6304  -1.6196  -1.5733  -1.5669  -1.5201  -1.5083
    -1.4610  -1.4094  -1.2955  -1.1728  -1.1329  -1.1066  -1.0744  -1.0423
    -0.9877  -0.9649  -0.9299  -0.8815  -0.8494  -0.7260  -0.7148  -0.6494
    -0.5647  -0.5313  -0.4559  -0.4428  -0.4281  -0.4118  -0.3901  -0.3732
    -0.3438  -0.3276  -0.2235  -0.1995  -0.1964  -0.1737  -0.1224  -0.0200
     0.0542   0.1368   0.2396   0.2894   0.3172   0.3508   0.4508   0.5689
     0.5941   0.6574   0.6891   0.7320   0.7992   0.8198   0.8678   0.9526
     1.0061   1.0386   1.0648   1.0698   1.1244   1.1546   1.9215   1.9300
     1.9902   1.9904   3.7994   4.0756   4.1012   4.1172   4.1545   4.1586
     4.1805   4.1951   4.2605   4.2758

     the Fermi energy is     3.6226 ev

!    total energy              =   -2976.49824841 Ry
     estimated scf accuracy    <       0.00000005 Ry
     smearing contrib. (-TS)   =      -0.01952436 Ry
     internal energy E=F+TS    =   -2976.47872405 Ry

     The total energy is F=E-TS. E is the sum of the following terms:
     one-electron contribution =  -23034.53191333 Ry
     hartree contribution      =   11613.62164749 Ry
     xc contribution           =    -495.71230322 Ry
     ewald contribution        =    8940.14198211 Ry
     electric field correction =       0.00186290 Ry

     convergence has been achieved in  70 iterations

     Forces acting on atoms (cartesian axes, Ry/au):

     atom    1 type  1   force =     0.00001166   -0.00022750    0.09405433
     atom    2 type  1   force =    -0.00015938    0.00025166   -0.17515662
     atom    3 type  2   force =     0.00007551   -0.00016393   -0.02115497
     atom    4 type  2   force =     0.00000526   -0.00104276    0.05355984
     atom    5 type  2   force =    -0.00454788   -0.00322777    0.00115178
     atom    6 type  2   force =     0.00660733   -0.00242791    0.00161670
     atom    7 type  1   force =     0.00037689    0.00457094    0.01037418
     atom    8 type  1   force =    -0.00055910    0.00198677    0.00312873
     atom    9 type  2   force =     0.00010430   -0.00050068   -0.00048667
     atom   10 type  2   force =    -0.00030841   -0.00004597   -0.01130332
     atom   11 type  2   force =    -0.00023796    0.00045661    0.00004783
     atom   12 type  2   force =    -0.00026364    0.00067176    0.00008479
     atom   13 type  1   force =     0.00062286   -0.00064681    0.00023465
     atom   14 type  1   force =    -0.00035784    0.00016217    0.00020440
     atom   15 type  2   force =    -0.00016629    0.00008812    0.00052816
     atom   16 type  2   force =     0.00004795   -0.00002703    0.00040788
     atom   17 type  2   force =    -0.00038200    0.00022413    0.00005579
     atom   18 type  2   force =     0.00002075    0.00007470    0.00025267
     atom   19 type  1   force =    -0.00009138    0.00051863   -0.00024088
     atom   20 type  1   force =    -0.00003982   -0.00009675   -0.00024132
     atom   21 type  2   force =     0.00002983   -0.00001166    0.10309215
     atom   22 type  2   force =    -0.00006322   -0.00011654   -0.00027095
     atom   23 type  2   force =    -0.07214255   -0.00021126   -0.02726144
     atom   24 type  2   force =     0.07204768    0.00023150   -0.02733913
     atom   25 type  1   force =     0.00007129   -0.00034730    0.09403336
     atom   26 type  1   force =    -0.00000154   -0.00128717   -0.17518810
     atom   27 type  2   force =     0.00015522   -0.00021312   -0.01993204
     atom   28 type  2   force =     0.00008817   -0.00111197    0.04908377
     atom   29 type  2   force =    -0.00668424    0.00152252    0.00213001
     atom   30 type  2   force =     0.00855454    0.00170075    0.00249987
     atom   31 type  1   force =     0.00049874   -0.00019736    0.00053574
     atom   32 type  1   force =    -0.00020353   -0.00145038    0.00352334
     atom   33 type  2   force =    -0.00007744    0.00000256   -0.00003105
     atom   34 type  2   force =    -0.00088735    0.00246281   -0.01151567
     atom   35 type  2   force =     0.00002906   -0.00043355    0.00048874
     atom   36 type  2   force =    -0.00052333   -0.00041047    0.00034443
     atom   37 type  1   force =     0.00036991    0.00028691    0.00002339
     atom   38 type  1   force =    -0.00038151    0.00020477    0.00030426
     atom   39 type  2   force =    -0.00050906    0.00043700    0.00048533
     atom   40 type  2   force =    -0.00002020   -0.00007780   -0.00006949
     atom   41 type  2   force =    -0.00035222   -0.00028391    0.00028785
     atom   42 type  2   force =    -0.00023380   -0.00024557   -0.00025888
     atom   43 type  1   force =    -0.00002599   -0.00033950    0.00080639
     atom   44 type  1   force =    -0.00014623    0.00016832    0.00006166
     atom   45 type  2   force =     0.00002172   -0.00001635    0.10295064
     atom   46 type  2   force =    -0.07215010   -0.00008638   -0.02725916
     atom   47 type  2   force =     0.07200617    0.00035119   -0.02730141
     atom   48 type  3   force =     0.00133539    0.00052747   -0.00078676
     atom   49 type  3   force =     0.00250805    0.00372258   -0.00151537
     atom   50 type  4   force =     0.00031379   -0.00026610    0.00018470
     atom   51 type  5   force =    -0.00029615    0.00024069    0.00004427
     atom   52 type  5   force =    -0.00011350   -0.00078699    0.00001714
     atom   53 type  5   force =     0.00020260   -0.00053668    0.00001407
     atom   54 type  5   force =    -0.00019038   -0.00077451   -0.00009476
     atom   55 type  5   force =    -0.00398275   -0.00349753    0.00194408
     atom   56 type  5   force =     0.00046647    0.00031323   -0.00019060
     atom   57 type  2   force =    -0.00027028    0.00053858   -0.00076648
     atom   58 type  5   force =    -0.00020208   -0.00060714   -0.00019185

     Total force =     0.361787     Total SCF correction =     0.000581
  @ DRIVER MODE: Message from server: STATUS
  @ DRIVER MODE: Message from server: GETFORCE
  @ DRIVER MODE: Returning v,forces,stress,ensemble

     Writing output data file ./calc.save/
  @ DRIVER MODE: Message from server: EXIT
  @ DRIVE MODE: Exiting

     General routines

     Parallel routines

   This run was terminated on:   5:11:47  24Sep2021

   JOB DONE.