     Program PWSCF v.6.7GPU starts on 16Aug2021 at 12: 7:40

     R & G space division:  proc/nbgrp/npool/nimage =       6
     Reading input from /storage/home/hcoda1/3/ntian30/research/carbon/CH2_calc/ads_slab/CH2N2_a/CH2_calc.log/pw.inp
Warning: card &CELL ignored
Warning: card   CELL_DYNAMICS='IPI', ignored
Warning: card / ignored

     Current dimensions of program PWSCF are:
     Max number of different atomic species (ntypx) = 10
     Max number of k-points (npk) =  40000
     Max angular momentum in pseudopotentials (lmaxx) =  3
     Presently no symmetry can be used with electric field

     Message from routine cell_base_init:
     DEPRECATED: use true lattice parameter, not A to a.u. conversion factor

     IMPORTANT: XC functional enforced from input :
     Exchange-correlation= BEEF-VDW
                           (   1   4  43  14   2   0   0)
     Any further DFT definition will be discarded
     Please, verify this is what you really want

  @ DRIVER MODE: Connecting to
 qe_1139763_2585634.sched-torque.pace.gatech.eduquhfz3rp_scratch
  using UNIX socket
  @ DRIVER MODE: Message from server: STATUS
  @ DRIVER MODE: Message from server: INIT
  @ DRIVER MODE: Receiving replica           0          -1
  @ DRIVER MODE: Receiving encoded integer          25
  @ DRIVER MODE:  SCF:  T  FORCE:  T  STRESS:  F  VC:  F  ENSEMBLE:  F
  @ DRIVER MODE:  SCF:  T  FORCE:  T  STRESS:  F  VC:  F  ENSEMBLE:  F

     Using Slab Decomposition

     bravais-lattice index     =            0
     lattice parameter (alat)  =       1.8897  a.u.
     unit-cell volume          =    6658.9804 (a.u.)^3
     number of atoms/cell      =           52
     number of atomic types    =            5
     number of electrons       =       394.00
     number of Kohn-Sham states=          207
     kinetic-energy cutoff     =      29.3995  Ry
     charge density cutoff     =     293.9946  Ry
     scf convergence threshold =      7.3E-08
     mixing beta               =       0.0500
     number of iterations used =            8  plain     mixing
     Exchange-correlation= BEEF-VDW
                           (   1   4  43  14   2   0   0)

     celldm(1)=   1.889726  celldm(2)=   0.000000  celldm(3)=   0.000000
     celldm(4)=   0.000000  celldm(5)=   0.000000  celldm(6)=   0.000000

     crystal axes: (cart. coord. in units of alat)
               a(1) = (   6.579727   0.000000   0.000000 )
               a(2) = (  -0.000775   5.961596   0.000000 )
               a(3) = (   0.000000   0.000000  25.155947 )

     reciprocal axes: (cart. coord. in units 2 pi/alat)
               b(1) = (  0.151982  0.000020  0.000000 )
               b(2) = (  0.000000  0.167740  0.000000 )
               b(3) = (  0.000000  0.000000  0.039752 )

     PseudoPot. # 1 for Ti read from file:
     /storage/coda1/p-amedford6/0/shared/rich_project_chbe-medford/medford-share/data/pseudos_module/espresso/nninc/pbe/van/Ti.UPF
     MD5 check sum: 8e4df49b7f0d34bbd5052bf3f5ea0213
     Pseudo is Ultrasoft, Zval = 12.0
     Generated by new atomic code, or converted to UPF format
     Using radial grid of  851 points,  6 beta functions with:
                l(1) =   0
                l(2) =   0
                l(3) =   1
                l(4) =   1
                l(5) =   2
                l(6) =   2
     Q(r) pseudized with  8 coefficients,  rinner =    1.000   1.000   1.000
                                                       1.000   1.000

     PseudoPot. # 2 for O  read from file:
     /storage/coda1/p-amedford6/0/shared/rich_project_chbe-medford/medford-share/data/pseudos_module/espresso/nninc/pbe/van/O.UPF
     MD5 check sum: 78c19812648e8988a0fe644b0f25305e
     Pseudo is Ultrasoft, Zval =  6.0
     Generated by new atomic code, or converted to UPF format
     Using radial grid of  737 points,  4 beta functions with:
                l(1) =   0
                l(2) =   0
                l(3) =   1
                l(4) =   1
     Q(r) pseudized with  8 coefficients,  rinner =    0.800   0.800   0.800

     PseudoPot. # 3 for N  read from file:
     /storage/coda1/p-amedford6/0/shared/rich_project_chbe-medford/medford-share/data/pseudos_module/espresso/nninc/pbe/van/N.UPF
     MD5 check sum: 90d10febe142ad51ac9d5be1deb811c4
     Pseudo is Ultrasoft, Zval =  5.0
     Generated by new atomic code, or converted to UPF format
     Using radial grid of  729 points,  4 beta functions with:
                l(1) =   0
                l(2) =   0
                l(3) =   1
                l(4) =   1
     Q(r) pseudized with  8 coefficients,  rinner =    0.800   0.800   0.800

     PseudoPot. # 4 for C  read from file:
     /storage/coda1/p-amedford6/0/shared/rich_project_chbe-medford/medford-share/data/pseudos_module/espresso/nninc/pbe/van/C.UPF
     MD5 check sum: 1a69bf6b8db32088f5b2163dbdb77a27
     Pseudo is Ultrasoft, Zval =  4.0
     Generated by new atomic code, or converted to UPF format
     Using radial grid of  721 points,  4 beta functions with:
                l(1) =   0
                l(2) =   0
                l(3) =   1
                l(4) =   1
     Q(r) pseudized with  8 coefficients,  rinner =    0.800   0.800   0.800

     PseudoPot. # 5 for H  read from file:
     /storage/coda1/p-amedford6/0/shared/rich_project_chbe-medford/medford-share/data/pseudos_module/espresso/nninc/pbe/van/H.UPF
     MD5 check sum: b5ee9d7bfd3a09ee7748110bda690ff7
     Pseudo is Ultrasoft, Zval =  1.0
     Generated by new atomic code, or converted to UPF format
     Using radial grid of  615 points,  1 beta functions with:
                l(1) =   0
     Q(r) pseudized with  8 coefficients,  rinner =    0.800

     atomic species   valence    mass     pseudopotential
        Ti1           12.00    47.86700     Ti( 1.00)
        O1             6.00    15.99900     O ( 1.00)
        N1             5.00    14.00700     N ( 1.00)
        C1             4.00    12.01100     C ( 1.00)
        H1             1.00     1.00800     H ( 1.00)

     No symmetry found

   Cartesian axes

     site n.     atom                  positions (alat units)
         1           Ti1 tau(   1) = (   0.0004258   2.9801865   6.0000000  )
         2           Ti1 tau(   2) = (   3.2906075   1.4906267   6.0002472  )
         3           O1  tau(   3) = (   0.0006271   0.0005054   7.9858123  )
         4           O1  tau(   4) = (   3.2906025   0.0005020   7.3038282  )
         5           O1  tau(   5) = (   4.5942328   1.4918067   9.2879030  )
         6           O1  tau(   6) = (   1.9868534   1.4903216   9.2879459  )
         7           Ti1 tau(   7) = (   3.2907910   2.8959150   9.1758416  )
         8           Ti1 tau(   8) = (   0.0015273   1.4827037   9.2680791  )
         9           O1  tau(   9) = (   3.3037365   0.0094216  11.3222111  )
        10           O1  tau(  10) = (   0.0116148   5.9584955  10.6183126  )
        11           O1  tau(  11) = (   1.3152514   1.5075076  12.6320051  )
        12           O1  tau(  12) = (   5.3186361   1.4995162  12.6508707  )
        13           Ti1 tau(  13) = (   6.5540705   2.9956815  12.5884341  )
        14           Ti1 tau(  14) = (   3.2234832   1.4927074  12.4921739  )
        15           O1  tau(  15) = (   0.0610261   5.9052480  14.6017706  )
        16           O1  tau(  16) = (   3.2936532   0.0132264  13.8830087  )
        17           O1  tau(  17) = (   4.5722397   1.5061520  16.0138922  )
        18           O1  tau(  18) = (   2.0767725   1.5295127  16.0808449  )
        19           Ti1 tau(  19) = (   3.3650854   3.0251465  15.6907462  )
        20           Ti1 tau(  20) = (   0.0387768   1.3037779  15.7216176  )
        21           O1  tau(  21) = (   3.2904802   0.0005063   4.7018136  )
        22           O1  tau(  22) = (   0.0189486   0.1070799  17.1824039  )
        23           O1  tau(  23) = (   1.3043587   1.4918075   6.0039043  )
        24           O1  tau(  24) = (   5.2767064   1.4903225   6.0039473  )
        25           Ti1 tau(  25) = (   0.0000382   5.9609847   6.0000000  )
        26           Ti1 tau(  26) = (   3.2902200   4.4714249   6.0002472  )
        27           O1  tau(  27) = (   0.0002396   2.9813036   7.9858123  )
        28           O1  tau(  28) = (   3.2902150   2.9813002   7.3038282  )
        29           O1  tau(  29) = (   4.5938453   4.4726049   9.2879030  )
        30           O1  tau(  30) = (   1.9864658   4.4711199   9.2879459  )
        31           Ti1 tau(  31) = (   3.2891106   5.8743827   9.1763621  )
        32           Ti1 tau(  32) = (   0.0006254   4.4649316   9.2693709  )
        33           O1  tau(  33) = (   3.3043114   2.9829305  11.3227053  )
        34           O1  tau(  34) = (   0.0092240   2.9805883  10.6323155  )
        35           O1  tau(  35) = (   1.3131995   4.4620516  12.6081187  )
        36           O1  tau(  36) = (   5.3117129   4.4692194  12.6284301  )
        37           Ti1 tau(  37) = (   6.5303063   5.9583428  12.5400172  )
        38           Ti1 tau(  38) = (   3.2255477   4.4746212  12.4748647  )
        39           O1  tau(  39) = (   0.0377805   3.0059521  14.8845374  )
        40           O1  tau(  40) = (   3.3120027   2.9986483  13.8863452  )
        41           O1  tau(  41) = (   4.5434534   4.5277214  16.0148975  )
        42           O1  tau(  42) = (   2.1165747   4.4940517  16.0783766  )
        43           Ti1 tau(  43) = (   3.3042555   0.0241951  15.7004812  )
        44           Ti1 tau(  44) = (   0.0495666   4.4505358  16.3362958  )
        45           O1  tau(  45) = (   3.2900926   2.9813045   4.7018136  )
        46           O1  tau(  46) = (   1.3039711   4.4726057   6.0039043  )
        47           O1  tau(  47) = (   5.2763189   4.4711207   6.0039473  )
        48           N1  tau(  48) = (   0.5348212   3.4288502  18.0689430  )
        49           C1  tau(  49) = (   1.3556880   3.0079929  19.2215664  )
        50           H1  tau(  50) = (   1.4862090   3.8900195  19.8496782  )
        51           H1  tau(  51) = (   0.8469181   2.2141957  19.7647163  )
        52           N1  tau(  52) = (   5.9145885   3.2636146  17.9655992  )

     number of k points=    10  Fermi-Dirac smearing, width (Ry)=  0.0073
                       cart. coord. in units 2pi/alat
        k(    1) = (   0.0000000   0.0000000   0.0000000), wk =   0.1250000
        k(    2) = (   0.0000000   0.0419351   0.0000000), wk =   0.2500000
        k(    3) = (   0.0000000  -0.0838702   0.0000000), wk =   0.1250000
        k(    4) = (   0.0379955   0.0000049   0.0000000), wk =   0.2500000
        k(    5) = (   0.0379955   0.0419400   0.0000000), wk =   0.2500000
        k(    6) = (   0.0379955  -0.0838652   0.0000000), wk =   0.2500000
        k(    7) = (   0.0379955  -0.0419301   0.0000000), wk =   0.2500000
        k(    8) = (  -0.0759910  -0.0000099   0.0000000), wk =   0.1250000
        k(    9) = (  -0.0759910   0.0419252   0.0000000), wk =   0.2500000
        k(   10) = (  -0.0759910  -0.0838800   0.0000000), wk =   0.1250000

     Initial potential from superposition of free atoms

     starting charge  377.99917, renormalised to  394.00000

[...]
        36           O1  tau(  36) = (   5.2879964   4.4789765  12.6218845  )
        37           Ti1 tau(  37) = (   6.4678757   5.9542362  12.7238375  )
        38           Ti1 tau(  38) = (   3.1539115   4.4822311  12.4579462  )
        39           O1  tau(  39) = (   6.5493090   2.9827368  14.6440171  )
        40           O1  tau(  40) = (   3.3048279   2.9843390  13.8669668  )
        41           O1  tau(  41) = (   4.4817729   4.4648460  16.0695639  )
        42           O1  tau(  42) = (   2.0343127   4.4622817  15.9680002  )
        43           Ti1 tau(  43) = (   3.2928317   0.0017022  15.6737436  )
        44           Ti1 tau(  44) = (   0.1003420   4.4544278  16.2354356  )
        45           O1  tau(  45) = (   3.2900926   2.9813045   4.7018136  )
        46           O1  tau(  46) = (   1.3039711   4.4726057   6.0039043  )
        47           O1  tau(  47) = (   5.2763189   4.4711207   6.0039473  )
        48           N1  tau(  48) = (   0.6525943   3.5204009  18.1117766  )
        49           C1  tau(  49) = (   1.1595338   3.2078772  19.2500035  )
        50           H1  tau(  50) = (   1.8137122   3.9188555  19.7345521  )
        51           H1  tau(  51) = (   0.9071139   2.2606385  19.7196450  )
        52           N1  tau(  52) = (   6.4279627   2.8377325  17.3607980  )

     number of k points=    10  Fermi-Dirac smearing, width (Ry)=  0.0073
                       cart. coord. in units 2pi/alat
        k(    1) = (   0.0000000   0.0000000   0.0000000), wk =   0.1250000
        k(    2) = (   0.0000000   0.0419351   0.0000000), wk =   0.2500000
        k(    3) = (   0.0000000  -0.0838702   0.0000000), wk =   0.1250000
        k(    4) = (   0.0379955   0.0000049   0.0000000), wk =   0.2500000
        k(    5) = (   0.0379955   0.0419400   0.0000000), wk =   0.2500000
        k(    6) = (   0.0379955  -0.0838652   0.0000000), wk =   0.2500000
        k(    7) = (   0.0379955  -0.0419301   0.0000000), wk =   0.2500000
        k(    8) = (  -0.0759910  -0.0000099   0.0000000), wk =   0.1250000
        k(    9) = (  -0.0759910   0.0419252   0.0000000), wk =   0.2500000
        k(   10) = (  -0.0759910  -0.0838800   0.0000000), wk =   0.1250000

     Initial potential from superposition of free atoms

     starting charge  377.99917, renormalised to  394.00000

[...]

     %%%%%%%%%%%%%%%%%%%%%%%%%%%%%%%%%%%%%%%%%%%%%%%%%%%%%%%%%%%%%%%%%%%%%%%%
     %                                                                      %
     % You are using vdW-DF, which was implemented by the Thonhauser group. %
     % Please cite the following two papers that made this development      %
     % possible and the two reviews that describe the various versions:     %
     %                                                                      %
     %   T. Thonhauser et al., PRL 115, 136402 (2015).                      %
     %   T. Thonhauser et al., PRB 76, 125112 (2007).                       %
     %   K. Berland et al., Rep. Prog. Phys. 78, 066501 (2015).             %
     %   D.C. Langreth et al., J. Phys.: Condens. Matter 21, 084203 (2009). %
     %                                                                      %
     %                                                                      %
     % If you are calculating the stress with vdW-DF, please also cite:     %
     %                                                                      %
     %   R. Sabatini et al., J. Phys.: Condens. Matter 24, 424209 (2012).   %
     %                                                                      %
     %%%%%%%%%%%%%%%%%%%%%%%%%%%%%%%%%%%%%%%%%%%%%%%%%%%%%%%%%%%%%%%%%%%%%%%%

[...]

     Starting wfcs are  298 atomic wfcs
  @ DRIVER MODE: Message from server: STATUS
  @ DRIVER MODE: Message from server: POSDATA
  @ DRIVER MODE: Reading and sharing cell
  @ DRIVER MODE: Reading and sharing positions
  @ DRIVER MODE: Received positions

[...]

     iteration #  4     ecut=    29.40 Ry     beta= 0.05
     Davidson diagonalization with overlap
     c_bands:  1 eigenvalues not converged
     ethr =  9.57E-08,  avg # of iterations =  8.1

[...]

     Self-consistent Calculation

[...]

     total energy              =   -2937.87548776 Ry
     estimated scf accuracy    <       0.00000026 Ry

     iteration # 26     ecut=    29.40 Ry     beta= 0.05
     Davidson diagonalization with overlap
     ethr =  2.92E-11,  avg # of iterations =  6.2

[...]

     End of self-consistent calculation

[...]

          k = 0.0380-0.0419 0.0000 ( 17876 PWs)   bands (ev):

[...]

          k =-0.0760-0.0839 0.0000 ( 17948 PWs)   bands (ev):

   -56.6335 -56.6327 -55.8427 -55.8356 -55.8308 -55.8296 -55.7677 -55.7647
   -55.6012 -55.5721 -55.4620 -55.4068 -55.3343 -55.3342 -55.0590 -54.8094
   -32.9154 -32.9142 -32.8994 -32.8989 -32.7755 -32.7747 -32.1595 -32.1571
   -32.1463 -32.1411 -32.1389 -32.1384 -32.0717 -32.0704 -32.0414 -32.0406
   -32.0322 -32.0300 -32.0270 -32.0237 -32.0225 -32.0192 -31.9718 -31.9666
   -31.9418 -31.9251 -31.8853 -31.8654 -31.8018 -31.7934 -31.7744 -31.7459
   -31.6975 -31.6765 -31.6763 -31.6482 -31.6369 -31.5921 -31.5614 -31.5612
   -31.5223 -31.5223 -31.4057 -31.3129 -31.2734 -31.1784 -31.0715 -31.0071
   -18.0185 -16.1974 -16.1938 -16.1568 -16.1562 -15.9508 -15.9462 -15.9018
   -15.8963 -15.7644 -15.7585 -15.5333 -15.5326 -15.5140 -15.4993 -15.4184
   -15.4066 -15.3853 -15.3733 -15.3461 -15.3301 -15.2151 -15.1988 -15.1591
   -15.1179 -14.8348 -14.7663 -14.7060 -14.5841 -14.4754 -13.8428 -13.8427
   -12.1544  -6.5556  -4.5281  -4.3494  -3.3263  -3.3225  -3.2523  -3.2452
    -3.2278  -3.1945  -3.1926  -3.0207  -3.0191  -3.0178  -3.0174  -2.8411
    -2.8400  -2.8214  -2.8057  -2.6989  -2.6834  -2.6663  -2.6480  -2.5956
    -2.5757  -2.5340  -2.5281  -2.5197  -2.5010  -2.4765  -2.4211  -2.4174
    -2.3582  -2.3338  -2.2340  -2.1892  -2.1875  -2.1623  -2.1281  -2.0469
    -2.0107  -1.8593  -1.8518  -1.7846  -1.7840  -1.6854  -1.6257  -1.5926
    -1.5321  -1.4948  -1.4849  -1.4213  -1.3496  -1.3375  -1.2625  -1.2496
    -1.2282  -1.1164  -1.0934  -1.0340  -0.9589  -0.9214  -0.8677  -0.8613
    -0.8434  -0.8306  -0.7980  -0.7407  -0.6718  -0.6394  -0.5865  -0.5481
    -0.5158  -0.4529  -0.3896  -0.3226  -0.2268  -0.1758  -0.1694  -0.1178
    -0.1040   0.0830   0.0925   0.1660   0.3330   0.4105   0.4993   0.5188
     0.5838   0.7213   0.7412   0.7520   0.7872   0.9772   1.0245   1.0750
     1.0753   1.0772   1.0973   1.8483   2.1225   3.1781   3.1790   3.2425
     3.2432   3.5649   3.5688   3.6737   3.6796   3.6938   3.6977

     the Fermi energy is     2.4926 ev

!    total energy              =   -2937.87548821 Ry
     estimated scf accuracy    <       0.00000004 Ry
     smearing contrib. (-TS)   =      -0.00676312 Ry
     internal energy E=F+TS    =   -2937.86872509 Ry

     The total energy is F=E-TS. E is the sum of the following terms:
     one-electron contribution =  -24389.66977624 Ry
     hartree contribution      =   12281.84831951 Ry
     xc contribution           =    -484.38159905 Ry
     ewald contribution        =    9654.33404289 Ry
     electric field correction =       0.00028779 Ry

     convergence has been achieved in  26 iterations

     Forces acting on atoms (cartesian axes, Ry/au):

     atom    1 type  1   force =    -0.00001415   -0.00038896    0.12095206
     atom    2 type  1   force =    -0.00006527   -0.00059405   -0.16254011
     atom    3 type  2   force =     0.00018848   -0.00020526   -0.06339892
     atom    4 type  2   force =    -0.00005654   -0.00047388    0.03045517
     atom    5 type  2   force =    -0.01676310    0.00082192   -0.00760540
     atom    6 type  2   force =     0.01809392    0.00143706   -0.00860968
     atom    7 type  1   force =     0.00080609   -0.00400322    0.01549050
     atom    8 type  1   force =    -0.00025386    0.00469671    0.10597027
     atom    9 type  2   force =    -0.00027743   -0.00003472    0.00043974
     atom   10 type  2   force =    -0.00274899    0.00065071   -0.06142944
     atom   11 type  2   force =     0.00054270    0.00022052   -0.00014622
     atom   12 type  2   force =    -0.00023782    0.00013174   -0.00024702
     atom   13 type  1   force =     0.00028614   -0.00010181    0.00046890
     atom   14 type  1   force =    -0.00004770    0.00050363    0.00042589
     atom   15 type  2   force =    -0.00000124    0.00033794    0.00002821
     atom   16 type  2   force =     0.00008218   -0.00021200   -0.00061156
     atom   17 type  2   force =     0.00016001    0.00007349    0.00005866
     atom   18 type  2   force =     0.00004562    0.00013940   -0.00000101
     atom   19 type  1   force =     0.00028466   -0.00028472    0.00004173
     atom   20 type  1   force =     0.00014395   -0.00040782   -0.00036922
     atom   21 type  2   force =     0.00005708    0.00005324    0.10010593
     atom   22 type  2   force =    -0.00011902    0.00064931   -0.00059353
     atom   23 type  2   force =    -0.07806104    0.00003883   -0.03197800
     atom   24 type  2   force =     0.07793384    0.00045655   -0.03198066
     atom   25 type  1   force =     0.00008361   -0.00039290    0.12054465
     atom   26 type  1   force =    -0.00011303   -0.00034913   -0.16267228
     atom   27 type  2   force =     0.00029652   -0.00046104   -0.06247427
     atom   28 type  2   force =    -0.00002734   -0.00027876    0.03031166
     atom   29 type  2   force =    -0.01725284    0.00115592   -0.00752406
     atom   30 type  2   force =     0.01853816    0.00141508   -0.00849370
     atom   31 type  1   force =     0.00072484   -0.00086904    0.01496929
     atom   32 type  1   force =    -0.00023115   -0.00735051    0.10670998
     atom   33 type  2   force =     0.00011000    0.00048595    0.00049829
     atom   34 type  2   force =    -0.00267798   -0.00007164   -0.07484342
     atom   35 type  2   force =     0.00064903   -0.00004619   -0.00000340
     atom   36 type  2   force =    -0.00049624    0.00022560   -0.00012189
     atom   37 type  1   force =    -0.00017211    0.00060188    0.00057819
     atom   38 type  1   force =    -0.00019474    0.00050326    0.00043476
     atom   39 type  2   force =    -0.00016912    0.00000366    0.00000296
     atom   40 type  2   force =     0.00015424    0.00004464   -0.00013317
     atom   41 type  2   force =    -0.00030192   -0.00042117    0.00052331
     atom   42 type  2   force =     0.00050143   -0.00015985   -0.00020526
     atom   43 type  1   force =    -0.00018329   -0.00042914    0.00000528
     atom   44 type  1   force =    -0.00004974    0.00013458   -0.00030809
     atom   45 type  2   force =     0.00004981    0.00004651    0.10012204
     atom   46 type  2   force =    -0.07805673    0.00009114   -0.03194068
     atom   47 type  2   force =     0.07793706    0.00053648   -0.03195875
     atom   48 type  3   force =     0.00108493    0.00083446    0.00006226
     atom   49 type  4   force =     0.00030785    0.00017378   -0.00004467
     atom   50 type  5   force =     0.00058270    0.00124032   -0.00009278
     atom   51 type  5   force =    -0.00024629    0.00018235    0.00097064
     atom   52 type  3   force =    -0.00082617   -0.00035086    0.00015681

     Total force =     0.417581     Total SCF correction =     0.000612
  @ DRIVER MODE: Message from server: STATUS
  @ DRIVER MODE: Message from server: GETFORCE
  @ DRIVER MODE: Returning v,forces,stress,ensemble

     Writing output data file ./calc.save/
  @ DRIVER MODE: Message from server: STATUS
  @ DRIVER MODE: Message from server: INIT
  @ DRIVER MODE: Receiving replica           0           0
  @ DRIVER MODE: Receiving encoded integer           2
  @ DRIVER MODE:  SCF:  T  FORCE:  T  STRESS:  F  VC:  F  ENSEMBLE:  F
  @ DRIVER MODE:  SCF:  F  FORCE:  F  STRESS:  F  VC:  F  ENSEMBLE:  T
  @ DRIVER MODE: Message from server: STATUS
  @ DRIVER MODE: Message from server: POSDATA
  @ DRIVER MODE: Reading and sharing positions
  @ DRIVER MODE: Received positions
     NEW-OLD atomic charge density approx. for the potential

[...]

     Adding external electric field

     Computed dipole along edir(3) :
        Dipole                0.3905 Ry au,          0.9926 Debye
        Dipole field          0.0007 Ry au,

        Potential amp.       -0.0683 Ry
        Total length         46.3494 bohr

  @ DRIVER MODE: BEEF-vdw

[...]

     negative rho (up, down):  1.678E-02 0.000E+00

     negative rho (up, down):  1.678E-02 0.000E+00
 BEEFens 2000 ensemble energies
             -0.347504069983795E+02
             -0.202777823960625E+01
             -0.716550900668702E+01
              0.241201410718895E+02
             -0.119362211762143E+02
             -0.924600686893746E+01
             -0.240815204837702E+02
             -0.504071489353286E+02
             -0.215258422655662E+02
             -0.226886307608872E+02
             -0.210582448396385E+02
              0.423656934905327E+01
              0.200026324820918E+01
             -0.103734083451062E+01
              0.172868103402352E+01
              0.265677910187654E+02
             -0.102446117555757E+02
             -0.726159852297853E+01
              0.117974152646270E+02
             -0.620586201914827E+02
              0.311214714096737E+02
             -0.133785674586786E+02
             -0.240882530291702E+01
             -0.560503577840321E+01
             -0.100822002607191E+01
             -0.214176129871628E+01
              0.481339185995047E+02
             -0.150446665876804E+02
             -0.402110210006930E+01
             -0.304583826920683E+02
              0.393946298561610E+02
             -0.438271938247249E+01
             -0.214280304076422E+02
              0.112566655501782E+02
             -0.205458328041738E+01
              0.130484438553558E+02
             -0.556794303525464E+00
              0.273899737026727E+01
              0.189775824913315E+02
             -0.547897462670924E+02
              0.305121560267249E+02
              0.813941720366924E+01
             -0.624300847300799E+01
             -0.175220380372592E+02
              0.691710235561683E+01
             -0.109379006852711E+02
              0.249603046923720E+02
              0.199402010933266E+02
             -0.128748386084250E+02
             -0.164219817320125E+02
             -0.173742113569242E+02
             -0.208315574536644E+02
              0.105651974193914E+02
             -0.271511894137878E+02
              0.829844390381425E+01
              0.346782120803001E+02
              0.399769195906270E+02
              0.186227037893940E+02
              0.831437759398170E+01
              0.173593132294290E+02
[...]
             -0.408979289073386E+02
              0.276357669711837E+01
             -0.146257084395138E+01
             -0.569574569837965E+01
              0.573811530321677E-01
             -0.364225368607693E+02
             -0.705984628727661E+01
              0.491750854433255E+01
              0.741124925032852E+01
              0.272880860093640E+02
             -0.238577906463498E+02
              0.311402499874383E+02
             -0.222867931648700E+02
              0.143055477201893E+02
              0.225472848990335E+02

 BEEF-vdW xc energy contributions
           1 :   -410.461226013379
           2 :    357.803362330420
           3 :   -272.740692013590
           4 :    183.797279821382
           5 :   -113.788480834933
           6 :    71.8566288463396
           7 :   -54.3181921688961
           8 :    51.1041419844265
           9 :   -52.7224123788433
          10 :    53.9092288877920
          11 :   -53.4425187412905
          12 :    51.8908203939492
          13 :   -49.6750180543896
          14 :    46.5356273458908
          15 :   -42.1162635043688
          16 :    36.6438434907341
          17 :   -31.0513803850661
          18 :    26.5105211534450
          19 :   -23.8231853778140
          20 :    23.0872571460983
          21 :   -23.7975497898973
          22 :    25.1984392289780
          23 :   -26.6099009924584
          24 :    27.5514762006866
          25 :   -27.7151174542199
          26 :    26.9190739346192
          27 :   -25.1324610207619
          28 :    22.5483218145001
          29 :   -19.6204864132234
          30 :    16.9697649244668
          31 :   -48.2489089259625
          32 :   -32.8089202439969
  @ DRIVER MODE: Message from server: STATUS
  @ DRIVER MODE: Message from server: GETFORCE
  @ DRIVER MODE: Returning v,forces,stress,ensemble
  @ DRIVE MODE: Returning Ensemble Energies

     Writing output data file ./calc.save/
  @ DRIVER MODE: Message from server: EXIT
  @ DRIVE MODE: Exiting

     General routines

     Parallel routines

   This run was terminated on:  11:48:59  17Aug2021

   JOB DONE.