     Program PWSCF v.6.7GPU starts on 23Sep2021 at 11:37:28

     R & G space division:  proc/nbgrp/npool/nimage =       8
     Reading input from /storage/home/hcoda1/3/ntian30/research/carbon/CxH_vib/H2O_calc/ads_slab/CH2OHO_c/out_0034/pw.inp
Warning: card &CELL ignored
Warning: card   CELL_DYNAMICS='IPI', ignored
Warning: card / ignored

     Current dimensions of program PWSCF are:
     Max number of different atomic species (ntypx) = 10
     Max number of k-points (npk) =  40000
     Max angular momentum in pseudopotentials (lmaxx) =  3
     Presently no symmetry can be used with electric field

     Message from routine cell_base_init:
     DEPRECATED: use true lattice parameter, not A to a.u. conversion factor

     IMPORTANT: XC functional enforced from input :
     Exchange-correlation= BEEF-VDW
                           (   1   4  43  14   2   0   0)
     Any further DFT definition will be discarded
     Please, verify this is what you really want

  @ DRIVER MODE: Connecting to
 qe_1139763_2941011.sched-torque.pace.gatech.edu1e7xz0xr_scratch
  using UNIX socket
  @ DRIVER MODE: Message from server: STATUS
  @ DRIVER MODE: Message from server: INIT
  @ DRIVER MODE: Receiving replica           0          -1
  @ DRIVER MODE: Receiving encoded integer          25
  @ DRIVER MODE:  SCF:  T  FORCE:  T  STRESS:  F  VC:  F  ENSEMBLE:  F
  @ DRIVER MODE:  SCF:  T  FORCE:  T  STRESS:  F  VC:  F  ENSEMBLE:  F

     Using Slab Decomposition

     bravais-lattice index     =            0
     lattice parameter (alat)  =       1.8897  a.u.
     unit-cell volume          =    6658.9804 (a.u.)^3
     number of atoms/cell      =           53
     number of atomic types    =            4
     number of electrons       =       397.00
     number of Kohn-Sham states=          208
     kinetic-energy cutoff     =      29.3995  Ry
     charge density cutoff     =     293.9946  Ry
     scf convergence threshold =      7.3E-08
     mixing beta               =       0.0500
     number of iterations used =            8  plain     mixing
     Exchange-correlation= BEEF-VDW
                           (   1   4  43  14   2   0   0)

     celldm(1)=   1.889726  celldm(2)=   0.000000  celldm(3)=   0.000000
     celldm(4)=   0.000000  celldm(5)=   0.000000  celldm(6)=   0.000000

     crystal axes: (cart. coord. in units of alat)
               a(1) = (   6.579727   0.000000   0.000000 )
               a(2) = (  -0.000775   5.961596   0.000000 )
               a(3) = (   0.000000   0.000000  25.155947 )

     reciprocal axes: (cart. coord. in units 2 pi/alat)
               b(1) = (  0.151982  0.000020  0.000000 )
               b(2) = (  0.000000  0.167740  0.000000 )
               b(3) = (  0.000000  0.000000  0.039752 )

     PseudoPot. # 1 for O  read from file:
     /storage/coda1/p-amedford6/0/shared/rich_project_chbe-medford/medford-share/data/pseudos_module/espresso/nninc/pbe/van/O.UPF
     MD5 check sum: 78c19812648e8988a0fe644b0f25305e
     Pseudo is Ultrasoft, Zval =  6.0
     Generated by new atomic code, or converted to UPF format
     Using radial grid of  737 points,  4 beta functions with:
                l(1) =   0
                l(2) =   0
                l(3) =   1
                l(4) =   1
     Q(r) pseudized with  8 coefficients,  rinner =    0.800   0.800   0.800

     PseudoPot. # 2 for Ti read from file:
     /storage/coda1/p-amedford6/0/shared/rich_project_chbe-medford/medford-share/data/pseudos_module/espresso/nninc/pbe/van/Ti.UPF
     MD5 check sum: 8e4df49b7f0d34bbd5052bf3f5ea0213
     Pseudo is Ultrasoft, Zval = 12.0
     Generated by new atomic code, or converted to UPF format
     Using radial grid of  851 points,  6 beta functions with:
                l(1) =   0
                l(2) =   0
                l(3) =   1
                l(4) =   1
                l(5) =   2
                l(6) =   2
     Q(r) pseudized with  8 coefficients,  rinner =    1.000   1.000   1.000
                                                       1.000   1.000

     PseudoPot. # 3 for C  read from file:
     /storage/coda1/p-amedford6/0/shared/rich_project_chbe-medford/medford-share/data/pseudos_module/espresso/nninc/pbe/van/C.UPF
     MD5 check sum: 1a69bf6b8db32088f5b2163dbdb77a27
     Pseudo is Ultrasoft, Zval =  4.0
     Generated by new atomic code, or converted to UPF format
     Using radial grid of  721 points,  4 beta functions with:
                l(1) =   0
                l(2) =   0
                l(3) =   1
                l(4) =   1
     Q(r) pseudized with  8 coefficients,  rinner =    0.800   0.800   0.800

     PseudoPot. # 4 for H  read from file:
     /storage/coda1/p-amedford6/0/shared/rich_project_chbe-medford/medford-share/data/pseudos_module/espresso/nninc/pbe/van/H.UPF
     MD5 check sum: b5ee9d7bfd3a09ee7748110bda690ff7
     Pseudo is Ultrasoft, Zval =  1.0
     Generated by new atomic code, or converted to UPF format
     Using radial grid of  615 points,  1 beta functions with:
                l(1) =   0
     Q(r) pseudized with  8 coefficients,  rinner =    0.800

     atomic species   valence    mass     pseudopotential
        O1             6.00    15.99900     O ( 1.00)
        Ti1           12.00    47.86700     Ti( 1.00)
        C1             4.00    12.01100     C ( 1.00)
        H1             1.00     1.00800     H ( 1.00)

     No symmetry found

   Cartesian axes

     site n.     atom                  positions (alat units)
         1           O1  tau(   1) = (   3.2904802   0.0005063   4.7018136  )
         2           O1  tau(   2) = (   3.2900926   2.9813045   4.7018136  )
         3           Ti1 tau(   3) = (   0.0004258   2.9801865   6.0000000  )
         4           Ti1 tau(   4) = (   0.0000382   5.9609847   6.0000000  )
         5           Ti1 tau(   5) = (   3.2906075   1.4906267   6.0002472  )
         6           Ti1 tau(   6) = (   3.2902200   4.4714249   6.0002472  )
         7           O1  tau(   7) = (   1.3043587   1.4918075   6.0039043  )
         8           O1  tau(   8) = (   1.3039711   4.4726057   6.0039043  )
         9           O1  tau(   9) = (   5.2767064   1.4903225   6.0039473  )
        10           O1  tau(  10) = (   5.2763189   4.4711207   6.0039473  )
        11           O1  tau(  11) = (   3.2906025   0.0005020   7.3038282  )
        12           O1  tau(  12) = (   3.2902150   2.9813002   7.3038282  )
        13           O1  tau(  13) = (   0.0006271   0.0005054   7.9858123  )
        14           O1  tau(  14) = (   0.0002396   2.9813036   7.9858123  )
        15           Ti1 tau(  15) = (   3.3202697   0.0919879   9.1698383  )
        16           Ti1 tau(  16) = (   3.3215697   3.0759731   9.1987478  )
        17           Ti1 tau(  17) = (   0.0419684   4.5271873   9.2680259  )
        18           Ti1 tau(  18) = (   0.0391189   1.6041453   9.3419098  )
        19           O1  tau(  19) = (   4.5942328   1.4918067   9.2879030  )
        20           O1  tau(  20) = (   4.5938453   4.4726049   9.2879030  )
        21           O1  tau(  21) = (   1.9868534   1.4903216   9.2879459  )
        22           O1  tau(  22) = (   1.9864658   4.4711199   9.2879459  )
        23           O1  tau(  23) = (   0.0125722   0.0097687  10.5830051  )
        24           O1  tau(  24) = (   0.0081120   2.9918398  10.5664780  )
        25           O1  tau(  25) = (   3.3077729   2.9680546  11.3050536  )
        26           O1  tau(  26) = (   3.3059260   0.0232323  11.3367354  )
        27           Ti1 tau(  27) = (   0.0233359   0.0627999  12.4784840  )
        28           Ti1 tau(  28) = (   3.3058864   4.6637881  12.6801991  )
        29           Ti1 tau(  29) = (   3.3037148   1.5793570  12.4293313  )
        30           Ti1 tau(  30) = (   0.0089448   3.0481173  12.7472709  )
        31           O1  tau(  31) = (   1.2933882   4.4692258  12.6303221  )
        32           O1  tau(  32) = (   1.2985301   1.4993897  12.6236677  )
        33           O1  tau(  33) = (   5.3274268   4.4793405  12.6275207  )
        34           O1  tau(  34) = (   5.3265499   1.4915365  12.6220616  )
        35           O1  tau(  35) = (   3.3295878   2.9786622  13.8932268  )
        36           O1  tau(  36) = (   3.3104420   5.9098017  13.9586718  )
        37           O1  tau(  37) = (   0.0385923   0.0024916  14.6531765  )
        38           O1  tau(  38) = (   0.0086518   2.9873893  14.7004014  )
        39           Ti1 tau(  39) = (   3.3201234   2.9526136  15.6695435  )
        40           Ti1 tau(  40) = (   3.4185286   5.9334276  16.2343674  )
        41           Ti1 tau(  41) = (   0.1049196   4.5923083  15.9423708  )
        42           Ti1 tau(  42) = (   0.0892020   1.3980244  15.8930203  )
        43           O1  tau(  43) = (   4.5900789   4.4270775  16.0984088  )
        44           O1  tau(  44) = (   4.5919070   1.5192920  16.0669747  )
        45           O1  tau(  45) = (   2.0372030   1.5514537  16.0349210  )
        46           O1  tau(  46) = (   2.0392294   4.4021701  16.0428288  )
        47           O1  tau(  47) = (   0.0638787   0.0130652  17.1658208  )
        48           O1  tau(  48) = (   6.5756481   2.9829514  17.4361268  )
        49           C1  tau(  49) = (   6.2652767   2.9703434  18.6584371  )
        50           H1  tau(  50) = (   6.1492679   3.9148029  19.1865895  )
        51           H1  tau(  51) = (   6.0998186   2.0156765  19.1535163  )
        52           O1  tau(  52) = (   3.1909063   0.0039016  18.0657888  )
        53           H1  tau(  53) = (   2.2823347   0.1253277  18.3895531  )

     number of k points=    10  Fermi-Dirac smearing, width (Ry)=  0.0073
                       cart. coord. in units 2pi/alat
        k(    1) = (   0.0000000   0.0000000   0.0000000), wk =   0.1250000
        k(    2) = (   0.0000000   0.0419351   0.0000000), wk =   0.2500000
        k(    3) = (   0.0000000  -0.0838702   0.0000000), wk =   0.1250000
        k(    4) = (   0.0379955   0.0000049   0.0000000), wk =   0.2500000
        k(    5) = (   0.0379955   0.0419400   0.0000000), wk =   0.2500000
        k(    6) = (   0.0379955  -0.0838652   0.0000000), wk =   0.2500000
        k(    7) = (   0.0379955  -0.0419301   0.0000000), wk =   0.2500000
        k(    8) = (  -0.0759910  -0.0000099   0.0000000), wk =   0.1250000
        k(    9) = (  -0.0759910   0.0419252   0.0000000), wk =   0.2500000
        k(   10) = (  -0.0759910  -0.0838800   0.0000000), wk =   0.1250000

     Initial potential from superposition of free atoms

     starting charge  380.99918, renormalised to  397.00000

     negative rho (up, down):  1.768E-02 0.000E+00

     %%%%%%%%%%%%%%%%%%%%%%%%%%%%%%%%%%%%%%%%%%%%%%%%%%%%%%%%%%%%%%%%%%%%%%%%
     %                                                                      %
     % You are using vdW-DF, which was implemented by the Thonhauser group. %
     % Please cite the following two papers that made this development      %
     % possible and the two reviews that describe the various versions:     %
     %                                                                      %
     %   T. Thonhauser et al., PRL 115, 136402 (2015).                      %
     %   T. Thonhauser et al., PRB 76, 125112 (2007).                       %
     %   K. Berland et al., Rep. Prog. Phys. 78, 066501 (2015).             %
     %   D.C. Langreth et al., J. Phys.: Condens. Matter 21, 084203 (2009). %
     %                                                                      %
     %                                                                      %
     % If you are calculating the stress with vdW-DF, please also cite:     %
     %                                                                      %
     %   R. Sabatini et al., J. Phys.: Condens. Matter 24, 424209 (2012).   %
     %                                                                      %
     %%%%%%%%%%%%%%%%%%%%%%%%%%%%%%%%%%%%%%%%%%%%%%%%%%%%%%%%%%%%%%%%%%%%%%%%

     Adding external electric field

     Computed dipole along edir(3) :
        Dipole               -8.4002 Ry au,        -21.3511 Debye
        Dipole field         -0.0159 Ry au,

        Potential amp.        1.4695 Ry
        Total length         46.3494 bohr

     Starting wfcs are  299 atomic wfcs
  @ DRIVER MODE: Message from server: STATUS
  @ DRIVER MODE: Message from server: POSDATA
  @ DRIVER MODE: Reading and sharing cell
  @ DRIVER MODE: Reading and sharing positions
  @ DRIVER MODE: Received positions

     Self-consistent Calculation

     iteration #  1     ecut=    29.40 Ry     beta= 0.05
     Davidson diagonalization with overlap
     c_bands:  1 eigenvalues not converged
     c_bands:  1 eigenvalues not converged
     c_bands:  1 eigenvalues not converged
     c_bands:  1 eigenvalues not converged
     ethr =  1.00E-05,  avg # of iterations = 18.2

[...]

     total energy              =   -2610.75460973 Ry
     estimated scf accuracy    <    3908.86708548 Ry

     iteration #  2     ecut=    29.40 Ry     beta= 0.05
     Davidson diagonalization with overlap
     ethr =  1.00E-02,  avg # of iterations = 23.6

[...]

     iteration # 53     ecut=    29.40 Ry     beta= 0.05
     Davidson diagonalization with overlap
     c_bands:  1 eigenvalues not converged
     c_bands:  1 eigenvalues not converged
     ethr =  3.57E-09,  avg # of iterations = 14.3

[...]

     total energy              =   -2963.78475803 Ry
     estimated scf accuracy    <       0.00000007 Ry

     iteration # 66     ecut=    29.40 Ry     beta= 0.05
     Davidson diagonalization with overlap
     ethr =  1.88E-11,  avg # of iterations =  7.8

     negative rho (up, down):  1.717E-02 0.000E+00

     Adding external electric field

     Computed dipole along edir(3) :
        Dipole                0.8857 Ry au,          2.2512 Debye
        Dipole field          0.0017 Ry au,

        Potential amp.       -0.1549 Ry
        Total length         46.3494 bohr

     End of self-consistent calculation

          k = 0.0000 0.0000 0.0000 ( 18029 PWs)   bands (ev):

   -55.9291 -55.8880 -55.7859 -55.7083 -55.6744 -55.6678 -55.6569 -55.6019
   -55.5650 -55.5447 -55.5230 -55.4867 -55.4657 -55.3740 -54.7735 -54.7395
   -32.3813 -32.2485 -32.2231 -32.1867 -32.1856 -32.1362 -32.1246 -32.0877
   -32.0676 -32.0155 -32.0120 -32.0044 -31.9999 -31.9931 -31.9741 -31.9571
   -31.9405 -31.9296 -31.8876 -31.8840 -31.8704 -31.8542 -31.8501 -31.8377
   -31.8099 -31.8061 -31.7782 -31.7714 -31.7692 -31.7588 -31.7469 -31.7412
   -31.7358 -31.7247 -31.7011 -31.6884 -31.6830 -31.6578 -31.6389 -31.6209
   -31.5800 -31.5788 -31.1759 -31.1001 -31.0768 -30.9930 -30.9071 -30.7957
   -20.2069 -16.5652 -16.4238 -16.2525 -16.0621 -15.9680 -15.9062 -15.6921
   -15.6375 -15.5393 -15.4182 -15.3832 -15.3390 -15.3124 -15.2944 -15.2800
   -15.2634 -15.2446 -15.2116 -15.1902 -15.1845 -15.1406 -15.0720 -15.0258
   -15.0175 -14.9777 -14.9187 -14.8770 -14.8395 -14.7998 -14.6230 -13.2744
   -13.1606  -9.4685  -5.7810  -5.7248  -4.1585  -3.7943  -3.7674  -3.7370
    -3.6513  -3.6131  -3.5086  -3.3440  -3.1625  -3.0345  -2.9450  -2.9269
    -2.8881  -2.7753  -2.7245  -2.6927  -2.6489  -2.6201  -2.6015  -2.5596
    -2.5370  -2.4965  -2.4637  -2.4356  -2.3443  -2.3372  -2.2766  -2.2159
    -2.1830  -2.1745  -2.1692  -2.1458  -2.1107  -2.0562  -2.0207  -1.9862
    -1.9484  -1.8307  -1.8135  -1.7974  -1.7255  -1.4837  -1.3534  -1.3133
    -1.2592  -1.2168  -1.1935  -1.1687  -1.1633  -1.1443  -1.1118  -1.0620
    -0.9592  -0.9007  -0.8308  -0.8247  -0.8082  -0.7455  -0.6658  -0.5948
    -0.5562  -0.5262  -0.5023  -0.4273  -0.4266  -0.3529  -0.3225  -0.2504
    -0.1364  -0.0885  -0.0648  -0.0465  -0.0337   0.0199   0.0663   0.1343
     0.1536   0.1698   0.1982   0.2779   0.2875   0.3100   0.3292   0.4252
     0.4892   0.4976   0.5663   0.6576   0.6907   0.7739   0.9017   0.9780
     1.2239   1.2484   1.3336   1.4639   1.8099   1.8539   3.2864   3.3573
     3.3945   3.4954   3.5782   3.5977   3.6758   3.7356   3.8232   3.8669

[...]

          k = 0.0380-0.0419 0.0000 ( 17876 PWs)   bands (ev):

[...]

          k =-0.0760-0.0000 0.0000 ( 17886 PWs)   bands (ev):

[...]

          k =-0.0760-0.0839 0.0000 ( 17948 PWs)   bands (ev):

   -55.9202 -55.8968 -55.7849 -55.6949 -55.6876 -55.6653 -55.6507 -55.6080
   -55.5658 -55.5468 -55.5116 -55.4982 -55.4626 -55.3770 -54.7569 -54.7559
   -32.2172 -32.2063 -32.1866 -32.1805 -32.1586 -32.0590 -32.0469 -32.0441
   -32.0301 -32.0179 -32.0108 -32.0030 -32.0011 -31.9558 -31.9502 -31.9230
   -31.9060 -31.9039 -31.8979 -31.8847 -31.8817 -31.8762 -31.8736 -31.8671
   -31.8571 -31.8438 -31.8207 -31.8114 -31.8037 -31.8008 -31.7732 -31.7627
   -31.7513 -31.7308 -31.7271 -31.7256 -31.7216 -31.7197 -31.6814 -31.6612
   -31.6234 -31.5826 -31.0901 -31.0892 -30.9903 -30.9886 -30.9503 -30.9490
   -20.2011 -16.5303 -15.9357 -15.8811 -15.7311 -15.7045 -15.6607 -15.6062
   -15.5479 -15.5062 -15.4961 -15.4602 -15.4409 -15.4165 -15.3950 -15.3671
   -15.3415 -15.2950 -15.2874 -15.2406 -15.2312 -15.2116 -15.1855 -15.1535
   -15.0998 -15.0866 -15.0668 -15.0348 -15.0138 -14.9250 -14.7598 -13.2641
   -13.2620  -9.4704  -5.7674  -5.7109  -4.1221  -3.7884  -3.1722  -3.0999
    -2.9546  -2.8768  -2.8103  -2.7888  -2.7729  -2.7420  -2.6767  -2.6562
    -2.6014  -2.5966  -2.5882  -2.5780  -2.5639  -2.5211  -2.4920  -2.4768
    -2.4699  -2.4516  -2.4236  -2.4096  -2.3959  -2.3841  -2.3739  -2.3674
    -2.3152  -2.2521  -2.1719  -2.1239  -2.1050  -1.9814  -1.9635  -1.9036
    -1.8907  -1.8834  -1.8520  -1.8481  -1.7754  -1.7207  -1.5665  -1.5502
    -1.5104  -1.4488  -1.4165  -1.3304  -1.3144  -1.2783  -1.2320  -1.2203
    -1.1969  -1.1762  -1.0784  -0.9991  -0.9577  -0.9183  -0.8057  -0.7898
    -0.7747  -0.7109  -0.6890  -0.6795  -0.6713  -0.6069  -0.5451  -0.4971
    -0.4790  -0.4426  -0.4219  -0.3740  -0.3157  -0.2375  -0.1666  -0.0966
    -0.0661   0.0411   0.1166   0.1564   0.2694   0.3255   0.3563   0.3837
     0.4523   0.5080   0.5261   0.6101   0.6801   0.7010   0.7581   0.7913
     0.8306   0.8653   1.6201   1.6330   1.6647   1.6755   3.2496   3.7765
     3.7864   3.8001   3.8189   3.8438   3.8670   3.9531   4.0023   4.0067

     the Fermi energy is     3.2265 ev

!    total energy              =   -2963.78480202 Ry
     estimated scf accuracy    <       0.00000007 Ry
     smearing contrib. (-TS)   =      -0.01873751 Ry
     internal energy E=F+TS    =   -2963.76606451 Ry

     The total energy is F=E-TS. E is the sum of the following terms:
     one-electron contribution =  -24352.10777387 Ry
     hartree contribution      =   12266.17775303 Ry
     xc contribution           =    -489.27347750 Ry
     ewald contribution        =    9611.43595344 Ry
     electric field correction =       0.00148039 Ry

     convergence has been achieved in  66 iterations

     Forces acting on atoms (cartesian axes, Ry/au):

     atom    1 type  1   force =    -0.00006696    0.00012593    0.10167484
     atom    2 type  1   force =    -0.00006623    0.00016050    0.10134759
     atom    3 type  2   force =    -0.00028888   -0.00136594    0.10432730
     atom    4 type  2   force =    -0.00023472    0.00135344    0.11678777
     atom    5 type  2   force =    -0.00033476    0.00599881   -0.16907139
     atom    6 type  2   force =    -0.00007663   -0.00500052   -0.16913426
     atom    7 type  1   force =    -0.07474757    0.00067890   -0.03019585
     atom    8 type  1   force =    -0.07428460   -0.00133062   -0.03019971
     atom    9 type  1   force =     0.07442224    0.00121575   -0.03024438
     atom   10 type  1   force =     0.07409897   -0.00091435   -0.03026368
     atom   11 type  1   force =     0.00083528    0.00105971    0.04727703
     atom   12 type  1   force =     0.00077872    0.00082582    0.04927322
     atom   13 type  1   force =     0.00026595   -0.00562906   -0.03769373
     atom   14 type  1   force =     0.00053950    0.00416571   -0.03208159
     atom   15 type  2   force =    -0.00043992    0.00078379   -0.00016832
     atom   16 type  2   force =    -0.00038898   -0.00082126   -0.00016463
     atom   17 type  2   force =     0.00029786   -0.00004119    0.00051773
     atom   18 type  2   force =     0.00026252    0.00014371    0.00105642
     atom   19 type  1   force =    -0.00989002   -0.00202400    0.00041709
     atom   20 type  1   force =    -0.00987371    0.00492930    0.00133072
     atom   21 type  1   force =     0.01189646   -0.00463124    0.00142271
     atom   22 type  1   force =     0.01107041    0.00174801    0.00190464
     atom   23 type  1   force =    -0.00025061    0.00002846    0.00020805
     atom   24 type  1   force =    -0.00027089    0.00003035   -0.00037777
     atom   25 type  1   force =    -0.00036567   -0.00040388   -0.00038635
     atom   26 type  1   force =    -0.00021325   -0.00006436   -0.00008236
     atom   27 type  2   force =    -0.00032314   -0.00021879   -0.00005012
     atom   28 type  2   force =     0.00016177   -0.00023266    0.00055886
     atom   29 type  2   force =     0.00034675   -0.00041483   -0.00075745
     atom   30 type  2   force =    -0.00016053    0.00029346    0.00011900
     atom   31 type  1   force =     0.00002471    0.00056369    0.00026271
     atom   32 type  1   force =     0.00039658    0.00019048   -0.00004276
     atom   33 type  1   force =    -0.00032343    0.00030704    0.00062763
     atom   34 type  1   force =    -0.00088364    0.00054749    0.00014662
     atom   35 type  1   force =    -0.00046148   -0.00046239   -0.00080160
     atom   36 type  1   force =    -0.00019308   -0.00017908   -0.00002172
     atom   37 type  1   force =    -0.00013625   -0.00037898    0.00037642
     atom   38 type  1   force =     0.00039654    0.00029629    0.00011842
     atom   39 type  2   force =    -0.00000957    0.00027582    0.00066118
     atom   40 type  2   force =    -0.00007824   -0.00053318    0.00032586
     atom   41 type  2   force =    -0.00004607    0.00024803    0.00036499
     atom   42 type  2   force =    -0.00042474   -0.00022865    0.00002782
     atom   43 type  1   force =     0.00015446    0.00002295   -0.00012417
     atom   44 type  1   force =    -0.00041583    0.00007752   -0.00036080
     atom   45 type  1   force =     0.00084364   -0.00006491   -0.00007649
     atom   46 type  1   force =    -0.00041650   -0.00014506   -0.00032296
     atom   47 type  1   force =     0.00027253   -0.00053073    0.00024923
     atom   48 type  1   force =    -0.00020760    0.00021257    0.00022698
     atom   49 type  3   force =    -0.00029590    0.00006146   -0.00015175
     atom   50 type  4   force =    -0.00068387    0.00015909    0.00025694
     atom   51 type  4   force =    -0.00034972   -0.00049454    0.00048358
     atom   52 type  1   force =    -0.00287347    0.00066357    0.00203197
     atom   53 type  4   force =     0.00301158   -0.00105742   -0.00160946

     Total force =     0.368657     Total SCF correction =     0.000794
  @ DRIVER MODE: Message from server: STATUS
  @ DRIVER MODE: Message from server: GETFORCE
  @ DRIVER MODE: Returning v,forces,stress,ensemble

     Writing output data file ./calc.save/
  @ DRIVER MODE: Message from server: EXIT
  @ DRIVE MODE: Exiting

     General routines

     Parallel routines

   This run was terminated on:  11:59:57  23Sep2021

   JOB DONE.