     Program PWSCF v.6.7GPU starts on 14Sep2021 at 18: 0:13

     R & G space division:  proc/nbgrp/npool/nimage =      10
     Reading input from /storage/home/hcoda1/3/ntian30/research/carbon/CxH_vib/CH2_calc/ads_slab/CH2ON2_b/out_0013/pw.inp
Warning: card &CELL ignored
Warning: card   CELL_DYNAMICS='IPI', ignored
Warning: card / ignored

     Current dimensions of program PWSCF are:
     Max number of different atomic species (ntypx) = 10
     Max number of k-points (npk) =  40000
     Max angular momentum in pseudopotentials (lmaxx) =  3
     Presently no symmetry can be used with electric field

     Message from routine cell_base_init:
     DEPRECATED: use true lattice parameter, not A to a.u. conversion factor

     IMPORTANT: XC functional enforced from input :
     Exchange-correlation= BEEF-VDW
                           (   1   4  43  14   2   0   0)
     Any further DFT definition will be discarded
     Please, verify this is what you really want

  @ DRIVER MODE: Connecting to
 qe_1139763_2840441.sched-torque.pace.gatech.edu3gj1z6x0_scratch
  using UNIX socket
  @ DRIVER MODE: Message from server: STATUS
  @ DRIVER MODE: Message from server: INIT
  @ DRIVER MODE: Receiving replica           0          -1
  @ DRIVER MODE: Receiving encoded integer          25
  @ DRIVER MODE:  SCF:  T  FORCE:  T  STRESS:  F  VC:  F  ENSEMBLE:  F
  @ DRIVER MODE:  SCF:  T  FORCE:  T  STRESS:  F  VC:  F  ENSEMBLE:  F

     Using Slab Decomposition

     bravais-lattice index     =            0
     lattice parameter (alat)  =       1.8897  a.u.
     unit-cell volume          =    6658.9804 (a.u.)^3
     number of atoms/cell      =           53
     number of atomic types    =            5
     number of electrons       =       400.00
     number of Kohn-Sham states=          210
     kinetic-energy cutoff     =      29.3995  Ry
     charge density cutoff     =     293.9946  Ry
     scf convergence threshold =      7.3E-08
     mixing beta               =       0.0500
     number of iterations used =            8  plain     mixing
     Exchange-correlation= BEEF-VDW
                           (   1   4  43  14   2   0   0)

     celldm(1)=   1.889726  celldm(2)=   0.000000  celldm(3)=   0.000000
     celldm(4)=   0.000000  celldm(5)=   0.000000  celldm(6)=   0.000000

     crystal axes: (cart. coord. in units of alat)
               a(1) = (   6.579727   0.000000   0.000000 )
               a(2) = (  -0.000775   5.961596   0.000000 )
               a(3) = (   0.000000   0.000000  25.155947 )

     reciprocal axes: (cart. coord. in units 2 pi/alat)
               b(1) = (  0.151982  0.000020  0.000000 )
               b(2) = (  0.000000  0.167740  0.000000 )
               b(3) = (  0.000000  0.000000  0.039752 )

     PseudoPot. # 1 for C  read from file:
     /storage/coda1/p-amedford6/0/shared/rich_project_chbe-medford/medford-share/data/pseudos_module/espresso/nninc/pbe/van/C.UPF
     MD5 check sum: 1a69bf6b8db32088f5b2163dbdb77a27
     Pseudo is Ultrasoft, Zval =  4.0
     Generated by new atomic code, or converted to UPF format
     Using radial grid of  721 points,  4 beta functions with:
                l(1) =   0
                l(2) =   0
                l(3) =   1
                l(4) =   1
     Q(r) pseudized with  8 coefficients,  rinner =    0.800   0.800   0.800

     PseudoPot. # 2 for H  read from file:
     /storage/coda1/p-amedford6/0/shared/rich_project_chbe-medford/medford-share/data/pseudos_module/espresso/nninc/pbe/van/H.UPF
     MD5 check sum: b5ee9d7bfd3a09ee7748110bda690ff7
     Pseudo is Ultrasoft, Zval =  1.0
     Generated by new atomic code, or converted to UPF format
     Using radial grid of  615 points,  1 beta functions with:
                l(1) =   0
     Q(r) pseudized with  8 coefficients,  rinner =    0.800

     PseudoPot. # 3 for O  read from file:
     /storage/coda1/p-amedford6/0/shared/rich_project_chbe-medford/medford-share/data/pseudos_module/espresso/nninc/pbe/van/O.UPF
     MD5 check sum: 78c19812648e8988a0fe644b0f25305e
     Pseudo is Ultrasoft, Zval =  6.0
     Generated by new atomic code, or converted to UPF format
     Using radial grid of  737 points,  4 beta functions with:
                l(1) =   0
                l(2) =   0
                l(3) =   1
                l(4) =   1
     Q(r) pseudized with  8 coefficients,  rinner =    0.800   0.800   0.800

     PseudoPot. # 4 for Ti read from file:
     /storage/coda1/p-amedford6/0/shared/rich_project_chbe-medford/medford-share/data/pseudos_module/espresso/nninc/pbe/van/Ti.UPF
     MD5 check sum: 8e4df49b7f0d34bbd5052bf3f5ea0213
     Pseudo is Ultrasoft, Zval = 12.0
     Generated by new atomic code, or converted to UPF format
     Using radial grid of  851 points,  6 beta functions with:
                l(1) =   0
                l(2) =   0
                l(3) =   1
                l(4) =   1
                l(5) =   2
                l(6) =   2
     Q(r) pseudized with  8 coefficients,  rinner =    1.000   1.000   1.000
                                                       1.000   1.000

     PseudoPot. # 5 for N  read from file:
     /storage/coda1/p-amedford6/0/shared/rich_project_chbe-medford/medford-share/data/pseudos_module/espresso/nninc/pbe/van/N.UPF
     MD5 check sum: 90d10febe142ad51ac9d5be1deb811c4
     Pseudo is Ultrasoft, Zval =  5.0
     Generated by new atomic code, or converted to UPF format
     Using radial grid of  729 points,  4 beta functions with:
                l(1) =   0
                l(2) =   0
                l(3) =   1
                l(4) =   1
     Q(r) pseudized with  8 coefficients,  rinner =    0.800   0.800   0.800

     atomic species   valence    mass     pseudopotential
        C1             4.00    12.01100     C ( 1.00)
        H1             1.00     1.00800     H ( 1.00)
        O1             6.00    15.99900     O ( 1.00)
        Ti1           12.00    47.86700     Ti( 1.00)
        N1             5.00    14.00700     N ( 1.00)

     No symmetry found

   Cartesian axes

     site n.     atom                  positions (alat units)
         1           C1  tau(   1) = (   6.4247902   2.9910588  18.6917704  )
         2           H1  tau(   2) = (   6.3980358   3.9338040  19.2291268  )
         3           H1  tau(   3) = (   6.3671137   2.0386567  19.2103458  )
         4           O1  tau(   4) = (   3.2904802   0.0005063   4.7018136  )
         5           O1  tau(   5) = (   3.2900926   2.9813045   4.7018136  )
         6           O1  tau(   6) = (   1.3043587   1.4918075   6.0039043  )
         7           O1  tau(   7) = (   1.3039711   4.4726057   6.0039043  )
         8           O1  tau(   8) = (   5.2767064   1.4903225   6.0039473  )
         9           O1  tau(   9) = (   5.2763189   4.4711207   6.0039473  )
        10           O1  tau(  10) = (   3.2906025   0.0005020   7.3038282  )
        11           O1  tau(  11) = (   3.2902150   2.9813002   7.3038282  )
        12           O1  tau(  12) = (   0.0006271   0.0005054   7.9858123  )
        13           O1  tau(  13) = (   0.0002396   2.9813036   7.9858123  )
        14           O1  tau(  14) = (   4.5942328   1.4918067   9.2879030  )
        15           O1  tau(  15) = (   4.5938453   4.4726049   9.2879030  )
        16           O1  tau(  16) = (   1.9868534   1.4903216   9.2879459  )
        17           O1  tau(  17) = (   1.9864658   4.4711199   9.2879459  )
        18           O1  tau(  18) = (   0.0058113   2.9878523  10.5832334  )
        19           O1  tau(  19) = (   0.0062988   0.0093020  10.6005518  )
        20           O1  tau(  20) = (   3.2955317   2.9954032  11.3404818  )
        21           O1  tau(  21) = (   3.2944299   0.0136787  11.3445968  )
        22           O1  tau(  22) = (   5.2904553   1.5027675  12.6317203  )
        23           O1  tau(  23) = (   5.2914467   4.4836083  12.6349631  )
        24           O1  tau(  24) = (   1.2933861   1.5040032  12.6362007  )
        25           O1  tau(  25) = (   1.2922507   4.4849626  12.6395598  )
        26           O1  tau(  26) = (   3.2955364   2.9961609  13.9180299  )
        27           O1  tau(  27) = (   3.2969677   0.0155663  13.9438287  )
        28           O1  tau(  28) = (   0.0016464   0.0229801  14.6780835  )
        29           O1  tau(  29) = (   0.0078505   2.9966620  14.7218711  )
        30           O1  tau(  30) = (   4.5417949   4.4807699  16.1031406  )
        31           O1  tau(  31) = (   4.5422182   1.5234006  16.1020929  )
        32           O1  tau(  32) = (   2.0382733   4.4802786  16.1011463  )
        33           O1  tau(  33) = (   2.0385641   1.5240134  16.0993588  )
        34           O1  tau(  34) = (   6.5794991   0.0244991  17.1995468  )
        35           O1  tau(  35) = (   6.5588415   3.0026814  17.4289308  )
        36           Ti1 tau(  36) = (   0.0004258   2.9801865   6.0000000  )
        37           Ti1 tau(  37) = (   0.0000382   5.9609847   6.0000000  )
        38           Ti1 tau(  38) = (   3.2906075   1.4906267   6.0002472  )
        39           Ti1 tau(  39) = (   3.2902200   4.4714249   6.0002472  )
        40           Ti1 tau(  40) = (   3.2947477   0.0499856   9.1537742  )
        41           Ti1 tau(  41) = (   3.3215383   3.0289251   9.1580241  )
        42           Ti1 tau(  42) = (   0.0276872   4.5181110   9.2597866  )
        43           Ti1 tau(  43) = (   0.0223396   1.5961087   9.3523429  )
        44           Ti1 tau(  44) = (   3.3278215   4.4891914  12.4850086  )
        45           Ti1 tau(  45) = (   3.3277968   1.5111787  12.4828596  )
        46           Ti1 tau(  46) = (   0.0250534   0.0277200  12.4935153  )
        47           Ti1 tau(  47) = (   0.0290128   3.0118426  12.7617797  )
        48           Ti1 tau(  48) = (   3.2948489   3.0033751  15.7103116  )
        49           Ti1 tau(  49) = (   3.2995243   0.0226186  15.7353524  )
        50           Ti1 tau(  50) = (   6.5792760   1.4190105  15.9501391  )
        51           Ti1 tau(  51) = (   0.0117608   4.6113996  15.9785021  )
        52           N1  tau(  52) = (   3.7826193   3.0501191  20.3090129  )
        53           N1  tau(  53) = (   2.7364546   2.9530354  19.9655958  )

     number of k points=    10  Fermi-Dirac smearing, width (Ry)=  0.0073
                       cart. coord. in units 2pi/alat
        k(    1) = (   0.0000000   0.0000000   0.0000000), wk =   0.1250000
        k(    2) = (   0.0000000   0.0419351   0.0000000), wk =   0.2500000
        k(    3) = (   0.0000000  -0.0838702   0.0000000), wk =   0.1250000
        k(    4) = (   0.0379955   0.0000049   0.0000000), wk =   0.2500000
        k(    5) = (   0.0379955   0.0419400   0.0000000), wk =   0.2500000
        k(    6) = (   0.0379955  -0.0838652   0.0000000), wk =   0.2500000
        k(    7) = (   0.0379955  -0.0419301   0.0000000), wk =   0.2500000
        k(    8) = (  -0.0759910  -0.0000099   0.0000000), wk =   0.1250000
        k(    9) = (  -0.0759910   0.0419252   0.0000000), wk =   0.2500000
        k(   10) = (  -0.0759910  -0.0838800   0.0000000), wk =   0.1250000

     Initial potential from superposition of free atoms

     starting charge  383.99917, renormalised to  400.00000

     negative rho (up, down):  1.498E-02 0.000E+00

     %%%%%%%%%%%%%%%%%%%%%%%%%%%%%%%%%%%%%%%%%%%%%%%%%%%%%%%%%%%%%%%%%%%%%%%%
     %                                                                      %
     % You are using vdW-DF, which was implemented by the Thonhauser group. %
     % Please cite the following two papers that made this development      %
     % possible and the two reviews that describe the various versions:     %
     %                                                                      %
     %   T. Thonhauser et al., PRL 115, 136402 (2015).                      %
     %   T. Thonhauser et al., PRB 76, 125112 (2007).                       %
     %   K. Berland et al., Rep. Prog. Phys. 78, 066501 (2015).             %
     %   D.C. Langreth et al., J. Phys.: Condens. Matter 21, 084203 (2009). %
     %                                                                      %
     %                                                                      %
     % If you are calculating the stress with vdW-DF, please also cite:     %
     %                                                                      %
     %   R. Sabatini et al., J. Phys.: Condens. Matter 24, 424209 (2012).   %
     %                                                                      %
     %%%%%%%%%%%%%%%%%%%%%%%%%%%%%%%%%%%%%%%%%%%%%%%%%%%%%%%%%%%%%%%%%%%%%%%%

     Adding external electric field

     Computed dipole along edir(3) :
        Dipole              -12.3567 Ry au,        -31.4077 Debye
        Dipole field         -0.0233 Ry au,

        Potential amp.        2.1616 Ry
        Total length         46.3494 bohr

     Starting wfcs are  302 atomic wfcs
  @ DRIVER MODE: Message from server: STATUS
  @ DRIVER MODE: Message from server: POSDATA
  @ DRIVER MODE: Reading and sharing cell
  @ DRIVER MODE: Reading and sharing positions
  @ DRIVER MODE: Received positions

     Self-consistent Calculation

     iteration #  1     ecut=    29.40 Ry     beta= 0.05
     Davidson diagonalization with overlap
     c_bands:  2 eigenvalues not converged
     c_bands:  2 eigenvalues not converged
     c_bands:  2 eigenvalues not converged
     c_bands:  2 eigenvalues not converged
     c_bands:  4 eigenvalues not converged
     c_bands:  2 eigenvalues not converged
     c_bands:  5 eigenvalues not converged
     c_bands:  1 eigenvalues not converged
     c_bands:  3 eigenvalues not converged
     c_bands:  5 eigenvalues not converged
     ethr =  1.00E-05,  avg # of iterations = 22.0

[...]

     total energy              =   -2430.19562915 Ry
     estimated scf accuracy    <    6093.22896148 Ry

     iteration #  2     ecut=    29.40 Ry     beta= 0.05
     Davidson diagonalization with overlap
     ethr =  1.00E-02,  avg # of iterations = 22.0

[...]

     iteration # 77     ecut=    29.40 Ry     beta= 0.05
     Davidson diagonalization with overlap
     c_bands:  1 eigenvalues not converged
     ethr =  3.82E-10,  avg # of iterations = 14.0

[...]

     total energy              =   -2970.35123342 Ry
     estimated scf accuracy    <       0.00000012 Ry

     iteration # 85     ecut=    29.40 Ry     beta= 0.05
     Davidson diagonalization with overlap
     ethr =  2.08E-11,  avg # of iterations = 12.4

     negative rho (up, down):  1.509E-02 0.000E+00

     Adding external electric field

     Computed dipole along edir(3) :
        Dipole                0.9965 Ry au,          2.5328 Debye
        Dipole field          0.0019 Ry au,

        Potential amp.       -0.1743 Ry
        Total length         46.3494 bohr

     End of self-consistent calculation

          k = 0.0000 0.0000 0.0000 ( 18029 PWs)   bands (ev):

   -55.5220 -55.5128 -55.4849 -55.4764 -55.4180 -55.4008 -55.3758 -55.3120
   -55.3059 -55.2964 -55.2933 -55.2600 -55.2415 -55.2166 -54.5470 -54.5129
   -32.0837 -31.9950 -31.8958 -31.8861 -31.8316 -31.8276 -31.8202 -31.8004
   -31.7726 -31.7565 -31.7543 -31.7291 -31.7053 -31.6948 -31.6800 -31.6618
   -31.6469 -31.6464 -31.6370 -31.6167 -31.5972 -31.5929 -31.5844 -31.5791
   -31.5746 -31.5477 -31.5470 -31.5256 -31.5198 -31.5186 -31.4974 -31.4752
   -31.4696 -31.4471 -31.4378 -31.4377 -31.4301 -31.4255 -31.4036 -31.3993
   -31.3940 -31.3863 -30.9570 -30.8595 -30.8373 -30.7737 -30.6876 -30.5763
   -21.4042 -19.7411 -16.3057 -16.0052 -15.8637 -15.7331 -15.6765 -15.5650
   -15.4083 -15.3488 -15.2517 -15.2024 -15.1518 -15.1202 -15.1104 -15.0951
   -15.0712 -15.0551 -15.0521 -14.9844 -14.9734 -14.9372 -14.9241 -14.9236
   -14.8263 -14.7762 -14.7113 -14.6522 -14.5985 -14.5450 -14.5203 -13.0477
   -12.9293  -9.1233  -6.6663  -5.3888  -5.3869  -4.5581  -4.5476  -3.6547
    -3.4763  -3.4337  -3.4271  -3.3716  -3.3620  -3.2636  -3.1451  -3.1089
    -2.8240  -2.7349  -2.7017  -2.6881  -2.6796  -2.5507  -2.4899  -2.3730
    -2.3655  -2.3521  -2.3510  -2.3417  -2.2976  -2.2947  -2.2515  -2.2194
    -2.1341  -2.0737  -1.9640  -1.9531  -1.9277  -1.8659  -1.8321  -1.8095
    -1.8075  -1.7614  -1.7590  -1.7552  -1.7115  -1.6238  -1.5196  -1.4783
    -1.3826  -1.3488  -1.2369  -1.1053  -1.0271  -0.9870  -0.9345  -0.8840
    -0.8777  -0.8545  -0.8428  -0.8217  -0.8060  -0.6905  -0.5758  -0.5733
    -0.4728  -0.4199  -0.3927  -0.3828  -0.2826  -0.2642  -0.2571  -0.1786
    -0.0233  -0.0178  -0.0060   0.1132   0.1413   0.1580   0.2077   0.2302
     0.2707   0.2952   0.3489   0.4049   0.4145   0.4635   0.4722   0.4935
     0.5989   0.6570   0.6641   0.7220   0.7659   0.9515   0.9661   1.1064
     1.1650   1.3810   1.4777   1.5283   1.6468   2.0648   2.1239   3.6382
     3.6735   3.6945   3.7429   3.7753   3.8075   3.8734   4.0804   4.0976
     4.1000   4.1272

[...]

          k = 0.0380-0.0419 0.0000 ( 17876 PWs)   bands (ev):

[...]

          k =-0.0760-0.0000 0.0000 ( 17886 PWs)   bands (ev):

[...]

          k =-0.0760-0.0839 0.0000 ( 17948 PWs)   bands (ev):

   -55.5108 -55.4960 -55.4957 -55.4933 -55.4102 -55.3972 -55.3836 -55.3152
   -55.3018 -55.2904 -55.2771 -55.2766 -55.2476 -55.2200 -54.5304 -54.5294
   -31.8864 -31.8836 -31.8189 -31.8053 -31.8030 -31.8007 -31.7913 -31.7804
   -31.7687 -31.7437 -31.7275 -31.7145 -31.7020 -31.6628 -31.6510 -31.6446
   -31.6395 -31.6346 -31.6290 -31.6250 -31.6134 -31.6071 -31.6046 -31.6012
   -31.5978 -31.5957 -31.5780 -31.5718 -31.5435 -31.5340 -31.5296 -31.5160
   -31.5041 -31.4951 -31.4898 -31.4827 -31.4808 -31.4759 -31.4587 -31.4383
   -31.4276 -31.4140 -30.8505 -30.8493 -30.7703 -30.7695 -30.7312 -30.7303
   -21.4039 -19.7339 -15.7367 -15.7065 -15.6074 -15.4734 -15.4628 -15.4219
   -15.3809 -15.3225 -15.2644 -15.2619 -15.2213 -15.2065 -15.1873 -15.1498
   -15.1191 -15.0750 -15.0625 -15.0565 -15.0453 -14.9904 -14.9837 -14.9440
   -14.9255 -14.9186 -14.8744 -14.8669 -14.7923 -14.7524 -14.7297 -13.0318
   -13.0292  -9.1359  -6.6500  -5.3652  -5.3185  -4.5629  -4.5572  -3.5710
    -3.1697  -3.0262  -2.9901  -2.8313  -2.6953  -2.6847  -2.6300  -2.5399
    -2.5063  -2.4627  -2.4112  -2.3965  -2.3735  -2.3690  -2.3588  -2.3553
    -2.3474  -2.2966  -2.2777  -2.2415  -2.1863  -2.1792  -2.1664  -2.1596
    -2.1165  -2.1006  -2.0932  -2.0870  -2.0811  -2.0080  -1.9504  -1.8720
    -1.7814  -1.7393  -1.7206  -1.6832  -1.6475  -1.6124  -1.5908  -1.5731
    -1.4612  -1.4336  -1.2907  -1.2662  -1.2500  -1.2384  -1.1981  -1.1936
    -1.0611  -0.9839  -0.9730  -0.9505  -0.8947  -0.8617  -0.8172  -0.7913
    -0.7034  -0.6684  -0.6266  -0.5769  -0.4968  -0.4868  -0.4354  -0.4193
    -0.3379  -0.3238  -0.2927  -0.2898  -0.2237  -0.1782  -0.1040  -0.0979
    -0.0713   0.0354   0.0907   0.1047   0.2873   0.4614   0.4741   0.4854
     0.5969   0.6075   0.6528   0.7279   0.7381   0.8224   0.8780   0.9753
     0.9945   1.0041   1.0832   1.8368   1.8378   1.9273   1.9388   3.6351
     3.8542   3.8864   3.9061   3.9588   4.1152   4.1201   4.1331   4.1459
     4.2596   4.2768

     the Fermi energy is     3.6268 ev

!    total energy              =   -2970.35123837 Ry
     estimated scf accuracy    <       0.00000004 Ry
     smearing contrib. (-TS)   =      -0.03416889 Ry
     internal energy E=F+TS    =   -2970.31706948 Ry

     The total energy is F=E-TS. E is the sum of the following terms:
     one-electron contribution =  -23485.56514414 Ry
     hartree contribution      =   11835.41563077 Ry
     xc contribution           =    -491.50755101 Ry
     ewald contribution        =    9171.33812106 Ry
     electric field correction =       0.00187383 Ry

     convergence has been achieved in  85 iterations

     Forces acting on atoms (cartesian axes, Ry/au):

     atom    1 type  1   force =    -0.00024668    0.00010571   -0.00008489
     atom    2 type  2   force =    -0.00035454    0.00078162    0.00028378
     atom    3 type  2   force =     0.00012347   -0.00057205   -0.00029380
     atom    4 type  3   force =    -0.00007108    0.00001895    0.10419904
     atom    5 type  3   force =    -0.00005972   -0.00001334    0.10425810
     atom    6 type  3   force =    -0.06901886    0.00075951   -0.02905582
     atom    7 type  3   force =    -0.06857076   -0.00136089   -0.02905846
     atom    8 type  3   force =     0.06868861    0.00128512   -0.02912706
     atom    9 type  3   force =     0.06834155   -0.00098131   -0.02913640
     atom   10 type  3   force =     0.00016898    0.00038962    0.04598244
     atom   11 type  3   force =     0.00058856    0.00071872    0.04715730
     atom   12 type  3   force =     0.00030738   -0.00528963   -0.03191422
     atom   13 type  3   force =     0.00036258    0.00311476   -0.02589907
     atom   14 type  3   force =    -0.01815301   -0.00007965    0.00387916
     atom   15 type  3   force =    -0.01656897    0.00120867    0.00341738
     atom   16 type  3   force =     0.01841686   -0.00126081    0.00384442
     atom   17 type  3   force =     0.01757355    0.00142083    0.00328395
     atom   18 type  3   force =     0.00002124    0.00030890    0.00041560
     atom   19 type  3   force =     0.00002770   -0.00012156    0.00013690
     atom   20 type  3   force =    -0.00004886    0.00027731    0.00035483
     atom   21 type  3   force =    -0.00007369   -0.00029415   -0.00037707
     atom   22 type  3   force =     0.00034615    0.00030014    0.00034728
     atom   23 type  3   force =     0.00028921   -0.00026986    0.00027705
     atom   24 type  3   force =    -0.00038433    0.00036673    0.00012393
     atom   25 type  3   force =    -0.00026322   -0.00029334    0.00015543
     atom   26 type  3   force =    -0.00006363    0.00013068    0.00031632
     atom   27 type  3   force =    -0.00003237   -0.00008335    0.00020025
     atom   28 type  3   force =    -0.00053350   -0.00002551   -0.00021575
     atom   29 type  3   force =    -0.00023359    0.00020258   -0.00053921
     atom   30 type  3   force =     0.00001891   -0.00041498    0.00019254
     atom   31 type  3   force =     0.00022504    0.00052394    0.00032981
     atom   32 type  3   force =     0.00074820   -0.00053303    0.00013665
     atom   33 type  3   force =     0.00133990    0.00058289    0.00006580
     atom   34 type  3   force =    -0.00053796    0.00000990    0.00087808
     atom   35 type  3   force =    -0.00070197   -0.00055176   -0.00021845
     atom   36 type  4   force =    -0.00024721   -0.00177387    0.10174777
     atom   37 type  4   force =    -0.00008696    0.00134823    0.11449119
     atom   38 type  4   force =    -0.00031033    0.00053785   -0.18032586
     atom   39 type  4   force =    -0.00021440   -0.00040248   -0.18062643
     atom   40 type  4   force =     0.00027128    0.00082350   -0.00111168
     atom   41 type  4   force =     0.00019919   -0.00077652   -0.00089466
     atom   42 type  4   force =    -0.00021615    0.00087696   -0.00020081
     atom   43 type  4   force =    -0.00017269   -0.00020629    0.00001720
     atom   44 type  4   force =     0.00001900   -0.00006597    0.00030760
     atom   45 type  4   force =    -0.00006274    0.00008854    0.00040966
     atom   46 type  4   force =    -0.00009967    0.00049106   -0.00009646
     atom   47 type  4   force =    -0.00018870   -0.00043788    0.00043958
     atom   48 type  4   force =    -0.00283670   -0.00007275    0.00083610
     atom   49 type  4   force =    -0.00283689    0.00008497    0.00023174
     atom   50 type  4   force =     0.00349916    0.00026427   -0.00030834
     atom   51 type  4   force =     0.00081991   -0.00056790   -0.00044855
     atom   52 type  5   force =     0.00107880    0.00042659    0.00132163
     atom   53 type  5   force =    -0.00028609   -0.00099970   -0.00010550

     Total force =     0.374176     Total SCF correction =     0.000635
  @ DRIVER MODE: Message from server: STATUS
  @ DRIVER MODE: Message from server: GETFORCE
  @ DRIVER MODE: Returning v,forces,stress,ensemble

     Writing output data file ./calc.save/
  @ DRIVER MODE: Message from server: EXIT
  @ DRIVE MODE: Exiting

     General routines

     Parallel routines

   This run was terminated on:  18:22:19  14Sep2021

   JOB DONE.