     Program PWSCF v.6.7GPU starts on 26Sep2021 at 18:43: 1

     R & G space division:  proc/nbgrp/npool/nimage =       8
     Reading input from /storage/home/hcoda1/3/ntian30/research/carbon/CxH_vib/CH_calc/ads_slab/CHONHNH2_b/out_0017/pw.inp
Warning: card &CELL ignored
Warning: card   CELL_DYNAMICS='IPI', ignored
Warning: card / ignored

     Current dimensions of program PWSCF are:
     Max number of different atomic species (ntypx) = 10
     Max number of k-points (npk) =  40000
     Max angular momentum in pseudopotentials (lmaxx) =  3
     Presently no symmetry can be used with electric field

     Message from routine cell_base_init:
     DEPRECATED: use true lattice parameter, not A to a.u. conversion factor

     IMPORTANT: XC functional enforced from input :
     Exchange-correlation= BEEF-VDW
                           (   1   4  43  14   2   0   0)
     Any further DFT definition will be discarded
     Please, verify this is what you really want

  @ DRIVER MODE: Connecting to
 qe_1139763_2982672.sched-torque.pace.gatech.edua4ruc2x4_scratch
  using UNIX socket
  @ DRIVER MODE: Message from server: STATUS
  @ DRIVER MODE: Message from server: INIT
  @ DRIVER MODE: Receiving replica           0          -1
  @ DRIVER MODE: Receiving encoded integer          25
  @ DRIVER MODE:  SCF:  T  FORCE:  T  STRESS:  F  VC:  F  ENSEMBLE:  F
  @ DRIVER MODE:  SCF:  T  FORCE:  T  STRESS:  F  VC:  F  ENSEMBLE:  F

     Using Slab Decomposition

     bravais-lattice index     =            0
     lattice parameter (alat)  =       1.8897  a.u.
     unit-cell volume          =    6658.9804 (a.u.)^3
     number of atoms/cell      =           55
     number of atomic types    =            5
     number of electrons       =       402.00
     number of Kohn-Sham states=          211
     kinetic-energy cutoff     =      29.3995  Ry
     charge density cutoff     =     293.9946  Ry
     scf convergence threshold =      7.3E-08
     mixing beta               =       0.0500
     number of iterations used =            8  plain     mixing
     Exchange-correlation= BEEF-VDW
                           (   1   4  43  14   2   0   0)

     celldm(1)=   1.889726  celldm(2)=   0.000000  celldm(3)=   0.000000
     celldm(4)=   0.000000  celldm(5)=   0.000000  celldm(6)=   0.000000

     crystal axes: (cart. coord. in units of alat)
               a(1) = (   6.579727   0.000000   0.000000 )
               a(2) = (  -0.000775   5.961596   0.000000 )
               a(3) = (   0.000000   0.000000  25.155947 )

     reciprocal axes: (cart. coord. in units 2 pi/alat)
               b(1) = (  0.151982  0.000020  0.000000 )
               b(2) = (  0.000000  0.167740  0.000000 )
               b(3) = (  0.000000  0.000000  0.039752 )

     PseudoPot. # 1 for O  read from file:
     /storage/coda1/p-amedford6/0/shared/rich_project_chbe-medford/medford-share/data/pseudos_module/espresso/nninc/pbe/van/O.UPF
     MD5 check sum: 78c19812648e8988a0fe644b0f25305e
     Pseudo is Ultrasoft, Zval =  6.0
     Generated by new atomic code, or converted to UPF format
     Using radial grid of  737 points,  4 beta functions with:
                l(1) =   0
                l(2) =   0
                l(3) =   1
                l(4) =   1
     Q(r) pseudized with  8 coefficients,  rinner =    0.800   0.800   0.800

     PseudoPot. # 2 for Ti read from file:
     /storage/coda1/p-amedford6/0/shared/rich_project_chbe-medford/medford-share/data/pseudos_module/espresso/nninc/pbe/van/Ti.UPF
     MD5 check sum: 8e4df49b7f0d34bbd5052bf3f5ea0213
     Pseudo is Ultrasoft, Zval = 12.0
     Generated by new atomic code, or converted to UPF format
     Using radial grid of  851 points,  6 beta functions with:
                l(1) =   0
                l(2) =   0
                l(3) =   1
                l(4) =   1
                l(5) =   2
                l(6) =   2
     Q(r) pseudized with  8 coefficients,  rinner =    1.000   1.000   1.000
                                                       1.000   1.000

     PseudoPot. # 3 for N  read from file:
     /storage/coda1/p-amedford6/0/shared/rich_project_chbe-medford/medford-share/data/pseudos_module/espresso/nninc/pbe/van/N.UPF
     MD5 check sum: 90d10febe142ad51ac9d5be1deb811c4
     Pseudo is Ultrasoft, Zval =  5.0
     Generated by new atomic code, or converted to UPF format
     Using radial grid of  729 points,  4 beta functions with:
                l(1) =   0
                l(2) =   0
                l(3) =   1
                l(4) =   1
     Q(r) pseudized with  8 coefficients,  rinner =    0.800   0.800   0.800

     PseudoPot. # 4 for H  read from file:
     /storage/coda1/p-amedford6/0/shared/rich_project_chbe-medford/medford-share/data/pseudos_module/espresso/nninc/pbe/van/H.UPF
     MD5 check sum: b5ee9d7bfd3a09ee7748110bda690ff7
     Pseudo is Ultrasoft, Zval =  1.0
     Generated by new atomic code, or converted to UPF format
     Using radial grid of  615 points,  1 beta functions with:
                l(1) =   0
     Q(r) pseudized with  8 coefficients,  rinner =    0.800

     PseudoPot. # 5 for C  read from file:
     /storage/coda1/p-amedford6/0/shared/rich_project_chbe-medford/medford-share/data/pseudos_module/espresso/nninc/pbe/van/C.UPF
     MD5 check sum: 1a69bf6b8db32088f5b2163dbdb77a27
     Pseudo is Ultrasoft, Zval =  4.0
     Generated by new atomic code, or converted to UPF format
     Using radial grid of  721 points,  4 beta functions with:
                l(1) =   0
                l(2) =   0
                l(3) =   1
                l(4) =   1
     Q(r) pseudized with  8 coefficients,  rinner =    0.800   0.800   0.800

     atomic species   valence    mass     pseudopotential
        O1             6.00    15.99900     O ( 1.00)
        Ti1           12.00    47.86700     Ti( 1.00)
        N1             5.00    14.00700     N ( 1.00)
        H1             1.00     1.00800     H ( 1.00)
        C1             4.00    12.01100     C ( 1.00)

     No symmetry found

   Cartesian axes

     site n.     atom                  positions (alat units)
         1           O1  tau(   1) = (   3.2904802   0.0005063   4.7018136  )
         2           O1  tau(   2) = (   3.2900926   2.9813045   4.7018136  )
         3           Ti1 tau(   3) = (   0.0004258   2.9801865   6.0000000  )
         4           Ti1 tau(   4) = (   0.0000382   5.9609847   6.0000000  )
         5           Ti1 tau(   5) = (   3.2906075   1.4906267   6.0002472  )
         6           Ti1 tau(   6) = (   3.2902200   4.4714249   6.0002472  )
         7           O1  tau(   7) = (   1.3043587   1.4918075   6.0039043  )
         8           O1  tau(   8) = (   1.3039711   4.4726057   6.0039043  )
         9           O1  tau(   9) = (   5.2767064   1.4903225   6.0039473  )
        10           O1  tau(  10) = (   5.2763189   4.4711207   6.0039473  )
        11           O1  tau(  11) = (   3.2906025   0.0005020   7.3038282  )
        12           O1  tau(  12) = (   3.2902150   2.9813002   7.3038282  )
        13           O1  tau(  13) = (   0.0006271   0.0005054   7.9858123  )
        14           O1  tau(  14) = (   0.0002396   2.9813036   7.9858123  )
        15           Ti1 tau(  15) = (   3.2907910   2.8959150   9.1758416  )
        16           Ti1 tau(  16) = (   3.2891106   5.8743827   9.1763621  )
        17           Ti1 tau(  17) = (   0.0015273   1.4827037   9.2680791  )
        18           Ti1 tau(  18) = (   0.0006254   4.4649316   9.2693709  )
        19           O1  tau(  19) = (   4.5942328   1.4918067   9.2879030  )
        20           O1  tau(  20) = (   4.5938453   4.4726049   9.2879030  )
        21           O1  tau(  21) = (   1.9868534   1.4903216   9.2879459  )
        22           O1  tau(  22) = (   1.9864658   4.4711199   9.2879459  )
        23           O1  tau(  23) = (   0.0116148   5.9584955  10.6183126  )
        24           O1  tau(  24) = (   0.0092240   2.9805883  10.6323155  )
        25           O1  tau(  25) = (   3.2729272   2.9749101  11.3358637  )
        26           O1  tau(  26) = (   3.2774458   5.9577983  11.3358029  )
        27           Ti1 tau(  27) = (   6.5123228   0.0223980  12.5466522  )
        28           Ti1 tau(  28) = (   6.5139447   2.9993280  12.6164542  )
        29           Ti1 tau(  29) = (   3.1950650   4.4673527  12.4897579  )
        30           Ti1 tau(  30) = (   3.1950454   1.4921031  12.4944583  )
        31           O1  tau(  31) = (   5.2839716   4.4726476  12.6140382  )
        32           O1  tau(  32) = (   1.2968206   4.4781603  12.6268461  )
        33           O1  tau(  33) = (   5.2856119   1.4917077  12.6233973  )
        34           O1  tau(  34) = (   1.2888650   1.4770595  12.6372879  )
        35           O1  tau(  35) = (   3.2788258   2.9629383  13.9230881  )
        36           O1  tau(  36) = (   3.2980453   5.9500611  13.9147740  )
        37           O1  tau(  37) = (   6.5334376   5.9389224  14.6738689  )
        38           O1  tau(  38) = (   6.5776160   3.0156023  14.6540868  )
        39           Ti1 tau(  39) = (   3.2542760   2.9504115  15.7371360  )
        40           Ti1 tau(  40) = (   3.3062714   5.9309079  15.7116640  )
        41           Ti1 tau(  41) = (   6.5650095   1.2976281  16.1142359  )
        42           Ti1 tau(  42) = (   0.0079766   4.4268374  15.8391656  )
        43           O1  tau(  43) = (   2.0280489   1.4492115  16.0660627  )
        44           O1  tau(  44) = (   4.5116609   1.4624326  16.0993158  )
        45           O1  tau(  45) = (   2.0244938   4.4513709  16.0356871  )
        46           O1  tau(  46) = (   4.5113612   4.4342832  16.0730653  )
        47           O1  tau(  47) = (   6.5716746   5.9215154  17.2308814  )
        48           N1  tau(  48) = (   5.9800345   2.9984367  18.5879729  )
        49           H1  tau(  49) = (   4.9797160   2.8240766  18.4383897  )
        50           H1  tau(  50) = (   1.6245422   1.3425840  19.0339533  )
        51           H1  tau(  51) = (   6.0578502   3.9810051  18.8619266  )
        52           N1  tau(  52) = (   2.1403542   1.9713023  19.6616680  )
        53           C1  tau(  53) = (   2.8938676   2.8537551  19.2737185  )
        54           H1  tau(  54) = (   3.3792091   3.5764479  19.9483559  )
        55           O1  tau(  55) = (   6.5521836   2.9666373  17.2729174  )

     number of k points=    10  Fermi-Dirac smearing, width (Ry)=  0.0073
                       cart. coord. in units 2pi/alat
        k(    1) = (   0.0000000   0.0000000   0.0000000), wk =   0.1250000
        k(    2) = (   0.0000000   0.0419351   0.0000000), wk =   0.2500000
        k(    3) = (   0.0000000  -0.0838702   0.0000000), wk =   0.1250000
        k(    4) = (   0.0379955   0.0000049   0.0000000), wk =   0.2500000
        k(    5) = (   0.0379955   0.0419400   0.0000000), wk =   0.2500000
        k(    6) = (   0.0379955  -0.0838652   0.0000000), wk =   0.2500000
        k(    7) = (   0.0379955  -0.0419301   0.0000000), wk =   0.2500000
        k(    8) = (  -0.0759910  -0.0000099   0.0000000), wk =   0.1250000
        k(    9) = (  -0.0759910   0.0419252   0.0000000), wk =   0.2500000
        k(   10) = (  -0.0759910  -0.0838800   0.0000000), wk =   0.1250000

     Initial potential from superposition of free atoms

     starting charge  385.99915, renormalised to  402.00000

     negative rho (up, down):  1.542E-02 0.000E+00

     %%%%%%%%%%%%%%%%%%%%%%%%%%%%%%%%%%%%%%%%%%%%%%%%%%%%%%%%%%%%%%%%%%%%%%%%
     %                                                                      %
     % You are using vdW-DF, which was implemented by the Thonhauser group. %
     % Please cite the following two papers that made this development      %
     % possible and the two reviews that describe the various versions:     %
     %                                                                      %
     %   T. Thonhauser et al., PRL 115, 136402 (2015).                      %
     %   T. Thonhauser et al., PRB 76, 125112 (2007).                       %
     %   K. Berland et al., Rep. Prog. Phys. 78, 066501 (2015).             %
     %   D.C. Langreth et al., J. Phys.: Condens. Matter 21, 084203 (2009). %
     %                                                                      %
     %                                                                      %
     % If you are calculating the stress with vdW-DF, please also cite:     %
     %                                                                      %
     %   R. Sabatini et al., J. Phys.: Condens. Matter 24, 424209 (2012).   %
     %                                                                      %
     %%%%%%%%%%%%%%%%%%%%%%%%%%%%%%%%%%%%%%%%%%%%%%%%%%%%%%%%%%%%%%%%%%%%%%%%

     Adding external electric field

     Computed dipole along edir(3) :
        Dipole              -12.8621 Ry au,        -32.6921 Debye
        Dipole field         -0.0243 Ry au,

        Potential amp.        2.2500 Ry
        Total length         46.3494 bohr

     Starting wfcs are  304 atomic wfcs
  @ DRIVER MODE: Message from server: STATUS
  @ DRIVER MODE: Message from server: POSDATA
  @ DRIVER MODE: Reading and sharing cell
  @ DRIVER MODE: Reading and sharing positions
  @ DRIVER MODE: Received positions

     Self-consistent Calculation

     iteration #  1     ecut=    29.40 Ry     beta= 0.05
     Davidson diagonalization with overlap
     c_bands:  5 eigenvalues not converged
     c_bands:  2 eigenvalues not converged
     c_bands:  2 eigenvalues not converged
     c_bands:  5 eigenvalues not converged
     c_bands:  3 eigenvalues not converged
     c_bands:  3 eigenvalues not converged
     c_bands:  2 eigenvalues not converged
     c_bands:  3 eigenvalues not converged
     c_bands:  1 eigenvalues not converged
     ethr =  1.00E-05,  avg # of iterations = 21.5

[...]

     total energy              =   -2369.76135826 Ry
     estimated scf accuracy    <    6837.12100013 Ry

     iteration #  2     ecut=    29.40 Ry     beta= 0.05
     Davidson diagonalization with overlap
     ethr =  1.00E-02,  avg # of iterations = 22.7

[...]

     iteration # 94     ecut=    29.40 Ry     beta= 0.05
     Davidson diagonalization with overlap
     c_bands:  1 eigenvalues not converged
     ethr =  7.69E-10,  avg # of iterations = 12.8

[...]

     total energy              =   -2972.58421449 Ry
     estimated scf accuracy    <       0.00000012 Ry

     iteration #102     ecut=    29.40 Ry     beta= 0.05
     Davidson diagonalization with overlap
     ethr =  2.87E-11,  avg # of iterations = 11.0

     negative rho (up, down):  1.521E-02 0.000E+00

     Adding external electric field

     Computed dipole along edir(3) :
        Dipole                0.4750 Ry au,          1.2074 Debye
        Dipole field          0.0009 Ry au,

        Potential amp.       -0.0831 Ry
        Total length         46.3494 bohr

     End of self-consistent calculation

          k = 0.0000 0.0000 0.0000 ( 18029 PWs)   bands (ev):

   -55.8942 -55.8743 -55.8601 -55.8362 -55.7547 -55.7348 -55.7196 -55.7056
   -55.6931 -55.6715 -55.6702 -55.6362 -55.5229 -55.3094 -54.8728 -54.8388
   -32.4195 -32.3769 -32.2532 -32.2045 -32.1946 -32.1869 -32.1707 -32.1604
   -32.1375 -32.1047 -32.0593 -32.0488 -32.0464 -32.0438 -32.0282 -32.0074
   -31.9989 -31.9987 -31.9876 -31.9748 -31.9640 -31.9528 -31.9513 -31.9089
   -31.9019 -31.8967 -31.8949 -31.8849 -31.8745 -31.8703 -31.8660 -31.8460
   -31.8365 -31.8233 -31.8124 -31.8023 -31.7822 -31.7600 -31.7286 -31.5795
   -31.5413 -31.5237 -31.2799 -31.1915 -31.1690 -31.0966 -31.0101 -30.8990
   -18.6571 -16.6152 -16.3647 -16.1222 -16.0415 -16.0068 -15.8703 -15.8549
   -15.7325 -15.6216 -15.5272 -15.4516 -15.4321 -15.4308 -15.3912 -15.3793
   -15.3535 -15.3387 -15.3295 -15.3126 -15.2880 -15.2520 -15.2366 -15.2296
   -15.1387 -15.0621 -15.0285 -14.9811 -14.9755 -14.9516 -14.5632 -13.3749
   -13.2585 -12.2297  -8.1047  -5.3098  -4.9552  -4.4947  -3.9894  -3.8506
    -3.8001  -3.7323  -3.6887  -3.5132  -3.4030  -3.1478  -3.0740  -3.0540
    -3.0312  -2.9842  -2.8793  -2.8025  -2.7056  -2.6998  -2.6976  -2.6642
    -2.6546  -2.6376  -2.5954  -2.5756  -2.5080  -2.4364  -2.3990  -2.2932
    -2.2851  -2.2495  -2.2068  -2.1974  -2.1533  -2.1322  -2.1170  -2.1115
    -2.0980  -2.0596  -2.0252  -1.9171  -1.8813  -1.7993  -1.6869  -1.6110
    -1.5027  -1.4853  -1.3661  -1.3599  -1.3296  -1.3205  -1.2867  -1.2367
    -1.1823  -1.0786  -1.0505  -1.0185  -1.0138  -0.9139  -0.8543  -0.8299
    -0.7655  -0.6925  -0.6660  -0.6535  -0.6431  -0.6103  -0.3936  -0.3514
    -0.3319  -0.2999  -0.2532  -0.1991  -0.1617  -0.1142  -0.0745  -0.0087
     0.0007   0.0522   0.0764   0.0896   0.1056   0.1165   0.1329   0.2306
     0.3202   0.3587   0.3799   0.4557   0.4606   0.6329   0.6997   0.7621
     0.8736   1.0757   1.1496   1.2339   1.3417   1.7206   1.7607   1.7664
     3.2348   3.2368   3.3277   3.3700   3.3788   3.4791   3.5315   3.6914
     3.7248   3.7572   3.7943

[...]

          k = 0.0380-0.0419 0.0000 ( 17876 PWs)   bands (ev):

[...]

          k =-0.0760-0.0000 0.0000 ( 17886 PWs)   bands (ev):

[...]

          k =-0.0760-0.0839 0.0000 ( 17948 PWs)   bands (ev):

   -55.8776 -55.8765 -55.8616 -55.8487 -55.7409 -55.7333 -55.7256 -55.7021
   -55.6895 -55.6871 -55.6558 -55.6508 -55.5216 -55.3106 -54.8558 -54.8556
   -32.2299 -32.2167 -32.1926 -32.1918 -32.1728 -32.1717 -32.1231 -32.1147
   -32.0973 -32.0880 -32.0499 -32.0409 -32.0209 -32.0131 -32.0095 -32.0080
   -32.0019 -31.9972 -31.9960 -31.9937 -31.9900 -31.9869 -31.9522 -31.9500
   -31.9440 -31.9276 -31.9206 -31.9115 -31.8898 -31.8886 -31.8862 -31.8854
   -31.8803 -31.8701 -31.8668 -31.8646 -31.8589 -31.7576 -31.7318 -31.6502
   -31.5707 -31.5310 -31.1818 -31.1817 -31.0927 -31.0925 -31.0534 -31.0533
   -18.6419 -16.0341 -16.0127 -15.8719 -15.8495 -15.8130 -15.7734 -15.7615
   -15.6854 -15.6050 -15.5844 -15.5797 -15.4977 -15.4791 -15.4661 -15.4309
   -15.4179 -15.4074 -15.4017 -15.3626 -15.3513 -15.3421 -15.3338 -15.3261
   -15.2491 -15.2132 -15.2083 -15.1932 -15.0830 -14.9571 -14.7396 -13.3604
   -13.3601 -12.2423  -8.1048  -5.3051  -4.9607  -4.4200  -3.3206  -3.2880
    -3.1068  -3.0236  -3.0081  -2.9903  -2.8787  -2.8036  -2.7976  -2.7614
    -2.7305  -2.7231  -2.7131  -2.7101  -2.6864  -2.6760  -2.6257  -2.6046
    -2.5909  -2.5657  -2.5530  -2.5506  -2.5199  -2.5064  -2.4686  -2.4479
    -2.4279  -2.4165  -2.3949  -2.3263  -2.2090  -2.1272  -2.0957  -2.0364
    -2.0260  -1.9950  -1.9614  -1.9474  -1.9239  -1.8908  -1.8606  -1.7481
    -1.6399  -1.5846  -1.5827  -1.5047  -1.4686  -1.4244  -1.3800  -1.3258
    -1.2927  -1.2816  -1.2326  -1.1704  -1.1526  -1.0786  -1.0354  -1.0049
    -0.9620  -0.9391  -0.8671  -0.8544  -0.8518  -0.8179  -0.7297  -0.7099
    -0.6562  -0.6495  -0.6226  -0.5667  -0.5480  -0.5168  -0.3934  -0.3703
    -0.2449  -0.1783  -0.0882   0.0601   0.0826   0.1766   0.2160   0.2426
     0.3004   0.4024   0.4199   0.4325   0.4515   0.4828   0.5126   0.6357
     0.6498   0.6843   0.8044   1.5133   1.5138   1.5858   1.5864   1.6075
     3.2210   3.5671   3.5738   3.5940   3.6213   3.7537   3.7557   3.7737
     3.7751   3.9092   3.9263

     the Fermi energy is     3.2384 ev

!    total energy              =   -2972.58421750 Ry
     estimated scf accuracy    <       0.00000004 Ry
     smearing contrib. (-TS)   =      -0.03079829 Ry
     internal energy E=F+TS    =   -2972.55341920 Ry

     The total energy is F=E-TS. E is the sum of the following terms:
     one-electron contribution =  -23745.36050402 Ry
     hartree contribution      =   11963.96906867 Ry
     xc contribution           =    -493.06754069 Ry
     ewald contribution        =    9301.90513100 Ry
     electric field correction =       0.00042583 Ry

     convergence has been achieved in 102 iterations

     Forces acting on atoms (cartesian axes, Ry/au):

     atom    1 type  1   force =     0.00004255   -0.00002777    0.10325265
     atom    2 type  1   force =     0.00004754   -0.00004715    0.10329537
     atom    3 type  2   force =     0.00007510   -0.00021990    0.09623971
     atom    4 type  2   force =    -0.00001826   -0.00029421    0.09603737
     atom    5 type  2   force =     0.00003358   -0.00063389   -0.17557404
     atom    6 type  2   force =    -0.00002081   -0.00025426   -0.17552683
     atom    7 type  1   force =    -0.07152991   -0.00013386   -0.02768082
     atom    8 type  1   force =    -0.07151406   -0.00013382   -0.02765621
     atom    9 type  1   force =     0.07137541    0.00029150   -0.02775041
     atom   10 type  1   force =     0.07136130    0.00030715   -0.02771477
     atom   11 type  1   force =    -0.00005509   -0.00145046    0.05286318
     atom   12 type  1   force =    -0.00002672   -0.00125965    0.05320417
     atom   13 type  1   force =     0.00000643   -0.00000341   -0.02441801
     atom   14 type  1   force =     0.00009931   -0.00022991   -0.02345513
     atom   15 type  2   force =     0.00003022    0.00047806   -0.01064586
     atom   16 type  2   force =     0.00014896    0.00348774   -0.00998592
     atom   17 type  2   force =     0.00069172    0.01062004    0.02593947
     atom   18 type  2   force =     0.00083572   -0.01140502    0.02624905
     atom   19 type  1   force =    -0.01194467   -0.00051992    0.00382167
     atom   20 type  1   force =    -0.01228757   -0.00009466    0.00373540
     atom   21 type  1   force =     0.01290625   -0.00009076    0.00216629
     atom   22 type  1   force =     0.01315057    0.00047454    0.00212139
     atom   23 type  1   force =    -0.00431477    0.00133073   -0.01321930
     atom   24 type  1   force =    -0.00236477    0.00054812   -0.02180647
     atom   25 type  1   force =     0.00024323   -0.00090728    0.00013892
     atom   26 type  1   force =     0.00001830    0.00043798    0.00078440
     atom   27 type  2   force =    -0.00041786    0.00040726   -0.00001624
     atom   28 type  2   force =    -0.00066884   -0.00051901    0.00000169
     atom   29 type  2   force =     0.00098352    0.00002660   -0.00017815
     atom   30 type  2   force =     0.00036655   -0.00073609   -0.00017822
     atom   31 type  1   force =     0.00084180    0.00012180    0.00025439
     atom   32 type  1   force =    -0.00045485   -0.00001658    0.00013795
     atom   33 type  1   force =     0.00040877   -0.00036955   -0.00000789
     atom   34 type  1   force =     0.00126310   -0.00021584    0.00000518
     atom   35 type  1   force =     0.00030723   -0.00030519    0.00014836
     atom   36 type  1   force =     0.00027079    0.00025638   -0.00040953
     atom   37 type  1   force =     0.00019262   -0.00008900   -0.00067304
     atom   38 type  1   force =     0.00019786    0.00013490   -0.00019331
     atom   39 type  2   force =    -0.00076211    0.00027279   -0.00036593
     atom   40 type  2   force =    -0.00066507    0.00000828    0.00049565
     atom   41 type  2   force =     0.00015607   -0.00022016   -0.00039396
     atom   42 type  2   force =     0.00074529   -0.00011492    0.00028821
     atom   43 type  1   force =     0.00032582    0.00026245   -0.00029376
     atom   44 type  1   force =     0.00022195   -0.00002438   -0.00011939
     atom   45 type  1   force =     0.00039664    0.00020924    0.00003022
     atom   46 type  1   force =     0.00007216    0.00046913    0.00015798
     atom   47 type  1   force =     0.00010049   -0.00001439   -0.00017387
     atom   48 type  3   force =    -0.00084069    0.00005835   -0.00102521
     atom   49 type  4   force =     0.00091964    0.00049112    0.00020342
     atom   50 type  4   force =     0.00422461    0.00469063    0.00538987
     atom   51 type  4   force =    -0.00025494    0.00070041   -0.00015704
     atom   52 type  3   force =    -0.00559381   -0.00694096   -0.00619750
     atom   53 type  5   force =     0.00144354    0.00242522    0.00076602
     atom   54 type  4   force =    -0.00065945   -0.00103584   -0.00120266
     atom   55 type  1   force =    -0.00011041   -0.00020253   -0.00070849

     Total force =     0.367571     Total SCF correction =     0.000750
  @ DRIVER MODE: Message from server: STATUS
  @ DRIVER MODE: Message from server: GETFORCE
  @ DRIVER MODE: Returning v,forces,stress,ensemble

     Writing output data file ./calc.save/
  @ DRIVER MODE: Message from server: EXIT
  @ DRIVE MODE: Exiting

     General routines

     Parallel routines

   This run was terminated on:  19:13:56  26Sep2021

   JOB DONE.