     Program PWSCF v.6.7GPU starts on 23Aug2021 at 13: 9:17

     R & G space division:  proc/nbgrp/npool/nimage =       6
     Reading input from /storage/home/hcoda1/3/ntian30/research/carbon/CH2_vib/ads_slab/CH2N2_a/out_0001/pw.inp
Warning: card &CELL ignored
Warning: card   CELL_DYNAMICS='IPI', ignored
Warning: card / ignored

     Current dimensions of program PWSCF are:
     Max number of different atomic species (ntypx) = 10
     Max number of k-points (npk) =  40000
     Max angular momentum in pseudopotentials (lmaxx) =  3
     Presently no symmetry can be used with electric field

     Message from routine cell_base_init:
     DEPRECATED: use true lattice parameter, not A to a.u. conversion factor

     IMPORTANT: XC functional enforced from input :
     Exchange-correlation= BEEF-VDW
                           (   1   4  43  14   2   0   0)
     Any further DFT definition will be discarded
     Please, verify this is what you really want

  @ DRIVER MODE: Connecting to
 qe_1139763_2632803.sched-torque.pace.gatech.edu2_jdi53r_scratch
  using UNIX socket
  @ DRIVER MODE: Message from server: STATUS
  @ DRIVER MODE: Message from server: INIT
  @ DRIVER MODE: Receiving replica           0          -1
  @ DRIVER MODE: Receiving encoded integer          25
  @ DRIVER MODE:  SCF:  T  FORCE:  T  STRESS:  F  VC:  F  ENSEMBLE:  F
  @ DRIVER MODE:  SCF:  T  FORCE:  T  STRESS:  F  VC:  F  ENSEMBLE:  F

     Using Slab Decomposition

     bravais-lattice index     =            0
     lattice parameter (alat)  =       1.8897  a.u.
     unit-cell volume          =    6658.9804 (a.u.)^3
     number of atoms/cell      =           52
     number of atomic types    =            5
     number of electrons       =       394.00
     number of Kohn-Sham states=          207
     kinetic-energy cutoff     =      29.3995  Ry
     charge density cutoff     =     293.9946  Ry
     scf convergence threshold =      7.3E-08
     mixing beta               =       0.0500
     number of iterations used =            8  plain     mixing
     Exchange-correlation= BEEF-VDW
                           (   1   4  43  14   2   0   0)

     celldm(1)=   1.889726  celldm(2)=   0.000000  celldm(3)=   0.000000
     celldm(4)=   0.000000  celldm(5)=   0.000000  celldm(6)=   0.000000

     crystal axes: (cart. coord. in units of alat)
               a(1) = (   6.579727   0.000000   0.000000 )
               a(2) = (  -0.000775   5.961596   0.000000 )
               a(3) = (   0.000000   0.000000  25.155947 )

     reciprocal axes: (cart. coord. in units 2 pi/alat)
               b(1) = (  0.151982  0.000020  0.000000 )
               b(2) = (  0.000000  0.167740  0.000000 )
               b(3) = (  0.000000  0.000000  0.039752 )

     PseudoPot. # 1 for Ti read from file:
     /storage/coda1/p-amedford6/0/shared/rich_project_chbe-medford/medford-share/data/pseudos_module/espresso/nninc/pbe/van/Ti.UPF
     MD5 check sum: 8e4df49b7f0d34bbd5052bf3f5ea0213
     Pseudo is Ultrasoft, Zval = 12.0
     Generated by new atomic code, or converted to UPF format
     Using radial grid of  851 points,  6 beta functions with:
                l(1) =   0
                l(2) =   0
                l(3) =   1
                l(4) =   1
                l(5) =   2
                l(6) =   2
     Q(r) pseudized with  8 coefficients,  rinner =    1.000   1.000   1.000
                                                       1.000   1.000

     PseudoPot. # 2 for O  read from file:
     /storage/coda1/p-amedford6/0/shared/rich_project_chbe-medford/medford-share/data/pseudos_module/espresso/nninc/pbe/van/O.UPF
     MD5 check sum: 78c19812648e8988a0fe644b0f25305e
     Pseudo is Ultrasoft, Zval =  6.0
     Generated by new atomic code, or converted to UPF format
     Using radial grid of  737 points,  4 beta functions with:
                l(1) =   0
                l(2) =   0
                l(3) =   1
                l(4) =   1
     Q(r) pseudized with  8 coefficients,  rinner =    0.800   0.800   0.800

     PseudoPot. # 3 for N  read from file:
     /storage/coda1/p-amedford6/0/shared/rich_project_chbe-medford/medford-share/data/pseudos_module/espresso/nninc/pbe/van/N.UPF
     MD5 check sum: 90d10febe142ad51ac9d5be1deb811c4
     Pseudo is Ultrasoft, Zval =  5.0
     Generated by new atomic code, or converted to UPF format
     Using radial grid of  729 points,  4 beta functions with:
                l(1) =   0
                l(2) =   0
                l(3) =   1
                l(4) =   1
     Q(r) pseudized with  8 coefficients,  rinner =    0.800   0.800   0.800

     PseudoPot. # 4 for C  read from file:
     /storage/coda1/p-amedford6/0/shared/rich_project_chbe-medford/medford-share/data/pseudos_module/espresso/nninc/pbe/van/C.UPF
     MD5 check sum: 1a69bf6b8db32088f5b2163dbdb77a27
     Pseudo is Ultrasoft, Zval =  4.0
     Generated by new atomic code, or converted to UPF format
     Using radial grid of  721 points,  4 beta functions with:
                l(1) =   0
                l(2) =   0
                l(3) =   1
                l(4) =   1
     Q(r) pseudized with  8 coefficients,  rinner =    0.800   0.800   0.800

     PseudoPot. # 5 for H  read from file:
     /storage/coda1/p-amedford6/0/shared/rich_project_chbe-medford/medford-share/data/pseudos_module/espresso/nninc/pbe/van/H.UPF
     MD5 check sum: b5ee9d7bfd3a09ee7748110bda690ff7
     Pseudo is Ultrasoft, Zval =  1.0
     Generated by new atomic code, or converted to UPF format
     Using radial grid of  615 points,  1 beta functions with:
                l(1) =   0
     Q(r) pseudized with  8 coefficients,  rinner =    0.800

     atomic species   valence    mass     pseudopotential
        Ti1           12.00    47.86700     Ti( 1.00)
        O1             6.00    15.99900     O ( 1.00)
        N1             5.00    14.00700     N ( 1.00)
        C1             4.00    12.01100     C ( 1.00)
        H1             1.00     1.00800     H ( 1.00)

     No symmetry found

   Cartesian axes

     site n.     atom                  positions (alat units)
         1           Ti1 tau(   1) = (   0.0004258   2.9801865   6.0000000  )
         2           Ti1 tau(   2) = (   3.2906075   1.4906267   6.0002472  )
         3           O1  tau(   3) = (   0.0006271   0.0005054   7.9858123  )
         4           O1  tau(   4) = (   3.2906025   0.0005020   7.3038282  )
         5           O1  tau(   5) = (   4.5942328   1.4918067   9.2879030  )
         6           O1  tau(   6) = (   1.9868534   1.4903216   9.2879459  )
         7           Ti1 tau(   7) = (   3.2907910   2.8959150   9.1758416  )
         8           Ti1 tau(   8) = (   0.0015273   1.4827037   9.2680791  )
         9           O1  tau(   9) = (   3.2817373   5.9460525  11.2946146  )
        10           O1  tau(  10) = (   0.0116148   5.9584955  10.6183126  )
        11           O1  tau(  11) = (   1.3133758   1.4766388  12.6259016  )
        12           O1  tau(  12) = (   5.2926964   1.4629885  12.6363546  )
        13           Ti1 tau(  13) = (   6.4867702   2.9530348  12.7875790  )
        14           Ti1 tau(  14) = (   3.1556433   1.4654666  12.4614878  )
        15           O1  tau(  15) = (   0.0119351   5.9170239  14.6319389  )
        16           O1  tau(  16) = (   3.2888796   5.9458463  13.8730829  )
        17           O1  tau(  17) = (   4.5050169   1.4765614  15.9709225  )
        18           O1  tau(  18) = (   2.0372034   1.4852366  16.0641042  )
        19           Ti1 tau(  19) = (   3.3196583   2.9724019  15.6708981  )
        20           Ti1 tau(  20) = (   6.5671717   1.4125937  15.9950936  )
        21           O1  tau(  21) = (   3.2904802   0.0005063   4.7018136  )
        22           O1  tau(  22) = (   6.4769187   0.0355975  17.2006351  )
        23           O1  tau(  23) = (   1.3043587   1.4918075   6.0039043  )
        24           O1  tau(  24) = (   5.2767064   1.4903225   6.0039473  )
        25           Ti1 tau(  25) = (   0.0000382   5.9609847   6.0000000  )
        26           Ti1 tau(  26) = (   3.2902200   4.4714249   6.0002472  )
        27           O1  tau(  27) = (   0.0002396   2.9813036   7.9858123  )
        28           O1  tau(  28) = (   3.2902150   2.9813002   7.3038282  )
        29           O1  tau(  29) = (   4.5938453   4.4726049   9.2879030  )
        30           O1  tau(  30) = (   1.9864658   4.4711199   9.2879459  )
        31           Ti1 tau(  31) = (   3.2891106   5.8743827   9.1763621  )
        32           Ti1 tau(  32) = (   0.0006254   4.4649316   9.2693709  )
        33           O1  tau(  33) = (   3.2830713   2.9620590  11.2933342  )
        34           O1  tau(  34) = (   0.0092240   2.9805883  10.6323155  )
        35           O1  tau(  35) = (   1.3110001   4.4530301  12.6158702  )
        36           O1  tau(  36) = (   5.2890030   4.4574094  12.6263766  )
        37           Ti1 tau(  37) = (   6.4749751   5.9256585  12.7408108  )
        38           Ti1 tau(  38) = (   3.1548284   4.4449468  12.4552140  )
        39           O1  tau(  39) = (   6.5563663   2.9679540  14.6355405  )
        40           O1  tau(  40) = (   3.2955455   2.9696487  13.8658995  )
        41           O1  tau(  41) = (   4.4874099   4.4549745  16.0617524  )
        42           O1  tau(  42) = (   2.0361269   4.4599000  15.9844638  )
        43           Ti1 tau(  43) = (   3.2961532   5.9498675  15.6757175  )
        44           Ti1 tau(  44) = (   0.0931452   4.4613781  16.2340760  )
        45           O1  tau(  45) = (   3.2900926   2.9813045   4.7018136  )
        46           O1  tau(  46) = (   1.3039711   4.4726057   6.0039043  )
        47           O1  tau(  47) = (   5.2763189   4.4711207   6.0039473  )
        48           N1  tau(  48) = (   0.6276139   3.5490058  18.1121658  )
        49           C1  tau(  49) = (   1.1877089   3.2859424  19.2441644  )
        50           H1  tau(  50) = (   1.7795953   4.0554207  19.7143479  )
        51           H1  tau(  51) = (   1.0443441   2.3179332  19.7136356  )
        52           N1  tau(  52) = (   6.4637678   2.8186144  17.3583733  )

     number of k points=    10  Fermi-Dirac smearing, width (Ry)=  0.0073
                       cart. coord. in units 2pi/alat
        k(    1) = (   0.0000000   0.0000000   0.0000000), wk =   0.1250000
        k(    2) = (   0.0000000   0.0419351   0.0000000), wk =   0.2500000
        k(    3) = (   0.0000000  -0.0838702   0.0000000), wk =   0.1250000
        k(    4) = (   0.0379955   0.0000049   0.0000000), wk =   0.2500000
        k(    5) = (   0.0379955   0.0419400   0.0000000), wk =   0.2500000
        k(    6) = (   0.0379955  -0.0838652   0.0000000), wk =   0.2500000
        k(    7) = (   0.0379955  -0.0419301   0.0000000), wk =   0.2500000
        k(    8) = (  -0.0759910  -0.0000099   0.0000000), wk =   0.1250000
        k(    9) = (  -0.0759910   0.0419252   0.0000000), wk =   0.2500000
        k(   10) = (  -0.0759910  -0.0838800   0.0000000), wk =   0.1250000

     Initial potential from superposition of free atoms

     starting charge  377.99917, renormalised to  394.00000

     negative rho (up, down):  1.613E-02 0.000E+00

     %%%%%%%%%%%%%%%%%%%%%%%%%%%%%%%%%%%%%%%%%%%%%%%%%%%%%%%%%%%%%%%%%%%%%%%%
     %                                                                      %
     % You are using vdW-DF, which was implemented by the Thonhauser group. %
     % Please cite the following two papers that made this development      %
     % possible and the two reviews that describe the various versions:     %
     %                                                                      %
     %   T. Thonhauser et al., PRL 115, 136402 (2015).                      %
     %   T. Thonhauser et al., PRB 76, 125112 (2007).                       %
     %   K. Berland et al., Rep. Prog. Phys. 78, 066501 (2015).             %
     %   D.C. Langreth et al., J. Phys.: Condens. Matter 21, 084203 (2009). %
     %                                                                      %
     %                                                                      %
     % If you are calculating the stress with vdW-DF, please also cite:     %
     %                                                                      %
     %   R. Sabatini et al., J. Phys.: Condens. Matter 24, 424209 (2012).   %
     %                                                                      %
     %%%%%%%%%%%%%%%%%%%%%%%%%%%%%%%%%%%%%%%%%%%%%%%%%%%%%%%%%%%%%%%%%%%%%%%%

     Adding external electric field

     Computed dipole along edir(3) :
        Dipole               -7.0538 Ry au,        -17.9290 Debye
        Dipole field         -0.0133 Ry au,

        Potential amp.        1.2340 Ry
        Total length         46.3494 bohr

     Starting wfcs are  298 atomic wfcs
  @ DRIVER MODE: Message from server: STATUS
  @ DRIVER MODE: Message from server: POSDATA
  @ DRIVER MODE: Reading and sharing cell
  @ DRIVER MODE: Reading and sharing positions
  @ DRIVER MODE: Received positions

     Self-consistent Calculation

     iteration #  1     ecut=    29.40 Ry     beta= 0.05
     Davidson diagonalization with overlap
     c_bands:  1 eigenvalues not converged
     c_bands:  1 eigenvalues not converged
     c_bands:  1 eigenvalues not converged
     c_bands:  3 eigenvalues not converged
     ethr =  1.00E-05,  avg # of iterations = 18.0

[...]

     total energy              =   -2722.79626518 Ry
     estimated scf accuracy    <    2374.49618011 Ry

[...]

     iteration #  3     ecut=    29.40 Ry     beta= 0.05
     Davidson diagonalization with overlap
     ethr =  1.00E-02,  avg # of iterations = 15.1

[...]

     iteration # 43     ecut=    29.40 Ry     beta= 0.05
     Davidson diagonalization with overlap
     c_bands:  1 eigenvalues not converged
     ethr =  1.21E-07,  avg # of iterations =  4.6

[...]

     total energy              =   -2937.87530214 Ry
     estimated scf accuracy    <       0.00000014 Ry

     iteration # 59     ecut=    29.40 Ry     beta= 0.05
     Davidson diagonalization with overlap
     ethr =  3.54E-11,  avg # of iterations =  5.1

     negative rho (up, down):  1.677E-02 0.000E+00

     Adding external electric field

     Computed dipole along edir(3) :
        Dipole                0.3894 Ry au,          0.9898 Debye
        Dipole field          0.0007 Ry au,

        Potential amp.       -0.0681 Ry
        Total length         46.3494 bohr

     End of self-consistent calculation

          k = 0.0000 0.0000 0.0000 ( 18029 PWs)   bands (ev):

   -56.6472 -56.6135 -55.8572 -55.8458 -55.8220 -55.8129 -55.7867 -55.7511
   -55.6150 -55.5694 -55.4695 -55.4043 -55.3497 -55.3158 -55.0647 -54.8102
   -33.0799 -32.9263 -32.8981 -32.8195 -32.7280 -32.7054 -32.3330 -32.3291
   -32.3208 -32.1419 -32.1152 -32.0807 -32.0709 -32.0563 -32.0539 -32.0317
   -31.9984 -31.9969 -31.9937 -31.9872 -31.9751 -31.9646 -31.9607 -31.9547
   -31.9466 -31.9462 -31.9253 -31.9233 -31.8476 -31.7544 -31.7444 -31.7172
   -31.6857 -31.6747 -31.6618 -31.6448 -31.6281 -31.5945 -31.5725 -31.5626
   -31.4867 -31.4785 -31.3674 -31.3251 -31.2766 -31.1621 -31.0515 -30.9576
   -18.0920 -16.8435 -16.5052 -16.2738 -16.0319 -16.0296 -15.9380 -15.9080
   -15.8994 -15.7943 -15.7389 -15.7084 -15.6217 -15.6117 -15.4527 -15.3771
   -15.3545 -15.3425 -15.2236 -15.1732 -15.1600 -15.1104 -15.0759 -15.0151
   -14.8698 -14.8314 -14.7648 -14.6889 -14.5571 -14.3322 -13.8487 -13.7377
   -12.1414  -6.5670  -4.5444  -4.4107  -4.3982  -3.9840  -3.7881  -3.6695
    -3.5579  -3.5379  -3.5029  -3.2938  -3.2528  -3.2426  -3.1941  -3.1343
    -3.0816  -2.9408  -2.9091  -2.8610  -2.8504  -2.8377  -2.8206  -2.7543
    -2.6579  -2.5296  -2.5003  -2.4863  -2.4597  -2.3762  -2.3632  -2.2854
    -2.2649  -2.2364  -2.2111  -2.1963  -2.0449  -2.0270  -2.0000  -1.9775
    -1.9078  -1.8663  -1.8649  -1.7460  -1.6684  -1.5780  -1.5521  -1.4191
    -1.4116  -1.3702  -1.2964  -1.2753  -1.1819  -1.1352  -1.0671  -1.0473
    -0.9852  -0.9692  -0.8445  -0.8297  -0.8081  -0.7929  -0.6658  -0.6576
    -0.6229  -0.5475  -0.5467  -0.4908  -0.3821  -0.3574  -0.3306  -0.2944
    -0.2657  -0.2218  -0.1599  -0.1444  -0.0957  -0.0607   0.0202   0.1326
     0.1367   0.2193   0.2938   0.3212   0.4147   0.4616   0.5293   0.5961
     0.6210   0.6720   0.6912   0.7095   0.7985   0.8964   0.9086   0.9722
     1.2260   1.2655   1.4499   1.8991   2.2732   2.6175   2.7672   3.0711
     3.2014   3.3056   3.5748   3.6082   3.6088   3.6509   3.7407

[...]

          k = 0.0380-0.0419 0.0000 ( 17876 PWs)   bands (ev):

[...]

          k =-0.0760-0.0000 0.0000 ( 17886 PWs)   bands (ev):

[...]

          k =-0.0760-0.0839 0.0000 ( 17948 PWs)   bands (ev):

   -56.6307 -56.6299 -55.8425 -55.8354 -55.8305 -55.8293 -55.7703 -55.7673
   -55.6067 -55.5775 -55.4645 -55.4092 -55.3327 -55.3326 -55.0635 -54.8113
   -32.9125 -32.9114 -32.8967 -32.8962 -32.7725 -32.7717 -32.1591 -32.1567
   -32.1460 -32.1433 -32.1407 -32.1387 -32.0721 -32.0709 -32.0411 -32.0403
   -32.0320 -32.0299 -32.0273 -32.0247 -32.0233 -32.0215 -31.9743 -31.9692
   -31.9464 -31.9300 -31.8907 -31.8707 -31.8073 -31.7958 -31.7797 -31.7483
   -31.6999 -31.6748 -31.6746 -31.6506 -31.6393 -31.5944 -31.5598 -31.5596
   -31.5207 -31.5207 -31.4101 -31.3176 -31.2780 -31.1821 -31.0752 -31.0074
   -18.0827 -16.1957 -16.1920 -16.1549 -16.1544 -15.9528 -15.9482 -15.9003
   -15.8948 -15.7660 -15.7601 -15.5344 -15.5338 -15.5140 -15.4992 -15.4222
   -15.4103 -15.3864 -15.3742 -15.3495 -15.3331 -15.2178 -15.2016 -15.1642
   -15.1234 -14.8375 -14.7691 -14.7075 -14.5850 -14.4790 -13.8410 -13.8410
   -12.1472  -6.5558  -4.5322  -4.3665  -3.3267  -3.3225  -3.2512  -3.2489
    -3.2434  -3.1958  -3.1935  -3.0216  -3.0190  -3.0167  -3.0155  -2.8410
    -2.8399  -2.8209  -2.8052  -2.6994  -2.6840  -2.6668  -2.6485  -2.5975
    -2.5773  -2.5349  -2.5268  -2.5193  -2.5030  -2.4809  -2.4257  -2.4216
    -2.3620  -2.3377  -2.2394  -2.1893  -2.1878  -2.1641  -2.1295  -2.0510
    -2.0137  -1.8619  -1.8546  -1.7844  -1.7838  -1.6921  -1.6279  -1.5940
    -1.5389  -1.4934  -1.4835  -1.4401  -1.3487  -1.3364  -1.2656  -1.2515
    -1.2305  -1.1184  -1.0956  -1.0368  -0.9614  -0.9243  -0.8689  -0.8628
    -0.8449  -0.8319  -0.7998  -0.7427  -0.6751  -0.6429  -0.5907  -0.5508
    -0.5181  -0.4567  -0.3945  -0.3234  -0.2277  -0.1750  -0.1685  -0.1209
    -0.1066   0.0837   0.0933   0.1626   0.3313   0.4094   0.4977   0.5160
     0.5799   0.7188   0.7386   0.7476   0.7840   0.9760   1.0245   1.0769
     1.0772   1.0785   1.0978   1.8552   2.1269   3.1802   3.1810   3.2444
     3.2451   3.5666   3.5706   3.6740   3.6811   3.6923   3.6949

     the Fermi energy is     2.4958 ev

!    total energy              =   -2937.87536718 Ry
     estimated scf accuracy    <       0.00000007 Ry
     smearing contrib. (-TS)   =      -0.00681690 Ry
     internal energy E=F+TS    =   -2937.86855028 Ry

     The total energy is F=E-TS. E is the sum of the following terms:
     one-electron contribution =  -24389.71144083 Ry
     hartree contribution      =   12281.84167381 Ry
     xc contribution           =    -484.38328738 Ry
     ewald contribution        =    9654.38421793 Ry
     electric field correction =       0.00028620 Ry

     convergence has been achieved in  59 iterations

     Forces acting on atoms (cartesian axes, Ry/au):

     atom    1 type  1   force =    -0.00001959   -0.00038891    0.12091869
     atom    2 type  1   force =    -0.00005699   -0.00059675   -0.16257663
     atom    3 type  2   force =     0.00018586   -0.00020501   -0.06325762
     atom    4 type  2   force =    -0.00005896   -0.00047955    0.03052559
     atom    5 type  2   force =    -0.01678558    0.00082113   -0.00757429
     atom    6 type  2   force =     0.01810987    0.00143946   -0.00857895
     atom    7 type  1   force =     0.00080186   -0.00399837    0.01530540
     atom    8 type  1   force =    -0.00025794    0.00469091    0.10579422
     atom    9 type  2   force =    -0.00029009   -0.00003444    0.00058514
     atom   10 type  2   force =    -0.00275385    0.00064745   -0.06129959
     atom   11 type  2   force =     0.00054006    0.00022280   -0.00010456
     atom   12 type  2   force =    -0.00021486    0.00012529   -0.00019563
     atom   13 type  1   force =     0.00029100   -0.00008358    0.00035260
     atom   14 type  1   force =    -0.00007772    0.00050858    0.00027846
     atom   15 type  2   force =     0.00003980    0.00044734    0.00032203
     atom   16 type  2   force =     0.00006745   -0.00021756   -0.00042831
     atom   17 type  2   force =     0.00010557    0.00004245    0.00003976
     atom   18 type  2   force =    -0.00010931    0.00023384    0.00005415
     atom   19 type  1   force =     0.00034311   -0.00037236   -0.00000669
     atom   20 type  1   force =     0.00000603   -0.00083637   -0.00092996
     atom   21 type  2   force =     0.00005398    0.00005422    0.10011925
     atom   22 type  2   force =    -0.00022654    0.00111449   -0.00063485
     atom   23 type  2   force =    -0.07804639    0.00003299   -0.03199385
     atom   24 type  2   force =     0.07791183    0.00045041   -0.03199475
     atom   25 type  1   force =     0.00008559   -0.00038550    0.12049861
     atom   26 type  1   force =    -0.00011293   -0.00035464   -0.16271758
     atom   27 type  2   force =     0.00029416   -0.00046104   -0.06232796
     atom   28 type  2   force =    -0.00002983   -0.00028146    0.03038604
     atom   29 type  2   force =    -0.01727356    0.00115191   -0.00749773
     atom   30 type  2   force =     0.01855411    0.00141441   -0.00846460
     atom   31 type  1   force =     0.00071724   -0.00085019    0.01479181
     atom   32 type  1   force =    -0.00021939   -0.00735913    0.10654337
     atom   33 type  2   force =     0.00009734    0.00048152    0.00063335
     atom   34 type  2   force =    -0.00267947   -0.00007331   -0.07473249
     atom   35 type  2   force =     0.00064818   -0.00003677    0.00004343
     atom   36 type  2   force =    -0.00047884    0.00023113   -0.00007943
     atom   37 type  1   force =    -0.00013106    0.00061867    0.00040948
     atom   38 type  1   force =    -0.00019790    0.00050798    0.00027358
     atom   39 type  2   force =    -0.00010560   -0.00003430    0.00012368
     atom   40 type  2   force =     0.00014108    0.00004831    0.00003462
     atom   41 type  2   force =    -0.00027598   -0.00043129    0.00057903
     atom   42 type  2   force =     0.00009042   -0.00036590    0.00029159
     atom   43 type  1   force =    -0.00010224   -0.00032548   -0.00000882
     atom   44 type  1   force =    -0.00042538    0.00077126   -0.00120569
     atom   45 type  2   force =     0.00004437    0.00004190    0.10014404
     atom   46 type  2   force =    -0.07804318    0.00009105   -0.03195739
     atom   47 type  2   force =     0.07791520    0.00053084   -0.03197300
     atom   48 type  3   force =     0.01166044    0.00348376    0.01114355
     atom   49 type  4   force =    -0.00399935    0.00131741   -0.00584675
     atom   50 type  5   force =    -0.00009908    0.00154421   -0.00076375
     atom   51 type  5   force =     0.00017741    0.00015680    0.00060879
     atom   52 type  3   force =    -0.00581033   -0.00505061   -0.00364937

     Total force =     0.417896     Total SCF correction =     0.000809
  @ DRIVER MODE: Message from server: STATUS
  @ DRIVER MODE: Message from server: GETFORCE
  @ DRIVER MODE: Returning v,forces,stress,ensemble

     Writing output data file ./calc.save/
  @ DRIVER MODE: Message from server: EXIT
  @ DRIVE MODE: Exiting

     General routines

     Parallel routines

   This run was terminated on:  13:36:56  23Aug2021

   JOB DONE.