     Program PWSCF v.6.7GPU starts on 15Sep2021 at 10: 3: 3

     R & G space division:  proc/nbgrp/npool/nimage =      10
     Reading input from /storage/home/hcoda1/3/ntian30/research/carbon/CxH_vib/CH_calc/ads_slab/CHOH_d/out_0002/pw.inp
Warning: card &CELL ignored
Warning: card   CELL_DYNAMICS='IPI', ignored
Warning: card / ignored

     Current dimensions of program PWSCF are:
     Max number of different atomic species (ntypx) = 10
     Max number of k-points (npk) =  40000
     Max angular momentum in pseudopotentials (lmaxx) =  3
     Presently no symmetry can be used with electric field

     Message from routine cell_base_init:
     DEPRECATED: use true lattice parameter, not A to a.u. conversion factor

     IMPORTANT: XC functional enforced from input :
     Exchange-correlation= BEEF-VDW
                           (   1   4  43  14   2   0   0)
     Any further DFT definition will be discarded
     Please, verify this is what you really want

  @ DRIVER MODE: Connecting to
 qe_1139763_2850204.sched-torque.pace.gatech.eduaepi20bl_scratch
  using UNIX socket
  @ DRIVER MODE: Message from server: STATUS
  @ DRIVER MODE: Message from server: INIT
  @ DRIVER MODE: Receiving replica           0          -1
  @ DRIVER MODE: Receiving encoded integer          25
  @ DRIVER MODE:  SCF:  T  FORCE:  T  STRESS:  F  VC:  F  ENSEMBLE:  F
  @ DRIVER MODE:  SCF:  T  FORCE:  T  STRESS:  F  VC:  F  ENSEMBLE:  F

     Using Slab Decomposition

     bravais-lattice index     =            0
     lattice parameter (alat)  =       1.8897  a.u.
     unit-cell volume          =    6658.9804 (a.u.)^3
     number of atoms/cell      =           51
     number of atomic types    =            4
     number of electrons       =       390.00
     number of Kohn-Sham states=          205
     kinetic-energy cutoff     =      29.3995  Ry
     charge density cutoff     =     293.9946  Ry
     scf convergence threshold =      7.3E-08
     mixing beta               =       0.0500
     number of iterations used =            8  plain     mixing
     Exchange-correlation= BEEF-VDW
                           (   1   4  43  14   2   0   0)

     celldm(1)=   1.889726  celldm(2)=   0.000000  celldm(3)=   0.000000
     celldm(4)=   0.000000  celldm(5)=   0.000000  celldm(6)=   0.000000

     crystal axes: (cart. coord. in units of alat)
               a(1) = (   6.579727   0.000000   0.000000 )
               a(2) = (  -0.000775   5.961596   0.000000 )
               a(3) = (   0.000000   0.000000  25.155947 )

     reciprocal axes: (cart. coord. in units 2 pi/alat)
               b(1) = (  0.151982  0.000020  0.000000 )
               b(2) = (  0.000000  0.167740  0.000000 )
               b(3) = (  0.000000  0.000000  0.039752 )

     PseudoPot. # 1 for Ti read from file:
     /storage/coda1/p-amedford6/0/shared/rich_project_chbe-medford/medford-share/data/pseudos_module/espresso/nninc/pbe/van/Ti.UPF
     MD5 check sum: 8e4df49b7f0d34bbd5052bf3f5ea0213
     Pseudo is Ultrasoft, Zval = 12.0
     Generated by new atomic code, or converted to UPF format
     Using radial grid of  851 points,  6 beta functions with:
                l(1) =   0
                l(2) =   0
                l(3) =   1
                l(4) =   1
                l(5) =   2
                l(6) =   2
     Q(r) pseudized with  8 coefficients,  rinner =    1.000   1.000   1.000
                                                       1.000   1.000

     PseudoPot. # 2 for O  read from file:
     /storage/coda1/p-amedford6/0/shared/rich_project_chbe-medford/medford-share/data/pseudos_module/espresso/nninc/pbe/van/O.UPF
     MD5 check sum: 78c19812648e8988a0fe644b0f25305e
     Pseudo is Ultrasoft, Zval =  6.0
     Generated by new atomic code, or converted to UPF format
     Using radial grid of  737 points,  4 beta functions with:
                l(1) =   0
                l(2) =   0
                l(3) =   1
                l(4) =   1
     Q(r) pseudized with  8 coefficients,  rinner =    0.800   0.800   0.800

     PseudoPot. # 3 for C  read from file:
     /storage/coda1/p-amedford6/0/shared/rich_project_chbe-medford/medford-share/data/pseudos_module/espresso/nninc/pbe/van/C.UPF
     MD5 check sum: 1a69bf6b8db32088f5b2163dbdb77a27
     Pseudo is Ultrasoft, Zval =  4.0
     Generated by new atomic code, or converted to UPF format
     Using radial grid of  721 points,  4 beta functions with:
                l(1) =   0
                l(2) =   0
                l(3) =   1
                l(4) =   1
     Q(r) pseudized with  8 coefficients,  rinner =    0.800   0.800   0.800

     PseudoPot. # 4 for H  read from file:
     /storage/coda1/p-amedford6/0/shared/rich_project_chbe-medford/medford-share/data/pseudos_module/espresso/nninc/pbe/van/H.UPF
     MD5 check sum: b5ee9d7bfd3a09ee7748110bda690ff7
     Pseudo is Ultrasoft, Zval =  1.0
     Generated by new atomic code, or converted to UPF format
     Using radial grid of  615 points,  1 beta functions with:
                l(1) =   0
     Q(r) pseudized with  8 coefficients,  rinner =    0.800

     atomic species   valence    mass     pseudopotential
        Ti1           12.00    47.86700     Ti( 1.00)
        O1             6.00    15.99900     O ( 1.00)
        C1             4.00    12.01100     C ( 1.00)
        H1             1.00     1.00800     H ( 1.00)

     No symmetry found

   Cartesian axes

     site n.     atom                  positions (alat units)
         1           Ti1 tau(   1) = (   0.0004258   2.9801865   6.0000000  )
         2           Ti1 tau(   2) = (   3.2906075   1.4906267   6.0002472  )
         3           O1  tau(   3) = (   0.0006271   0.0005054   7.9858123  )
         4           O1  tau(   4) = (   3.2906025   0.0005020   7.3038282  )
         5           O1  tau(   5) = (   4.5942328   1.4918067   9.2879030  )
         6           O1  tau(   6) = (   1.9868534   1.4903216   9.2879459  )
         7           Ti1 tau(   7) = (   3.2907309   2.9776765   9.1658812  )
         8           Ti1 tau(   8) = (   0.0000975   1.4630848   9.2758602  )
         9           O1  tau(   9) = (   3.2992614   5.9483050  11.3479409  )
        10           O1  tau(  10) = (   0.0007063   5.9515697  10.5933799  )
        11           O1  tau(  11) = (   1.2886368   1.4758772  12.6169360  )
        12           O1  tau(  12) = (   5.2821765   1.4725572  12.6321404  )
        13           Ti1 tau(  13) = (   0.0439011   2.9969894  12.8193871  )
        14           Ti1 tau(  14) = (   3.3815342   1.4778063  12.4828959  )
        15           O1  tau(  15) = (   0.0352585   5.9375929  14.6168471  )
        16           O1  tau(  16) = (   3.2809659   0.0029960  13.9351646  )
        17           O1  tau(  17) = (   4.5639172   1.5021510  16.0678584  )
        18           O1  tau(  18) = (   2.0588050   1.5241738  16.1323679  )
        19           Ti1 tau(  19) = (   3.3289217   2.9983165  15.7225387  )
        20           Ti1 tau(  20) = (   0.0567091   1.5532474  16.1006893  )
        21           O1  tau(  21) = (   3.2904802   0.0005063   4.7018136  )
        22           O1  tau(  22) = (   0.0083150   5.8936170  17.2391820  )
        23           O1  tau(  23) = (   1.3043587   1.4918075   6.0039043  )
        24           O1  tau(  24) = (   5.2767064   1.4903225   6.0039473  )
        25           Ti1 tau(  25) = (   0.0000382   5.9609847   6.0000000  )
        26           Ti1 tau(  26) = (   3.2902200   4.4714249   6.0002472  )
        27           O1  tau(  27) = (   0.0002396   2.9813036   7.9858123  )
        28           O1  tau(  28) = (   3.2902150   2.9813002   7.3038282  )
        29           O1  tau(  29) = (   4.5938453   4.4726049   9.2879030  )
        30           O1  tau(  30) = (   1.9864658   4.4711199   9.2879459  )
        31           Ti1 tau(  31) = (   3.2906741   5.9584693   9.1623309  )
        32           Ti1 tau(  32) = (   0.0020182   4.4105903   9.4029630  )
        33           O1  tau(  33) = (   3.2963946   2.9714859  11.3431964  )
        34           O1  tau(  34) = (  -0.0003580   2.9688738  10.5596877  )
        35           O1  tau(  35) = (   1.2880207   4.4560207  12.6239755  )
        36           O1  tau(  36) = (   5.2744328   4.4398676  12.6388197  )
        37           Ti1 tau(  37) = (   0.0843456   0.0234473  12.6131129  )
        38           Ti1 tau(  38) = (   3.3736736   4.4543396  12.4891683  )
        39           O1  tau(  39) = (   0.0394168   2.9432389  14.6713939  )
        40           O1  tau(  40) = (   3.2833495   2.9670780  13.9230463  )
        41           O1  tau(  41) = (   4.5592427   4.4833083  16.0293399  )
        42           O1  tau(  42) = (   2.0780377   4.4655606  16.1075158  )
        43           Ti1 tau(  43) = (   3.3267552   0.0098278  15.7307941  )
        44           Ti1 tau(  44) = (   0.0353388   4.6693566  15.9825682  )
        45           O1  tau(  45) = (   3.2900926   2.9813045   4.7018136  )
        46           C1  tau(  46) = (   6.5364748   2.8130622  17.7364117  )
        47           O1  tau(  47) = (   1.3039711   4.4726057   6.0039043  )
        48           O1  tau(  48) = (   5.2863189   4.4711207   6.0039473  )
        49           H1  tau(  49) = (   0.8622447   3.0922372  18.2894884  )
        50           O1  tau(  50) = (   5.4077661   2.9637287  18.5068037  )
        51           H1  tau(  51) = (   5.6109787   3.4346953  19.3318178  )

     number of k points=    10  Fermi-Dirac smearing, width (Ry)=  0.0073
                       cart. coord. in units 2pi/alat
        k(    1) = (   0.0000000   0.0000000   0.0000000), wk =   0.1250000
        k(    2) = (   0.0000000   0.0419351   0.0000000), wk =   0.2500000
        k(    3) = (   0.0000000  -0.0838702   0.0000000), wk =   0.1250000
        k(    4) = (   0.0379955   0.0000049   0.0000000), wk =   0.2500000
        k(    5) = (   0.0379955   0.0419400   0.0000000), wk =   0.2500000
        k(    6) = (   0.0379955  -0.0838652   0.0000000), wk =   0.2500000
        k(    7) = (   0.0379955  -0.0419301   0.0000000), wk =   0.2500000
        k(    8) = (  -0.0759910  -0.0000099   0.0000000), wk =   0.1250000
        k(    9) = (  -0.0759910   0.0419252   0.0000000), wk =   0.2500000
        k(   10) = (  -0.0759910  -0.0838800   0.0000000), wk =   0.1250000

     Initial potential from superposition of free atoms

     starting charge  373.99919, renormalised to  390.00000

     negative rho (up, down):  1.918E-02 0.000E+00

     %%%%%%%%%%%%%%%%%%%%%%%%%%%%%%%%%%%%%%%%%%%%%%%%%%%%%%%%%%%%%%%%%%%%%%%%
     %                                                                      %
     % You are using vdW-DF, which was implemented by the Thonhauser group. %
     % Please cite the following two papers that made this development      %
     % possible and the two reviews that describe the various versions:     %
     %                                                                      %
     %   T. Thonhauser et al., PRL 115, 136402 (2015).                      %
     %   T. Thonhauser et al., PRB 76, 125112 (2007).                       %
     %   K. Berland et al., Rep. Prog. Phys. 78, 066501 (2015).             %
     %   D.C. Langreth et al., J. Phys.: Condens. Matter 21, 084203 (2009). %
     %                                                                      %
     %                                                                      %
     % If you are calculating the stress with vdW-DF, please also cite:     %
     %                                                                      %
     %   R. Sabatini et al., J. Phys.: Condens. Matter 24, 424209 (2012).   %
     %                                                                      %
     %%%%%%%%%%%%%%%%%%%%%%%%%%%%%%%%%%%%%%%%%%%%%%%%%%%%%%%%%%%%%%%%%%%%%%%%

     Adding external electric field

     Computed dipole along edir(3) :
        Dipole               -4.8494 Ry au,        -12.3260 Debye
        Dipole field         -0.0092 Ry au,

        Potential amp.        0.8483 Ry
        Total length         46.3494 bohr

     Starting wfcs are  294 atomic wfcs
  @ DRIVER MODE: Message from server: STATUS
  @ DRIVER MODE: Message from server: POSDATA
  @ DRIVER MODE: Reading and sharing cell
  @ DRIVER MODE: Reading and sharing positions
  @ DRIVER MODE: Received positions

     Self-consistent Calculation

     iteration #  1     ecut=    29.40 Ry     beta= 0.05
     Davidson diagonalization with overlap
     c_bands:  4 eigenvalues not converged
     c_bands:  3 eigenvalues not converged
     c_bands:  3 eigenvalues not converged
     c_bands:  2 eigenvalues not converged
     c_bands:  2 eigenvalues not converged
     c_bands:  3 eigenvalues not converged
     c_bands:  1 eigenvalues not converged
     ethr =  1.00E-05,  avg # of iterations = 19.4

[...]

     total energy              =   -2871.15892739 Ry
     estimated scf accuracy    <     674.58843535 Ry

     iteration #  2     ecut=    29.40 Ry     beta= 0.05
     Davidson diagonalization with overlap
     ethr =  1.00E-02,  avg # of iterations = 15.4

[...]

     iteration # 38     ecut=    29.40 Ry     beta= 0.05
     Davidson diagonalization with overlap
     c_bands:  1 eigenvalues not converged
     ethr =  1.11E-06,  avg # of iterations =  5.8

[...]

     total energy              =   -2930.04035818 Ry
     estimated scf accuracy    <       0.00000017 Ry

     iteration # 66     ecut=    29.40 Ry     beta= 0.05
     Davidson diagonalization with overlap
     ethr =  2.46E-11,  avg # of iterations =  6.6

     negative rho (up, down):  1.867E-02 0.000E+00

     Adding external electric field

     Computed dipole along edir(3) :
        Dipole                0.8287 Ry au,          2.1063 Debye
        Dipole field          0.0016 Ry au,

        Potential amp.       -0.1450 Ry
        Total length         46.3494 bohr

     End of self-consistent calculation

          k = 0.0000 0.0000 0.0000 ( 18029 PWs)   bands (ev):

   -56.0398 -56.0040 -55.9827 -55.9465 -55.9030 -55.8342 -55.8334 -55.7442
   -55.7319 -55.7028 -55.6978 -55.5657 -55.1238 -55.0457 -54.9920 -54.9575
   -32.5356 -32.4927 -32.3446 -32.3177 -32.3036 -32.3008 -32.2865 -32.2282
   -32.2113 -32.2028 -32.1985 -32.1823 -32.1650 -32.1552 -32.1325 -32.1265
   -32.1183 -32.1171 -32.1148 -32.0465 -32.0196 -32.0127 -31.9950 -31.9788
   -31.9609 -31.9537 -31.9523 -31.9503 -31.9164 -31.9120 -31.8725 -31.8686
   -31.8269 -31.7793 -31.7628 -31.7535 -31.6115 -31.4949 -31.4101 -31.3988
   -31.3877 -31.3065 -31.2835 -31.2157 -31.1791 -31.1296 -31.0784 -31.0185
   -19.4312 -16.6913 -16.3859 -16.2253 -16.0790 -16.0707 -15.9669 -15.7002
   -15.6374 -15.5245 -15.5169 -15.5137 -15.4832 -15.4701 -15.4518 -15.4322
   -15.4116 -15.3952 -15.3892 -15.3514 -15.3017 -15.2210 -15.2021 -15.1455
   -15.1071 -15.1001 -15.0644 -14.9200 -14.9034 -14.5916 -13.4908 -13.3741
    -8.7991  -5.8876  -4.0595  -3.9047  -3.8751  -3.8540  -3.7367  -3.5022
    -3.4398  -3.1557  -3.1072  -3.1016  -3.0948  -3.0167  -2.9439  -2.8646
    -2.8044  -2.7594  -2.7265  -2.7203  -2.7135  -2.7105  -2.6711  -2.6402
    -2.5644  -2.5166  -2.4371  -2.3886  -2.3693  -2.3395  -2.3378  -2.3152
    -2.2173  -2.2100  -2.1626  -2.1544  -2.0857  -2.0718  -2.0350  -1.9733
    -1.8044  -1.7688  -1.7309  -1.6887  -1.6362  -1.4102  -1.3895  -1.3806
    -1.3543  -1.3215  -1.2731  -1.2575  -1.1283  -1.0939  -1.0426  -1.0149
    -0.9456  -0.9225  -0.8316  -0.8079  -0.7539  -0.7388  -0.7004  -0.6822
    -0.6363  -0.4477  -0.3968  -0.3546  -0.3205  -0.2822  -0.2326  -0.2302
    -0.1669  -0.1236  -0.1111  -0.1039  -0.0084   0.0179   0.0309   0.0505
     0.0577   0.1559   0.1696   0.2398   0.2994   0.4727   0.4768   0.6120
     0.6461   0.6737   0.7009   0.8351   0.9534   1.0331   1.1767   1.2164
     1.6214   1.6903   2.8982   3.1894   3.2643   3.3234   3.3421   3.4224
     3.5746   3.6308   3.6676   3.6909   3.7279

[...]

          k = 0.0380-0.0419 0.0000 ( 17876 PWs)   bands (ev):

[...]

          k =-0.0760-0.0000 0.0000 ( 17886 PWs)   bands (ev):

[...]

          k =-0.0760-0.0839 0.0000 ( 17948 PWs)   bands (ev):

   -56.0275 -56.0161 -55.9664 -55.9626 -55.8984 -55.8378 -55.8310 -55.7473
   -55.7160 -55.7134 -55.7008 -55.5678 -55.1203 -55.0491 -54.9775 -54.9719
   -32.3399 -32.3372 -32.3142 -32.3082 -32.3028 -32.2923 -32.2736 -32.2416
   -32.1933 -32.1901 -32.1868 -32.1663 -32.1614 -32.1578 -32.1555 -32.1248
   -32.1154 -32.0978 -32.0662 -32.0482 -32.0423 -32.0282 -32.0249 -32.0213
   -32.0043 -31.9727 -31.9639 -31.9632 -31.9628 -31.9221 -31.9127 -31.9088
   -31.8870 -31.8777 -31.7923 -31.7690 -31.5313 -31.4934 -31.4064 -31.3899
   -31.2978 -31.2948 -31.2661 -31.2143 -31.2094 -31.1753 -31.1701 -31.0820
   -19.4306 -16.1351 -16.1204 -15.8720 -15.8645 -15.7854 -15.7504 -15.6800
   -15.6787 -15.6621 -15.6461 -15.6107 -15.5731 -15.5333 -15.5136 -15.4985
   -15.4730 -15.4687 -15.4523 -15.4073 -15.3986 -15.2646 -15.2516 -15.2454
   -15.2451 -15.2089 -15.1578 -15.1262 -15.0766 -14.6909 -13.4765 -13.4750
    -8.8056  -5.8960  -3.4289  -3.4140  -3.0978  -3.0926  -3.0238  -2.9884
    -2.9099  -2.8905  -2.8319  -2.8172  -2.7928  -2.7920  -2.7871  -2.7602
    -2.7020  -2.6887  -2.6838  -2.6483  -2.6279  -2.6009  -2.5659  -2.5564
    -2.5497  -2.5345  -2.4990  -2.4805  -2.4730  -2.4598  -2.4459  -2.4372
    -2.3003  -2.1955  -2.1707  -2.1241  -2.0541  -2.0477  -2.0323  -2.0071
    -1.9711  -1.9586  -1.9258  -1.8431  -1.6872  -1.6761  -1.6533  -1.6136
    -1.5075  -1.4646  -1.3734  -1.3012  -1.2507  -1.2184  -1.1722  -1.1580
    -1.1435  -1.1101  -1.0632  -0.9932  -0.9569  -0.9375  -0.9280  -0.9028
    -0.8148  -0.7883  -0.7659  -0.7346  -0.7075  -0.6074  -0.5760  -0.5415
    -0.5111  -0.4761  -0.4182  -0.3940  -0.2918  -0.2896   0.0454   0.0594
     0.0807   0.1388   0.2102   0.3058   0.3395   0.3830   0.4811   0.5140
     0.5696   0.5989   0.6190   0.6747   0.6919   0.7077   1.4010   1.4031
     1.4799   1.4890   3.0944   3.4359   3.4638   3.4910   3.5341   3.6645
     3.6735   3.6793   3.7012   3.8943   3.9411

     the Fermi energy is     3.1194 ev

!    total energy              =   -2930.04037941 Ry
     estimated scf accuracy    <       0.00000005 Ry
     smearing contrib. (-TS)   =      -0.02065469 Ry
     internal energy E=F+TS    =   -2930.01972472 Ry

     The total energy is F=E-TS. E is the sum of the following terms:
     one-electron contribution =  -24523.67650797 Ry
     hartree contribution      =   12346.87766081 Ry
     xc contribution           =    -481.12323025 Ry
     ewald contribution        =    9727.90105679 Ry
     electric field correction =       0.00129590 Ry

     convergence has been achieved in  66 iterations

     Forces acting on atoms (cartesian axes, Ry/au):

     atom    1 type  1   force =     0.00079815    0.00167389    0.12134467
     atom    2 type  1   force =    -0.00047075    0.00020438   -0.17587910
     atom    3 type  2   force =    -0.00006678    0.00561377   -0.04163276
     atom    4 type  2   force =     0.00044264   -0.00011440    0.04611726
     atom    5 type  2   force =    -0.02235037   -0.00182793    0.00387531
     atom    6 type  2   force =     0.02263488   -0.00138622    0.00393130
     atom    7 type  1   force =    -0.00066492    0.00236307   -0.00606128
     atom    8 type  1   force =     0.00067811   -0.00173539    0.00443747
     atom    9 type  2   force =     0.00005530    0.00034802   -0.00034200
     atom   10 type  2   force =     0.00006099    0.00101289    0.00000766
     atom   11 type  2   force =     0.00028342    0.00130738   -0.00035952
     atom   12 type  2   force =     0.00022082    0.00130220   -0.00067037
     atom   13 type  1   force =     0.00012434   -0.00013760   -0.00033592
     atom   14 type  1   force =     0.00002306    0.00011226    0.00074392
     atom   15 type  2   force =     0.00003404   -0.00063175   -0.00019940
     atom   16 type  2   force =     0.00022037   -0.00012214    0.00187052
     atom   17 type  2   force =    -0.00093855    0.00038668   -0.00025562
     atom   18 type  2   force =     0.00055441    0.00018805   -0.00021169
     atom   19 type  1   force =    -0.00015223   -0.00103218   -0.00052864
     atom   20 type  1   force =    -0.00045364   -0.00045649   -0.00032025
     atom   21 type  2   force =     0.00048857   -0.00064660    0.10366311
     atom   22 type  2   force =    -0.00026936    0.00070365   -0.00023373
     atom   23 type  2   force =    -0.06883990    0.00048076   -0.03156836
     atom   24 type  2   force =     0.06970201    0.00092701   -0.03151200
     atom   25 type  1   force =     0.00115200   -0.00160441    0.12780283
     atom   26 type  1   force =     0.00009378   -0.00059763   -0.17579739
     atom   27 type  2   force =    -0.00002502   -0.00360723   -0.03779308
     atom   28 type  2   force =     0.00039821    0.00002157    0.04698396
     atom   29 type  2   force =    -0.02403832   -0.00045867    0.00441851
     atom   30 type  2   force =     0.02422992    0.00012206    0.00461317
     atom   31 type  1   force =    -0.00087018   -0.00333329   -0.00528946
     atom   32 type  1   force =     0.00000645   -0.00003565   -0.00081405
     atom   33 type  2   force =     0.00006163   -0.00015719    0.00019215
     atom   34 type  2   force =     0.00005773   -0.00062298   -0.00013707
     atom   35 type  2   force =    -0.00016511   -0.00020858   -0.00020395
     atom   36 type  2   force =     0.00068942    0.00019422   -0.00067567
     atom   37 type  1   force =     0.00071182   -0.00039739    0.00128605
     atom   38 type  1   force =    -0.00006614   -0.00031565    0.00046191
     atom   39 type  2   force =     0.00007321   -0.00032556   -0.00059910
     atom   40 type  2   force =     0.00018353    0.00050898    0.00147202
     atom   41 type  2   force =    -0.00021696   -0.00024418   -0.00018599
     atom   42 type  2   force =    -0.00015735   -0.00024129   -0.00005362
     atom   43 type  1   force =    -0.00060630    0.00023120   -0.00088392
     atom   44 type  1   force =    -0.00052113    0.00084852   -0.00058063
     atom   45 type  2   force =     0.00051318    0.00081240    0.10369378
     atom   46 type  3   force =     0.00052625    0.00064727    0.00143124
     atom   47 type  2   force =    -0.06771241   -0.00082618   -0.03141156
     atom   48 type  2   force =     0.06336856   -0.00037516   -0.03205550
     atom   49 type  4   force =    -0.00038671    0.00016355   -0.00086755
     atom   50 type  2   force =     0.00027917    0.00084467    0.00011761
     atom   51 type  4   force =     0.00030622    0.00042329   -0.00100523

     Total force =     0.382803     Total SCF correction =     0.000703
  @ DRIVER MODE: Message from server: STATUS
  @ DRIVER MODE: Message from server: GETFORCE
  @ DRIVER MODE: Returning v,forces,stress,ensemble

     Writing output data file ./calc.save/
  @ DRIVER MODE: Message from server: EXIT
  @ DRIVE MODE: Exiting

     General routines

     Parallel routines

   This run was terminated on:  10:19:48  15Sep2021

   JOB DONE.