     Program PWSCF v.6.7GPU starts on 16Sep2021 at  6:28:38

     R & G space division:  proc/nbgrp/npool/nimage =      10
     Reading input from /storage/home/hcoda1/3/ntian30/research/carbon/CxH_vib/H2O_calc/ads_slab/CH3N2HH2O_a/out_0046/pw.inp
Warning: card &CELL ignored
Warning: card   CELL_DYNAMICS='IPI', ignored
Warning: card / ignored

     Current dimensions of program PWSCF are:
     Max number of different atomic species (ntypx) = 10
     Max number of k-points (npk) =  40000
     Max angular momentum in pseudopotentials (lmaxx) =  3
     Presently no symmetry can be used with electric field

     Message from routine cell_base_init:
     DEPRECATED: use true lattice parameter, not A to a.u. conversion factor

     IMPORTANT: XC functional enforced from input :
     Exchange-correlation= BEEF-VDW
                           (   1   4  43  14   2   0   0)
     Any further DFT definition will be discarded
     Please, verify this is what you really want

  @ DRIVER MODE: Connecting to
 qe_1139763_2852617.sched-torque.pace.gatech.edu9lnkuey3_scratch
  using UNIX socket
  @ DRIVER MODE: Message from server: STATUS
  @ DRIVER MODE: Message from server: INIT
  @ DRIVER MODE: Receiving replica           0          -1
  @ DRIVER MODE: Receiving encoded integer          25
  @ DRIVER MODE:  SCF:  T  FORCE:  T  STRESS:  F  VC:  F  ENSEMBLE:  F
  @ DRIVER MODE:  SCF:  T  FORCE:  T  STRESS:  F  VC:  F  ENSEMBLE:  F

     Using Slab Decomposition

     bravais-lattice index     =            0
     lattice parameter (alat)  =       1.8897  a.u.
     unit-cell volume          =    6658.9804 (a.u.)^3
     number of atoms/cell      =           57
     number of atomic types    =            5
     number of electrons       =       404.00
     number of Kohn-Sham states=          212
     kinetic-energy cutoff     =      29.3995  Ry
     charge density cutoff     =     293.9946  Ry
     scf convergence threshold =      7.3E-08
     mixing beta               =       0.0500
     number of iterations used =            8  plain     mixing
     Exchange-correlation= BEEF-VDW
                           (   1   4  43  14   2   0   0)

     celldm(1)=   1.889726  celldm(2)=   0.000000  celldm(3)=   0.000000
     celldm(4)=   0.000000  celldm(5)=   0.000000  celldm(6)=   0.000000

     crystal axes: (cart. coord. in units of alat)
               a(1) = (   6.579727   0.000000   0.000000 )
               a(2) = (  -0.000775   5.961596   0.000000 )
               a(3) = (   0.000000   0.000000  25.155947 )

     reciprocal axes: (cart. coord. in units 2 pi/alat)
               b(1) = (  0.151982  0.000020  0.000000 )
               b(2) = (  0.000000  0.167740  0.000000 )
               b(3) = (  0.000000  0.000000  0.039752 )

     PseudoPot. # 1 for Ti read from file:
     /storage/coda1/p-amedford6/0/shared/rich_project_chbe-medford/medford-share/data/pseudos_module/espresso/nninc/pbe/van/Ti.UPF
     MD5 check sum: 8e4df49b7f0d34bbd5052bf3f5ea0213
     Pseudo is Ultrasoft, Zval = 12.0
     Generated by new atomic code, or converted to UPF format
     Using radial grid of  851 points,  6 beta functions with:
                l(1) =   0
                l(2) =   0
                l(3) =   1
                l(4) =   1
                l(5) =   2
                l(6) =   2
     Q(r) pseudized with  8 coefficients,  rinner =    1.000   1.000   1.000
                                                       1.000   1.000

     PseudoPot. # 2 for O  read from file:
     /storage/coda1/p-amedford6/0/shared/rich_project_chbe-medford/medford-share/data/pseudos_module/espresso/nninc/pbe/van/O.UPF
     MD5 check sum: 78c19812648e8988a0fe644b0f25305e
     Pseudo is Ultrasoft, Zval =  6.0
     Generated by new atomic code, or converted to UPF format
     Using radial grid of  737 points,  4 beta functions with:
                l(1) =   0
                l(2) =   0
                l(3) =   1
                l(4) =   1
     Q(r) pseudized with  8 coefficients,  rinner =    0.800   0.800   0.800

     PseudoPot. # 3 for N  read from file:
     /storage/coda1/p-amedford6/0/shared/rich_project_chbe-medford/medford-share/data/pseudos_module/espresso/nninc/pbe/van/N.UPF
     MD5 check sum: 90d10febe142ad51ac9d5be1deb811c4
     Pseudo is Ultrasoft, Zval =  5.0
     Generated by new atomic code, or converted to UPF format
     Using radial grid of  729 points,  4 beta functions with:
                l(1) =   0
                l(2) =   0
                l(3) =   1
                l(4) =   1
     Q(r) pseudized with  8 coefficients,  rinner =    0.800   0.800   0.800

     PseudoPot. # 4 for C  read from file:
     /storage/coda1/p-amedford6/0/shared/rich_project_chbe-medford/medford-share/data/pseudos_module/espresso/nninc/pbe/van/C.UPF
     MD5 check sum: 1a69bf6b8db32088f5b2163dbdb77a27
     Pseudo is Ultrasoft, Zval =  4.0
     Generated by new atomic code, or converted to UPF format
     Using radial grid of  721 points,  4 beta functions with:
                l(1) =   0
                l(2) =   0
                l(3) =   1
                l(4) =   1
     Q(r) pseudized with  8 coefficients,  rinner =    0.800   0.800   0.800

     PseudoPot. # 5 for H  read from file:
     /storage/coda1/p-amedford6/0/shared/rich_project_chbe-medford/medford-share/data/pseudos_module/espresso/nninc/pbe/van/H.UPF
     MD5 check sum: b5ee9d7bfd3a09ee7748110bda690ff7
     Pseudo is Ultrasoft, Zval =  1.0
     Generated by new atomic code, or converted to UPF format
     Using radial grid of  615 points,  1 beta functions with:
                l(1) =   0
     Q(r) pseudized with  8 coefficients,  rinner =    0.800

     atomic species   valence    mass     pseudopotential
        Ti1           12.00    47.86700     Ti( 1.00)
        O1             6.00    15.99900     O ( 1.00)
        N1             5.00    14.00700     N ( 1.00)
        C1             4.00    12.01100     C ( 1.00)
        H1             1.00     1.00800     H ( 1.00)

     No symmetry found

   Cartesian axes

     site n.     atom                  positions (alat units)
         1           Ti1 tau(   1) = (   0.0004258   2.9801865   6.0000000  )
         2           Ti1 tau(   2) = (   3.2906075   1.4906267   6.0002472  )
         3           O1  tau(   3) = (   0.0006271   0.0005054   7.9858123  )
         4           O1  tau(   4) = (   3.2906025   0.0005020   7.3038282  )
         5           O1  tau(   5) = (   4.5942328   1.4918067   9.2879030  )
         6           O1  tau(   6) = (   1.9868534   1.4903216   9.2879459  )
         7           Ti1 tau(   7) = (   3.2907910   2.8959150   9.1758416  )
         8           Ti1 tau(   8) = (   0.0015273   1.4827037   9.2680791  )
         9           O1  tau(   9) = (   3.2846840   0.0164488  11.3171736  )
        10           O1  tau(  10) = (   0.0116148   5.9584955  10.6183126  )
        11           O1  tau(  11) = (   1.2780696   1.4966870  12.6228330  )
        12           O1  tau(  12) = (   5.2671132   1.5021727  12.6038655  )
        13           Ti1 tau(  13) = (   0.0814623   2.9703834  12.6092300  )
        14           Ti1 tau(  14) = (   3.3984034   1.5042134  12.4754612  )
        15           O1  tau(  15) = (   6.5611900   5.9602394  14.6246442  )
        16           O1  tau(  16) = (   3.2847170   0.0117735  13.9091713  )
        17           O1  tau(  17) = (   4.5127615   1.5439160  15.9886145  )
        18           O1  tau(  18) = (   2.0245574   1.5486524  15.9865356  )
        19           Ti1 tau(  19) = (   3.2678410   3.0292036  15.6627315  )
        20           Ti1 tau(  20) = (   6.5437773   1.5790868  15.8036792  )
        21           O1  tau(  21) = (   3.2904802   0.0005063   4.7018136  )
        22           O1  tau(  22) = (   6.5616667   0.0409992  17.2467836  )
        23           O1  tau(  23) = (   1.3043587   1.4918075   6.0039043  )
        24           O1  tau(  24) = (   5.2767064   1.4903225   6.0039473  )
        25           Ti1 tau(  25) = (   0.0000382   5.9609847   6.0000000  )
        26           Ti1 tau(  26) = (   3.2902200   4.4714249   6.0002472  )
        27           O1  tau(  27) = (   0.0002396   2.9813036   7.9858123  )
        28           O1  tau(  28) = (   3.2902150   2.9813002   7.3038282  )
        29           O1  tau(  29) = (   4.5938453   4.4726049   9.2879030  )
        30           O1  tau(  30) = (   1.9864658   4.4711199   9.2879459  )
        31           Ti1 tau(  31) = (   3.2891106   5.8743827   9.1763621  )
        32           Ti1 tau(  32) = (   0.0006254   4.4649316   9.2693709  )
        33           O1  tau(  33) = (   3.2886753   2.9955121  11.3174028  )
        34           O1  tau(  34) = (   0.0092240   2.9805883  10.6323155  )
        35           O1  tau(  35) = (   1.2771457   4.4765085  12.6200386  )
        36           O1  tau(  36) = (   5.2716127   4.4859779  12.5990880  )
        37           Ti1 tau(  37) = (   0.0719143   5.9417653  12.6408960  )
        38           Ti1 tau(  38) = (   3.4009286   4.4967646  12.4819834  )
        39           O1  tau(  39) = (   6.5633752   2.9851081  14.6229342  )
        40           O1  tau(  40) = (   3.2806164   3.0132077  13.8636590  )
        41           O1  tau(  41) = (   4.5054435   4.4842064  16.0752605  )
        42           O1  tau(  42) = (   2.0287922   4.4846499  16.0567397  )
        43           Ti1 tau(  43) = (   3.2585180   0.0608266  15.7494983  )
        44           Ti1 tau(  44) = (   6.5556145   4.6328118  16.1363011  )
        45           O1  tau(  45) = (   3.2900926   2.9813045   4.7018136  )
        46           O1  tau(  46) = (   1.3039711   4.4726057   6.0039043  )
        47           O1  tau(  47) = (   5.2763189   4.4711207   6.0039473  )
        48           N1  tau(  48) = (   6.4582227   2.6263240  18.5734135  )
        49           N1  tau(  49) = (   6.5493832   2.9496485  17.3103279  )
        50           C1  tau(  50) = (   0.1600853   3.5596473  19.6455425  )
        51           H1  tau(  51) = (   6.1911903   4.4878083  19.4849519  )
        52           H1  tau(  52) = (   6.4401482   3.1080517  20.5902855  )
        53           H1  tau(  53) = (   1.2308410   3.8049764  19.6956042  )
        54           H1  tau(  54) = (   6.5044843   1.6253530  18.7706356  )
        55           O1  tau(  55) = (   3.2415852   0.0855412  18.2049893  )
        56           H1  tau(  56) = (   4.0109045   5.4607113  18.3409029  )
        57           H1  tau(  57) = (   2.4534619   5.4803556  18.3240773  )

     number of k points=    10  Fermi-Dirac smearing, width (Ry)=  0.0073
                       cart. coord. in units 2pi/alat
        k(    1) = (   0.0000000   0.0000000   0.0000000), wk =   0.1250000
        k(    2) = (   0.0000000   0.0419351   0.0000000), wk =   0.2500000
        k(    3) = (   0.0000000  -0.0838702   0.0000000), wk =   0.1250000
        k(    4) = (   0.0379955   0.0000049   0.0000000), wk =   0.2500000
        k(    5) = (   0.0379955   0.0419400   0.0000000), wk =   0.2500000
        k(    6) = (   0.0379955  -0.0838652   0.0000000), wk =   0.2500000
        k(    7) = (   0.0379955  -0.0419301   0.0000000), wk =   0.2500000
        k(    8) = (  -0.0759910  -0.0000099   0.0000000), wk =   0.1250000
        k(    9) = (  -0.0759910   0.0419252   0.0000000), wk =   0.2500000
        k(   10) = (  -0.0759910  -0.0838800   0.0000000), wk =   0.1250000

     Initial potential from superposition of free atoms

     starting charge  387.99913, renormalised to  404.00000

     negative rho (up, down):  1.445E-02 0.000E+00

     %%%%%%%%%%%%%%%%%%%%%%%%%%%%%%%%%%%%%%%%%%%%%%%%%%%%%%%%%%%%%%%%%%%%%%%%
     %                                                                      %
     % You are using vdW-DF, which was implemented by the Thonhauser group. %
     % Please cite the following two papers that made this development      %
     % possible and the two reviews that describe the various versions:     %
     %                                                                      %
     %   T. Thonhauser et al., PRL 115, 136402 (2015).                      %
     %   T. Thonhauser et al., PRB 76, 125112 (2007).                       %
     %   K. Berland et al., Rep. Prog. Phys. 78, 066501 (2015).             %
     %   D.C. Langreth et al., J. Phys.: Condens. Matter 21, 084203 (2009). %
     %                                                                      %
     %                                                                      %
     % If you are calculating the stress with vdW-DF, please also cite:     %
     %                                                                      %
     %   R. Sabatini et al., J. Phys.: Condens. Matter 24, 424209 (2012).   %
     %                                                                      %
     %%%%%%%%%%%%%%%%%%%%%%%%%%%%%%%%%%%%%%%%%%%%%%%%%%%%%%%%%%%%%%%%%%%%%%%%

     Adding external electric field

     Computed dipole along edir(3) :
        Dipole              -13.5668 Ry au,        -34.4835 Debye
        Dipole field         -0.0256 Ry au,

        Potential amp.        2.3733 Ry
        Total length         46.3494 bohr

     Starting wfcs are  306 atomic wfcs
  @ DRIVER MODE: Message from server: STATUS
  @ DRIVER MODE: Message from server: POSDATA
  @ DRIVER MODE: Reading and sharing cell
  @ DRIVER MODE: Reading and sharing positions
  @ DRIVER MODE: Received positions

     Self-consistent Calculation

     iteration #  1     ecut=    29.40 Ry     beta= 0.05
     Davidson diagonalization with overlap
     c_bands:  4 eigenvalues not converged
     c_bands:  4 eigenvalues not converged
     c_bands:  4 eigenvalues not converged
     c_bands:  4 eigenvalues not converged
     c_bands:  3 eigenvalues not converged
     c_bands:  3 eigenvalues not converged
     ethr =  1.00E-05,  avg # of iterations = 25.2

[...]

     total energy              =   -2339.12530104 Ry
     estimated scf accuracy    <    7251.15149258 Ry

     iteration #  2     ecut=    29.40 Ry     beta= 0.05
     Davidson diagonalization with overlap
     ethr =  1.00E-02,  avg # of iterations = 24.0

[...]

     iteration # 51     ecut=    29.40 Ry     beta= 0.05
     Davidson diagonalization with overlap
     c_bands:  2 eigenvalues not converged
     ethr =  2.59E-06,  avg # of iterations = 12.1

[...]

     total energy              =   -2975.23038996 Ry
     estimated scf accuracy    <       0.00000013 Ry

     iteration # 86     ecut=    29.40 Ry     beta= 0.05
     Davidson diagonalization with overlap
     ethr =  3.24E-11,  avg # of iterations =  5.9

     negative rho (up, down):  1.507E-02 0.000E+00

     Adding external electric field

     Computed dipole along edir(3) :
        Dipole                1.1605 Ry au,          2.9496 Debye
        Dipole field          0.0022 Ry au,

        Potential amp.       -0.2030 Ry
        Total length         46.3494 bohr

     End of self-consistent calculation

          k = 0.0000 0.0000 0.0000 ( 18029 PWs)   bands (ev):

   -55.5057 -55.4717 -55.3331 -55.2966 -55.2627 -55.2290 -55.2027 -55.1989
   -55.1878 -55.1651 -55.1535 -55.0148 -54.5527 -54.4361 -54.4021 -54.3889
   -31.9788 -31.8684 -31.7999 -31.7849 -31.7217 -31.7128 -31.6769 -31.6590
   -31.6221 -31.6047 -31.6012 -31.5744 -31.5646 -31.5201 -31.5124 -31.5014
   -31.4822 -31.4803 -31.4561 -31.4385 -31.4254 -31.4173 -31.4141 -31.3964
   -31.3928 -31.3850 -31.3753 -31.3682 -31.3661 -31.3639 -31.3416 -31.3304
   -31.3179 -31.3002 -31.2069 -31.1797 -31.0466 -30.8412 -30.7770 -30.7627
   -30.7580 -30.7353 -30.7239 -30.6581 -30.5995 -30.5719 -30.5686 -30.4608
   -18.7373 -17.7488 -16.0742 -15.8821 -15.6098 -15.4865 -15.4594 -15.2755
   -15.1991 -15.1474 -15.0155 -14.9685 -14.9390 -14.9089 -14.8964 -14.8390
   -14.8118 -14.7848 -14.7552 -14.7507 -14.7311 -14.7087 -14.6683 -14.6104
   -14.5851 -14.5240 -14.4736 -14.4521 -14.3593 -14.3540 -13.9280 -12.9375
   -12.8220 -11.9015  -8.8046  -6.4575  -5.6078  -4.3227  -4.0883  -3.4590
    -3.3834  -3.3244  -3.2088  -3.1317  -2.9900  -2.9625  -2.8815  -2.7836
    -2.6054  -2.5473  -2.5217  -2.4925  -2.4090  -2.2743  -2.2632  -2.2150
    -2.1872  -2.1668  -2.1520  -2.1362  -2.0411  -2.0022  -1.9646  -1.8540
    -1.8168  -1.7959  -1.7790  -1.7710  -1.7535  -1.6893  -1.6577  -1.6382
    -1.6285  -1.5915  -1.5575  -1.5463  -1.4159  -1.3966  -1.2791  -1.1520
    -1.1294  -1.0712  -1.0472  -0.8884  -0.8804  -0.8605  -0.8195  -0.8120
    -0.7404  -0.6674  -0.6250  -0.5506  -0.4320  -0.4227  -0.3879  -0.2417
    -0.2382  -0.2150  -0.1770  -0.1657  -0.1154  -0.1039  -0.0585   0.0019
     0.0960   0.1667   0.2727   0.2751   0.3282   0.3676   0.3803   0.4383
     0.4546   0.5042   0.5161   0.5236   0.5756   0.6107   0.6231   0.6806
     0.7322   0.8494   0.9187   0.9439   0.9903   1.1124   1.1876   1.2356
     1.2407   1.4087   1.5313   1.5611   1.5862   1.7865   1.8180   2.1531
     2.1969   3.6684   3.6850   3.7749   3.8340   3.9481   4.0195   4.1082
     4.1877   4.2572   4.3502   4.4094

[...]

          k = 0.0380-0.0419 0.0000 ( 17876 PWs)   bands (ev):

[...]

          k =-0.0760-0.0000 0.0000 ( 17886 PWs)   bands (ev):

[...]

          k =-0.0760-0.0839 0.0000 ( 17948 PWs)   bands (ev):

   -55.4888 -55.4884 -55.3186 -55.3109 -55.2458 -55.2456 -55.1972 -55.1912
   -55.1766 -55.1739 -55.1674 -55.0164 -54.5511 -54.4191 -54.4189 -54.3904
   -31.7943 -31.7943 -31.7852 -31.7851 -31.6815 -31.6643 -31.6099 -31.6094
   -31.5708 -31.5661 -31.5628 -31.5578 -31.5552 -31.5496 -31.5169 -31.5119
   -31.4904 -31.4809 -31.4788 -31.4713 -31.4390 -31.4368 -31.4286 -31.4260
   -31.4154 -31.4127 -31.4021 -31.3998 -31.3954 -31.3894 -31.3889 -31.3835
   -31.3562 -31.3321 -31.3168 -31.2146 -30.9561 -30.8003 -30.7658 -30.7481
   -30.7480 -30.7455 -30.6543 -30.6541 -30.6182 -30.6151 -30.6151 -30.5996
   -18.7363 -17.7429 -15.4976 -15.4314 -15.3605 -15.3566 -15.2520 -15.1990
   -15.1043 -15.0935 -15.0864 -15.0832 -14.9827 -14.9794 -14.9134 -14.9044
   -14.8653 -14.8584 -14.8545 -14.8381 -14.8229 -14.8180 -14.8034 -14.7572
   -14.7392 -14.7334 -14.5699 -14.5447 -14.4292 -14.4108 -14.0520 -12.9241
   -12.9240 -11.9028  -8.8150  -6.4409  -5.5997  -4.2725  -4.1094  -2.9349
    -2.9305  -2.7889  -2.6659  -2.5288  -2.5165  -2.4959  -2.4596  -2.2928
    -2.2802  -2.2649  -2.2553  -2.2138  -2.2024  -2.1836  -2.1693  -2.1152
    -2.0979  -2.0792  -2.0747  -2.0634  -2.0570  -2.0474  -2.0379  -2.0301
    -2.0066  -1.9585  -1.9380  -1.8561  -1.7707  -1.7606  -1.6838  -1.5544
    -1.5481  -1.5363  -1.5348  -1.5217  -1.5129  -1.4715  -1.4347  -1.3811
    -1.2711  -1.1514  -1.1021  -1.0838  -1.0294  -1.0100  -0.9216  -0.8409
    -0.8063  -0.7880  -0.7023  -0.6537  -0.5748  -0.5591  -0.5225  -0.4717
    -0.4475  -0.4336  -0.4179  -0.4096  -0.3458  -0.3024  -0.2350  -0.2207
    -0.1650  -0.1338  -0.1050  -0.0818  -0.0413   0.0516   0.0593   0.0875
     0.1149   0.1296   0.2043   0.3553   0.3954   0.6346   0.6438   0.7154
     0.8440   0.8666   0.8737   0.9501   0.9637   1.0003   1.0218   1.1424
     1.1652   1.1904   1.3179   1.3533   1.4458   1.9561   1.9570   2.0159
     2.0164   3.5311   4.1325   4.1425   4.1597   4.1731   4.1986   4.2052
     4.2475   4.2607   4.3940   4.4148

     the Fermi energy is     3.6443 ev

!    total energy              =   -2975.23039726 Ry
     estimated scf accuracy    <       0.00000007 Ry
     smearing contrib. (-TS)   =      -0.02107851 Ry
     internal energy E=F+TS    =   -2975.20931874 Ry

     The total energy is F=E-TS. E is the sum of the following terms:
     one-electron contribution =  -23878.50847490 Ry
     hartree contribution      =   12036.67202879 Ry
     xc contribution           =    -494.91651607 Ry
     ewald contribution        =    9361.54110213 Ry
     electric field correction =       0.00254131 Ry

     convergence has been achieved in  86 iterations

     Forces acting on atoms (cartesian axes, Ry/au):

     atom    1 type  1   force =     0.00016700   -0.00022612    0.09945268
     atom    2 type  1   force =    -0.00014976   -0.00038715   -0.17309859
     atom    3 type  2   force =    -0.00006895   -0.00000093   -0.02914073
     atom    4 type  2   force =     0.00003896   -0.00102501    0.04891323
     atom    5 type  2   force =    -0.01224075    0.00099656    0.00048571
     atom    6 type  2   force =     0.01354822    0.00186855   -0.00111218
     atom    7 type  1   force =    -0.00136111   -0.00053698   -0.00299985
     atom    8 type  1   force =     0.00094493   -0.00609039    0.04540897
     atom    9 type  2   force =    -0.00000386   -0.00023158   -0.00002492
     atom   10 type  2   force =    -0.00155807    0.00261743   -0.03093278
     atom   11 type  2   force =    -0.00016761   -0.00045142    0.00004616
     atom   12 type  2   force =     0.00008248   -0.00023512    0.00015116
     atom   13 type  1   force =    -0.00019578   -0.00054672   -0.00034883
     atom   14 type  1   force =     0.00031595   -0.00018258    0.00021662
     atom   15 type  2   force =     0.00000039   -0.00013427   -0.00027727
     atom   16 type  2   force =    -0.00021761    0.00005222    0.00010954
     atom   17 type  2   force =     0.00024317   -0.00018939    0.00003219
     atom   18 type  2   force =    -0.00011394   -0.00025755   -0.00011851
     atom   19 type  1   force =     0.00008447   -0.00035365    0.00031890
     atom   20 type  1   force =    -0.00003099   -0.00060094    0.00028265
     atom   21 type  2   force =     0.00008925   -0.00000480    0.10257611
     atom   22 type  2   force =     0.00008091   -0.00028697   -0.00016264
     atom   23 type  2   force =    -0.07249494   -0.00008780   -0.02846069
     atom   24 type  2   force =     0.07245772    0.00034227   -0.02844018
     atom   25 type  1   force =     0.00009379   -0.00027637    0.09897478
     atom   26 type  1   force =    -0.00006445   -0.00041810   -0.17328014
     atom   27 type  2   force =    -0.00003384    0.00000544   -0.02844701
     atom   28 type  2   force =     0.00009520   -0.00075937    0.04807749
     atom   29 type  2   force =    -0.01260888    0.00063320    0.00051978
     atom   30 type  2   force =     0.01384418    0.00096310   -0.00105116
     atom   31 type  1   force =    -0.00145825    0.00225797   -0.00572812
     atom   32 type  1   force =     0.00111974    0.00384151    0.04591432
     atom   33 type  2   force =    -0.00006647   -0.00026405   -0.00010380
     atom   34 type  2   force =    -0.00096521    0.00134099   -0.03378773
     atom   35 type  2   force =    -0.00027173    0.00004546   -0.00024074
     atom   36 type  2   force =     0.00048411    0.00010052   -0.00003345
     atom   37 type  1   force =    -0.00032005    0.00008035    0.00024707
     atom   38 type  1   force =     0.00019086   -0.00028784    0.00002726
     atom   39 type  2   force =     0.00002671   -0.00048967    0.00037942
     atom   40 type  2   force =    -0.00005251    0.00018240   -0.00024493
     atom   41 type  2   force =    -0.00022427   -0.00015821    0.00026936
     atom   42 type  2   force =     0.00030317   -0.00008641    0.00016368
     atom   43 type  1   force =     0.00009179    0.00028534   -0.00014967
     atom   44 type  1   force =    -0.00001683   -0.00012057    0.00007002
     atom   45 type  2   force =     0.00009537   -0.00001335    0.10256824
     atom   46 type  2   force =    -0.07251521   -0.00000726   -0.02845269
     atom   47 type  2   force =     0.07247382    0.00037600   -0.02844372
     atom   48 type  3   force =    -0.00034559   -0.00036182   -0.00034326
     atom   49 type  3   force =     0.00013180   -0.00056948   -0.00016394
     atom   50 type  4   force =     0.00014793   -0.00039232    0.00006632
     atom   51 type  5   force =     0.00018187   -0.00013751    0.00021338
     atom   52 type  5   force =    -0.00010211    0.00024250    0.00021568
     atom   53 type  5   force =     0.00008286   -0.00007885    0.00014105
     atom   54 type  5   force =     0.00031927    0.00009033    0.00019247
     atom   55 type  2   force =     0.00069557   -0.01475760    0.00294185
     atom   56 type  5   force =    -0.00702942    0.00725230   -0.00196249
     atom   57 type  5   force =     0.00624671    0.00743371   -0.00142609

     Total force =     0.372625     Total SCF correction =     0.000651
  @ DRIVER MODE: Message from server: STATUS
  @ DRIVER MODE: Message from server: GETFORCE
  @ DRIVER MODE: Returning v,forces,stress,ensemble

     Writing output data file ./calc.save/
  @ DRIVER MODE: Message from server: EXIT
  @ DRIVE MODE: Exiting

     General routines

     Parallel routines

   This run was terminated on:   6:50:30  16Sep2021

   JOB DONE.