     Program PWSCF v.6.7GPU starts on 22Sep2021 at 17: 8:54

     R & G space division:  proc/nbgrp/npool/nimage =      10
     Reading input from /storage/home/hcoda1/3/ntian30/research/carbon/CxH_vib/H2O_calc/ads_slab/CH3NHHH2O_a/out_0004/pw.inp
Warning: card &CELL ignored
Warning: card   CELL_DYNAMICS='IPI', ignored
Warning: card / ignored

     Current dimensions of program PWSCF are:
     Max number of different atomic species (ntypx) = 10
     Max number of k-points (npk) =  40000
     Max angular momentum in pseudopotentials (lmaxx) =  3
     Presently no symmetry can be used with electric field

     Message from routine cell_base_init:
     DEPRECATED: use true lattice parameter, not A to a.u. conversion factor

     IMPORTANT: XC functional enforced from input :
     Exchange-correlation= BEEF-VDW
                           (   1   4  43  14   2   0   0)
     Any further DFT definition will be discarded
     Please, verify this is what you really want

  @ DRIVER MODE: Connecting to
 qe_1139763_2937309.sched-torque.pace.gatech.edudhkjysmp_scratch
  using UNIX socket
  @ DRIVER MODE: Message from server: STATUS
  @ DRIVER MODE: Message from server: INIT
  @ DRIVER MODE: Receiving replica           0          -1
  @ DRIVER MODE: Receiving encoded integer          25
  @ DRIVER MODE:  SCF:  T  FORCE:  T  STRESS:  F  VC:  F  ENSEMBLE:  F
  @ DRIVER MODE:  SCF:  T  FORCE:  T  STRESS:  F  VC:  F  ENSEMBLE:  F

     Using Slab Decomposition

     bravais-lattice index     =            0
     lattice parameter (alat)  =       1.8897  a.u.
     unit-cell volume          =    6658.9804 (a.u.)^3
     number of atoms/cell      =           57
     number of atomic types    =            5
     number of electrons       =       400.00
     number of Kohn-Sham states=          210
     kinetic-energy cutoff     =      29.3995  Ry
     charge density cutoff     =     293.9946  Ry
     scf convergence threshold =      7.3E-08
     mixing beta               =       0.0500
     number of iterations used =            8  plain     mixing
     Exchange-correlation= BEEF-VDW
                           (   1   4  43  14   2   0   0)

     celldm(1)=   1.889726  celldm(2)=   0.000000  celldm(3)=   0.000000
     celldm(4)=   0.000000  celldm(5)=   0.000000  celldm(6)=   0.000000

     crystal axes: (cart. coord. in units of alat)
               a(1) = (   6.579727   0.000000   0.000000 )
               a(2) = (  -0.000775   5.961596   0.000000 )
               a(3) = (   0.000000   0.000000  25.155947 )

     reciprocal axes: (cart. coord. in units 2 pi/alat)
               b(1) = (  0.151982  0.000020  0.000000 )
               b(2) = (  0.000000  0.167740  0.000000 )
               b(3) = (  0.000000  0.000000  0.039752 )

     PseudoPot. # 1 for Ti read from file:
     /storage/coda1/p-amedford6/0/shared/rich_project_chbe-medford/medford-share/data/pseudos_module/espresso/nninc/pbe/van/Ti.UPF
     MD5 check sum: 8e4df49b7f0d34bbd5052bf3f5ea0213
     Pseudo is Ultrasoft, Zval = 12.0
     Generated by new atomic code, or converted to UPF format
     Using radial grid of  851 points,  6 beta functions with:
                l(1) =   0
                l(2) =   0
                l(3) =   1
                l(4) =   1
                l(5) =   2
                l(6) =   2
     Q(r) pseudized with  8 coefficients,  rinner =    1.000   1.000   1.000
                                                       1.000   1.000

     PseudoPot. # 2 for O  read from file:
     /storage/coda1/p-amedford6/0/shared/rich_project_chbe-medford/medford-share/data/pseudos_module/espresso/nninc/pbe/van/O.UPF
     MD5 check sum: 78c19812648e8988a0fe644b0f25305e
     Pseudo is Ultrasoft, Zval =  6.0
     Generated by new atomic code, or converted to UPF format
     Using radial grid of  737 points,  4 beta functions with:
                l(1) =   0
                l(2) =   0
                l(3) =   1
                l(4) =   1
     Q(r) pseudized with  8 coefficients,  rinner =    0.800   0.800   0.800

     PseudoPot. # 3 for N  read from file:
     /storage/coda1/p-amedford6/0/shared/rich_project_chbe-medford/medford-share/data/pseudos_module/espresso/nninc/pbe/van/N.UPF
     MD5 check sum: 90d10febe142ad51ac9d5be1deb811c4
     Pseudo is Ultrasoft, Zval =  5.0
     Generated by new atomic code, or converted to UPF format
     Using radial grid of  729 points,  4 beta functions with:
                l(1) =   0
                l(2) =   0
                l(3) =   1
                l(4) =   1
     Q(r) pseudized with  8 coefficients,  rinner =    0.800   0.800   0.800

     PseudoPot. # 4 for C  read from file:
     /storage/coda1/p-amedford6/0/shared/rich_project_chbe-medford/medford-share/data/pseudos_module/espresso/nninc/pbe/van/C.UPF
     MD5 check sum: 1a69bf6b8db32088f5b2163dbdb77a27
     Pseudo is Ultrasoft, Zval =  4.0
     Generated by new atomic code, or converted to UPF format
     Using radial grid of  721 points,  4 beta functions with:
                l(1) =   0
                l(2) =   0
                l(3) =   1
                l(4) =   1
     Q(r) pseudized with  8 coefficients,  rinner =    0.800   0.800   0.800

     PseudoPot. # 5 for H  read from file:
     /storage/coda1/p-amedford6/0/shared/rich_project_chbe-medford/medford-share/data/pseudos_module/espresso/nninc/pbe/van/H.UPF
     MD5 check sum: b5ee9d7bfd3a09ee7748110bda690ff7
     Pseudo is Ultrasoft, Zval =  1.0
     Generated by new atomic code, or converted to UPF format
     Using radial grid of  615 points,  1 beta functions with:
                l(1) =   0
     Q(r) pseudized with  8 coefficients,  rinner =    0.800

     atomic species   valence    mass     pseudopotential
        Ti1           12.00    47.86700     Ti( 1.00)
        O1             6.00    15.99900     O ( 1.00)
        N1             5.00    14.00700     N ( 1.00)
        C1             4.00    12.01100     C ( 1.00)
        H1             1.00     1.00800     H ( 1.00)

     No symmetry found

   Cartesian axes

     site n.     atom                  positions (alat units)
         1           Ti1 tau(   1) = (   0.0004258   2.9801865   6.0000000  )
         2           Ti1 tau(   2) = (   3.2906075   1.4906267   6.0002472  )
         3           O1  tau(   3) = (   0.0006271   0.0005054   7.9858123  )
         4           O1  tau(   4) = (   3.2906025   0.0005020   7.3038282  )
         5           O1  tau(   5) = (   4.5942328   1.4918067   9.2879030  )
         6           O1  tau(   6) = (   1.9868534   1.4903216   9.2879459  )
         7           Ti1 tau(   7) = (   3.2907910   2.8959150   9.1758416  )
         8           Ti1 tau(   8) = (   0.0015273   1.4827037   9.2680791  )
         9           O1  tau(   9) = (   3.2912042   0.0294118  11.3810798  )
        10           O1  tau(  10) = (   0.0116148   5.9584955  10.6183126  )
        11           O1  tau(  11) = (   1.2906363   1.5151137  12.6946382  )
        12           O1  tau(  12) = (   5.2977377   1.5118052  12.6897239  )
        13           Ti1 tau(  13) = (   0.0154927   3.0055723  12.5114375  )
        14           Ti1 tau(  14) = (   3.3120461   1.5076926  12.5412499  )
        15           O1  tau(  15) = (   0.0087391   5.9056098  14.6936070  )
        16           O1  tau(  16) = (   3.3000944   0.0090435  14.0218108  )
        17           O1  tau(  17) = (   4.5606481   1.5918460  16.0876707  )
        18           O1  tau(  18) = (   2.0070218   1.5857768  16.0794533  )
        19           Ti1 tau(  19) = (   3.2835068   3.0412122  15.7371975  )
        20           Ti1 tau(  20) = (   0.0166266   1.3536260  15.8406240  )
        21           O1  tau(  21) = (   3.2904802   0.0005063   4.7018136  )
        22           O1  tau(  22) = (   6.5628702   0.1917167  17.2472498  )
        23           O1  tau(  23) = (   1.3043587   1.4918075   6.0039043  )
        24           O1  tau(  24) = (   5.2767064   1.4903225   6.0039473  )
        25           Ti1 tau(  25) = (   0.0000382   5.9609847   6.0000000  )
        26           Ti1 tau(  26) = (   3.2902200   4.4714249   6.0002472  )
        27           O1  tau(  27) = (   0.0002396   2.9813036   7.9858123  )
        28           O1  tau(  28) = (   3.2902150   2.9813002   7.3038282  )
        29           O1  tau(  29) = (   4.5938453   4.4726049   9.2879030  )
        30           O1  tau(  30) = (   1.9864658   4.4711199   9.2879459  )
        31           Ti1 tau(  31) = (   3.2891106   5.8743827   9.1763621  )
        32           Ti1 tau(  32) = (   0.0006254   4.4649316   9.2693709  )
        33           O1  tau(  33) = (   3.2975917   2.9887808  11.3748511  )
        34           O1  tau(  34) = (   0.0092240   2.9805883  10.6323155  )
        35           O1  tau(  35) = (   1.2927870   4.4849180  12.6503915  )
        36           O1  tau(  36) = (   5.2959677   4.4879952  12.6460094  )
        37           Ti1 tau(  37) = (   0.0189062   0.0134437  12.4995343  )
        38           Ti1 tau(  38) = (   3.3131396   4.4925875  12.5257625  )
        39           O1  tau(  39) = (   6.5658147   3.0796170  14.9398047  )
        40           O1  tau(  40) = (   3.2912769   3.0351834  13.9531456  )
        41           O1  tau(  41) = (   4.5372935   4.5058929  16.2491503  )
        42           O1  tau(  42) = (   2.0060561   4.4992570  16.2466123  )
        43           Ti1 tau(  43) = (   3.3106529   0.0781036  15.8389635  )
        44           Ti1 tau(  44) = (   0.0259428   4.5566345  16.0434284  )
        45           O1  tau(  45) = (   3.2900926   2.9813045   4.7018136  )
        46           O1  tau(  46) = (   1.3039711   4.4726057   6.0039043  )
        47           O1  tau(  47) = (   5.2763189   4.4711207   6.0039473  )
        48           N1  tau(  48) = (   6.3514164   3.3185518  18.1544664  )
        49           C1  tau(  49) = (   0.8695967   3.1501053  19.1301808  )
        50           H1  tau(  50) = (   1.3785670   4.1052268  19.2416751  )
        51           H1  tau(  51) = (   0.5086663   2.8389580  20.1145987  )
        52           H1  tau(  52) = (   1.5779067   2.4119510  18.7640910  )
        53           H1  tau(  53) = (   5.7211048   4.0382881  18.4729098  )
        54           H1  tau(  54) = (   5.7931489   2.4557210  18.1309407  )
        55           O1  tau(  55) = (   3.2817172   0.3149129  18.3340421  )
        56           H1  tau(  56) = (   4.0380937   5.6864266  18.4726034  )
        57           H1  tau(  57) = (   2.4816286   5.7371253  18.4434621  )

     number of k points=    10  Fermi-Dirac smearing, width (Ry)=  0.0073
                       cart. coord. in units 2pi/alat
        k(    1) = (   0.0000000   0.0000000   0.0000000), wk =   0.1250000
        k(    2) = (   0.0000000   0.0419351   0.0000000), wk =   0.2500000
        k(    3) = (   0.0000000  -0.0838702   0.0000000), wk =   0.1250000
        k(    4) = (   0.0379955   0.0000049   0.0000000), wk =   0.2500000
        k(    5) = (   0.0379955   0.0419400   0.0000000), wk =   0.2500000
        k(    6) = (   0.0379955  -0.0838652   0.0000000), wk =   0.2500000
        k(    7) = (   0.0379955  -0.0419301   0.0000000), wk =   0.2500000
        k(    8) = (  -0.0759910  -0.0000099   0.0000000), wk =   0.1250000
        k(    9) = (  -0.0759910   0.0419252   0.0000000), wk =   0.2500000
        k(   10) = (  -0.0759910  -0.0838800   0.0000000), wk =   0.1250000

     Initial potential from superposition of free atoms

     starting charge  383.99913, renormalised to  400.00000

     negative rho (up, down):  1.554E-02 0.000E+00

     %%%%%%%%%%%%%%%%%%%%%%%%%%%%%%%%%%%%%%%%%%%%%%%%%%%%%%%%%%%%%%%%%%%%%%%%
     %                                                                      %
     % You are using vdW-DF, which was implemented by the Thonhauser group. %
     % Please cite the following two papers that made this development      %
     % possible and the two reviews that describe the various versions:     %
     %                                                                      %
     %   T. Thonhauser et al., PRL 115, 136402 (2015).                      %
     %   T. Thonhauser et al., PRB 76, 125112 (2007).                       %
     %   K. Berland et al., Rep. Prog. Phys. 78, 066501 (2015).             %
     %   D.C. Langreth et al., J. Phys.: Condens. Matter 21, 084203 (2009). %
     %                                                                      %
     %                                                                      %
     % If you are calculating the stress with vdW-DF, please also cite:     %
     %                                                                      %
     %   R. Sabatini et al., J. Phys.: Condens. Matter 24, 424209 (2012).   %
     %                                                                      %
     %%%%%%%%%%%%%%%%%%%%%%%%%%%%%%%%%%%%%%%%%%%%%%%%%%%%%%%%%%%%%%%%%%%%%%%%

     Adding external electric field

     Computed dipole along edir(3) :
        Dipole              -12.0858 Ry au,        -30.7189 Debye
        Dipole field         -0.0228 Ry au,

        Potential amp.        2.1142 Ry
        Total length         46.3494 bohr

     Starting wfcs are  303 atomic wfcs
  @ DRIVER MODE: Message from server: STATUS
  @ DRIVER MODE: Message from server: POSDATA
  @ DRIVER MODE: Reading and sharing cell
  @ DRIVER MODE: Reading and sharing positions
  @ DRIVER MODE: Received positions

     Self-consistent Calculation

     iteration #  1     ecut=    29.40 Ry     beta= 0.05
     Davidson diagonalization with overlap
     c_bands:  2 eigenvalues not converged
     c_bands:  2 eigenvalues not converged
     c_bands:  3 eigenvalues not converged
     c_bands:  4 eigenvalues not converged
     c_bands:  2 eigenvalues not converged
     c_bands:  1 eigenvalues not converged
     c_bands:  4 eigenvalues not converged
     c_bands:  4 eigenvalues not converged
     c_bands:  5 eigenvalues not converged
     ethr =  1.00E-05,  avg # of iterations = 22.0

[...]

     total energy              =   -2384.66719230 Ry
     estimated scf accuracy    <    6452.15136581 Ry

     iteration #  2     ecut=    29.40 Ry     beta= 0.05
     Davidson diagonalization with overlap
     ethr =  1.00E-02,  avg # of iterations = 25.4

[...]

     iteration # 59     ecut=    29.40 Ry     beta= 0.05
     Davidson diagonalization with overlap
     ethr =  4.41E-11,  avg # of iterations =  5.8

[...]

     total energy              =   -2956.45460998 Ry
     estimated scf accuracy    <       0.00000009 Ry

     iteration # 60     ecut=    29.40 Ry     beta= 0.05
     Davidson diagonalization with overlap
     c_bands:  1 eigenvalues not converged
     ethr =  2.24E-11,  avg # of iterations = 13.4

     negative rho (up, down):  1.589E-02 0.000E+00

     Adding external electric field

     Computed dipole along edir(3) :
        Dipole                1.4060 Ry au,          3.5737 Debye
        Dipole field          0.0027 Ry au,

        Potential amp.       -0.2460 Ry
        Total length         46.3494 bohr

     End of self-consistent calculation

          k = 0.0000 0.0000 0.0000 ( 18029 PWs)   bands (ev):

   -55.2148 -55.1775 -55.1718 -55.1456 -55.1377 -55.1174 -55.0960 -55.0611
   -55.0407 -55.0059 -55.0029 -54.9937 -54.9692 -54.9341 -54.2019 -54.1679
   -31.7782 -31.6884 -31.6642 -31.5847 -31.5295 -31.5244 -31.5159 -31.5084
   -31.4607 -31.4374 -31.4258 -31.4166 -31.4124 -31.4102 -31.3867 -31.3833
   -31.3612 -31.3599 -31.3526 -31.3372 -31.3244 -31.3168 -31.3011 -31.2926
   -31.2856 -31.2733 -31.2709 -31.2419 -31.2290 -31.2269 -31.2216 -31.2016
   -31.1986 -31.1909 -31.1868 -31.1701 -31.1539 -31.1397 -31.1323 -31.1309
   -31.1140 -31.1118 -30.6114 -30.5169 -30.4949 -30.4277 -30.3409 -30.2300
   -19.2351 -16.1545 -16.0236 -15.7750 -15.6333 -15.5389 -15.4185 -15.3033
   -15.2386 -15.1247 -15.0665 -14.9317 -14.9161 -14.9043 -14.8795 -14.8460
   -14.8074 -14.7595 -14.7582 -14.7347 -14.7140 -14.7055 -14.6636 -14.6562
   -14.6165 -14.5951 -14.5945 -14.4591 -14.3776 -14.3072 -14.1224 -12.7044
   -12.5869 -10.2766  -7.0292  -6.2674  -4.8286  -3.9362  -3.4028  -3.3430
    -3.2366  -3.1475  -3.1236  -3.1121  -2.9753  -2.8835  -2.7464  -2.6653
    -2.6339  -2.4970  -2.4237  -2.4125  -2.3800  -2.2645  -2.2125  -2.1859
    -2.1533  -2.0815  -2.0332  -2.0225  -2.0046  -1.9741  -1.9587  -1.9248
    -1.8712  -1.7860  -1.7551  -1.6519  -1.6142  -1.5848  -1.5744  -1.5499
    -1.5341  -1.5081  -1.5015  -1.4415  -1.4379  -1.4080  -1.3627  -1.2471
    -1.0852  -1.0221  -0.9501  -0.8568  -0.8090  -0.7955  -0.7298  -0.7174
    -0.7021  -0.5981  -0.5747  -0.5536  -0.4560  -0.4247  -0.3858  -0.3134
    -0.2417  -0.2139  -0.2009  -0.0857  -0.0197  -0.0024   0.0174   0.0247
     0.1139   0.1872   0.2345   0.2864   0.3273   0.3345   0.3994   0.4324
     0.5001   0.5521   0.5705   0.6573   0.7019   0.7148   0.7209   0.7541
     0.7664   0.8277   0.8643   0.8886   0.9752   1.0903   1.2425   1.3842
     1.3925   1.7254   1.7263   1.8210   2.0047   2.3972   2.4455   3.8783
     3.9509   4.0101   4.0235   4.0291   4.1143   4.3605   4.3828   4.3884
     4.3986   4.4270

[...]

          k = 0.0380-0.0419 0.0000 ( 17876 PWs)   bands (ev):

[...]

          k =-0.0760-0.0000 0.0000 ( 17886 PWs)   bands (ev):

[...]

          k =-0.0760-0.0839 0.0000 ( 17948 PWs)   bands (ev):

   -55.2012 -55.1908 -55.1548 -55.1546 -55.1439 -55.1152 -55.0819 -55.0752
   -55.0261 -55.0200 -54.9960 -54.9864 -54.9859 -54.9356 -54.1850 -54.1846
   -31.6068 -31.5870 -31.5781 -31.4794 -31.4793 -31.4757 -31.4683 -31.4460
   -31.4460 -31.4265 -31.4187 -31.4120 -31.4045 -31.3897 -31.3726 -31.3578
   -31.3551 -31.3526 -31.3506 -31.3484 -31.3412 -31.3387 -31.3219 -31.3155
   -31.2952 -31.2948 -31.2760 -31.2745 -31.2743 -31.2726 -31.2674 -31.2592
   -31.2516 -31.2390 -31.2331 -31.2188 -31.2158 -31.1983 -31.1714 -31.1669
   -31.1661 -31.1456 -30.5077 -30.5074 -30.4240 -30.4237 -30.3844 -30.3842
   -19.2342 -16.1083 -15.5974 -15.4834 -15.3575 -15.2477 -15.2268 -15.1804
   -15.1317 -15.0817 -15.0295 -15.0010 -14.9800 -14.9711 -14.9282 -14.9177
   -14.8987 -14.8332 -14.8177 -14.8066 -14.7828 -14.7353 -14.7271 -14.7193
   -14.7154 -14.6694 -14.6653 -14.6185 -14.5739 -14.5701 -14.3907 -12.6884
   -12.6883 -10.2783  -7.0556  -6.2004  -4.8296  -3.9516  -3.2420  -2.9811
    -2.7488  -2.6970  -2.6086  -2.4648  -2.4210  -2.3763  -2.3450  -2.2835
    -2.2328  -2.2179  -2.2061  -2.1298  -2.1028  -2.0947  -2.0617  -2.0500
    -2.0400  -2.0019  -1.9816  -1.9561  -1.9474  -1.9369  -1.9342  -1.9249
    -1.8661  -1.8537  -1.8432  -1.8394  -1.7807  -1.7693  -1.7548  -1.7412
    -1.5962  -1.5778  -1.4269  -1.4235  -1.4017  -1.3490  -1.3375  -1.2970
    -1.2528  -1.2439  -1.2174  -0.9729  -0.9639  -0.9611  -0.9321  -0.8955
    -0.8576  -0.7957  -0.7667  -0.6969  -0.6887  -0.5726  -0.5565  -0.4443
    -0.4328  -0.4203  -0.3433  -0.2888  -0.2416  -0.2023  -0.1840  -0.1732
    -0.1566  -0.1202  -0.1178  -0.0206   0.0157   0.0465   0.0597   0.0992
     0.2766   0.3043   0.3202   0.4646   0.4721   0.6314   0.6821   0.7102
     0.8008   0.8611   0.8959   0.9397   1.0756   1.0889   1.1062   1.1609
     1.1840   1.2333   1.2465   2.1771   2.1784   2.2654   2.2655   4.0234
     4.1327   4.1416   4.1995   4.3109   4.3201   4.3933   4.4245   4.4621
     4.4658   4.5301

     the Fermi energy is     3.9405 ev

!    total energy              =   -2956.45466977 Ry
     estimated scf accuracy    <       0.00000006 Ry
     smearing contrib. (-TS)   =      -0.03685255 Ry
     internal energy E=F+TS    =   -2956.41781722 Ry

     The total energy is F=E-TS. E is the sum of the following terms:
     one-electron contribution =  -23693.67275207 Ry
     hartree contribution      =   11942.35643880 Ry
     xc contribution           =    -490.61210221 Ry
     ewald contribution        =    9285.50686769 Ry
     electric field correction =       0.00373058 Ry

     convergence has been achieved in  60 iterations

     Forces acting on atoms (cartesian axes, Ry/au):

     atom    1 type  1   force =    -0.00001000   -0.00026512    0.09338470
     atom    2 type  1   force =    -0.00007325   -0.00035586   -0.17814762
     atom    3 type  2   force =     0.00004592   -0.00030615   -0.02034475
     atom    4 type  2   force =    -0.00003524   -0.00184718    0.05912522
     atom    5 type  2   force =    -0.01021397   -0.00060698    0.00751644
     atom    6 type  2   force =     0.01174203    0.00022072    0.00684715
     atom    7 type  1   force =    -0.00030584    0.00188447   -0.01238993
     atom    8 type  1   force =     0.00016988    0.00083546   -0.00451836
     atom    9 type  2   force =     0.00038535   -0.00015736   -0.00080805
     atom   10 type  2   force =    -0.00141684    0.00414713   -0.00107836
     atom   11 type  2   force =    -0.00086456   -0.00030364    0.00019610
     atom   12 type  2   force =     0.00087836   -0.00005583    0.00005678
     atom   13 type  1   force =    -0.00014088   -0.00024258    0.00006928
     atom   14 type  1   force =    -0.00004805   -0.00009453    0.00002672
     atom   15 type  2   force =    -0.00067299    0.00018143   -0.00008526
     atom   16 type  2   force =    -0.00010684    0.00023093   -0.00039292
     atom   17 type  2   force =     0.00033266   -0.00071434    0.00001735
     atom   18 type  2   force =     0.00074843   -0.00060839   -0.00021154
     atom   19 type  1   force =    -0.00078141    0.00019554    0.00144476
     atom   20 type  1   force =     0.00072123   -0.00113924    0.00022412
     atom   21 type  2   force =     0.00002291   -0.00010943    0.10398489
     atom   22 type  2   force =     0.00009250   -0.00014432    0.00031480
     atom   23 type  2   force =    -0.07039647   -0.00020509   -0.02693840
     atom   24 type  2   force =     0.07023409    0.00023668   -0.02699289
     atom   25 type  1   force =    -0.00005928   -0.00021322    0.09286950
     atom   26 type  1   force =    -0.00020350   -0.00054243   -0.17841708
     atom   27 type  2   force =     0.00007321   -0.00013995   -0.01932577
     atom   28 type  2   force =     0.00005548   -0.00157367    0.05813540
     atom   29 type  2   force =    -0.01091586   -0.00007100    0.00844045
     atom   30 type  2   force =     0.01232228    0.00011550    0.00772261
     atom   31 type  1   force =    -0.00029344    0.00669830   -0.01506041
     atom   32 type  1   force =     0.00010798   -0.00073097   -0.00472151
     atom   33 type  2   force =    -0.00021891    0.00035423   -0.00052529
     atom   34 type  2   force =    -0.00111119   -0.00023433   -0.00038656
     atom   35 type  2   force =    -0.00019697   -0.00011734   -0.00014806
     atom   36 type  2   force =     0.00027900   -0.00036340   -0.00024427
     atom   37 type  1   force =     0.00022515   -0.00018233    0.00021202
     atom   38 type  1   force =    -0.00010307    0.00067973    0.00062868
     atom   39 type  2   force =     0.00013831   -0.00110997    0.00116416
     atom   40 type  2   force =     0.00026307    0.00099998   -0.00060260
     atom   41 type  2   force =    -0.00026408    0.00022216   -0.00027935
     atom   42 type  2   force =     0.00123780    0.00020081   -0.00050463
     atom   43 type  1   force =    -0.00113659   -0.00000684    0.00032143
     atom   44 type  1   force =     0.00042742   -0.00113713    0.00125479
     atom   45 type  2   force =     0.00001302   -0.00011134    0.10394444
     atom   46 type  2   force =    -0.07036873   -0.00012628   -0.02690625
     atom   47 type  2   force =     0.07022631    0.00028519   -0.02697304
     atom   48 type  3   force =     0.00190298   -0.02346225   -0.00388047
     atom   49 type  4   force =    -0.00029914    0.00348991   -0.00012088
     atom   50 type  5   force =     0.00074370   -0.00096010    0.00097581
     atom   51 type  5   force =    -0.00040424   -0.00059851   -0.00088486
     atom   52 type  5   force =    -0.00077885    0.00009884   -0.00122929
     atom   53 type  5   force =    -0.00648649    0.00891634    0.00389524
     atom   54 type  5   force =     0.00590813    0.01076717   -0.00154401
     atom   55 type  2   force =     0.00033346   -0.00084655    0.00065715
     atom   56 type  5   force =    -0.00075741   -0.00016109    0.00014976
     atom   57 type  5   force =    -0.00096659   -0.00091576    0.00008268

     Total force =     0.367457     Total SCF correction =     0.000921
  @ DRIVER MODE: Message from server: STATUS
  @ DRIVER MODE: Message from server: GETFORCE
  @ DRIVER MODE: Returning v,forces,stress,ensemble

     Writing output data file ./calc.save/
  @ DRIVER MODE: Message from server: EXIT
  @ DRIVE MODE: Exiting

     General routines

     Parallel routines

   This run was terminated on:  17:26: 2  22Sep2021

   JOB DONE.