     Program PWSCF v.6.7GPU starts on 15Sep2021 at 19:30: 2

     R & G space division:  proc/nbgrp/npool/nimage =      10
     Reading input from /storage/home/hcoda1/3/ntian30/research/carbon/CxH_vib/H2O_calc/ads_slab/CH2NH2O_a/out_0012/pw.inp
Warning: card &CELL ignored
Warning: card   CELL_DYNAMICS='IPI', ignored
Warning: card / ignored

     Current dimensions of program PWSCF are:
     Max number of different atomic species (ntypx) = 10
     Max number of k-points (npk) =  40000
     Max angular momentum in pseudopotentials (lmaxx) =  3
     Presently no symmetry can be used with electric field

     Message from routine cell_base_init:
     DEPRECATED: use true lattice parameter, not A to a.u. conversion factor

     IMPORTANT: XC functional enforced from input :
     Exchange-correlation= BEEF-VDW
                           (   1   4  43  14   2   0   0)
     Any further DFT definition will be discarded
     Please, verify this is what you really want

  @ DRIVER MODE: Connecting to
 qe_1139763_2852607.sched-torque.pace.gatech.eduqdhsetfz_scratch
  using UNIX socket
  @ DRIVER MODE: Message from server: STATUS
  @ DRIVER MODE: Message from server: INIT
  @ DRIVER MODE: Receiving replica           0          -1
  @ DRIVER MODE: Receiving encoded integer          25
  @ DRIVER MODE:  SCF:  T  FORCE:  T  STRESS:  F  VC:  F  ENSEMBLE:  F
  @ DRIVER MODE:  SCF:  T  FORCE:  T  STRESS:  F  VC:  F  ENSEMBLE:  F

     Using Slab Decomposition

     bravais-lattice index     =            0
     lattice parameter (alat)  =       1.8897  a.u.
     unit-cell volume          =    6658.9804 (a.u.)^3
     number of atoms/cell      =           54
     number of atomic types    =            5
     number of electrons       =       397.00
     number of Kohn-Sham states=          208
     kinetic-energy cutoff     =      29.3995  Ry
     charge density cutoff     =     293.9946  Ry
     scf convergence threshold =      7.3E-08
     mixing beta               =       0.0500
     number of iterations used =            8  plain     mixing
     Exchange-correlation= BEEF-VDW
                           (   1   4  43  14   2   0   0)

     celldm(1)=   1.889726  celldm(2)=   0.000000  celldm(3)=   0.000000
     celldm(4)=   0.000000  celldm(5)=   0.000000  celldm(6)=   0.000000

     crystal axes: (cart. coord. in units of alat)
               a(1) = (   6.579727   0.000000   0.000000 )
               a(2) = (  -0.000775   5.961596   0.000000 )
               a(3) = (   0.000000   0.000000  25.155947 )

     reciprocal axes: (cart. coord. in units 2 pi/alat)
               b(1) = (  0.151982  0.000020  0.000000 )
               b(2) = (  0.000000  0.167740  0.000000 )
               b(3) = (  0.000000  0.000000  0.039752 )

     PseudoPot. # 1 for Ti read from file:
     /storage/coda1/p-amedford6/0/shared/rich_project_chbe-medford/medford-share/data/pseudos_module/espresso/nninc/pbe/van/Ti.UPF
     MD5 check sum: 8e4df49b7f0d34bbd5052bf3f5ea0213
     Pseudo is Ultrasoft, Zval = 12.0
     Generated by new atomic code, or converted to UPF format
     Using radial grid of  851 points,  6 beta functions with:
                l(1) =   0
                l(2) =   0
                l(3) =   1
                l(4) =   1
                l(5) =   2
                l(6) =   2
     Q(r) pseudized with  8 coefficients,  rinner =    1.000   1.000   1.000
                                                       1.000   1.000

     PseudoPot. # 2 for O  read from file:
     /storage/coda1/p-amedford6/0/shared/rich_project_chbe-medford/medford-share/data/pseudos_module/espresso/nninc/pbe/van/O.UPF
     MD5 check sum: 78c19812648e8988a0fe644b0f25305e
     Pseudo is Ultrasoft, Zval =  6.0
     Generated by new atomic code, or converted to UPF format
     Using radial grid of  737 points,  4 beta functions with:
                l(1) =   0
                l(2) =   0
                l(3) =   1
                l(4) =   1
     Q(r) pseudized with  8 coefficients,  rinner =    0.800   0.800   0.800

     PseudoPot. # 3 for N  read from file:
     /storage/coda1/p-amedford6/0/shared/rich_project_chbe-medford/medford-share/data/pseudos_module/espresso/nninc/pbe/van/N.UPF
     MD5 check sum: 90d10febe142ad51ac9d5be1deb811c4
     Pseudo is Ultrasoft, Zval =  5.0
     Generated by new atomic code, or converted to UPF format
     Using radial grid of  729 points,  4 beta functions with:
                l(1) =   0
                l(2) =   0
                l(3) =   1
                l(4) =   1
     Q(r) pseudized with  8 coefficients,  rinner =    0.800   0.800   0.800

     PseudoPot. # 4 for C  read from file:
     /storage/coda1/p-amedford6/0/shared/rich_project_chbe-medford/medford-share/data/pseudos_module/espresso/nninc/pbe/van/C.UPF
     MD5 check sum: 1a69bf6b8db32088f5b2163dbdb77a27
     Pseudo is Ultrasoft, Zval =  4.0
     Generated by new atomic code, or converted to UPF format
     Using radial grid of  721 points,  4 beta functions with:
                l(1) =   0
                l(2) =   0
                l(3) =   1
                l(4) =   1
     Q(r) pseudized with  8 coefficients,  rinner =    0.800   0.800   0.800

     PseudoPot. # 5 for H  read from file:
     /storage/coda1/p-amedford6/0/shared/rich_project_chbe-medford/medford-share/data/pseudos_module/espresso/nninc/pbe/van/H.UPF
     MD5 check sum: b5ee9d7bfd3a09ee7748110bda690ff7
     Pseudo is Ultrasoft, Zval =  1.0
     Generated by new atomic code, or converted to UPF format
     Using radial grid of  615 points,  1 beta functions with:
                l(1) =   0
     Q(r) pseudized with  8 coefficients,  rinner =    0.800

     atomic species   valence    mass     pseudopotential
        Ti1           12.00    47.86700     Ti( 1.00)
        O1             6.00    15.99900     O ( 1.00)
        N1             5.00    14.00700     N ( 1.00)
        C1             4.00    12.01100     C ( 1.00)
        H1             1.00     1.00800     H ( 1.00)

     No symmetry found

   Cartesian axes

     site n.     atom                  positions (alat units)
         1           Ti1 tau(   1) = (   0.0004258   2.9801865   6.0000000  )
         2           Ti1 tau(   2) = (   3.2906075   1.4906267   6.0002472  )
         3           O1  tau(   3) = (   0.0006271   0.0005054   7.9858123  )
         4           O1  tau(   4) = (   3.2906025   0.0005020   7.3038282  )
         5           O1  tau(   5) = (   4.5942328   1.4918067   9.2879030  )
         6           O1  tau(   6) = (   1.9868534   1.4903216   9.2879459  )
         7           Ti1 tau(   7) = (   3.2907910   2.8959150   9.1758416  )
         8           Ti1 tau(   8) = (   0.0015273   1.4827037   9.2680791  )
         9           O1  tau(   9) = (   3.3024300   0.0156651  11.3362489  )
        10           O1  tau(  10) = (   0.0116148   5.9584955  10.6183126  )
        11           O1  tau(  11) = (   1.3202942   1.5021919  12.6211084  )
        12           O1  tau(  12) = (   5.3089492   1.4933221  12.6244093  )
        13           Ti1 tau(  13) = (   6.5318549   2.9554166  12.6004298  )
        14           Ti1 tau(  14) = (   3.2163550   1.4959796  12.4995714  )
        15           O1  tau(  15) = (   0.0198598   0.0281632  14.6562685  )
        16           O1  tau(  16) = (   3.3115091   0.0214956  13.9462002  )
        17           O1  tau(  17) = (   4.5768415   1.5604546  16.0171077  )
        18           O1  tau(  18) = (   2.0579415   1.5629007  16.0064375  )
        19           Ti1 tau(  19) = (   3.3180608   3.0267156  15.6839788  )
        20           Ti1 tau(  20) = (   0.0373526   1.5614015  15.8096867  )
        21           O1  tau(  21) = (   3.2904802   0.0005063   4.7018136  )
        22           O1  tau(  22) = (   0.0417102   0.0258274  17.2400240  )
        23           O1  tau(  23) = (   1.3043587   1.4918075   6.0039043  )
        24           O1  tau(  24) = (   5.2767064   1.4903225   6.0039473  )
        25           Ti1 tau(  25) = (   0.0000382   5.9609847   6.0000000  )
        26           Ti1 tau(  26) = (   3.2902200   4.4714249   6.0002472  )
        27           O1  tau(  27) = (   0.0002396   2.9813036   7.9858123  )
        28           O1  tau(  28) = (   3.2902150   2.9813002   7.3038282  )
        29           O1  tau(  29) = (   4.5938453   4.4726049   9.2879030  )
        30           O1  tau(  30) = (   1.9864658   4.4711199   9.2879459  )
        31           Ti1 tau(  31) = (   3.2891106   5.8743827   9.1763621  )
        32           Ti1 tau(  32) = (   0.0006254   4.4649316   9.2693709  )
        33           O1  tau(  33) = (   3.2972593   2.9937737  11.3378417  )
        34           O1  tau(  34) = (   0.0092240   2.9805883  10.6323155  )
        35           O1  tau(  35) = (   1.3143161   4.4928581  12.6237603  )
        36           O1  tau(  36) = (   5.3098643   4.4818631  12.6293382  )
        37           Ti1 tau(  37) = (   6.5333161   5.9285706  12.5502982  )
        38           Ti1 tau(  38) = (   3.2144982   4.4885123  12.4917375  )
        39           O1  tau(  39) = (   0.0198576   2.9709144  14.6477637  )
        40           O1  tau(  40) = (   3.3145585   3.0140958  13.8917140  )
        41           O1  tau(  41) = (   4.5688195   4.4932876  16.0791699  )
        42           O1  tau(  42) = (   2.0650477   4.4875755  16.0663885  )
        43           Ti1 tau(  43) = (   3.3331689   0.0560974  15.7812046  )
        44           Ti1 tau(  44) = (   0.0348837   4.6827776  16.0884590  )
        45           O1  tau(  45) = (   3.2900926   2.9813045   4.7018136  )
        46           O1  tau(  46) = (   1.3039711   4.4726057   6.0039043  )
        47           O1  tau(  47) = (   5.2763189   4.4711207   6.0039473  )
        48           N1  tau(  48) = (   0.0359943   2.9709886  17.3934402  )
        49           C1  tau(  49) = (   0.0487696   2.8543938  18.6543550  )
        50           H1  tau(  50) = (   0.0551173   3.7295775  19.3121947  )
        51           H1  tau(  51) = (   0.0550652   1.8705629  19.1311967  )
        52           O1  tau(  52) = (   3.2796845   0.1561466  18.1797653  )
        53           H1  tau(  53) = (   4.0301203   5.5808867  18.4795516  )
        54           H1  tau(  54) = (   2.4663764   5.6445902  18.4210942  )

     number of k points=    10  Fermi-Dirac smearing, width (Ry)=  0.0073
                       cart. coord. in units 2pi/alat
        k(    1) = (   0.0000000   0.0000000   0.0000000), wk =   0.1250000
        k(    2) = (   0.0000000   0.0419351   0.0000000), wk =   0.2500000
        k(    3) = (   0.0000000  -0.0838702   0.0000000), wk =   0.1250000
        k(    4) = (   0.0379955   0.0000049   0.0000000), wk =   0.2500000
        k(    5) = (   0.0379955   0.0419400   0.0000000), wk =   0.2500000
        k(    6) = (   0.0379955  -0.0838652   0.0000000), wk =   0.2500000
        k(    7) = (   0.0379955  -0.0419301   0.0000000), wk =   0.2500000
        k(    8) = (  -0.0759910  -0.0000099   0.0000000), wk =   0.1250000
        k(    9) = (  -0.0759910   0.0419252   0.0000000), wk =   0.2500000
        k(   10) = (  -0.0759910  -0.0838800   0.0000000), wk =   0.1250000

     Initial potential from superposition of free atoms

     starting charge  380.99916, renormalised to  397.00000

     negative rho (up, down):  1.693E-02 0.000E+00

     %%%%%%%%%%%%%%%%%%%%%%%%%%%%%%%%%%%%%%%%%%%%%%%%%%%%%%%%%%%%%%%%%%%%%%%%
     %                                                                      %
     % You are using vdW-DF, which was implemented by the Thonhauser group. %
     % Please cite the following two papers that made this development      %
     % possible and the two reviews that describe the various versions:     %
     %                                                                      %
     %   T. Thonhauser et al., PRL 115, 136402 (2015).                      %
     %   T. Thonhauser et al., PRB 76, 125112 (2007).                       %
     %   K. Berland et al., Rep. Prog. Phys. 78, 066501 (2015).             %
     %   D.C. Langreth et al., J. Phys.: Condens. Matter 21, 084203 (2009). %
     %                                                                      %
     %                                                                      %
     % If you are calculating the stress with vdW-DF, please also cite:     %
     %                                                                      %
     %   R. Sabatini et al., J. Phys.: Condens. Matter 24, 424209 (2012).   %
     %                                                                      %
     %%%%%%%%%%%%%%%%%%%%%%%%%%%%%%%%%%%%%%%%%%%%%%%%%%%%%%%%%%%%%%%%%%%%%%%%

     Adding external electric field

     Computed dipole along edir(3) :
        Dipole               -9.2296 Ry au,        -23.4594 Debye
        Dipole field         -0.0174 Ry au,

        Potential amp.        1.6146 Ry
        Total length         46.3494 bohr

     Starting wfcs are  300 atomic wfcs
  @ DRIVER MODE: Message from server: STATUS
  @ DRIVER MODE: Message from server: POSDATA
  @ DRIVER MODE: Reading and sharing cell
  @ DRIVER MODE: Reading and sharing positions
  @ DRIVER MODE: Received positions

     Self-consistent Calculation

     iteration #  1     ecut=    29.40 Ry     beta= 0.05
     Davidson diagonalization with overlap
     c_bands:  1 eigenvalues not converged
     c_bands:  1 eigenvalues not converged
     c_bands:  1 eigenvalues not converged
     c_bands:  1 eigenvalues not converged
     c_bands:  1 eigenvalues not converged
     c_bands:  1 eigenvalues not converged
     c_bands:  1 eigenvalues not converged
     ethr =  1.00E-05,  avg # of iterations = 19.0

[...]

     total energy              =   -2550.51808232 Ry
     estimated scf accuracy    <    4467.91844531 Ry

     iteration #  2     ecut=    29.40 Ry     beta= 0.05
     Davidson diagonalization with overlap
     ethr =  1.00E-02,  avg # of iterations = 24.4

[...]

     iteration # 67     ecut=    29.40 Ry     beta= 0.05
     Davidson diagonalization with overlap
     c_bands:  1 eigenvalues not converged
     ethr =  1.12E-10,  avg # of iterations = 13.1

[...]

     total energy              =   -2952.76115121 Ry
     estimated scf accuracy    <       0.00000016 Ry

     iteration # 70     ecut=    29.40 Ry     beta= 0.05
     Davidson diagonalization with overlap
     ethr =  4.07E-11,  avg # of iterations = 10.4

     negative rho (up, down):  1.682E-02 0.000E+00

     Adding external electric field

     Computed dipole along edir(3) :
        Dipole                1.0319 Ry au,          2.6227 Debye
        Dipole field          0.0019 Ry au,

        Potential amp.       -0.1805 Ry
        Total length         46.3494 bohr

     End of self-consistent calculation

          k = 0.0000 0.0000 0.0000 ( 18029 PWs)   bands (ev):

   -55.6838 -55.6525 -55.6497 -55.6232 -55.6167 -55.5312 -55.4976 -55.4961
   -55.4641 -55.4636 -55.4601 -55.4264 -55.2071 -54.9899 -54.6633 -54.6292
   -32.1967 -32.1669 -32.0372 -32.0343 -31.9960 -31.9765 -31.9565 -31.9503
   -31.9276 -31.8870 -31.8775 -31.8466 -31.8360 -31.8341 -31.8302 -31.8101
   -31.7888 -31.7819 -31.7788 -31.7457 -31.7409 -31.7332 -31.6981 -31.6884
   -31.6881 -31.6869 -31.6768 -31.6596 -31.6577 -31.6494 -31.6453 -31.6371
   -31.6275 -31.6273 -31.6136 -31.6058 -31.5724 -31.4557 -31.4027 -31.2633
   -31.2421 -31.2037 -31.0705 -30.9820 -30.9596 -30.8872 -30.8007 -30.6896
   -19.1483 -16.3997 -16.1573 -15.9376 -15.8399 -15.8028 -15.6051 -15.5028
   -15.4161 -15.3059 -15.2414 -15.2211 -15.2081 -15.1929 -15.1824 -15.1425
   -15.1297 -15.1245 -15.1057 -15.0876 -15.0358 -15.0251 -15.0169 -14.9262
   -14.8547 -14.8203 -14.8032 -14.7965 -14.7421 -14.7156 -14.2918 -13.1655
   -13.0491  -7.5424  -6.9585  -4.2993  -3.8123  -3.7367  -3.6392  -3.5909
    -3.5496  -3.4055  -3.3439  -3.2518  -3.1421  -2.9305  -2.8705  -2.8311
    -2.8029  -2.7421  -2.5919  -2.5477  -2.4960  -2.4839  -2.4744  -2.4609
    -2.4336  -2.4194  -2.3234  -2.2813  -2.2305  -2.2259  -2.0855  -2.0719
    -2.0454  -1.9970  -1.9608  -1.9472  -1.9428  -1.9306  -1.9174  -1.8945
    -1.8690  -1.7636  -1.6765  -1.6074  -1.4942  -1.4507  -1.3777  -1.3068
    -1.2986  -1.2286  -1.1484  -1.1371  -1.1134  -1.0827  -1.0757  -0.9611
    -0.8541  -0.8410  -0.7396  -0.6873  -0.6045  -0.5758  -0.5215  -0.4770
    -0.4468  -0.4430  -0.4270  -0.3762  -0.2305  -0.2054  -0.1674  -0.0893
    -0.0273  -0.0147   0.0260   0.0675   0.1204   0.1479   0.2005   0.2071
     0.2422   0.2865   0.2897   0.3086   0.3257   0.3522   0.5260   0.5669
     0.5781   0.6542   0.6636   0.8315   0.8454   0.9708   1.0822   1.2858
     1.3590   1.4459   1.5512   1.6426   1.9302   1.9759   3.4446   3.5364
     3.5789   3.6101   3.6898   3.6927   3.9024   3.9188   3.9411   4.0949

[...]

          k = 0.0380-0.0419 0.0000 ( 17876 PWs)   bands (ev):

[...]

          k =-0.0760-0.0000 0.0000 ( 17886 PWs)   bands (ev):

[...]

          k =-0.0760-0.0839 0.0000 ( 17948 PWs)   bands (ev):

   -55.6672 -55.6662 -55.6355 -55.6335 -55.6212 -55.5167 -55.5107 -55.4806
   -55.4801 -55.4659 -55.4446 -55.4421 -55.2059 -54.9910 -54.6463 -54.6461
   -32.0090 -31.9945 -31.9826 -31.9817 -31.9624 -31.9613 -31.9180 -31.9120
   -31.9001 -31.8779 -31.8696 -31.8478 -31.8300 -31.8157 -31.8023 -31.7990
   -31.7958 -31.7923 -31.7868 -31.7858 -31.7835 -31.7806 -31.7675 -31.7344
   -31.7268 -31.7150 -31.7047 -31.6814 -31.6801 -31.6750 -31.6701 -31.6655
   -31.6602 -31.6572 -31.6544 -31.6521 -31.5773 -31.4592 -31.3974 -31.3373
   -31.2439 -31.2252 -30.9723 -30.9722 -30.8833 -30.8831 -30.8440 -30.8439
   -19.1475 -15.8510 -15.7531 -15.6387 -15.6081 -15.5567 -15.4918 -15.4792
   -15.4120 -15.3684 -15.3652 -15.2940 -15.2864 -15.2534 -15.2429 -15.2105
   -15.2092 -15.2021 -15.1525 -15.1403 -15.1248 -15.1224 -15.1159 -15.0382
   -15.0037 -14.9988 -14.9891 -14.9067 -14.7724 -14.7319 -14.4526 -13.1510
   -13.1507  -7.5395  -6.9515  -4.2754  -3.4976  -3.4429  -3.1359  -2.9661
    -2.8802  -2.8141  -2.7888  -2.7641  -2.6133  -2.5920  -2.5386  -2.5345
    -2.5101  -2.5087  -2.5045  -2.4862  -2.4759  -2.4490  -2.4267  -2.3853
    -2.3607  -2.3545  -2.3422  -2.3288  -2.3053  -2.2923  -2.2825  -2.2349
    -2.2332  -2.2140  -2.1211  -2.0485  -1.9069  -1.8884  -1.8443  -1.8244
    -1.8111  -1.7771  -1.7514  -1.7338  -1.6809  -1.5952  -1.5100  -1.4168
    -1.3764  -1.3635  -1.2889  -1.2735  -1.1861  -1.1614  -1.0857  -1.0646
    -0.9890  -0.9692  -0.8797  -0.8359  -0.8152  -0.7809  -0.7477  -0.7307
    -0.7073  -0.6509  -0.6389  -0.5866  -0.5598  -0.4960  -0.4347  -0.4139
    -0.4021  -0.3651  -0.3457  -0.3199  -0.1795  -0.1489  -0.1205  -0.0960
     0.0419   0.0721   0.2838   0.3703   0.3910   0.4698   0.5204   0.6018
     0.6249   0.6331   0.6488   0.6864   0.7783   0.8484   0.8597   0.8927
     0.9932   1.4889   1.7225   1.7235   1.7957   1.7958   3.7330   3.7782
     3.8137   3.8356   3.9298   3.9629   3.9837   3.9856   4.0345   4.1175

     the Fermi energy is     3.4482 ev

!    total energy              =   -2952.76119640 Ry
     estimated scf accuracy    <       0.00000007 Ry
     smearing contrib. (-TS)   =      -0.02155569 Ry
     internal energy E=F+TS    =   -2952.73964071 Ry

     The total energy is F=E-TS. E is the sum of the following terms:
     one-electron contribution =  -24470.75424876 Ry
     hartree contribution      =   12326.54088875 Ry
     xc contribution           =    -488.05689060 Ry
     ewald contribution        =    9679.52860061 Ry
     electric field correction =       0.00200929 Ry

     convergence has been achieved in  70 iterations

     Forces acting on atoms (cartesian axes, Ry/au):

     atom    1 type  1   force =    -0.00000356   -0.00028892    0.09612779
     atom    2 type  1   force =     0.00007771   -0.00043664   -0.17560866
     atom    3 type  2   force =     0.00011275   -0.00005252   -0.02419965
     atom    4 type  2   force =     0.00000649   -0.00136722    0.05325760
     atom    5 type  2   force =    -0.01130043    0.00005456    0.00283655
     atom    6 type  2   force =     0.01305058    0.00040005    0.00284226
     atom    7 type  1   force =     0.00079825    0.00048298   -0.00789626
     atom    8 type  1   force =     0.00007619    0.00682871    0.02441796
     atom    9 type  2   force =    -0.00025270   -0.00080205    0.00032785
     atom   10 type  2   force =    -0.00265701    0.00235307   -0.01485140
     atom   11 type  2   force =    -0.00016631   -0.00011162   -0.00057338
     atom   12 type  2   force =     0.00053464   -0.00001549   -0.00064212
     atom   13 type  1   force =    -0.00057631   -0.00159171    0.00057267
     atom   14 type  1   force =     0.00043287   -0.00021759   -0.00024020
     atom   15 type  2   force =    -0.00000257   -0.00076572   -0.00085258
     atom   16 type  2   force =    -0.00005506   -0.00043486   -0.00036718
     atom   17 type  2   force =    -0.00118749   -0.00074986   -0.00001991
     atom   18 type  2   force =     0.00161419   -0.00049723    0.00002702
     atom   19 type  1   force =    -0.00039762    0.00058523    0.00019811
     atom   20 type  1   force =     0.00041272   -0.00048733    0.00005226
     atom   21 type  2   force =     0.00005411   -0.00001501    0.10316912
     atom   22 type  2   force =    -0.00008208   -0.00031130    0.00120450
     atom   23 type  2   force =    -0.07151073   -0.00011341   -0.02767788
     atom   24 type  2   force =     0.07142885    0.00036422   -0.02775261
     atom   25 type  1   force =     0.00017353   -0.00025681    0.09584414
     atom   26 type  1   force =     0.00005657   -0.00035480   -0.17581219
     atom   27 type  2   force =     0.00014666   -0.00004268   -0.02328611
     atom   28 type  2   force =     0.00000936   -0.00106853    0.05285723
     atom   29 type  2   force =    -0.01163888    0.00075091    0.00297476
     atom   30 type  2   force =     0.01327036    0.00126306    0.00300254
     atom   31 type  1   force =     0.00071288    0.00395547   -0.01081193
     atom   32 type  1   force =     0.00010381   -0.00902816    0.02489247
     atom   33 type  2   force =    -0.00007437    0.00060472   -0.00012295
     atom   34 type  2   force =    -0.00202545    0.00169749   -0.02189154
     atom   35 type  2   force =     0.00008252   -0.00025671   -0.00028853
     atom   36 type  2   force =    -0.00007544   -0.00007333   -0.00062398
     atom   37 type  1   force =    -0.00030349    0.00156465    0.00017990
     atom   38 type  1   force =     0.00051601    0.00040341    0.00025546
     atom   39 type  2   force =    -0.00009110   -0.00005991   -0.00123303
     atom   40 type  2   force =     0.00012518    0.00012423    0.00025921
     atom   41 type  2   force =     0.00000770   -0.00017767    0.00000382
     atom   42 type  2   force =     0.00056131   -0.00026512    0.00005630
     atom   43 type  1   force =    -0.00103853   -0.00056625    0.00041484
     atom   44 type  1   force =     0.00039149   -0.00022499    0.00055473
     atom   45 type  2   force =     0.00004419   -0.00005385    0.10317524
     atom   46 type  2   force =    -0.07153437   -0.00006976   -0.02769614
     atom   47 type  2   force =     0.07144828    0.00036404   -0.02775609
     atom   48 type  3   force =    -0.00013324   -0.00205029    0.02255291
     atom   49 type  4   force =    -0.00041953    0.00092681   -0.03023776
     atom   50 type  5   force =    -0.00011919    0.00403684    0.00453675
     atom   51 type  5   force =    -0.00014534   -0.00320662    0.00392183
     atom   52 type  2   force =     0.00152062    0.00041204   -0.00024018
     atom   53 type  5   force =    -0.00047990   -0.00046049   -0.00011993
     atom   54 type  5   force =    -0.00149913   -0.00069804    0.00028638

     Total force =     0.369002     Total SCF correction =     0.000816
  @ DRIVER MODE: Message from server: STATUS
  @ DRIVER MODE: Message from server: GETFORCE
  @ DRIVER MODE: Returning v,forces,stress,ensemble

     Writing output data file ./calc.save/
  @ DRIVER MODE: Message from server: EXIT
  @ DRIVE MODE: Exiting

     General routines

     Parallel routines

   This run was terminated on:  19:50:24  15Sep2021

   JOB DONE.