     Program PWSCF v.6.7GPU starts on 23Sep2021 at  3:54:16

     R & G space division:  proc/nbgrp/npool/nimage =       8
     Reading input from /storage/home/hcoda1/3/ntian30/research/carbon/CxH_vib/H2O_calc/ads_slab/CH2OHO_c/out_0015/pw.inp
Warning: card &CELL ignored
Warning: card   CELL_DYNAMICS='IPI', ignored
Warning: card / ignored

     Current dimensions of program PWSCF are:
     Max number of different atomic species (ntypx) = 10
     Max number of k-points (npk) =  40000
     Max angular momentum in pseudopotentials (lmaxx) =  3
     Presently no symmetry can be used with electric field

     Message from routine cell_base_init:
     DEPRECATED: use true lattice parameter, not A to a.u. conversion factor

     IMPORTANT: XC functional enforced from input :
     Exchange-correlation= BEEF-VDW
                           (   1   4  43  14   2   0   0)
     Any further DFT definition will be discarded
     Please, verify this is what you really want

  @ DRIVER MODE: Connecting to
 qe_1139763_2941011.sched-torque.pace.gatech.edutjsltpqx_scratch
  using UNIX socket
  @ DRIVER MODE: Message from server: STATUS
  @ DRIVER MODE: Message from server: INIT
  @ DRIVER MODE: Receiving replica           0          -1
  @ DRIVER MODE: Receiving encoded integer          25
  @ DRIVER MODE:  SCF:  T  FORCE:  T  STRESS:  F  VC:  F  ENSEMBLE:  F
  @ DRIVER MODE:  SCF:  T  FORCE:  T  STRESS:  F  VC:  F  ENSEMBLE:  F

     Using Slab Decomposition

     bravais-lattice index     =            0
     lattice parameter (alat)  =       1.8897  a.u.
     unit-cell volume          =    6658.9804 (a.u.)^3
     number of atoms/cell      =           53
     number of atomic types    =            4
     number of electrons       =       397.00
     number of Kohn-Sham states=          208
     kinetic-energy cutoff     =      29.3995  Ry
     charge density cutoff     =     293.9946  Ry
     scf convergence threshold =      7.3E-08
     mixing beta               =       0.0500
     number of iterations used =            8  plain     mixing
     Exchange-correlation= BEEF-VDW
                           (   1   4  43  14   2   0   0)

     celldm(1)=   1.889726  celldm(2)=   0.000000  celldm(3)=   0.000000
     celldm(4)=   0.000000  celldm(5)=   0.000000  celldm(6)=   0.000000

     crystal axes: (cart. coord. in units of alat)
               a(1) = (   6.579727   0.000000   0.000000 )
               a(2) = (  -0.000775   5.961596   0.000000 )
               a(3) = (   0.000000   0.000000  25.155947 )

     reciprocal axes: (cart. coord. in units 2 pi/alat)
               b(1) = (  0.151982  0.000020  0.000000 )
               b(2) = (  0.000000  0.167740  0.000000 )
               b(3) = (  0.000000  0.000000  0.039752 )

     PseudoPot. # 1 for O  read from file:
     /storage/coda1/p-amedford6/0/shared/rich_project_chbe-medford/medford-share/data/pseudos_module/espresso/nninc/pbe/van/O.UPF
     MD5 check sum: 78c19812648e8988a0fe644b0f25305e
     Pseudo is Ultrasoft, Zval =  6.0
     Generated by new atomic code, or converted to UPF format
     Using radial grid of  737 points,  4 beta functions with:
                l(1) =   0
                l(2) =   0
                l(3) =   1
                l(4) =   1
     Q(r) pseudized with  8 coefficients,  rinner =    0.800   0.800   0.800

     PseudoPot. # 2 for Ti read from file:
     /storage/coda1/p-amedford6/0/shared/rich_project_chbe-medford/medford-share/data/pseudos_module/espresso/nninc/pbe/van/Ti.UPF
     MD5 check sum: 8e4df49b7f0d34bbd5052bf3f5ea0213
     Pseudo is Ultrasoft, Zval = 12.0
     Generated by new atomic code, or converted to UPF format
     Using radial grid of  851 points,  6 beta functions with:
                l(1) =   0
                l(2) =   0
                l(3) =   1
                l(4) =   1
                l(5) =   2
                l(6) =   2
     Q(r) pseudized with  8 coefficients,  rinner =    1.000   1.000   1.000
                                                       1.000   1.000

     PseudoPot. # 3 for C  read from file:
     /storage/coda1/p-amedford6/0/shared/rich_project_chbe-medford/medford-share/data/pseudos_module/espresso/nninc/pbe/van/C.UPF
     MD5 check sum: 1a69bf6b8db32088f5b2163dbdb77a27
     Pseudo is Ultrasoft, Zval =  4.0
     Generated by new atomic code, or converted to UPF format
     Using radial grid of  721 points,  4 beta functions with:
                l(1) =   0
                l(2) =   0
                l(3) =   1
                l(4) =   1
     Q(r) pseudized with  8 coefficients,  rinner =    0.800   0.800   0.800

     PseudoPot. # 4 for H  read from file:
     /storage/coda1/p-amedford6/0/shared/rich_project_chbe-medford/medford-share/data/pseudos_module/espresso/nninc/pbe/van/H.UPF
     MD5 check sum: b5ee9d7bfd3a09ee7748110bda690ff7
     Pseudo is Ultrasoft, Zval =  1.0
     Generated by new atomic code, or converted to UPF format
     Using radial grid of  615 points,  1 beta functions with:
                l(1) =   0
     Q(r) pseudized with  8 coefficients,  rinner =    0.800

     atomic species   valence    mass     pseudopotential
        O1             6.00    15.99900     O ( 1.00)
        Ti1           12.00    47.86700     Ti( 1.00)
        C1             4.00    12.01100     C ( 1.00)
        H1             1.00     1.00800     H ( 1.00)

     No symmetry found

   Cartesian axes

     site n.     atom                  positions (alat units)
         1           O1  tau(   1) = (   3.2904802   0.0005063   4.7018136  )
         2           O1  tau(   2) = (   3.2900926   2.9813045   4.7018136  )
         3           Ti1 tau(   3) = (   0.0004258   2.9801865   6.0000000  )
         4           Ti1 tau(   4) = (   0.0000382   5.9609847   6.0000000  )
         5           Ti1 tau(   5) = (   3.2906075   1.4906267   6.0002472  )
         6           Ti1 tau(   6) = (   3.2902200   4.4714249   6.0002472  )
         7           O1  tau(   7) = (   1.3043587   1.4918075   6.0039043  )
         8           O1  tau(   8) = (   1.3039711   4.4726057   6.0039043  )
         9           O1  tau(   9) = (   5.2767064   1.4903225   6.0039473  )
        10           O1  tau(  10) = (   5.2763189   4.4711207   6.0039473  )
        11           O1  tau(  11) = (   3.2906025   0.0005020   7.3038282  )
        12           O1  tau(  12) = (   3.2902150   2.9813002   7.3038282  )
        13           O1  tau(  13) = (   0.0006271   0.0005054   7.9858123  )
        14           O1  tau(  14) = (   0.0002396   2.9813036   7.9858123  )
        15           Ti1 tau(  15) = (   3.3202697   0.0919879   9.1698383  )
        16           Ti1 tau(  16) = (   3.3215697   3.0759731   9.1987478  )
        17           Ti1 tau(  17) = (   0.0419684   4.5271873   9.2680259  )
        18           Ti1 tau(  18) = (   0.0391189   1.6041453   9.3419098  )
        19           O1  tau(  19) = (   4.5942328   1.4918067   9.2879030  )
        20           O1  tau(  20) = (   4.5938453   4.4726049   9.2879030  )
        21           O1  tau(  21) = (   1.9868534   1.4903216   9.2879459  )
        22           O1  tau(  22) = (   1.9864658   4.4711199   9.2879459  )
        23           O1  tau(  23) = (   0.0125722   0.0097687  10.5830051  )
        24           O1  tau(  24) = (   0.0081120   2.9918398  10.5664780  )
        25           O1  tau(  25) = (   3.3077729   2.9680546  11.3050536  )
        26           O1  tau(  26) = (   3.3059260   0.0232323  11.3367354  )
        27           Ti1 tau(  27) = (   0.0233359   0.0627999  12.4784840  )
        28           Ti1 tau(  28) = (   3.3058864   4.6637881  12.6801991  )
        29           Ti1 tau(  29) = (   3.3037148   1.5793570  12.4293313  )
        30           Ti1 tau(  30) = (   0.0089448   3.0481173  12.7472709  )
        31           O1  tau(  31) = (   1.2933882   4.4692258  12.6303221  )
        32           O1  tau(  32) = (   1.2985301   1.4993897  12.6236677  )
        33           O1  tau(  33) = (   5.3274268   4.4793405  12.6275207  )
        34           O1  tau(  34) = (   5.3265499   1.4915365  12.6220616  )
        35           O1  tau(  35) = (   3.3295878   2.9786622  13.8932268  )
        36           O1  tau(  36) = (   3.3104420   5.9098017  13.9586718  )
        37           O1  tau(  37) = (   0.0385923   0.0024916  14.6531765  )
        38           O1  tau(  38) = (   0.0086518   2.9873893  14.7004014  )
        39           Ti1 tau(  39) = (   3.3201234   2.9526136  15.6695435  )
        40           Ti1 tau(  40) = (   3.4185286   5.9334276  16.2343674  )
        41           Ti1 tau(  41) = (   0.1049196   4.5923083  15.9423708  )
        42           Ti1 tau(  42) = (   0.0892020   1.3980244  15.8930203  )
        43           O1  tau(  43) = (   4.5900789   4.4270775  16.0984088  )
        44           O1  tau(  44) = (   4.5919070   1.5192920  16.0669747  )
        45           O1  tau(  45) = (   2.0372030   1.5514537  16.0349210  )
        46           O1  tau(  46) = (   2.0392294   4.4021701  16.0428288  )
        47           O1  tau(  47) = (   0.0638787   0.0130652  17.1658208  )
        48           O1  tau(  48) = (   6.5756481   2.9829514  17.4361268  )
        49           C1  tau(  49) = (   6.2652767   2.9703434  18.6584371  )
        50           H1  tau(  50) = (   6.1492679   3.9048029  19.1865895  )
        51           H1  tau(  51) = (   6.0998186   2.0156765  19.1535163  )
        52           O1  tau(  52) = (   3.1909063   0.0039016  18.0657888  )
        53           H1  tau(  53) = (   2.2823347   0.1153277  18.3895531  )

     number of k points=    10  Fermi-Dirac smearing, width (Ry)=  0.0073
                       cart. coord. in units 2pi/alat
        k(    1) = (   0.0000000   0.0000000   0.0000000), wk =   0.1250000
        k(    2) = (   0.0000000   0.0419351   0.0000000), wk =   0.2500000
        k(    3) = (   0.0000000  -0.0838702   0.0000000), wk =   0.1250000
        k(    4) = (   0.0379955   0.0000049   0.0000000), wk =   0.2500000
        k(    5) = (   0.0379955   0.0419400   0.0000000), wk =   0.2500000
        k(    6) = (   0.0379955  -0.0838652   0.0000000), wk =   0.2500000
        k(    7) = (   0.0379955  -0.0419301   0.0000000), wk =   0.2500000
        k(    8) = (  -0.0759910  -0.0000099   0.0000000), wk =   0.1250000
        k(    9) = (  -0.0759910   0.0419252   0.0000000), wk =   0.2500000
        k(   10) = (  -0.0759910  -0.0838800   0.0000000), wk =   0.1250000

     Initial potential from superposition of free atoms

     starting charge  380.99918, renormalised to  397.00000

     negative rho (up, down):  1.768E-02 0.000E+00

     %%%%%%%%%%%%%%%%%%%%%%%%%%%%%%%%%%%%%%%%%%%%%%%%%%%%%%%%%%%%%%%%%%%%%%%%
     %                                                                      %
     % You are using vdW-DF, which was implemented by the Thonhauser group. %
     % Please cite the following two papers that made this development      %
     % possible and the two reviews that describe the various versions:     %
     %                                                                      %
     %   T. Thonhauser et al., PRL 115, 136402 (2015).                      %
     %   T. Thonhauser et al., PRB 76, 125112 (2007).                       %
     %   K. Berland et al., Rep. Prog. Phys. 78, 066501 (2015).             %
     %   D.C. Langreth et al., J. Phys.: Condens. Matter 21, 084203 (2009). %
     %                                                                      %
     %                                                                      %
     % If you are calculating the stress with vdW-DF, please also cite:     %
     %                                                                      %
     %   R. Sabatini et al., J. Phys.: Condens. Matter 24, 424209 (2012).   %
     %                                                                      %
     %%%%%%%%%%%%%%%%%%%%%%%%%%%%%%%%%%%%%%%%%%%%%%%%%%%%%%%%%%%%%%%%%%%%%%%%

     Adding external electric field

     Computed dipole along edir(3) :
        Dipole               -8.4002 Ry au,        -21.3511 Debye
        Dipole field         -0.0159 Ry au,

        Potential amp.        1.4695 Ry
        Total length         46.3494 bohr

     Starting wfcs are  299 atomic wfcs
  @ DRIVER MODE: Message from server: STATUS
  @ DRIVER MODE: Message from server: POSDATA
  @ DRIVER MODE: Reading and sharing cell
  @ DRIVER MODE: Reading and sharing positions
  @ DRIVER MODE: Received positions

     Self-consistent Calculation

     iteration #  1     ecut=    29.40 Ry     beta= 0.05
     Davidson diagonalization with overlap
     c_bands:  1 eigenvalues not converged
     c_bands:  1 eigenvalues not converged
     c_bands:  1 eigenvalues not converged
     c_bands:  1 eigenvalues not converged
     ethr =  1.00E-05,  avg # of iterations = 18.2

[...]

     total energy              =   -2610.74634258 Ry
     estimated scf accuracy    <    3908.74635820 Ry

     iteration #  2     ecut=    29.40 Ry     beta= 0.05
     Davidson diagonalization with overlap
     ethr =  1.00E-02,  avg # of iterations = 23.7

[...]

     iteration # 62     ecut=    29.40 Ry     beta= 0.05
     Davidson diagonalization with overlap
     c_bands:  1 eigenvalues not converged
     ethr =  3.27E-07,  avg # of iterations = 12.9

[...]

     total energy              =   -2963.78471263 Ry
     estimated scf accuracy    <       0.00000011 Ry

     iteration # 86     ecut=    29.40 Ry     beta= 0.05
     Davidson diagonalization with overlap
     ethr =  2.81E-11,  avg # of iterations =  4.2

     negative rho (up, down):  1.718E-02 0.000E+00

     Adding external electric field

     Computed dipole along edir(3) :
        Dipole                0.8860 Ry au,          2.2521 Debye
        Dipole field          0.0017 Ry au,

        Potential amp.       -0.1550 Ry
        Total length         46.3494 bohr

     End of self-consistent calculation

          k = 0.0000 0.0000 0.0000 ( 18029 PWs)   bands (ev):

   -55.9292 -55.8880 -55.7865 -55.7086 -55.6746 -55.6680 -55.6567 -55.6018
   -55.5653 -55.5449 -55.5229 -55.4867 -55.4658 -55.3742 -54.7738 -54.7398
   -32.3813 -32.2483 -32.2232 -32.1869 -32.1857 -32.1363 -32.1248 -32.0878
   -32.0684 -32.0154 -32.0123 -32.0044 -32.0005 -31.9932 -31.9741 -31.9573
   -31.9408 -31.9296 -31.8877 -31.8841 -31.8706 -31.8545 -31.8501 -31.8376
   -31.8101 -31.8061 -31.7783 -31.7716 -31.7693 -31.7590 -31.7471 -31.7412
   -31.7360 -31.7247 -31.7012 -31.6884 -31.6830 -31.6579 -31.6389 -31.6211
   -31.5803 -31.5791 -31.1760 -31.1004 -31.0771 -30.9932 -30.9073 -30.7958
   -20.2044 -16.5709 -16.4246 -16.2528 -16.0624 -15.9681 -15.9063 -15.6922
   -15.6375 -15.5391 -15.4183 -15.3834 -15.3389 -15.3125 -15.2944 -15.2800
   -15.2635 -15.2447 -15.2117 -15.1904 -15.1846 -15.1407 -15.0721 -15.0259
   -15.0175 -14.9779 -14.9188 -14.8771 -14.8392 -14.8000 -14.6232 -13.2743
   -13.1605  -9.4924  -5.7977  -5.7305  -4.1617  -3.7941  -3.7665  -3.7370
    -3.6514  -3.6128  -3.5088  -3.3441  -3.1626  -3.0346  -2.9449  -2.9270
    -2.8883  -2.7755  -2.7246  -2.6930  -2.6489  -2.6202  -2.6017  -2.5596
    -2.5370  -2.4965  -2.4640  -2.4356  -2.3445  -2.3372  -2.2765  -2.2161
    -2.1833  -2.1746  -2.1692  -2.1458  -2.1109  -2.0563  -2.0209  -1.9863
    -1.9491  -1.8310  -1.8136  -1.7976  -1.7265  -1.4842  -1.3535  -1.3134
    -1.2593  -1.2169  -1.1937  -1.1688  -1.1635  -1.1444  -1.1119  -1.0634
    -0.9592  -0.9008  -0.8309  -0.8250  -0.8084  -0.7450  -0.6658  -0.5948
    -0.5564  -0.5262  -0.5027  -0.4272  -0.4267  -0.3532  -0.3224  -0.2507
    -0.1364  -0.0885  -0.0649  -0.0466  -0.0338   0.0198   0.0662   0.1345
     0.1535   0.1697   0.1981   0.2778   0.2874   0.3104   0.3286   0.4251
     0.4891   0.4976   0.5662   0.6579   0.6909   0.7737   0.9017   0.9778
     1.2239   1.2484   1.3335   1.4640   1.8099   1.8538   3.2863   3.3571
     3.3944   3.4953   3.5780   3.5975   3.6758   3.7355   3.8231   3.8670

[...]

          k = 0.0380-0.0419 0.0000 ( 17876 PWs)   bands (ev):

[...]

          k =-0.0760-0.0000 0.0000 ( 17886 PWs)   bands (ev):

[...]

          k =-0.0760-0.0839 0.0000 ( 17948 PWs)   bands (ev):

   -55.9203 -55.8968 -55.7855 -55.6952 -55.6876 -55.6655 -55.6505 -55.6078
   -55.5661 -55.5470 -55.5115 -55.4982 -55.4627 -55.3773 -54.7572 -54.7562
   -32.2173 -32.2064 -32.1866 -32.1805 -32.1584 -32.0590 -32.0470 -32.0452
   -32.0301 -32.0181 -32.0110 -32.0037 -32.0012 -31.9561 -31.9503 -31.9229
   -31.9064 -31.9040 -31.8981 -31.8847 -31.8818 -31.8763 -31.8734 -31.8672
   -31.8573 -31.8437 -31.8207 -31.8114 -31.8037 -31.8008 -31.7734 -31.7630
   -31.7513 -31.7308 -31.7271 -31.7256 -31.7217 -31.7199 -31.6815 -31.6613
   -31.6236 -31.5828 -31.0905 -31.0894 -30.9904 -30.9887 -30.9505 -30.9492
   -20.1985 -16.5372 -15.9356 -15.8812 -15.7313 -15.7046 -15.6608 -15.6061
   -15.5480 -15.5063 -15.4962 -15.4602 -15.4410 -15.4166 -15.3950 -15.3672
   -15.3415 -15.2951 -15.2875 -15.2407 -15.2314 -15.2116 -15.1854 -15.1536
   -15.0999 -15.0866 -15.0663 -15.0351 -15.0139 -14.9252 -14.7599 -13.2640
   -13.2620  -9.4942  -5.7836  -5.7173  -4.1254  -3.7868  -3.1723  -3.1001
    -2.9548  -2.8769  -2.8104  -2.7889  -2.7730  -2.7420  -2.6769  -2.6563
    -2.6016  -2.5967  -2.5883  -2.5781  -2.5640  -2.5211  -2.4921  -2.4769
    -2.4701  -2.4516  -2.4238  -2.4096  -2.3961  -2.3842  -2.3740  -2.3675
    -2.3153  -2.2521  -2.1717  -2.1239  -2.1050  -1.9816  -1.9636  -1.9037
    -1.8909  -1.8836  -1.8522  -1.8482  -1.7757  -1.7210  -1.5665  -1.5502
    -1.5105  -1.4489  -1.4166  -1.3304  -1.3141  -1.2801  -1.2324  -1.2212
    -1.1972  -1.1764  -1.0784  -0.9991  -0.9578  -0.9185  -0.8059  -0.7900
    -0.7747  -0.7109  -0.6890  -0.6797  -0.6714  -0.6070  -0.5453  -0.4972
    -0.4791  -0.4426  -0.4219  -0.3741  -0.3158  -0.2374  -0.1668  -0.0968
    -0.0660   0.0409   0.1180   0.1554   0.2695   0.3258   0.3557   0.3837
     0.4522   0.5079   0.5262   0.6101   0.6806   0.7004   0.7581   0.7911
     0.8305   0.8652   1.6201   1.6330   1.6647   1.6754   3.2495   3.7764
     3.7863   3.8000   3.8189   3.8439   3.8669   3.9530   4.0021   4.0058

     the Fermi energy is     3.2263 ev

!    total energy              =   -2963.78471978 Ry
     estimated scf accuracy    <       0.00000005 Ry
     smearing contrib. (-TS)   =      -0.01873367 Ry
     internal energy E=F+TS    =   -2963.76598611 Ry

     The total energy is F=E-TS. E is the sum of the following terms:
     one-electron contribution =  -24352.17775540 Ry
     hartree contribution      =   12266.21284931 Ry
     xc contribution           =    -489.28050386 Ry
     ewald contribution        =    9611.47794235 Ry
     electric field correction =       0.00148149 Ry

     convergence has been achieved in  86 iterations

     Forces acting on atoms (cartesian axes, Ry/au):

     atom    1 type  1   force =    -0.00006949    0.00012893    0.10169378
     atom    2 type  1   force =    -0.00006660    0.00015503    0.10135813
     atom    3 type  2   force =    -0.00029108   -0.00136493    0.10432879
     atom    4 type  2   force =    -0.00022673    0.00134403    0.11680768
     atom    5 type  2   force =    -0.00034900    0.00599728   -0.16909025
     atom    6 type  2   force =    -0.00007906   -0.00499217   -0.16915531
     atom    7 type  1   force =    -0.07473133    0.00068005   -0.03018656
     atom    8 type  1   force =    -0.07427310   -0.00133194   -0.03018751
     atom    9 type  1   force =     0.07440849    0.00121490   -0.03023237
     atom   10 type  1   force =     0.07408840   -0.00091498   -0.03025427
     atom   11 type  1   force =     0.00083480    0.00106343    0.04727506
     atom   12 type  1   force =     0.00077993    0.00082514    0.04927561
     atom   13 type  1   force =     0.00026587   -0.00562904   -0.03770038
     atom   14 type  1   force =     0.00053793    0.00416626   -0.03209308
     atom   15 type  2   force =    -0.00044008    0.00078857   -0.00016853
     atom   16 type  2   force =    -0.00038870   -0.00081410   -0.00017042
     atom   17 type  2   force =     0.00029657   -0.00004260    0.00052473
     atom   18 type  2   force =     0.00027208    0.00013877    0.00106025
     atom   19 type  1   force =    -0.00989400   -0.00202660    0.00042362
     atom   20 type  1   force =    -0.00987592    0.00493001    0.00133598
     atom   21 type  1   force =     0.01190097   -0.00463470    0.00143018
     atom   22 type  1   force =     0.01107240    0.00175000    0.00190973
     atom   23 type  1   force =    -0.00024944    0.00002705    0.00020923
     atom   24 type  1   force =    -0.00026997    0.00003189   -0.00038350
     atom   25 type  1   force =    -0.00036505   -0.00040528   -0.00038817
     atom   26 type  1   force =    -0.00021125   -0.00006567   -0.00007777
     atom   27 type  2   force =    -0.00030860   -0.00021802   -0.00002789
     atom   28 type  2   force =     0.00016373   -0.00021769    0.00054284
     atom   29 type  2   force =     0.00033512   -0.00042493   -0.00075927
     atom   30 type  2   force =    -0.00016189    0.00030140    0.00012345
     atom   31 type  1   force =     0.00001047    0.00056819    0.00026309
     atom   32 type  1   force =     0.00038694    0.00018529   -0.00004476
     atom   33 type  1   force =    -0.00030792    0.00031241    0.00062750
     atom   34 type  1   force =    -0.00087465    0.00054225    0.00015163
     atom   35 type  1   force =    -0.00045791   -0.00046464   -0.00079847
     atom   36 type  1   force =    -0.00019125   -0.00020438   -0.00003615
     atom   37 type  1   force =    -0.00014261   -0.00037400    0.00036366
     atom   38 type  1   force =     0.00039994    0.00030236    0.00010710
     atom   39 type  2   force =    -0.00000782    0.00024708    0.00065359
     atom   40 type  2   force =    -0.00004400   -0.00039088    0.00033992
     atom   41 type  2   force =    -0.00017272    0.00024000    0.00045599
     atom   42 type  2   force =    -0.00031412   -0.00020129    0.00014302
     atom   43 type  1   force =     0.00020597   -0.00006853   -0.00021105
     atom   44 type  1   force =    -0.00046620   -0.00004303   -0.00029346
     atom   45 type  1   force =     0.00079705   -0.00001434   -0.00016446
     atom   46 type  1   force =    -0.00035564   -0.00006231   -0.00022791
     atom   47 type  1   force =     0.00028652   -0.00058787    0.00017795
     atom   48 type  1   force =    -0.00012154    0.00067494   -0.00013253
     atom   49 type  3   force =     0.00048293   -0.01032580   -0.00401513
     atom   50 type  4   force =    -0.00163194    0.01044434    0.00477492
     atom   51 type  4   force =    -0.00024468   -0.00088175    0.00005431
     atom   52 type  1   force =    -0.00078780    0.00027767    0.00120814
     atom   53 type  4   force =     0.00084598   -0.00063582   -0.00082069

     Total force =     0.368998     Total SCF correction =     0.000676
  @ DRIVER MODE: Message from server: STATUS
  @ DRIVER MODE: Message from server: GETFORCE
  @ DRIVER MODE: Returning v,forces,stress,ensemble

     Writing output data file ./calc.save/
  @ DRIVER MODE: Message from server: EXIT
  @ DRIVE MODE: Exiting

     General routines

     Parallel routines

   This run was terminated on:   4:22:44  23Sep2021

   JOB DONE.