     Program PWSCF v.6.7GPU starts on  8Sep2021 at 22:45:31

     R & G space division:  proc/nbgrp/npool/nimage =      10
     Reading input from /storage/home/hcoda1/3/ntian30/research/carbon/CxH_vib/CH_calc/ads_slab/CHNHH_a/out_0003/pw.inp
Warning: card &CELL ignored
Warning: card   CELL_DYNAMICS='IPI', ignored
Warning: card / ignored

     Current dimensions of program PWSCF are:
     Max number of different atomic species (ntypx) = 10
     Max number of k-points (npk) =  40000
     Max angular momentum in pseudopotentials (lmaxx) =  3
     Presently no symmetry can be used with electric field

     Message from routine cell_base_init:
     DEPRECATED: use true lattice parameter, not A to a.u. conversion factor

     IMPORTANT: XC functional enforced from input :
     Exchange-correlation= BEEF-VDW
                           (   1   4  43  14   2   0   0)
     Any further DFT definition will be discarded
     Please, verify this is what you really want

  @ DRIVER MODE: Connecting to
 qe_1139763_2767378.sched-torque.pace.gatech.eduwbng5drp_scratch
  using UNIX socket
  @ DRIVER MODE: Message from server: STATUS
  @ DRIVER MODE: Message from server: INIT
  @ DRIVER MODE: Receiving replica           0          -1
  @ DRIVER MODE: Receiving encoded integer          25
  @ DRIVER MODE:  SCF:  T  FORCE:  T  STRESS:  F  VC:  F  ENSEMBLE:  F
  @ DRIVER MODE:  SCF:  T  FORCE:  T  STRESS:  F  VC:  F  ENSEMBLE:  F

     Using Slab Decomposition

     bravais-lattice index     =            0
     lattice parameter (alat)  =       1.8897  a.u.
     unit-cell volume          =    6658.9804 (a.u.)^3
     number of atoms/cell      =           52
     number of atomic types    =            5
     number of electrons       =       390.00
     number of Kohn-Sham states=          205
     kinetic-energy cutoff     =      29.3995  Ry
     charge density cutoff     =     293.9946  Ry
     scf convergence threshold =      7.3E-08
     mixing beta               =       0.0500
     number of iterations used =            8  plain     mixing
     Exchange-correlation= BEEF-VDW
                           (   1   4  43  14   2   0   0)

     celldm(1)=   1.889726  celldm(2)=   0.000000  celldm(3)=   0.000000
     celldm(4)=   0.000000  celldm(5)=   0.000000  celldm(6)=   0.000000

     crystal axes: (cart. coord. in units of alat)
               a(1) = (   6.579727   0.000000   0.000000 )
               a(2) = (  -0.000775   5.961596   0.000000 )
               a(3) = (   0.000000   0.000000  25.155947 )

     reciprocal axes: (cart. coord. in units 2 pi/alat)
               b(1) = (  0.151982  0.000020  0.000000 )
               b(2) = (  0.000000  0.167740  0.000000 )
               b(3) = (  0.000000  0.000000  0.039752 )

     PseudoPot. # 1 for Ti read from file:
     /storage/coda1/p-amedford6/0/shared/rich_project_chbe-medford/medford-share/data/pseudos_module/espresso/nninc/pbe/van/Ti.UPF
     MD5 check sum: 8e4df49b7f0d34bbd5052bf3f5ea0213
     Pseudo is Ultrasoft, Zval = 12.0
     Generated by new atomic code, or converted to UPF format
     Using radial grid of  851 points,  6 beta functions with:
                l(1) =   0
                l(2) =   0
                l(3) =   1
                l(4) =   1
                l(5) =   2
                l(6) =   2
     Q(r) pseudized with  8 coefficients,  rinner =    1.000   1.000   1.000
                                                       1.000   1.000

     PseudoPot. # 2 for O  read from file:
     /storage/coda1/p-amedford6/0/shared/rich_project_chbe-medford/medford-share/data/pseudos_module/espresso/nninc/pbe/van/O.UPF
     MD5 check sum: 78c19812648e8988a0fe644b0f25305e
     Pseudo is Ultrasoft, Zval =  6.0
     Generated by new atomic code, or converted to UPF format
     Using radial grid of  737 points,  4 beta functions with:
                l(1) =   0
                l(2) =   0
                l(3) =   1
                l(4) =   1
     Q(r) pseudized with  8 coefficients,  rinner =    0.800   0.800   0.800

     PseudoPot. # 3 for N  read from file:
     /storage/coda1/p-amedford6/0/shared/rich_project_chbe-medford/medford-share/data/pseudos_module/espresso/nninc/pbe/van/N.UPF
     MD5 check sum: 90d10febe142ad51ac9d5be1deb811c4
     Pseudo is Ultrasoft, Zval =  5.0
     Generated by new atomic code, or converted to UPF format
     Using radial grid of  729 points,  4 beta functions with:
                l(1) =   0
                l(2) =   0
                l(3) =   1
                l(4) =   1
     Q(r) pseudized with  8 coefficients,  rinner =    0.800   0.800   0.800

     PseudoPot. # 4 for C  read from file:
     /storage/coda1/p-amedford6/0/shared/rich_project_chbe-medford/medford-share/data/pseudos_module/espresso/nninc/pbe/van/C.UPF
     MD5 check sum: 1a69bf6b8db32088f5b2163dbdb77a27
     Pseudo is Ultrasoft, Zval =  4.0
     Generated by new atomic code, or converted to UPF format
     Using radial grid of  721 points,  4 beta functions with:
                l(1) =   0
                l(2) =   0
                l(3) =   1
                l(4) =   1
     Q(r) pseudized with  8 coefficients,  rinner =    0.800   0.800   0.800

     PseudoPot. # 5 for H  read from file:
     /storage/coda1/p-amedford6/0/shared/rich_project_chbe-medford/medford-share/data/pseudos_module/espresso/nninc/pbe/van/H.UPF
     MD5 check sum: b5ee9d7bfd3a09ee7748110bda690ff7
     Pseudo is Ultrasoft, Zval =  1.0
     Generated by new atomic code, or converted to UPF format
     Using radial grid of  615 points,  1 beta functions with:
                l(1) =   0
     Q(r) pseudized with  8 coefficients,  rinner =    0.800

     atomic species   valence    mass     pseudopotential
        Ti1           12.00    47.86700     Ti( 1.00)
        O1             6.00    15.99900     O ( 1.00)
        N1             5.00    14.00700     N ( 1.00)
        C1             4.00    12.01100     C ( 1.00)
        H1             1.00     1.00800     H ( 1.00)

     No symmetry found

   Cartesian axes

     site n.     atom                  positions (alat units)
         1           Ti1 tau(   1) = (   0.0004258   2.9801865   6.0000000  )
         2           Ti1 tau(   2) = (   3.2906075   1.4906267   6.0002472  )
         3           O1  tau(   3) = (   0.0006271   0.0005054   7.9858123  )
         4           O1  tau(   4) = (   3.2906025   0.0005020   7.3038282  )
         5           O1  tau(   5) = (   4.5942328   1.4918067   9.2879030  )
         6           O1  tau(   6) = (   1.9868534   1.4903216   9.2879459  )
         7           Ti1 tau(   7) = (   3.2907910   2.8959150   9.1758416  )
         8           Ti1 tau(   8) = (   0.0015273   1.4827037   9.2680791  )
         9           O1  tau(   9) = (   3.2768318   5.9518058  11.3501096  )
        10           O1  tau(  10) = (   0.0116148   5.9584955  10.6183126  )
        11           O1  tau(  11) = (   1.2820894   1.4890407  12.6429483  )
        12           O1  tau(  12) = (   5.2701592   1.4861355  12.6244956  )
        13           Ti1 tau(  13) = (   0.0263608   2.9732685  12.5725065  )
        14           Ti1 tau(  14) = (   3.3311081   1.4825583  12.4934812  )
        15           O1  tau(  15) = (   6.5448050   0.0382128  14.6485099  )
        16           O1  tau(  16) = (   3.2835306   5.9556129  13.9684075  )
        17           O1  tau(  17) = (   4.5065730   1.5084740  16.1486978  )
        18           O1  tau(  18) = (   2.0110176   1.4968469  16.1316129  )
        19           Ti1 tau(  19) = (   3.2365874   2.9692752  15.7101938  )
        20           Ti1 tau(  20) = (   6.5183500   1.5288441  15.9766389  )
        21           O1  tau(  21) = (   3.2904802   0.0005063   4.7018136  )
        22           O1  tau(  22) = (   6.5552815   5.8936090  17.2115513  )
        23           O1  tau(  23) = (   1.3043587   1.4918075   6.0039043  )
        24           O1  tau(  24) = (   5.2767064   1.4903225   6.0039473  )
        25           Ti1 tau(  25) = (   0.0000382   5.9609847   6.0000000  )
        26           Ti1 tau(  26) = (   3.2902200   4.4714249   6.0002472  )
        27           O1  tau(  27) = (   0.0002396   2.9813036   7.9858123  )
        28           O1  tau(  28) = (   3.2902150   2.9813002   7.3038282  )
        29           O1  tau(  29) = (   4.5938453   4.4726049   9.2879030  )
        30           O1  tau(  30) = (   1.9864658   4.4711199   9.2879459  )
        31           Ti1 tau(  31) = (   3.2891106   5.8743827   9.1763621  )
        32           Ti1 tau(  32) = (   0.0006254   4.4649316   9.2693709  )
        33           O1  tau(  33) = (   3.2825058   2.9767457  11.3441782  )
        34           O1  tau(  34) = (   0.0092240   2.9805883  10.6323155  )
        35           O1  tau(  35) = (   1.2778777   4.4660374  12.6604661  )
        36           O1  tau(  36) = (   5.2710664   4.4675109  12.6369154  )
        37           Ti1 tau(  37) = (   0.0243246   5.9574881  12.5203091  )
        38           Ti1 tau(  38) = (   3.3318591   4.4611298  12.5006215  )
        39           O1  tau(  39) = (   6.5359656   2.9584677  14.7835642  )
        40           O1  tau(  40) = (   3.2771955   2.9708399  13.9242642  )
        41           O1  tau(  41) = (   4.4981441   4.4410618  16.1740548  )
        42           O1  tau(  42) = (   2.0042129   4.4512231  16.1075086  )
        43           Ti1 tau(  43) = (   3.2538698   5.9555144  15.7617387  )
        44           Ti1 tau(  44) = (   6.5531130   4.6830099  15.9084494  )
        45           O1  tau(  45) = (   3.2900926   2.9813045   4.7018136  )
        46           O1  tau(  46) = (   1.3039711   4.4726057   6.0039043  )
        47           O1  tau(  47) = (   5.2763189   4.4711207   6.0039473  )
        48           N1  tau(  48) = (   5.6690603   3.2468973  18.6585782  )
        49           C1  tau(  49) = (   0.0091554   2.6844975  17.9068455  )
        50           H1  tau(  50) = (   0.8805123   2.3964943  18.5001670  )
        51           H1  tau(  51) = (   4.8619660   3.6873350  18.2178346  )
        52           H1  tau(  52) = (   5.8095507   3.4768026  19.6356901  )

     number of k points=    10  Fermi-Dirac smearing, width (Ry)=  0.0073
                       cart. coord. in units 2pi/alat
        k(    1) = (   0.0000000   0.0000000   0.0000000), wk =   0.1250000
        k(    2) = (   0.0000000   0.0419351   0.0000000), wk =   0.2500000
        k(    3) = (   0.0000000  -0.0838702   0.0000000), wk =   0.1250000
        k(    4) = (   0.0379955   0.0000049   0.0000000), wk =   0.2500000
        k(    5) = (   0.0379955   0.0419400   0.0000000), wk =   0.2500000
        k(    6) = (   0.0379955  -0.0838652   0.0000000), wk =   0.2500000
        k(    7) = (   0.0379955  -0.0419301   0.0000000), wk =   0.2500000
        k(    8) = (  -0.0759910  -0.0000099   0.0000000), wk =   0.1250000
        k(    9) = (  -0.0759910   0.0419252   0.0000000), wk =   0.2500000
        k(   10) = (  -0.0759910  -0.0838800   0.0000000), wk =   0.1250000

     Initial potential from superposition of free atoms

     starting charge  373.99917, renormalised to  390.00000

     negative rho (up, down):  1.782E-02 0.000E+00

     %%%%%%%%%%%%%%%%%%%%%%%%%%%%%%%%%%%%%%%%%%%%%%%%%%%%%%%%%%%%%%%%%%%%%%%%
     %                                                                      %
     % You are using vdW-DF, which was implemented by the Thonhauser group. %
     % Please cite the following two papers that made this development      %
     % possible and the two reviews that describe the various versions:     %
     %                                                                      %
     %   T. Thonhauser et al., PRL 115, 136402 (2015).                      %
     %   T. Thonhauser et al., PRB 76, 125112 (2007).                       %
     %   K. Berland et al., Rep. Prog. Phys. 78, 066501 (2015).             %
     %   D.C. Langreth et al., J. Phys.: Condens. Matter 21, 084203 (2009). %
     %                                                                      %
     %                                                                      %
     % If you are calculating the stress with vdW-DF, please also cite:     %
     %                                                                      %
     %   R. Sabatini et al., J. Phys.: Condens. Matter 24, 424209 (2012).   %
     %                                                                      %
     %%%%%%%%%%%%%%%%%%%%%%%%%%%%%%%%%%%%%%%%%%%%%%%%%%%%%%%%%%%%%%%%%%%%%%%%

     Adding external electric field

     Computed dipole along edir(3) :
        Dipole               -5.8555 Ry au,        -14.8831 Debye
        Dipole field         -0.0111 Ry au,

        Potential amp.        1.0243 Ry
        Total length         46.3494 bohr

     Starting wfcs are  295 atomic wfcs
  @ DRIVER MODE: Message from server: STATUS
  @ DRIVER MODE: Message from server: POSDATA
  @ DRIVER MODE: Reading and sharing cell
  @ DRIVER MODE: Reading and sharing positions
  @ DRIVER MODE: Received positions

     Self-consistent Calculation

     iteration #  1     ecut=    29.40 Ry     beta= 0.05
     Davidson diagonalization with overlap
     c_bands:  4 eigenvalues not converged
     c_bands:  1 eigenvalues not converged
     c_bands:  2 eigenvalues not converged
     c_bands:  2 eigenvalues not converged
     c_bands:  3 eigenvalues not converged
     c_bands:  3 eigenvalues not converged
     c_bands:  3 eigenvalues not converged
     c_bands:  3 eigenvalues not converged
     c_bands:  3 eigenvalues not converged
     c_bands:  5 eigenvalues not converged
     ethr =  1.00E-05,  avg # of iterations = 20.0

[...]

     total energy              =   -2777.21958741 Ry
     estimated scf accuracy    <    1561.70074877 Ry

[...]

     iteration #  3     ecut=    29.40 Ry     beta= 0.05
     Davidson diagonalization with overlap
     ethr =  1.00E-02,  avg # of iterations = 15.1

[...]

     iteration # 56     ecut=    29.40 Ry     beta= 0.05
     Davidson diagonalization with overlap
     c_bands:  1 eigenvalues not converged
     ethr =  4.07E-11,  avg # of iterations = 12.7

[...]

     total energy              =   -2919.04272858 Ry
     estimated scf accuracy    <       0.00000019 Ry

     iteration # 57     ecut=    29.40 Ry     beta= 0.05
     Davidson diagonalization with overlap
     ethr =  4.07E-11,  avg # of iterations =  8.3

     negative rho (up, down):  1.801E-02 0.000E+00

     Adding external electric field

     Computed dipole along edir(3) :
        Dipole                1.3843 Ry au,          3.5185 Debye
        Dipole field          0.0026 Ry au,

        Potential amp.       -0.2422 Ry
        Total length         46.3494 bohr

     End of self-consistent calculation

          k = 0.0000 0.0000 0.0000 ( 18029 PWs)   bands (ev):

   -55.5064 -55.4815 -55.4701 -55.4474 -55.4205 -55.3755 -55.3336 -55.3256
   -55.3063 -55.2993 -55.2699 -55.2679 -55.0526 -54.9454 -54.4849 -54.4508
   -32.0734 -31.9692 -31.8670 -31.8452 -31.8349 -31.8018 -31.7941 -31.7719
   -31.7616 -31.7253 -31.7211 -31.7164 -31.6829 -31.6578 -31.6480 -31.6459
   -31.6343 -31.6094 -31.5993 -31.5908 -31.5789 -31.5642 -31.5388 -31.5346
   -31.5341 -31.5141 -31.5110 -31.5064 -31.5051 -31.4961 -31.4820 -31.4666
   -31.4558 -31.4553 -31.4321 -31.4211 -31.4055 -31.3556 -31.2893 -31.1904
   -31.1799 -31.0916 -30.8931 -30.8020 -30.7797 -30.7097 -30.6231 -30.5121
   -17.0511 -16.3062 -16.0223 -15.8589 -15.7149 -15.6839 -15.5734 -15.3982
   -15.3207 -15.2455 -15.2260 -15.1462 -15.1309 -15.1162 -15.0950 -15.0362
   -15.0282 -14.9831 -14.9781 -14.9441 -14.9241 -14.8926 -14.8750 -14.8675
   -14.8137 -14.7728 -14.7091 -14.6429 -14.5877 -14.1195 -12.9876 -12.8707
    -9.4663  -7.2040  -4.6148  -3.6634  -3.4937  -3.4132  -3.4038  -3.3832
    -3.1935  -3.1173  -2.8425  -2.7481  -2.7133  -2.7071  -2.6802  -2.6215
    -2.5599  -2.4489  -2.3808  -2.3482  -2.3280  -2.3228  -2.3124  -2.2944
    -2.2840  -2.2528  -2.1812  -2.1252  -2.0507  -1.9678  -1.8924  -1.8775
    -1.8165  -1.7887  -1.7738  -1.7674  -1.7605  -1.7360  -1.7298  -1.6385
    -1.5510  -1.5098  -1.4097  -1.3870  -1.2929  -1.1591  -1.1285  -1.0245
    -1.0174  -0.9615  -0.9370  -0.8933  -0.8451  -0.8353  -0.8181  -0.6743
    -0.6075  -0.5464  -0.4880  -0.4614  -0.4428  -0.3588  -0.2897  -0.2817
    -0.2643  -0.2435  -0.0683  -0.0362  -0.0165   0.0067   0.0217   0.1112
     0.1431   0.2175   0.2972   0.3118   0.3171   0.3947   0.4179   0.4614
     0.4636   0.4908   0.4963   0.6674   0.6781   0.7044   0.7336   0.8134
     0.8992   1.1031   1.1273   1.1674   1.4529   1.5195   1.5375   1.7252
     2.1108   2.1578   3.5837   3.6886   3.7210   3.7366   3.7648   3.8343
     3.9013   4.0794   4.0864   4.1175   4.1227

[...]

          k = 0.0380-0.0419 0.0000 ( 17876 PWs)   bands (ev):

[...]

          k =-0.0760-0.0000 0.0000 ( 17886 PWs)   bands (ev):

[...]

          k =-0.0760-0.0839 0.0000 ( 17948 PWs)   bands (ev):

   -55.4906 -55.4857 -55.4647 -55.4641 -55.4173 -55.3666 -55.3425 -55.3287
   -55.2876 -55.2861 -55.2856 -55.2838 -55.0498 -54.9481 -54.4678 -54.4677
   -31.8788 -31.8749 -31.8097 -31.7847 -31.7841 -31.7726 -31.7576 -31.7569
   -31.7170 -31.7118 -31.7102 -31.7028 -31.6738 -31.6366 -31.6277 -31.6238
   -31.6233 -31.6207 -31.6167 -31.6151 -31.6050 -31.5844 -31.5838 -31.5708
   -31.5677 -31.5570 -31.5445 -31.5286 -31.5208 -31.5183 -31.5023 -31.5015
   -31.5009 -31.4998 -31.4765 -31.4645 -31.4610 -31.3601 -31.2846 -31.2091
   -31.1829 -31.1755 -30.7924 -30.7923 -30.7058 -30.7057 -30.6664 -30.6664
   -17.0462 -15.7640 -15.7021 -15.5669 -15.4854 -15.4635 -15.4514 -15.4279
   -15.2903 -15.2740 -15.2559 -15.2058 -15.2020 -15.1993 -15.1607 -15.1041
   -15.0697 -15.0672 -15.0586 -15.0328 -14.9975 -14.9923 -14.9581 -14.9495
   -14.9359 -14.8463 -14.8411 -14.8388 -14.6679 -14.3442 -12.9724 -12.9723
    -9.4710  -7.2054  -4.5966  -3.0467  -2.9732  -2.8130  -2.7105  -2.6805
    -2.6487  -2.5066  -2.4707  -2.4614  -2.4523  -2.4185  -2.4015  -2.3808
    -2.3514  -2.3374  -2.3329  -2.3154  -2.3039  -2.2913  -2.2485  -2.2055
    -2.2041  -2.1942  -2.1638  -2.1433  -2.1312  -2.1024  -2.0831  -2.0675
    -2.0538  -2.0069  -1.8316  -1.7998  -1.7008  -1.6790  -1.6699  -1.6510
    -1.5818  -1.5548  -1.5226  -1.4842  -1.4334  -1.3103  -1.2428  -1.2215
    -1.1929  -1.1834  -1.1314  -1.0085  -0.9729  -0.9501  -0.9037  -0.8672
    -0.8238  -0.8120  -0.6924  -0.6878  -0.6419  -0.5995  -0.4858  -0.4683
    -0.4590  -0.4473  -0.4330  -0.3032  -0.2936  -0.2870  -0.2694  -0.2257
    -0.2085  -0.1033  -0.0055   0.0113   0.1135   0.1644   0.2906   0.3534
     0.4491   0.4957   0.5199   0.6098   0.6464   0.7281   0.7493   0.8052
     0.8167   0.9099   0.9669   0.9856   0.9936   1.0614   1.8975   1.8984
     1.9777   1.9778   3.7444   3.8392   3.8779   3.9001   3.9461   4.1040
     4.1204   4.1677   4.1707   4.1850   4.2664

     the Fermi energy is     3.6415 ev

!    total energy              =   -2919.04278573 Ry
     estimated scf accuracy    <       0.00000007 Ry
     smearing contrib. (-TS)   =      -0.03613040 Ry
     internal energy E=F+TS    =   -2919.00665533 Ry

     The total energy is F=E-TS. E is the sum of the following terms:
     one-electron contribution =  -24479.33291047 Ry
     hartree contribution      =   12327.85754059 Ry
     xc contribution           =    -479.99933952 Ry
     ewald contribution        =    9712.46443784 Ry
     electric field correction =       0.00361622 Ry

     convergence has been achieved in  57 iterations

     Forces acting on atoms (cartesian axes, Ry/au):

     atom    1 type  1   force =     0.00009296   -0.00020700    0.09496505
     atom    2 type  1   force =    -0.00022713   -0.00036751   -0.17672893
     atom    3 type  2   force =    -0.00004557   -0.00007073   -0.02292199
     atom    4 type  2   force =    -0.00004561   -0.00167863    0.05576507
     atom    5 type  2   force =    -0.01135139   -0.00123140    0.00625069
     atom    6 type  2   force =     0.01253029   -0.00035101    0.00441456
     atom    7 type  1   force =    -0.00114267    0.00152788   -0.01375716
     atom    8 type  1   force =     0.00062774    0.00695619    0.01263984
     atom    9 type  2   force =     0.00020416   -0.00005070    0.00012670
     atom   10 type  2   force =    -0.00164044    0.00009801   -0.00994901
     atom   11 type  2   force =    -0.00022080    0.00002353    0.00016829
     atom   12 type  2   force =     0.00025444    0.00011265   -0.00005458
     atom   13 type  1   force =     0.00006837   -0.00001109    0.00024378
     atom   14 type  1   force =     0.00001029   -0.00014995    0.00019336
     atom   15 type  2   force =     0.00001631    0.00001076    0.00010106
     atom   16 type  2   force =     0.00025805    0.00028099    0.00003824
     atom   17 type  2   force =     0.00004643   -0.00019759    0.00029318
     atom   18 type  2   force =     0.00027732    0.00010688    0.00017782
     atom   19 type  1   force =     0.00033806   -0.00002900   -0.00026706
     atom   20 type  1   force =     0.00030663   -0.00010581   -0.00034673
     atom   21 type  2   force =     0.00004598   -0.00004434    0.10358436
     atom   22 type  2   force =    -0.00004666   -0.00000218    0.00056123
     atom   23 type  2   force =    -0.07096279   -0.00016372   -0.02734298
     atom   24 type  2   force =     0.07081500    0.00031564   -0.02735793
     atom   25 type  1   force =    -0.00012626   -0.00020572    0.09465939
     atom   26 type  1   force =    -0.00019160   -0.00045712   -0.17687724
     atom   27 type  2   force =     0.00006932   -0.00035508   -0.02194919
     atom   28 type  2   force =     0.00003691   -0.00138994    0.05531677
     atom   29 type  2   force =    -0.01157333   -0.00009021    0.00586002
     atom   30 type  2   force =     0.01264574    0.00013004    0.00407630
     atom   31 type  1   force =    -0.00125198    0.00418467   -0.01463024
     atom   32 type  1   force =     0.00055974   -0.00779164    0.01249482
     atom   33 type  2   force =    -0.00001151    0.00009355    0.00003750
     atom   34 type  2   force =    -0.00127479    0.00082950   -0.00834639
     atom   35 type  2   force =     0.00010391    0.00020245   -0.00000230
     atom   36 type  2   force =     0.00013712    0.00004431    0.00019589
     atom   37 type  1   force =     0.00002923    0.00000938   -0.00005550
     atom   38 type  1   force =    -0.00004700   -0.00015947   -0.00018830
     atom   39 type  2   force =    -0.00016488   -0.00015915    0.00003177
     atom   40 type  2   force =     0.00023287   -0.00002278   -0.00009809
     atom   41 type  2   force =     0.00043087   -0.00011785    0.00035159
     atom   42 type  2   force =    -0.00019231    0.00009577   -0.00032230
     atom   43 type  1   force =    -0.00028233    0.00006140    0.00009371
     atom   44 type  1   force =     0.00053028   -0.00017609   -0.00024080
     atom   45 type  2   force =     0.00002983   -0.00005000    0.10355480
     atom   46 type  2   force =    -0.07096465   -0.00007172   -0.02733301
     atom   47 type  2   force =     0.07082363    0.00032336   -0.02736543
     atom   48 type  3   force =    -0.01129460    0.01074491    0.00351318
     atom   49 type  4   force =     0.00507988   -0.00425244   -0.00290001
     atom   50 type  5   force =     0.00081392   -0.00023251   -0.00085032
     atom   51 type  5   force =     0.00533622   -0.00399550    0.00180384
     atom   52 type  5   force =     0.00030679   -0.00196399   -0.00162732

     Total force =     0.366484     Total SCF correction =     0.000614
  @ DRIVER MODE: Message from server: STATUS
  @ DRIVER MODE: Message from server: GETFORCE
  @ DRIVER MODE: Returning v,forces,stress,ensemble

     Writing output data file ./calc.save/
  @ DRIVER MODE: Message from server: EXIT
  @ DRIVE MODE: Exiting

     General routines

     Parallel routines

   This run was terminated on:  23: 0:33   8Sep2021

   JOB DONE.