     Program PWSCF v.6.7GPU starts on 24Aug2021 at  6:25:16

     R & G space division:  proc/nbgrp/npool/nimage =       6
     Reading input from /storage/home/hcoda1/3/ntian30/research/carbon/CH2_vib/ads_slab/CH2NHN_a/out_0032/pw.inp
Warning: card &CELL ignored
Warning: card   CELL_DYNAMICS='IPI', ignored
Warning: card / ignored

     Current dimensions of program PWSCF are:
     Max number of different atomic species (ntypx) = 10
     Max number of k-points (npk) =  40000
     Max angular momentum in pseudopotentials (lmaxx) =  3
     Presently no symmetry can be used with electric field

     Message from routine cell_base_init:
     DEPRECATED: use true lattice parameter, not A to a.u. conversion factor

     IMPORTANT: XC functional enforced from input :
     Exchange-correlation= BEEF-VDW
                           (   1   4  43  14   2   0   0)
     Any further DFT definition will be discarded
     Please, verify this is what you really want

  @ DRIVER MODE: Connecting to
 qe_1139763_2632804.sched-torque.pace.gatech.eduus88dyq7_scratch
  using UNIX socket
  @ DRIVER MODE: Message from server: STATUS
  @ DRIVER MODE: Message from server: INIT
  @ DRIVER MODE: Receiving replica           0          -1
  @ DRIVER MODE: Receiving encoded integer          25
  @ DRIVER MODE:  SCF:  T  FORCE:  T  STRESS:  F  VC:  F  ENSEMBLE:  F
  @ DRIVER MODE:  SCF:  T  FORCE:  T  STRESS:  F  VC:  F  ENSEMBLE:  F

     Using Slab Decomposition

     bravais-lattice index     =            0
     lattice parameter (alat)  =       1.8897  a.u.
     unit-cell volume          =    6658.9804 (a.u.)^3
     number of atoms/cell      =           53
     number of atomic types    =            5
     number of electrons       =       395.00
     number of Kohn-Sham states=          207
     kinetic-energy cutoff     =      29.3995  Ry
     charge density cutoff     =     293.9946  Ry
     scf convergence threshold =      7.3E-08
     mixing beta               =       0.0500
     number of iterations used =            8  plain     mixing
     Exchange-correlation= BEEF-VDW
                           (   1   4  43  14   2   0   0)

     celldm(1)=   1.889726  celldm(2)=   0.000000  celldm(3)=   0.000000
     celldm(4)=   0.000000  celldm(5)=   0.000000  celldm(6)=   0.000000

     crystal axes: (cart. coord. in units of alat)
               a(1) = (   6.579727   0.000000   0.000000 )
               a(2) = (  -0.000775   5.961596   0.000000 )
               a(3) = (   0.000000   0.000000  25.155947 )

     reciprocal axes: (cart. coord. in units 2 pi/alat)
               b(1) = (  0.151982  0.000020  0.000000 )
               b(2) = (  0.000000  0.167740  0.000000 )
               b(3) = (  0.000000  0.000000  0.039752 )

     PseudoPot. # 1 for Ti read from file:
     /storage/coda1/p-amedford6/0/shared/rich_project_chbe-medford/medford-share/data/pseudos_module/espresso/nninc/pbe/van/Ti.UPF
     MD5 check sum: 8e4df49b7f0d34bbd5052bf3f5ea0213
     Pseudo is Ultrasoft, Zval = 12.0
     Generated by new atomic code, or converted to UPF format
     Using radial grid of  851 points,  6 beta functions with:
                l(1) =   0
                l(2) =   0
                l(3) =   1
                l(4) =   1
                l(5) =   2
                l(6) =   2
     Q(r) pseudized with  8 coefficients,  rinner =    1.000   1.000   1.000
                                                       1.000   1.000

     PseudoPot. # 2 for O  read from file:
     /storage/coda1/p-amedford6/0/shared/rich_project_chbe-medford/medford-share/data/pseudos_module/espresso/nninc/pbe/van/O.UPF
     MD5 check sum: 78c19812648e8988a0fe644b0f25305e
     Pseudo is Ultrasoft, Zval =  6.0
     Generated by new atomic code, or converted to UPF format
     Using radial grid of  737 points,  4 beta functions with:
                l(1) =   0
                l(2) =   0
                l(3) =   1
                l(4) =   1
     Q(r) pseudized with  8 coefficients,  rinner =    0.800   0.800   0.800

     PseudoPot. # 3 for H  read from file:
     /storage/coda1/p-amedford6/0/shared/rich_project_chbe-medford/medford-share/data/pseudos_module/espresso/nninc/pbe/van/H.UPF
     MD5 check sum: b5ee9d7bfd3a09ee7748110bda690ff7
     Pseudo is Ultrasoft, Zval =  1.0
     Generated by new atomic code, or converted to UPF format
     Using radial grid of  615 points,  1 beta functions with:
                l(1) =   0
     Q(r) pseudized with  8 coefficients,  rinner =    0.800

     PseudoPot. # 4 for N  read from file:
     /storage/coda1/p-amedford6/0/shared/rich_project_chbe-medford/medford-share/data/pseudos_module/espresso/nninc/pbe/van/N.UPF
     MD5 check sum: 90d10febe142ad51ac9d5be1deb811c4
     Pseudo is Ultrasoft, Zval =  5.0
     Generated by new atomic code, or converted to UPF format
     Using radial grid of  729 points,  4 beta functions with:
                l(1) =   0
                l(2) =   0
                l(3) =   1
                l(4) =   1
     Q(r) pseudized with  8 coefficients,  rinner =    0.800   0.800   0.800

     PseudoPot. # 5 for C  read from file:
     /storage/coda1/p-amedford6/0/shared/rich_project_chbe-medford/medford-share/data/pseudos_module/espresso/nninc/pbe/van/C.UPF
     MD5 check sum: 1a69bf6b8db32088f5b2163dbdb77a27
     Pseudo is Ultrasoft, Zval =  4.0
     Generated by new atomic code, or converted to UPF format
     Using radial grid of  721 points,  4 beta functions with:
                l(1) =   0
                l(2) =   0
                l(3) =   1
                l(4) =   1
     Q(r) pseudized with  8 coefficients,  rinner =    0.800   0.800   0.800

     atomic species   valence    mass     pseudopotential
        Ti1           12.00    47.86700     Ti( 1.00)
        O1             6.00    15.99900     O ( 1.00)
        H1             1.00     1.00800     H ( 1.00)
        N1             5.00    14.00700     N ( 1.00)
        C1             4.00    12.01100     C ( 1.00)

     No symmetry found

   Cartesian axes

     site n.     atom                  positions (alat units)
         1           Ti1 tau(   1) = (   0.0004258   2.9801865   6.0000000  )
         2           Ti1 tau(   2) = (   3.2906075   1.4906267   6.0002472  )
         3           O1  tau(   3) = (   0.0006271   0.0005054   7.9858123  )
         4           O1  tau(   4) = (   3.2906025   0.0005020   7.3038282  )
         5           O1  tau(   5) = (   4.5942328   1.4918067   9.2879030  )
         6           O1  tau(   6) = (   1.9868534   1.4903216   9.2879459  )
         7           Ti1 tau(   7) = (   3.2907910   2.8959150   9.1758416  )
         8           Ti1 tau(   8) = (   0.0015273   1.4827037   9.2680791  )
         9           O1  tau(   9) = (   3.2899722   5.9582610  11.3470199  )
        10           O1  tau(  10) = (   0.0116148   5.9584955  10.6183126  )
        11           O1  tau(  11) = (   1.3017974   1.5038179  12.6264390  )
        12           O1  tau(  12) = (   5.3008627   1.4977989  12.6274213  )
        13           Ti1 tau(  13) = (   6.5569486   2.9952213  12.5532680  )
        14           Ti1 tau(  14) = (   3.2411515   1.4937708  12.4940153  )
        15           O1  tau(  15) = (   0.0420230   0.0496738  14.6358928  )
        16           O1  tau(  16) = (   3.2967895   0.0255587  13.9395418  )
        17           O1  tau(  17) = (   4.5559197   1.4885259  16.1071037  )
        18           O1  tau(  18) = (   2.0591626   1.5161495  16.1621771  )
        19           Ti1 tau(  19) = (   3.3530411   3.0041182  15.7164831  )
        20           Ti1 tau(  20) = (   0.0838170   1.4186333  16.1871295  )
        21           O1  tau(  21) = (   3.2904802   0.0005063   4.7018136  )
        22           O1  tau(  22) = (   0.0186128   5.8515937  17.1570623  )
        23           O1  tau(  23) = (   1.3043587   1.4918075   6.0039043  )
        24           O1  tau(  24) = (   5.2767064   1.4903225   6.0039473  )
        25           Ti1 tau(  25) = (   0.0000382   5.9609847   6.0000000  )
        26           Ti1 tau(  26) = (   3.2902200   4.4714249   6.0002472  )
        27           O1  tau(  27) = (   0.0002396   2.9813036   7.9858123  )
        28           O1  tau(  28) = (   3.2902150   2.9813002   7.3038282  )
        29           O1  tau(  29) = (   4.5938453   4.4726049   9.2879030  )
        30           O1  tau(  30) = (   1.9864658   4.4711199   9.2879459  )
        31           Ti1 tau(  31) = (   3.2891106   5.8743827   9.1763621  )
        32           Ti1 tau(  32) = (   0.0006254   4.4649316   9.2693709  )
        33           O1  tau(  33) = (   3.2942209   2.9913469  11.3437431  )
        34           O1  tau(  34) = (   0.0092240   2.9805883  10.6323155  )
        35           O1  tau(  35) = (   1.3035300   4.4624727  12.6575770  )
        36           O1  tau(  36) = (   5.3036227   4.4740614  12.6577195  )
        37           Ti1 tau(  37) = (   6.5462442   0.0298550  12.5256591  )
        38           Ti1 tau(  38) = (   3.2421849   4.4737490  12.5077532  )
        39           O1  tau(  39) = (   0.0112388   2.9415499  14.8853239  )
        40           O1  tau(  40) = (   3.3099764   2.9718378  13.9238501  )
        41           O1  tau(  41) = (   4.5641009   4.4837371  16.0358624  )
        42           O1  tau(  42) = (   2.0725645   4.4682733  16.0457710  )
        43           Ti1 tau(  43) = (   3.3278145   0.0095312  15.7444629  )
        44           Ti1 tau(  44) = (   0.0453891   4.6133464  15.7643304  )
        45           O1  tau(  45) = (   3.2900926   2.9813045   4.7018136  )
        46           O1  tau(  46) = (   1.3039711   4.4726057   6.0039043  )
        47           O1  tau(  47) = (   5.2763189   4.4711207   6.0039473  )
        48           H1  tau(  48) = (   4.6525291   2.0178258  18.2241430  )
        49           N1  tau(  49) = (   6.4431608   2.5827981  18.1004554  )
        50           C1  tau(  50) = (   0.9260493   3.0590344  18.7174074  )
        51           H1  tau(  51) = (   0.8415052   3.4111086  19.7359056  )
        52           H1  tau(  52) = (   1.8727361   3.0611994  18.2151121  )
        53           N1  tau(  53) = (   5.3029592   2.6053404  18.7594781  )

     number of k points=    10  Fermi-Dirac smearing, width (Ry)=  0.0073
                       cart. coord. in units 2pi/alat
        k(    1) = (   0.0000000   0.0000000   0.0000000), wk =   0.1250000
        k(    2) = (   0.0000000   0.0419351   0.0000000), wk =   0.2500000
        k(    3) = (   0.0000000  -0.0838702   0.0000000), wk =   0.1250000
        k(    4) = (   0.0379955   0.0000049   0.0000000), wk =   0.2500000
        k(    5) = (   0.0379955   0.0419400   0.0000000), wk =   0.2500000
        k(    6) = (   0.0379955  -0.0838652   0.0000000), wk =   0.2500000
        k(    7) = (   0.0379955  -0.0419301   0.0000000), wk =   0.2500000
        k(    8) = (  -0.0759910  -0.0000099   0.0000000), wk =   0.1250000
        k(    9) = (  -0.0759910   0.0419252   0.0000000), wk =   0.2500000
        k(   10) = (  -0.0759910  -0.0838800   0.0000000), wk =   0.1250000

     Initial potential from superposition of free atoms

     starting charge  378.99916, renormalised to  395.00000

     negative rho (up, down):  1.717E-02 0.000E+00

     %%%%%%%%%%%%%%%%%%%%%%%%%%%%%%%%%%%%%%%%%%%%%%%%%%%%%%%%%%%%%%%%%%%%%%%%
     %                                                                      %
     % You are using vdW-DF, which was implemented by the Thonhauser group. %
     % Please cite the following two papers that made this development      %
     % possible and the two reviews that describe the various versions:     %
     %                                                                      %
     %   T. Thonhauser et al., PRL 115, 136402 (2015).                      %
     %   T. Thonhauser et al., PRB 76, 125112 (2007).                       %
     %   K. Berland et al., Rep. Prog. Phys. 78, 066501 (2015).             %
     %   D.C. Langreth et al., J. Phys.: Condens. Matter 21, 084203 (2009). %
     %                                                                      %
     %                                                                      %
     % If you are calculating the stress with vdW-DF, please also cite:     %
     %                                                                      %
     %   R. Sabatini et al., J. Phys.: Condens. Matter 24, 424209 (2012).   %
     %                                                                      %
     %%%%%%%%%%%%%%%%%%%%%%%%%%%%%%%%%%%%%%%%%%%%%%%%%%%%%%%%%%%%%%%%%%%%%%%%

     Adding external electric field

     Computed dipole along edir(3) :
        Dipole               -8.7889 Ry au,        -22.3391 Debye
        Dipole field         -0.0166 Ry au,

        Potential amp.        1.5375 Ry
        Total length         46.3494 bohr

     Starting wfcs are  299 atomic wfcs
  @ DRIVER MODE: Message from server: STATUS
  @ DRIVER MODE: Message from server: POSDATA
  @ DRIVER MODE: Reading and sharing cell
  @ DRIVER MODE: Reading and sharing positions
  @ DRIVER MODE: Received positions

     Self-consistent Calculation

     iteration #  1     ecut=    29.40 Ry     beta= 0.05
     Davidson diagonalization with overlap
     c_bands:  1 eigenvalues not converged
     c_bands:  1 eigenvalues not converged
     c_bands:  1 eigenvalues not converged
     c_bands:  2 eigenvalues not converged
     c_bands:  2 eigenvalues not converged
     c_bands:  1 eigenvalues not converged
     c_bands:  2 eigenvalues not converged
     ethr =  1.00E-05,  avg # of iterations = 18.8

[...]

     total energy              =   -2593.22290287 Ry
     estimated scf accuracy    <    3846.29682276 Ry

     iteration #  2     ecut=    29.40 Ry     beta= 0.05
     Davidson diagonalization with overlap
     ethr =  1.00E-02,  avg # of iterations = 22.3

[...]

     iteration # 72     ecut=    29.40 Ry     beta= 0.05
     Davidson diagonalization with overlap
     c_bands:  1 eigenvalues not converged
     ethr =  5.86E-11,  avg # of iterations = 16.8

[...]

     total energy              =   -2939.05428264 Ry
     estimated scf accuracy    <       0.00000015 Ry

     iteration # 74     ecut=    29.40 Ry     beta= 0.05
     Davidson diagonalization with overlap
     ethr =  3.77E-11,  avg # of iterations = 12.5

     negative rho (up, down):  1.683E-02 0.000E+00

     Adding external electric field

     Computed dipole along edir(3) :
        Dipole                0.0835 Ry au,          0.2123 Debye
        Dipole field          0.0002 Ry au,

        Potential amp.       -0.0146 Ry
        Total length         46.3494 bohr

     End of self-consistent calculation

          k = 0.0000 0.0000 0.0000 ( 18029 PWs)   bands (ev):

   -56.2615 -56.2380 -56.2245 -56.2039 -56.1449 -56.1428 -56.1082 -56.1058
   -56.0689 -56.0592 -56.0337 -56.0266 -55.9000 -55.6982 -55.2419 -55.2078
   -32.8221 -32.7263 -32.6378 -32.6047 -32.5698 -32.5681 -32.5513 -32.5288
   -32.4836 -32.4817 -32.4771 -32.4657 -32.4347 -32.4080 -32.4032 -32.3904
   -32.3842 -32.3806 -32.3701 -32.3676 -32.3479 -32.3302 -32.3155 -32.2948
   -32.2903 -32.2843 -32.2839 -32.2693 -32.2625 -32.2620 -32.2497 -32.2279
   -32.2134 -32.2132 -32.1962 -32.1837 -32.1691 -32.1500 -32.1188 -32.0471
   -31.9237 -31.8576 -31.6500 -31.5590 -31.5368 -31.4668 -31.3802 -31.2689
   -17.7127 -17.0428 -16.7687 -16.5573 -16.4557 -16.4358 -16.2917 -16.1503
   -16.0550 -15.9717 -15.9374 -15.8704 -15.8591 -15.8049 -15.7937 -15.7828
   -15.7605 -15.7414 -15.7285 -15.6820 -15.6718 -15.6400 -15.6296 -15.6078
   -15.5651 -15.4780 -15.4357 -15.4006 -15.3459 -14.7949 -13.7442 -13.6273
   -11.9800  -7.0160  -5.3076  -4.4089  -4.2554  -4.1638  -4.1576  -4.1319
    -3.9569  -3.8353  -3.6619  -3.5861  -3.4863  -3.4411  -3.4391  -3.4113
    -3.3234  -3.2008  -3.1729  -3.1032  -3.0717  -3.0595  -3.0552  -3.0343
    -2.9939  -2.9571  -2.9431  -2.8784  -2.8466  -2.7827  -2.6980  -2.6724
    -2.5978  -2.5767  -2.5483  -2.5343  -2.5327  -2.5241  -2.4997  -2.4723
    -2.4055  -2.3158  -2.2270  -2.1305  -2.0608  -2.0050  -1.9333  -1.8846
    -1.8258  -1.7845  -1.7467  -1.7196  -1.6506  -1.5821  -1.5033  -1.4644
    -1.3990  -1.3644  -1.3124  -1.2443  -1.1855  -1.1298  -1.0566  -1.0441
    -1.0400  -1.0214  -0.9906  -0.8150  -0.7646  -0.7538  -0.7389  -0.6937
    -0.6366  -0.6025  -0.4979  -0.4820  -0.4414  -0.4230  -0.3486  -0.3289
    -0.2938  -0.2852  -0.2600  -0.1978  -0.1074  -0.0899  -0.0661  -0.0168
     0.0292   0.1817   0.3703   0.4273   0.4772   0.6985   0.7782   0.7808
     0.9688   1.3539   1.4007   1.5673   2.7403   2.8533   2.9439   2.9677
     2.9916   3.0864   3.1147   3.3211   3.3265   3.3675   3.3778

[...]

          k = 0.0380-0.0419 0.0000 ( 17876 PWs)   bands (ev):

[...]

          k =-0.0760-0.0000 0.0000 ( 17886 PWs)   bands (ev):

[...]

          k =-0.0760-0.0839 0.0000 ( 17948 PWs)   bands (ev):

   -56.2473 -56.2385 -56.2209 -56.2208 -56.1346 -56.1275 -56.1234 -56.1160
   -56.0518 -56.0492 -56.0441 -56.0429 -55.8987 -55.6993 -55.2248 -55.2248
   -32.6276 -32.6226 -32.5415 -32.5414 -32.5305 -32.5155 -32.5142 -32.5142
   -32.4821 -32.4664 -32.4621 -32.4464 -32.4162 -32.4011 -32.3949 -32.3914
   -32.3822 -32.3815 -32.3790 -32.3764 -32.3421 -32.3401 -32.3401 -32.3376
   -32.3346 -32.3344 -32.3211 -32.3194 -32.2863 -32.2759 -32.2743 -32.2654
   -32.2643 -32.2595 -32.2580 -32.2314 -32.2282 -32.1535 -32.1270 -32.0544
   -31.9262 -31.9248 -31.5495 -31.5495 -31.4627 -31.4626 -31.4235 -31.4235
   -17.7065 -16.4689 -16.4353 -16.2912 -16.2232 -16.1991 -16.1832 -16.1600
   -16.0236 -15.9772 -15.9667 -15.9415 -15.9120 -15.9067 -15.8476 -15.8323
   -15.8210 -15.8133 -15.8025 -15.7498 -15.7456 -15.7376 -15.7151 -15.7101
   -15.6867 -15.6546 -15.5985 -15.5966 -15.2293 -15.1863 -13.7289 -13.7289
   -11.9948  -6.9388  -5.2650  -3.8157  -3.7432  -3.7089  -3.5635  -3.4376
    -3.4212  -3.4182  -3.2746  -3.2292  -3.2106  -3.1885  -3.1310  -3.1143
    -3.1039  -3.0820  -3.0673  -3.0541  -3.0303  -2.9999  -2.9861  -2.9649
    -2.9554  -2.9390  -2.9197  -2.8953  -2.8937  -2.8821  -2.8330  -2.8248
    -2.7991  -2.7809  -2.6103  -2.5585  -2.5379  -2.4380  -2.4359  -2.4114
    -2.3785  -2.3282  -2.3088  -2.2588  -2.2244  -2.1890  -2.0569  -1.9941
    -1.9805  -1.9323  -1.9131  -1.8500  -1.7604  -1.7276  -1.6876  -1.6526
    -1.5637  -1.5187  -1.5078  -1.4666  -1.4199  -1.4080  -1.3344  -1.2852
    -1.2199  -1.2186  -1.2118  -1.1687  -1.0535  -1.0368  -1.0227  -1.0204
    -0.9731  -0.9625  -0.9103  -0.8225  -0.7016  -0.6474  -0.6180  -0.4482
    -0.3677  -0.2966  -0.1916  -0.1516  -0.1048  -0.0834  -0.0283   0.0388
     0.0456   0.1065   0.1303   0.2187   0.2302   0.2371   0.3089   1.1413
     1.1418   1.2207   1.2210   1.5638   2.6997   3.1176   3.1511   3.1777
     3.1871   3.3478   3.3725   3.4119   3.4139   3.4861   3.5130

     the Fermi energy is     2.8832 ev

!    total energy              =   -2939.05429922 Ry
     estimated scf accuracy    <       0.00000004 Ry
     smearing contrib. (-TS)   =      -0.03339855 Ry
     internal energy E=F+TS    =   -2939.02090067 Ry

     The total energy is F=E-TS. E is the sum of the following terms:
     one-electron contribution =  -24157.92607416 Ry
     hartree contribution      =   12162.23055502 Ry
     xc contribution           =    -485.17990407 Ry
     ewald contribution        =    9541.85450937 Ry
     electric field correction =       0.00001317 Ry

     convergence has been achieved in  74 iterations

     Forces acting on atoms (cartesian axes, Ry/au):

     atom    1 type  1   force =     0.00009578   -0.00024636    0.09468833
     atom    2 type  1   force =     0.00010153   -0.00054072   -0.17675241
     atom    3 type  2   force =     0.00012063   -0.00001628   -0.02176159
     atom    4 type  2   force =     0.00001699   -0.00163501    0.05553955
     atom    5 type  2   force =    -0.01058824   -0.00065695    0.00570653
     atom    6 type  2   force =     0.01212971    0.00002960    0.00515252
     atom    7 type  1   force =     0.00034999    0.00220064   -0.01238740
     atom    8 type  1   force =     0.00038438    0.00262648    0.00924319
     atom    9 type  2   force =     0.00021029   -0.00033038   -0.00021019
     atom   10 type  2   force =    -0.00208999    0.00002321   -0.00883113
     atom   11 type  2   force =     0.00085565   -0.00014377    0.00006048
     atom   12 type  2   force =    -0.00026999   -0.00009139    0.00045118
     atom   13 type  1   force =    -0.00036949   -0.00039372    0.00074976
     atom   14 type  1   force =     0.00053696   -0.00042546    0.00061291
     atom   15 type  2   force =    -0.00022203   -0.00024509    0.00026286
     atom   16 type  2   force =    -0.00002246   -0.00041563    0.00080052
     atom   17 type  2   force =     0.00075849   -0.00017114   -0.00002786
     atom   18 type  2   force =     0.00013808   -0.00038676   -0.00051849
     atom   19 type  1   force =    -0.00078421   -0.00057686   -0.00032252
     atom   20 type  1   force =     0.00089553    0.00004391   -0.00114588
     atom   21 type  2   force =     0.00009554   -0.00011712    0.10358180
     atom   22 type  2   force =    -0.00025833    0.00010513    0.00113483
     atom   23 type  2   force =    -0.07098540   -0.00024606   -0.02724394
     atom   24 type  2   force =     0.07097208    0.00023120   -0.02729782
     atom   25 type  1   force =     0.00027929   -0.00026350    0.09410165
     atom   26 type  1   force =     0.00011470   -0.00041160   -0.17691535
     atom   27 type  2   force =     0.00011121   -0.00041578   -0.02064513
     atom   28 type  2   force =     0.00010111   -0.00136813    0.05522838
     atom   29 type  2   force =    -0.01065561   -0.00021655    0.00494673
     atom   30 type  2   force =     0.01207231   -0.00000595    0.00431200
     atom   31 type  1   force =     0.00037718    0.00375255   -0.01356808
     atom   32 type  1   force =     0.00032801   -0.00313416    0.00922513
     atom   33 type  2   force =     0.00004898   -0.00000438    0.00009900
     atom   34 type  2   force =    -0.00266127    0.00248945   -0.00567379
     atom   35 type  2   force =     0.00102929    0.00033246    0.00011261
     atom   36 type  2   force =    -0.00075562    0.00005147    0.00082733
     atom   37 type  1   force =    -0.00056690    0.00022374   -0.00003541
     atom   38 type  1   force =     0.00059876    0.00016662   -0.00030554
     atom   39 type  2   force =     0.00036058   -0.00003058   -0.00015013
     atom   40 type  2   force =     0.00009347   -0.00009268   -0.00036644
     atom   41 type  2   force =     0.00071960   -0.00013878   -0.00019560
     atom   42 type  2   force =     0.00041070    0.00007722   -0.00022950
     atom   43 type  1   force =    -0.00121738   -0.00028654   -0.00111828
     atom   44 type  1   force =     0.00043297   -0.00101452   -0.00046389
     atom   45 type  2   force =     0.00008614   -0.00014186    0.10356010
     atom   46 type  2   force =    -0.07100350   -0.00015209   -0.02724423
     atom   47 type  2   force =     0.07099385    0.00023051   -0.02726487
     atom   48 type  3   force =     0.00492179    0.00531904    0.00559609
     atom   49 type  4   force =     0.00740410   -0.00034372   -0.00602139
     atom   50 type  5   force =     0.00362971    0.00197424    0.00037178
     atom   51 type  3   force =    -0.00118818    0.00053413    0.00119921
     atom   52 type  3   force =     0.00057795    0.00048884    0.00016124
     atom   53 type  4   force =    -0.01871476   -0.00624093   -0.00102883

     Total force =     0.365901     Total SCF correction =     0.000439
  @ DRIVER MODE: Message from server: STATUS
  @ DRIVER MODE: Message from server: GETFORCE
  @ DRIVER MODE: Returning v,forces,stress,ensemble

     Writing output data file ./calc.save/
  @ DRIVER MODE: Message from server: EXIT
  @ DRIVE MODE: Exiting

     General routines

     Parallel routines

   This run was terminated on:   6:57:10  24Aug2021

   JOB DONE.