     Program PWSCF v.6.7GPU starts on 15Sep2021 at  2: 2:22

     R & G space division:  proc/nbgrp/npool/nimage =      10
     Reading input from /storage/home/hcoda1/3/ntian30/research/carbon/CxH_vib/CH2_calc/ads_slab/CH2OHN2_a/out_0036/pw.inp
Warning: card &CELL ignored
Warning: card   CELL_DYNAMICS='IPI', ignored
Warning: card / ignored

     Current dimensions of program PWSCF are:
     Max number of different atomic species (ntypx) = 10
     Max number of k-points (npk) =  40000
     Max angular momentum in pseudopotentials (lmaxx) =  3
     Presently no symmetry can be used with electric field

     Message from routine cell_base_init:
     DEPRECATED: use true lattice parameter, not A to a.u. conversion factor

     IMPORTANT: XC functional enforced from input :
     Exchange-correlation= BEEF-VDW
                           (   1   4  43  14   2   0   0)
     Any further DFT definition will be discarded
     Please, verify this is what you really want

  @ DRIVER MODE: Connecting to
 qe_1139763_2840440.sched-torque.pace.gatech.eduqng2p7hp_scratch
  using UNIX socket
  @ DRIVER MODE: Message from server: STATUS
  @ DRIVER MODE: Message from server: INIT
  @ DRIVER MODE: Receiving replica           0          -1
  @ DRIVER MODE: Receiving encoded integer          25
  @ DRIVER MODE:  SCF:  T  FORCE:  T  STRESS:  F  VC:  F  ENSEMBLE:  F
  @ DRIVER MODE:  SCF:  T  FORCE:  T  STRESS:  F  VC:  F  ENSEMBLE:  F

     Using Slab Decomposition

     bravais-lattice index     =            0
     lattice parameter (alat)  =       1.8897  a.u.
     unit-cell volume          =    6658.9804 (a.u.)^3
     number of atoms/cell      =           54
     number of atomic types    =            5
     number of electrons       =       401.00
     number of Kohn-Sham states=          210
     kinetic-energy cutoff     =      29.3995  Ry
     charge density cutoff     =     293.9946  Ry
     scf convergence threshold =      7.3E-08
     mixing beta               =       0.0500
     number of iterations used =            8  plain     mixing
     Exchange-correlation= BEEF-VDW
                           (   1   4  43  14   2   0   0)

     celldm(1)=   1.889726  celldm(2)=   0.000000  celldm(3)=   0.000000
     celldm(4)=   0.000000  celldm(5)=   0.000000  celldm(6)=   0.000000

     crystal axes: (cart. coord. in units of alat)
               a(1) = (   6.579727   0.000000   0.000000 )
               a(2) = (  -0.000775   5.961596   0.000000 )
               a(3) = (   0.000000   0.000000  25.155947 )

     reciprocal axes: (cart. coord. in units 2 pi/alat)
               b(1) = (  0.151982  0.000020  0.000000 )
               b(2) = (  0.000000  0.167740  0.000000 )
               b(3) = (  0.000000  0.000000  0.039752 )

     PseudoPot. # 1 for C  read from file:
     /storage/coda1/p-amedford6/0/shared/rich_project_chbe-medford/medford-share/data/pseudos_module/espresso/nninc/pbe/van/C.UPF
     MD5 check sum: 1a69bf6b8db32088f5b2163dbdb77a27
     Pseudo is Ultrasoft, Zval =  4.0
     Generated by new atomic code, or converted to UPF format
     Using radial grid of  721 points,  4 beta functions with:
                l(1) =   0
                l(2) =   0
                l(3) =   1
                l(4) =   1
     Q(r) pseudized with  8 coefficients,  rinner =    0.800   0.800   0.800

     PseudoPot. # 2 for H  read from file:
     /storage/coda1/p-amedford6/0/shared/rich_project_chbe-medford/medford-share/data/pseudos_module/espresso/nninc/pbe/van/H.UPF
     MD5 check sum: b5ee9d7bfd3a09ee7748110bda690ff7
     Pseudo is Ultrasoft, Zval =  1.0
     Generated by new atomic code, or converted to UPF format
     Using radial grid of  615 points,  1 beta functions with:
                l(1) =   0
     Q(r) pseudized with  8 coefficients,  rinner =    0.800

     PseudoPot. # 3 for O  read from file:
     /storage/coda1/p-amedford6/0/shared/rich_project_chbe-medford/medford-share/data/pseudos_module/espresso/nninc/pbe/van/O.UPF
     MD5 check sum: 78c19812648e8988a0fe644b0f25305e
     Pseudo is Ultrasoft, Zval =  6.0
     Generated by new atomic code, or converted to UPF format
     Using radial grid of  737 points,  4 beta functions with:
                l(1) =   0
                l(2) =   0
                l(3) =   1
                l(4) =   1
     Q(r) pseudized with  8 coefficients,  rinner =    0.800   0.800   0.800

     PseudoPot. # 4 for Ti read from file:
     /storage/coda1/p-amedford6/0/shared/rich_project_chbe-medford/medford-share/data/pseudos_module/espresso/nninc/pbe/van/Ti.UPF
     MD5 check sum: 8e4df49b7f0d34bbd5052bf3f5ea0213
     Pseudo is Ultrasoft, Zval = 12.0
     Generated by new atomic code, or converted to UPF format
     Using radial grid of  851 points,  6 beta functions with:
                l(1) =   0
                l(2) =   0
                l(3) =   1
                l(4) =   1
                l(5) =   2
                l(6) =   2
     Q(r) pseudized with  8 coefficients,  rinner =    1.000   1.000   1.000
                                                       1.000   1.000

     PseudoPot. # 5 for N  read from file:
     /storage/coda1/p-amedford6/0/shared/rich_project_chbe-medford/medford-share/data/pseudos_module/espresso/nninc/pbe/van/N.UPF
     MD5 check sum: 90d10febe142ad51ac9d5be1deb811c4
     Pseudo is Ultrasoft, Zval =  5.0
     Generated by new atomic code, or converted to UPF format
     Using radial grid of  729 points,  4 beta functions with:
                l(1) =   0
                l(2) =   0
                l(3) =   1
                l(4) =   1
     Q(r) pseudized with  8 coefficients,  rinner =    0.800   0.800   0.800

     atomic species   valence    mass     pseudopotential
        C1             4.00    12.01100     C ( 1.00)
        H1             1.00     1.00800     H ( 1.00)
        O1             6.00    15.99900     O ( 1.00)
        Ti1           12.00    47.86700     Ti( 1.00)
        N1             5.00    14.00700     N ( 1.00)

     No symmetry found

   Cartesian axes

     site n.     atom                  positions (alat units)
         1           C1  tau(   1) = (   5.1764158   1.5385028  19.8564928  )
         2           H1  tau(   2) = (   4.2418317   1.4168958  19.3325039  )
         3           H1  tau(   3) = (   6.1328006   2.9100337  18.2018079  )
         4           H1  tau(   4) = (   6.0297582   0.9181690  19.6386741  )
         5           O1  tau(   5) = (   0.0006271   0.0005054   7.9858123  )
         6           O1  tau(   6) = (   3.2906025   0.0005020   7.3038282  )
         7           O1  tau(   7) = (   4.5942328   1.4918067   9.2879030  )
         8           O1  tau(   8) = (   1.9868534   1.4903216   9.2879459  )
         9           O1  tau(   9) = (   3.2696825   0.0177092  11.3460806  )
        10           O1  tau(  10) = (   6.5743896   0.0111799  10.6115589  )
        11           O1  tau(  11) = (   1.2770957   1.5070501  12.6511825  )
        12           O1  tau(  12) = (   5.2749141   1.5057152  12.6378801  )
        13           O1  tau(  13) = (   6.5263050   0.0247340  14.7317399  )
        14           O1  tau(  14) = (   3.2747511   0.0213673  13.9312909  )
        15           O1  tau(  15) = (   4.4933390   1.5239927  16.1070736  )
        16           O1  tau(  16) = (   2.0026543   1.5217075  16.0711130  )
        17           O1  tau(  17) = (   3.2904802   0.0005063   4.7018136  )
        18           O1  tau(  18) = (   6.5469758   0.0421337  17.2556835  )
        19           O1  tau(  19) = (   1.3043587   1.4918075   6.0039043  )
        20           O1  tau(  20) = (   5.2767064   1.4903225   6.0039473  )
        21           O1  tau(  21) = (   0.0002396   2.9813036   7.9858123  )
        22           O1  tau(  22) = (   3.2902150   2.9813002   7.3038282  )
        23           O1  tau(  23) = (   4.5938453   4.4726049   9.2879030  )
        24           O1  tau(  24) = (   1.9864658   4.4711199   9.2879459  )
        25           O1  tau(  25) = (   3.2722311   3.0011533  11.3472759  )
        26           O1  tau(  26) = (   6.5787409   2.9955660  10.5677177  )
        27           O1  tau(  27) = (   1.2755865   4.4883074  12.6550720  )
        28           O1  tau(  28) = (   5.2773609   4.4903743  12.6413705  )
        29           O1  tau(  29) = (   6.5451067   2.9841024  14.7029789  )
        30           O1  tau(  30) = (   3.2773495   3.0062142  13.9304278  )
        31           O1  tau(  31) = (   4.4941242   4.5002890  16.1165364  )
        32           O1  tau(  32) = (   2.0016379   4.5015838  16.0818063  )
        33           O1  tau(  33) = (   3.2900926   2.9813045   4.7018136  )
        34           O1  tau(  34) = (   1.3039711   4.4726057   6.0039043  )
        35           O1  tau(  35) = (   5.2763189   4.4711207   6.0039473  )
        36           O1  tau(  36) = (   6.5536212   3.0044252  17.3297899  )
        37           Ti1 tau(  37) = (   0.0004258   2.9801865   6.0000000  )
        38           Ti1 tau(  38) = (   3.2906075   1.4906267   6.0002472  )
        39           Ti1 tau(  39) = (   3.3348906   3.0327224   9.1579215  )
        40           Ti1 tau(  40) = (   0.0203972   1.6099837   9.3624797  )
        41           Ti1 tau(  41) = (   6.5380572   3.0081639  12.8251979  )
        42           Ti1 tau(  42) = (   3.2225065   1.5141752  12.4854623  )
        43           Ti1 tau(  43) = (   3.2525775   3.0161725  15.7233172  )
        44           Ti1 tau(  44) = (   6.5465844   1.4469101  15.9770741  )
        45           Ti1 tau(  45) = (   0.0000382   5.9609847   6.0000000  )
        46           Ti1 tau(  46) = (   3.2902200   4.4714249   6.0002472  )
        47           Ti1 tau(  47) = (   3.2831171   0.0558662   9.1532617  )
        48           Ti1 tau(  48) = (   0.0294011   4.5318189   9.2743274  )
        49           Ti1 tau(  49) = (   6.5160019   0.0223579  12.5245727  )
        50           Ti1 tau(  50) = (   3.2207252   4.4944464  12.4919313  )
        51           Ti1 tau(  51) = (   3.2545639   0.0336594  15.7221480  )
        52           Ti1 tau(  52) = (   6.5427997   4.6104004  16.1309301  )
        53           N1  tau(  53) = (   5.0796009   2.6163306  22.0546247  )
        54           N1  tau(  54) = (   5.1188049   2.0915644  21.0330699  )

     number of k points=    10  Fermi-Dirac smearing, width (Ry)=  0.0073
                       cart. coord. in units 2pi/alat
        k(    1) = (   0.0000000   0.0000000   0.0000000), wk =   0.1250000
        k(    2) = (   0.0000000   0.0419351   0.0000000), wk =   0.2500000
        k(    3) = (   0.0000000  -0.0838702   0.0000000), wk =   0.1250000
        k(    4) = (   0.0379955   0.0000049   0.0000000), wk =   0.2500000
        k(    5) = (   0.0379955   0.0419400   0.0000000), wk =   0.2500000
        k(    6) = (   0.0379955  -0.0838652   0.0000000), wk =   0.2500000
        k(    7) = (   0.0379955  -0.0419301   0.0000000), wk =   0.2500000
        k(    8) = (  -0.0759910  -0.0000099   0.0000000), wk =   0.1250000
        k(    9) = (  -0.0759910   0.0419252   0.0000000), wk =   0.2500000
        k(   10) = (  -0.0759910  -0.0838800   0.0000000), wk =   0.1250000

     Initial potential from superposition of free atoms

     starting charge  384.99916, renormalised to  401.00000

     negative rho (up, down):  1.194E-02 0.000E+00

     %%%%%%%%%%%%%%%%%%%%%%%%%%%%%%%%%%%%%%%%%%%%%%%%%%%%%%%%%%%%%%%%%%%%%%%%
     %                                                                      %
     % You are using vdW-DF, which was implemented by the Thonhauser group. %
     % Please cite the following two papers that made this development      %
     % possible and the two reviews that describe the various versions:     %
     %                                                                      %
     %   T. Thonhauser et al., PRL 115, 136402 (2015).                      %
     %   T. Thonhauser et al., PRB 76, 125112 (2007).                       %
     %   K. Berland et al., Rep. Prog. Phys. 78, 066501 (2015).             %
     %   D.C. Langreth et al., J. Phys.: Condens. Matter 21, 084203 (2009). %
     %                                                                      %
     %                                                                      %
     % If you are calculating the stress with vdW-DF, please also cite:     %
     %                                                                      %
     %   R. Sabatini et al., J. Phys.: Condens. Matter 24, 424209 (2012).   %
     %                                                                      %
     %%%%%%%%%%%%%%%%%%%%%%%%%%%%%%%%%%%%%%%%%%%%%%%%%%%%%%%%%%%%%%%%%%%%%%%%

     Adding external electric field

     Computed dipole along edir(3) :
        Dipole              -14.1002 Ry au,        -35.8390 Debye
        Dipole field         -0.0266 Ry au,

        Potential amp.        2.4666 Ry
        Total length         46.3494 bohr

     Starting wfcs are  303 atomic wfcs
  @ DRIVER MODE: Message from server: STATUS
  @ DRIVER MODE: Message from server: POSDATA
  @ DRIVER MODE: Reading and sharing cell
  @ DRIVER MODE: Reading and sharing positions
  @ DRIVER MODE: Received positions

     Self-consistent Calculation

     iteration #  1     ecut=    29.40 Ry     beta= 0.05
     Davidson diagonalization with overlap
     c_bands:  5 eigenvalues not converged
     c_bands:  4 eigenvalues not converged
     c_bands:  5 eigenvalues not converged
     c_bands:  2 eigenvalues not converged
     c_bands:  4 eigenvalues not converged
     c_bands:  4 eigenvalues not converged
     c_bands:  4 eigenvalues not converged
     c_bands:  4 eigenvalues not converged
     c_bands:  5 eigenvalues not converged
     ethr =  1.00E-05,  avg # of iterations = 22.0

[...]

     total energy              =   -2410.55307541 Ry
     estimated scf accuracy    <    6378.42234388 Ry

     iteration #  2     ecut=    29.40 Ry     beta= 0.05
     Davidson diagonalization with overlap
     ethr =  1.00E-02,  avg # of iterations = 23.7

[...]

     iteration # 74     ecut=    29.40 Ry     beta= 0.05
     Davidson diagonalization with overlap
     c_bands:  1 eigenvalues not converged
     ethr =  9.88E-11,  avg # of iterations = 11.5

[...]

     total energy              =   -2971.53776053 Ry
     estimated scf accuracy    <       0.00000009 Ry

     iteration # 79     ecut=    29.40 Ry     beta= 0.05
     Davidson diagonalization with overlap
     ethr =  2.14E-11,  avg # of iterations =  9.9

     negative rho (up, down):  1.323E-02 0.000E+00

     Adding external electric field

     Computed dipole along edir(3) :
        Dipole                0.4252 Ry au,          1.0809 Debye
        Dipole field          0.0008 Ry au,

        Potential amp.       -0.0744 Ry
        Total length         46.3494 bohr

     End of self-consistent calculation

          k = 0.0000 0.0000 0.0000 ( 18029 PWs)   bands (ev):

   -55.7726 -55.7596 -55.7355 -55.7233 -55.6803 -55.6592 -55.6336 -55.6004
   -55.5973 -55.5873 -55.5458 -55.5225 -55.4889 -55.4227 -54.7831 -54.7491
   -32.3239 -32.2396 -32.2065 -32.1211 -32.0919 -32.0740 -32.0643 -32.0410
   -32.0023 -31.9979 -31.9831 -31.9752 -31.9698 -31.9406 -31.9329 -31.9296
   -31.9255 -31.9038 -31.8960 -31.8686 -31.8618 -31.8387 -31.8377 -31.8318
   -31.8151 -31.8085 -31.7903 -31.7863 -31.7788 -31.7766 -31.7693 -31.7618
   -31.7501 -31.7467 -31.7419 -31.7031 -31.7021 -31.6675 -31.6447 -31.6287
   -31.6114 -31.6085 -31.1928 -31.0960 -31.0736 -31.0095 -30.9235 -30.8122
   -20.5775 -17.0086 -16.5082 -16.2139 -16.0474 -15.9200 -15.8913 -15.7905
   -15.5996 -15.4651 -15.4482 -15.3738 -15.3395 -15.3319 -15.3014 -15.2917
   -15.2857 -15.2757 -15.2285 -15.2037 -15.1882 -15.1732 -15.1471 -15.0955
   -15.0481 -14.9765 -14.9291 -14.8885 -14.8689 -14.7699 -14.7511 -13.9212
   -13.2834 -13.1653  -6.5636  -5.5394  -4.9856  -4.4323  -3.8717  -3.6955
    -3.6782  -3.6597  -3.5766  -3.4993  -3.3337  -3.3179  -3.0176  -2.9423
    -2.9121  -2.9086  -2.8946  -2.7165  -2.6514  -2.6068  -2.5981  -2.5812
    -2.5781  -2.5562  -2.5260  -2.5163  -2.4844  -2.4715  -2.4637  -2.3302
    -2.3015  -2.1847  -2.1646  -2.1540  -2.0967  -2.0718  -2.0384  -2.0170
    -2.0120  -1.9948  -1.9731  -1.9381  -1.8527  -1.8287  -1.7038  -1.5988
    -1.5622  -1.4684  -1.3222  -1.2487  -1.2293  -1.1980  -1.1715  -1.1569
    -1.1096  -1.0847  -1.0326  -0.9701  -0.9649  -0.8604  -0.7872  -0.7496
    -0.6721  -0.6520  -0.6339  -0.5147  -0.4938  -0.4825  -0.3103  -0.2492
    -0.2373  -0.2346  -0.1055  -0.0640  -0.0297  -0.0164   0.0132   0.0440
     0.0892   0.1316   0.1907   0.2150   0.2258   0.2342   0.2571   0.2832
     0.3990   0.4152   0.4272   0.5442   0.5635   0.7528   0.7603   0.8777
     0.9776   1.1455   1.2416   1.3124   1.4126   1.7166   1.8304   1.8907
     3.4172   3.4481   3.4795   3.4968   3.5680   3.6910   3.7989   3.8545
     3.8760   3.8975

[...]

          k = 0.0380-0.0419 0.0000 ( 17876 PWs)   bands (ev):

[...]

          k =-0.0760-0.0000 0.0000 ( 17886 PWs)   bands (ev):

[...]

          k =-0.0760-0.0839 0.0000 ( 17948 PWs)   bands (ev):

   -55.7614 -55.7465 -55.7425 -55.7401 -55.6769 -55.6544 -55.6215 -55.6093
   -55.6052 -55.5905 -55.5431 -55.5066 -55.5049 -55.4250 -54.7666 -54.7655
   -32.1275 -32.1234 -32.1064 -32.0636 -32.0535 -32.0481 -32.0307 -32.0297
   -32.0231 -31.9865 -31.9620 -31.9544 -31.9521 -31.9178 -31.9129 -31.9045
   -31.8929 -31.8892 -31.8877 -31.8781 -31.8773 -31.8675 -31.8625 -31.8555
   -31.8521 -31.8302 -31.8254 -31.8211 -31.8139 -31.8136 -31.8098 -31.7909
   -31.7841 -31.7661 -31.7631 -31.7571 -31.7414 -31.7249 -31.7117 -31.7047
   -31.6531 -31.6179 -31.0869 -31.0856 -31.0061 -31.0053 -30.9670 -30.9661
   -20.5774 -16.9432 -15.9505 -15.9414 -15.6991 -15.6928 -15.6886 -15.6180
   -15.5339 -15.5128 -15.4910 -15.4866 -15.4370 -15.4233 -15.4114 -15.3483
   -15.3133 -15.2957 -15.2779 -15.2736 -15.2194 -15.2146 -15.1707 -15.1469
   -15.1288 -15.1231 -15.0983 -15.0941 -15.0549 -14.9938 -14.9252 -13.9211
   -13.2677 -13.2654  -6.5578  -5.5417  -4.9216  -4.4339  -3.4988  -3.2422
    -3.2313  -2.9655  -2.9166  -2.9036  -2.8217  -2.7595  -2.6940  -2.6534
    -2.6259  -2.6170  -2.6062  -2.5961  -2.5915  -2.5737  -2.5593  -2.5408
    -2.5270  -2.5155  -2.4624  -2.4457  -2.4207  -2.4013  -2.3933  -2.3825
    -2.3455  -2.3269  -2.3158  -2.2999  -2.2953  -2.2145  -2.0693  -2.0233
    -1.9270  -1.9078  -1.8974  -1.8559  -1.8341  -1.8174  -1.8025  -1.7534
    -1.7371  -1.5691  -1.4996  -1.4827  -1.4648  -1.4328  -1.3760  -1.2868
    -1.2563  -1.1823  -1.1750  -1.1327  -1.0735  -0.9985  -0.9766  -0.9364
    -0.8771  -0.8402  -0.7832  -0.7503  -0.7285  -0.7209  -0.6701  -0.6136
    -0.5752  -0.5148  -0.4887  -0.4254  -0.3856  -0.3491  -0.2928  -0.2666
    -0.2308  -0.1210  -0.0141   0.1221   0.1837   0.2601   0.2736   0.2998
     0.3213   0.4385   0.4696   0.4975   0.5399   0.6272   0.6811   0.7508
     0.7705   0.7988   0.8554   1.6020   1.6033   1.6925   1.7032   1.7200
     3.6142   3.6503   3.6689   3.7179   3.8755   3.8802   3.8989   3.9071
     3.9592   4.0384

     the Fermi energy is     3.3830 ev

!    total energy              =   -2971.53777194 Ry
     estimated scf accuracy    <       0.00000004 Ry
     smearing contrib. (-TS)   =      -0.02329474 Ry
     internal energy E=F+TS    =   -2971.51447721 Ry

     The total energy is F=E-TS. E is the sum of the following terms:
     one-electron contribution =  -22750.11616752 Ry
     hartree contribution      =   11466.08798976 Ry
     xc contribution           =    -492.31366266 Ry
     ewald contribution        =    8804.82702195 Ry
     electric field correction =       0.00034125 Ry

     convergence has been achieved in  79 iterations

     Forces acting on atoms (cartesian axes, Ry/au):

     atom    1 type  1   force =    -0.00095525    0.00186905    0.00290655
     atom    2 type  2   force =    -0.00057612    0.00092136   -0.00092053
     atom    3 type  2   force =    -0.00134694   -0.00060378   -0.00063001
     atom    4 type  2   force =     0.00107549   -0.00050873   -0.00047893
     atom    5 type  3   force =     0.00034170   -0.00680585   -0.03338923
     atom    6 type  3   force =    -0.00002354    0.00054707    0.04533380
     atom    7 type  3   force =    -0.02046686    0.00053177    0.00450748
     atom    8 type  3   force =     0.01814793   -0.00159875    0.00414017
     atom    9 type  3   force =     0.00013300    0.00000460   -0.00008089
     atom   10 type  3   force =    -0.00004616   -0.00004802    0.00019767
     atom   11 type  3   force =     0.00022838   -0.00009763   -0.00031527
     atom   12 type  3   force =     0.00048606    0.00012075   -0.00015908
     atom   13 type  3   force =     0.00030298   -0.00020795   -0.00017833
     atom   14 type  3   force =     0.00035771    0.00020983   -0.00007638
     atom   15 type  3   force =    -0.00021488   -0.00012854    0.00035870
     atom   16 type  3   force =     0.00025833   -0.00008847    0.00007751
     atom   17 type  3   force =     0.00003481    0.00005897    0.10418296
     atom   18 type  3   force =    -0.00013038    0.00013265    0.00061009
     atom   19 type  3   force =    -0.06903069    0.00070270   -0.02968954
     atom   20 type  3   force =     0.06880254    0.00126635   -0.02968256
     atom   21 type  3   force =     0.00038170    0.00378140   -0.02831916
     atom   22 type  3   force =     0.00085584    0.00084518    0.04702702
     atom   23 type  3   force =    -0.01798646    0.00140678    0.00375139
     atom   24 type  3   force =     0.01768699    0.00226753    0.00328161
     atom   25 type  3   force =    -0.00016065   -0.00019435    0.00005064
     atom   26 type  3   force =     0.00016868   -0.00003417    0.00041416
     atom   27 type  3   force =    -0.00025396   -0.00015069    0.00025382
     atom   28 type  3   force =    -0.00000978   -0.00021048    0.00058219
     atom   29 type  3   force =     0.00008843   -0.00055464    0.00010363
     atom   30 type  3   force =    -0.00019543   -0.00034437    0.00035416
     atom   31 type  3   force =    -0.00033011   -0.00010933    0.00002909
     atom   32 type  3   force =    -0.00008229   -0.00020816   -0.00038125
     atom   33 type  3   force =     0.00004262    0.00003303    0.10425779
     atom   34 type  3   force =    -0.06860756   -0.00136234   -0.02973210
     atom   35 type  3   force =     0.06848806   -0.00098736   -0.02971119
     atom   36 type  3   force =     0.00105819    0.00044134    0.00021240
     atom   37 type  4   force =    -0.00001679   -0.00159691    0.10638464
     atom   38 type  4   force =    -0.00016006    0.00073378   -0.17960935
     atom   39 type  4   force =    -0.00039123    0.00006840   -0.00013321
     atom   40 type  4   force =    -0.00000156    0.00007802   -0.00007752
     atom   41 type  4   force =    -0.00004221    0.00054923   -0.00058892
     atom   42 type  4   force =    -0.00013566    0.00001487    0.00022224
     atom   43 type  4   force =    -0.00017255   -0.00021625   -0.00043234
     atom   44 type  4   force =     0.00057041    0.00043888   -0.00043909
     atom   45 type  4   force =    -0.00001188    0.00121808    0.11836566
     atom   46 type  4   force =     0.00000467   -0.00036053   -0.17987209
     atom   47 type  4   force =     0.00035534    0.00005279   -0.00024809
     atom   48 type  4   force =    -0.00003446    0.00024518   -0.00032937
     atom   49 type  4   force =     0.00055643    0.00057819   -0.00007953
     atom   50 type  4   force =     0.00013734    0.00011741   -0.00079506
     atom   51 type  4   force =     0.00037756   -0.00079113   -0.00008945
     atom   52 type  4   force =     0.00087975   -0.00096159    0.00048734
     atom   53 type  5   force =     0.00198365   -0.01530563   -0.03362127
     atom   54 type  5   force =    -0.00242112    0.01424046    0.03196704

     Total force =     0.380043     Total SCF correction =     0.000644
  @ DRIVER MODE: Message from server: STATUS
  @ DRIVER MODE: Message from server: GETFORCE
  @ DRIVER MODE: Returning v,forces,stress,ensemble

     Writing output data file ./calc.save/
  @ DRIVER MODE: Message from server: EXIT
  @ DRIVE MODE: Exiting

     General routines

     Parallel routines

   This run was terminated on:   2:25:26  15Sep2021

   JOB DONE.