     Program PWSCF v.6.7GPU starts on 22Sep2021 at 22:45:19

     R & G space division:  proc/nbgrp/npool/nimage =       8
     Reading input from /storage/home/hcoda1/3/ntian30/research/carbon/CxH_vib/H2O_calc/ads_slab/CH3OHHO_e/out_0002/pw.inp
Warning: card &CELL ignored
Warning: card   CELL_DYNAMICS='IPI', ignored
Warning: card / ignored

     Current dimensions of program PWSCF are:
     Max number of different atomic species (ntypx) = 10
     Max number of k-points (npk) =  40000
     Max angular momentum in pseudopotentials (lmaxx) =  3
     Presently no symmetry can be used with electric field

     Message from routine cell_base_init:
     DEPRECATED: use true lattice parameter, not A to a.u. conversion factor

     IMPORTANT: XC functional enforced from input :
     Exchange-correlation= BEEF-VDW
                           (   1   4  43  14   2   0   0)
     Any further DFT definition will be discarded
     Please, verify this is what you really want

  @ DRIVER MODE: Connecting to
 qe_1139763_2941008.sched-torque.pace.gatech.edumn4sqrk7_scratch
  using UNIX socket
  @ DRIVER MODE: Message from server: STATUS
  @ DRIVER MODE: Message from server: INIT
  @ DRIVER MODE: Receiving replica           0          -1
  @ DRIVER MODE: Receiving encoded integer          25
  @ DRIVER MODE:  SCF:  T  FORCE:  T  STRESS:  F  VC:  F  ENSEMBLE:  F
  @ DRIVER MODE:  SCF:  T  FORCE:  T  STRESS:  F  VC:  F  ENSEMBLE:  F

     Using Slab Decomposition

     bravais-lattice index     =            0
     lattice parameter (alat)  =       1.8897  a.u.
     unit-cell volume          =    6658.9804 (a.u.)^3
     number of atoms/cell      =           55
     number of atomic types    =            4
     number of electrons       =       399.00
     number of Kohn-Sham states=          209
     kinetic-energy cutoff     =      29.3995  Ry
     charge density cutoff     =     293.9946  Ry
     scf convergence threshold =      7.3E-08
     mixing beta               =       0.0500
     number of iterations used =            8  plain     mixing
     Exchange-correlation= BEEF-VDW
                           (   1   4  43  14   2   0   0)

     celldm(1)=   1.889726  celldm(2)=   0.000000  celldm(3)=   0.000000
     celldm(4)=   0.000000  celldm(5)=   0.000000  celldm(6)=   0.000000

     crystal axes: (cart. coord. in units of alat)
               a(1) = (   6.579727   0.000000   0.000000 )
               a(2) = (  -0.000775   5.961596   0.000000 )
               a(3) = (   0.000000   0.000000  25.155947 )

     reciprocal axes: (cart. coord. in units 2 pi/alat)
               b(1) = (  0.151982  0.000020  0.000000 )
               b(2) = (  0.000000  0.167740  0.000000 )
               b(3) = (  0.000000  0.000000  0.039752 )

     PseudoPot. # 1 for Ti read from file:
     /storage/coda1/p-amedford6/0/shared/rich_project_chbe-medford/medford-share/data/pseudos_module/espresso/nninc/pbe/van/Ti.UPF
     MD5 check sum: 8e4df49b7f0d34bbd5052bf3f5ea0213
     Pseudo is Ultrasoft, Zval = 12.0
     Generated by new atomic code, or converted to UPF format
     Using radial grid of  851 points,  6 beta functions with:
                l(1) =   0
                l(2) =   0
                l(3) =   1
                l(4) =   1
                l(5) =   2
                l(6) =   2
     Q(r) pseudized with  8 coefficients,  rinner =    1.000   1.000   1.000
                                                       1.000   1.000

     PseudoPot. # 2 for O  read from file:
     /storage/coda1/p-amedford6/0/shared/rich_project_chbe-medford/medford-share/data/pseudos_module/espresso/nninc/pbe/van/O.UPF
     MD5 check sum: 78c19812648e8988a0fe644b0f25305e
     Pseudo is Ultrasoft, Zval =  6.0
     Generated by new atomic code, or converted to UPF format
     Using radial grid of  737 points,  4 beta functions with:
                l(1) =   0
                l(2) =   0
                l(3) =   1
                l(4) =   1
     Q(r) pseudized with  8 coefficients,  rinner =    0.800   0.800   0.800

     PseudoPot. # 3 for C  read from file:
     /storage/coda1/p-amedford6/0/shared/rich_project_chbe-medford/medford-share/data/pseudos_module/espresso/nninc/pbe/van/C.UPF
     MD5 check sum: 1a69bf6b8db32088f5b2163dbdb77a27
     Pseudo is Ultrasoft, Zval =  4.0
     Generated by new atomic code, or converted to UPF format
     Using radial grid of  721 points,  4 beta functions with:
                l(1) =   0
                l(2) =   0
                l(3) =   1
                l(4) =   1
     Q(r) pseudized with  8 coefficients,  rinner =    0.800   0.800   0.800

     PseudoPot. # 4 for H  read from file:
     /storage/coda1/p-amedford6/0/shared/rich_project_chbe-medford/medford-share/data/pseudos_module/espresso/nninc/pbe/van/H.UPF
     MD5 check sum: b5ee9d7bfd3a09ee7748110bda690ff7
     Pseudo is Ultrasoft, Zval =  1.0
     Generated by new atomic code, or converted to UPF format
     Using radial grid of  615 points,  1 beta functions with:
                l(1) =   0
     Q(r) pseudized with  8 coefficients,  rinner =    0.800

     atomic species   valence    mass     pseudopotential
        Ti1           12.00    47.86700     Ti( 1.00)
        O1             6.00    15.99900     O ( 1.00)
        C1             4.00    12.01100     C ( 1.00)
        H1             1.00     1.00800     H ( 1.00)

     No symmetry found

   Cartesian axes

     site n.     atom                  positions (alat units)
         1           Ti1 tau(   1) = (   0.0004258   2.9801865   6.0000000  )
         2           Ti1 tau(   2) = (   3.2906075   1.4906267   6.0002472  )
         3           O1  tau(   3) = (   0.0006271   0.0005054   7.9858123  )
         4           O1  tau(   4) = (   3.2906025   0.0005020   7.3038282  )
         5           O1  tau(   5) = (   4.5942328   1.4918067   9.2879030  )
         6           O1  tau(   6) = (   1.9868534   1.4903216   9.2879459  )
         7           Ti1 tau(   7) = (   3.3364693   3.0244086   9.1899460  )
         8           Ti1 tau(   8) = (   0.0614121   1.5180315   9.2736979  )
         9           O1  tau(   9) = (   3.3192415   0.0109611  11.3574448  )
        10           O1  tau(  10) = (   0.0135824   0.0030625  10.5923660  )
        11           O1  tau(  11) = (   1.3113730   1.4888140  12.6397483  )
        12           O1  tau(  12) = (   5.3365169   1.4868518  12.6422516  )
        13           Ti1 tau(  13) = (   0.0249591   3.0356721  12.5595363  )
        14           Ti1 tau(  14) = (   3.3216347   1.5719315  12.4302660  )
        15           O1  tau(  15) = (   0.0475996   5.9320359  14.6592625  )
        16           O1  tau(  16) = (   3.3253441   5.8716044  14.0084122  )
        17           O1  tau(  17) = (   4.6294077   1.4993822  16.1384749  )
        18           O1  tau(  18) = (   2.0712093   1.5368213  16.0656395  )
        19           Ti1 tau(  19) = (   3.3420502   2.9337026  15.6791356  )
        20           Ti1 tau(  20) = (   0.0819182   1.3209985  15.9439250  )
        21           O1  tau(  21) = (   3.2904802   0.0005063   4.7018136  )
        22           O1  tau(  22) = (   0.1121901   0.0005398  17.1797988  )
        23           O1  tau(  23) = (   1.3043587   1.4918075   6.0039043  )
        24           O1  tau(  24) = (   5.2767064   1.4903225   6.0039473  )
        25           Ti1 tau(  25) = (   0.0000382   5.9609847   6.0000000  )
        26           Ti1 tau(  26) = (   3.2902200   4.4714249   6.0002472  )
        27           O1  tau(  27) = (   0.0002396   2.9813036   7.9858123  )
        28           O1  tau(  28) = (   3.2902150   2.9813002   7.3038282  )
        29           O1  tau(  29) = (   4.5938453   4.4726049   9.2879030  )
        30           O1  tau(  30) = (   1.9864658   4.4711199   9.2879459  )
        31           Ti1 tau(  31) = (   3.3365859   0.0383882   9.1683042  )
        32           Ti1 tau(  32) = (   0.0607984   4.4756772   9.2727477  )
        33           O1  tau(  33) = (   3.3154497   2.9528697  11.3100477  )
        34           O1  tau(  34) = (   0.0130381   2.9821538  10.6068333  )
        35           O1  tau(  35) = (   1.3079814   4.4632751  12.6339740  )
        36           O1  tau(  36) = (   5.3374838   4.4678533  12.6371107  )
        37           Ti1 tau(  37) = (   0.0367351   0.0553833  12.4739561  )
        38           Ti1 tau(  38) = (   3.3178111   4.6524667  12.7070490  )
        39           O1  tau(  39) = (   0.0226182   2.9861015  14.7894940  )
        40           O1  tau(  40) = (   3.3464301   2.9603322  13.9061577  )
        41           O1  tau(  41) = (   4.6320376   4.4053937  16.1659747  )
        42           O1  tau(  42) = (   2.0651706   4.3480327  16.1155179  )
        43           Ti1 tau(  43) = (   3.4032537   5.9185344  16.2710929  )
        44           Ti1 tau(  44) = (   0.0646745   4.5145260  15.8553686  )
        45           O1  tau(  45) = (   3.2900926   2.9813045   4.7018136  )
        46           O1  tau(  46) = (   1.3039711   4.4726057   6.0039043  )
        47           O1  tau(  47) = (   5.2763189   4.4711207   6.0039473  )
        48           C1  tau(  48) = (   5.9453497   3.0583042  18.8699169  )
        49           O1  tau(  49) = (   0.1856485   3.0014673  17.6677584  )
        50           H1  tau(  50) = (   4.9577780   2.6849493  18.5881267  )
        51           H1  tau(  51) = (   1.1185258   3.1466834  17.9024234  )
        52           H1  tau(  52) = (   6.3707541   2.4080388  19.6265123  )
        53           H1  tau(  53) = (   5.8722695   4.0904670  19.2075282  )
        54           O1  tau(  54) = (   3.1419305   5.9539177  18.1124628  )
        55           H1  tau(  55) = (   2.2021640   0.0520986  18.3490109  )

     number of k points=    10  Fermi-Dirac smearing, width (Ry)=  0.0073
                       cart. coord. in units 2pi/alat
        k(    1) = (   0.0000000   0.0000000   0.0000000), wk =   0.1250000
        k(    2) = (   0.0000000   0.0419351   0.0000000), wk =   0.2500000
        k(    3) = (   0.0000000  -0.0838702   0.0000000), wk =   0.1250000
        k(    4) = (   0.0379955   0.0000049   0.0000000), wk =   0.2500000
        k(    5) = (   0.0379955   0.0419400   0.0000000), wk =   0.2500000
        k(    6) = (   0.0379955  -0.0838652   0.0000000), wk =   0.2500000
        k(    7) = (   0.0379955  -0.0419301   0.0000000), wk =   0.2500000
        k(    8) = (  -0.0759910  -0.0000099   0.0000000), wk =   0.1250000
        k(    9) = (  -0.0759910   0.0419252   0.0000000), wk =   0.2500000
        k(   10) = (  -0.0759910  -0.0838800   0.0000000), wk =   0.1250000

     Initial potential from superposition of free atoms

     starting charge  382.99916, renormalised to  399.00000

     negative rho (up, down):  1.653E-02 0.000E+00

     %%%%%%%%%%%%%%%%%%%%%%%%%%%%%%%%%%%%%%%%%%%%%%%%%%%%%%%%%%%%%%%%%%%%%%%%
     %                                                                      %
     % You are using vdW-DF, which was implemented by the Thonhauser group. %
     % Please cite the following two papers that made this development      %
     % possible and the two reviews that describe the various versions:     %
     %                                                                      %
     %   T. Thonhauser et al., PRL 115, 136402 (2015).                      %
     %   T. Thonhauser et al., PRB 76, 125112 (2007).                       %
     %   K. Berland et al., Rep. Prog. Phys. 78, 066501 (2015).             %
     %   D.C. Langreth et al., J. Phys.: Condens. Matter 21, 084203 (2009). %
     %                                                                      %
     %                                                                      %
     % If you are calculating the stress with vdW-DF, please also cite:     %
     %                                                                      %
     %   R. Sabatini et al., J. Phys.: Condens. Matter 24, 424209 (2012).   %
     %                                                                      %
     %%%%%%%%%%%%%%%%%%%%%%%%%%%%%%%%%%%%%%%%%%%%%%%%%%%%%%%%%%%%%%%%%%%%%%%%

     Adding external electric field

     Computed dipole along edir(3) :
        Dipole              -10.2322 Ry au,        -26.0076 Debye
        Dipole field         -0.0193 Ry au,

        Potential amp.        1.7900 Ry
        Total length         46.3494 bohr

     Starting wfcs are  301 atomic wfcs
  @ DRIVER MODE: Message from server: STATUS
  @ DRIVER MODE: Message from server: POSDATA
  @ DRIVER MODE: Reading and sharing cell
  @ DRIVER MODE: Reading and sharing positions
  @ DRIVER MODE: Received positions

     Self-consistent Calculation

     iteration #  1     ecut=    29.40 Ry     beta= 0.05
     Davidson diagonalization with overlap
     c_bands:  3 eigenvalues not converged
     c_bands:  3 eigenvalues not converged
     c_bands:  4 eigenvalues not converged
     c_bands:  1 eigenvalues not converged
     c_bands:  5 eigenvalues not converged
     c_bands:  5 eigenvalues not converged
     c_bands:  4 eigenvalues not converged
     c_bands:  4 eigenvalues not converged
     c_bands:  4 eigenvalues not converged
     ethr =  1.00E-05,  avg # of iterations = 21.1

[...]

     total energy              =   -2463.85884898 Ry
     estimated scf accuracy    <    5598.06229961 Ry

     iteration #  2     ecut=    29.40 Ry     beta= 0.05
     Davidson diagonalization with overlap
     ethr =  1.00E-02,  avg # of iterations = 25.6

[...]

     iteration # 64     ecut=    29.40 Ry     beta= 0.05
     Davidson diagonalization with overlap
     c_bands:  1 eigenvalues not converged
     ethr =  6.89E-11,  avg # of iterations = 15.4

[...]

     total energy              =   -2966.27796309 Ry
     estimated scf accuracy    <       0.00000013 Ry

     iteration # 66     ecut=    29.40 Ry     beta= 0.05
     Davidson diagonalization with overlap
     ethr =  3.18E-11,  avg # of iterations =  9.2

     negative rho (up, down):  1.670E-02 0.000E+00

     Adding external electric field

     Computed dipole along edir(3) :
        Dipole                1.0414 Ry au,          2.6470 Debye
        Dipole field          0.0020 Ry au,

        Potential amp.       -0.1822 Ry
        Total length         46.3494 bohr

     End of self-consistent calculation

          k = 0.0000 0.0000 0.0000 ( 18029 PWs)   bands (ev):

   -55.7029 -55.6341 -55.5991 -55.5197 -55.4965 -55.4686 -55.4365 -55.4289
   -55.4255 -55.4124 -55.4000 -55.3728 -55.2865 -55.2145 -54.5921 -54.5581
   -32.1131 -32.0960 -32.0142 -32.0042 -31.9601 -31.9518 -31.9240 -31.9204
   -31.8943 -31.8777 -31.8681 -31.7963 -31.7932 -31.7875 -31.7602 -31.7425
   -31.7352 -31.7233 -31.7140 -31.7005 -31.6968 -31.6927 -31.6484 -31.6476
   -31.6461 -31.6385 -31.6335 -31.6267 -31.6146 -31.5985 -31.5936 -31.5837
   -31.5777 -31.5626 -31.5581 -31.5488 -31.5389 -31.5145 -31.4752 -31.4586
   -31.4263 -31.4191 -30.9981 -30.9124 -30.8898 -30.8152 -30.7289 -30.6172
   -20.1083 -16.5161 -16.2868 -16.1072 -15.9058 -15.8425 -15.7839 -15.5958
   -15.5203 -15.3796 -15.2340 -15.2226 -15.1679 -15.1675 -15.1586 -15.1355
   -15.1046 -15.0605 -15.0511 -15.0451 -15.0395 -14.9840 -14.9421 -14.9336
   -14.9273 -14.8865 -14.7582 -14.7179 -14.6617 -14.4907 -14.4484 -13.0919
   -12.9758 -10.9146  -6.7962  -4.9767  -4.7886  -4.0102  -3.6382  -3.5382
    -3.5205  -3.4556  -3.4005  -3.1892  -3.0498  -3.0176  -2.9050  -2.7785
    -2.7376  -2.6682  -2.6554  -2.5675  -2.5449  -2.5152  -2.4900  -2.4326
    -2.4036  -2.3953  -2.3835  -2.3114  -2.3015  -2.1711  -2.1673  -2.0949
    -2.0259  -2.0048  -1.9859  -1.9676  -1.9365  -1.9355  -1.8897  -1.8688
    -1.8473  -1.8139  -1.7434  -1.7230  -1.6623  -1.6223  -1.3880  -1.2274
    -1.2047  -1.1346  -1.1169  -1.0848  -1.0483  -1.0332  -1.0273  -0.9887
    -0.9723  -0.8639  -0.7674  -0.7552  -0.6951  -0.6556  -0.6545  -0.5208
    -0.4724  -0.3988  -0.3734  -0.3478  -0.3250  -0.2327  -0.1897  -0.1718
    -0.1085  -0.0784   0.0329   0.0727   0.0903   0.1293   0.1845   0.2527
     0.2826   0.3196   0.3275   0.3598   0.4089   0.4337   0.4663   0.4932
     0.5320   0.6369   0.6764   0.6917   0.8366   0.8370   0.9245   1.0519
     1.1000   1.3809   1.4329   1.4711   1.6259   2.0006   2.0467   3.4849
     3.6021   3.6126   3.6309   3.7013   3.7915   3.9471   3.9754   4.0468
     4.1410

[...]

          k = 0.0380-0.0419 0.0000 ( 17876 PWs)   bands (ev):

[...]

          k =-0.0760-0.0000 0.0000 ( 17886 PWs)   bands (ev):

[...]

          k =-0.0760-0.0839 0.0000 ( 17948 PWs)   bands (ev):

   -55.7021 -55.6205 -55.6126 -55.5128 -55.4918 -55.4753 -55.4303 -55.4293
   -55.4238 -55.4122 -55.4032 -55.3822 -55.2826 -55.2184 -54.5752 -54.5748
   -32.0155 -31.9551 -31.9459 -31.9324 -31.9246 -31.9197 -31.9167 -31.9027
   -31.8357 -31.8341 -31.7991 -31.7699 -31.7646 -31.7573 -31.7405 -31.7403
   -31.7354 -31.7323 -31.7302 -31.7196 -31.7170 -31.7147 -31.7024 -31.7009
   -31.6738 -31.6710 -31.6378 -31.6326 -31.6318 -31.6311 -31.6209 -31.6168
   -31.6105 -31.6085 -31.6015 -31.6005 -31.5986 -31.5617 -31.5421 -31.4795
   -31.4656 -31.4230 -30.9027 -30.9024 -30.8119 -30.8104 -30.7722 -30.7713
   -20.1046 -16.4910 -15.9029 -15.7582 -15.5959 -15.5777 -15.5000 -15.4043
   -15.3878 -15.3582 -15.3489 -15.3289 -15.3032 -15.3010 -15.2530 -15.1979
   -15.1562 -15.1332 -15.1288 -15.0827 -15.0734 -15.0698 -15.0141 -15.0015
   -14.9922 -14.9535 -14.8937 -14.8657 -14.7871 -14.7597 -14.6057 -13.0780
   -13.0774 -10.9168  -6.7973  -4.9586  -4.7802  -3.9733  -3.0526  -2.9776
    -2.8646  -2.8180  -2.7377  -2.6777  -2.6287  -2.6095  -2.5676  -2.5470
    -2.4769  -2.4430  -2.4358  -2.4140  -2.4118  -2.3851  -2.3695  -2.3571
    -2.3341  -2.3042  -2.2901  -2.2762  -2.2577  -2.2372  -2.2161  -2.1971
    -2.1843  -2.1735  -2.1537  -2.0461  -2.0225  -1.9861  -1.8322  -1.8203
    -1.7556  -1.7232  -1.6927  -1.6874  -1.6548  -1.6466  -1.6032  -1.4953
    -1.4665  -1.4183  -1.3617  -1.2711  -1.2666  -1.2189  -1.1663  -1.1269
    -1.0975  -1.0507  -1.0475  -1.0014  -0.8608  -0.8343  -0.7952  -0.6712
    -0.5993  -0.5839  -0.5699  -0.5528  -0.5267  -0.4797  -0.4741  -0.4178
    -0.3961  -0.3243  -0.3219  -0.2978  -0.2732  -0.1666  -0.0517   0.0396
     0.0738   0.1302   0.1701   0.2034   0.2863   0.3603   0.4432   0.5294
     0.5556   0.5664   0.6878   0.7149   0.7658   0.8188   0.8346   0.8943
     0.9272   0.9700   0.9982   1.7940   1.8073   1.8632   1.8679   3.6728
     3.9224   3.9741   3.9923   4.0050   4.0385   4.0584   4.1050   4.1229
     4.1490

     the Fermi energy is     3.4984 ev

!    total energy              =   -2966.27798967 Ry
     estimated scf accuracy    <       0.00000006 Ry
     smearing contrib. (-TS)   =      -0.02072823 Ry
     internal energy E=F+TS    =   -2966.25726144 Ry

     The total energy is F=E-TS. E is the sum of the following terms:
     one-electron contribution =  -24038.98437707 Ry
     hartree contribution      =   12111.97689291 Ry
     xc contribution           =    -490.94427243 Ry
     ewald contribution        =    9451.69244850 Ry
     electric field correction =       0.00204665 Ry

     convergence has been achieved in  66 iterations

     Forces acting on atoms (cartesian axes, Ry/au):

     atom    1 type  1   force =    -0.00039895    0.00005106    0.09458787
     atom    2 type  1   force =    -0.00032700    0.00498687   -0.17463496
     atom    3 type  2   force =     0.00082351   -0.00023596   -0.02594862
     atom    4 type  2   force =     0.00125449    0.00074987    0.05284861
     atom    5 type  2   force =    -0.01097093   -0.00285411    0.00047750
     atom    6 type  2   force =     0.01163653   -0.00410236    0.00185527
     atom    7 type  1   force =     0.00053275    0.00038814   -0.00013764
     atom    8 type  1   force =    -0.00045309    0.00019834    0.00076997
     atom    9 type  2   force =    -0.00044393    0.00028511   -0.00026231
     atom   10 type  2   force =     0.00031627   -0.00035195   -0.00045406
     atom   11 type  2   force =     0.00061641    0.00031959   -0.00023019
     atom   12 type  2   force =    -0.00038280   -0.00046154   -0.00038309
     atom   13 type  1   force =    -0.00130394   -0.00079912    0.00030435
     atom   14 type  1   force =     0.00029033    0.00009720    0.00059616
     atom   15 type  2   force =     0.00048630    0.00064515    0.00022355
     atom   16 type  2   force =    -0.00049619    0.00051653    0.00052279
     atom   17 type  2   force =     0.00008761    0.00032196   -0.00001289
     atom   18 type  2   force =    -0.00035156    0.00001451    0.00036222
     atom   19 type  1   force =    -0.00033876    0.00113563   -0.00011186
     atom   20 type  1   force =    -0.00023403   -0.00051198   -0.00086961
     atom   21 type  2   force =    -0.00001249    0.00005415    0.10309021
     atom   22 type  2   force =    -0.00034871   -0.00058914   -0.00052988
     atom   23 type  2   force =    -0.07206879    0.00005095   -0.02789084
     atom   24 type  2   force =     0.07192800    0.00054093   -0.02799532
     atom   25 type  1   force =    -0.00044112   -0.00000110    0.10116974
     atom   26 type  1   force =    -0.00005948   -0.00460489   -0.17489898
     atom   27 type  2   force =     0.00089665    0.00114376   -0.02443874
     atom   28 type  2   force =     0.00113712    0.00015108    0.05241429
     atom   29 type  2   force =    -0.01185658    0.00306137    0.00194490
     atom   30 type  2   force =     0.01325735    0.00116173    0.00308125
     atom   31 type  1   force =     0.00058986    0.00002400   -0.00054191
     atom   32 type  1   force =    -0.00036449    0.00070253    0.00046714
     atom   33 type  2   force =    -0.00020128    0.00092798    0.00016603
     atom   34 type  2   force =     0.00013821   -0.00012862   -0.00095633
     atom   35 type  2   force =     0.00033874    0.00007220    0.00053954
     atom   36 type  2   force =     0.00009571    0.00016169    0.00047548
     atom   37 type  1   force =    -0.00146089   -0.00060102    0.00029417
     atom   38 type  1   force =     0.00077814   -0.00025613   -0.00009940
     atom   39 type  2   force =     0.00046362   -0.00021809    0.00130743
     atom   40 type  2   force =    -0.00011205    0.00034251    0.00050582
     atom   41 type  2   force =    -0.00047360    0.00001670   -0.00072791
     atom   42 type  2   force =    -0.00009444   -0.00021638   -0.00056485
     atom   43 type  1   force =    -0.00000185   -0.00028054   -0.00040145
     atom   44 type  1   force =    -0.00030959   -0.00015874   -0.00135732
     atom   45 type  2   force =    -0.00001192    0.00013068    0.10266657
     atom   46 type  2   force =    -0.07203868   -0.00056477   -0.02787077
     atom   47 type  2   force =     0.07189093   -0.00007528   -0.02795188
     atom   48 type  3   force =    -0.01994034   -0.00112997   -0.00479761
     atom   49 type  2   force =     0.00340930   -0.00038326   -0.00153808
     atom   50 type  4   force =     0.00978722    0.00305965    0.00294215
     atom   51 type  4   force =     0.00057826   -0.00016465   -0.00162525
     atom   52 type  4   force =     0.00360827   -0.00257126    0.00276398
     atom   53 type  4   force =     0.00109907    0.00015457   -0.00004137
     atom   54 type  2   force =     0.00104087    0.00005471    0.00051619
     atom   55 type  4   force =    -0.00158403   -0.00026027    0.00037996

     Total force =     0.365214     Total SCF correction =     0.000538
  @ DRIVER MODE: Message from server: STATUS
  @ DRIVER MODE: Message from server: GETFORCE
  @ DRIVER MODE: Returning v,forces,stress,ensemble

     Writing output data file ./calc.save/
  @ DRIVER MODE: Message from server: EXIT
  @ DRIVE MODE: Exiting

     General routines

     Parallel routines

   This run was terminated on:  23: 9: 7  22Sep2021

   JOB DONE.