     Program PWSCF v.6.7GPU starts on 12Oct2021 at 11:54:33

     R & G space division:  proc/nbgrp/npool/nimage =       8
     Reading input from /storage/home/hcoda1/3/ntian30/research/carbon/ACS_vib/ads_slab/HNNH2/out_0009/pw.inp
Warning: card &CELL ignored
Warning: card   CELL_DYNAMICS='IPI', ignored
Warning: card / ignored

     Current dimensions of program PWSCF are:
     Max number of different atomic species (ntypx) = 10
     Max number of k-points (npk) =  40000
     Max angular momentum in pseudopotentials (lmaxx) =  3
     Presently no symmetry can be used with electric field

     Message from routine cell_base_init:
     DEPRECATED: use true lattice parameter, not A to a.u. conversion factor

     IMPORTANT: XC functional enforced from input :
     Exchange-correlation= BEEF-VDW
                           (   1   4  43  14   2   0   0)
     Any further DFT definition will be discarded
     Please, verify this is what you really want

  @ DRIVER MODE: Connecting to
 qe_1139763_3181312.sched-torque.pace.gatech.eduyw0c4c_h_scratch
  using UNIX socket
  @ DRIVER MODE: Message from server: STATUS
  @ DRIVER MODE: Message from server: INIT
  @ DRIVER MODE: Receiving replica           0          -1
  @ DRIVER MODE: Receiving encoded integer          25
  @ DRIVER MODE:  SCF:  T  FORCE:  T  STRESS:  F  VC:  F  ENSEMBLE:  F
  @ DRIVER MODE:  SCF:  T  FORCE:  T  STRESS:  F  VC:  F  ENSEMBLE:  F

     Using Slab Decomposition

     bravais-lattice index     =            0
     lattice parameter (alat)  =       1.8897  a.u.
     unit-cell volume          =    6658.9804 (a.u.)^3
     number of atoms/cell      =           52
     number of atomic types    =            4
     number of electrons       =       391.00
     number of Kohn-Sham states=          205
     kinetic-energy cutoff     =      29.3995  Ry
     charge density cutoff     =     293.9946  Ry
     scf convergence threshold =      7.3E-08
     mixing beta               =       0.0500
     number of iterations used =            8  plain     mixing
     Exchange-correlation= BEEF-VDW
                           (   1   4  43  14   2   0   0)

     celldm(1)=   1.889726  celldm(2)=   0.000000  celldm(3)=   0.000000
     celldm(4)=   0.000000  celldm(5)=   0.000000  celldm(6)=   0.000000

     crystal axes: (cart. coord. in units of alat)
               a(1) = (   6.579727   0.000000   0.000000 )
               a(2) = (  -0.000775   5.961596   0.000000 )
               a(3) = (   0.000000   0.000000  25.155947 )

     reciprocal axes: (cart. coord. in units 2 pi/alat)
               b(1) = (  0.151982  0.000020  0.000000 )
               b(2) = (  0.000000  0.167740  0.000000 )
               b(3) = (  0.000000  0.000000  0.039752 )

     PseudoPot. # 1 for Ti read from file:
     /storage/coda1/p-amedford6/0/shared/rich_project_chbe-medford/medford-share/data/pseudos_module/espresso/nninc/pbe/van/Ti.UPF
     MD5 check sum: 8e4df49b7f0d34bbd5052bf3f5ea0213
     Pseudo is Ultrasoft, Zval = 12.0
     Generated by new atomic code, or converted to UPF format
     Using radial grid of  851 points,  6 beta functions with:
                l(1) =   0
                l(2) =   0
                l(3) =   1
                l(4) =   1
                l(5) =   2
                l(6) =   2
     Q(r) pseudized with  8 coefficients,  rinner =    1.000   1.000   1.000
                                                       1.000   1.000

     PseudoPot. # 2 for O  read from file:
     /storage/coda1/p-amedford6/0/shared/rich_project_chbe-medford/medford-share/data/pseudos_module/espresso/nninc/pbe/van/O.UPF
     MD5 check sum: 78c19812648e8988a0fe644b0f25305e
     Pseudo is Ultrasoft, Zval =  6.0
     Generated by new atomic code, or converted to UPF format
     Using radial grid of  737 points,  4 beta functions with:
                l(1) =   0
                l(2) =   0
                l(3) =   1
                l(4) =   1
     Q(r) pseudized with  8 coefficients,  rinner =    0.800   0.800   0.800

     PseudoPot. # 3 for H  read from file:
     /storage/coda1/p-amedford6/0/shared/rich_project_chbe-medford/medford-share/data/pseudos_module/espresso/nninc/pbe/van/H.UPF
     MD5 check sum: b5ee9d7bfd3a09ee7748110bda690ff7
     Pseudo is Ultrasoft, Zval =  1.0
     Generated by new atomic code, or converted to UPF format
     Using radial grid of  615 points,  1 beta functions with:
                l(1) =   0
     Q(r) pseudized with  8 coefficients,  rinner =    0.800

     PseudoPot. # 4 for N  read from file:
     /storage/coda1/p-amedford6/0/shared/rich_project_chbe-medford/medford-share/data/pseudos_module/espresso/nninc/pbe/van/N.UPF
     MD5 check sum: 90d10febe142ad51ac9d5be1deb811c4
     Pseudo is Ultrasoft, Zval =  5.0
     Generated by new atomic code, or converted to UPF format
     Using radial grid of  729 points,  4 beta functions with:
                l(1) =   0
                l(2) =   0
                l(3) =   1
                l(4) =   1
     Q(r) pseudized with  8 coefficients,  rinner =    0.800   0.800   0.800

     atomic species   valence    mass     pseudopotential
        Ti1           12.00    47.86700     Ti( 1.00)
        O1             6.00    15.99900     O ( 1.00)
        H1             1.00     1.00800     H ( 1.00)
        N1             5.00    14.00700     N ( 1.00)

     No symmetry found

   Cartesian axes

     site n.     atom                  positions (alat units)
         1           Ti1 tau(   1) = (   0.0004258   2.9801865   6.0000000  )
         2           Ti1 tau(   2) = (   3.2906075   1.4906267   6.0002472  )
         3           O1  tau(   3) = (   0.0006271   0.0005054   7.9858123  )
         4           O1  tau(   4) = (   3.2906025   0.0005020   7.3038282  )
         5           O1  tau(   5) = (   4.5942328   1.4918067   9.2879030  )
         6           O1  tau(   6) = (   1.9868534   1.4903216   9.2879459  )
         7           Ti1 tau(   7) = (   3.2908112   2.9011704   9.1816539  )
         8           Ti1 tau(   8) = (   0.0015097   1.3932332   9.2931702  )
         9           O1  tau(   9) = (   3.2819087   5.9526348  11.3504271  )
        10           O1  tau(  10) = (   6.5772260   5.9545827  10.6088576  )
        11           O1  tau(  11) = (   1.2874804   1.4832564  12.6509691  )
        12           O1  tau(  12) = (   5.2781146   1.4858874  12.6440994  )
        13           Ti1 tau(  13) = (   6.5585775   2.9503744  12.8030734  )
        14           Ti1 tau(  14) = (   3.2696126   1.4733128  12.4944632  )
        15           O1  tau(  15) = (   6.5513721   5.9458199  14.6768215  )
        16           O1  tau(  16) = (   3.2879482   5.9481552  13.9547078  )
        17           O1  tau(  17) = (   4.5181657   1.4884665  16.1124167  )
        18           O1  tau(  18) = (   2.0188244   1.4835402  16.0984261  )
        19           Ti1 tau(  19) = (   3.2766105   2.9578040  15.7125626  )
        20           Ti1 tau(  20) = (   0.0270592   1.3580474  16.0627221  )
        21           O1  tau(  21) = (   3.2904802   0.0005063   4.7018136  )
        22           O1  tau(  22) = (   0.0072818   5.9434210  17.2237418  )
        23           O1  tau(  23) = (   1.3043587   1.4918075   6.0039043  )
        24           O1  tau(  24) = (   5.2767064   1.4903225   6.0039473  )
        25           Ti1 tau(  25) = (   0.0000382   5.9609847   6.0000000  )
        26           Ti1 tau(  26) = (   3.2902200   4.4714249   6.0002472  )
        27           O1  tau(  27) = (   0.0002396   2.9813036   7.9858123  )
        28           O1  tau(  28) = (   3.2902150   2.9813002   7.3038282  )
        29           O1  tau(  29) = (   4.5938453   4.4726049   9.2879030  )
        30           O1  tau(  30) = (   1.9864658   4.4711199   9.2879459  )
        31           Ti1 tau(  31) = (   3.2900885   5.8829342   9.1674613  )
        32           Ti1 tau(  32) = (   0.0009626   4.3321112   9.3579051  )
        33           O1  tau(  33) = (   3.2805539   2.9674959  11.3464436  )
        34           O1  tau(  34) = (   6.5791951   2.9642230  10.5753725  )
        35           O1  tau(  35) = (   1.2880645   4.4660911  12.6414962  )
        36           O1  tau(  36) = (   5.2770833   4.4616490  12.6331305  )
        37           Ti1 tau(  37) = (   6.5652171   5.9330851  12.5680926  )
        38           Ti1 tau(  38) = (   3.2703904   4.4534766  12.4879229  )
        39           O1  tau(  39) = (   6.5642693   2.9891374  14.6930774  )
        40           O1  tau(  40) = (   3.2814391   2.9717942  13.9260038  )
        41           O1  tau(  41) = (   4.5200678   4.4336085  16.1105754  )
        42           O1  tau(  42) = (   2.0169658   4.4359636  16.1171003  )
        43           Ti1 tau(  43) = (   3.3139371   5.9425984  15.7429620  )
        44           Ti1 tau(  44) = (   0.0173840   4.5100783  16.0001754  )
        45           O1  tau(  45) = (   3.2900926   2.9813045   4.7018136  )
        46           O1  tau(  46) = (   1.3039711   4.4726057   6.0039043  )
        47           O1  tau(  47) = (   5.2763189   4.4711207   6.0039473  )
        48           H1  tau(  48) = (   5.5810648   2.9993886  17.8866560  )
        49           N1  tau(  49) = (   6.5184219   2.9688514  17.4915934  )
        50           N1  tau(  50) = (   0.8269126   2.9775512  18.6276789  )
        51           H1  tau(  51) = (   1.2125983   2.0437984  18.7562651  )
        52           H1  tau(  52) = (   1.5963704   3.6133177  18.4401992  )

     number of k points=    10  Fermi-Dirac smearing, width (Ry)=  0.0073
                       cart. coord. in units 2pi/alat
        k(    1) = (   0.0000000   0.0000000   0.0000000), wk =   0.1250000
        k(    2) = (   0.0000000   0.0419351   0.0000000), wk =   0.2500000
        k(    3) = (   0.0000000  -0.0838702   0.0000000), wk =   0.1250000
        k(    4) = (   0.0379955   0.0000049   0.0000000), wk =   0.2500000
        k(    5) = (   0.0379955   0.0419400   0.0000000), wk =   0.2500000
        k(    6) = (   0.0379955  -0.0838652   0.0000000), wk =   0.2500000
        k(    7) = (   0.0379955  -0.0419301   0.0000000), wk =   0.2500000
        k(    8) = (  -0.0759910  -0.0000099   0.0000000), wk =   0.1250000
        k(    9) = (  -0.0759910   0.0419252   0.0000000), wk =   0.2500000
        k(   10) = (  -0.0759910  -0.0838800   0.0000000), wk =   0.1250000

     Initial potential from superposition of free atoms

     starting charge  374.99920, renormalised to  391.00000

     negative rho (up, down):  1.966E-02 0.000E+00

     %%%%%%%%%%%%%%%%%%%%%%%%%%%%%%%%%%%%%%%%%%%%%%%%%%%%%%%%%%%%%%%%%%%%%%%%
     %                                                                      %
     % You are using vdW-DF, which was implemented by the Thonhauser group. %
     % Please cite the following two papers that made this development      %
     % possible and the two reviews that describe the various versions:     %
     %                                                                      %
     %   T. Thonhauser et al., PRL 115, 136402 (2015).                      %
     %   T. Thonhauser et al., PRB 76, 125112 (2007).                       %
     %   K. Berland et al., Rep. Prog. Phys. 78, 066501 (2015).             %
     %   D.C. Langreth et al., J. Phys.: Condens. Matter 21, 084203 (2009). %
     %                                                                      %
     %                                                                      %
     % If you are calculating the stress with vdW-DF, please also cite:     %
     %                                                                      %
     %   R. Sabatini et al., J. Phys.: Condens. Matter 24, 424209 (2012).   %
     %                                                                      %
     %%%%%%%%%%%%%%%%%%%%%%%%%%%%%%%%%%%%%%%%%%%%%%%%%%%%%%%%%%%%%%%%%%%%%%%%

     Adding external electric field

     Computed dipole along edir(3) :
        Dipole               -5.4650 Ry au,        -13.8907 Debye
        Dipole field         -0.0103 Ry au,

        Potential amp.        0.9560 Ry
        Total length         46.3494 bohr

     Starting wfcs are  295 atomic wfcs
  @ DRIVER MODE: Message from server: STATUS
  @ DRIVER MODE: Message from server: POSDATA
  @ DRIVER MODE: Reading and sharing cell
  @ DRIVER MODE: Reading and sharing positions
  @ DRIVER MODE: Received positions

     Self-consistent Calculation

     iteration #  1     ecut=    29.40 Ry     beta= 0.05
     Davidson diagonalization with overlap
     c_bands:  2 eigenvalues not converged
     c_bands:  1 eigenvalues not converged
     c_bands:  2 eigenvalues not converged
     c_bands:  3 eigenvalues not converged
     c_bands:  4 eigenvalues not converged
     c_bands:  2 eigenvalues not converged
     c_bands:  1 eigenvalues not converged
     c_bands:  1 eigenvalues not converged
     c_bands:  2 eigenvalues not converged
     ethr =  1.00E-05,  avg # of iterations = 19.9

[...]

     total energy              =   -2794.85459718 Ry
     estimated scf accuracy    <    1458.44514905 Ry

     iteration #  2     ecut=    29.40 Ry     beta= 0.05
     Davidson diagonalization with overlap
     ethr =  1.00E-02,  avg # of iterations = 16.9

[...]

     iteration # 51     ecut=    29.40 Ry     beta= 0.05
     Davidson diagonalization with overlap
     c_bands:  2 eigenvalues not converged
     ethr =  2.51E-09,  avg # of iterations = 11.4

[...]

     total energy              =   -2927.71121914 Ry
     estimated scf accuracy    <       0.00000014 Ry

     iteration # 60     ecut=    29.40 Ry     beta= 0.05
     Davidson diagonalization with overlap
     ethr =  2.59E-11,  avg # of iterations =  9.0

     negative rho (up, down):  1.937E-02 0.000E+00

     Adding external electric field

     Computed dipole along edir(3) :
        Dipole                0.4570 Ry au,          1.1615 Debye
        Dipole field          0.0009 Ry au,

        Potential amp.       -0.0799 Ry
        Total length         46.3494 bohr

     End of self-consistent calculation

          k = 0.0000 0.0000 0.0000 ( 18029 PWs)   bands (ev):

   -56.1416 -56.1259 -56.1058 -56.0897 -56.0434 -56.0098 -55.9695 -55.9456
   -55.9000 -55.8824 -55.8681 -55.8320 -55.7578 -55.7569 -55.0782 -55.0442
   -32.6973 -32.6015 -32.4828 -32.4713 -32.4604 -32.4287 -32.4029 -32.3848
   -32.3759 -32.3539 -32.3486 -32.3452 -32.3317 -32.3073 -32.3037 -32.2831
   -32.2767 -32.2556 -32.2246 -32.2129 -32.2095 -32.1917 -32.1607 -32.1547
   -32.1526 -32.1337 -32.1330 -32.1073 -32.1002 -32.0960 -32.0953 -32.0780
   -32.0735 -32.0403 -32.0165 -32.0143 -31.9807 -31.9773 -31.9661 -31.9559
   -31.9416 -31.8969 -31.4854 -31.3969 -31.3741 -31.3017 -31.2153 -31.1046
   -16.9042 -16.6665 -16.5253 -16.3690 -16.2655 -16.2426 -16.1854 -15.9072
   -15.8400 -15.7784 -15.7600 -15.7389 -15.7275 -15.6645 -15.6636 -15.6298
   -15.5854 -15.5508 -15.5397 -15.5108 -15.5030 -15.4544 -15.4286 -15.3991
   -15.3646 -15.2807 -15.2265 -15.1551 -15.1186 -15.0794 -13.5820 -13.4660
   -11.2687  -5.2492  -4.6071  -4.2501  -4.1344  -4.0500  -3.9990  -3.9317
    -3.7837  -3.7254  -3.5896  -3.3402  -3.3028  -3.2884  -3.2589  -3.2215
    -3.0334  -2.9837  -2.9477  -2.9260  -2.9201  -2.9131  -2.8752  -2.8431
    -2.8355  -2.8328  -2.7159  -2.6457  -2.5578  -2.5492  -2.4777  -2.4394
    -2.4156  -2.4115  -2.3713  -2.3482  -2.3272  -2.3092  -2.2827  -2.1817
    -2.1562  -2.0737  -1.9841  -1.8994  -1.7760  -1.7138  -1.7023  -1.5750
    -1.5156  -1.5131  -1.4792  -1.4573  -1.4179  -1.3401  -1.3031  -1.2550
    -1.1763  -1.1320  -1.0619  -1.0333  -1.0168  -0.9771  -0.9017  -0.8546
    -0.8476  -0.8367  -0.6304  -0.6037  -0.5939  -0.5796  -0.4613  -0.3802
    -0.3628  -0.3328  -0.3160  -0.3037  -0.2501  -0.1593  -0.1305  -0.1187
    -0.0992  -0.0135   0.0568   0.0641   0.0973   0.1858   0.2091   0.3258
     0.3901   0.5659   0.6019   0.7350   0.8625   0.9415   0.9754   1.1356
     1.5216   1.5542   1.5724   3.0552   3.0729   3.1102   3.1311   3.2676
     3.3769   3.3811   3.4797   3.5005   3.5523

[...]

          k = 0.0380-0.0419 0.0000 ( 17876 PWs)   bands (ev):

[...]

          k =-0.0760-0.0000 0.0000 ( 17886 PWs)   bands (ev):

[...]

          k =-0.0760-0.0839 0.0000 ( 17948 PWs)   bands (ev):

   -56.1294 -56.1178 -56.1085 -56.1069 -56.0391 -56.0053 -55.9736 -55.9501
   -55.8981 -55.8795 -55.8570 -55.8434 -55.7597 -55.7592 -55.0615 -55.0608
   -32.5012 -32.4977 -32.4343 -32.4249 -32.4177 -32.4120 -32.4018 -32.3998
   -32.3386 -32.3381 -32.3345 -32.3050 -32.3030 -32.2883 -32.2720 -32.2584
   -32.2505 -32.2489 -32.2359 -32.2340 -32.2214 -32.2101 -32.1955 -32.1849
   -32.1770 -32.1683 -32.1659 -32.1606 -32.1468 -32.1086 -32.0877 -32.0860
   -32.0851 -32.0706 -32.0667 -32.0604 -32.0491 -32.0201 -32.0168 -31.9920
   -31.9498 -31.9439 -31.3872 -31.3864 -31.2986 -31.2979 -31.2588 -31.2580
   -16.5372 -16.3603 -16.3140 -16.0822 -16.0669 -16.0243 -15.9470 -15.8936
   -15.8889 -15.8643 -15.8563 -15.7971 -15.7867 -15.7744 -15.7458 -15.6494
   -15.6477 -15.6360 -15.6173 -15.5556 -15.5400 -15.5054 -15.4754 -15.4658
   -15.4392 -15.4112 -15.3810 -15.3592 -15.2973 -15.2806 -13.5681 -13.5674
   -11.2768  -5.2474  -4.5666  -3.6984  -3.6479  -3.5993  -3.2952  -3.2774
    -3.2488  -3.1341  -3.0662  -3.0401  -3.0073  -2.9781  -2.9426  -2.9312
    -2.9163  -2.9120  -2.9039  -2.9010  -2.8696  -2.8395  -2.8235  -2.7775
    -2.7495  -2.7408  -2.7249  -2.7085  -2.7037  -2.6540  -2.6504  -2.6454
    -2.6370  -2.5197  -2.3870  -2.3698  -2.3314  -2.2128  -2.1894  -2.1831
    -2.1538  -2.1425  -2.1371  -2.0799  -1.9755  -1.8703  -1.8212  -1.8006
    -1.7768  -1.7148  -1.5976  -1.5470  -1.5364  -1.5055  -1.4437  -1.4237
    -1.3732  -1.3668  -1.2617  -1.2341  -1.2126  -1.1370  -1.0760  -1.0583
    -1.0353  -0.9761  -0.9296  -0.9086  -0.8987  -0.8548  -0.7530  -0.7452
    -0.6965  -0.6862  -0.6338  -0.6282  -0.5749  -0.4465  -0.2050  -0.1675
    -0.0951  -0.0726   0.0194   0.0513   0.0788   0.1734   0.2014   0.3029
     0.3434   0.4384   0.4452   0.4608   0.5034   0.6842   1.3063   1.3089
     1.3826   1.3888   1.5563   3.2117   3.2493   3.2738   3.3376   3.5179
     3.5414   3.5424   3.5569   3.5891   3.6515

     the Fermi energy is     3.0136 ev

!    total energy              =   -2927.71125839 Ry
     estimated scf accuracy    <       0.00000005 Ry
     smearing contrib. (-TS)   =      -0.02327014 Ry
     internal energy E=F+TS    =   -2927.68798825 Ry

     The total energy is F=E-TS. E is the sum of the following terms:
     one-electron contribution =  -24559.77067367 Ry
     hartree contribution      =   12363.05539177 Ry
     xc contribution           =    -481.65262041 Ry
     ewald contribution        =    9750.67951996 Ry
     electric field correction =       0.00039409 Ry

     convergence has been achieved in  60 iterations

     Forces acting on atoms (cartesian axes, Ry/au):

     atom    1 type  1   force =     0.00026368    0.00112465    0.11027707
     atom    2 type  1   force =     0.00005556    0.00171209   -0.17425999
     atom    3 type  2   force =     0.00010704    0.00665537   -0.03420835
     atom    4 type  2   force =     0.00001489   -0.00085635    0.05078014
     atom    5 type  2   force =    -0.01744340   -0.00134962    0.00576764
     atom    6 type  2   force =     0.01689456   -0.00101999    0.00539355
     atom    7 type  1   force =     0.00007590    0.00261472   -0.01781742
     atom    8 type  1   force =    -0.00002485    0.00012029    0.00034815
     atom    9 type  2   force =    -0.00001333    0.00008960   -0.00040965
     atom   10 type  2   force =     0.00000321   -0.00050906   -0.00007321
     atom   11 type  2   force =     0.00008338   -0.00025123   -0.00006624
     atom   12 type  2   force =    -0.00007817   -0.00036392   -0.00022612
     atom   13 type  1   force =    -0.00038226   -0.00035285    0.00000001
     atom   14 type  1   force =    -0.00075722    0.00007892   -0.00010966
     atom   15 type  2   force =    -0.00013698   -0.00128515    0.00052420
     atom   16 type  2   force =     0.00011333   -0.00016213   -0.00031719
     atom   17 type  2   force =    -0.00005975   -0.00031398    0.00032086
     atom   18 type  2   force =     0.00110786   -0.00053885    0.00038968
     atom   19 type  1   force =    -0.00004143    0.00021008    0.00012777
     atom   20 type  1   force =    -0.00010510   -0.00062370    0.00115270
     atom   21 type  2   force =     0.00009626    0.00006612    0.10313026
     atom   22 type  2   force =     0.00010356   -0.00115732   -0.00161576
     atom   23 type  2   force =    -0.07114726    0.00061835   -0.03027215
     atom   24 type  2   force =     0.07111291    0.00103427   -0.03028144
     atom   25 type  1   force =     0.00005643   -0.00109754    0.11744381
     atom   26 type  1   force =     0.00004440   -0.00255740   -0.17409378
     atom   27 type  2   force =     0.00007002   -0.00281875   -0.02991011
     atom   28 type  2   force =     0.00002547   -0.00148496    0.05394427
     atom   29 type  2   force =    -0.01859960    0.00056529    0.00666703
     atom   30 type  2   force =     0.01807979    0.00123772    0.00631027
     atom   31 type  1   force =     0.00039862   -0.00271249   -0.01219528
     atom   32 type  1   force =    -0.00000062    0.00038775    0.00072339
     atom   33 type  2   force =     0.00002394   -0.00008951   -0.00046505
     atom   34 type  2   force =     0.00006827    0.00031523    0.00041024
     atom   35 type  2   force =    -0.00000546    0.00005005   -0.00030619
     atom   36 type  2   force =     0.00007541   -0.00000276   -0.00034362
     atom   37 type  1   force =    -0.00050540   -0.00044783    0.00100343
     atom   38 type  1   force =    -0.00070069    0.00003560   -0.00012731
     atom   39 type  2   force =    -0.00013632   -0.00057275   -0.00026326
     atom   40 type  2   force =     0.00001326   -0.00008792   -0.00063487
     atom   41 type  2   force =    -0.00013152    0.00014659    0.00054473
     atom   42 type  2   force =     0.00067301    0.00034102    0.00005680
     atom   43 type  1   force =     0.00030919   -0.00002443    0.00001141
     atom   44 type  1   force =     0.00042984    0.00093998    0.00077205
     atom   45 type  2   force =     0.00008030    0.00013761    0.10304400
     atom   46 type  2   force =    -0.07143738   -0.00054419   -0.03020421
     atom   47 type  2   force =     0.07140243   -0.00010354   -0.03025429
     atom   48 type  3   force =     0.00088807   -0.00010094   -0.00041232
     atom   49 type  4   force =    -0.00036736    0.00442145   -0.00008729
     atom   50 type  4   force =    -0.00030452   -0.00303735   -0.00053400
     atom   51 type  3   force =     0.00053020    0.00094017    0.00057932
     atom   52 type  3   force =    -0.00082216    0.00062358   -0.00023399

     Total force =     0.376075     Total SCF correction =     0.000714
  @ DRIVER MODE: Message from server: STATUS
  @ DRIVER MODE: Message from server: GETFORCE
  @ DRIVER MODE: Returning v,forces,stress,ensemble

     Writing output data file ./calc.save/
  @ DRIVER MODE: Message from server: EXIT
  @ DRIVE MODE: Exiting

     General routines

     Parallel routines

   This run was terminated on:  12:13:32  12Oct2021

   JOB DONE.