     Program PWSCF v.6.7GPU starts on 15Sep2021 at 19: 5: 6

     R & G space division:  proc/nbgrp/npool/nimage =      10
     Reading input from /storage/home/hcoda1/3/ntian30/research/carbon/CxH_vib/H2O_calc/ads_slab/CH3N2H2O_c/out_0011/pw.inp
Warning: card &CELL ignored
Warning: card   CELL_DYNAMICS='IPI', ignored
Warning: card / ignored

     Current dimensions of program PWSCF are:
     Max number of different atomic species (ntypx) = 10
     Max number of k-points (npk) =  40000
     Max angular momentum in pseudopotentials (lmaxx) =  3
     Presently no symmetry can be used with electric field

     Message from routine cell_base_init:
     DEPRECATED: use true lattice parameter, not A to a.u. conversion factor

     IMPORTANT: XC functional enforced from input :
     Exchange-correlation= BEEF-VDW
                           (   1   4  43  14   2   0   0)
     Any further DFT definition will be discarded
     Please, verify this is what you really want

  @ DRIVER MODE: Connecting to
 qe_1139763_2852616.sched-torque.pace.gatech.edu1ndk2opn_scratch
  using UNIX socket
  @ DRIVER MODE: Message from server: STATUS
  @ DRIVER MODE: Message from server: INIT
  @ DRIVER MODE: Receiving replica           0          -1
  @ DRIVER MODE: Receiving encoded integer          25
  @ DRIVER MODE:  SCF:  T  FORCE:  T  STRESS:  F  VC:  F  ENSEMBLE:  F
  @ DRIVER MODE:  SCF:  T  FORCE:  T  STRESS:  F  VC:  F  ENSEMBLE:  F

     Using Slab Decomposition

     bravais-lattice index     =            0
     lattice parameter (alat)  =       1.8897  a.u.
     unit-cell volume          =    6658.9804 (a.u.)^3
     number of atoms/cell      =           56
     number of atomic types    =            5
     number of electrons       =       403.00
     number of Kohn-Sham states=          211
     kinetic-energy cutoff     =      29.3995  Ry
     charge density cutoff     =     293.9946  Ry
     scf convergence threshold =      7.3E-08
     mixing beta               =       0.0500
     number of iterations used =            8  plain     mixing
     Exchange-correlation= BEEF-VDW
                           (   1   4  43  14   2   0   0)

     celldm(1)=   1.889726  celldm(2)=   0.000000  celldm(3)=   0.000000
     celldm(4)=   0.000000  celldm(5)=   0.000000  celldm(6)=   0.000000

     crystal axes: (cart. coord. in units of alat)
               a(1) = (   6.579727   0.000000   0.000000 )
               a(2) = (  -0.000775   5.961596   0.000000 )
               a(3) = (   0.000000   0.000000  25.155947 )

     reciprocal axes: (cart. coord. in units 2 pi/alat)
               b(1) = (  0.151982  0.000020  0.000000 )
               b(2) = (  0.000000  0.167740  0.000000 )
               b(3) = (  0.000000  0.000000  0.039752 )

     PseudoPot. # 1 for Ti read from file:
     /storage/coda1/p-amedford6/0/shared/rich_project_chbe-medford/medford-share/data/pseudos_module/espresso/nninc/pbe/van/Ti.UPF
     MD5 check sum: 8e4df49b7f0d34bbd5052bf3f5ea0213
     Pseudo is Ultrasoft, Zval = 12.0
     Generated by new atomic code, or converted to UPF format
     Using radial grid of  851 points,  6 beta functions with:
                l(1) =   0
                l(2) =   0
                l(3) =   1
                l(4) =   1
                l(5) =   2
                l(6) =   2
     Q(r) pseudized with  8 coefficients,  rinner =    1.000   1.000   1.000
                                                       1.000   1.000

     PseudoPot. # 2 for O  read from file:
     /storage/coda1/p-amedford6/0/shared/rich_project_chbe-medford/medford-share/data/pseudos_module/espresso/nninc/pbe/van/O.UPF
     MD5 check sum: 78c19812648e8988a0fe644b0f25305e
     Pseudo is Ultrasoft, Zval =  6.0
     Generated by new atomic code, or converted to UPF format
     Using radial grid of  737 points,  4 beta functions with:
                l(1) =   0
                l(2) =   0
                l(3) =   1
                l(4) =   1
     Q(r) pseudized with  8 coefficients,  rinner =    0.800   0.800   0.800

     PseudoPot. # 3 for N  read from file:
     /storage/coda1/p-amedford6/0/shared/rich_project_chbe-medford/medford-share/data/pseudos_module/espresso/nninc/pbe/van/N.UPF
     MD5 check sum: 90d10febe142ad51ac9d5be1deb811c4
     Pseudo is Ultrasoft, Zval =  5.0
     Generated by new atomic code, or converted to UPF format
     Using radial grid of  729 points,  4 beta functions with:
                l(1) =   0
                l(2) =   0
                l(3) =   1
                l(4) =   1
     Q(r) pseudized with  8 coefficients,  rinner =    0.800   0.800   0.800

     PseudoPot. # 4 for C  read from file:
     /storage/coda1/p-amedford6/0/shared/rich_project_chbe-medford/medford-share/data/pseudos_module/espresso/nninc/pbe/van/C.UPF
     MD5 check sum: 1a69bf6b8db32088f5b2163dbdb77a27
     Pseudo is Ultrasoft, Zval =  4.0
     Generated by new atomic code, or converted to UPF format
     Using radial grid of  721 points,  4 beta functions with:
                l(1) =   0
                l(2) =   0
                l(3) =   1
                l(4) =   1
     Q(r) pseudized with  8 coefficients,  rinner =    0.800   0.800   0.800

     PseudoPot. # 5 for H  read from file:
     /storage/coda1/p-amedford6/0/shared/rich_project_chbe-medford/medford-share/data/pseudos_module/espresso/nninc/pbe/van/H.UPF
     MD5 check sum: b5ee9d7bfd3a09ee7748110bda690ff7
     Pseudo is Ultrasoft, Zval =  1.0
     Generated by new atomic code, or converted to UPF format
     Using radial grid of  615 points,  1 beta functions with:
                l(1) =   0
     Q(r) pseudized with  8 coefficients,  rinner =    0.800

     atomic species   valence    mass     pseudopotential
        Ti1           12.00    47.86700     Ti( 1.00)
        O1             6.00    15.99900     O ( 1.00)
        N1             5.00    14.00700     N ( 1.00)
        C1             4.00    12.01100     C ( 1.00)
        H1             1.00     1.00800     H ( 1.00)

     No symmetry found

   Cartesian axes

     site n.     atom                  positions (alat units)
         1           Ti1 tau(   1) = (   0.0004258   2.9801865   6.0000000  )
         2           Ti1 tau(   2) = (   3.2906075   1.4906267   6.0002472  )
         3           O1  tau(   3) = (   0.0006271   0.0005054   7.9858123  )
         4           O1  tau(   4) = (   3.2906025   0.0005020   7.3038282  )
         5           O1  tau(   5) = (   4.5942328   1.4918067   9.2879030  )
         6           O1  tau(   6) = (   1.9868534   1.4903216   9.2879459  )
         7           Ti1 tau(   7) = (   3.2907910   2.8959150   9.1758416  )
         8           Ti1 tau(   8) = (   0.0015273   1.4827037   9.2680791  )
         9           O1  tau(   9) = (   3.2828550   5.9398922  11.3444325  )
        10           O1  tau(  10) = (   0.0116148   5.9584955  10.6183126  )
        11           O1  tau(  11) = (   1.2785533   1.4626539  12.6279770  )
        12           O1  tau(  12) = (   5.2704455   1.4657548  12.6160130  )
        13           Ti1 tau(  13) = (   0.0600808   2.9393476  12.6134163  )
        14           Ti1 tau(  14) = (   3.3737088   1.4602624  12.5010433  )
        15           O1  tau(  15) = (   6.5684750   5.9323085  14.6353932  )
        16           O1  tau(  16) = (   3.2849856   5.9366180  13.9618146  )
        17           O1  tau(  17) = (   4.5362432   1.5114280  16.0576559  )
        18           O1  tau(  18) = (   2.0240554   1.5008084  16.0383298  )
        19           Ti1 tau(  19) = (   3.2703657   2.9522362  15.6888820  )
        20           Ti1 tau(  20) = (   6.5391562   1.4934284  15.8005638  )
        21           O1  tau(  21) = (   3.2904802   0.0005063   4.7018136  )
        22           O1  tau(  22) = (   6.5583345   5.9570231  17.1947061  )
        23           O1  tau(  23) = (   1.3043587   1.4918075   6.0039043  )
        24           O1  tau(  24) = (   5.2767064   1.4903225   6.0039473  )
        25           Ti1 tau(  25) = (   0.0000382   5.9609847   6.0000000  )
        26           Ti1 tau(  26) = (   3.2902200   4.4714249   6.0002472  )
        27           O1  tau(  27) = (   0.0002396   2.9813036   7.9858123  )
        28           O1  tau(  28) = (   3.2902150   2.9813002   7.3038282  )
        29           O1  tau(  29) = (   4.5938453   4.4726049   9.2879030  )
        30           O1  tau(  30) = (   1.9864658   4.4711199   9.2879459  )
        31           Ti1 tau(  31) = (   3.2891106   5.8743827   9.1763621  )
        32           Ti1 tau(  32) = (   0.0006254   4.4649316   9.2693709  )
        33           O1  tau(  33) = (   3.2888364   2.9620848  11.3424199  )
        34           O1  tau(  34) = (   0.0092240   2.9805883  10.6323155  )
        35           O1  tau(  35) = (   1.2785924   4.4508711  12.6313046  )
        36           O1  tau(  36) = (   5.2742027   4.4576360  12.6186982  )
        37           Ti1 tau(  37) = (   0.0560446   5.9134488  12.5469576  )
        38           Ti1 tau(  38) = (   3.3742563   4.4530221  12.5021653  )
        39           O1  tau(  39) = (   6.5655761   2.9369947  14.6516633  )
        40           O1  tau(  40) = (   3.2805149   2.9594171  13.8967751  )
        41           O1  tau(  41) = (   4.5308665   4.4203993  16.0704334  )
        42           O1  tau(  42) = (   2.0169005   4.4237906  16.0574931  )
        43           Ti1 tau(  43) = (   3.2493829   5.9208236  15.8028744  )
        44           Ti1 tau(  44) = (   6.5423592   4.6318136  16.0678394  )
        45           O1  tau(  45) = (   3.2900926   2.9813045   4.7018136  )
        46           O1  tau(  46) = (   1.3039711   4.4726057   6.0039043  )
        47           O1  tau(  47) = (   5.2763189   4.4711207   6.0039473  )
        48           N1  tau(  48) = (   0.1516996   2.6368831  18.6397825  )
        49           N1  tau(  49) = (   0.0343947   2.8734663  17.4341277  )
        50           C1  tau(  50) = (   0.1908864   3.7705318  19.5986308  )
        51           H1  tau(  51) = (   6.5333492   4.7333814  19.1494580  )
        52           H1  tau(  52) = (   6.0816938   3.5230213  20.4074400  )
        53           H1  tau(  53) = (   1.1988782   3.7880179  20.0220438  )
        54           O1  tau(  54) = (   3.2442500   5.9498283  18.2024067  )
        55           H1  tau(  55) = (   4.0366425   0.4867780  18.4672138  )
        56           H1  tau(  56) = (   2.4709518   0.5160301  18.4623371  )

     number of k points=    10  Fermi-Dirac smearing, width (Ry)=  0.0073
                       cart. coord. in units 2pi/alat
        k(    1) = (   0.0000000   0.0000000   0.0000000), wk =   0.1250000
        k(    2) = (   0.0000000   0.0419351   0.0000000), wk =   0.2500000
        k(    3) = (   0.0000000  -0.0838702   0.0000000), wk =   0.1250000
        k(    4) = (   0.0379955   0.0000049   0.0000000), wk =   0.2500000
        k(    5) = (   0.0379955   0.0419400   0.0000000), wk =   0.2500000
        k(    6) = (   0.0379955  -0.0838652   0.0000000), wk =   0.2500000
        k(    7) = (   0.0379955  -0.0419301   0.0000000), wk =   0.2500000
        k(    8) = (  -0.0759910  -0.0000099   0.0000000), wk =   0.1250000
        k(    9) = (  -0.0759910   0.0419252   0.0000000), wk =   0.2500000
        k(   10) = (  -0.0759910  -0.0838800   0.0000000), wk =   0.1250000

     Initial potential from superposition of free atoms

     starting charge  386.99914, renormalised to  403.00000

     negative rho (up, down):  1.445E-02 0.000E+00

     %%%%%%%%%%%%%%%%%%%%%%%%%%%%%%%%%%%%%%%%%%%%%%%%%%%%%%%%%%%%%%%%%%%%%%%%
     %                                                                      %
     % You are using vdW-DF, which was implemented by the Thonhauser group. %
     % Please cite the following two papers that made this development      %
     % possible and the two reviews that describe the various versions:     %
     %                                                                      %
     %   T. Thonhauser et al., PRL 115, 136402 (2015).                      %
     %   T. Thonhauser et al., PRB 76, 125112 (2007).                       %
     %   K. Berland et al., Rep. Prog. Phys. 78, 066501 (2015).             %
     %   D.C. Langreth et al., J. Phys.: Condens. Matter 21, 084203 (2009). %
     %                                                                      %
     %                                                                      %
     % If you are calculating the stress with vdW-DF, please also cite:     %
     %                                                                      %
     %   R. Sabatini et al., J. Phys.: Condens. Matter 24, 424209 (2012).   %
     %                                                                      %
     %%%%%%%%%%%%%%%%%%%%%%%%%%%%%%%%%%%%%%%%%%%%%%%%%%%%%%%%%%%%%%%%%%%%%%%%

     Adding external electric field

     Computed dipole along edir(3) :
        Dipole              -13.2246 Ry au,        -33.6137 Debye
        Dipole field         -0.0250 Ry au,

        Potential amp.        2.3135 Ry
        Total length         46.3494 bohr

     Starting wfcs are  305 atomic wfcs
  @ DRIVER MODE: Message from server: STATUS
  @ DRIVER MODE: Message from server: POSDATA
  @ DRIVER MODE: Reading and sharing cell
  @ DRIVER MODE: Reading and sharing positions
  @ DRIVER MODE: Received positions

     Self-consistent Calculation

     iteration #  1     ecut=    29.40 Ry     beta= 0.05
     Davidson diagonalization with overlap
     c_bands:  4 eigenvalues not converged
     c_bands:  2 eigenvalues not converged
     c_bands:  4 eigenvalues not converged
     c_bands:  1 eigenvalues not converged
     c_bands:  1 eigenvalues not converged
     c_bands:  1 eigenvalues not converged
     c_bands:  4 eigenvalues not converged
     c_bands:  1 eigenvalues not converged
     c_bands:  1 eigenvalues not converged
     ethr =  1.00E-05,  avg # of iterations = 29.8

[...]

     total energy              =   -2366.87136025 Ry
     estimated scf accuracy    <    6923.16859482 Ry

     iteration #  2     ecut=    29.40 Ry     beta= 0.05
     Davidson diagonalization with overlap
     ethr =  1.00E-02,  avg # of iterations = 24.0

[...]

     iteration # 65     ecut=    29.40 Ry     beta= 0.05
     Davidson diagonalization with overlap
     c_bands:  1 eigenvalues not converged
     ethr =  1.71E-09,  avg # of iterations = 12.5

[...]

     total energy              =   -2974.00285838 Ry
     estimated scf accuracy    <       0.00000016 Ry

     iteration # 74     ecut=    29.40 Ry     beta= 0.05
     Davidson diagonalization with overlap
     ethr =  2.25E-11,  avg # of iterations =  9.1

     negative rho (up, down):  1.458E-02 0.000E+00

     Adding external electric field

     Computed dipole along edir(3) :
        Dipole                0.9232 Ry au,          2.3465 Debye
        Dipole field          0.0017 Ry au,

        Potential amp.       -0.1615 Ry
        Total length         46.3494 bohr

     End of self-consistent calculation

          k = 0.0000 0.0000 0.0000 ( 18029 PWs)   bands (ev):

   -55.6054 -55.5713 -55.5641 -55.5543 -55.5281 -55.4374 -55.4157 -55.3974
   -55.3817 -55.3808 -55.3483 -55.3470 -54.9984 -54.8645 -54.5843 -54.5502
   -32.1062 -32.0878 -31.9526 -31.9376 -31.9144 -31.8982 -31.8705 -31.8663
   -31.8483 -31.7993 -31.7929 -31.7765 -31.7577 -31.7427 -31.7234 -31.7210
   -31.7097 -31.6973 -31.6912 -31.6626 -31.6552 -31.6421 -31.6081 -31.6041
   -31.5921 -31.5891 -31.5867 -31.5797 -31.5558 -31.5496 -31.5476 -31.5452
   -31.5335 -31.5279 -31.5225 -31.5063 -31.4926 -31.2669 -31.1971 -31.1223
   -31.1048 -31.0719 -30.9914 -30.9029 -30.8804 -30.8081 -30.7216 -30.6106
   -18.8963 -18.1480 -16.3029 -16.0705 -15.8413 -15.7529 -15.7113 -15.5054
   -15.4052 -15.3303 -15.2109 -15.1471 -15.1395 -15.1188 -15.1048 -15.0993
   -15.0459 -15.0405 -15.0362 -15.0255 -14.9985 -14.9530 -14.9381 -14.9310
   -14.8366 -14.7637 -14.7413 -14.7222 -14.6813 -14.6577 -14.1980 -13.0865
   -12.9700 -11.3070  -6.8836  -6.6867  -4.1870  -3.8222  -3.7900  -3.6775
    -3.5491  -3.5099  -3.4371  -3.3608  -3.2316  -3.2089  -3.0358  -2.8382
    -2.7777  -2.7489  -2.7031  -2.6312  -2.5157  -2.4593  -2.4109  -2.4058
    -2.3866  -2.3821  -2.3578  -2.3407  -2.2361  -2.2221  -2.1469  -2.1370
    -2.0792  -1.9872  -1.9569  -1.9178  -1.9053  -1.8790  -1.8628  -1.8500
    -1.8300  -1.8060  -1.7631  -1.6887  -1.6098  -1.5789  -1.4818  -1.4409
    -1.4053  -1.3486  -1.2156  -1.1327  -1.0832  -1.0552  -1.0480  -1.0311
    -0.9976  -0.9772  -0.8691  -0.7556  -0.7366  -0.6715  -0.6127  -0.5286
    -0.4930  -0.4333  -0.3713  -0.3536  -0.3486  -0.3106  -0.2573  -0.2200
    -0.0855  -0.0265   0.0034   0.0138   0.0758   0.1142   0.1449   0.2296
     0.2438   0.2833   0.3247   0.3582   0.3689   0.3779   0.3988   0.4296
     0.4352   0.6253   0.6668   0.7147   0.7465   0.7883   0.9304   0.9531
     1.0543   1.1628   1.3648   1.4380   1.5390   1.6301   2.0094   2.0552
     2.7272   3.5289   3.6165   3.6613   3.7001   3.7752   3.7901   3.9841
     3.9977   4.0392   4.1145

[...]

          k = 0.0380-0.0419 0.0000 ( 17876 PWs)   bands (ev):

[...]

          k =-0.0760-0.0000 0.0000 ( 17886 PWs)   bands (ev):

[...]

          k =-0.0760-0.0839 0.0000 ( 17948 PWs)   bands (ev):

   -55.5888 -55.5877 -55.5532 -55.5472 -55.5445 -55.4275 -55.4074 -55.3992
   -55.3975 -55.3659 -55.3621 -55.3497 -54.9963 -54.8664 -54.5673 -54.5671
   -31.9199 -31.9034 -31.9034 -31.9027 -31.8841 -31.8831 -31.8402 -31.8319
   -31.8065 -31.7857 -31.7743 -31.7637 -31.7608 -31.7183 -31.7124 -31.7114
   -31.7089 -31.7083 -31.7073 -31.7029 -31.7003 -31.6993 -31.6551 -31.6463
   -31.6258 -31.6197 -31.6124 -31.5990 -31.5983 -31.5956 -31.5894 -31.5807
   -31.5768 -31.5667 -31.5661 -31.5530 -31.4167 -31.2688 -31.2131 -31.1604
   -31.1240 -31.0996 -30.8932 -30.8930 -30.8042 -30.8040 -30.7649 -30.7648
   -18.8953 -18.1438 -15.7561 -15.6532 -15.5570 -15.5220 -15.4644 -15.4025
   -15.3890 -15.3075 -15.2849 -15.2813 -15.2167 -15.1959 -15.1611 -15.1497
   -15.1289 -15.1144 -15.1126 -15.0571 -15.0496 -15.0421 -15.0352 -15.0317
   -14.9609 -14.9227 -14.9189 -14.9122 -14.7880 -14.6597 -14.3771 -13.0719
   -13.0717 -11.3047  -6.9085  -6.6685  -4.1110  -3.8473  -3.7585  -3.2566
    -3.0394  -2.8370  -2.8091  -2.7145  -2.7006  -2.6703  -2.5367  -2.4979
    -2.4566  -2.4423  -2.4206  -2.4200  -2.4064  -2.3996  -2.3813  -2.3558
    -2.3292  -2.3029  -2.2754  -2.2688  -2.2564  -2.2367  -2.2219  -2.2073
    -2.2010  -2.1601  -2.1377  -2.1282  -2.0438  -1.9871  -1.8278  -1.7860
    -1.7431  -1.7337  -1.7053  -1.6986  -1.6713  -1.6564  -1.5956  -1.5817
    -1.4573  -1.3552  -1.3210  -1.2948  -1.2822  -1.2710  -1.1986  -1.0982
    -1.0741  -0.9999  -0.9948  -0.8910  -0.8764  -0.7928  -0.7857  -0.7569
    -0.7060  -0.6708  -0.6506  -0.5687  -0.5635  -0.5357  -0.4955  -0.4625
    -0.4069  -0.3548  -0.3257  -0.3151  -0.2780  -0.2539  -0.2128  -0.1527
    -0.0982  -0.0614   0.0356   0.1380   0.2270   0.3580   0.4668   0.4953
     0.5720   0.6067   0.6829   0.7088   0.7154   0.7800   0.7930   0.8850
     0.9360   0.9491   0.9862   1.1046   1.8014   1.8028   1.8748   1.8750
     2.7513   3.7509   3.8653   3.9086   3.9283   4.0005   4.0438   4.0632
     4.0657   4.0989   4.2242

     the Fermi energy is     3.5282 ev

!    total energy              =   -2974.00288030 Ry
     estimated scf accuracy    <       0.00000004 Ry
     smearing contrib. (-TS)   =      -0.02179586 Ry
     internal energy E=F+TS    =   -2973.98108444 Ry

     The total energy is F=E-TS. E is the sum of the following terms:
     one-electron contribution =  -23854.04962646 Ry
     hartree contribution      =   12021.60879614 Ry
     xc contribution           =    -494.02526804 Ry
     ewald contribution        =    9352.48340554 Ry
     electric field correction =       0.00160838 Ry

     convergence has been achieved in  74 iterations

     Forces acting on atoms (cartesian axes, Ry/au):

     atom    1 type  1   force =     0.00016404   -0.00020423    0.09634099
     atom    2 type  1   force =    -0.00017671   -0.00044868   -0.17541122
     atom    3 type  2   force =     0.00001831   -0.00014974   -0.02470036
     atom    4 type  2   force =     0.00005415   -0.00162098    0.05341961
     atom    5 type  2   force =    -0.01198256   -0.00148444    0.00369014
     atom    6 type  2   force =     0.01343545   -0.00064237    0.00222530
     atom    7 type  1   force =    -0.00108908    0.00055227   -0.00694382
     atom    8 type  1   force =     0.00064843    0.00917336    0.02681030
     atom    9 type  2   force =     0.00017268    0.00020146   -0.00050113
     atom   10 type  2   force =    -0.00158129   -0.00030921   -0.01801344
     atom   11 type  2   force =     0.00090348    0.00089315   -0.00006911
     atom   12 type  2   force =    -0.00065917    0.00059657   -0.00010176
     atom   13 type  1   force =    -0.00026033    0.00025022    0.00002331
     atom   14 type  1   force =     0.00030397    0.00028307    0.00020703
     atom   15 type  2   force =     0.00011460    0.00004790   -0.00100045
     atom   16 type  2   force =     0.00001656    0.00021022    0.00060735
     atom   17 type  2   force =     0.00070526   -0.00007447   -0.00006505
     atom   18 type  2   force =    -0.00097443   -0.00021345   -0.00028088
     atom   19 type  1   force =    -0.00005109    0.00128284    0.00020823
     atom   20 type  1   force =    -0.00030524   -0.00024033   -0.00055716
     atom   21 type  2   force =     0.00010005    0.00001517    0.10321863
     atom   22 type  2   force =    -0.00014451    0.00021891    0.00029493
     atom   23 type  2   force =    -0.07143933   -0.00009255   -0.02776684
     atom   24 type  2   force =     0.07142899    0.00035789   -0.02776422
     atom   25 type  1   force =     0.00001765   -0.00033493    0.09608258
     atom   26 type  1   force =    -0.00030429   -0.00043954   -0.17576414
     atom   27 type  2   force =     0.00008725   -0.00025033   -0.02368219
     atom   28 type  2   force =     0.00012083   -0.00130043    0.05282412
     atom   29 type  2   force =    -0.01225290    0.00021209    0.00356540
     atom   30 type  2   force =     0.01359095    0.00042903    0.00206320
     atom   31 type  1   force =    -0.00117014    0.00348942   -0.01013892
     atom   32 type  1   force =     0.00082845   -0.01100201    0.02710191
     atom   33 type  2   force =     0.00009729   -0.00000225    0.00054726
     atom   34 type  2   force =    -0.00116837   -0.00123087   -0.02359075
     atom   35 type  2   force =     0.00081879   -0.00051910   -0.00018431
     atom   36 type  2   force =    -0.00063684   -0.00018615   -0.00020875
     atom   37 type  1   force =    -0.00054107    0.00021057   -0.00002821
     atom   38 type  1   force =     0.00032646   -0.00025630    0.00025735
     atom   39 type  2   force =     0.00009995    0.00032007   -0.00084394
     atom   40 type  2   force =     0.00020275    0.00015470   -0.00078398
     atom   41 type  2   force =     0.00046030    0.00081234    0.00019668
     atom   42 type  2   force =    -0.00048043    0.00084489    0.00001361
     atom   43 type  1   force =    -0.00006322   -0.00096572   -0.00059070
     atom   44 type  1   force =    -0.00024878    0.00087681    0.00054095
     atom   45 type  2   force =     0.00008851   -0.00002780    0.10320635
     atom   46 type  2   force =    -0.07144528   -0.00001964   -0.02777643
     atom   47 type  2   force =     0.07143214    0.00039537   -0.02777552
     atom   48 type  3   force =    -0.00180123    0.00205269   -0.02163226
     atom   49 type  3   force =     0.00222429   -0.00251168    0.02641010
     atom   50 type  4   force =    -0.00008358    0.00062753   -0.00223353
     atom   51 type  5   force =     0.00015281   -0.00042941   -0.00073297
     atom   52 type  5   force =     0.00016742   -0.00018438   -0.00034476
     atom   53 type  5   force =     0.00015088   -0.00021994   -0.00047006
     atom   54 type  2   force =     0.00161494    0.00012825   -0.00025367
     atom   55 type  5   force =    -0.00059604   -0.00005492   -0.00013976
     atom   56 type  5   force =    -0.00109170    0.00077908    0.00049502

     Total force =     0.369352     Total SCF correction =     0.000525
  @ DRIVER MODE: Message from server: STATUS
  @ DRIVER MODE: Message from server: GETFORCE
  @ DRIVER MODE: Returning v,forces,stress,ensemble

     Writing output data file ./calc.save/
  @ DRIVER MODE: Message from server: EXIT
  @ DRIVE MODE: Exiting

     General routines

     Parallel routines

   This run was terminated on:  19:25:27  15Sep2021

   JOB DONE.