     Program PWSCF v.6.7GPU starts on 19Oct2021 at  5:11:52

     R & G space division:  proc/nbgrp/npool/nimage =       8
     Reading input from /storage/home/hcoda1/3/ntian30/research/carbon/CxH_vib/Thiel_calc/ads_slab/NH2NH3H_perslab/out_0037/pw.inp
Warning: card &CELL ignored
Warning: card   CELL_DYNAMICS='IPI', ignored
Warning: card / ignored

     Current dimensions of program PWSCF are:
     Max number of different atomic species (ntypx) = 10
     Max number of k-points (npk) =  40000
     Max angular momentum in pseudopotentials (lmaxx) =  3
     Presently no symmetry can be used with electric field

     Message from routine cell_base_init:
     DEPRECATED: use true lattice parameter, not A to a.u. conversion factor

     IMPORTANT: XC functional enforced from input :
     Exchange-correlation= BEEF-VDW
                           (   1   4  43  14   2   0   0)
     Any further DFT definition will be discarded
     Please, verify this is what you really want

  @ DRIVER MODE: Connecting to
 qe_1139763_3255138.sched-torque.pace.gatech.eduyvsf9u55_scratch
  using UNIX socket
  @ DRIVER MODE: Message from server: STATUS
  @ DRIVER MODE: Message from server: INIT
  @ DRIVER MODE: Receiving replica           0          -1
  @ DRIVER MODE: Receiving encoded integer          25
  @ DRIVER MODE:  SCF:  T  FORCE:  T  STRESS:  F  VC:  F  ENSEMBLE:  F
  @ DRIVER MODE:  SCF:  T  FORCE:  T  STRESS:  F  VC:  F  ENSEMBLE:  F

     Using Slab Decomposition

     bravais-lattice index     =            0
     lattice parameter (alat)  =       1.8897  a.u.
     unit-cell volume          =    9988.4706 (a.u.)^3
     number of atoms/cell      =           61
     number of atomic types    =            4
     number of electrons       =       442.00
     number of Kohn-Sham states=          231
     kinetic-energy cutoff     =      29.3995  Ry
     charge density cutoff     =     293.9946  Ry
     scf convergence threshold =      7.3E-08
     mixing beta               =       0.0500
     number of iterations used =            8  plain     mixing
     Exchange-correlation= BEEF-VDW
                           (   1   4  43  14   2   0   0)

     celldm(1)=   1.889726  celldm(2)=   0.000000  celldm(3)=   0.000000
     celldm(4)=   0.000000  celldm(5)=   0.000000  celldm(6)=   0.000000

     crystal axes: (cart. coord. in units of alat)
               a(1) = (   6.579727   0.000000   0.000000 )
               a(2) = (  -0.001163   8.942395   0.000000 )
               a(3) = (   0.000000   0.000000  25.155947 )

     reciprocal axes: (cart. coord. in units 2 pi/alat)
               b(1) = (  0.151982  0.000020  0.000000 )
               b(2) = (  0.000000  0.111827  0.000000 )
               b(3) = (  0.000000  0.000000  0.039752 )

     PseudoPot. # 1 for O  read from file:
     /storage/coda1/p-amedford6/0/shared/rich_project_chbe-medford/medford-share/data/pseudos_module/espresso/nninc/pbe/van/O.UPF
     MD5 check sum: 78c19812648e8988a0fe644b0f25305e
     Pseudo is Ultrasoft, Zval =  6.0
     Generated by new atomic code, or converted to UPF format
     Using radial grid of  737 points,  4 beta functions with:
                l(1) =   0
                l(2) =   0
                l(3) =   1
                l(4) =   1
     Q(r) pseudized with  8 coefficients,  rinner =    0.800   0.800   0.800

     PseudoPot. # 2 for Ti read from file:
     /storage/coda1/p-amedford6/0/shared/rich_project_chbe-medford/medford-share/data/pseudos_module/espresso/nninc/pbe/van/Ti.UPF
     MD5 check sum: 8e4df49b7f0d34bbd5052bf3f5ea0213
     Pseudo is Ultrasoft, Zval = 12.0
     Generated by new atomic code, or converted to UPF format
     Using radial grid of  851 points,  6 beta functions with:
                l(1) =   0
                l(2) =   0
                l(3) =   1
                l(4) =   1
                l(5) =   2
                l(6) =   2
     Q(r) pseudized with  8 coefficients,  rinner =    1.000   1.000   1.000
                                                       1.000   1.000

     PseudoPot. # 3 for N  read from file:
     /storage/coda1/p-amedford6/0/shared/rich_project_chbe-medford/medford-share/data/pseudos_module/espresso/nninc/pbe/van/N.UPF
     MD5 check sum: 90d10febe142ad51ac9d5be1deb811c4
     Pseudo is Ultrasoft, Zval =  5.0
     Generated by new atomic code, or converted to UPF format
     Using radial grid of  729 points,  4 beta functions with:
                l(1) =   0
                l(2) =   0
                l(3) =   1
                l(4) =   1
     Q(r) pseudized with  8 coefficients,  rinner =    0.800   0.800   0.800

     PseudoPot. # 4 for H  read from file:
     /storage/coda1/p-amedford6/0/shared/rich_project_chbe-medford/medford-share/data/pseudos_module/espresso/nninc/pbe/van/H.UPF
     MD5 check sum: b5ee9d7bfd3a09ee7748110bda690ff7
     Pseudo is Ultrasoft, Zval =  1.0
     Generated by new atomic code, or converted to UPF format
     Using radial grid of  615 points,  1 beta functions with:
                l(1) =   0
     Q(r) pseudized with  8 coefficients,  rinner =    0.800

     atomic species   valence    mass     pseudopotential
        O1             6.00    15.99900     O ( 1.00)
        Ti1           12.00    47.86700     Ti( 1.00)
        N1             5.00    14.00700     N ( 1.00)
        H1             1.00     1.00800     H ( 1.00)

     No symmetry found

   Cartesian axes

     site n.     atom                  positions (alat units)
         1           O1  tau(   1) = (   0.0007354   0.0005023  10.5931620  )
         2           O1  tau(   2) = (   3.2893251   8.9324977  13.8850595  )
         3           O1  tau(   3) = (   0.0000810   0.0519898  17.3357851  )
         4           O1  tau(   4) = (   0.0006271   0.0005054   7.9858123  )
         5           O1  tau(   5) = (   3.2891750   8.9291278  11.1853435  )
         6           O1  tau(   6) = (   0.0004222   0.0485762  14.6167438  )
         7           O1  tau(   7) = (   1.9868534   1.4903216   9.2879459  )
         8           O1  tau(   8) = (   5.2393499   1.5905449  12.5682489  )
         9           O1  tau(   9) = (   1.9991366   1.5492019  16.1124644  )
        10           Ti1 tau(  10) = (   0.0007404   1.4906270   9.2895810  )
        11           Ti1 tau(  11) = (   3.2902999   1.3249318  12.4520864  )
        12           Ti1 tau(  12) = (   0.0005939   1.3452645  15.7597600  )
        13           O1  tau(  13) = (   4.5942328   1.4918067   9.2879030  )
        14           O1  tau(  14) = (   1.3411764   1.5910169  12.5684512  )
        15           O1  tau(  15) = (   4.5798538   1.5480364  16.1129854  )
        16           Ti1 tau(  16) = (   3.2902859   2.9801868   9.2893338  )
        17           Ti1 tau(  17) = (   0.0006295   2.8174385  12.4372122  )
        18           Ti1 tau(  18) = (   3.2897038   2.9127836  15.6935398  )
        19           O1  tau(  19) = (   0.0003479   2.9813005  10.5931620  )
        20           O1  tau(  20) = (   3.2904107   2.9319293  13.8952334  )
        21           O1  tau(  21) = (   0.0002396   2.9813036   7.9858123  )
        22           O1  tau(  22) = (   3.2903884   2.9732875  11.2024877  )
        23           O1  tau(  23) = (   6.5791771   2.9400465  14.7470945  )
        24           O1  tau(  24) = (   1.9864658   4.4711199   9.2879459  )
        25           O1  tau(  25) = (   5.2507180   4.5586503  12.6053682  )
        26           O1  tau(  26) = (   1.9989508   4.4013585  16.0758979  )
        27           Ti1 tau(  27) = (   0.0003529   4.4714252   9.2895810  )
        28           Ti1 tau(  28) = (   3.2908498   4.3294621  12.5515864  )
        29           Ti1 tau(  29) = (   0.0012874   4.5361023  15.7587160  )
        30           O1  tau(  30) = (   4.5938453   4.4726049   9.2879030  )
        31           O1  tau(  31) = (   1.3295807   4.5581274  12.6051842  )
        32           O1  tau(  32) = (   4.5807093   4.4011557  16.0767203  )
        33           Ti1 tau(  33) = (   3.2898983   5.9609850   9.2893338  )
        34           Ti1 tau(  34) = (   0.0011720   5.8030845  12.4395124  )
        35           Ti1 tau(  35) = (   3.2913837   5.8399099  16.1904745  )
        36           O1  tau(  36) = (  -0.0000397   5.9620987  10.5931620  )
        37           O1  tau(  37) = (   3.2897076   5.9457256  13.9643012  )
        38           O1  tau(  38) = (   0.0001823   5.8979554  17.1998916  )
        39           O1  tau(  39) = (  -0.0001480   5.9621018   7.9858123  )
        40           O1  tau(  40) = (   3.2897623   5.9362706  11.2341171  )
        41           O1  tau(  41) = (   0.0004469   5.9800359  14.6665197  )
        42           O1  tau(  42) = (   1.9860782   7.4519181   9.2879459  )
        43           O1  tau(  43) = (   5.2507221   7.5245448  12.5933772  )
        44           O1  tau(  44) = (   1.9799843   7.5745874  16.0532815  )
        45           Ti1 tau(  45) = (  -0.0000347   7.4522234   9.2895810  )
        46           Ti1 tau(  46) = (   3.2894177   7.1911746  12.6495270  )
        47           Ti1 tau(  47) = (   0.0007314   7.2822180  16.1322395  )
        48           O1  tau(  48) = (   4.5934577   7.4534031   9.2879030  )
        49           O1  tau(  49) = (   1.3275845   7.5244469  12.5935105  )
        50           O1  tau(  50) = (   4.5990354   7.5728923  16.0522427  )
        51           Ti1 tau(  51) = (   3.2895107   8.9417832   9.2893338  )
        52           Ti1 tau(  52) = (  -0.0007012   8.7603021  12.4499776  )
        53           Ti1 tau(  53) = (   3.2901857   8.8509785  15.6953962  )
        54           N1  tau(  54) = (   3.2899770   5.9827455  18.1265562  )
        55           H1  tau(  55) = (   3.2886311   5.2071789  18.7771882  )
        56           H1  tau(  56) = (   3.2869209   6.8541504  18.6418389  )
        57           H1  tau(  57) = (   6.5771076   8.8877891  18.2917622  )
        58           N1  tau(  58) = (   6.5788838   3.2021548  17.9140464  )
        59           H1  tau(  59) = (   6.5785461   2.2502248  18.2648563  )
        60           H1  tau(  60) = (   5.7491345   3.6762813  18.2792932  )
        61           H1  tau(  61) = (   0.8178175   3.6764091  18.2810048  )

     number of k points=    10  Fermi-Dirac smearing, width (Ry)=  0.0073
                       cart. coord. in units 2pi/alat
        k(    1) = (   0.0000000   0.0000000   0.0000000), wk =   0.1250000
        k(    2) = (   0.0000000   0.0279567   0.0000000), wk =   0.2500000
        k(    3) = (   0.0000000  -0.0559134   0.0000000), wk =   0.1250000
        k(    4) = (   0.0379955   0.0000049   0.0000000), wk =   0.2500000
        k(    5) = (   0.0379955   0.0279617   0.0000000), wk =   0.2500000
        k(    6) = (   0.0379955  -0.0559085   0.0000000), wk =   0.2500000
        k(    7) = (   0.0379955  -0.0279518   0.0000000), wk =   0.2500000
        k(    8) = (  -0.0759910  -0.0000099   0.0000000), wk =   0.1250000
        k(    9) = (  -0.0759910   0.0279468   0.0000000), wk =   0.2500000
        k(   10) = (  -0.0759910  -0.0559233   0.0000000), wk =   0.1250000

     Initial potential from superposition of free atoms

     starting charge  423.99908, renormalised to  442.00000

     negative rho (up, down):  3.661E-02 0.000E+00

     %%%%%%%%%%%%%%%%%%%%%%%%%%%%%%%%%%%%%%%%%%%%%%%%%%%%%%%%%%%%%%%%%%%%%%%%
     %                                                                      %
     % You are using vdW-DF, which was implemented by the Thonhauser group. %
     % Please cite the following two papers that made this development      %
     % possible and the two reviews that describe the various versions:     %
     %                                                                      %
     %   T. Thonhauser et al., PRL 115, 136402 (2015).                      %
     %   T. Thonhauser et al., PRB 76, 125112 (2007).                       %
     %   K. Berland et al., Rep. Prog. Phys. 78, 066501 (2015).             %
     %   D.C. Langreth et al., J. Phys.: Condens. Matter 21, 084203 (2009). %
     %                                                                      %
     %                                                                      %
     % If you are calculating the stress with vdW-DF, please also cite:     %
     %                                                                      %
     %   R. Sabatini et al., J. Phys.: Condens. Matter 24, 424209 (2012).   %
     %                                                                      %
     %%%%%%%%%%%%%%%%%%%%%%%%%%%%%%%%%%%%%%%%%%%%%%%%%%%%%%%%%%%%%%%%%%%%%%%%

     Adding external electric field

     Computed dipole along edir(3) :
        Dipole               -6.2843 Ry au,        -15.9732 Debye
        Dipole field         -0.0079 Ry au,

        Potential amp.        0.7329 Ry
        Total length         46.3494 bohr

     Starting wfcs are  334 atomic wfcs
  @ DRIVER MODE: Message from server: STATUS
  @ DRIVER MODE: Message from server: POSDATA
  @ DRIVER MODE: Reading and sharing cell
  @ DRIVER MODE: Reading and sharing positions
  @ DRIVER MODE: Received positions

     Self-consistent Calculation

     iteration #  1     ecut=    29.40 Ry     beta= 0.05
     Davidson diagonalization with overlap
     c_bands:  2 eigenvalues not converged
     c_bands:  4 eigenvalues not converged
     c_bands:  3 eigenvalues not converged
     c_bands:  4 eigenvalues not converged
     c_bands:  5 eigenvalues not converged
     c_bands:  4 eigenvalues not converged
     c_bands:  2 eigenvalues not converged
     c_bands:  2 eigenvalues not converged
     ethr =  1.00E-05,  avg # of iterations = 21.5

[...]

     total energy              =   -3276.10320758 Ry
     estimated scf accuracy    <     260.33798834 Ry

     iteration #  2     ecut=    29.40 Ry     beta= 0.05
     Davidson diagonalization with overlap
     ethr =  1.00E-02,  avg # of iterations = 15.6

[...]

     iteration # 55     ecut=    29.40 Ry     beta= 0.05
     Davidson diagonalization with overlap
     ethr =  4.18E-11,  avg # of iterations =  4.1

[...]

     total energy              =   -3295.82437061 Ry
     estimated scf accuracy    <       0.00000012 Ry

     iteration # 56     ecut=    29.40 Ry     beta= 0.05
     Davidson diagonalization with overlap
     c_bands:  2 eigenvalues not converged
     ethr =  2.81E-11,  avg # of iterations =  9.1

     negative rho (up, down):  3.545E-02 0.000E+00

     Adding external electric field

     Computed dipole along edir(3) :
        Dipole                1.9320 Ry au,          4.9107 Debye
        Dipole field          0.0024 Ry au,

        Potential amp.       -0.2253 Ry
        Total length         46.3494 bohr

     End of self-consistent calculation

          k = 0.0000 0.0000 0.0000 ( 26871 PWs)   bands (ev):

   -57.4694 -57.4341 -57.4213 -57.3815 -57.3726 -57.3645 -57.3540 -57.3428
   -57.3219 -57.2832 -57.2769 -57.2402 -57.2188 -57.2021 -57.1825 -56.5428
   -56.5185 -56.5124 -33.9395 -33.8535 -33.8524 -33.8303 -33.8102 -33.7929
   -33.7750 -33.7712 -33.7674 -33.7541 -33.7288 -33.7076 -33.7026 -33.6879
   -33.6860 -33.6815 -33.6608 -33.6521 -33.6306 -33.6251 -33.5936 -33.5789
   -33.5615 -33.5571 -33.5496 -33.5487 -33.5450 -33.5372 -33.5256 -33.5224
   -33.5155 -33.5012 -33.4927 -33.4917 -33.4849 -33.4834 -33.4746 -33.4727
   -33.4647 -33.4538 -33.4420 -33.4251 -33.4094 -33.4029 -33.3882 -32.8615
   -32.8533 -32.8522 -32.8356 -32.8301 -32.7708 -32.7095 -32.7022 -32.5706
   -19.3431 -18.2731 -17.9717 -17.7753 -17.7264 -17.6927 -17.5562 -17.5444
   -17.4962 -17.4425 -17.4058 -17.3611 -17.2879 -17.2478 -17.2465 -17.2220
   -17.1679 -17.1441 -17.1361 -17.1259 -17.1240 -17.0993 -17.0498 -17.0462
   -16.9895 -16.9481 -16.9165 -16.9062 -16.8975 -16.8652 -16.8563 -16.8042
   -16.6058 -15.0260 -15.0085 -14.9496 -14.9462  -7.8443  -7.6103  -7.3897
    -6.4619  -5.5818  -5.4300  -5.3990  -5.2351  -4.9635  -4.9119  -4.8686
    -4.8223  -4.7849  -4.7464  -4.7235  -4.6944  -4.6629  -4.6109  -4.5804
    -4.5640  -4.5305  -4.5106  -4.4796  -4.4496  -4.4444  -4.4149  -4.3261
    -4.3166  -4.2930  -4.2754  -4.2393  -4.2216  -4.2188  -4.1697  -4.1583
    -4.0689  -3.9830  -3.8966  -3.8445  -3.8181  -3.7949  -3.7473  -3.7099
    -3.6809  -3.6364  -3.6163  -3.5475  -3.5196  -3.5093  -3.4330  -3.3984
    -3.3029  -3.2647  -3.2534  -3.2324  -3.1900  -3.1784  -3.0923  -3.0830
    -2.9738  -2.9550  -2.8633  -2.7916  -2.7421  -2.7140  -2.6763  -2.6146
    -2.5951  -2.5492  -2.5213  -2.4611  -2.4471  -2.3210  -2.2536  -2.2501
    -2.2299  -2.1915  -2.1621  -2.1481  -2.1256  -2.1227  -2.0441  -2.0353
    -1.9855  -1.9104  -1.8846  -1.8479  -1.8352  -1.7999  -1.7576  -1.6928
    -1.6874  -1.6518  -1.5640  -1.5031  -1.5022  -1.3559  -1.3498  -1.3164
    -1.2680  -1.2143  -1.1838  -0.7814  -0.6055  -0.4364  -0.3100  -0.2492
    -0.2479   0.0268   0.0318   0.1642   1.6131   1.7640   1.8246   1.9585
     1.9770   2.0362   2.1178   2.1397   2.2070   2.2343   2.2434

[...]

          k = 0.0380-0.0280 0.0000 ( 26873 PWs)   bands (ev):

[...]

          k =-0.0760-0.0000 0.0000 ( 26902 PWs)   bands (ev):

[...]

          k =-0.0760-0.0559 0.0000 ( 26868 PWs)   bands (ev):

   -57.4678 -57.4387 -57.4183 -57.3790 -57.3684 -57.3664 -57.3624 -57.3393
   -57.3214 -57.2829 -57.2773 -57.2365 -57.2254 -57.1992 -57.1825 -56.5375
   -56.5294 -56.5067 -33.9844 -33.9361 -33.8641 -33.8196 -33.8036 -33.7913
   -33.7850 -33.7769 -33.7664 -33.7449 -33.7160 -33.6973 -33.6604 -33.6579
   -33.6385 -33.6250 -33.6103 -33.5966 -33.5955 -33.5909 -33.5865 -33.5771
   -33.5730 -33.5661 -33.5641 -33.5513 -33.5431 -33.5287 -33.5228 -33.5206
   -33.5163 -33.5158 -33.5120 -33.5089 -33.5067 -33.4955 -33.4890 -33.4851
   -33.4823 -33.4751 -33.4476 -33.4415 -33.4361 -33.4241 -33.4001 -32.9489
   -32.8541 -32.8459 -32.8243 -32.7535 -32.7449 -32.6844 -32.6714 -32.6637
   -19.3365 -17.9705 -17.8318 -17.8201 -17.6425 -17.6010 -17.5944 -17.5311
   -17.4854 -17.4353 -17.4307 -17.4036 -17.3553 -17.3304 -17.3010 -17.2757
   -17.2601 -17.2246 -17.1835 -17.1825 -17.1489 -17.1152 -17.0891 -17.0468
   -17.0402 -16.9858 -16.9221 -16.8846 -16.8599 -16.8577 -16.8202 -16.7959
   -16.6390 -15.0266 -15.0064 -15.0021 -14.8863  -7.8526  -7.6286  -7.3785
    -6.4530  -5.2163  -5.1786  -5.1331  -5.0400  -5.0019  -4.9705  -4.8343
    -4.7744  -4.7325  -4.6872  -4.6447  -4.6371  -4.6228  -4.5671  -4.5498
    -4.5342  -4.4880  -4.4473  -4.4269  -4.4043  -4.4027  -4.3991  -4.3961
    -4.2640  -4.2509  -4.1995  -4.1792  -4.1569  -4.1340  -4.1306  -4.0773
    -4.0352  -3.9942  -3.9821  -3.9562  -3.8939  -3.8364  -3.7552  -3.6586
    -3.6475  -3.5907  -3.5807  -3.4877  -3.4827  -3.3884  -3.3262  -3.2808
    -3.2529  -3.2279  -3.1514  -3.1464  -3.1374  -3.0871  -3.0528  -3.0243
    -2.9765  -2.9661  -2.9214  -2.8183  -2.7832  -2.7248  -2.6982  -2.6934
    -2.6370  -2.6328  -2.5960  -2.5944  -2.5877  -2.5427  -2.4880  -2.4535
    -2.4372  -2.4055  -2.3167  -2.2926  -2.2395  -2.2317  -2.1662  -2.1492
    -2.1373  -2.0736  -2.0221  -1.9908  -1.9827  -1.9089  -1.8054  -1.7472
    -1.7252  -1.7038  -1.5982  -1.5493  -1.4935  -1.4509  -1.2687  -1.2565
    -1.1840  -1.1443  -1.0914  -1.0427  -0.8558  -0.4571  -0.4058  -0.1877
    -0.1723  -0.1349   0.0315   0.0372   1.7058   1.7173   1.8148   1.8563
     1.9181   1.9288   1.9731   1.9903   2.0002   2.0461   2.0523

     the Fermi energy is     1.6446 ev

!    total energy              =   -3295.82442781 Ry
     estimated scf accuracy    <       0.00000006 Ry
     smearing contrib. (-TS)   =      -0.03670430 Ry
     internal energy E=F+TS    =   -3295.78772351 Ry

     The total energy is F=E-TS. E is the sum of the following terms:
     one-electron contribution =  -34289.84126518 Ry
     hartree contribution      =   17213.91749030 Ry
     xc contribution           =    -543.76698962 Ry
     ewald contribution        =   14323.89834502 Ry
     electric field correction =       0.00469597 Ry

     convergence has been achieved in  56 iterations

     Forces acting on atoms (cartesian axes, Ry/au):

     atom    1 type  1   force =     0.00001405    0.00239763    0.05210221
     atom    2 type  1   force =    -0.00004407   -0.00061495   -0.00559246
     atom    3 type  1   force =     0.00002769   -0.00290432   -0.00289665
     atom    4 type  1   force =     0.00005441   -0.00036897    0.10762312
     atom    5 type  1   force =    -0.00002205    0.00170153    0.00528892
     atom    6 type  1   force =     0.00000884   -0.00051309    0.00054202
     atom    7 type  1   force =     0.06435099    0.00076639   -0.03003443
     atom    8 type  1   force =     0.00531576   -0.02658789    0.00245165
     atom    9 type  1   force =     0.00845074   -0.01288718   -0.00075033
     atom   10 type  2   force =    -0.00006439   -0.00537244   -0.18728278
     atom   11 type  2   force =     0.00012588    0.02016087   -0.00480021
     atom   12 type  2   force =    -0.00009193    0.01851319   -0.00051183
     atom   13 type  1   force =    -0.06445553    0.00029216   -0.02999372
     atom   14 type  1   force =    -0.00513285   -0.02679580    0.00247965
     atom   15 type  1   force =    -0.00838589   -0.01278640   -0.00072185
     atom   16 type  2   force =     0.00009562   -0.00105178    0.07211701
     atom   17 type  2   force =    -0.00026499    0.03302807    0.00618170
     atom   18 type  2   force =    -0.00000436    0.00456754   -0.00761985
     atom   19 type  1   force =     0.00001529    0.00395540    0.05307810
     atom   20 type  1   force =    -0.00003880   -0.00055163   -0.00170766
     atom   21 type  1   force =     0.00005415    0.00130253    0.10847496
     atom   22 type  1   force =    -0.00002591   -0.00118920    0.00630189
     atom   23 type  1   force =     0.00002592   -0.00517327    0.00190686
     atom   24 type  1   force =     0.06586544    0.00139668   -0.02849516
     atom   25 type  1   force =     0.00546595   -0.02924592    0.00263664
     atom   26 type  1   force =     0.00974789   -0.00195617   -0.00018044
     atom   27 type  2   force =    -0.00006961   -0.00075996   -0.19124099
     atom   28 type  2   force =     0.00014781    0.02480924   -0.00470056
     atom   29 type  2   force =    -0.00007297   -0.00423347    0.00940778
     atom   30 type  1   force =    -0.06596935    0.00095881   -0.02846661
     atom   31 type  1   force =    -0.00531669   -0.02936752    0.00267444
     atom   32 type  1   force =    -0.00968444   -0.00195194   -0.00018884
     atom   33 type  2   force =     0.00013590    0.00069862    0.08050774
     atom   34 type  2   force =    -0.00028949    0.03538785    0.00622133
     atom   35 type  2   force =     0.00003043    0.01551610    0.00194534
     atom   36 type  1   force =     0.00006572    0.00027628    0.05320257
     atom   37 type  1   force =    -0.00003257    0.00175576   -0.00889239
     atom   38 type  1   force =     0.00001921    0.00143961   -0.00021378
     atom   39 type  1   force =     0.00005459   -0.00117027    0.10819933
     atom   40 type  1   force =    -0.00003412   -0.00138581    0.00603117
     atom   41 type  1   force =     0.00001745    0.00390755    0.00141578
     atom   42 type  1   force =     0.06612565   -0.00349139   -0.02908760
     atom   43 type  1   force =     0.00365784   -0.02410829    0.00086008
     atom   44 type  1   force =     0.01423863   -0.01862486    0.00311982
     atom   45 type  2   force =    -0.00009556    0.00311377   -0.18717202
     atom   46 type  2   force =     0.00013645    0.01624935    0.00222331
     atom   47 type  2   force =    -0.00007562    0.01856142   -0.00287502
     atom   48 type  1   force =    -0.06622512   -0.00392720   -0.02904551
     atom   49 type  1   force =    -0.00340886   -0.02429982    0.00087371
     atom   50 type  1   force =    -0.01423010   -0.01856943    0.00312330
     atom   51 type  2   force =     0.00012919   -0.00294780    0.07342947
     atom   52 type  2   force =    -0.00027861    0.03104000    0.00787177
     atom   53 type  2   force =     0.00000604    0.02027164    0.00049754
     atom   54 type  3   force =     0.00002138   -0.00080417   -0.00281736
     atom   55 type  4   force =    -0.00002862   -0.00037336    0.00068072
     atom   56 type  4   force =    -0.00003199    0.00034391   -0.00028295
     atom   57 type  4   force =    -0.00005442   -0.00018484   -0.00004687
     atom   58 type  3   force =    -0.01089388    0.00501985    0.00356523
     atom   59 type  4   force =     0.00009176    0.00013552    0.00048506
     atom   60 type  4   force =     0.01154722   -0.00471375   -0.00335754
     atom   61 type  4   force =    -0.00072111    0.00134564    0.00145520

     Total force =     0.459732     Total SCF correction =     0.000907
  @ DRIVER MODE: Message from server: STATUS
  @ DRIVER MODE: Message from server: GETFORCE
  @ DRIVER MODE: Returning v,forces,stress,ensemble

     Writing output data file ./calc.save/
  @ DRIVER MODE: Message from server: EXIT
  @ DRIVE MODE: Exiting

     General routines

     Parallel routines

   This run was terminated on:   5:43:12  19Oct2021

   JOB DONE.