     Program PWSCF v.6.7GPU starts on 22Sep2021 at 19: 3:28

     R & G space division:  proc/nbgrp/npool/nimage =      10
     Reading input from /storage/home/hcoda1/3/ntian30/research/carbon/CxH_vib/H2O_calc/ads_slab/CHNHHO_a/out_0010/pw.inp
Warning: card &CELL ignored
Warning: card   CELL_DYNAMICS='IPI', ignored
Warning: card / ignored

     Current dimensions of program PWSCF are:
     Max number of different atomic species (ntypx) = 10
     Max number of k-points (npk) =  40000
     Max angular momentum in pseudopotentials (lmaxx) =  3
     Presently no symmetry can be used with electric field

     Message from routine cell_base_init:
     DEPRECATED: use true lattice parameter, not A to a.u. conversion factor

     IMPORTANT: XC functional enforced from input :
     Exchange-correlation= BEEF-VDW
                           (   1   4  43  14   2   0   0)
     Any further DFT definition will be discarded
     Please, verify this is what you really want

  @ DRIVER MODE: Connecting to
 qe_1139763_2937314.sched-torque.pace.gatech.edu80fckbey_scratch
  using UNIX socket
  @ DRIVER MODE: Message from server: STATUS
  @ DRIVER MODE: Message from server: INIT
  @ DRIVER MODE: Receiving replica           0          -1
  @ DRIVER MODE: Receiving encoded integer          25
  @ DRIVER MODE:  SCF:  T  FORCE:  T  STRESS:  F  VC:  F  ENSEMBLE:  F
  @ DRIVER MODE:  SCF:  T  FORCE:  T  STRESS:  F  VC:  F  ENSEMBLE:  F

     Using Slab Decomposition

     bravais-lattice index     =            0
     lattice parameter (alat)  =       1.8897  a.u.
     unit-cell volume          =    6658.9804 (a.u.)^3
     number of atoms/cell      =           53
     number of atomic types    =            5
     number of electrons       =       396.00
     number of Kohn-Sham states=          208
     kinetic-energy cutoff     =      29.3995  Ry
     charge density cutoff     =     293.9946  Ry
     scf convergence threshold =      7.3E-08
     mixing beta               =       0.0500
     number of iterations used =            8  plain     mixing
     Exchange-correlation= BEEF-VDW
                           (   1   4  43  14   2   0   0)

     celldm(1)=   1.889726  celldm(2)=   0.000000  celldm(3)=   0.000000
     celldm(4)=   0.000000  celldm(5)=   0.000000  celldm(6)=   0.000000

     crystal axes: (cart. coord. in units of alat)
               a(1) = (   6.579727   0.000000   0.000000 )
               a(2) = (  -0.000775   5.961596   0.000000 )
               a(3) = (   0.000000   0.000000  25.155947 )

     reciprocal axes: (cart. coord. in units 2 pi/alat)
               b(1) = (  0.151982  0.000020  0.000000 )
               b(2) = (  0.000000  0.167740  0.000000 )
               b(3) = (  0.000000  0.000000  0.039752 )

     PseudoPot. # 1 for Ti read from file:
     /storage/coda1/p-amedford6/0/shared/rich_project_chbe-medford/medford-share/data/pseudos_module/espresso/nninc/pbe/van/Ti.UPF
     MD5 check sum: 8e4df49b7f0d34bbd5052bf3f5ea0213
     Pseudo is Ultrasoft, Zval = 12.0
     Generated by new atomic code, or converted to UPF format
     Using radial grid of  851 points,  6 beta functions with:
                l(1) =   0
                l(2) =   0
                l(3) =   1
                l(4) =   1
                l(5) =   2
                l(6) =   2
     Q(r) pseudized with  8 coefficients,  rinner =    1.000   1.000   1.000
                                                       1.000   1.000

     PseudoPot. # 2 for O  read from file:
     /storage/coda1/p-amedford6/0/shared/rich_project_chbe-medford/medford-share/data/pseudos_module/espresso/nninc/pbe/van/O.UPF
     MD5 check sum: 78c19812648e8988a0fe644b0f25305e
     Pseudo is Ultrasoft, Zval =  6.0
     Generated by new atomic code, or converted to UPF format
     Using radial grid of  737 points,  4 beta functions with:
                l(1) =   0
                l(2) =   0
                l(3) =   1
                l(4) =   1
     Q(r) pseudized with  8 coefficients,  rinner =    0.800   0.800   0.800

     PseudoPot. # 3 for N  read from file:
     /storage/coda1/p-amedford6/0/shared/rich_project_chbe-medford/medford-share/data/pseudos_module/espresso/nninc/pbe/van/N.UPF
     MD5 check sum: 90d10febe142ad51ac9d5be1deb811c4
     Pseudo is Ultrasoft, Zval =  5.0
     Generated by new atomic code, or converted to UPF format
     Using radial grid of  729 points,  4 beta functions with:
                l(1) =   0
                l(2) =   0
                l(3) =   1
                l(4) =   1
     Q(r) pseudized with  8 coefficients,  rinner =    0.800   0.800   0.800

     PseudoPot. # 4 for C  read from file:
     /storage/coda1/p-amedford6/0/shared/rich_project_chbe-medford/medford-share/data/pseudos_module/espresso/nninc/pbe/van/C.UPF
     MD5 check sum: 1a69bf6b8db32088f5b2163dbdb77a27
     Pseudo is Ultrasoft, Zval =  4.0
     Generated by new atomic code, or converted to UPF format
     Using radial grid of  721 points,  4 beta functions with:
                l(1) =   0
                l(2) =   0
                l(3) =   1
                l(4) =   1
     Q(r) pseudized with  8 coefficients,  rinner =    0.800   0.800   0.800

     PseudoPot. # 5 for H  read from file:
     /storage/coda1/p-amedford6/0/shared/rich_project_chbe-medford/medford-share/data/pseudos_module/espresso/nninc/pbe/van/H.UPF
     MD5 check sum: b5ee9d7bfd3a09ee7748110bda690ff7
     Pseudo is Ultrasoft, Zval =  1.0
     Generated by new atomic code, or converted to UPF format
     Using radial grid of  615 points,  1 beta functions with:
                l(1) =   0
     Q(r) pseudized with  8 coefficients,  rinner =    0.800

     atomic species   valence    mass     pseudopotential
        Ti1           12.00    47.86700     Ti( 1.00)
        O1             6.00    15.99900     O ( 1.00)
        N1             5.00    14.00700     N ( 1.00)
        C1             4.00    12.01100     C ( 1.00)
        H1             1.00     1.00800     H ( 1.00)

     No symmetry found

   Cartesian axes

     site n.     atom                  positions (alat units)
         1           Ti1 tau(   1) = (   0.0004258   2.9801865   6.0000000  )
         2           Ti1 tau(   2) = (   3.2906075   1.4906267   6.0002472  )
         3           O1  tau(   3) = (   0.0006271   0.0005054   7.9858123  )
         4           O1  tau(   4) = (   3.2906025   0.0005020   7.3038282  )
         5           O1  tau(   5) = (   4.5942328   1.4918067   9.2879030  )
         6           O1  tau(   6) = (   1.9868534   1.4903216   9.2879459  )
         7           Ti1 tau(   7) = (   3.2907910   2.8959150   9.1758416  )
         8           Ti1 tau(   8) = (   0.0015273   1.4827037   9.2680791  )
         9           O1  tau(   9) = (   3.2817170   5.9459930  11.3074998  )
        10           O1  tau(  10) = (   0.0116148   5.9584955  10.6183126  )
        11           O1  tau(  11) = (   1.2737360   1.4926482  12.6406718  )
        12           O1  tau(  12) = (   5.2902952   1.4950437  12.6299455  )
        13           Ti1 tau(  13) = (   6.5743562   2.8588748  12.6391164  )
        14           Ti1 tau(  14) = (   3.2840152   1.3010445  12.6757008  )
        15           O1  tau(  15) = (   6.5722207   0.0022838  14.6395268  )
        16           O1  tau(  16) = (   3.2882888   0.0547267  13.9272720  )
        17           O1  tau(  17) = (   4.5277618   1.5549090  16.0796657  )
        18           O1  tau(  18) = (   1.9889223   1.5445724  16.0964948  )
        19           Ti1 tau(  19) = (   3.2710169   3.0098750  15.6493427  )
        20           Ti1 tau(  20) = (   0.0212523   1.3583160  16.0154628  )
        21           O1  tau(  21) = (   3.2904802   0.0005063   4.7018136  )
        22           O1  tau(  22) = (   6.5278121   5.9442159  17.1408904  )
        23           O1  tau(  23) = (   1.3043587   1.4918075   6.0039043  )
        24           O1  tau(  24) = (   5.2767064   1.4903225   6.0039473  )
        25           Ti1 tau(  25) = (   0.0000382   5.9609847   6.0000000  )
        26           Ti1 tau(  26) = (   3.2902200   4.4714249   6.0002472  )
        27           O1  tau(  27) = (   0.0002396   2.9813036   7.9858123  )
        28           O1  tau(  28) = (   3.2902150   2.9813002   7.3038282  )
        29           O1  tau(  29) = (   4.5938453   4.4726049   9.2879030  )
        30           O1  tau(  30) = (   1.9864658   4.4711199   9.2879459  )
        31           Ti1 tau(  31) = (   3.2891106   5.8743827   9.1763621  )
        32           Ti1 tau(  32) = (   0.0006254   4.4649316   9.2693709  )
        33           O1  tau(  33) = (   3.2809651   3.0158959  11.2742024  )
        34           O1  tau(  34) = (   0.0092240   2.9805883  10.6323155  )
        35           O1  tau(  35) = (   1.2801966   4.4796301  12.6363892  )
        36           O1  tau(  36) = (   5.2833020   4.4787161  12.6245292  )
        37           Ti1 tau(  37) = (   6.5725262   5.8449372  12.5269696  )
        38           Ti1 tau(  38) = (   3.2830651   4.3950422  12.4122791  )
        39           O1  tau(  39) = (   6.5612936   2.9998473  14.7091997  )
        40           O1  tau(  40) = (   3.2734765   2.9867355  13.8776313  )
        41           O1  tau(  41) = (   4.5260587   4.4294304  16.0527172  )
        42           O1  tau(  42) = (   1.9919704   4.4458081  16.0639873  )
        43           Ti1 tau(  43) = (   3.3135318   0.0270965  16.3071496  )
        44           Ti1 tau(  44) = (   0.0294795   4.5257316  15.8201724  )
        45           O1  tau(  45) = (   3.2900926   2.9813045   4.7018136  )
        46           O1  tau(  46) = (   1.3039711   4.4726057   6.0039043  )
        47           O1  tau(  47) = (   5.2763189   4.4711207   6.0039473  )
        48           N1  tau(  48) = (   6.4282372   2.9740631  17.7102171  )
        49           C1  tau(  49) = (   0.6535733   3.0276064  18.7020832  )
        50           H1  tau(  50) = (   1.7291544   2.9413089  18.4820742  )
        51           H1  tau(  51) = (   5.4410488   3.0579230  17.9716058  )
        52           O1  tau(  52) = (   3.3635319   0.0010587  18.1193045  )
        53           H1  tau(  53) = (   4.1580425   0.0400832  18.6733683  )

     number of k points=    10  Fermi-Dirac smearing, width (Ry)=  0.0073
                       cart. coord. in units 2pi/alat
        k(    1) = (   0.0000000   0.0000000   0.0000000), wk =   0.1250000
        k(    2) = (   0.0000000   0.0419351   0.0000000), wk =   0.2500000
        k(    3) = (   0.0000000  -0.0838702   0.0000000), wk =   0.1250000
        k(    4) = (   0.0379955   0.0000049   0.0000000), wk =   0.2500000
        k(    5) = (   0.0379955   0.0419400   0.0000000), wk =   0.2500000
        k(    6) = (   0.0379955  -0.0838652   0.0000000), wk =   0.2500000
        k(    7) = (   0.0379955  -0.0419301   0.0000000), wk =   0.2500000
        k(    8) = (  -0.0759910  -0.0000099   0.0000000), wk =   0.1250000
        k(    9) = (  -0.0759910   0.0419252   0.0000000), wk =   0.2500000
        k(   10) = (  -0.0759910  -0.0838800   0.0000000), wk =   0.1250000

     Initial potential from superposition of free atoms

     starting charge  379.99917, renormalised to  396.00000

     negative rho (up, down):  1.778E-02 0.000E+00

     %%%%%%%%%%%%%%%%%%%%%%%%%%%%%%%%%%%%%%%%%%%%%%%%%%%%%%%%%%%%%%%%%%%%%%%%
     %                                                                      %
     % You are using vdW-DF, which was implemented by the Thonhauser group. %
     % Please cite the following two papers that made this development      %
     % possible and the two reviews that describe the various versions:     %
     %                                                                      %
     %   T. Thonhauser et al., PRL 115, 136402 (2015).                      %
     %   T. Thonhauser et al., PRB 76, 125112 (2007).                       %
     %   K. Berland et al., Rep. Prog. Phys. 78, 066501 (2015).             %
     %   D.C. Langreth et al., J. Phys.: Condens. Matter 21, 084203 (2009). %
     %                                                                      %
     %                                                                      %
     % If you are calculating the stress with vdW-DF, please also cite:     %
     %                                                                      %
     %   R. Sabatini et al., J. Phys.: Condens. Matter 24, 424209 (2012).   %
     %                                                                      %
     %%%%%%%%%%%%%%%%%%%%%%%%%%%%%%%%%%%%%%%%%%%%%%%%%%%%%%%%%%%%%%%%%%%%%%%%

     Adding external electric field

     Computed dipole along edir(3) :
        Dipole               -8.0653 Ry au,        -20.5000 Debye
        Dipole field         -0.0152 Ry au,

        Potential amp.        1.4109 Ry
        Total length         46.3494 bohr

     Starting wfcs are  299 atomic wfcs
  @ DRIVER MODE: Message from server: STATUS
  @ DRIVER MODE: Message from server: POSDATA
  @ DRIVER MODE: Reading and sharing cell
  @ DRIVER MODE: Reading and sharing positions
  @ DRIVER MODE: Received positions

     Self-consistent Calculation

     iteration #  1     ecut=    29.40 Ry     beta= 0.05
     Davidson diagonalization with overlap
     c_bands:  1 eigenvalues not converged
     c_bands:  1 eigenvalues not converged
     c_bands:  3 eigenvalues not converged
     c_bands:  1 eigenvalues not converged
     c_bands:  1 eigenvalues not converged
     c_bands:  1 eigenvalues not converged
     ethr =  1.00E-05,  avg # of iterations = 18.5

[...]

     total energy              =   -2618.22928845 Ry
     estimated scf accuracy    <    3681.44163395 Ry

     iteration #  2     ecut=    29.40 Ry     beta= 0.05
     Davidson diagonalization with overlap
     ethr =  1.00E-02,  avg # of iterations = 21.8

[...]

     iteration # 38     ecut=    29.40 Ry     beta= 0.05
     Davidson diagonalization with overlap
     c_bands:  2 eigenvalues not converged
     c_bands:  1 eigenvalues not converged
     c_bands:  1 eigenvalues not converged
     c_bands:  1 eigenvalues not converged
     ethr =  1.08E-06,  avg # of iterations = 14.9

[...]

     total energy              =   -2951.37641201 Ry
     estimated scf accuracy    <       0.00000025 Ry

     iteration # 59     ecut=    29.40 Ry     beta= 0.05
     Davidson diagonalization with overlap
     ethr =  6.27E-11,  avg # of iterations =  5.6

     negative rho (up, down):  1.666E-02 0.000E+00

     Adding external electric field

     Computed dipole along edir(3) :
        Dipole                0.1811 Ry au,          0.4602 Debye
        Dipole field          0.0003 Ry au,

        Potential amp.       -0.0317 Ry
        Total length         46.3494 bohr

     End of self-consistent calculation

          k = 0.0000 0.0000 0.0000 ( 18029 PWs)   bands (ev):

   -56.4287 -56.3948 -56.1518 -56.1509 -56.1171 -55.9511 -55.8980 -55.8646
   -55.8577 -55.8517 -55.8166 -55.7235 -55.6734 -55.5325 -55.2796 -55.2456
   -32.8931 -32.7228 -32.7025 -32.6239 -32.5830 -32.5163 -32.4894 -32.4456
   -32.4348 -32.4219 -32.3714 -32.3687 -32.3666 -32.3632 -32.3530 -32.3114
   -32.2897 -32.2648 -32.2561 -32.1799 -32.1676 -32.1585 -32.1461 -32.1223
   -32.1075 -32.1017 -32.0992 -32.0661 -32.0647 -32.0581 -32.0368 -32.0166
   -31.9997 -31.9763 -31.9681 -31.9566 -31.9430 -31.8700 -31.8686 -31.7918
   -31.7630 -31.7443 -31.6798 -31.6077 -31.5845 -31.4982 -31.4128 -31.3007
   -16.9165 -16.8254 -16.5935 -16.4404 -16.2728 -16.1826 -16.0532 -16.0298
   -15.9174 -15.9020 -15.8137 -15.7817 -15.7425 -15.6675 -15.6107 -15.5874
   -15.5537 -15.5245 -15.5155 -15.5117 -15.5017 -15.4948 -15.4556 -15.3377
   -15.2970 -15.2456 -15.2342 -15.2198 -15.0880 -14.8297 -14.7858 -13.7774
   -13.6635  -8.2011  -4.6845  -4.2804  -4.2130  -4.1210  -3.9434  -3.8885
    -3.8248  -3.6011  -3.5545  -3.5509  -3.3583  -3.2983  -3.2037  -3.1618
    -3.1468  -3.1012  -3.0292  -3.0182  -2.9865  -2.8988  -2.8573  -2.8507
    -2.8246  -2.7796  -2.7689  -2.6894  -2.6451  -2.6228  -2.5531  -2.5054
    -2.4736  -2.4589  -2.4344  -2.4239  -2.3827  -2.3695  -2.3486  -2.2007
    -2.1834  -2.1622  -2.0844  -2.0087  -1.8554  -1.7742  -1.7626  -1.6644
    -1.5867  -1.5717  -1.5230  -1.4736  -1.3878  -1.3734  -1.3668  -1.3282
    -1.2439  -1.2233  -1.1791  -1.1275  -1.0533  -0.9644  -0.9591  -0.9085
    -0.8735  -0.8095  -0.7215  -0.6880  -0.6285  -0.5861  -0.5560  -0.4822
    -0.4335  -0.4071  -0.3842  -0.3732  -0.3127  -0.2514  -0.2043  -0.1779
    -0.1078  -0.0963  -0.0533   0.0123   0.0338   0.0412   0.1598   0.2024
     0.2152   0.2656   0.3781   0.4357   0.5212   0.5818   0.6527   0.7460
     0.7527   0.9603   1.0690   1.3003   1.3407   2.5786   2.7602   2.8820
     2.9509   3.1523   3.1991   3.2360   3.5251   3.5319   3.6376   3.6991

[...]

          k = 0.0380-0.0419 0.0000 ( 17876 PWs)   bands (ev):

[...]

          k =-0.0760-0.0000 0.0000 ( 17886 PWs)   bands (ev):

[...]

          k =-0.0760-0.0839 0.0000 ( 17948 PWs)   bands (ev):

   -56.4122 -56.4111 -56.1512 -56.1358 -56.1321 -55.9450 -55.9040 -55.8620
   -55.8586 -55.8386 -55.8297 -55.7254 -55.6715 -55.5344 -55.2631 -55.2619
   -32.7096 -32.7094 -32.7077 -32.7072 -32.5349 -32.5336 -32.4557 -32.4510
   -32.4234 -32.3805 -32.3688 -32.3436 -32.3389 -32.3278 -32.3213 -32.2863
   -32.2476 -32.2417 -32.2181 -32.1711 -32.1699 -32.1679 -32.1656 -32.1530
   -32.1299 -32.1229 -32.1210 -32.0728 -32.0696 -32.0636 -32.0616 -32.0599
   -32.0448 -32.0100 -31.9859 -31.9609 -31.9491 -31.9349 -31.8813 -31.8742
   -31.7944 -31.7479 -31.5978 -31.5969 -31.4943 -31.4929 -31.4560 -31.4551
   -16.9014 -16.2452 -16.2202 -16.1253 -16.0955 -16.0745 -16.0526 -16.0246
   -15.8940 -15.8850 -15.8714 -15.8029 -15.7519 -15.7322 -15.6970 -15.6911
   -15.6371 -15.6232 -15.6100 -15.5575 -15.5493 -15.5301 -15.5158 -15.4801
   -15.4493 -15.4213 -15.2562 -15.2016 -15.1464 -15.1188 -14.9185 -13.7664
   -13.7657  -8.2127  -4.6763  -4.1000  -3.5195  -3.4889  -3.3700  -3.3570
    -3.2314  -3.2262  -3.1484  -3.0746  -3.0742  -2.9988  -2.9847  -2.9771
    -2.9375  -2.9205  -2.9128  -2.9121  -2.8704  -2.8613  -2.8405  -2.8230
    -2.8200  -2.8041  -2.7654  -2.7240  -2.7029  -2.6896  -2.6359  -2.6222
    -2.5005  -2.4358  -2.4118  -2.4114  -2.3868  -2.3503  -2.3207  -2.3040
    -2.2744  -2.2341  -2.1582  -2.0371  -2.0165  -1.8203  -1.8028  -1.7711
    -1.7500  -1.7060  -1.7001  -1.6342  -1.5841  -1.5688  -1.5514  -1.5273
    -1.4260  -1.3753  -1.3249  -1.3225  -1.2716  -1.2512  -1.2023  -1.1010
    -1.0518  -1.0220  -0.9960  -0.9828  -0.9450  -0.9192  -0.8664  -0.8255
    -0.8209  -0.7938  -0.7505  -0.5820  -0.4115  -0.3679  -0.3465  -0.2754
    -0.2599  -0.2104  -0.0774  -0.0319  -0.0204   0.0154   0.0548   0.0853
     0.0985   0.1614   0.3446   0.3587   0.4273   0.4744   0.4806   0.5684
     0.6642   1.1248   1.1326   1.1595   1.1603   2.6073   3.3050   3.3070
     3.3088   3.3253   3.4061   3.4661   3.4751   3.5132   3.5913   3.6314

     the Fermi energy is     2.7237 ev

!    total energy              =   -2951.37647126 Ry
     estimated scf accuracy    <       0.00000007 Ry
     smearing contrib. (-TS)   =      -0.01730312 Ry
     internal energy E=F+TS    =   -2951.35916815 Ry

     The total energy is F=E-TS. E is the sum of the following terms:
     one-electron contribution =  -24273.28441563 Ry
     hartree contribution      =   12222.67081707 Ry
     xc contribution           =    -487.04479087 Ry
     ewald contribution        =    9586.29915942 Ry
     electric field correction =       0.00006187 Ry

     convergence has been achieved in  59 iterations

     Forces acting on atoms (cartesian axes, Ry/au):

     atom    1 type  1   force =     0.00006647   -0.00028306    0.10090218
     atom    2 type  1   force =    -0.00005211    0.00024767   -0.16917491
     atom    3 type  2   force =     0.00000595   -0.00004544   -0.02995587
     atom    4 type  2   force =     0.00000034   -0.00099088    0.04187518
     atom    5 type  2   force =    -0.00520494   -0.00241887   -0.00304852
     atom    6 type  2   force =     0.00635483   -0.00183890   -0.00465890
     atom    7 type  1   force =    -0.00066051   -0.00536162    0.02535546
     atom    8 type  1   force =     0.00077881    0.01604570    0.04135492
     atom    9 type  2   force =    -0.00021714    0.00022165    0.00013990
     atom   10 type  2   force =    -0.00258182    0.00083314   -0.03441587
     atom   11 type  2   force =     0.00008430    0.00003098    0.00006479
     atom   12 type  2   force =     0.00025237   -0.00035648    0.00004706
     atom   13 type  1   force =    -0.00069493   -0.00011194   -0.00011543
     atom   14 type  1   force =     0.00018987    0.00011280    0.00029092
     atom   15 type  2   force =     0.00022910   -0.00018867    0.00006943
     atom   16 type  2   force =     0.00004595   -0.00011998   -0.00020151
     atom   17 type  2   force =    -0.00011801    0.00010637    0.00013113
     atom   18 type  2   force =     0.00019466   -0.00006213    0.00008094
     atom   19 type  1   force =     0.00005221    0.00015327    0.00027782
     atom   20 type  1   force =     0.00001382    0.00040988    0.00086316
     atom   21 type  2   force =     0.00006937    0.00015562    0.10145899
     atom   22 type  2   force =    -0.00001696    0.00025981    0.00011860
     atom   23 type  2   force =    -0.07488024   -0.00008380   -0.02881385
     atom   24 type  2   force =     0.07481184    0.00036661   -0.02884495
     atom   25 type  1   force =     0.00018863   -0.00036416    0.10074002
     atom   26 type  1   force =     0.00000732   -0.00114710   -0.16940129
     atom   27 type  2   force =     0.00004431   -0.00040054   -0.02843998
     atom   28 type  2   force =     0.00000993    0.00074754    0.03784922
     atom   29 type  2   force =    -0.00389553    0.00436528   -0.00527556
     atom   30 type  2   force =     0.00497470    0.00488986   -0.00694505
     atom   31 type  1   force =    -0.00064131    0.00466943    0.01118570
     atom   32 type  1   force =     0.00088742   -0.01904943    0.04072874
     atom   33 type  2   force =     0.00044315   -0.00000798    0.00020617
     atom   34 type  2   force =    -0.00214475    0.00071120   -0.03966232
     atom   35 type  2   force =     0.00010838   -0.00047732   -0.00015079
     atom   36 type  2   force =     0.00016216   -0.00021284    0.00009429
     atom   37 type  1   force =    -0.00005034   -0.00011247    0.00012226
     atom   38 type  1   force =     0.00001256    0.00004735    0.00016766
     atom   39 type  2   force =    -0.00004055    0.00034817   -0.00023151
     atom   40 type  2   force =     0.00032615   -0.00006105    0.00016511
     atom   41 type  2   force =     0.00006058    0.00009752    0.00023183
     atom   42 type  2   force =    -0.00014140    0.00012031    0.00020770
     atom   43 type  1   force =     0.00018817    0.00002403    0.00065694
     atom   44 type  1   force =    -0.00025244    0.00038868   -0.00062654
     atom   45 type  2   force =     0.00006698   -0.00000393    0.10125200
     atom   46 type  2   force =    -0.07492669   -0.00001848   -0.02884823
     atom   47 type  2   force =     0.07484322    0.00041071   -0.02887375
     atom   48 type  3   force =    -0.00027207   -0.00047193    0.00185257
     atom   49 type  4   force =     0.00030021   -0.00113590   -0.00151528
     atom   50 type  5   force =    -0.00116113    0.00029351    0.00034271
     atom   51 type  5   force =     0.00176645   -0.00016654   -0.00024367
     atom   52 type  2   force =    -0.00018877   -0.00017266    0.00150680
     atom   53 type  5   force =     0.00060145   -0.00039298   -0.00089644

     Total force =     0.369734     Total SCF correction =     0.000870
  @ DRIVER MODE: Message from server: STATUS
  @ DRIVER MODE: Message from server: GETFORCE
  @ DRIVER MODE: Returning v,forces,stress,ensemble

     Writing output data file ./calc.save/
  @ DRIVER MODE: Message from server: EXIT
  @ DRIVE MODE: Exiting

     General routines

     Parallel routines

   This run was terminated on:  19:19:22  22Sep2021

   JOB DONE.