     Program PWSCF v.6.7GPU starts on 18Aug2021 at 22:13:56

     R & G space division:  proc/nbgrp/npool/nimage =       8
     Reading input from /storage/home/hcoda1/3/ntian30/research/carbon/CH2_calc/ads_slab/CH2NHH_a/CH2_calc.log/pw.inp
Warning: card &CELL ignored
Warning: card   CELL_DYNAMICS='IPI', ignored
Warning: card / ignored

     Current dimensions of program PWSCF are:
     Max number of different atomic species (ntypx) = 10
     Max number of k-points (npk) =  40000
     Max angular momentum in pseudopotentials (lmaxx) =  3
     Presently no symmetry can be used with electric field

     Message from routine cell_base_init:
     DEPRECATED: use true lattice parameter, not A to a.u. conversion factor

     IMPORTANT: XC functional enforced from input :
     Exchange-correlation= BEEF-VDW
                           (   1   4  43  14   2   0   0)
     Any further DFT definition will be discarded
     Please, verify this is what you really want

  @ DRIVER MODE: Connecting to
 qe_1139763_2596343.sched-torque.pace.gatech.edu6y05ficq_scratch
  using UNIX socket
  @ DRIVER MODE: Message from server: STATUS
  @ DRIVER MODE: Message from server: INIT
  @ DRIVER MODE: Receiving replica           0          -1
  @ DRIVER MODE: Receiving encoded integer          25
  @ DRIVER MODE:  SCF:  T  FORCE:  T  STRESS:  F  VC:  F  ENSEMBLE:  F
  @ DRIVER MODE:  SCF:  T  FORCE:  T  STRESS:  F  VC:  F  ENSEMBLE:  F

     Using Slab Decomposition

     bravais-lattice index     =            0
     lattice parameter (alat)  =       1.8897  a.u.
     unit-cell volume          =    6658.9804 (a.u.)^3
     number of atoms/cell      =           53
     number of atomic types    =            5
     number of electrons       =       391.00
     number of Kohn-Sham states=          205
     kinetic-energy cutoff     =      29.3995  Ry
     charge density cutoff     =     293.9946  Ry
     scf convergence threshold =      7.3E-08
     mixing beta               =       0.0500
     number of iterations used =            8  plain     mixing
     Exchange-correlation= BEEF-VDW
                           (   1   4  43  14   2   0   0)

     celldm(1)=   1.889726  celldm(2)=   0.000000  celldm(3)=   0.000000
     celldm(4)=   0.000000  celldm(5)=   0.000000  celldm(6)=   0.000000

     crystal axes: (cart. coord. in units of alat)
               a(1) = (   6.579727   0.000000   0.000000 )
               a(2) = (  -0.000775   5.961596   0.000000 )
               a(3) = (   0.000000   0.000000  25.155947 )

     reciprocal axes: (cart. coord. in units 2 pi/alat)
               b(1) = (  0.151982  0.000020  0.000000 )
               b(2) = (  0.000000  0.167740  0.000000 )
               b(3) = (  0.000000  0.000000  0.039752 )

     PseudoPot. # 1 for Ti read from file:
     /storage/coda1/p-amedford6/0/shared/rich_project_chbe-medford/medford-share/data/pseudos_module/espresso/nninc/pbe/van/Ti.UPF
     MD5 check sum: 8e4df49b7f0d34bbd5052bf3f5ea0213
     Pseudo is Ultrasoft, Zval = 12.0
     Generated by new atomic code, or converted to UPF format
     Using radial grid of  851 points,  6 beta functions with:
                l(1) =   0
                l(2) =   0
                l(3) =   1
                l(4) =   1
                l(5) =   2
                l(6) =   2
     Q(r) pseudized with  8 coefficients,  rinner =    1.000   1.000   1.000
                                                       1.000   1.000

     PseudoPot. # 2 for O  read from file:
     /storage/coda1/p-amedford6/0/shared/rich_project_chbe-medford/medford-share/data/pseudos_module/espresso/nninc/pbe/van/O.UPF
     MD5 check sum: 78c19812648e8988a0fe644b0f25305e
     Pseudo is Ultrasoft, Zval =  6.0
     Generated by new atomic code, or converted to UPF format
     Using radial grid of  737 points,  4 beta functions with:
                l(1) =   0
                l(2) =   0
                l(3) =   1
                l(4) =   1
     Q(r) pseudized with  8 coefficients,  rinner =    0.800   0.800   0.800

     PseudoPot. # 3 for N  read from file:
     /storage/coda1/p-amedford6/0/shared/rich_project_chbe-medford/medford-share/data/pseudos_module/espresso/nninc/pbe/van/N.UPF
     MD5 check sum: 90d10febe142ad51ac9d5be1deb811c4
     Pseudo is Ultrasoft, Zval =  5.0
     Generated by new atomic code, or converted to UPF format
     Using radial grid of  729 points,  4 beta functions with:
                l(1) =   0
                l(2) =   0
                l(3) =   1
                l(4) =   1
     Q(r) pseudized with  8 coefficients,  rinner =    0.800   0.800   0.800

     PseudoPot. # 4 for C  read from file:
     /storage/coda1/p-amedford6/0/shared/rich_project_chbe-medford/medford-share/data/pseudos_module/espresso/nninc/pbe/van/C.UPF
     MD5 check sum: 1a69bf6b8db32088f5b2163dbdb77a27
     Pseudo is Ultrasoft, Zval =  4.0
     Generated by new atomic code, or converted to UPF format
     Using radial grid of  721 points,  4 beta functions with:
                l(1) =   0
                l(2) =   0
                l(3) =   1
                l(4) =   1
     Q(r) pseudized with  8 coefficients,  rinner =    0.800   0.800   0.800

     PseudoPot. # 5 for H  read from file:
     /storage/coda1/p-amedford6/0/shared/rich_project_chbe-medford/medford-share/data/pseudos_module/espresso/nninc/pbe/van/H.UPF
     MD5 check sum: b5ee9d7bfd3a09ee7748110bda690ff7
     Pseudo is Ultrasoft, Zval =  1.0
     Generated by new atomic code, or converted to UPF format
     Using radial grid of  615 points,  1 beta functions with:
                l(1) =   0
     Q(r) pseudized with  8 coefficients,  rinner =    0.800

     atomic species   valence    mass     pseudopotential
        Ti1           12.00    47.86700     Ti( 1.00)
        O1             6.00    15.99900     O ( 1.00)
        N1             5.00    14.00700     N ( 1.00)
        C1             4.00    12.01100     C ( 1.00)
        H1             1.00     1.00800     H ( 1.00)

     No symmetry found

   Cartesian axes

     site n.     atom                  positions (alat units)
         1           Ti1 tau(   1) = (   0.0004258   2.9801865   6.0000000  )
         2           Ti1 tau(   2) = (   3.2906075   1.4906267   6.0002472  )
         3           O1  tau(   3) = (   0.0006271   0.0005054   7.9858123  )
         4           O1  tau(   4) = (   3.2906025   0.0005020   7.3038282  )
         5           O1  tau(   5) = (   4.5942328   1.4918067   9.2879030  )
         6           O1  tau(   6) = (   1.9868534   1.4903216   9.2879459  )
         7           Ti1 tau(   7) = (   3.2907910   2.8959150   9.1758416  )
         8           Ti1 tau(   8) = (   0.0015273   1.4827037   9.2680791  )
         9           O1  tau(   9) = (   3.2893523   5.9576907  11.3759447  )
        10           O1  tau(  10) = (   0.0116148   5.9584955  10.6183126  )
        11           O1  tau(  11) = (   1.2892553   1.4862333  12.6941169  )
        12           O1  tau(  12) = (   5.2958346   1.4833122  12.6807028  )
        13           Ti1 tau(  13) = (   0.0095698   2.9692159  12.5083673  )
        14           Ti1 tau(  14) = (   3.3108451   1.4743585  12.5306019  )
        15           O1  tau(  15) = (   6.5736105   5.8801748  14.6991865  )
        16           O1  tau(  16) = (   3.2979610   5.9450902  14.0010558  )
        17           O1  tau(  17) = (   4.5273680   1.5185660  16.1654609  )
        18           O1  tau(  18) = (   2.0122787   1.5163527  16.1384539  )
        19           Ti1 tau(  19) = (   3.2802752   2.9921964  15.7561315  )
        20           Ti1 tau(  20) = (   0.0093588   1.3049760  15.8672178  )
        21           O1  tau(  21) = (   3.2904802   0.0005063   4.7018136  )
        22           O1  tau(  22) = (   6.5538635   0.1342075  17.2452287  )
        23           O1  tau(  23) = (   1.3043587   1.4918075   6.0039043  )
        24           O1  tau(  24) = (   5.2767064   1.4903225   6.0039473  )
        25           Ti1 tau(  25) = (   0.0000382   5.9609847   6.0000000  )
        26           Ti1 tau(  26) = (   3.2902200   4.4714249   6.0002472  )
        27           O1  tau(  27) = (   0.0002396   2.9813036   7.9858123  )
        28           O1  tau(  28) = (   3.2902150   2.9813002   7.3038282  )
        29           O1  tau(  29) = (   4.5938453   4.4726049   9.2879030  )
        30           O1  tau(  30) = (   1.9864658   4.4711199   9.2879459  )
        31           Ti1 tau(  31) = (   3.2891106   5.8743827   9.1763621  )
        32           Ti1 tau(  32) = (   0.0006254   4.4649316   9.2693709  )
        33           O1  tau(  33) = (   3.2933707   2.9638296  11.3700534  )
        34           O1  tau(  34) = (   0.0092240   2.9805883  10.6323155  )
        35           O1  tau(  35) = (   1.2923283   4.4540072  12.6594629  )
        36           O1  tau(  36) = (   5.2938616   4.4568750  12.6477176  )
        37           Ti1 tau(  37) = (   0.0202681   5.9396231  12.5027719  )
        38           Ti1 tau(  38) = (   3.3116628   4.4527548  12.5215617  )
        39           O1  tau(  39) = (   6.5466975   3.0260875  14.9671898  )
        40           O1  tau(  40) = (   3.2966604   2.9917109  13.9679302  )
        41           O1  tau(  41) = (   4.5116687   4.4737236  16.2360857  )
        42           O1  tau(  42) = (   2.0028912   4.4646324  16.2202640  )
        43           Ti1 tau(  43) = (   3.2937213   0.0113368  15.7972781  )
        44           Ti1 tau(  44) = (   0.0208052   4.5175143  16.0574476  )
        45           O1  tau(  45) = (   3.2900926   2.9813045   4.7018136  )
        46           O1  tau(  46) = (   1.3039711   4.4726057   6.0039043  )
        47           O1  tau(  47) = (   5.2763189   4.4711207   6.0039473  )
        48           N1  tau(  48) = (   6.3337458   3.3624127  17.8270434  )
        49           C1  tau(  49) = (   0.8795605   3.2639204  18.7799812  )
        50           H1  tau(  50) = (   0.5395241   3.0459488  19.7957609  )
        51           H1  tau(  51) = (   1.5475163   2.4696122  18.4548312  )
        52           H1  tau(  52) = (   5.6940081   4.0973896  18.1182617  )
        53           H1  tau(  53) = (   5.7906660   2.4998151  17.8411682  )

     number of k points=    10  Fermi-Dirac smearing, width (Ry)=  0.0073
                       cart. coord. in units 2pi/alat
        k(    1) = (   0.0000000   0.0000000   0.0000000), wk =   0.1250000
        k(    2) = (   0.0000000   0.0419351   0.0000000), wk =   0.2500000
        k(    3) = (   0.0000000  -0.0838702   0.0000000), wk =   0.1250000
        k(    4) = (   0.0379955   0.0000049   0.0000000), wk =   0.2500000
        k(    5) = (   0.0379955   0.0419400   0.0000000), wk =   0.2500000
        k(    6) = (   0.0379955  -0.0838652   0.0000000), wk =   0.2500000
        k(    7) = (   0.0379955  -0.0419301   0.0000000), wk =   0.2500000
        k(    8) = (  -0.0759910  -0.0000099   0.0000000), wk =   0.1250000
        k(    9) = (  -0.0759910   0.0419252   0.0000000), wk =   0.2500000
        k(   10) = (  -0.0759910  -0.0838800   0.0000000), wk =   0.1250000

     Initial potential from superposition of free atoms

[...]
        38           Ti1 tau(  38) = (   3.3111622   4.4593321  12.5515423  )
        39           O1  tau(  39) = (   6.5667716   3.0056003  15.0245487  )
        40           O1  tau(  40) = (   3.3066653   2.9886506  13.9984031  )
        41           O1  tau(  41) = (   4.5207097   4.4678779  16.2667022  )
        42           O1  tau(  42) = (   2.0335656   4.4678387  16.2292850  )
        43           Ti1 tau(  43) = (   3.3260332   0.0086419  15.8296019  )
        44           Ti1 tau(  44) = (   0.0490150   4.5052398  16.1185563  )
        45           O1  tau(  45) = (   3.2900926   2.9813045   4.7018136  )
        46           O1  tau(  46) = (   1.3039711   4.4726057   6.0039043  )
        47           O1  tau(  47) = (   5.2763189   4.4711207   6.0039473  )
        48           N1  tau(  48) = (   6.2042089   3.3473625  18.2444835  )
        49           C1  tau(  49) = (   0.7387216   3.0888713  19.0395549  )
        50           H1  tau(  50) = (   1.1302440   3.8964384  19.6401590  )
        51           H1  tau(  51) = (   1.1789966   2.1164466  18.9997836  )
        52           H1  tau(  52) = (   5.6308914   4.1256022  18.5598135  )
        53           H1  tau(  53) = (   5.6081692   2.5377523  18.0781039  )

     number of k points=    10  Fermi-Dirac smearing, width (Ry)=  0.0073
                       cart. coord. in units 2pi/alat
        k(    1) = (   0.0000000   0.0000000   0.0000000), wk =   0.1250000
        k(    2) = (   0.0000000   0.0419351   0.0000000), wk =   0.2500000
        k(    3) = (   0.0000000  -0.0838702   0.0000000), wk =   0.1250000
        k(    4) = (   0.0379955   0.0000049   0.0000000), wk =   0.2500000
        k(    5) = (   0.0379955   0.0419400   0.0000000), wk =   0.2500000
        k(    6) = (   0.0379955  -0.0838652   0.0000000), wk =   0.2500000
        k(    7) = (   0.0379955  -0.0419301   0.0000000), wk =   0.2500000
        k(    8) = (  -0.0759910  -0.0000099   0.0000000), wk =   0.1250000
        k(    9) = (  -0.0759910   0.0419252   0.0000000), wk =   0.2500000
        k(   10) = (  -0.0759910  -0.0838800   0.0000000), wk =   0.1250000

     Initial potential from superposition of free atoms

     starting charge  374.99916, renormalised to  391.00000

[...]

     %%%%%%%%%%%%%%%%%%%%%%%%%%%%%%%%%%%%%%%%%%%%%%%%%%%%%%%%%%%%%%%%%%%%%%%%
     %                                                                      %
     % You are using vdW-DF, which was implemented by the Thonhauser group. %
     % Please cite the following two papers that made this development      %
     % possible and the two reviews that describe the various versions:     %
     %                                                                      %
     %   T. Thonhauser et al., PRL 115, 136402 (2015).                      %
     %   T. Thonhauser et al., PRB 76, 125112 (2007).                       %
     %   K. Berland et al., Rep. Prog. Phys. 78, 066501 (2015).             %
     %   D.C. Langreth et al., J. Phys.: Condens. Matter 21, 084203 (2009). %
     %                                                                      %
     %                                                                      %
     % If you are calculating the stress with vdW-DF, please also cite:     %
     %                                                                      %
     %   R. Sabatini et al., J. Phys.: Condens. Matter 24, 424209 (2012).   %
     %                                                                      %
     %%%%%%%%%%%%%%%%%%%%%%%%%%%%%%%%%%%%%%%%%%%%%%%%%%%%%%%%%%%%%%%%%%%%%%%%

[...]

     Starting wfcs are  296 atomic wfcs
  @ DRIVER MODE: Message from server: STATUS
  @ DRIVER MODE: Message from server: POSDATA
  @ DRIVER MODE: Reading and sharing cell
  @ DRIVER MODE: Reading and sharing positions
  @ DRIVER MODE: Received positions

[...]

     Self-consistent Calculation

[...]

     iteration # 15     ecut=    29.40 Ry     beta= 0.05
     Davidson diagonalization with overlap
     ethr =  2.37E-10,  avg # of iterations =  6.8

[...]

     total energy              =   -2920.25698448 Ry
     estimated scf accuracy    <       0.00000015 Ry

     iteration # 19     ecut=    29.40 Ry     beta= 0.05
     Davidson diagonalization with overlap
     c_bands:  1 eigenvalues not converged
     ethr =  3.83E-11,  avg # of iterations = 13.5

[...]

     End of self-consistent calculation

[...]

          k = 0.0380-0.0419 0.0000 ( 17876 PWs)   bands (ev):

[...]

          k =-0.0760-0.0839 0.0000 ( 17948 PWs)   bands (ev):

   -55.7005 -55.6979 -55.6521 -55.6518 -55.6025 -55.5810 -55.5794 -55.5379
   -55.5260 -55.5223 -55.4841 -55.4836 -55.4582 -55.3018 -54.6840 -54.6838
   -32.0882 -32.0859 -31.9952 -31.9772 -31.9771 -31.9741 -31.9646 -31.9434
   -31.9434 -31.9271 -31.9205 -31.9136 -31.9091 -31.8698 -31.8613 -31.8582
   -31.8541 -31.8492 -31.8450 -31.8399 -31.8263 -31.8074 -31.7954 -31.7945
   -31.7760 -31.7722 -31.7718 -31.7715 -31.7590 -31.7552 -31.7387 -31.7369
   -31.7348 -31.7254 -31.7172 -31.7145 -31.6810 -31.6643 -31.6640 -31.6456
   -31.5599 -31.5226 -31.0067 -31.0065 -30.9231 -30.9229 -30.8835 -30.8834
   -16.6348 -16.0337 -15.9409 -15.9029 -15.7550 -15.7172 -15.6822 -15.6699
   -15.5474 -15.5213 -15.4956 -15.4745 -15.4392 -15.4230 -15.4160 -15.3685
   -15.3367 -15.3172 -15.3115 -15.2994 -15.2365 -15.2286 -15.2247 -15.2176
   -15.1682 -15.1646 -15.0736 -15.0707 -15.0585 -14.7701 -13.1878 -13.1878
    -9.5176  -6.8349  -4.9202  -3.2102  -3.1865  -3.1561  -3.1280  -2.9736
    -2.9055  -2.8922  -2.8697  -2.7925  -2.7511  -2.7299  -2.6892  -2.6783
    -2.6259  -2.5993  -2.5718  -2.5558  -2.5513  -2.5348  -2.5139  -2.4796
    -2.4510  -2.4481  -2.4376  -2.3973  -2.3701  -2.3563  -2.3223  -2.3127
    -2.3053  -2.2757  -2.2160  -2.1100  -2.0860  -2.0540  -1.9599  -1.9265
    -1.9217  -1.8415  -1.8112  -1.7530  -1.7500  -1.7389  -1.5923  -1.5102
    -1.4671  -1.4645  -1.4424  -1.3154  -1.3060  -1.2213  -1.1988  -1.1892
    -1.1005  -1.0761  -1.0383  -1.0129  -0.9303  -0.9051  -0.8392  -0.7510
    -0.7147  -0.7066  -0.6750  -0.6722  -0.6230  -0.6116  -0.5305  -0.4882
    -0.4520  -0.4418  -0.4008  -0.2160  -0.1991  -0.1561  -0.0276   0.0181
     0.1502   0.1678   0.2325   0.3090   0.3411   0.3954   0.4315   0.5776
     0.5874   0.6197   0.6641   0.6735   0.7333   0.7424   1.6777   1.6783
     1.7663   1.7665   3.3976   3.6243   3.6310   3.6700   3.6928   3.8454
     3.8962   3.9342   3.9597   3.9649   3.9807

     the Fermi energy is     3.4435 ev

!    total energy              =   -2920.25698726 Ry
     estimated scf accuracy    <       0.00000004 Ry
     smearing contrib. (-TS)   =      -0.04299951 Ry
     internal energy E=F+TS    =   -2920.21398775 Ry

     The total energy is F=E-TS. E is the sum of the following terms:
     one-electron contribution =  -24044.01267059 Ry
     hartree contribution      =   12108.14183850 Ry
     xc contribution           =    -480.85720067 Ry
     ewald contribution        =    9496.51253993 Ry
     electric field correction =       0.00150508 Ry

     convergence has been achieved in  19 iterations

     Forces acting on atoms (cartesian axes, Ry/au):

     atom    1 type  1   force =     0.00007554   -0.00015458    0.09316787
     atom    2 type  1   force =    -0.00020889   -0.00024517   -0.17847659
     atom    3 type  2   force =     0.00003274   -0.00036795   -0.02007916
     atom    4 type  2   force =    -0.00002474   -0.00199221    0.05918498
     atom    5 type  2   force =    -0.01041056   -0.00113959    0.00789759
     atom    6 type  2   force =     0.01196248   -0.00052124    0.00732238
     atom    7 type  1   force =    -0.00041222    0.00230151   -0.01387411
     atom    8 type  1   force =     0.00002863   -0.00144579   -0.00476619
     atom    9 type  2   force =     0.00001262   -0.00029774   -0.00035734
     atom   10 type  2   force =    -0.00083523    0.00066131    0.00151428
     atom   11 type  2   force =     0.00012280   -0.00004248    0.00027758
     atom   12 type  2   force =    -0.00009547    0.00007573    0.00035721
     atom   13 type  1   force =    -0.00055383    0.00064352   -0.00006703
     atom   14 type  1   force =     0.00027836    0.00021609    0.00009468
     atom   15 type  2   force =    -0.00017193    0.00056616    0.00038748
     atom   16 type  2   force =    -0.00015381   -0.00007482   -0.00009639
     atom   17 type  2   force =    -0.00010521   -0.00004612   -0.00003203
     atom   18 type  2   force =    -0.00017996   -0.00012363   -0.00044642
     atom   19 type  1   force =    -0.00003770    0.00007359   -0.00016051
     atom   20 type  1   force =    -0.00007270   -0.00014629   -0.00009872
     atom   21 type  2   force =     0.00000626   -0.00000954    0.10399437
     atom   22 type  2   force =    -0.00000577    0.00041622    0.00069238
     atom   23 type  2   force =    -0.07037699   -0.00009957   -0.02689034
     atom   24 type  2   force =     0.07018243    0.00032910   -0.02694693
     atom   25 type  1   force =    -0.00001203   -0.00011978    0.09256164
     atom   26 type  1   force =    -0.00018248   -0.00038431   -0.17851493
     atom   27 type  2   force =     0.00008956   -0.00026107   -0.01916425
     atom   28 type  2   force =     0.00002428   -0.00175972    0.05850366
     atom   29 type  2   force =    -0.01089382   -0.00132169    0.00842996
     atom   30 type  2   force =     0.01234299   -0.00098248    0.00777979
     atom   31 type  1   force =    -0.00021989    0.00598319   -0.01474974
     atom   32 type  1   force =     0.00005081    0.00100237   -0.00534613
     atom   33 type  2   force =    -0.00031969    0.00024262    0.00014980
     atom   34 type  2   force =    -0.00022673   -0.00290237    0.00009722
     atom   35 type  2   force =     0.00063886    0.00021473   -0.00001801
     atom   36 type  2   force =    -0.00068405    0.00017914   -0.00024854
     atom   37 type  1   force =    -0.00058538   -0.00047573   -0.00008866
     atom   38 type  1   force =     0.00017342   -0.00050480    0.00013147
     atom   39 type  2   force =     0.00003672   -0.00022739    0.00035668
     atom   40 type  2   force =     0.00000973    0.00044551   -0.00057131
     atom   41 type  2   force =    -0.00003325    0.00049721   -0.00017626
     atom   42 type  2   force =     0.00009893    0.00056765   -0.00016622
     atom   43 type  1   force =    -0.00007915    0.00031154   -0.00074373
     atom   44 type  1   force =    -0.00053693   -0.00025790    0.00004653
     atom   45 type  2   force =    -0.00000136   -0.00002048    0.10396146
     atom   46 type  2   force =    -0.07035405   -0.00004487   -0.02685600
     atom   47 type  2   force =     0.07017800    0.00038380   -0.02689984
     atom   48 type  3   force =    -0.00083473   -0.00018865    0.00017700
     atom   49 type  4   force =     0.00130573   -0.00032103   -0.00096400
     atom   50 type  5   force =     0.00025422   -0.00011313   -0.00047709
     atom   51 type  5   force =    -0.00030476    0.00060569    0.00009611
     atom   52 type  5   force =     0.00052819   -0.00025610    0.00021948
     atom   53 type  5   force =     0.00048001    0.00113151   -0.00012513

     Total force =     0.366400     Total SCF correction =     0.000601
  @ DRIVER MODE: Message from server: STATUS
  @ DRIVER MODE: Message from server: GETFORCE
  @ DRIVER MODE: Returning v,forces,stress,ensemble

     Writing output data file ./calc.save/
  @ DRIVER MODE: Message from server: STATUS
  @ DRIVER MODE: Message from server: INIT
  @ DRIVER MODE: Receiving replica           0           0
  @ DRIVER MODE: Receiving encoded integer           2
  @ DRIVER MODE:  SCF:  T  FORCE:  T  STRESS:  F  VC:  F  ENSEMBLE:  F
  @ DRIVER MODE:  SCF:  F  FORCE:  F  STRESS:  F  VC:  F  ENSEMBLE:  T
  @ DRIVER MODE: Message from server: STATUS
  @ DRIVER MODE: Message from server: POSDATA
  @ DRIVER MODE: Reading and sharing positions
  @ DRIVER MODE: Received positions
     NEW-OLD atomic charge density approx. for the potential

[...]

     Adding external electric field

     Computed dipole along edir(3) :
        Dipole                0.8931 Ry au,          2.2699 Debye
        Dipole field          0.0017 Ry au,

        Potential amp.       -0.1562 Ry
        Total length         46.3494 bohr

  @ DRIVER MODE: BEEF-vdw

[...]

     negative rho (up, down):  1.610E-02 0.000E+00

     negative rho (up, down):  1.610E-02 0.000E+00
 BEEFens 2000 ensemble energies
             -0.345173838661072E+02
             -0.200999314044736E+01
             -0.711352310982812E+01
              0.239547035401978E+02
             -0.118655705548657E+02
             -0.917335097263523E+01
             -0.239468112094735E+02
             -0.500712792417782E+02
             -0.213755092095527E+02
             -0.224953155601768E+02
             -0.209004814383355E+02
              0.424793444033486E+01
              0.198659781245190E+01
             -0.106205362572466E+01
              0.171789031280869E+01
              0.263907757378087E+02
             -0.101601836007719E+02
             -0.716757101565166E+01
              0.116813958476600E+02
             -0.616442166081499E+02
              0.309005511658913E+02
             -0.132601057630550E+02
             -0.238913145980324E+01
             -0.557608101200393E+01
             -0.960682642464576E+00
             -0.210835483563744E+01
              0.477955956332153E+02
             -0.149825436703699E+02
             -0.399167153185635E+01
             -0.302291253811702E+02
              0.390562440767180E+02
             -0.431487144061721E+01
             -0.212553341777166E+02
              0.111695087629547E+02
             -0.204466702446828E+01
              0.129596164355214E+02
             -0.541576521766046E+00
              0.271694819137905E+01
              0.188556730936689E+02
             -0.543885620845066E+02
              0.303152955021994E+02
              0.809867547648709E+01
             -0.623836255685302E+01
             -0.173979300856563E+02
              0.686653873493736E+01
             -0.109153566504390E+02
              0.247771836868122E+02
              0.198000438026921E+02
             -0.127626624202433E+02
             -0.162863572508413E+02
             -0.172233922532170E+02
             -0.207062999039288E+02
              0.105214889527548E+02
             -0.269523987581871E+02
              0.825952340147620E+01
              0.344612889352808E+02
              0.397229562708199E+02
              0.185046096566889E+02
              0.825466757966969E+01
              0.172747333654148E+02
[...]
             -0.406140678825985E+02
              0.277641990743513E+01
             -0.145223924087828E+01
             -0.565462926480063E+01
              0.427162665494620E-01
             -0.361517180153439E+02
             -0.697079892199402E+01
              0.489796904114044E+01
              0.739410027257072E+01
              0.270983432481147E+02
             -0.236906594880693E+02
              0.308974188374552E+02
             -0.221331049203531E+02
              0.142343657589622E+02
              0.223857657132997E+02

 BEEF-vdW xc energy contributions
           1 :   -407.428259532335
           2 :    354.950039380040
           3 :   -270.270147284971
           4 :    181.918696377746
           5 :   -112.594450067531
           6 :    71.2330464666848
           7 :   -54.0250560618694
           8 :    50.9493010875786
           9 :   -52.6450374338538
          10 :    53.9149458261285
          11 :   -53.5063256679215
          12 :    51.9474403815007
          13 :   -49.6777268734701
          14 :    46.4905735712586
          15 :   -42.0555748333767
          16 :    36.5826405097476
          17 :   -30.9823831137485
          18 :    26.4293157251196
          19 :   -23.7483213565718
          20 :    23.0527306037270
          21 :   -23.8315378267980
          22 :    25.3119954136783
          23 :   -26.8021437566073
          24 :    27.8197317542932
          25 :   -28.0569511288193
          26 :    27.3276840872564
          27 :   -25.5971305693878
          28 :    23.0596207389307
          29 :   -20.1697193763495
          30 :    17.5409184681271
          31 :   -47.8716752241909
          32 :   -32.4983564663188
  @ DRIVER MODE: Message from server: STATUS
  @ DRIVER MODE: Message from server: GETFORCE
  @ DRIVER MODE: Returning v,forces,stress,ensemble
  @ DRIVE MODE: Returning Ensemble Energies

     Writing output data file ./calc.save/
  @ DRIVER MODE: Message from server: EXIT
  @ DRIVE MODE: Exiting

     General routines

     Parallel routines

   This run was terminated on:  18:38:45  19Aug2021

   JOB DONE.