     Program PWSCF v.6.7GPU starts on  2Aug2021 at 12:22:55

     R & G space division:  proc/nbgrp/npool/nimage =      16
     Reading input from /storage/home/hcoda1/3/ntian30/research/carbon/02Aug_vib_paired/ads_slab/CH3NHHH_a/out_0001/pw.inp
Warning: card &CELL ignored
Warning: card   CELL_DYNAMICS='IPI', ignored
Warning: card / ignored

     Current dimensions of program PWSCF are:
     Max number of different atomic species (ntypx) = 10
     Max number of k-points (npk) =  40000
     Max angular momentum in pseudopotentials (lmaxx) =  3
     Presently no symmetry can be used with electric field

     Message from routine cell_base_init:
     DEPRECATED: use true lattice parameter, not A to a.u. conversion factor

     IMPORTANT: XC functional enforced from input :
     Exchange-correlation= BEEF-VDW
                           (   1   4  43  14   2   0   0)
     Any further DFT definition will be discarded
     Please, verify this is what you really want

  @ DRIVER MODE: Connecting to
 qe_1139763_2482537.sched-torque.pace.gatech.eduytr0eyhm_scratch
  using UNIX socket
  @ DRIVER MODE: Message from server: STATUS
  @ DRIVER MODE: Message from server: INIT
  @ DRIVER MODE: Receiving replica           0          -1
  @ DRIVER MODE: Receiving encoded integer          25
  @ DRIVER MODE:  SCF:  T  FORCE:  T  STRESS:  F  VC:  F  ENSEMBLE:  F
  @ DRIVER MODE:  SCF:  T  FORCE:  T  STRESS:  F  VC:  F  ENSEMBLE:  F

     Using Slab Decomposition

     bravais-lattice index     =            0
     lattice parameter (alat)  =       1.8897  a.u.
     unit-cell volume          =    6658.9804 (a.u.)^3
     number of atoms/cell      =           55
     number of atomic types    =            5
     number of electrons       =       393.00
     number of Kohn-Sham states=          206
     kinetic-energy cutoff     =      29.3995  Ry
     charge density cutoff     =     293.9946  Ry
     scf convergence threshold =      7.3E-08
     mixing beta               =       0.0500
     number of iterations used =            8  plain     mixing
     Exchange-correlation= BEEF-VDW
                           (   1   4  43  14   2   0   0)

     celldm(1)=   1.889726  celldm(2)=   0.000000  celldm(3)=   0.000000
     celldm(4)=   0.000000  celldm(5)=   0.000000  celldm(6)=   0.000000

     crystal axes: (cart. coord. in units of alat)
               a(1) = (   6.579727   0.000000   0.000000 )
               a(2) = (  -0.000775   5.961596   0.000000 )
               a(3) = (   0.000000   0.000000  25.155947 )

     reciprocal axes: (cart. coord. in units 2 pi/alat)
               b(1) = (  0.151982  0.000020  0.000000 )
               b(2) = (  0.000000  0.167740  0.000000 )
               b(3) = (  0.000000  0.000000  0.039752 )

     PseudoPot. # 1 for Ti read from file:
     /storage/coda1/p-amedford6/0/shared/rich_project_chbe-medford/medford-share/data/pseudos_module/espresso/nninc/pbe/van/Ti.UPF
     MD5 check sum: 8e4df49b7f0d34bbd5052bf3f5ea0213
     Pseudo is Ultrasoft, Zval = 12.0
     Generated by new atomic code, or converted to UPF format
     Using radial grid of  851 points,  6 beta functions with:
                l(1) =   0
                l(2) =   0
                l(3) =   1
                l(4) =   1
                l(5) =   2
                l(6) =   2
     Q(r) pseudized with  8 coefficients,  rinner =    1.000   1.000   1.000
                                                       1.000   1.000

     PseudoPot. # 2 for O  read from file:
     /storage/coda1/p-amedford6/0/shared/rich_project_chbe-medford/medford-share/data/pseudos_module/espresso/nninc/pbe/van/O.UPF
     MD5 check sum: 78c19812648e8988a0fe644b0f25305e
     Pseudo is Ultrasoft, Zval =  6.0
     Generated by new atomic code, or converted to UPF format
     Using radial grid of  737 points,  4 beta functions with:
                l(1) =   0
                l(2) =   0
                l(3) =   1
                l(4) =   1
     Q(r) pseudized with  8 coefficients,  rinner =    0.800   0.800   0.800

     PseudoPot. # 3 for N  read from file:
     /storage/coda1/p-amedford6/0/shared/rich_project_chbe-medford/medford-share/data/pseudos_module/espresso/nninc/pbe/van/N.UPF
     MD5 check sum: 90d10febe142ad51ac9d5be1deb811c4
     Pseudo is Ultrasoft, Zval =  5.0
     Generated by new atomic code, or converted to UPF format
     Using radial grid of  729 points,  4 beta functions with:
                l(1) =   0
                l(2) =   0
                l(3) =   1
                l(4) =   1
     Q(r) pseudized with  8 coefficients,  rinner =    0.800   0.800   0.800

     PseudoPot. # 4 for C  read from file:
     /storage/coda1/p-amedford6/0/shared/rich_project_chbe-medford/medford-share/data/pseudos_module/espresso/nninc/pbe/van/C.UPF
     MD5 check sum: 1a69bf6b8db32088f5b2163dbdb77a27
     Pseudo is Ultrasoft, Zval =  4.0
     Generated by new atomic code, or converted to UPF format
     Using radial grid of  721 points,  4 beta functions with:
                l(1) =   0
                l(2) =   0
                l(3) =   1
                l(4) =   1
     Q(r) pseudized with  8 coefficients,  rinner =    0.800   0.800   0.800

     PseudoPot. # 5 for H  read from file:
     /storage/coda1/p-amedford6/0/shared/rich_project_chbe-medford/medford-share/data/pseudos_module/espresso/nninc/pbe/van/H.UPF
     MD5 check sum: b5ee9d7bfd3a09ee7748110bda690ff7
     Pseudo is Ultrasoft, Zval =  1.0
     Generated by new atomic code, or converted to UPF format
     Using radial grid of  615 points,  1 beta functions with:
                l(1) =   0
     Q(r) pseudized with  8 coefficients,  rinner =    0.800

     atomic species   valence    mass     pseudopotential
        Ti1           12.00    47.86700     Ti( 1.00)
        O1             6.00    15.99900     O ( 1.00)
        N1             5.00    14.00700     N ( 1.00)
        C1             4.00    12.01100     C ( 1.00)
        H1             1.00     1.00800     H ( 1.00)

     No symmetry found

   Cartesian axes

     site n.     atom                  positions (alat units)
         1           Ti1 tau(   1) = (   0.0004258   2.9801865   6.0000000  )
         2           Ti1 tau(   2) = (   3.2906075   1.4906267   6.0002472  )
         3           O1  tau(   3) = (   0.0006271   0.0005054   7.9858123  )
         4           O1  tau(   4) = (   3.2906025   0.0005020   7.3038282  )
         5           O1  tau(   5) = (   4.5942328   1.4918067   9.2879030  )
         6           O1  tau(   6) = (   1.9868534   1.4903216   9.2879459  )
         7           Ti1 tau(   7) = (   3.2907910   2.8959150   9.1758416  )
         8           Ti1 tau(   8) = (   0.0015273   1.4827037   9.2680791  )
         9           O1  tau(   9) = (   3.2636084   5.9406443  11.4082010  )
        10           O1  tau(  10) = (   0.0116148   5.9584955  10.6183126  )
        11           O1  tau(  11) = (   1.2642105   1.4849797  12.6947803  )
        12           O1  tau(  12) = (   5.2691575   1.4821021  12.6650678  )
        13           Ti1 tau(  13) = (   6.5574234   2.9640577  12.4921542  )
        14           Ti1 tau(  14) = (   3.2619390   1.4709553  12.5527290  )
        15           O1  tau(  15) = (   6.5247406   5.9594380  14.6832748  )
        16           O1  tau(  16) = (   3.2695906   5.9428997  14.0562986  )
        17           O1  tau(  17) = (   4.5175969   1.4707097  16.2986306  )
        18           O1  tau(  18) = (   1.9406912   1.4777946  16.2473769  )
        19           Ti1 tau(  19) = (   3.2491105   2.9422209  15.8109686  )
        20           Ti1 tau(  20) = (   6.5361480   1.3378720  15.9626387  )
        21           O1  tau(  21) = (   3.2904802   0.0005063   4.7018136  )
        22           O1  tau(  22) = (   6.5280740   5.8897732  17.4332532  )
        23           O1  tau(  23) = (   1.3043587   1.4918075   6.0039043  )
        24           O1  tau(  24) = (   5.2767064   1.4903225   6.0039473  )
        25           Ti1 tau(  25) = (   0.0000382   5.9609847   6.0000000  )
        26           Ti1 tau(  26) = (   3.2902200   4.4714249   6.0002472  )
        27           O1  tau(  27) = (   0.0002396   2.9813036   7.9858123  )
        28           O1  tau(  28) = (   3.2902150   2.9813002   7.3038282  )
        29           O1  tau(  29) = (   4.5938453   4.4726049   9.2879030  )
        30           O1  tau(  30) = (   1.9864658   4.4711199   9.2879459  )
        31           Ti1 tau(  31) = (   3.2891106   5.8743827   9.1763621  )
        32           Ti1 tau(  32) = (   0.0006254   4.4649316   9.2693709  )
        33           O1  tau(  33) = (   3.2649920   2.9642658  11.3997388  )
        34           O1  tau(  34) = (   0.0092240   2.9805883  10.6323155  )
        35           O1  tau(  35) = (   1.2634527   4.4478426  12.7061968  )
        36           O1  tau(  36) = (   5.2693862   4.4495813  12.6755241  )
        37           Ti1 tau(  37) = (   6.5522441   5.9483113  12.5008436  )
        38           Ti1 tau(  38) = (   3.2626494   4.4468850  12.5575576  )
        39           O1  tau(  39) = (   6.4970557   2.9363996  15.0046851  )
        40           O1  tau(  40) = (   3.2722650   2.9529576  14.0194401  )
        41           O1  tau(  41) = (   4.5170401   4.4205294  16.2730734  )
        42           O1  tau(  42) = (   1.9466746   4.4191161  16.2235312  )
        43           Ti1 tau(  43) = (   3.2419262   5.9323414  15.8513663  )
        44           Ti1 tau(  44) = (   6.5549466   4.5556212  15.8889459  )
        45           O1  tau(  45) = (   3.2900926   2.9813045   4.7018136  )
        46           O1  tau(  46) = (   1.3039711   4.4726057   6.0039043  )
        47           O1  tau(  47) = (   5.2763189   4.4711207   6.0039473  )
        48           N1  tau(  48) = (   4.8557738   4.5798987  19.4796958  )
        49           C1  tau(  49) = (   5.7271871   3.4329544  19.8049648  )
        50           H1  tau(  50) = (   6.3241292   3.1721029  18.9298488  )
        51           H1  tau(  51) = (   6.4229137   3.7195585  20.5942015  )
        52           H1  tau(  52) = (   5.1874390   2.5328885  20.1195193  )
        53           H1  tau(  53) = (   5.9066942   5.7389963  18.1772939  )
        54           H1  tau(  54) = (   4.2103208   4.3266459  18.7469397  )
        55           H1  tau(  55) = (   4.3187305   4.8545830  20.2870342  )

     number of k points=    10  Fermi-Dirac smearing, width (Ry)=  0.0073
                       cart. coord. in units 2pi/alat
        k(    1) = (   0.0000000   0.0000000   0.0000000), wk =   0.1250000
        k(    2) = (   0.0000000   0.0419351   0.0000000), wk =   0.2500000
        k(    3) = (   0.0000000  -0.0838702   0.0000000), wk =   0.1250000
        k(    4) = (   0.0379955   0.0000049   0.0000000), wk =   0.2500000
        k(    5) = (   0.0379955   0.0419400   0.0000000), wk =   0.2500000
        k(    6) = (   0.0379955  -0.0838652   0.0000000), wk =   0.2500000
        k(    7) = (   0.0379955  -0.0419301   0.0000000), wk =   0.2500000
        k(    8) = (  -0.0759910  -0.0000099   0.0000000), wk =   0.1250000
        k(    9) = (  -0.0759910   0.0419252   0.0000000), wk =   0.2500000
        k(   10) = (  -0.0759910  -0.0838800   0.0000000), wk =   0.1250000

     Initial potential from superposition of free atoms

     starting charge  376.99914, renormalised to  393.00000

     negative rho (up, down):  1.329E-02 0.000E+00

     %%%%%%%%%%%%%%%%%%%%%%%%%%%%%%%%%%%%%%%%%%%%%%%%%%%%%%%%%%%%%%%%%%%%%%%%
     %                                                                      %
     % You are using vdW-DF, which was implemented by the Thonhauser group. %
     % Please cite the following two papers that made this development      %
     % possible and the two reviews that describe the various versions:     %
     %                                                                      %
     %   T. Thonhauser et al., PRL 115, 136402 (2015).                      %
     %   T. Thonhauser et al., PRB 76, 125112 (2007).                       %
     %   K. Berland et al., Rep. Prog. Phys. 78, 066501 (2015).             %
     %   D.C. Langreth et al., J. Phys.: Condens. Matter 21, 084203 (2009). %
     %                                                                      %
     %                                                                      %
     % If you are calculating the stress with vdW-DF, please also cite:     %
     %                                                                      %
     %   R. Sabatini et al., J. Phys.: Condens. Matter 24, 424209 (2012).   %
     %                                                                      %
     %%%%%%%%%%%%%%%%%%%%%%%%%%%%%%%%%%%%%%%%%%%%%%%%%%%%%%%%%%%%%%%%%%%%%%%%

     Adding external electric field

     Computed dipole along edir(3) :
        Dipole               -9.4918 Ry au,        -24.1257 Debye
        Dipole field         -0.0179 Ry au,

        Potential amp.        1.6604 Ry
        Total length         46.3494 bohr

     Starting wfcs are  298 atomic wfcs
  @ DRIVER MODE: Message from server: STATUS
  @ DRIVER MODE: Message from server: POSDATA
  @ DRIVER MODE: Reading and sharing cell
  @ DRIVER MODE: Reading and sharing positions
  @ DRIVER MODE: Received positions

     Self-consistent Calculation

     iteration #  1     ecut=    29.40 Ry     beta= 0.05
     Davidson diagonalization with overlap
     c_bands:  2 eigenvalues not converged
     c_bands:  1 eigenvalues not converged
     c_bands:  2 eigenvalues not converged
     c_bands:  3 eigenvalues not converged
     c_bands:  3 eigenvalues not converged
     c_bands:  1 eigenvalues not converged
     ethr =  1.00E-05,  avg # of iterations = 18.9

[...]

     total energy              =   -2620.43820390 Ry
     estimated scf accuracy    <    3390.21395752 Ry

[...]

     iteration #  3     ecut=    29.40 Ry     beta= 0.05
     Davidson diagonalization with overlap
     ethr =  1.00E-02,  avg # of iterations = 14.9

[...]

     iteration # 71     ecut=    29.40 Ry     beta= 0.05
     Davidson diagonalization with overlap
     ethr =  6.98E-11,  avg # of iterations = 12.7

[...]

     total energy              =   -2922.77362493 Ry
     estimated scf accuracy    <       0.00000010 Ry

     iteration # 72     ecut=    29.40 Ry     beta= 0.05
     Davidson diagonalization with overlap
     c_bands:  1 eigenvalues not converged
     c_bands:  1 eigenvalues not converged
     ethr =  2.57E-11,  avg # of iterations = 11.9

     negative rho (up, down):  1.445E-02 0.000E+00

     Adding external electric field

     Computed dipole along edir(3) :
        Dipole                1.4040 Ry au,          3.5687 Debye
        Dipole field          0.0026 Ry au,

        Potential amp.       -0.2456 Ry
        Total length         46.3494 bohr

     End of self-consistent calculation

          k = 0.0000 0.0000 0.0000 ( 18029 PWs)   bands (ev):

   -55.3091 -55.2732 -55.2572 -55.2231 -55.1730 -55.1490 -55.1482 -55.1387
   -55.1145 -55.0845 -55.0737 -55.0506 -55.0318 -54.9737 -54.3012 -54.2671
   -31.8761 -31.7515 -31.6894 -31.6614 -31.6369 -31.6161 -31.5915 -31.5511
   -31.5468 -31.5453 -31.5163 -31.5053 -31.5012 -31.4767 -31.4661 -31.4611
   -31.4477 -31.4377 -31.4102 -31.4019 -31.3977 -31.3812 -31.3727 -31.3556
   -31.3530 -31.3155 -31.3145 -31.3053 -31.3032 -31.2900 -31.2852 -31.2832
   -31.2766 -31.2758 -31.2607 -31.2577 -31.2255 -31.2118 -31.2008 -31.1952
   -31.1825 -31.1075 -30.7114 -30.6150 -30.5930 -30.5274 -30.4406 -30.3300
   -16.8262 -16.1481 -15.8918 -15.7710 -15.6617 -15.5780 -15.5210 -15.4421
   -15.3583 -15.2577 -15.1963 -15.0914 -15.0566 -15.0171 -15.0021 -14.9833
   -14.9564 -14.8763 -14.8653 -14.8547 -14.8291 -14.8106 -14.7824 -14.7737
   -14.7669 -14.7276 -14.6901 -14.5780 -14.4875 -14.4018 -12.8042 -12.6864
   -10.0269  -5.8973  -4.7374  -4.3892  -3.5200  -3.4757  -3.3439  -3.2392
    -3.2053  -3.1977  -3.0764  -2.8937  -2.7984  -2.7717  -2.7196  -2.6305
    -2.5346  -2.5307  -2.4903  -2.3901  -2.3521  -2.3256  -2.2422  -2.2157
    -2.1693  -2.1181  -2.1080  -2.1048  -2.0842  -2.0440  -2.0052  -1.8862
    -1.8014  -1.7796  -1.7060  -1.6897  -1.6836  -1.6554  -1.6123  -1.5930
    -1.5439  -1.5269  -1.4861  -1.4175  -1.3562  -1.2741  -1.2372  -1.2002
    -0.9944  -0.9651  -0.9147  -0.9122  -0.8840  -0.8154  -0.7863  -0.7564
    -0.6899  -0.6880  -0.6594  -0.5531  -0.5103  -0.3893  -0.3187  -0.2393
    -0.1174  -0.1043  -0.0803  -0.0308  -0.0071   0.0524   0.1125   0.1491
     0.1885   0.2012   0.2885   0.3185   0.3956   0.4110   0.4515   0.5111
     0.5287   0.5540   0.5756   0.5835   0.6174   0.6332   0.6674   0.7340
     0.7661   0.8674   0.9162   1.2000   1.2855   1.5943   1.6177   1.7212
     1.9025   2.2997   2.3488   3.7853   3.8465   3.8870   3.9296   3.9333
     4.0150   4.1454   4.2884   4.2981   4.3091   4.3160

[...]

          k = 0.0380-0.0419 0.0000 ( 17876 PWs)   bands (ev):

[...]

          k =-0.0760-0.0000 0.0000 ( 17886 PWs)   bands (ev):

[...]

          k =-0.0760-0.0839 0.0000 ( 17948 PWs)   bands (ev):

   -55.2925 -55.2896 -55.2405 -55.2396 -55.1564 -55.1553 -55.1441 -55.1338
   -55.1294 -55.0775 -55.0687 -55.0663 -55.0248 -54.9808 -54.2841 -54.2840
   -31.6838 -31.6787 -31.5887 -31.5831 -31.5668 -31.5662 -31.5574 -31.5309
   -31.5301 -31.5098 -31.5049 -31.5030 -31.4898 -31.4636 -31.4587 -31.4575
   -31.4317 -31.4311 -31.4246 -31.4039 -31.3811 -31.3791 -31.3689 -31.3650
   -31.3643 -31.3600 -31.3593 -31.3508 -31.3490 -31.3430 -31.3392 -31.3240
   -31.3213 -31.3083 -31.3053 -31.2942 -31.2656 -31.2484 -31.2465 -31.2440
   -31.2270 -31.1739 -30.6057 -30.6056 -30.5239 -30.5238 -30.4841 -30.4840
   -16.7648 -15.8210 -15.5797 -15.5403 -15.4998 -15.4052 -15.3314 -15.3005
   -15.2903 -15.2773 -15.1511 -15.1230 -15.1135 -15.0854 -15.0535 -15.0291
   -15.0253 -14.9903 -14.9333 -14.9271 -14.9193 -14.9110 -14.8473 -14.8391
   -14.8353 -14.8285 -14.7628 -14.7604 -14.6786 -14.6766 -12.7878 -12.7878
   -10.0364  -5.8976  -4.8663  -4.3694  -3.5327  -2.8247  -2.7971  -2.7492
    -2.7334  -2.6136  -2.5283  -2.5009  -2.4644  -2.4065  -2.3542  -2.3069
    -2.3048  -2.2691  -2.2495  -2.2310  -2.1872  -2.1653  -2.1430  -2.1247
    -2.1100  -2.0563  -2.0534  -2.0443  -2.0201  -1.9858  -1.9685  -1.9551
    -1.9387  -1.9205  -1.8949  -1.8757  -1.7328  -1.7119  -1.6715  -1.5543
    -1.5361  -1.5327  -1.4997  -1.4560  -1.4312  -1.4236  -1.3495  -1.3425
    -1.3105  -1.1530  -1.0806  -1.0788  -1.0556  -1.0316  -0.9364  -0.8850
    -0.8446  -0.7946  -0.7190  -0.6875  -0.6689  -0.5963  -0.5695  -0.4780
    -0.3886  -0.3617  -0.3535  -0.2760  -0.2745  -0.2411  -0.2280  -0.1590
    -0.0987  -0.0472  -0.0432  -0.0391   0.0894   0.1265   0.2066   0.3206
     0.4011   0.4094   0.4609   0.5211   0.6116   0.6514   0.6708   0.7878
     0.7897   0.9762   0.9795   1.0278   1.0428   1.1232   1.1284   2.0753
     2.0760   2.1684   2.1687   3.7605   3.9438   3.9979   4.0708   4.0962
     4.1944   4.2791   4.3129   4.3431   4.3653   4.3711

     the Fermi energy is     3.8538 ev

!    total energy              =   -2922.77364172 Ry
     estimated scf accuracy    <       0.00000006 Ry
     smearing contrib. (-TS)   =      -0.04551789 Ry
     internal energy E=F+TS    =   -2922.72812384 Ry

     The total energy is F=E-TS. E is the sum of the following terms:
     one-electron contribution =  -23201.57839992 Ry
     hartree contribution      =   11691.06879251 Ry
     xc contribution           =    -482.55248323 Ry
     ewald contribution        =    9070.33024666 Ry
     electric field correction =       0.00372014 Ry

     convergence has been achieved in  72 iterations

     Forces acting on atoms (cartesian axes, Ry/au):

     atom    1 type  1   force =     0.00016199   -0.00007849    0.09298394
     atom    2 type  1   force =    -0.00001129   -0.00014253   -0.17881044
     atom    3 type  2   force =     0.00002147   -0.00029895   -0.02020686
     atom    4 type  2   force =    -0.00000110   -0.00223606    0.06098849
     atom    5 type  2   force =    -0.01150340   -0.00127793    0.01054402
     atom    6 type  2   force =     0.01241523   -0.00058508    0.00810871
     atom    7 type  1   force =    -0.00123697    0.00346727   -0.01488925
     atom    8 type  1   force =     0.00122715   -0.00358653   -0.00846716
     atom    9 type  2   force =     0.00001656   -0.00004733   -0.00025703
     atom   10 type  2   force =    -0.00281421   -0.00048160    0.00152294
     atom   11 type  2   force =     0.00011314   -0.00023298   -0.00030462
     atom   12 type  2   force =     0.00001279    0.00008737   -0.00011201
     atom   13 type  1   force =    -0.00019442   -0.00031484   -0.00062495
     atom   14 type  1   force =    -0.00003430   -0.00004275    0.00018953
     atom   15 type  2   force =    -0.00011248   -0.00024158   -0.00012251
     atom   16 type  2   force =     0.00032301    0.00035065   -0.00010840
     atom   17 type  2   force =     0.00078000    0.00028888   -0.00027257
     atom   18 type  2   force =     0.00008911   -0.00027357   -0.00004456
     atom   19 type  1   force =     0.00025114    0.00045304   -0.00033389
     atom   20 type  1   force =     0.00010932    0.00009328    0.00046911
     atom   21 type  2   force =     0.00012525   -0.00003069    0.10427521
     atom   22 type  2   force =    -0.00059406    0.00003066    0.00047229
     atom   23 type  2   force =    -0.06991326   -0.00011060   -0.02679001
     atom   24 type  2   force =     0.06988727    0.00034816   -0.02679416
     atom   25 type  1   force =     0.00019030   -0.00020881    0.09226087
     atom   26 type  1   force =    -0.00007769   -0.00036688   -0.17901543
     atom   27 type  2   force =     0.00004220   -0.00025425   -0.01893511
     atom   28 type  2   force =     0.00006697   -0.00193062    0.06023466
     atom   29 type  2   force =    -0.01168902   -0.00162506    0.01033896
     atom   30 type  2   force =     0.01247605   -0.00120731    0.00786766
     atom   31 type  1   force =    -0.00101637    0.00608843   -0.01578516
     atom   32 type  1   force =     0.00116234    0.00333820   -0.00863217
     atom   33 type  2   force =     0.00003315    0.00019950   -0.00024250
     atom   34 type  2   force =    -0.00240748   -0.00053302    0.00057582
     atom   35 type  2   force =    -0.00000430   -0.00000172    0.00003961
     atom   36 type  2   force =     0.00005054   -0.00007777    0.00035241
     atom   37 type  1   force =     0.00035081   -0.00003876   -0.00003119
     atom   38 type  1   force =    -0.00034394   -0.00030413    0.00044547
     atom   39 type  2   force =     0.00037297   -0.00015488    0.00062545
     atom   40 type  2   force =     0.00025212   -0.00017460    0.00003694
     atom   41 type  2   force =     0.00005491    0.00034411   -0.00039005
     atom   42 type  2   force =     0.00050936    0.00022111   -0.00019596
     atom   43 type  1   force =     0.00026302   -0.00018329   -0.00026782
     atom   44 type  1   force =     0.00014747   -0.00131582    0.00058886
     atom   45 type  2   force =     0.00011833   -0.00005349    0.10422162
     atom   46 type  2   force =    -0.06992696   -0.00005515   -0.02678278
     atom   47 type  2   force =     0.06991734    0.00035063   -0.02680225
     atom   48 type  3   force =     0.01954922   -0.00398196    0.00040049
     atom   49 type  4   force =    -0.00358143    0.00428494   -0.00160067
     atom   50 type  5   force =    -0.00038976    0.00069089   -0.00024504
     atom   51 type  5   force =    -0.00121622    0.00047843    0.00005141
     atom   52 type  5   force =     0.00024547   -0.00035845    0.00027776
     atom   53 type  5   force =     0.00002776    0.00085360   -0.00116459
     atom   54 type  5   force =    -0.00788583   -0.00197373   -0.00650518
     atom   55 type  5   force =    -0.00640926    0.00281203    0.00686210

     Total force =     0.368444     Total SCF correction =     0.000692
  @ DRIVER MODE: Message from server: STATUS
  @ DRIVER MODE: Message from server: GETFORCE
  @ DRIVER MODE: Returning v,forces,stress,ensemble

     Writing output data file ./calc.save/
  @ DRIVER MODE: Message from server: EXIT
  @ DRIVE MODE: Exiting

     General routines

     Parallel routines

   This run was terminated on:  12:42:33   2Aug2021

   JOB DONE.