     Program PWSCF v.6.7GPU starts on 23Sep2021 at  1:33: 2

     R & G space division:  proc/nbgrp/npool/nimage =      10
     Reading input from /storage/home/hcoda1/3/ntian30/research/carbon/CxH_vib/H2O_calc/ads_slab/CH2N2HHO_a/out_0027/pw.inp
Warning: card &CELL ignored
Warning: card   CELL_DYNAMICS='IPI', ignored
Warning: card / ignored

     Current dimensions of program PWSCF are:
     Max number of different atomic species (ntypx) = 10
     Max number of k-points (npk) =  40000
     Max angular momentum in pseudopotentials (lmaxx) =  3
     Presently no symmetry can be used with electric field

     Message from routine cell_base_init:
     DEPRECATED: use true lattice parameter, not A to a.u. conversion factor

     IMPORTANT: XC functional enforced from input :
     Exchange-correlation= BEEF-VDW
                           (   1   4  43  14   2   0   0)
     Any further DFT definition will be discarded
     Please, verify this is what you really want

  @ DRIVER MODE: Connecting to
 qe_1139763_2937323.sched-torque.pace.gatech.edud22goqwf_scratch
  using UNIX socket
  @ DRIVER MODE: Message from server: STATUS
  @ DRIVER MODE: Message from server: INIT
  @ DRIVER MODE: Receiving replica           0          -1
  @ DRIVER MODE: Receiving encoded integer          25
  @ DRIVER MODE:  SCF:  T  FORCE:  T  STRESS:  F  VC:  F  ENSEMBLE:  F
  @ DRIVER MODE:  SCF:  T  FORCE:  T  STRESS:  F  VC:  F  ENSEMBLE:  F

     Using Slab Decomposition

     bravais-lattice index     =            0
     lattice parameter (alat)  =       1.8897  a.u.
     unit-cell volume          =    6658.9804 (a.u.)^3
     number of atoms/cell      =           55
     number of atomic types    =            5
     number of electrons       =       402.00
     number of Kohn-Sham states=          211
     kinetic-energy cutoff     =      29.3995  Ry
     charge density cutoff     =     293.9946  Ry
     scf convergence threshold =      7.3E-08
     mixing beta               =       0.0500
     number of iterations used =            8  plain     mixing
     Exchange-correlation= BEEF-VDW
                           (   1   4  43  14   2   0   0)

     celldm(1)=   1.889726  celldm(2)=   0.000000  celldm(3)=   0.000000
     celldm(4)=   0.000000  celldm(5)=   0.000000  celldm(6)=   0.000000

     crystal axes: (cart. coord. in units of alat)
               a(1) = (   6.579727   0.000000   0.000000 )
               a(2) = (  -0.000775   5.961596   0.000000 )
               a(3) = (   0.000000   0.000000  25.155947 )

     reciprocal axes: (cart. coord. in units 2 pi/alat)
               b(1) = (  0.151982  0.000020  0.000000 )
               b(2) = (  0.000000  0.167740  0.000000 )
               b(3) = (  0.000000  0.000000  0.039752 )

     PseudoPot. # 1 for Ti read from file:
     /storage/coda1/p-amedford6/0/shared/rich_project_chbe-medford/medford-share/data/pseudos_module/espresso/nninc/pbe/van/Ti.UPF
     MD5 check sum: 8e4df49b7f0d34bbd5052bf3f5ea0213
     Pseudo is Ultrasoft, Zval = 12.0
     Generated by new atomic code, or converted to UPF format
     Using radial grid of  851 points,  6 beta functions with:
                l(1) =   0
                l(2) =   0
                l(3) =   1
                l(4) =   1
                l(5) =   2
                l(6) =   2
     Q(r) pseudized with  8 coefficients,  rinner =    1.000   1.000   1.000
                                                       1.000   1.000

     PseudoPot. # 2 for O  read from file:
     /storage/coda1/p-amedford6/0/shared/rich_project_chbe-medford/medford-share/data/pseudos_module/espresso/nninc/pbe/van/O.UPF
     MD5 check sum: 78c19812648e8988a0fe644b0f25305e
     Pseudo is Ultrasoft, Zval =  6.0
     Generated by new atomic code, or converted to UPF format
     Using radial grid of  737 points,  4 beta functions with:
                l(1) =   0
                l(2) =   0
                l(3) =   1
                l(4) =   1
     Q(r) pseudized with  8 coefficients,  rinner =    0.800   0.800   0.800

     PseudoPot. # 3 for N  read from file:
     /storage/coda1/p-amedford6/0/shared/rich_project_chbe-medford/medford-share/data/pseudos_module/espresso/nninc/pbe/van/N.UPF
     MD5 check sum: 90d10febe142ad51ac9d5be1deb811c4
     Pseudo is Ultrasoft, Zval =  5.0
     Generated by new atomic code, or converted to UPF format
     Using radial grid of  729 points,  4 beta functions with:
                l(1) =   0
                l(2) =   0
                l(3) =   1
                l(4) =   1
     Q(r) pseudized with  8 coefficients,  rinner =    0.800   0.800   0.800

     PseudoPot. # 4 for C  read from file:
     /storage/coda1/p-amedford6/0/shared/rich_project_chbe-medford/medford-share/data/pseudos_module/espresso/nninc/pbe/van/C.UPF
     MD5 check sum: 1a69bf6b8db32088f5b2163dbdb77a27
     Pseudo is Ultrasoft, Zval =  4.0
     Generated by new atomic code, or converted to UPF format
     Using radial grid of  721 points,  4 beta functions with:
                l(1) =   0
                l(2) =   0
                l(3) =   1
                l(4) =   1
     Q(r) pseudized with  8 coefficients,  rinner =    0.800   0.800   0.800

     PseudoPot. # 5 for H  read from file:
     /storage/coda1/p-amedford6/0/shared/rich_project_chbe-medford/medford-share/data/pseudos_module/espresso/nninc/pbe/van/H.UPF
     MD5 check sum: b5ee9d7bfd3a09ee7748110bda690ff7
     Pseudo is Ultrasoft, Zval =  1.0
     Generated by new atomic code, or converted to UPF format
     Using radial grid of  615 points,  1 beta functions with:
                l(1) =   0
     Q(r) pseudized with  8 coefficients,  rinner =    0.800

     atomic species   valence    mass     pseudopotential
        Ti1           12.00    47.86700     Ti( 1.00)
        O1             6.00    15.99900     O ( 1.00)
        N1             5.00    14.00700     N ( 1.00)
        C1             4.00    12.01100     C ( 1.00)
        H1             1.00     1.00800     H ( 1.00)

     No symmetry found

   Cartesian axes

     site n.     atom                  positions (alat units)
         1           Ti1 tau(   1) = (   0.0004258   2.9801865   6.0000000  )
         2           Ti1 tau(   2) = (   3.2906075   1.4906267   6.0002472  )
         3           O1  tau(   3) = (   0.0006271   0.0005054   7.9858123  )
         4           O1  tau(   4) = (   3.2906025   0.0005020   7.3038282  )
         5           O1  tau(   5) = (   4.5942328   1.4918067   9.2879030  )
         6           O1  tau(   6) = (   1.9868534   1.4903216   9.2879459  )
         7           Ti1 tau(   7) = (   3.2907910   2.8959150   9.1758416  )
         8           Ti1 tau(   8) = (   0.0015273   1.4827037   9.2680791  )
         9           O1  tau(   9) = (   3.3002520   5.9418316  11.2747492  )
        10           O1  tau(  10) = (   0.0116148   5.9584955  10.6183126  )
        11           O1  tau(  11) = (   1.2897458   1.4862980  12.6211975  )
        12           O1  tau(  12) = (   5.3051886   1.5023792  12.6347999  )
        13           Ti1 tau(  13) = (   0.0146078   2.8478158  12.7200684  )
        14           Ti1 tau(  14) = (   3.3063360   1.3081926  12.6482236  )
        15           O1  tau(  15) = (   0.0235978   5.9609164  14.6274833  )
        16           O1  tau(  16) = (   3.2983906   0.0399142  13.8749830  )
        17           O1  tau(  17) = (   4.5813539   1.5856785  16.0626423  )
        18           O1  tau(  18) = (   2.0324892   1.5097802  16.0098020  )
        19           Ti1 tau(  19) = (   3.2774956   2.9544257  15.6266065  )
        20           Ti1 tau(  20) = (   6.5530467   1.3151789  15.9772938  )
        21           O1  tau(  21) = (   3.2904802   0.0005063   4.7018136  )
        22           O1  tau(  22) = (   6.5059356   5.9265713  17.1294848  )
        23           O1  tau(  23) = (   1.3043587   1.4918075   6.0039043  )
        24           O1  tau(  24) = (   5.2767064   1.4903225   6.0039473  )
        25           Ti1 tau(  25) = (   0.0000382   5.9609847   6.0000000  )
        26           Ti1 tau(  26) = (   3.2902200   4.4714249   6.0002472  )
        27           O1  tau(  27) = (   0.0002396   2.9813036   7.9858123  )
        28           O1  tau(  28) = (   3.2902150   2.9813002   7.3038282  )
        29           O1  tau(  29) = (   4.5938453   4.4726049   9.2879030  )
        30           O1  tau(  30) = (   1.9864658   4.4711199   9.2879459  )
        31           Ti1 tau(  31) = (   3.2891106   5.8743827   9.1763621  )
        32           Ti1 tau(  32) = (   0.0006254   4.4649316   9.2693709  )
        33           O1  tau(  33) = (   3.2992753   3.0242338  11.2405823  )
        34           O1  tau(  34) = (   0.0092240   2.9805883  10.6323155  )
        35           O1  tau(  35) = (   1.2972400   4.4705050  12.6241655  )
        36           O1  tau(  36) = (   5.3008088   4.4694758  12.6340222  )
        37           Ti1 tau(  37) = (   0.0289225   5.8314391  12.5906285  )
        38           Ti1 tau(  38) = (   3.3189507   4.3956991  12.4097224  )
        39           O1  tau(  39) = (   0.0312427   2.9750824  14.7260556  )
        40           O1  tau(  40) = (   3.2762925   2.9668711  13.8358254  )
        41           O1  tau(  41) = (   4.5358187   4.4455929  15.9064879  )
        42           O1  tau(  42) = (   2.0572077   4.4429961  16.0439637  )
        43           Ti1 tau(  43) = (   3.2186928   5.9141907  16.2420754  )
        44           Ti1 tau(  44) = (   6.4642982   4.4840528  15.9061301  )
        45           O1  tau(  45) = (   3.2900926   2.9813045   4.7018136  )
        46           O1  tau(  46) = (   1.3039711   4.4726057   6.0039043  )
        47           O1  tau(  47) = (   5.2763189   4.4711207   6.0039473  )
        48           N1  tau(  48) = (   0.2499663   2.3419386  17.9913213  )
        49           C1  tau(  49) = (   0.6208863   1.8700663  19.1394302  )
        50           H1  tau(  50) = (   0.7431952   2.5333404  19.9929579  )
        51           H1  tau(  51) = (   0.8399735   0.8189210  19.2161768  )
        52           N1  tau(  52) = (   6.5658643   3.6016587  17.7752569  )
        53           H1  tau(  53) = (   0.1300021   4.2235620  18.5825096  )
        54           O1  tau(  54) = (   3.3713844   5.9089882  18.0735649  )
        55           H1  tau(  55) = (   4.1655974   0.3538959  18.4550359  )

     number of k points=    10  Fermi-Dirac smearing, width (Ry)=  0.0073
                       cart. coord. in units 2pi/alat
        k(    1) = (   0.0000000   0.0000000   0.0000000), wk =   0.1250000
        k(    2) = (   0.0000000   0.0419351   0.0000000), wk =   0.2500000
        k(    3) = (   0.0000000  -0.0838702   0.0000000), wk =   0.1250000
        k(    4) = (   0.0379955   0.0000049   0.0000000), wk =   0.2500000
        k(    5) = (   0.0379955   0.0419400   0.0000000), wk =   0.2500000
        k(    6) = (   0.0379955  -0.0838652   0.0000000), wk =   0.2500000
        k(    7) = (   0.0379955  -0.0419301   0.0000000), wk =   0.2500000
        k(    8) = (  -0.0759910  -0.0000099   0.0000000), wk =   0.1250000
        k(    9) = (  -0.0759910   0.0419252   0.0000000), wk =   0.2500000
        k(   10) = (  -0.0759910  -0.0838800   0.0000000), wk =   0.1250000

     Initial potential from superposition of free atoms

     starting charge  385.99915, renormalised to  402.00000

     negative rho (up, down):  1.591E-02 0.000E+00

     %%%%%%%%%%%%%%%%%%%%%%%%%%%%%%%%%%%%%%%%%%%%%%%%%%%%%%%%%%%%%%%%%%%%%%%%
     %                                                                      %
     % You are using vdW-DF, which was implemented by the Thonhauser group. %
     % Please cite the following two papers that made this development      %
     % possible and the two reviews that describe the various versions:     %
     %                                                                      %
     %   T. Thonhauser et al., PRL 115, 136402 (2015).                      %
     %   T. Thonhauser et al., PRB 76, 125112 (2007).                       %
     %   K. Berland et al., Rep. Prog. Phys. 78, 066501 (2015).             %
     %   D.C. Langreth et al., J. Phys.: Condens. Matter 21, 084203 (2009). %
     %                                                                      %
     %                                                                      %
     % If you are calculating the stress with vdW-DF, please also cite:     %
     %                                                                      %
     %   R. Sabatini et al., J. Phys.: Condens. Matter 24, 424209 (2012).   %
     %                                                                      %
     %%%%%%%%%%%%%%%%%%%%%%%%%%%%%%%%%%%%%%%%%%%%%%%%%%%%%%%%%%%%%%%%%%%%%%%%

     Adding external electric field

     Computed dipole along edir(3) :
        Dipole              -11.3527 Ry au,        -28.8557 Debye
        Dipole field         -0.0214 Ry au,

        Potential amp.        1.9860 Ry
        Total length         46.3494 bohr

     Starting wfcs are  304 atomic wfcs
  @ DRIVER MODE: Message from server: STATUS
  @ DRIVER MODE: Message from server: POSDATA
  @ DRIVER MODE: Reading and sharing cell
  @ DRIVER MODE: Reading and sharing positions
  @ DRIVER MODE: Received positions

     Self-consistent Calculation

     iteration #  1     ecut=    29.40 Ry     beta= 0.05
     Davidson diagonalization with overlap
     c_bands:  4 eigenvalues not converged
     c_bands:  3 eigenvalues not converged
     c_bands:  3 eigenvalues not converged
     c_bands:  5 eigenvalues not converged
     c_bands:  5 eigenvalues not converged
     c_bands:  1 eigenvalues not converged
     c_bands:  5 eigenvalues not converged
     c_bands:  4 eigenvalues not converged
     c_bands:  5 eigenvalues not converged
     c_bands:  1 eigenvalues not converged
     ethr =  1.00E-05,  avg # of iterations = 24.0

[...]

     total energy              =   -2410.16015924 Ry
     estimated scf accuracy    <    6308.40533295 Ry

     iteration #  2     ecut=    29.40 Ry     beta= 0.05
     Davidson diagonalization with overlap
     ethr =  1.00E-02,  avg # of iterations = 23.8

[...]

     iteration # 39     ecut=    29.40 Ry     beta= 0.05
     Davidson diagonalization with overlap
     c_bands:  1 eigenvalues not converged
     ethr =  1.59E-06,  avg # of iterations =  4.9

[...]

     total energy              =   -2972.72732172 Ry
     estimated scf accuracy    <       0.00000040 Ry

     iteration # 63     ecut=    29.40 Ry     beta= 0.05
     Davidson diagonalization with overlap
     ethr =  5.08E-11,  avg # of iterations =  5.0

     negative rho (up, down):  1.619E-02 0.000E+00

     Adding external electric field

     Computed dipole along edir(3) :
        Dipole                0.4594 Ry au,          1.1676 Debye
        Dipole field          0.0009 Ry au,

        Potential amp.       -0.0804 Ry
        Total length         46.3494 bohr

     End of self-consistent calculation

          k = 0.0000 0.0000 0.0000 ( 18029 PWs)   bands (ev):

   -56.5347 -56.5011 -55.8866 -55.8511 -55.6241 -55.5646 -55.3845 -55.3308
   -55.3101 -55.2343 -55.2086 -55.1877 -55.1538 -55.0431 -55.0378 -54.9963
   -32.9672 -32.8195 -32.7915 -32.7019 -32.6106 -32.5928 -32.3695 -32.1060
   -32.1046 -32.0770 -32.0297 -32.0261 -31.9930 -31.8741 -31.8528 -31.8449
   -31.7922 -31.7683 -31.7274 -31.7138 -31.7008 -31.6549 -31.6520 -31.5939
   -31.5918 -31.5886 -31.5771 -31.5392 -31.5349 -31.5284 -31.5110 -31.5043
   -31.4890 -31.4843 -31.4281 -31.4143 -31.3976 -31.3632 -31.3148 -31.2996
   -31.2983 -31.2843 -31.2549 -31.2479 -31.2275 -31.2030 -31.1871 -31.1668
   -17.9281 -16.7215 -16.2898 -16.1776 -15.9852 -15.9053 -15.8846 -15.8511
   -15.7834 -15.6230 -15.5344 -15.5138 -15.4967 -15.4405 -15.2732 -15.1767
   -15.1662 -15.0992 -15.0197 -14.9952 -14.9560 -14.8986 -14.8808 -14.8620
   -14.8447 -14.8140 -14.6846 -14.6075 -14.5133 -14.3292 -14.3156 -13.6854
   -13.5758 -11.9664  -7.7283  -5.1647  -4.3737  -4.2715  -3.7978  -3.7806
    -3.6061  -3.4308  -3.3694  -3.2356  -3.1711  -3.1148  -3.0605  -3.0463
    -2.9418  -2.8199  -2.8008  -2.7427  -2.7184  -2.7143  -2.7027  -2.6077
    -2.5323  -2.5216  -2.4275  -2.3391  -2.3174  -2.2757  -2.2359  -2.2269
    -2.1834  -2.1486  -2.0908  -2.0527  -2.0424  -1.9433  -1.9231  -1.8190
    -1.7820  -1.7657  -1.7566  -1.7215  -1.6797  -1.6259  -1.5592  -1.4377
    -1.3438  -1.3239  -1.2545  -1.2502  -1.2187  -1.0587  -1.0213  -1.0155
    -0.9565  -0.8802  -0.8469  -0.7971  -0.7586  -0.7173  -0.6668  -0.6222
    -0.5872  -0.4519  -0.4492  -0.4036  -0.3172  -0.2939  -0.2626  -0.2399
    -0.1568  -0.1049  -0.0675  -0.0023   0.0603   0.0676   0.1078   0.1694
     0.2803   0.3212   0.3466   0.3763   0.4201   0.4463   0.5131   0.5603
     0.5916   0.6001   0.6738   0.7781   0.7956   0.8354   0.9162   0.9480
     1.0264   1.0665   1.0890   1.1787   1.1912   1.3735   1.4119   1.5755
     2.3896   2.7291   2.8789   3.1611   3.1746   3.4657   3.6907   3.7192
     3.7220   3.7989   3.9361

[...]

          k = 0.0380-0.0419 0.0000 ( 17876 PWs)   bands (ev):

[...]

          k =-0.0760-0.0000 0.0000 ( 17886 PWs)   bands (ev):

[...]

          k =-0.0760-0.0839 0.0000 ( 17948 PWs)   bands (ev):

   -56.5181 -56.5175 -55.8746 -55.8629 -55.6187 -55.5698 -55.3783 -55.3368
   -55.3081 -55.2329 -55.2104 -55.1713 -55.1701 -55.0392 -55.0357 -55.0036
   -32.8054 -32.8048 -32.7843 -32.7834 -32.6547 -32.6546 -32.1956 -32.1861
   -32.0682 -32.0554 -32.0550 -32.0472 -31.9268 -31.8881 -31.8466 -31.8399
   -31.7969 -31.7908 -31.7076 -31.6756 -31.6366 -31.6155 -31.5983 -31.5927
   -31.5822 -31.5695 -31.5586 -31.5478 -31.5318 -31.5177 -31.5169 -31.5147
   -31.4801 -31.4753 -31.4344 -31.4190 -31.3956 -31.3940 -31.3921 -31.3570
   -31.3559 -31.3042 -31.2917 -31.2698 -31.2561 -31.2514 -31.2300 -31.1898
   -17.9154 -16.1579 -16.1053 -16.1010 -16.0171 -16.0147 -15.8116 -15.8044
   -15.6263 -15.6038 -15.5321 -15.4638 -15.3514 -15.3203 -15.2945 -15.2424
   -15.2023 -15.1720 -15.1191 -15.0874 -15.0041 -14.9735 -14.9565 -14.9439
   -14.9132 -14.8624 -14.7273 -14.6904 -14.6739 -14.5966 -14.4601 -13.6798
   -13.6792 -11.9254  -7.6588  -5.2256  -4.4470  -3.7560  -3.2184  -3.1898
    -3.1398  -3.1305  -2.9342  -2.8923  -2.8792  -2.8261  -2.8134  -2.7811
    -2.7256  -2.7200  -2.6390  -2.5871  -2.5549  -2.5420  -2.5177  -2.4597
    -2.4406  -2.4054  -2.3919  -2.3654  -2.3559  -2.3474  -2.3240  -2.2550
    -2.2114  -2.1541  -2.1243  -2.0834  -2.0194  -2.0144  -1.9826  -1.9730
    -1.9008  -1.8061  -1.7691  -1.6907  -1.6085  -1.5756  -1.5454  -1.5274
    -1.4888  -1.4246  -1.3995  -1.3488  -1.3255  -1.2724  -1.2323  -1.2257
    -1.1621  -1.1224  -1.0566  -1.0355  -0.9561  -0.8434  -0.7902  -0.7597
    -0.7354  -0.7211  -0.6531  -0.5919  -0.5486  -0.5223  -0.4497  -0.4445
    -0.4167  -0.3670  -0.3532  -0.3155  -0.2052  -0.1504  -0.0788   0.0062
     0.0427   0.0780   0.1537   0.2130   0.2400   0.3132   0.3944   0.4739
     0.4883   0.5286   0.5330   0.7044   0.7287   0.8461   0.8705   0.9479
     0.9817   1.0218   1.1449   1.1888   1.2237   1.2248   1.2451   1.2620
     2.3360   3.2987   3.3012   3.3508   3.3590   3.6256   3.6341   3.7730
     3.7750   3.8901   3.9298

     the Fermi energy is     2.6097 ev

!    total energy              =   -2972.72737517 Ry
     estimated scf accuracy    <       0.00000006 Ry
     smearing contrib. (-TS)   =      -0.00752953 Ry
     internal energy E=F+TS    =   -2972.71984564 Ry

     The total energy is F=E-TS. E is the sum of the following terms:
     one-electron contribution =  -24031.72483883 Ry
     hartree contribution      =   12109.45530218 Ry
     xc contribution           =    -493.28849137 Ry
     ewald contribution        =    9442.83778418 Ry
     electric field correction =       0.00039821 Ry

     convergence has been achieved in  63 iterations

     Forces acting on atoms (cartesian axes, Ry/au):

     atom    1 type  1   force =    -0.00000579   -0.00043819    0.11605877
     atom    2 type  1   force =    -0.00006956    0.00011605   -0.15944110
     atom    3 type  2   force =     0.00002446    0.00000893   -0.05233045
     atom    4 type  2   force =     0.00005037   -0.00014347    0.02481114
     atom    5 type  2   force =    -0.00350980   -0.00224897   -0.01037077
     atom    6 type  2   force =     0.00530489   -0.00174912   -0.01057154
     atom    7 type  1   force =    -0.00000021   -0.00613170    0.04599250
     atom    8 type  1   force =     0.00041407    0.01613979    0.08011139
     atom    9 type  2   force =    -0.00001070   -0.00060828    0.00033395
     atom   10 type  2   force =    -0.00257241    0.00057771   -0.04948782
     atom   11 type  2   force =    -0.00055147   -0.00012677   -0.00007447
     atom   12 type  2   force =     0.00059220   -0.00027733    0.00008338
     atom   13 type  1   force =    -0.00018997    0.00044324   -0.00041003
     atom   14 type  1   force =     0.00018026    0.00003794   -0.00131767
     atom   15 type  2   force =    -0.00023409   -0.00062052   -0.00021358
     atom   16 type  2   force =     0.00013518   -0.00068110    0.00089373
     atom   17 type  2   force =     0.00007388    0.00051910    0.00011915
     atom   18 type  2   force =     0.00002896    0.00059884   -0.00023292
     atom   19 type  1   force =    -0.00060262   -0.00044958   -0.00068133
     atom   20 type  1   force =     0.00058820    0.00069463   -0.00045965
     atom   21 type  2   force =     0.00004888    0.00021618    0.09895958
     atom   22 type  2   force =    -0.00000591   -0.00216856   -0.00004603
     atom   23 type  2   force =    -0.07979157    0.00004093   -0.03161618
     atom   24 type  2   force =     0.07968981    0.00047172   -0.03167649
     atom   25 type  1   force =     0.00007068   -0.00056951    0.11635227
     atom   26 type  1   force =    -0.00011671   -0.00141311   -0.15996269
     atom   27 type  2   force =     0.00006985   -0.00069807   -0.05034770
     atom   28 type  2   force =     0.00005411    0.00165867    0.02035235
     atom   29 type  2   force =    -0.00171487    0.00505246   -0.01365609
     atom   30 type  2   force =     0.00362514    0.00547366   -0.01378891
     atom   31 type  1   force =    -0.00017469    0.00220826    0.03149479
     atom   32 type  1   force =     0.00032536   -0.01974782    0.07977969
     atom   33 type  2   force =     0.00014324   -0.00032145    0.00036258
     atom   34 type  2   force =    -0.00158686    0.00084691   -0.06306236
     atom   35 type  2   force =     0.00038629    0.00002439   -0.00009010
     atom   36 type  2   force =     0.00017865   -0.00005436   -0.00015991
     atom   37 type  1   force =    -0.00013528   -0.00024972   -0.00100414
     atom   38 type  1   force =     0.00012788    0.00047743   -0.00015492
     atom   39 type  2   force =    -0.00029547    0.00060144    0.00034124
     atom   40 type  2   force =     0.00024150    0.00011114    0.00092384
     atom   41 type  2   force =     0.00160634   -0.00002640    0.00009090
     atom   42 type  2   force =    -0.00156584   -0.00063223    0.00026229
     atom   43 type  1   force =    -0.00051727    0.00069859   -0.00020853
     atom   44 type  1   force =    -0.00014426    0.00023019   -0.00002449
     atom   45 type  2   force =     0.00005100    0.00003130    0.09875069
     atom   46 type  2   force =    -0.07984640    0.00000661   -0.03161948
     atom   47 type  2   force =     0.07973789    0.00043494   -0.03168719
     atom   48 type  3   force =     0.00218509   -0.01183920    0.00181486
     atom   49 type  4   force =     0.00058051   -0.00226601    0.00160028
     atom   50 type  5   force =    -0.00027414   -0.00013108   -0.00038305
     atom   51 type  5   force =     0.00016517    0.00055614   -0.00022990
     atom   52 type  3   force =    -0.00208343    0.02070348    0.00213928
     atom   53 type  5   force =    -0.00149870   -0.00522876   -0.00594008
     atom   54 type  2   force =    -0.00028001   -0.00023634   -0.00110229
     atom   55 type  5   force =     0.00109817    0.00007697    0.00072319

     Total force =     0.397176     Total SCF correction =     0.000552
  @ DRIVER MODE: Message from server: STATUS
  @ DRIVER MODE: Message from server: GETFORCE
  @ DRIVER MODE: Returning v,forces,stress,ensemble

     Writing output data file ./calc.save/
  @ DRIVER MODE: Message from server: EXIT
  @ DRIVE MODE: Exiting

     General routines

     Parallel routines

   This run was terminated on:   1:49:43  23Sep2021

   JOB DONE.