     Program PWSCF v.6.7GPU starts on 26Sep2021 at 16: 9:38

     R & G space division:  proc/nbgrp/npool/nimage =       8
     Reading input from /storage/home/hcoda1/3/ntian30/research/carbon/CxH_vib/H2O_calc/ads_slab/CH3N2OHHO_l/out_0052/pw.inp
Warning: card &CELL ignored
Warning: card   CELL_DYNAMICS='IPI', ignored
Warning: card / ignored

     Current dimensions of program PWSCF are:
     Max number of different atomic species (ntypx) = 10
     Max number of k-points (npk) =  40000
     Max angular momentum in pseudopotentials (lmaxx) =  3
     Presently no symmetry can be used with electric field

     Message from routine cell_base_init:
     DEPRECATED: use true lattice parameter, not A to a.u. conversion factor

     IMPORTANT: XC functional enforced from input :
     Exchange-correlation= BEEF-VDW
                           (   1   4  43  14   2   0   0)
     Any further DFT definition will be discarded
     Please, verify this is what you really want

  @ DRIVER MODE: Connecting to
 qe_1139763_2971669.sched-torque.pace.gatech.eduyw56bdcf_scratch
  using UNIX socket
  @ DRIVER MODE: Message from server: STATUS
  @ DRIVER MODE: Message from server: INIT
  @ DRIVER MODE: Receiving replica           0          -1
  @ DRIVER MODE: Receiving encoded integer          25
  @ DRIVER MODE:  SCF:  T  FORCE:  T  STRESS:  F  VC:  F  ENSEMBLE:  F
  @ DRIVER MODE:  SCF:  T  FORCE:  T  STRESS:  F  VC:  F  ENSEMBLE:  F

     Using Slab Decomposition

     bravais-lattice index     =            0
     lattice parameter (alat)  =       1.8897  a.u.
     unit-cell volume          =    6658.9804 (a.u.)^3
     number of atoms/cell      =           57
     number of atomic types    =            5
     number of electrons       =       409.00
     number of Kohn-Sham states=          214
     kinetic-energy cutoff     =      29.3995  Ry
     charge density cutoff     =     293.9946  Ry
     scf convergence threshold =      7.3E-08
     mixing beta               =       0.0500
     number of iterations used =            8  plain     mixing
     Exchange-correlation= BEEF-VDW
                           (   1   4  43  14   2   0   0)

     celldm(1)=   1.889726  celldm(2)=   0.000000  celldm(3)=   0.000000
     celldm(4)=   0.000000  celldm(5)=   0.000000  celldm(6)=   0.000000

     crystal axes: (cart. coord. in units of alat)
               a(1) = (   6.579727   0.000000   0.000000 )
               a(2) = (  -0.000775   5.961596   0.000000 )
               a(3) = (   0.000000   0.000000  25.155947 )

     reciprocal axes: (cart. coord. in units 2 pi/alat)
               b(1) = (  0.151982  0.000020  0.000000 )
               b(2) = (  0.000000  0.167740  0.000000 )
               b(3) = (  0.000000  0.000000  0.039752 )

     PseudoPot. # 1 for Ti read from file:
     /storage/coda1/p-amedford6/0/shared/rich_project_chbe-medford/medford-share/data/pseudos_module/espresso/nninc/pbe/van/Ti.UPF
     MD5 check sum: 8e4df49b7f0d34bbd5052bf3f5ea0213
     Pseudo is Ultrasoft, Zval = 12.0
     Generated by new atomic code, or converted to UPF format
     Using radial grid of  851 points,  6 beta functions with:
                l(1) =   0
                l(2) =   0
                l(3) =   1
                l(4) =   1
                l(5) =   2
                l(6) =   2
     Q(r) pseudized with  8 coefficients,  rinner =    1.000   1.000   1.000
                                                       1.000   1.000

     PseudoPot. # 2 for O  read from file:
     /storage/coda1/p-amedford6/0/shared/rich_project_chbe-medford/medford-share/data/pseudos_module/espresso/nninc/pbe/van/O.UPF
     MD5 check sum: 78c19812648e8988a0fe644b0f25305e
     Pseudo is Ultrasoft, Zval =  6.0
     Generated by new atomic code, or converted to UPF format
     Using radial grid of  737 points,  4 beta functions with:
                l(1) =   0
                l(2) =   0
                l(3) =   1
                l(4) =   1
     Q(r) pseudized with  8 coefficients,  rinner =    0.800   0.800   0.800

     PseudoPot. # 3 for N  read from file:
     /storage/coda1/p-amedford6/0/shared/rich_project_chbe-medford/medford-share/data/pseudos_module/espresso/nninc/pbe/van/N.UPF
     MD5 check sum: 90d10febe142ad51ac9d5be1deb811c4
     Pseudo is Ultrasoft, Zval =  5.0
     Generated by new atomic code, or converted to UPF format
     Using radial grid of  729 points,  4 beta functions with:
                l(1) =   0
                l(2) =   0
                l(3) =   1
                l(4) =   1
     Q(r) pseudized with  8 coefficients,  rinner =    0.800   0.800   0.800

     PseudoPot. # 4 for C  read from file:
     /storage/coda1/p-amedford6/0/shared/rich_project_chbe-medford/medford-share/data/pseudos_module/espresso/nninc/pbe/van/C.UPF
     MD5 check sum: 1a69bf6b8db32088f5b2163dbdb77a27
     Pseudo is Ultrasoft, Zval =  4.0
     Generated by new atomic code, or converted to UPF format
     Using radial grid of  721 points,  4 beta functions with:
                l(1) =   0
                l(2) =   0
                l(3) =   1
                l(4) =   1
     Q(r) pseudized with  8 coefficients,  rinner =    0.800   0.800   0.800

     PseudoPot. # 5 for H  read from file:
     /storage/coda1/p-amedford6/0/shared/rich_project_chbe-medford/medford-share/data/pseudos_module/espresso/nninc/pbe/van/H.UPF
     MD5 check sum: b5ee9d7bfd3a09ee7748110bda690ff7
     Pseudo is Ultrasoft, Zval =  1.0
     Generated by new atomic code, or converted to UPF format
     Using radial grid of  615 points,  1 beta functions with:
                l(1) =   0
     Q(r) pseudized with  8 coefficients,  rinner =    0.800

     atomic species   valence    mass     pseudopotential
        Ti1           12.00    47.86700     Ti( 1.00)
        O1             6.00    15.99900     O ( 1.00)
        N1             5.00    14.00700     N ( 1.00)
        C1             4.00    12.01100     C ( 1.00)
        H1             1.00     1.00800     H ( 1.00)

     No symmetry found

   Cartesian axes

     site n.     atom                  positions (alat units)
         1           Ti1 tau(   1) = (   0.0004258   2.9801865   6.0000000  )
         2           Ti1 tau(   2) = (   3.2906075   1.4906267   6.0002472  )
         3           O1  tau(   3) = (   0.0006271   0.0005054   7.9858123  )
         4           O1  tau(   4) = (   3.2906025   0.0005020   7.3038282  )
         5           O1  tau(   5) = (   4.5942328   1.4918067   9.2879030  )
         6           O1  tau(   6) = (   1.9868534   1.4903216   9.2879459  )
         7           Ti1 tau(   7) = (   3.2907910   2.8959150   9.1758416  )
         8           Ti1 tau(   8) = (   0.0015273   1.4827037   9.2680791  )
         9           O1  tau(   9) = (   3.2779673   5.9607700  11.3423085  )
        10           O1  tau(  10) = (   0.0116148   5.9584955  10.6183126  )
        11           O1  tau(  11) = (   1.2787083   1.4818767  12.6451794  )
        12           O1  tau(  12) = (   5.2707140   1.4872516  12.6060838  )
        13           Ti1 tau(  13) = (   0.0520196   2.9452147  12.6012095  )
        14           Ti1 tau(  14) = (   3.3669591   1.4706787  12.5087448  )
        15           O1  tau(  15) = (   6.5166736   5.9505275  14.6414754  )
        16           O1  tau(  16) = (   3.3002175   0.0041348  13.9548274  )
        17           O1  tau(  17) = (   4.5235890   1.5203341  16.0633414  )
        18           O1  tau(  18) = (   1.9992342   1.5602939  15.9747780  )
        19           Ti1 tau(  19) = (   3.2541499   3.0080313  15.6961896  )
        20           Ti1 tau(  20) = (   6.5591015   1.5323982  15.7823192  )
        21           O1  tau(  21) = (   3.2904802   0.0005063   4.7018136  )
        22           O1  tau(  22) = (   0.0960927   0.0099221  17.2178370  )
        23           O1  tau(  23) = (   1.3043587   1.4918075   6.0039043  )
        24           O1  tau(  24) = (   5.2767064   1.4903225   6.0039473  )
        25           Ti1 tau(  25) = (   0.0000382   5.9609847   6.0000000  )
        26           Ti1 tau(  26) = (   3.2902200   4.4714249   6.0002472  )
        27           O1  tau(  27) = (   0.0002396   2.9813036   7.9858123  )
        28           O1  tau(  28) = (   3.2902150   2.9813002   7.3038282  )
        29           O1  tau(  29) = (   4.5938453   4.4726049   9.2879030  )
        30           O1  tau(  30) = (   1.9864658   4.4711199   9.2879459  )
        31           Ti1 tau(  31) = (   3.2891106   5.8743827   9.1763621  )
        32           Ti1 tau(  32) = (   0.0006254   4.4649316   9.2693709  )
        33           O1  tau(  33) = (   3.2807211   2.9768430  11.3440791  )
        34           O1  tau(  34) = (   0.0092240   2.9805883  10.6323155  )
        35           O1  tau(  35) = (   1.2789702   4.4681595  12.6395138  )
        36           O1  tau(  36) = (   5.2737968   4.4775610  12.6008310  )
        37           Ti1 tau(  37) = (   0.0460201   5.9176504  12.5434570  )
        38           Ti1 tau(  38) = (   3.3658678   4.4646095  12.4976877  )
        39           O1  tau(  39) = (   6.5297297   2.9761478  14.6509524  )
        40           O1  tau(  40) = (   3.3085871   2.9961499  13.9017917  )
        41           O1  tau(  41) = (   4.5138497   4.4896837  16.1272785  )
        42           O1  tau(  42) = (   1.9961282   4.4344792  16.0060688  )
        43           Ti1 tau(  43) = (   3.3116018   0.0224549  15.7990204  )
        44           Ti1 tau(  44) = (   6.5775847   4.6577750  16.0638065  )
        45           O1  tau(  45) = (   3.2900926   2.9813045   4.7018136  )
        46           O1  tau(  46) = (   1.3039711   4.4726057   6.0039043  )
        47           O1  tau(  47) = (   5.2763189   4.4711207   6.0039473  )
        48           N1  tau(  48) = (   6.5065777   2.6139801  18.6303060  )
        49           N1  tau(  49) = (   6.5364102   2.8728423  17.4370429  )
        50           C1  tau(  50) = (   6.4341180   3.7235584  19.6105657  )
        51           H1  tau(  51) = (   6.3066687   4.7022679  19.1488110  )
        52           H1  tau(  52) = (   5.6164842   3.4805663  20.2913871  )
        53           H1  tau(  53) = (   0.7823074   3.6964598  20.1845303  )
        54           O1  tau(  54) = (   3.0314481   5.0835218  18.9911038  )
        55           H1  tau(  55) = (   1.7414717   0.2044793  18.0242669  )
        56           O1  tau(  56) = (   2.7372941   0.2672207  18.0778760  )
        57           H1  tau(  57) = (   3.9343361   5.3466317  19.2487757  )

     number of k points=    10  Fermi-Dirac smearing, width (Ry)=  0.0073
                       cart. coord. in units 2pi/alat
        k(    1) = (   0.0000000   0.0000000   0.0000000), wk =   0.1250000
        k(    2) = (   0.0000000   0.0419351   0.0000000), wk =   0.2500000
        k(    3) = (   0.0000000  -0.0838702   0.0000000), wk =   0.1250000
        k(    4) = (   0.0379955   0.0000049   0.0000000), wk =   0.2500000
        k(    5) = (   0.0379955   0.0419400   0.0000000), wk =   0.2500000
        k(    6) = (   0.0379955  -0.0838652   0.0000000), wk =   0.2500000
        k(    7) = (   0.0379955  -0.0419301   0.0000000), wk =   0.2500000
        k(    8) = (  -0.0759910  -0.0000099   0.0000000), wk =   0.1250000
        k(    9) = (  -0.0759910   0.0419252   0.0000000), wk =   0.2500000
        k(   10) = (  -0.0759910  -0.0838800   0.0000000), wk =   0.1250000

     Initial potential from superposition of free atoms

     starting charge  392.99914, renormalised to  409.00000

     negative rho (up, down):  1.422E-02 0.000E+00

     %%%%%%%%%%%%%%%%%%%%%%%%%%%%%%%%%%%%%%%%%%%%%%%%%%%%%%%%%%%%%%%%%%%%%%%%
     %                                                                      %
     % You are using vdW-DF, which was implemented by the Thonhauser group. %
     % Please cite the following two papers that made this development      %
     % possible and the two reviews that describe the various versions:     %
     %                                                                      %
     %   T. Thonhauser et al., PRL 115, 136402 (2015).                      %
     %   T. Thonhauser et al., PRB 76, 125112 (2007).                       %
     %   K. Berland et al., Rep. Prog. Phys. 78, 066501 (2015).             %
     %   D.C. Langreth et al., J. Phys.: Condens. Matter 21, 084203 (2009). %
     %                                                                      %
     %                                                                      %
     % If you are calculating the stress with vdW-DF, please also cite:     %
     %                                                                      %
     %   R. Sabatini et al., J. Phys.: Condens. Matter 24, 424209 (2012).   %
     %                                                                      %
     %%%%%%%%%%%%%%%%%%%%%%%%%%%%%%%%%%%%%%%%%%%%%%%%%%%%%%%%%%%%%%%%%%%%%%%%

     Adding external electric field

     Computed dipole along edir(3) :
        Dipole              -16.7505 Ry au,        -42.5754 Debye
        Dipole field         -0.0316 Ry au,

        Potential amp.        2.9302 Ry
        Total length         46.3494 bohr

     Starting wfcs are  309 atomic wfcs
  @ DRIVER MODE: Message from server: STATUS
  @ DRIVER MODE: Message from server: POSDATA
  @ DRIVER MODE: Reading and sharing cell
  @ DRIVER MODE: Reading and sharing positions
  @ DRIVER MODE: Received positions

     Self-consistent Calculation

     iteration #  1     ecut=    29.40 Ry     beta= 0.05
     Davidson diagonalization with overlap
     c_bands:  5 eigenvalues not converged
     c_bands:  5 eigenvalues not converged
     c_bands:  3 eigenvalues not converged
     c_bands:  1 eigenvalues not converged
     c_bands:  4 eigenvalues not converged
     c_bands:  2 eigenvalues not converged
     c_bands:  5 eigenvalues not converged
     ethr =  1.00E-05,  avg # of iterations = 26.6

[...]

     total energy              =   -2110.48861215 Ry
     estimated scf accuracy    <   10326.40596708 Ry

     iteration #  2     ecut=    29.40 Ry     beta= 0.05
     Davidson diagonalization with overlap
     ethr =  1.00E-02,  avg # of iterations = 31.7

[...]

     iteration # 55     ecut=    29.40 Ry     beta= 0.05
     Davidson diagonalization with overlap
     c_bands:  1 eigenvalues not converged
     ethr =  9.18E-10,  avg # of iterations =  9.8

[...]

     total energy              =   -3006.13717172 Ry
     estimated scf accuracy    <       0.00000011 Ry

     iteration # 62     ecut=    29.40 Ry     beta= 0.05
     Davidson diagonalization with overlap
     ethr =  2.67E-11,  avg # of iterations = 10.5

     negative rho (up, down):  1.469E-02 0.000E+00

     Adding external electric field

     Computed dipole along edir(3) :
        Dipole                0.8060 Ry au,          2.0486 Debye
        Dipole field          0.0015 Ry au,

        Potential amp.       -0.1410 Ry
        Total length         46.3494 bohr

     End of self-consistent calculation

          k = 0.0000 0.0000 0.0000 ( 18029 PWs)   bands (ev):

   -55.6071 -55.5730 -55.5648 -55.5362 -55.5286 -55.4428 -55.4214 -55.4058
   -55.3875 -55.3852 -55.3679 -55.3515 -54.9895 -54.9192 -54.5877 -54.5537
   -32.1056 -32.0903 -31.9507 -31.9426 -31.9199 -31.8996 -31.8751 -31.8620
   -31.8509 -31.7964 -31.7815 -31.7658 -31.7593 -31.7425 -31.7311 -31.7208
   -31.7122 -31.7032 -31.6917 -31.6647 -31.6642 -31.6440 -31.6121 -31.6110
   -31.6014 -31.5970 -31.5945 -31.5838 -31.5658 -31.5616 -31.5558 -31.5510
   -31.5401 -31.5385 -31.5292 -31.5165 -31.4973 -31.2676 -31.2108 -31.1796
   -31.1260 -31.1035 -30.9948 -30.9063 -30.8839 -30.8116 -30.7252 -30.6140
   -20.6622 -18.2970 -16.3071 -16.0812 -15.8993 -15.7680 -15.7124 -15.5676
   -15.4989 -15.4117 -15.3413 -15.2045 -15.1521 -15.1436 -15.1371 -15.1187
   -15.1127 -15.0525 -15.0414 -15.0399 -15.0291 -15.0011 -14.9620 -14.9488
   -14.9440 -14.8610 -14.7679 -14.7453 -14.7247 -14.7213 -14.6637 -14.2773
   -13.0899 -12.9734 -11.2791  -6.8128  -5.6924  -5.3485  -4.1820  -3.8029
    -3.7692  -3.6741  -3.5519  -3.5132  -3.4325  -3.3863  -3.2325  -3.0785
    -3.0078  -2.8535  -2.7846  -2.7577  -2.7137  -2.6298  -2.5227  -2.4693
    -2.4147  -2.4097  -2.3967  -2.3798  -2.3634  -2.3465  -2.2406  -2.2208
    -2.1682  -2.1477  -2.1208  -1.9865  -1.9585  -1.9320  -1.9206  -1.8924
    -1.8799  -1.8662  -1.8397  -1.8208  -1.7831  -1.7563  -1.6252  -1.5848
    -1.5411  -1.4506  -1.3904  -1.3330  -1.2352  -1.2028  -1.1339  -1.0637
    -1.0581  -1.0382  -1.0051  -0.9969  -0.8704  -0.7659  -0.7557  -0.6824
    -0.6211  -0.5693  -0.5298  -0.4643  -0.3812  -0.3636  -0.3560  -0.3355
    -0.2833  -0.2595  -0.0998  -0.0605  -0.0129   0.0124   0.0695   0.1028
     0.1456   0.1858   0.2261   0.2757   0.3097   0.3429   0.3612   0.3755
     0.3908   0.4222   0.4431   0.6091   0.6444   0.6674   0.7281   0.7579
     0.8353   0.9014   0.9584   1.0485   1.1560   1.3619   1.4348   1.5263
     1.6266   2.0060   2.0518   2.8302   3.5223   3.6142   3.6552   3.6858
     3.7671   3.7790   3.9800   4.0024   4.0318   4.1078

[...]

          k = 0.0380-0.0419 0.0000 ( 17876 PWs)   bands (ev):

[...]

          k =-0.0760-0.0000 0.0000 ( 17886 PWs)   bands (ev):

[...]

          k =-0.0760-0.0839 0.0000 ( 17948 PWs)   bands (ev):

   -55.5905 -55.5895 -55.5496 -55.5436 -55.5343 -55.4309 -55.4178 -55.4047
   -55.4036 -55.3698 -55.3696 -55.3671 -54.9856 -54.9230 -54.5707 -54.5705
   -31.9197 -31.9059 -31.9052 -31.9024 -31.8855 -31.8845 -31.8282 -31.8198
   -31.8072 -31.7875 -31.7791 -31.7555 -31.7505 -31.7247 -31.7189 -31.7182
   -31.7101 -31.7093 -31.7092 -31.7075 -31.7052 -31.7032 -31.6764 -31.6479
   -31.6344 -31.6305 -31.6216 -31.6054 -31.6045 -31.5993 -31.5940 -31.5851
   -31.5820 -31.5747 -31.5738 -31.5720 -31.4184 -31.2693 -31.2494 -31.1877
   -31.1649 -31.1273 -30.8967 -30.8965 -30.8076 -30.8075 -30.7684 -30.7684
   -20.6616 -18.2930 -15.7456 -15.7071 -15.6360 -15.5660 -15.5309 -15.4607
   -15.4170 -15.3761 -15.3232 -15.2853 -15.2765 -15.2166 -15.1965 -15.1636
   -15.1544 -15.1248 -15.1158 -15.1136 -15.0595 -15.0534 -15.0476 -15.0406
   -15.0342 -14.9753 -14.9355 -14.9276 -14.9226 -14.8240 -14.7016 -14.4459
   -13.0752 -13.0752 -11.2774  -6.8355  -5.6894  -5.3249  -4.1102  -3.8043
    -3.7546  -3.0965  -3.0230  -2.8285  -2.7937  -2.7163  -2.7121  -2.6692
    -2.5471  -2.5142  -2.4681  -2.4500  -2.4291  -2.4203  -2.4147  -2.3951
    -2.3877  -2.3699  -2.3416  -2.3207  -2.2878  -2.2755  -2.2624  -2.2544
    -2.2401  -2.2171  -2.2150  -2.1670  -2.1466  -2.1286  -2.0634  -2.0312
    -1.8451  -1.7963  -1.7512  -1.7443  -1.7234  -1.6940  -1.6768  -1.6602
    -1.6131  -1.5926  -1.5149  -1.4688  -1.3305  -1.3114  -1.2954  -1.2755
    -1.2087  -1.1501  -1.1000  -1.0145  -1.0091  -0.9599  -0.8665  -0.8079
    -0.8000  -0.7686  -0.7134  -0.7036  -0.6630  -0.5699  -0.5644  -0.5458
    -0.5396  -0.4638  -0.4201  -0.3581  -0.3498  -0.3300  -0.2992  -0.2711
    -0.2377  -0.1989  -0.1029  -0.0697   0.0241   0.1297   0.2070   0.3416
     0.4605   0.4731   0.5579   0.5817   0.6832   0.6950   0.7069   0.7487
     0.7843   0.8060   0.9284   0.9415   0.9609   0.9846   1.0800   1.7982
     1.7991   1.8715   1.8716   2.8198   3.7639   3.8778   3.9098   3.9204
     4.0054   4.0422   4.0609   4.0628   4.1282   4.2005

     the Fermi energy is     3.5251 ev

!    total energy              =   -3006.13722162 Ry
     estimated scf accuracy    <       0.00000007 Ry
     smearing contrib. (-TS)   =      -0.02166599 Ry
     internal energy E=F+TS    =   -3006.11555563 Ry

     The total energy is F=E-TS. E is the sum of the following terms:
     one-electron contribution =  -23513.65296852 Ry
     hartree contribution      =   11854.78936019 Ry
     xc contribution           =    -501.16145563 Ry
     ewald contribution        =    9153.90828246 Ry
     electric field correction =       0.00122587 Ry

     convergence has been achieved in  62 iterations

     Forces acting on atoms (cartesian axes, Ry/au):

     atom    1 type  1   force =     0.00020235   -0.00032578    0.09617101
     atom    2 type  1   force =    -0.00012009   -0.00050547   -0.17556958
     atom    3 type  2   force =    -0.00003111   -0.00015905   -0.02420255
     atom    4 type  2   force =     0.00000695   -0.00155566    0.05342659
     atom    5 type  2   force =    -0.01166250   -0.00075677    0.00385228
     atom    6 type  2   force =     0.01285210   -0.00002071    0.00196480
     atom    7 type  1   force =    -0.00131657    0.00026750   -0.00659899
     atom    8 type  1   force =     0.00073930    0.00793862    0.02425931
     atom    9 type  2   force =     0.00000778    0.00002454    0.00002747
     atom   10 type  2   force =    -0.00082807    0.00166692   -0.01690713
     atom   11 type  2   force =    -0.00002429    0.00003989   -0.00001389
     atom   12 type  2   force =    -0.00001463    0.00001909   -0.00001441
     atom   13 type  1   force =     0.00001645   -0.00000939    0.00005142
     atom   14 type  1   force =     0.00001993    0.00004507    0.00000979
     atom   15 type  2   force =    -0.00000284    0.00000140   -0.00003237
     atom   16 type  2   force =    -0.00000782   -0.00000295   -0.00000573
     atom   17 type  2   force =     0.00001377    0.00002786   -0.00004769
     atom   18 type  2   force =    -0.00012587    0.00016613   -0.00020671
     atom   19 type  1   force =     0.00015548   -0.00007325    0.00005659
     atom   20 type  1   force =    -0.00002025    0.00001330    0.00000684
     atom   21 type  2   force =     0.00005817   -0.00004766    0.10321186
     atom   22 type  2   force =     0.00000890   -0.00010410   -0.00010297
     atom   23 type  2   force =    -0.07148442   -0.00011615   -0.02771764
     atom   24 type  2   force =     0.07139013    0.00029501   -0.02772822
     atom   25 type  1   force =    -0.00003100   -0.00028855    0.09580432
     atom   26 type  1   force =    -0.00022872   -0.00033770   -0.17581855
     atom   27 type  2   force =     0.00005069   -0.00017845   -0.02325461
     atom   28 type  2   force =     0.00007082   -0.00125981    0.05303086
     atom   29 type  2   force =    -0.01201245    0.00042148    0.00402871
     atom   30 type  2   force =     0.01310018    0.00076639    0.00211567
     atom   31 type  1   force =    -0.00118157    0.00401011   -0.00990444
     atom   32 type  1   force =     0.00067586   -0.01004532    0.02473474
     atom   33 type  2   force =     0.00001560   -0.00000444    0.00000922
     atom   34 type  2   force =    -0.00025134    0.00012235   -0.02260597
     atom   35 type  2   force =    -0.00000648   -0.00000665   -0.00002471
     atom   36 type  2   force =    -0.00001980    0.00001006   -0.00003500
     atom   37 type  1   force =    -0.00001343   -0.00004746    0.00004534
     atom   38 type  1   force =     0.00003858    0.00006207    0.00004987
     atom   39 type  2   force =    -0.00004080    0.00001373   -0.00007298
     atom   40 type  2   force =    -0.00001368   -0.00004413    0.00000154
     atom   41 type  2   force =    -0.00002124    0.00000628   -0.00005476
     atom   42 type  2   force =     0.00009388    0.00021861    0.00019883
     atom   43 type  1   force =     0.00008105    0.00004825   -0.00003277
     atom   44 type  1   force =    -0.00002140    0.00001014    0.00010028
     atom   45 type  2   force =     0.00004778   -0.00009183    0.10320604
     atom   46 type  2   force =    -0.07149535   -0.00008418   -0.02773984
     atom   47 type  2   force =     0.07140940    0.00035040   -0.02773010
     atom   48 type  3   force =     0.00005903    0.00005304    0.00009341
     atom   49 type  3   force =    -0.00000085   -0.00002447   -0.00009867
     atom   50 type  4   force =    -0.00001844    0.00006001   -0.00004017
     atom   51 type  5   force =    -0.00000440   -0.00006412    0.00005619
     atom   52 type  5   force =     0.00003769   -0.00000002    0.00002496
     atom   53 type  5   force =    -0.00009382    0.00000341   -0.00002587
     atom   54 type  2   force =     0.00044213    0.00431920   -0.00436575
     atom   55 type  5   force =     0.00056451    0.00123650   -0.00069412
     atom   56 type  2   force =    -0.00150579   -0.00619669    0.00507084
     atom   57 type  5   force =     0.00044050    0.00013339    0.00003745

     Total force =     0.367221     Total SCF correction =     0.000575
  @ DRIVER MODE: Message from server: STATUS
  @ DRIVER MODE: Message from server: GETFORCE
  @ DRIVER MODE: Returning v,forces,stress,ensemble

     Writing output data file ./calc.save/
  @ DRIVER MODE: Message from server: EXIT
  @ DRIVE MODE: Exiting

     General routines

     Parallel routines

   This run was terminated on:  16:33:31  26Sep2021

   JOB DONE.