     Program PWSCF v.6.7GPU starts on 23Sep2021 at  1:37:25

     R & G space division:  proc/nbgrp/npool/nimage =      10
     Reading input from /storage/home/hcoda1/3/ntian30/research/carbon/CxH_vib/H2O_calc/ads_slab/CH2NHNHH2O_b/out_0027/pw.inp
Warning: card &CELL ignored
Warning: card   CELL_DYNAMICS='IPI', ignored
Warning: card / ignored

     Current dimensions of program PWSCF are:
     Max number of different atomic species (ntypx) = 10
     Max number of k-points (npk) =  40000
     Max angular momentum in pseudopotentials (lmaxx) =  3
     Presently no symmetry can be used with electric field

     Message from routine cell_base_init:
     DEPRECATED: use true lattice parameter, not A to a.u. conversion factor

     IMPORTANT: XC functional enforced from input :
     Exchange-correlation= BEEF-VDW
                           (   1   4  43  14   2   0   0)
     Any further DFT definition will be discarded
     Please, verify this is what you really want

  @ DRIVER MODE: Connecting to
 qe_1139763_2937310.sched-torque.pace.gatech.edusdl9kcbm_scratch
  using UNIX socket
  @ DRIVER MODE: Message from server: STATUS
  @ DRIVER MODE: Message from server: INIT
  @ DRIVER MODE: Receiving replica           0          -1
  @ DRIVER MODE: Receiving encoded integer          25
  @ DRIVER MODE:  SCF:  T  FORCE:  T  STRESS:  F  VC:  F  ENSEMBLE:  F
  @ DRIVER MODE:  SCF:  T  FORCE:  T  STRESS:  F  VC:  F  ENSEMBLE:  F

     Using Slab Decomposition

     bravais-lattice index     =            0
     lattice parameter (alat)  =       1.8897  a.u.
     unit-cell volume          =    6658.9804 (a.u.)^3
     number of atoms/cell      =           57
     number of atomic types    =            5
     number of electrons       =       404.00
     number of Kohn-Sham states=          212
     kinetic-energy cutoff     =      29.3995  Ry
     charge density cutoff     =     293.9946  Ry
     scf convergence threshold =      7.3E-08
     mixing beta               =       0.0500
     number of iterations used =            8  plain     mixing
     Exchange-correlation= BEEF-VDW
                           (   1   4  43  14   2   0   0)

     celldm(1)=   1.889726  celldm(2)=   0.000000  celldm(3)=   0.000000
     celldm(4)=   0.000000  celldm(5)=   0.000000  celldm(6)=   0.000000

     crystal axes: (cart. coord. in units of alat)
               a(1) = (   6.579727   0.000000   0.000000 )
               a(2) = (  -0.000775   5.961596   0.000000 )
               a(3) = (   0.000000   0.000000  25.155947 )

     reciprocal axes: (cart. coord. in units 2 pi/alat)
               b(1) = (  0.151982  0.000020  0.000000 )
               b(2) = (  0.000000  0.167740  0.000000 )
               b(3) = (  0.000000  0.000000  0.039752 )

     PseudoPot. # 1 for Ti read from file:
     /storage/coda1/p-amedford6/0/shared/rich_project_chbe-medford/medford-share/data/pseudos_module/espresso/nninc/pbe/van/Ti.UPF
     MD5 check sum: 8e4df49b7f0d34bbd5052bf3f5ea0213
     Pseudo is Ultrasoft, Zval = 12.0
     Generated by new atomic code, or converted to UPF format
     Using radial grid of  851 points,  6 beta functions with:
                l(1) =   0
                l(2) =   0
                l(3) =   1
                l(4) =   1
                l(5) =   2
                l(6) =   2
     Q(r) pseudized with  8 coefficients,  rinner =    1.000   1.000   1.000
                                                       1.000   1.000

     PseudoPot. # 2 for O  read from file:
     /storage/coda1/p-amedford6/0/shared/rich_project_chbe-medford/medford-share/data/pseudos_module/espresso/nninc/pbe/van/O.UPF
     MD5 check sum: 78c19812648e8988a0fe644b0f25305e
     Pseudo is Ultrasoft, Zval =  6.0
     Generated by new atomic code, or converted to UPF format
     Using radial grid of  737 points,  4 beta functions with:
                l(1) =   0
                l(2) =   0
                l(3) =   1
                l(4) =   1
     Q(r) pseudized with  8 coefficients,  rinner =    0.800   0.800   0.800

     PseudoPot. # 3 for N  read from file:
     /storage/coda1/p-amedford6/0/shared/rich_project_chbe-medford/medford-share/data/pseudos_module/espresso/nninc/pbe/van/N.UPF
     MD5 check sum: 90d10febe142ad51ac9d5be1deb811c4
     Pseudo is Ultrasoft, Zval =  5.0
     Generated by new atomic code, or converted to UPF format
     Using radial grid of  729 points,  4 beta functions with:
                l(1) =   0
                l(2) =   0
                l(3) =   1
                l(4) =   1
     Q(r) pseudized with  8 coefficients,  rinner =    0.800   0.800   0.800

     PseudoPot. # 4 for C  read from file:
     /storage/coda1/p-amedford6/0/shared/rich_project_chbe-medford/medford-share/data/pseudos_module/espresso/nninc/pbe/van/C.UPF
     MD5 check sum: 1a69bf6b8db32088f5b2163dbdb77a27
     Pseudo is Ultrasoft, Zval =  4.0
     Generated by new atomic code, or converted to UPF format
     Using radial grid of  721 points,  4 beta functions with:
                l(1) =   0
                l(2) =   0
                l(3) =   1
                l(4) =   1
     Q(r) pseudized with  8 coefficients,  rinner =    0.800   0.800   0.800

     PseudoPot. # 5 for H  read from file:
     /storage/coda1/p-amedford6/0/shared/rich_project_chbe-medford/medford-share/data/pseudos_module/espresso/nninc/pbe/van/H.UPF
     MD5 check sum: b5ee9d7bfd3a09ee7748110bda690ff7
     Pseudo is Ultrasoft, Zval =  1.0
     Generated by new atomic code, or converted to UPF format
     Using radial grid of  615 points,  1 beta functions with:
                l(1) =   0
     Q(r) pseudized with  8 coefficients,  rinner =    0.800

     atomic species   valence    mass     pseudopotential
        Ti1           12.00    47.86700     Ti( 1.00)
        O1             6.00    15.99900     O ( 1.00)
        N1             5.00    14.00700     N ( 1.00)
        C1             4.00    12.01100     C ( 1.00)
        H1             1.00     1.00800     H ( 1.00)

     No symmetry found

   Cartesian axes

     site n.     atom                  positions (alat units)
         1           Ti1 tau(   1) = (   0.0004258   2.9801865   6.0000000  )
         2           Ti1 tau(   2) = (   3.2906075   1.4906267   6.0002472  )
         3           O1  tau(   3) = (   0.0006271   0.0005054   7.9858123  )
         4           O1  tau(   4) = (   3.2906025   0.0005020   7.3038282  )
         5           O1  tau(   5) = (   4.5942328   1.4918067   9.2879030  )
         6           O1  tau(   6) = (   1.9868534   1.4903216   9.2879459  )
         7           Ti1 tau(   7) = (   3.2907910   2.8959150   9.1758416  )
         8           Ti1 tau(   8) = (   0.0015273   1.4827037   9.2680791  )
         9           O1  tau(   9) = (   3.2740695   5.9399032  11.3612631  )
        10           O1  tau(  10) = (   0.0116148   5.9584955  10.6183126  )
        11           O1  tau(  11) = (   1.2665466   1.4659349  12.6457467  )
        12           O1  tau(  12) = (   5.2636777   1.4644475  12.6520517  )
        13           Ti1 tau(  13) = (   0.0254019   2.9535957  12.5508080  )
        14           Ti1 tau(  14) = (   3.3235577   1.4585364  12.5144190  )
        15           O1  tau(  15) = (   0.0066209   5.9388471  14.7046414  )
        16           O1  tau(  16) = (   3.2471877   5.9405099  14.0100224  )
        17           O1  tau(  17) = (   4.5302733   1.5208160  16.0462967  )
        18           O1  tau(  18) = (   1.9955500   1.4995475  16.2009832  )
        19           Ti1 tau(  19) = (   3.2567830   2.9699832  15.6929747  )
        20           Ti1 tau(  20) = (   6.4949666   1.4732860  15.8443191  )
        21           O1  tau(  21) = (   3.2904802   0.0005063   4.7018136  )
        22           O1  tau(  22) = (   6.4419287   5.8812218  17.2824568  )
        23           O1  tau(  23) = (   1.3043587   1.4918075   6.0039043  )
        24           O1  tau(  24) = (   5.2767064   1.4903225   6.0039473  )
        25           Ti1 tau(  25) = (   0.0000382   5.9609847   6.0000000  )
        26           Ti1 tau(  26) = (   3.2902200   4.4714249   6.0002472  )
        27           O1  tau(  27) = (   0.0002396   2.9813036   7.9858123  )
        28           O1  tau(  28) = (   3.2902150   2.9813002   7.3038282  )
        29           O1  tau(  29) = (   4.5938453   4.4726049   9.2879030  )
        30           O1  tau(  30) = (   1.9864658   4.4711199   9.2879459  )
        31           Ti1 tau(  31) = (   3.2891106   5.8743827   9.1763621  )
        32           Ti1 tau(  32) = (   0.0006254   4.4649316   9.2693709  )
        33           O1  tau(  33) = (   3.2800166   2.9600013  11.3546200  )
        34           O1  tau(  34) = (   0.0092240   2.9805883  10.6323155  )
        35           O1  tau(  35) = (   1.2663080   4.4508225  12.6496728  )
        36           O1  tau(  36) = (   5.2650692   4.4524444  12.6537221  )
        37           Ti1 tau(  37) = (   0.0180281   5.9297397  12.5120547  )
        38           Ti1 tau(  38) = (   3.3242103   4.4456960  12.5094407  )
        39           O1  tau(  39) = (   0.0028395   2.9305241  14.7702868  )
        40           O1  tau(  40) = (   3.2369197   2.9632653  13.9133312  )
        41           O1  tau(  41) = (   4.5259019   4.3784886  16.1008109  )
        42           O1  tau(  42) = (   2.0017919   4.4285960  16.1845674  )
        43           Ti1 tau(  43) = (   3.2453488   5.9423767  15.8283900  )
        44           Ti1 tau(  44) = (   6.5728488   4.6138345  16.0446011  )
        45           O1  tau(  45) = (   3.2900926   2.9813045   4.7018136  )
        46           O1  tau(  46) = (   1.3039711   4.4726057   6.0039043  )
        47           O1  tau(  47) = (   5.2763189   4.4711207   6.0039473  )
        48           N1  tau(  48) = (   0.9567011   2.5879941  18.4848429  )
        49           N1  tau(  49) = (   6.5185693   2.8362889  17.6364570  )
        50           C1  tau(  50) = (   1.0658718   2.8740630  19.7563100  )
        51           H1  tau(  51) = (   1.9437682   2.5238050  20.2723566  )
        52           H1  tau(  52) = (   0.2809834   3.4110577  20.2544045  )
        53           H1  tau(  53) = (   1.7014144   2.0656717  17.9989220  )
        54           H1  tau(  54) = (   5.6742842   3.0275795  18.1730567  )
        55           O1  tau(  55) = (   3.7618585   0.1297276  18.3074903  )
        56           H1  tau(  56) = (   4.7330396   0.0541995  18.1289380  )
        57           H1  tau(  57) = (   3.4892521   5.2388606  18.6788193  )

     number of k points=    10  Fermi-Dirac smearing, width (Ry)=  0.0073
                       cart. coord. in units 2pi/alat
        k(    1) = (   0.0000000   0.0000000   0.0000000), wk =   0.1250000
        k(    2) = (   0.0000000   0.0419351   0.0000000), wk =   0.2500000
        k(    3) = (   0.0000000  -0.0838702   0.0000000), wk =   0.1250000
        k(    4) = (   0.0379955   0.0000049   0.0000000), wk =   0.2500000
        k(    5) = (   0.0379955   0.0419400   0.0000000), wk =   0.2500000
        k(    6) = (   0.0379955  -0.0838652   0.0000000), wk =   0.2500000
        k(    7) = (   0.0379955  -0.0419301   0.0000000), wk =   0.2500000
        k(    8) = (  -0.0759910  -0.0000099   0.0000000), wk =   0.1250000
        k(    9) = (  -0.0759910   0.0419252   0.0000000), wk =   0.2500000
        k(   10) = (  -0.0759910  -0.0838800   0.0000000), wk =   0.1250000

     Initial potential from superposition of free atoms

     starting charge  387.99913, renormalised to  404.00000

     negative rho (up, down):  1.394E-02 0.000E+00

     %%%%%%%%%%%%%%%%%%%%%%%%%%%%%%%%%%%%%%%%%%%%%%%%%%%%%%%%%%%%%%%%%%%%%%%%
     %                                                                      %
     % You are using vdW-DF, which was implemented by the Thonhauser group. %
     % Please cite the following two papers that made this development      %
     % possible and the two reviews that describe the various versions:     %
     %                                                                      %
     %   T. Thonhauser et al., PRL 115, 136402 (2015).                      %
     %   T. Thonhauser et al., PRB 76, 125112 (2007).                       %
     %   K. Berland et al., Rep. Prog. Phys. 78, 066501 (2015).             %
     %   D.C. Langreth et al., J. Phys.: Condens. Matter 21, 084203 (2009). %
     %                                                                      %
     %                                                                      %
     % If you are calculating the stress with vdW-DF, please also cite:     %
     %                                                                      %
     %   R. Sabatini et al., J. Phys.: Condens. Matter 24, 424209 (2012).   %
     %                                                                      %
     %%%%%%%%%%%%%%%%%%%%%%%%%%%%%%%%%%%%%%%%%%%%%%%%%%%%%%%%%%%%%%%%%%%%%%%%

     Adding external electric field

     Computed dipole along edir(3) :
        Dipole              -14.1772 Ry au,        -36.0349 Debye
        Dipole field         -0.0268 Ry au,

        Potential amp.        2.4801 Ry
        Total length         46.3494 bohr

     Starting wfcs are  306 atomic wfcs
  @ DRIVER MODE: Message from server: STATUS
  @ DRIVER MODE: Message from server: POSDATA
  @ DRIVER MODE: Reading and sharing cell
  @ DRIVER MODE: Reading and sharing positions
  @ DRIVER MODE: Received positions

     Self-consistent Calculation

     iteration #  1     ecut=    29.40 Ry     beta= 0.05
     Davidson diagonalization with overlap
     c_bands:  4 eigenvalues not converged
     c_bands:  5 eigenvalues not converged
     c_bands:  2 eigenvalues not converged
     c_bands:  2 eigenvalues not converged
     c_bands:  1 eigenvalues not converged
     c_bands:  1 eigenvalues not converged
     c_bands:  4 eigenvalues not converged
     c_bands:  1 eigenvalues not converged
     c_bands:  1 eigenvalues not converged
     ethr =  1.00E-05,  avg # of iterations = 28.9

[...]

     total energy              =   -2249.24067582 Ry
     estimated scf accuracy    <    8255.77951088 Ry

     iteration #  2     ecut=    29.40 Ry     beta= 0.05
     Davidson diagonalization with overlap
     ethr =  1.00E-02,  avg # of iterations = 27.4

[...]

     iteration # 78     ecut=    29.40 Ry     beta= 0.05
     Davidson diagonalization with overlap
     c_bands:  1 eigenvalues not converged
     c_bands:  1 eigenvalues not converged
     ethr =  6.06E-11,  avg # of iterations = 15.0

[...]

     total energy              =   -2975.20161607 Ry
     estimated scf accuracy    <       0.00000023 Ry

     iteration # 79     ecut=    29.40 Ry     beta= 0.05
     Davidson diagonalization with overlap
     ethr =  5.80E-11,  avg # of iterations =  8.8

     negative rho (up, down):  1.355E-02 0.000E+00

     Adding external electric field

     Computed dipole along edir(3) :
        Dipole                1.4228 Ry au,          3.6164 Debye
        Dipole field          0.0027 Ry au,

        Potential amp.       -0.2489 Ry
        Total length         46.3494 bohr

     End of self-consistent calculation

          k = 0.0000 0.0000 0.0000 ( 18029 PWs)   bands (ev):

   -55.1448 -55.1163 -55.1081 -55.0822 -55.0796 -55.0306 -54.9887 -54.9562
   -54.9410 -54.9249 -54.9209 -54.9177 -54.9079 -54.8359 -54.1292 -54.0952
   -31.7077 -31.6061 -31.5237 -31.4805 -31.4605 -31.4554 -31.4453 -31.4431
   -31.4061 -31.3860 -31.3640 -31.3606 -31.3443 -31.3222 -31.3054 -31.2916
   -31.2859 -31.2691 -31.2664 -31.2572 -31.2277 -31.2147 -31.2107 -31.1858
   -31.1791 -31.1733 -31.1637 -31.1581 -31.1565 -31.1492 -31.1377 -31.1357
   -31.1137 -31.1053 -31.1015 -31.0932 -31.0849 -31.0723 -31.0698 -31.0522
   -31.0491 -31.0160 -30.5377 -30.4456 -30.4235 -30.3543 -30.2676 -30.1566
   -19.2636 -18.5910 -15.9617 -15.6970 -15.5660 -15.4002 -15.3365 -15.1652
   -15.0848 -15.0194 -14.9339 -14.8753 -14.8608 -14.8549 -14.7628 -14.7449
   -14.6923 -14.6795 -14.6728 -14.6418 -14.6337 -14.5763 -14.5716 -14.5666
   -14.5323 -14.5195 -14.4898 -14.3718 -14.2912 -14.2344 -14.0241 -13.6716
   -12.6316 -12.5145 -10.0295  -6.8275  -6.4960  -6.3654  -4.0818  -3.9071
    -3.3131  -3.1715  -3.1517  -3.0690  -3.0454  -2.9235  -2.8670  -2.7061
    -2.5983  -2.5002  -2.4104  -2.3407  -2.3327  -2.3045  -2.1882  -2.1254
    -2.0794  -2.0362  -2.0176  -2.0047  -1.9562  -1.9204  -1.9180  -1.8511
    -1.8495  -1.7119  -1.6181  -1.6133  -1.5791  -1.5630  -1.4744  -1.4518
    -1.4421  -1.4360  -1.4295  -1.4221  -1.3878  -1.3436  -1.3183  -1.2354
    -1.1811  -1.1376  -1.0066  -0.9049  -0.8314  -0.7744  -0.6860  -0.6826
    -0.6150  -0.5495  -0.5354  -0.5334  -0.4729  -0.3517  -0.3061  -0.2549
    -0.2342  -0.2094  -0.1196  -0.1025  -0.0327   0.0399   0.0685   0.0785
     0.1001   0.2733   0.2812   0.3104   0.3292   0.4189   0.4711   0.5129
     0.5193   0.5418   0.6077   0.6467   0.7381   0.7855   0.7963   0.8170
     0.8387   0.8780   0.9547   0.9645   1.0056   1.0289   1.1696   1.2053
     1.2584   1.4752   1.4773   1.8065   1.8466   1.8936   2.0797   2.4680
     2.5154   3.9548   4.0444   4.0835   4.0852   4.1042   4.1898   4.3234
     4.4357   4.4463   4.4584   4.4804

[...]

          k = 0.0380-0.0419 0.0000 ( 17876 PWs)   bands (ev):

[...]

          k =-0.0760-0.0000 0.0000 ( 17886 PWs)   bands (ev):

[...]

          k =-0.0760-0.0839 0.0000 ( 17948 PWs)   bands (ev):

   -55.1300 -55.1226 -55.0993 -55.0992 -55.0777 -55.0216 -54.9977 -54.9412
   -54.9349 -54.9263 -54.9252 -54.9244 -54.9145 -54.8394 -54.1122 -54.1121
   -31.5162 -31.5079 -31.4227 -31.4213 -31.4212 -31.4057 -31.3915 -31.3914
   -31.3672 -31.3651 -31.3599 -31.3532 -31.3422 -31.3118 -31.2820 -31.2752
   -31.2745 -31.2740 -31.2697 -31.2640 -31.2571 -31.2389 -31.2248 -31.2222
   -31.2191 -31.2187 -31.2185 -31.1969 -31.1744 -31.1659 -31.1644 -31.1550
   -31.1491 -31.1465 -31.1445 -31.1436 -31.1419 -31.1122 -31.1059 -31.1043
   -31.0901 -31.0596 -30.4362 -30.4361 -30.3504 -30.3502 -30.3110 -30.3109
   -19.2610 -18.5905 -15.4559 -15.2990 -15.2856 -15.1342 -15.1199 -15.1116
   -15.0869 -15.0117 -14.9927 -14.9288 -14.9161 -14.8724 -14.8459 -14.8331
   -14.8222 -14.7286 -14.7213 -14.7151 -14.6992 -14.6487 -14.6366 -14.6194
   -14.5962 -14.5921 -14.5553 -14.4908 -14.4876 -14.4556 -14.2254 -13.6824
   -12.6161 -12.6159 -10.0324  -6.8215  -6.4987  -6.3578  -4.0594  -3.8917
    -2.9361  -2.7209  -2.5284  -2.5076  -2.4647  -2.3671  -2.3261  -2.2853
    -2.1892  -2.1398  -2.1243  -2.1023  -2.0888  -2.0293  -2.0250  -2.0223
    -1.9860  -1.9778  -1.9636  -1.9386  -1.9161  -1.8826  -1.8686  -1.8577
    -1.8449  -1.8058  -1.7861  -1.7577  -1.7447  -1.7153  -1.6989  -1.6301
    -1.5258  -1.4960  -1.4426  -1.3502  -1.3315  -1.3257  -1.2407  -1.2081
    -1.1949  -1.1797  -1.1659  -1.1040  -0.9688  -0.8799  -0.8698  -0.8180
    -0.7525  -0.7186  -0.6760  -0.6489  -0.6215  -0.5670  -0.5176  -0.4934
    -0.4198  -0.3662  -0.3601  -0.3278  -0.1820  -0.1579  -0.1105  -0.1084
    -0.0941  -0.0850   0.0047   0.0214   0.0658   0.0856   0.1254   0.1440
     0.2165   0.2331   0.3529   0.4224   0.4843   0.5907   0.7315   0.7445
     0.8165   0.8775   0.9168   0.9824   1.0399   1.0728   1.1556   1.1658
     1.1815   1.2835   1.3329   1.3395   1.3563   2.2521   2.2537   2.3353
     2.3355   4.1170   4.1396   4.2289   4.2425   4.2947   4.3774   4.4670
     4.4934   4.5283   4.5326   4.6120

     the Fermi energy is     4.0029 ev

!    total energy              =   -2975.20163358 Ry
     estimated scf accuracy    <       0.00000005 Ry
     smearing contrib. (-TS)   =      -0.03820703 Ry
     internal energy E=F+TS    =   -2975.16342655 Ry

     The total energy is F=E-TS. E is the sum of the following terms:
     one-electron contribution =  -23646.38827817 Ry
     hartree contribution      =   11921.36604842 Ry
     xc contribution           =    -494.97889773 Ry
     ewald contribution        =    9244.83388065 Ry
     electric field correction =       0.00382028 Ry

     convergence has been achieved in  79 iterations

     Forces acting on atoms (cartesian axes, Ry/au):

     atom    1 type  1   force =     0.00013646   -0.00013125    0.09421913
     atom    2 type  1   force =    -0.00023058   -0.00026654   -0.17729270
     atom    3 type  2   force =     0.00001627   -0.00026147   -0.02169673
     atom    4 type  2   force =    -0.00004313   -0.00184660    0.05695740
     atom    5 type  2   force =    -0.01106476   -0.00171834    0.00687187
     atom    6 type  2   force =     0.01215388   -0.00091360    0.00493788
     atom    7 type  1   force =    -0.00122187    0.00156064   -0.01218913
     atom    8 type  1   force =     0.00073078    0.00494362    0.00605099
     atom    9 type  2   force =     0.00026788    0.00050612    0.00032750
     atom   10 type  2   force =    -0.00307155   -0.00067299   -0.00505540
     atom   11 type  2   force =     0.00080184    0.00021700   -0.00023910
     atom   12 type  2   force =    -0.00006262    0.00051383    0.00001004
     atom   13 type  1   force =    -0.00021366    0.00011261   -0.00009144
     atom   14 type  1   force =    -0.00001000    0.00011888   -0.00010173
     atom   15 type  2   force =    -0.00006117    0.00003739    0.00026877
     atom   16 type  2   force =     0.00040641    0.00035338   -0.00012733
     atom   17 type  2   force =     0.00019224   -0.00008655    0.00032640
     atom   18 type  2   force =     0.00009935   -0.00020549    0.00014445
     atom   19 type  1   force =     0.00029658    0.00033628   -0.00011576
     atom   20 type  1   force =     0.00000912    0.00047723    0.00016066
     atom   21 type  2   force =     0.00004985    0.00002508    0.10365827
     atom   22 type  2   force =     0.00055787   -0.00000843   -0.00014221
     atom   23 type  2   force =    -0.07084669   -0.00008519   -0.02718738
     atom   24 type  2   force =     0.07067945    0.00039877   -0.02722548
     atom   25 type  1   force =    -0.00006522   -0.00027927    0.09392707
     atom   26 type  1   force =    -0.00031541   -0.00035760   -0.17746821
     atom   27 type  2   force =     0.00000786   -0.00023219   -0.02073841
     atom   28 type  2   force =     0.00003676   -0.00148786    0.05598613
     atom   29 type  2   force =    -0.01133884   -0.00053045    0.00690994
     atom   30 type  2   force =     0.01229993   -0.00025228    0.00492800
     atom   31 type  1   force =    -0.00121699    0.00504941   -0.01497077
     atom   32 type  1   force =     0.00092672   -0.00600248    0.00588121
     atom   33 type  2   force =     0.00035741   -0.00013350    0.00011955
     atom   34 type  2   force =    -0.00261084   -0.00151637   -0.00576987
     atom   35 type  2   force =     0.00035924    0.00029740   -0.00030362
     atom   36 type  2   force =     0.00044703    0.00040244   -0.00006643
     atom   37 type  1   force =    -0.00016334   -0.00015571   -0.00018016
     atom   38 type  1   force =     0.00005106    0.00032972    0.00043926
     atom   39 type  2   force =     0.00007994    0.00085729   -0.00075705
     atom   40 type  2   force =     0.00003910   -0.00008435    0.00004380
     atom   41 type  2   force =     0.00091738    0.00040432    0.00054262
     atom   42 type  2   force =    -0.00081297    0.00020704   -0.00009245
     atom   43 type  1   force =     0.00044253   -0.00072947    0.00007468
     atom   44 type  1   force =     0.00015048    0.00000061   -0.00058005
     atom   45 type  2   force =     0.00001790   -0.00002237    0.10365462
     atom   46 type  2   force =    -0.07083650   -0.00000944   -0.02720354
     atom   47 type  2   force =     0.07066526    0.00039546   -0.02719927
     atom   48 type  3   force =    -0.00054986    0.00018052    0.00019025
     atom   49 type  3   force =     0.00026157   -0.00007890   -0.00074768
     atom   50 type  4   force =     0.00482540   -0.00407546   -0.00265288
     atom   51 type  5   force =    -0.00003060   -0.00014724    0.00003816
     atom   52 type  5   force =    -0.00455102    0.00318709    0.00287276
     atom   53 type  5   force =    -0.00043687    0.00087898    0.00030982
     atom   54 type  5   force =     0.00088867    0.00047871    0.00017059
     atom   55 type  2   force =     0.00010755    0.00018929    0.00003298
     atom   56 type  5   force =     0.00069423   -0.00019683   -0.00053957
     atom   57 type  5   force =    -0.00021951    0.00002909    0.00067953

     Total force =     0.365787     Total SCF correction =     0.000478
  @ DRIVER MODE: Message from server: STATUS
  @ DRIVER MODE: Message from server: GETFORCE
  @ DRIVER MODE: Returning v,forces,stress,ensemble

     Writing output data file ./calc.save/
  @ DRIVER MODE: Message from server: EXIT
  @ DRIVE MODE: Exiting

     General routines

     Parallel routines

   This run was terminated on:   1:59: 9  23Sep2021

   JOB DONE.