     Program PWSCF v.6.7GPU starts on 16Sep2021 at  0:20: 5

     R & G space division:  proc/nbgrp/npool/nimage =      10
     Reading input from /storage/home/hcoda1/3/ntian30/research/carbon/CxH_vib/H2O_calc/ads_slab/CHNHHH2O_a/out_0027/pw.inp
Warning: card &CELL ignored
Warning: card   CELL_DYNAMICS='IPI', ignored
Warning: card / ignored

     Current dimensions of program PWSCF are:
     Max number of different atomic species (ntypx) = 10
     Max number of k-points (npk) =  40000
     Max angular momentum in pseudopotentials (lmaxx) =  3
     Presently no symmetry can be used with electric field

     Message from routine cell_base_init:
     DEPRECATED: use true lattice parameter, not A to a.u. conversion factor

     IMPORTANT: XC functional enforced from input :
     Exchange-correlation= BEEF-VDW
                           (   1   4  43  14   2   0   0)
     Any further DFT definition will be discarded
     Please, verify this is what you really want

  @ DRIVER MODE: Connecting to
 qe_1139763_2852629.sched-torque.pace.gatech.edudchegj0a_scratch
  using UNIX socket
  @ DRIVER MODE: Message from server: STATUS
  @ DRIVER MODE: Message from server: INIT
  @ DRIVER MODE: Receiving replica           0          -1
  @ DRIVER MODE: Receiving encoded integer          25
  @ DRIVER MODE:  SCF:  T  FORCE:  T  STRESS:  F  VC:  F  ENSEMBLE:  F
  @ DRIVER MODE:  SCF:  T  FORCE:  T  STRESS:  F  VC:  F  ENSEMBLE:  F

     Using Slab Decomposition

     bravais-lattice index     =            0
     lattice parameter (alat)  =       1.8897  a.u.
     unit-cell volume          =    6658.9804 (a.u.)^3
     number of atoms/cell      =           55
     number of atomic types    =            5
     number of electrons       =       398.00
     number of Kohn-Sham states=          209
     kinetic-energy cutoff     =      29.3995  Ry
     charge density cutoff     =     293.9946  Ry
     scf convergence threshold =      7.3E-08
     mixing beta               =       0.0500
     number of iterations used =            8  plain     mixing
     Exchange-correlation= BEEF-VDW
                           (   1   4  43  14   2   0   0)

     celldm(1)=   1.889726  celldm(2)=   0.000000  celldm(3)=   0.000000
     celldm(4)=   0.000000  celldm(5)=   0.000000  celldm(6)=   0.000000

     crystal axes: (cart. coord. in units of alat)
               a(1) = (   6.579727   0.000000   0.000000 )
               a(2) = (  -0.000775   5.961596   0.000000 )
               a(3) = (   0.000000   0.000000  25.155947 )

     reciprocal axes: (cart. coord. in units 2 pi/alat)
               b(1) = (  0.151982  0.000020  0.000000 )
               b(2) = (  0.000000  0.167740  0.000000 )
               b(3) = (  0.000000  0.000000  0.039752 )

     PseudoPot. # 1 for Ti read from file:
     /storage/coda1/p-amedford6/0/shared/rich_project_chbe-medford/medford-share/data/pseudos_module/espresso/nninc/pbe/van/Ti.UPF
     MD5 check sum: 8e4df49b7f0d34bbd5052bf3f5ea0213
     Pseudo is Ultrasoft, Zval = 12.0
     Generated by new atomic code, or converted to UPF format
     Using radial grid of  851 points,  6 beta functions with:
                l(1) =   0
                l(2) =   0
                l(3) =   1
                l(4) =   1
                l(5) =   2
                l(6) =   2
     Q(r) pseudized with  8 coefficients,  rinner =    1.000   1.000   1.000
                                                       1.000   1.000

     PseudoPot. # 2 for O  read from file:
     /storage/coda1/p-amedford6/0/shared/rich_project_chbe-medford/medford-share/data/pseudos_module/espresso/nninc/pbe/van/O.UPF
     MD5 check sum: 78c19812648e8988a0fe644b0f25305e
     Pseudo is Ultrasoft, Zval =  6.0
     Generated by new atomic code, or converted to UPF format
     Using radial grid of  737 points,  4 beta functions with:
                l(1) =   0
                l(2) =   0
                l(3) =   1
                l(4) =   1
     Q(r) pseudized with  8 coefficients,  rinner =    0.800   0.800   0.800

     PseudoPot. # 3 for N  read from file:
     /storage/coda1/p-amedford6/0/shared/rich_project_chbe-medford/medford-share/data/pseudos_module/espresso/nninc/pbe/van/N.UPF
     MD5 check sum: 90d10febe142ad51ac9d5be1deb811c4
     Pseudo is Ultrasoft, Zval =  5.0
     Generated by new atomic code, or converted to UPF format
     Using radial grid of  729 points,  4 beta functions with:
                l(1) =   0
                l(2) =   0
                l(3) =   1
                l(4) =   1
     Q(r) pseudized with  8 coefficients,  rinner =    0.800   0.800   0.800

     PseudoPot. # 4 for C  read from file:
     /storage/coda1/p-amedford6/0/shared/rich_project_chbe-medford/medford-share/data/pseudos_module/espresso/nninc/pbe/van/C.UPF
     MD5 check sum: 1a69bf6b8db32088f5b2163dbdb77a27
     Pseudo is Ultrasoft, Zval =  4.0
     Generated by new atomic code, or converted to UPF format
     Using radial grid of  721 points,  4 beta functions with:
                l(1) =   0
                l(2) =   0
                l(3) =   1
                l(4) =   1
     Q(r) pseudized with  8 coefficients,  rinner =    0.800   0.800   0.800

     PseudoPot. # 5 for H  read from file:
     /storage/coda1/p-amedford6/0/shared/rich_project_chbe-medford/medford-share/data/pseudos_module/espresso/nninc/pbe/van/H.UPF
     MD5 check sum: b5ee9d7bfd3a09ee7748110bda690ff7
     Pseudo is Ultrasoft, Zval =  1.0
     Generated by new atomic code, or converted to UPF format
     Using radial grid of  615 points,  1 beta functions with:
                l(1) =   0
     Q(r) pseudized with  8 coefficients,  rinner =    0.800

     atomic species   valence    mass     pseudopotential
        Ti1           12.00    47.86700     Ti( 1.00)
        O1             6.00    15.99900     O ( 1.00)
        N1             5.00    14.00700     N ( 1.00)
        C1             4.00    12.01100     C ( 1.00)
        H1             1.00     1.00800     H ( 1.00)

     No symmetry found

   Cartesian axes

     site n.     atom                  positions (alat units)
         1           Ti1 tau(   1) = (   0.0004258   2.9801865   6.0000000  )
         2           Ti1 tau(   2) = (   3.2906075   1.4906267   6.0002472  )
         3           O1  tau(   3) = (   0.0006271   0.0005054   7.9858123  )
         4           O1  tau(   4) = (   3.2906025   0.0005020   7.3038282  )
         5           O1  tau(   5) = (   4.5942328   1.4918067   9.2879030  )
         6           O1  tau(   6) = (   1.9868534   1.4903216   9.2879459  )
         7           Ti1 tau(   7) = (   3.2907910   2.8959150   9.1758416  )
         8           Ti1 tau(   8) = (   0.0015273   1.4827037   9.2680791  )
         9           O1  tau(   9) = (   3.2943807   5.9438157  11.3430345  )
        10           O1  tau(  10) = (   0.0116148   5.9584955  10.6183126  )
        11           O1  tau(  11) = (   1.2953376   1.4759649  12.6292060  )
        12           O1  tau(  12) = (   5.2846356   1.4785235  12.6176154  )
        13           Ti1 tau(  13) = (   0.0556596   2.9564334  12.6140783  )
        14           Ti1 tau(  14) = (   3.3658323   1.4657407  12.4949608  )
        15           O1  tau(  15) = (   6.5664030   0.0209144  14.6477191  )
        16           O1  tau(  16) = (   3.3113265   5.9542485  13.9698242  )
        17           O1  tau(  17) = (   4.5454210   1.5146250  16.1225105  )
        18           O1  tau(  18) = (   2.0305911   1.5113983  16.0894517  )
        19           Ti1 tau(  19) = (   3.2587399   2.9544808  15.6767922  )
        20           Ti1 tau(  20) = (   6.5654577   1.5458692  15.9193722  )
        21           O1  tau(  21) = (   3.2904802   0.0005063   4.7018136  )
        22           O1  tau(  22) = (   0.0418464   5.8849155  17.2380659  )
        23           O1  tau(  23) = (   1.3043587   1.4918075   6.0039043  )
        24           O1  tau(  24) = (   5.2767064   1.4903225   6.0039473  )
        25           Ti1 tau(  25) = (   0.0000382   5.9609847   6.0000000  )
        26           Ti1 tau(  26) = (   3.2902200   4.4714249   6.0002472  )
        27           O1  tau(  27) = (   0.0002396   2.9813036   7.9858123  )
        28           O1  tau(  28) = (   3.2902150   2.9813002   7.3038282  )
        29           O1  tau(  29) = (   4.5938453   4.4726049   9.2879030  )
        30           O1  tau(  30) = (   1.9864658   4.4711199   9.2879459  )
        31           Ti1 tau(  31) = (   3.2891106   5.8743827   9.1763621  )
        32           Ti1 tau(  32) = (   0.0006254   4.4649316   9.2693709  )
        33           O1  tau(  33) = (   3.2978316   2.9705197  11.3397625  )
        34           O1  tau(  34) = (   0.0092240   2.9805883  10.6323155  )
        35           O1  tau(  35) = (   1.2936985   4.4655287  12.6460247  )
        36           O1  tau(  36) = (   5.2856521   4.4646452  12.6308247  )
        37           Ti1 tau(  37) = (   0.0515089   5.9379728  12.5308627  )
        38           Ti1 tau(  38) = (   3.3654372   4.4547101  12.4935900  )
        39           O1  tau(  39) = (   6.5748852   2.9443291  14.6951209  )
        40           O1  tau(  40) = (   3.2957406   2.9584624  13.8938737  )
        41           O1  tau(  41) = (   4.5486474   4.4154460  16.0876977  )
        42           O1  tau(  42) = (   2.0388008   4.4257786  16.0448984  )
        43           Ti1 tau(  43) = (   3.3137362   5.9209902  15.7922403  )
        44           Ti1 tau(  44) = (   0.0032603   4.6697478  15.9558853  )
        45           O1  tau(  45) = (   3.2900926   2.9813045   4.7018136  )
        46           O1  tau(  46) = (   1.3039711   4.4726057   6.0039043  )
        47           O1  tau(  47) = (   5.2763189   4.4711207   6.0039473  )
        48           N1  tau(  48) = (   5.6270067   3.1633449  18.6203826  )
        49           C1  tau(  49) = (   0.0237924   2.7940403  17.7774691  )
        50           H1  tau(  50) = (   0.9584034   2.6460975  18.3247808  )
        51           H1  tau(  51) = (   4.7713523   3.5531088  18.2436842  )
        52           H1  tau(  52) = (   5.8168525   3.4066350  19.5804594  )
        53           O1  tau(  53) = (   3.2115967   5.9081562  18.2546127  )
        54           H1  tau(  54) = (   3.8106726   0.6855978  18.4519937  )
        55           H1  tau(  55) = (   2.3006756   0.2828797  18.3268221  )

     number of k points=    10  Fermi-Dirac smearing, width (Ry)=  0.0073
                       cart. coord. in units 2pi/alat
        k(    1) = (   0.0000000   0.0000000   0.0000000), wk =   0.1250000
        k(    2) = (   0.0000000   0.0419351   0.0000000), wk =   0.2500000
        k(    3) = (   0.0000000  -0.0838702   0.0000000), wk =   0.1250000
        k(    4) = (   0.0379955   0.0000049   0.0000000), wk =   0.2500000
        k(    5) = (   0.0379955   0.0419400   0.0000000), wk =   0.2500000
        k(    6) = (   0.0379955  -0.0838652   0.0000000), wk =   0.2500000
        k(    7) = (   0.0379955  -0.0419301   0.0000000), wk =   0.2500000
        k(    8) = (  -0.0759910  -0.0000099   0.0000000), wk =   0.1250000
        k(    9) = (  -0.0759910   0.0419252   0.0000000), wk =   0.2500000
        k(   10) = (  -0.0759910  -0.0838800   0.0000000), wk =   0.1250000

     Initial potential from superposition of free atoms

     starting charge  381.99915, renormalised to  398.00000

     negative rho (up, down):  1.708E-02 0.000E+00

     %%%%%%%%%%%%%%%%%%%%%%%%%%%%%%%%%%%%%%%%%%%%%%%%%%%%%%%%%%%%%%%%%%%%%%%%
     %                                                                      %
     % You are using vdW-DF, which was implemented by the Thonhauser group. %
     % Please cite the following two papers that made this development      %
     % possible and the two reviews that describe the various versions:     %
     %                                                                      %
     %   T. Thonhauser et al., PRL 115, 136402 (2015).                      %
     %   T. Thonhauser et al., PRB 76, 125112 (2007).                       %
     %   K. Berland et al., Rep. Prog. Phys. 78, 066501 (2015).             %
     %   D.C. Langreth et al., J. Phys.: Condens. Matter 21, 084203 (2009). %
     %                                                                      %
     %                                                                      %
     % If you are calculating the stress with vdW-DF, please also cite:     %
     %                                                                      %
     %   R. Sabatini et al., J. Phys.: Condens. Matter 24, 424209 (2012).   %
     %                                                                      %
     %%%%%%%%%%%%%%%%%%%%%%%%%%%%%%%%%%%%%%%%%%%%%%%%%%%%%%%%%%%%%%%%%%%%%%%%

     Adding external electric field

     Computed dipole along edir(3) :
        Dipole              -10.1352 Ry au,        -25.7611 Debye
        Dipole field         -0.0191 Ry au,

        Potential amp.        1.7730 Ry
        Total length         46.3494 bohr

     Starting wfcs are  301 atomic wfcs
  @ DRIVER MODE: Message from server: STATUS
  @ DRIVER MODE: Message from server: POSDATA
  @ DRIVER MODE: Reading and sharing cell
  @ DRIVER MODE: Reading and sharing positions
  @ DRIVER MODE: Received positions

     Self-consistent Calculation

     iteration #  1     ecut=    29.40 Ry     beta= 0.05
     Davidson diagonalization with overlap
     c_bands:  2 eigenvalues not converged
     c_bands:  1 eigenvalues not converged
     c_bands:  1 eigenvalues not converged
     c_bands:  3 eigenvalues not converged
     c_bands:  1 eigenvalues not converged
     c_bands:  3 eigenvalues not converged
     c_bands:  3 eigenvalues not converged
     c_bands:  3 eigenvalues not converged
     c_bands:  1 eigenvalues not converged
     ethr =  1.00E-05,  avg # of iterations = 19.8

[...]

     total energy              =   -2497.70661288 Ry
     estimated scf accuracy    <    5094.08930685 Ry

     iteration #  2     ecut=    29.40 Ry     beta= 0.05
     Davidson diagonalization with overlap
     ethr =  1.00E-02,  avg # of iterations = 25.6

[...]

     iteration # 49     ecut=    29.40 Ry     beta= 0.05
     Davidson diagonalization with overlap
     c_bands:  1 eigenvalues not converged
     c_bands:  1 eigenvalues not converged
     c_bands:  1 eigenvalues not converged
     c_bands:  1 eigenvalues not converged
     ethr =  2.19E-07,  avg # of iterations = 16.0

[...]

     total energy              =   -2953.88252320 Ry
     estimated scf accuracy    <       0.00000011 Ry

     iteration # 68     ecut=    29.40 Ry     beta= 0.05
     Davidson diagonalization with overlap
     ethr =  2.43E-11,  avg # of iterations = 10.1

     negative rho (up, down):  1.666E-02 0.000E+00

     Adding external electric field

     Computed dipole along edir(3) :
        Dipole                1.2954 Ry au,          3.2925 Debye
        Dipole field          0.0024 Ry au,

        Potential amp.       -0.2266 Ry
        Total length         46.3494 bohr

     End of self-consistent calculation

          k = 0.0000 0.0000 0.0000 ( 18029 PWs)   bands (ev):

   -55.4412 -55.4348 -55.4156 -55.4072 -55.3987 -55.2976 -55.2556 -55.2493
   -55.2339 -55.2319 -55.2147 -55.1985 -54.8578 -54.7661 -54.4275 -54.3935
   -31.9909 -31.9251 -31.8166 -31.7926 -31.7521 -31.7481 -31.7326 -31.7225
   -31.6841 -31.6825 -31.6526 -31.6368 -31.6256 -31.6150 -31.5942 -31.5815
   -31.5723 -31.5470 -31.5429 -31.5075 -31.4990 -31.4962 -31.4622 -31.4506
   -31.4443 -31.4418 -31.4337 -31.4330 -31.4327 -31.4069 -31.4067 -31.4012
   -31.3845 -31.3805 -31.3561 -31.3489 -31.3415 -31.1897 -31.0755 -31.0238
   -30.9640 -30.9277 -30.8350 -30.7457 -30.7233 -30.6517 -30.5651 -30.4540
   -19.0622 -16.4657 -16.1988 -15.9374 -15.7540 -15.6244 -15.5971 -15.4232
   -15.2882 -15.1862 -15.1239 -15.0675 -15.0475 -14.9995 -14.9971 -14.9847
   -14.9818 -14.9507 -14.9026 -14.8818 -14.8620 -14.8206 -14.8114 -14.7946
   -14.7456 -14.7071 -14.6121 -14.5802 -14.5539 -14.5137 -14.0297 -12.9297
   -12.8131  -9.0196  -6.8729  -6.7116  -4.2590  -3.5696  -3.4073  -3.3531
    -3.3442  -3.3191  -3.2304  -3.0901  -2.9529  -2.7196  -2.6574  -2.6216
    -2.5892  -2.5518  -2.4358  -2.3842  -2.3732  -2.3074  -2.2599  -2.2519
    -2.2391  -2.2178  -2.2023  -2.1416  -2.1282  -2.0290  -1.9863  -1.9166
    -1.8561  -1.8238  -1.7736  -1.7582  -1.7148  -1.7114  -1.6964  -1.6778
    -1.6638  -1.6483  -1.5897  -1.5284  -1.4508  -1.2656  -1.2334  -1.1167
    -1.0880  -1.0565  -1.0128  -0.9290  -0.9021  -0.8799  -0.8404  -0.7496
    -0.7240  -0.6770  -0.5882  -0.4987  -0.4531  -0.4269  -0.3473  -0.3120
    -0.2839  -0.2172  -0.2100  -0.1983  -0.1219  -0.0671   0.0391   0.0756
     0.1101   0.1255   0.1395   0.2251   0.2637   0.3208   0.3650   0.4182
     0.4541   0.4689   0.5044   0.5261   0.5408   0.5679   0.5797   0.7625
     0.8039   0.8330   0.8633   0.9482   1.0502   1.1167   1.2007   1.2698
     1.5175   1.5950   1.6476   1.7854   2.1671   2.2133   3.6298   3.7582
     3.7766   3.7948   3.8260   3.8886   3.9518   4.1410   4.1634   4.1846
     4.2130

[...]

          k = 0.0380-0.0419 0.0000 ( 17876 PWs)   bands (ev):

[...]

          k =-0.0760-0.0000 0.0000 ( 17886 PWs)   bands (ev):

[...]

          k =-0.0760-0.0839 0.0000 ( 17948 PWs)   bands (ev):

   -55.4247 -55.4236 -55.4185 -55.4153 -55.4135 -55.2887 -55.2643 -55.2354
   -55.2341 -55.2291 -55.2170 -55.2140 -54.8546 -54.7691 -54.4105 -54.4103
   -31.8004 -31.7897 -31.7408 -31.7400 -31.7254 -31.7185 -31.7174 -31.7011
   -31.6860 -31.6450 -31.6374 -31.6321 -31.6223 -31.6040 -31.5681 -31.5577
   -31.5533 -31.5532 -31.5508 -31.5447 -31.5444 -31.5436 -31.5403 -31.5013
   -31.4802 -31.4744 -31.4634 -31.4497 -31.4445 -31.4404 -31.4385 -31.4383
   -31.4315 -31.4282 -31.4092 -31.4038 -31.2508 -31.1916 -31.0688 -31.0416
   -31.0249 -30.9640 -30.7361 -30.7360 -30.6478 -30.6476 -30.6085 -30.6084
   -19.0612 -16.4557 -15.6885 -15.5592 -15.4306 -15.3729 -15.3675 -15.3090
   -15.3049 -15.1916 -15.1820 -15.1534 -15.1284 -15.1117 -15.0835 -15.0642
   -15.0022 -14.9816 -14.9781 -14.9480 -14.9188 -14.9059 -14.9013 -14.8864
   -14.8825 -14.8283 -14.7723 -14.7692 -14.6582 -14.5554 -14.1864 -12.9149
   -12.9147  -9.0292  -6.8552  -6.7322  -4.2266  -3.2359  -2.9727  -2.7916
    -2.6860  -2.6298  -2.5665  -2.5478  -2.3816  -2.3665  -2.3567  -2.3199
    -2.3034  -2.2821  -2.2716  -2.2668  -2.2407  -2.2287  -2.2105  -2.1792
    -2.1459  -2.1279  -2.1198  -2.1133  -2.0970  -2.0782  -2.0553  -2.0347
    -2.0296  -2.0031  -1.9636  -1.9391  -1.8813  -1.7451  -1.7075  -1.6668
    -1.5967  -1.5902  -1.5369  -1.5205  -1.4936  -1.4658  -1.4025  -1.3793
    -1.2330  -1.1664  -1.1503  -1.1341  -1.1200  -0.9985  -0.9577  -0.8888
    -0.8625  -0.7932  -0.7626  -0.7507  -0.7042  -0.6025  -0.5897  -0.5379
    -0.5263  -0.4295  -0.4067  -0.3957  -0.3610  -0.3163  -0.2479  -0.2069
    -0.1922  -0.1826  -0.1492  -0.1423  -0.1019   0.0183   0.0783   0.1398
     0.2106   0.3150   0.4246   0.4376   0.5868   0.6133   0.6273   0.7332
     0.8195   0.8499   0.8699   0.8965   0.9002   1.0246   1.0725   1.0821
     1.0837   1.2344   1.9572   1.9585   2.0329   2.0333   3.7380   3.9376
     3.9590   4.0011   4.0476   4.1790   4.1880   4.2224   4.2236   4.3072
     4.3395

     the Fermi energy is     3.6892 ev

!    total energy              =   -2953.88256016 Ry
     estimated scf accuracy    <       0.00000007 Ry
     smearing contrib. (-TS)   =      -0.03291516 Ry
     internal energy E=F+TS    =   -2953.84964500 Ry

     The total energy is F=E-TS. E is the sum of the following terms:
     one-electron contribution =  -24258.50929791 Ry
     hartree contribution      =   12222.82355024 Ry
     xc contribution           =    -488.84528544 Ry
     ewald contribution        =    9570.67822152 Ry
     electric field correction =       0.00316658 Ry

     convergence has been achieved in  68 iterations

     Forces acting on atoms (cartesian axes, Ry/au):

     atom    1 type  1   force =     0.00020881   -0.00020375    0.09614214
     atom    2 type  1   force =    -0.00011201   -0.00027924   -0.17608909
     atom    3 type  2   force =     0.00002717    0.00001943   -0.02488766
     atom    4 type  2   force =     0.00003372   -0.00160154    0.05416180
     atom    5 type  2   force =    -0.01177967   -0.00148346    0.00427549
     atom    6 type  2   force =     0.01354521   -0.00070622    0.00348395
     atom    7 type  1   force =    -0.00084023    0.00087793   -0.01026976
     atom    8 type  1   force =     0.00025194    0.01223318    0.02352538
     atom    9 type  2   force =    -0.00035723   -0.00008331   -0.00022987
     atom   10 type  2   force =    -0.00088094   -0.00044986   -0.01484163
     atom   11 type  2   force =     0.00041571    0.00008164    0.00018009
     atom   12 type  2   force =    -0.00040033   -0.00007611    0.00003113
     atom   13 type  1   force =    -0.00065856   -0.00007621   -0.00158461
     atom   14 type  1   force =     0.00057871    0.00018793    0.00033030
     atom   15 type  2   force =     0.00056978    0.00044877    0.00010554
     atom   16 type  2   force =    -0.00028120    0.00005892    0.00036623
     atom   17 type  2   force =    -0.00011353   -0.00025924   -0.00039923
     atom   18 type  2   force =     0.00009737   -0.00011901   -0.00004409
     atom   19 type  1   force =     0.00077965    0.00004642    0.00054284
     atom   20 type  1   force =    -0.00037550   -0.00064597   -0.00005645
     atom   21 type  2   force =     0.00006212    0.00004427    0.10339623
     atom   22 type  2   force =     0.00037704    0.00085071   -0.00021713
     atom   23 type  2   force =    -0.07132431   -0.00008328   -0.02766609
     atom   24 type  2   force =     0.07128352    0.00035443   -0.02770350
     atom   25 type  1   force =    -0.00006361   -0.00014101    0.09566101
     atom   26 type  1   force =    -0.00019948   -0.00031139   -0.17603022
     atom   27 type  2   force =     0.00012421   -0.00040152   -0.02389025
     atom   28 type  2   force =     0.00009608   -0.00126676    0.05362674
     atom   29 type  2   force =    -0.01201149    0.00045357    0.00380418
     atom   30 type  2   force =     0.01365671    0.00069855    0.00308614
     atom   31 type  1   force =    -0.00061318    0.00370224   -0.01330927
     atom   32 type  1   force =     0.00020545   -0.01324870    0.02339393
     atom   33 type  2   force =    -0.00007871   -0.00005617   -0.00029111
     atom   34 type  2   force =    -0.00008551    0.00021963   -0.01831575
     atom   35 type  2   force =     0.00033993   -0.00048399    0.00024933
     atom   36 type  2   force =    -0.00031130   -0.00015840    0.00011350
     atom   37 type  1   force =    -0.00083777   -0.00022938   -0.00009641
     atom   38 type  1   force =     0.00046924    0.00009267    0.00066023
     atom   39 type  2   force =    -0.00001358    0.00082675   -0.00000880
     atom   40 type  2   force =    -0.00023064   -0.00018252   -0.00062748
     atom   41 type  2   force =     0.00037938    0.00041272    0.00011246
     atom   42 type  2   force =    -0.00079143    0.00019661    0.00007256
     atom   43 type  1   force =     0.00075506    0.00016906   -0.00011610
     atom   44 type  1   force =    -0.00034033   -0.00097324    0.00047513
     atom   45 type  2   force =     0.00005950    0.00003799    0.10335166
     atom   46 type  2   force =    -0.07130881   -0.00001408   -0.02763538
     atom   47 type  2   force =     0.07125645    0.00040902   -0.02765615
     atom   48 type  3   force =    -0.00032608   -0.00061615   -0.00426968
     atom   49 type  4   force =    -0.00017637    0.00112849   -0.00081495
     atom   50 type  5   force =     0.00061065   -0.00023810    0.00104442
     atom   51 type  5   force =     0.00057925    0.00050818    0.00059162
     atom   52 type  5   force =    -0.00000909    0.00161496    0.00399276
     atom   53 type  2   force =    -0.00147891   -0.00115726   -0.00063814
     atom   54 type  5   force =    -0.00072989    0.00080713    0.00046296
     atom   55 type  5   force =    -0.00003297   -0.00093532    0.00044906

     Total force =     0.367710     Total SCF correction =     0.000991
  @ DRIVER MODE: Message from server: STATUS
  @ DRIVER MODE: Message from server: GETFORCE
  @ DRIVER MODE: Returning v,forces,stress,ensemble

     Writing output data file ./calc.save/
  @ DRIVER MODE: Message from server: EXIT
  @ DRIVE MODE: Exiting

     General routines

     Parallel routines

   This run was terminated on:   0:39: 7  16Sep2021

   JOB DONE.