     Program PWSCF v.6.7GPU starts on 10Sep2021 at  2:51:53

     R & G space division:  proc/nbgrp/npool/nimage =      10
     Reading input from /storage/home/hcoda1/3/ntian30/research/carbon/CxH_vib/CH3_calc/ads_slab/CH3N2OH_l/out_0019/pw.inp
Warning: card &CELL ignored
Warning: card   CELL_DYNAMICS='IPI', ignored
Warning: card / ignored

     Current dimensions of program PWSCF are:
     Max number of different atomic species (ntypx) = 10
     Max number of k-points (npk) =  40000
     Max angular momentum in pseudopotentials (lmaxx) =  3
     Presently no symmetry can be used with electric field

     Message from routine cell_base_init:
     DEPRECATED: use true lattice parameter, not A to a.u. conversion factor

     IMPORTANT: XC functional enforced from input :
     Exchange-correlation= BEEF-VDW
                           (   1   4  43  14   2   0   0)
     Any further DFT definition will be discarded
     Please, verify this is what you really want

  @ DRIVER MODE: Connecting to
 qe_1139763_2779712.sched-torque.pace.gatech.edufjwti1zi_scratch
  using UNIX socket
  @ DRIVER MODE: Message from server: STATUS
  @ DRIVER MODE: Message from server: INIT
  @ DRIVER MODE: Receiving replica           0          -1
  @ DRIVER MODE: Receiving encoded integer          25
  @ DRIVER MODE:  SCF:  T  FORCE:  T  STRESS:  F  VC:  F  ENSEMBLE:  F
  @ DRIVER MODE:  SCF:  T  FORCE:  T  STRESS:  F  VC:  F  ENSEMBLE:  F

     Using Slab Decomposition

     bravais-lattice index     =            0
     lattice parameter (alat)  =       1.8897  a.u.
     unit-cell volume          =    6658.9804 (a.u.)^3
     number of atoms/cell      =           55
     number of atomic types    =            5
     number of electrons       =       402.00
     number of Kohn-Sham states=          211
     kinetic-energy cutoff     =      29.3995  Ry
     charge density cutoff     =     293.9946  Ry
     scf convergence threshold =      7.3E-08
     mixing beta               =       0.0500
     number of iterations used =            8  plain     mixing
     Exchange-correlation= BEEF-VDW
                           (   1   4  43  14   2   0   0)

     celldm(1)=   1.889726  celldm(2)=   0.000000  celldm(3)=   0.000000
     celldm(4)=   0.000000  celldm(5)=   0.000000  celldm(6)=   0.000000

     crystal axes: (cart. coord. in units of alat)
               a(1) = (   6.579727   0.000000   0.000000 )
               a(2) = (  -0.000775   5.961596   0.000000 )
               a(3) = (   0.000000   0.000000  25.155947 )

     reciprocal axes: (cart. coord. in units 2 pi/alat)
               b(1) = (  0.151982  0.000020  0.000000 )
               b(2) = (  0.000000  0.167740  0.000000 )
               b(3) = (  0.000000  0.000000  0.039752 )

     PseudoPot. # 1 for Ti read from file:
     /storage/coda1/p-amedford6/0/shared/rich_project_chbe-medford/medford-share/data/pseudos_module/espresso/nninc/pbe/van/Ti.UPF
     MD5 check sum: 8e4df49b7f0d34bbd5052bf3f5ea0213
     Pseudo is Ultrasoft, Zval = 12.0
     Generated by new atomic code, or converted to UPF format
     Using radial grid of  851 points,  6 beta functions with:
                l(1) =   0
                l(2) =   0
                l(3) =   1
                l(4) =   1
                l(5) =   2
                l(6) =   2
     Q(r) pseudized with  8 coefficients,  rinner =    1.000   1.000   1.000
                                                       1.000   1.000

     PseudoPot. # 2 for O  read from file:
     /storage/coda1/p-amedford6/0/shared/rich_project_chbe-medford/medford-share/data/pseudos_module/espresso/nninc/pbe/van/O.UPF
     MD5 check sum: 78c19812648e8988a0fe644b0f25305e
     Pseudo is Ultrasoft, Zval =  6.0
     Generated by new atomic code, or converted to UPF format
     Using radial grid of  737 points,  4 beta functions with:
                l(1) =   0
                l(2) =   0
                l(3) =   1
                l(4) =   1
     Q(r) pseudized with  8 coefficients,  rinner =    0.800   0.800   0.800

     PseudoPot. # 3 for N  read from file:
     /storage/coda1/p-amedford6/0/shared/rich_project_chbe-medford/medford-share/data/pseudos_module/espresso/nninc/pbe/van/N.UPF
     MD5 check sum: 90d10febe142ad51ac9d5be1deb811c4
     Pseudo is Ultrasoft, Zval =  5.0
     Generated by new atomic code, or converted to UPF format
     Using radial grid of  729 points,  4 beta functions with:
                l(1) =   0
                l(2) =   0
                l(3) =   1
                l(4) =   1
     Q(r) pseudized with  8 coefficients,  rinner =    0.800   0.800   0.800

     PseudoPot. # 4 for C  read from file:
     /storage/coda1/p-amedford6/0/shared/rich_project_chbe-medford/medford-share/data/pseudos_module/espresso/nninc/pbe/van/C.UPF
     MD5 check sum: 1a69bf6b8db32088f5b2163dbdb77a27
     Pseudo is Ultrasoft, Zval =  4.0
     Generated by new atomic code, or converted to UPF format
     Using radial grid of  721 points,  4 beta functions with:
                l(1) =   0
                l(2) =   0
                l(3) =   1
                l(4) =   1
     Q(r) pseudized with  8 coefficients,  rinner =    0.800   0.800   0.800

     PseudoPot. # 5 for H  read from file:
     /storage/coda1/p-amedford6/0/shared/rich_project_chbe-medford/medford-share/data/pseudos_module/espresso/nninc/pbe/van/H.UPF
     MD5 check sum: b5ee9d7bfd3a09ee7748110bda690ff7
     Pseudo is Ultrasoft, Zval =  1.0
     Generated by new atomic code, or converted to UPF format
     Using radial grid of  615 points,  1 beta functions with:
                l(1) =   0
     Q(r) pseudized with  8 coefficients,  rinner =    0.800

     atomic species   valence    mass     pseudopotential
        Ti1           12.00    47.86700     Ti( 1.00)
        O1             6.00    15.99900     O ( 1.00)
        N1             5.00    14.00700     N ( 1.00)
        C1             4.00    12.01100     C ( 1.00)
        H1             1.00     1.00800     H ( 1.00)

     No symmetry found

   Cartesian axes

     site n.     atom                  positions (alat units)
         1           Ti1 tau(   1) = (   0.0004258   2.9801865   6.0000000  )
         2           Ti1 tau(   2) = (   3.2906075   1.4906267   6.0002472  )
         3           O1  tau(   3) = (   0.0006271   0.0005054   7.9858123  )
         4           O1  tau(   4) = (   3.2906025   0.0005020   7.3038282  )
         5           O1  tau(   5) = (   4.5942328   1.4918067   9.2879030  )
         6           O1  tau(   6) = (   1.9868534   1.4903216   9.2879459  )
         7           Ti1 tau(   7) = (   3.2907910   2.8959150   9.1758416  )
         8           Ti1 tau(   8) = (   0.0015273   1.4827037   9.2680791  )
         9           O1  tau(   9) = (   3.3074573   5.9346435  11.2963613  )
        10           O1  tau(  10) = (   0.0116148   5.9584955  10.6183126  )
        11           O1  tau(  11) = (   1.3055178   1.4819292  12.6272398  )
        12           O1  tau(  12) = (   5.3158762   1.4804127  12.6185516  )
        13           Ti1 tau(  13) = (   0.0186029   2.8424156  12.6464711  )
        14           Ti1 tau(  14) = (   3.3167612   1.2924093  12.6669032  )
        15           O1  tau(  15) = (   0.0012442   5.9356390  14.6370070  )
        16           O1  tau(  16) = (   3.3127944   0.0275565  13.9018093  )
        17           O1  tau(  17) = (   4.5765900   1.5157235  16.0894388  )
        18           O1  tau(  18) = (   2.0422450   1.5317946  16.0210879  )
        19           Ti1 tau(  19) = (   3.3088329   2.9810726  15.6636066  )
        20           Ti1 tau(  20) = (   0.0236821   1.4688588  15.8133175  )
        21           O1  tau(  21) = (   3.2904802   0.0005063   4.7018136  )
        22           O1  tau(  22) = (   0.0676014   5.9495730  17.1734943  )
        23           O1  tau(  23) = (   1.3043587   1.4918075   6.0039043  )
        24           O1  tau(  24) = (   5.2767064   1.4903225   6.0039473  )
        25           Ti1 tau(  25) = (   0.0000382   5.9609847   6.0000000  )
        26           Ti1 tau(  26) = (   3.2902200   4.4714249   6.0002472  )
        27           O1  tau(  27) = (   0.0002396   2.9813036   7.9858123  )
        28           O1  tau(  28) = (   3.2902150   2.9813002   7.3038282  )
        29           O1  tau(  29) = (   4.5938453   4.4726049   9.2879030  )
        30           O1  tau(  30) = (   1.9864658   4.4711199   9.2879459  )
        31           Ti1 tau(  31) = (   3.2891106   5.8743827   9.1763621  )
        32           Ti1 tau(  32) = (   0.0006254   4.4649316   9.2693709  )
        33           O1  tau(  33) = (   3.3041982   3.0170362  11.2630756  )
        34           O1  tau(  34) = (   0.0092240   2.9805883  10.6323155  )
        35           O1  tau(  35) = (   1.3098214   4.4601496  12.6289764  )
        36           O1  tau(  36) = (   5.3139316   4.4642116  12.6209765  )
        37           Ti1 tau(  37) = (   0.0286784   5.8202107  12.5681754  )
        38           Ti1 tau(  38) = (   3.3194384   4.3879401  12.4232525  )
        39           O1  tau(  39) = (   6.5763552   2.9401740  14.6754030  )
        40           O1  tau(  40) = (   3.3328261   2.9762691  13.8808942  )
        41           O1  tau(  41) = (   4.5658580   4.4380642  16.1332302  )
        42           O1  tau(  42) = (   2.0359873   4.4031365  16.0422930  )
        43           Ti1 tau(  43) = (   3.3255947   5.9578944  16.3175027  )
        44           Ti1 tau(  44) = (   0.0374668   4.6230282  16.0307208  )
        45           O1  tau(  45) = (   3.2900926   2.9813045   4.7018136  )
        46           O1  tau(  46) = (   1.3039711   4.4726057   6.0039043  )
        47           O1  tau(  47) = (   5.2763189   4.4711207   6.0039473  )
        48           N1  tau(  48) = (   0.1245995   2.6662279  18.6673576  )
        49           N1  tau(  49) = (   0.0476076   2.8693738  17.4835824  )
        50           C1  tau(  50) = (   0.1295945   3.7926219  19.6405614  )
        51           H1  tau(  51) = (   6.2915398   4.7065717  19.2118634  )
        52           H1  tau(  52) = (   6.1525190   3.4626129  20.5140504  )
        53           H1  tau(  53) = (   1.1733748   3.9370966  19.9287387  )
        54           O1  tau(  54) = (   3.0981659   0.0197753  18.1302257  )
        55           H1  tau(  55) = (   2.1972620   0.2293568  18.4309947  )

     number of k points=    10  Fermi-Dirac smearing, width (Ry)=  0.0073
                       cart. coord. in units 2pi/alat
        k(    1) = (   0.0000000   0.0000000   0.0000000), wk =   0.1250000
        k(    2) = (   0.0000000   0.0419351   0.0000000), wk =   0.2500000
        k(    3) = (   0.0000000  -0.0838702   0.0000000), wk =   0.1250000
        k(    4) = (   0.0379955   0.0000049   0.0000000), wk =   0.2500000
        k(    5) = (   0.0379955   0.0419400   0.0000000), wk =   0.2500000
        k(    6) = (   0.0379955  -0.0838652   0.0000000), wk =   0.2500000
        k(    7) = (   0.0379955  -0.0419301   0.0000000), wk =   0.2500000
        k(    8) = (  -0.0759910  -0.0000099   0.0000000), wk =   0.1250000
        k(    9) = (  -0.0759910   0.0419252   0.0000000), wk =   0.2500000
        k(   10) = (  -0.0759910  -0.0838800   0.0000000), wk =   0.1250000

     Initial potential from superposition of free atoms

     starting charge  385.99915, renormalised to  402.00000

     negative rho (up, down):  1.432E-02 0.000E+00

     %%%%%%%%%%%%%%%%%%%%%%%%%%%%%%%%%%%%%%%%%%%%%%%%%%%%%%%%%%%%%%%%%%%%%%%%
     %                                                                      %
     % You are using vdW-DF, which was implemented by the Thonhauser group. %
     % Please cite the following two papers that made this development      %
     % possible and the two reviews that describe the various versions:     %
     %                                                                      %
     %   T. Thonhauser et al., PRL 115, 136402 (2015).                      %
     %   T. Thonhauser et al., PRB 76, 125112 (2007).                       %
     %   K. Berland et al., Rep. Prog. Phys. 78, 066501 (2015).             %
     %   D.C. Langreth et al., J. Phys.: Condens. Matter 21, 084203 (2009). %
     %                                                                      %
     %                                                                      %
     % If you are calculating the stress with vdW-DF, please also cite:     %
     %                                                                      %
     %   R. Sabatini et al., J. Phys.: Condens. Matter 24, 424209 (2012).   %
     %                                                                      %
     %%%%%%%%%%%%%%%%%%%%%%%%%%%%%%%%%%%%%%%%%%%%%%%%%%%%%%%%%%%%%%%%%%%%%%%%

     Adding external electric field

     Computed dipole along edir(3) :
        Dipole              -11.9923 Ry au,        -30.4815 Debye
        Dipole field         -0.0226 Ry au,

        Potential amp.        2.0979 Ry
        Total length         46.3494 bohr

     Starting wfcs are  304 atomic wfcs
  @ DRIVER MODE: Message from server: STATUS
  @ DRIVER MODE: Message from server: POSDATA
  @ DRIVER MODE: Reading and sharing cell
  @ DRIVER MODE: Reading and sharing positions
  @ DRIVER MODE: Received positions

     Self-consistent Calculation

     iteration #  1     ecut=    29.40 Ry     beta= 0.05
     Davidson diagonalization with overlap
     c_bands:  3 eigenvalues not converged
     c_bands:  5 eigenvalues not converged
     c_bands:  5 eigenvalues not converged
     c_bands:  4 eigenvalues not converged
     c_bands:  1 eigenvalues not converged
     c_bands:  4 eigenvalues not converged
     c_bands:  2 eigenvalues not converged
     c_bands:  5 eigenvalues not converged
     c_bands:  4 eigenvalues not converged
     ethr =  1.00E-05,  avg # of iterations = 23.6

[...]

     total energy              =   -2400.50351715 Ry
     estimated scf accuracy    <    6448.56342735 Ry

     iteration #  2     ecut=    29.40 Ry     beta= 0.05
     Davidson diagonalization with overlap
     ethr =  1.00E-02,  avg # of iterations = 22.1

[...]

     iteration # 68     ecut=    29.40 Ry     beta= 0.05
     Davidson diagonalization with overlap
     c_bands:  1 eigenvalues not converged
     ethr =  7.26E-08,  avg # of iterations =  5.2

[...]

     total energy              =   -2972.75615262 Ry
     estimated scf accuracy    <       0.00000023 Ry

     iteration # 97     ecut=    29.40 Ry     beta= 0.05
     Davidson diagonalization with overlap
     ethr =  2.44E-11,  avg # of iterations =  6.6

     negative rho (up, down):  1.507E-02 0.000E+00

     Adding external electric field

     Computed dipole along edir(3) :
        Dipole                0.5646 Ry au,          1.4352 Debye
        Dipole field          0.0011 Ry au,

        Potential amp.       -0.0988 Ry
        Total length         46.3494 bohr

     End of self-consistent calculation

          k = 0.0000 0.0000 0.0000 ( 18029 PWs)   bands (ev):

   -56.2721 -56.2383 -55.8658 -55.8308 -55.6099 -55.5957 -55.5521 -55.4025
   -55.3548 -55.3458 -55.2316 -55.1817 -55.0705 -55.0430 -55.0387 -55.0047
   -32.7223 -32.5647 -32.5379 -32.4303 -32.3465 -32.3452 -32.3377 -32.0916
   -32.0850 -32.0610 -32.0103 -32.0047 -31.9755 -31.9035 -31.8956 -31.8584
   -31.8327 -31.8306 -31.8198 -31.7746 -31.7555 -31.7487 -31.7158 -31.7146
   -31.6857 -31.6732 -31.6150 -31.5622 -31.5573 -31.5440 -31.5414 -31.5121
   -31.4908 -31.4348 -31.4305 -31.4160 -31.3911 -31.3723 -31.3486 -31.3287
   -31.3037 -31.2810 -31.2806 -31.2734 -31.2585 -31.2537 -31.1692 -31.0572
   -18.9019 -16.5643 -16.3777 -16.2251 -15.9913 -15.8431 -15.7585 -15.7018
   -15.7016 -15.5807 -15.5457 -15.4519 -15.3632 -15.2939 -15.2625 -15.2592
   -15.1654 -15.1038 -15.0547 -15.0320 -15.0016 -14.9809 -14.9677 -14.8877
   -14.8793 -14.8550 -14.8105 -14.6910 -14.6274 -14.3283 -14.3093 -13.5359
   -13.4238 -11.5225  -6.9537  -4.4228  -4.1169  -4.0733  -4.0179  -3.8871
    -3.7764  -3.5688  -3.4521  -3.2664  -3.2498  -3.1500  -2.9839  -2.9757
    -2.9222  -2.8518  -2.7733  -2.7043  -2.6604  -2.6491  -2.5555  -2.4980
    -2.4964  -2.4842  -2.4448  -2.4075  -2.3188  -2.2775  -2.2635  -2.2256
    -2.1815  -2.1324  -2.1289  -2.0831  -2.0576  -1.9978  -1.9337  -1.8968
    -1.8665  -1.8091  -1.7454  -1.7044  -1.6398  -1.5926  -1.5815  -1.5753
    -1.5228  -1.3277  -1.2874  -1.2607  -1.2409  -1.0984  -1.0552  -1.0200
    -0.9561  -0.9390  -0.8492  -0.8242  -0.8073  -0.7816  -0.7105  -0.6969
    -0.6621  -0.6335  -0.4466  -0.4117  -0.3398  -0.3312  -0.2631  -0.2308
    -0.1977  -0.1573  -0.1255  -0.0724  -0.0599  -0.0067   0.0397   0.0680
     0.2094   0.2403   0.3235   0.3312   0.3342   0.3565   0.4340   0.4682
     0.5406   0.5931   0.5990   0.6510   0.7387   0.7782   0.8929   0.9620
     0.9863   1.0074   1.0432   1.0959   1.2166   1.5075   1.5332   1.5720
     2.7058   2.9538   3.0842   3.2307   3.3854   3.4888   3.7964   3.8153
     3.8519   3.8970   3.9448

[...]

          k = 0.0380-0.0419 0.0000 ( 17876 PWs)   bands (ev):

[...]

          k =-0.0760-0.0000 0.0000 ( 17886 PWs)   bands (ev):

[...]

          k =-0.0760-0.0839 0.0000 ( 17948 PWs)   bands (ev):

   -56.2552 -56.2550 -55.8532 -55.8432 -55.6044 -55.5949 -55.5575 -55.3951
   -55.3620 -55.3464 -55.2298 -55.1796 -55.0722 -55.0449 -55.0222 -55.0211
   -32.5503 -32.5501 -32.5383 -32.5382 -32.3824 -32.3820 -32.1723 -32.1633
   -32.0467 -32.0385 -32.0366 -32.0323 -31.9129 -31.8758 -31.8615 -31.8305
   -31.8266 -31.8251 -31.8182 -31.7847 -31.7716 -31.7255 -31.7134 -31.6979
   -31.6357 -31.6331 -31.6280 -31.6013 -31.5970 -31.5940 -31.5548 -31.5485
   -31.4827 -31.4364 -31.4200 -31.4175 -31.3909 -31.3619 -31.3611 -31.3433
   -31.3323 -31.2902 -31.2844 -31.2773 -31.2503 -31.2489 -31.2120 -31.2112
   -18.8990 -16.3624 -15.9751 -15.9669 -15.8359 -15.8304 -15.6576 -15.6456
   -15.6009 -15.5526 -15.5218 -15.4874 -15.3599 -15.3345 -15.2644 -15.2394
   -15.2046 -15.1799 -15.1560 -15.1512 -15.1148 -15.0725 -15.0224 -15.0178
   -14.9684 -14.9668 -14.8418 -14.7660 -14.6879 -14.5097 -14.4636 -13.5271
   -13.5266 -11.5205  -6.9681  -4.3698  -4.0900  -4.0530  -3.8525  -3.1392
    -3.0973  -2.9718  -2.9462  -2.8710  -2.8338  -2.7634  -2.7053  -2.6827
    -2.6699  -2.6591  -2.5944  -2.5654  -2.5599  -2.5181  -2.5028  -2.4960
    -2.4599  -2.4115  -2.3845  -2.3624  -2.3573  -2.3509  -2.2720  -2.2010
    -2.1988  -2.1803  -2.1474  -2.1151  -2.0346  -2.0262  -1.9860  -1.9520
    -1.9212  -1.8305  -1.7895  -1.7367  -1.6935  -1.6632  -1.5843  -1.5817
    -1.5136  -1.4667  -1.3542  -1.3311  -1.3120  -1.2696  -1.2324  -1.1946
    -1.1266  -1.1048  -1.0497  -1.0458  -1.0324  -1.0093  -0.8981  -0.8577
    -0.7647  -0.7235  -0.7012  -0.6770  -0.6342  -0.6275  -0.5568  -0.5339
    -0.4952  -0.4701  -0.4043  -0.3988  -0.3644  -0.2996  -0.1928  -0.0345
     0.0605   0.1033   0.1252   0.1439   0.1893   0.2986   0.3044   0.3788
     0.4509   0.4639   0.4817   0.5105   0.6561   0.7341   0.8411   0.8631
     0.9122   0.9603   1.0198   1.0881   1.3774   1.3848   1.3884   1.3890
     2.7188   3.5046   3.5070   3.5353   3.5465   3.7305   3.7346   3.7524
     3.8977   3.9264   3.9985

     the Fermi energy is     2.8898 ev

!    total energy              =   -2972.75615453 Ry
     estimated scf accuracy    <       0.00000006 Ry
     smearing contrib. (-TS)   =      -0.01287650 Ry
     internal energy E=F+TS    =   -2972.74327803 Ry

     The total energy is F=E-TS. E is the sum of the following terms:
     one-electron contribution =  -23636.58607882 Ry
     hartree contribution      =   11911.33547726 Ry
     xc contribution           =    -493.07992302 Ry
     ewald contribution        =    9245.58664490 Ry
     electric field correction =       0.00060166 Ry

     convergence has been achieved in  97 iterations

     Forces acting on atoms (cartesian axes, Ry/au):

     atom    1 type  1   force =    -0.00001404   -0.00036623    0.10679222
     atom    2 type  1   force =    -0.00005406    0.00020599   -0.16494980
     atom    3 type  2   force =     0.00005581    0.00002105   -0.03813068
     atom    4 type  2   force =     0.00006475   -0.00063895    0.03454667
     atom    5 type  2   force =    -0.00366364   -0.00218541   -0.00716671
     atom    6 type  2   force =     0.00568879   -0.00176966   -0.00684111
     atom    7 type  1   force =     0.00025244   -0.00517836    0.03711949
     atom    8 type  1   force =    -0.00002075    0.01089941    0.05882738
     atom    9 type  2   force =    -0.00043658    0.00030564   -0.00081129
     atom   10 type  2   force =    -0.00076381   -0.00040210   -0.04426744
     atom   11 type  2   force =     0.00030208   -0.00021248    0.00032780
     atom   12 type  2   force =    -0.00064740   -0.00054801   -0.00002766
     atom   13 type  1   force =     0.00004599    0.00033039    0.00051276
     atom   14 type  1   force =    -0.00025281   -0.00008189    0.00050609
     atom   15 type  2   force =    -0.00019123   -0.00033940   -0.00113282
     atom   16 type  2   force =     0.00032751    0.00006473    0.00053367
     atom   17 type  2   force =     0.00004416    0.00038738    0.00017775
     atom   18 type  2   force =     0.00030731    0.00049800   -0.00045775
     atom   19 type  1   force =    -0.00046822   -0.00053020   -0.00043206
     atom   20 type  1   force =     0.00011281   -0.00026286    0.00066573
     atom   21 type  2   force =     0.00004342    0.00021419    0.10036582
     atom   22 type  2   force =     0.00000068   -0.00079277   -0.00005438
     atom   23 type  2   force =    -0.07694722   -0.00000507   -0.03002594
     atom   24 type  2   force =     0.07681394    0.00042167   -0.03008046
     atom   25 type  1   force =     0.00005467   -0.00041308    0.10684773
     atom   26 type  1   force =    -0.00017423   -0.00138145   -0.16531332
     atom   27 type  2   force =     0.00012555   -0.00063674   -0.03657725
     atom   28 type  2   force =     0.00003876    0.00111405    0.03012780
     atom   29 type  2   force =    -0.00204579    0.00418089   -0.01013711
     atom   30 type  2   force =     0.00411204    0.00462813   -0.00971555
     atom   31 type  1   force =     0.00023917    0.00321854    0.02266358
     atom   32 type  1   force =    -0.00015802   -0.01396981    0.05886781
     atom   33 type  2   force =    -0.00013970   -0.00119261   -0.00027542
     atom   34 type  2   force =    -0.00070508   -0.00007648   -0.05473481
     atom   35 type  2   force =    -0.00105328    0.00020773    0.00021296
     atom   36 type  2   force =     0.00050619   -0.00001240   -0.00021165
     atom   37 type  1   force =    -0.00013233   -0.00078046   -0.00000221
     atom   38 type  1   force =    -0.00057491    0.00002630    0.00004315
     atom   39 type  2   force =    -0.00031452    0.00053412   -0.00005472
     atom   40 type  2   force =    -0.00024256   -0.00047022    0.00020136
     atom   41 type  2   force =    -0.00092052    0.00005327   -0.00007358
     atom   42 type  2   force =    -0.00017335    0.00011242    0.00062358
     atom   43 type  1   force =     0.00077099    0.00102215   -0.00010524
     atom   44 type  1   force =    -0.00014138    0.00168730    0.00076894
     atom   45 type  2   force =     0.00003663    0.00000050    0.10017330
     atom   46 type  2   force =    -0.07698695    0.00003159   -0.03005526
     atom   47 type  2   force =     0.07687657    0.00045804   -0.03011746
     atom   48 type  3   force =     0.00027177   -0.00085807    0.00117709
     atom   49 type  3   force =     0.00000883    0.00076315   -0.00059944
     atom   50 type  4   force =    -0.00302616    0.00462111   -0.00182412
     atom   51 type  5   force =     0.00289908   -0.00375434    0.00206311
     atom   52 type  5   force =    -0.00009912   -0.00071583   -0.00003209
     atom   53 type  5   force =    -0.00035093    0.00109953    0.00005760
     atom   54 type  2   force =     0.00108982   -0.00041159   -0.00117901
     atom   55 type  5   force =    -0.00039117    0.00087919    0.00118292

     Total force =     0.379819     Total SCF correction =     0.000669
  @ DRIVER MODE: Message from server: STATUS
  @ DRIVER MODE: Message from server: GETFORCE
  @ DRIVER MODE: Returning v,forces,stress,ensemble

     Writing output data file ./calc.save/
  @ DRIVER MODE: Message from server: EXIT
  @ DRIVE MODE: Exiting

     General routines

     Parallel routines

   This run was terminated on:   3:19:11  10Sep2021

   JOB DONE.