     Program PWSCF v.6.7GPU starts on 22Sep2021 at 17:25: 1

     R & G space division:  proc/nbgrp/npool/nimage =      10
     Reading input from /storage/home/hcoda1/3/ntian30/research/carbon/CxH_vib/H2O_calc/ads_slab/CHON2HO_d/out_0003/pw.inp
Warning: card &CELL ignored
Warning: card   CELL_DYNAMICS='IPI', ignored
Warning: card / ignored

     Current dimensions of program PWSCF are:
     Max number of different atomic species (ntypx) = 10
     Max number of k-points (npk) =  40000
     Max angular momentum in pseudopotentials (lmaxx) =  3
     Presently no symmetry can be used with electric field

     Message from routine cell_base_init:
     DEPRECATED: use true lattice parameter, not A to a.u. conversion factor

     IMPORTANT: XC functional enforced from input :
     Exchange-correlation= BEEF-VDW
                           (   1   4  43  14   2   0   0)
     Any further DFT definition will be discarded
     Please, verify this is what you really want

  @ DRIVER MODE: Connecting to
 qe_1139763_2937317.sched-torque.pace.gatech.edurzjb3nwl_scratch
  using UNIX socket
  @ DRIVER MODE: Message from server: STATUS
  @ DRIVER MODE: Message from server: INIT
  @ DRIVER MODE: Receiving replica           0          -1
  @ DRIVER MODE: Receiving encoded integer          25
  @ DRIVER MODE:  SCF:  T  FORCE:  T  STRESS:  F  VC:  F  ENSEMBLE:  F
  @ DRIVER MODE:  SCF:  T  FORCE:  T  STRESS:  F  VC:  F  ENSEMBLE:  F

     Using Slab Decomposition

     bravais-lattice index     =            0
     lattice parameter (alat)  =       1.8897  a.u.
     unit-cell volume          =    6658.9804 (a.u.)^3
     number of atoms/cell      =           54
     number of atomic types    =            5
     number of electrons       =       406.00
     number of Kohn-Sham states=          213
     kinetic-energy cutoff     =      29.3995  Ry
     charge density cutoff     =     293.9946  Ry
     scf convergence threshold =      7.3E-08
     mixing beta               =       0.0500
     number of iterations used =            8  plain     mixing
     Exchange-correlation= BEEF-VDW
                           (   1   4  43  14   2   0   0)

     celldm(1)=   1.889726  celldm(2)=   0.000000  celldm(3)=   0.000000
     celldm(4)=   0.000000  celldm(5)=   0.000000  celldm(6)=   0.000000

     crystal axes: (cart. coord. in units of alat)
               a(1) = (   6.579727   0.000000   0.000000 )
               a(2) = (  -0.000775   5.961596   0.000000 )
               a(3) = (   0.000000   0.000000  25.155947 )

     reciprocal axes: (cart. coord. in units 2 pi/alat)
               b(1) = (  0.151982  0.000020  0.000000 )
               b(2) = (  0.000000  0.167740  0.000000 )
               b(3) = (  0.000000  0.000000  0.039752 )

     PseudoPot. # 1 for O  read from file:
     /storage/coda1/p-amedford6/0/shared/rich_project_chbe-medford/medford-share/data/pseudos_module/espresso/nninc/pbe/van/O.UPF
     MD5 check sum: 78c19812648e8988a0fe644b0f25305e
     Pseudo is Ultrasoft, Zval =  6.0
     Generated by new atomic code, or converted to UPF format
     Using radial grid of  737 points,  4 beta functions with:
                l(1) =   0
                l(2) =   0
                l(3) =   1
                l(4) =   1
     Q(r) pseudized with  8 coefficients,  rinner =    0.800   0.800   0.800

     PseudoPot. # 2 for Ti read from file:
     /storage/coda1/p-amedford6/0/shared/rich_project_chbe-medford/medford-share/data/pseudos_module/espresso/nninc/pbe/van/Ti.UPF
     MD5 check sum: 8e4df49b7f0d34bbd5052bf3f5ea0213
     Pseudo is Ultrasoft, Zval = 12.0
     Generated by new atomic code, or converted to UPF format
     Using radial grid of  851 points,  6 beta functions with:
                l(1) =   0
                l(2) =   0
                l(3) =   1
                l(4) =   1
                l(5) =   2
                l(6) =   2
     Q(r) pseudized with  8 coefficients,  rinner =    1.000   1.000   1.000
                                                       1.000   1.000

     PseudoPot. # 3 for C  read from file:
     /storage/coda1/p-amedford6/0/shared/rich_project_chbe-medford/medford-share/data/pseudos_module/espresso/nninc/pbe/van/C.UPF
     MD5 check sum: 1a69bf6b8db32088f5b2163dbdb77a27
     Pseudo is Ultrasoft, Zval =  4.0
     Generated by new atomic code, or converted to UPF format
     Using radial grid of  721 points,  4 beta functions with:
                l(1) =   0
                l(2) =   0
                l(3) =   1
                l(4) =   1
     Q(r) pseudized with  8 coefficients,  rinner =    0.800   0.800   0.800

     PseudoPot. # 4 for H  read from file:
     /storage/coda1/p-amedford6/0/shared/rich_project_chbe-medford/medford-share/data/pseudos_module/espresso/nninc/pbe/van/H.UPF
     MD5 check sum: b5ee9d7bfd3a09ee7748110bda690ff7
     Pseudo is Ultrasoft, Zval =  1.0
     Generated by new atomic code, or converted to UPF format
     Using radial grid of  615 points,  1 beta functions with:
                l(1) =   0
     Q(r) pseudized with  8 coefficients,  rinner =    0.800

     PseudoPot. # 5 for N  read from file:
     /storage/coda1/p-amedford6/0/shared/rich_project_chbe-medford/medford-share/data/pseudos_module/espresso/nninc/pbe/van/N.UPF
     MD5 check sum: 90d10febe142ad51ac9d5be1deb811c4
     Pseudo is Ultrasoft, Zval =  5.0
     Generated by new atomic code, or converted to UPF format
     Using radial grid of  729 points,  4 beta functions with:
                l(1) =   0
                l(2) =   0
                l(3) =   1
                l(4) =   1
     Q(r) pseudized with  8 coefficients,  rinner =    0.800   0.800   0.800

     atomic species   valence    mass     pseudopotential
        O1             6.00    15.99900     O ( 1.00)
        Ti1           12.00    47.86700     Ti( 1.00)
        C1             4.00    12.01100     C ( 1.00)
        H1             1.00     1.00800     H ( 1.00)
        N1             5.00    14.00700     N ( 1.00)

     No symmetry found

   Cartesian axes

     site n.     atom                  positions (alat units)
         1           O1  tau(   1) = (   3.2904802   0.0005063   4.7018136  )
         2           O1  tau(   2) = (   3.2900926   2.9813045   4.7018136  )
         3           Ti1 tau(   3) = (   0.0004258   2.9801865   6.0000000  )
         4           Ti1 tau(   4) = (   0.0000382   5.9609847   6.0000000  )
         5           Ti1 tau(   5) = (   3.2906075   1.4906267   6.0002472  )
         6           Ti1 tau(   6) = (   3.2902200   4.4714249   6.0002472  )
         7           O1  tau(   7) = (   1.3043587   1.4918075   6.0039043  )
         8           O1  tau(   8) = (   1.3039711   4.4726057   6.0039043  )
         9           O1  tau(   9) = (   5.2767064   1.4903225   6.0039473  )
        10           O1  tau(  10) = (   5.2763189   4.4711207   6.0039473  )
        11           O1  tau(  11) = (   3.2906025   0.0005020   7.3038282  )
        12           O1  tau(  12) = (   3.2902150   2.9813002   7.3038282  )
        13           O1  tau(  13) = (   0.0006271   0.0005054   7.9858123  )
        14           O1  tau(  14) = (   0.0002396   2.9813036   7.9858123  )
        15           Ti1 tau(  15) = (   3.2350752   0.0608747   9.1773017  )
        16           Ti1 tau(  16) = (   3.2297482   3.0449837   9.2258248  )
        17           Ti1 tau(  17) = (   6.5035314   4.4790947   9.3419400  )
        18           O1  tau(  18) = (   4.5942328   1.4918067   9.2879030  )
        19           O1  tau(  19) = (   4.5938453   4.4726049   9.2879030  )
        20           O1  tau(  20) = (   1.9868534   1.4903216   9.2879459  )
        21           O1  tau(  21) = (   1.9864658   4.4711199   9.2879459  )
        22           Ti1 tau(  22) = (   6.5047199   1.5482117   9.3251357  )
        23           O1  tau(  23) = (   6.5709586   2.9893791  10.5365161  )
        24           O1  tau(  24) = (   6.5791863   0.0068326  10.5847705  )
        25           O1  tau(  25) = (   3.2737170   2.9471243  11.2864913  )
        26           O1  tau(  26) = (   3.2757665   0.0160177  11.3056520  )
        27           Ti1 tau(  27) = (   3.3024496   1.5456137  12.4328335  )
        28           Ti1 tau(  28) = (   0.0381823   0.0558990  12.5328616  )
        29           Ti1 tau(  29) = (   3.2867454   4.6490159  12.6676011  )
        30           O1  tau(  30) = (   1.2579511   1.4933188  12.6274103  )
        31           O1  tau(  31) = (   5.2930440   1.4968169  12.6131059  )
        32           O1  tau(  32) = (   1.2503383   4.4760527  12.6363980  )
        33           O1  tau(  33) = (   5.2887019   4.4660859  12.6249461  )
        34           Ti1 tau(  34) = (   6.5320965   3.0346479  12.8073368  )
        35           O1  tau(  35) = (   3.2762579   2.9735537  13.8874883  )
        36           O1  tau(  36) = (   3.2793791   5.9387796  13.8789893  )
        37           O1  tau(  37) = (   6.5412754   2.9812497  14.6926498  )
        38           O1  tau(  38) = (   6.5531526   0.0082392  14.6823945  )
        39           Ti1 tau(  39) = (   3.2668636   2.9663550  15.6683660  )
        40           Ti1 tau(  40) = (   3.2982107   5.9440960  16.3508785  )
        41           Ti1 tau(  41) = (   0.0141158   4.5598071  15.9269461  )
        42           O1  tau(  42) = (   4.5124726   4.4172202  16.0573870  )
        43           O1  tau(  43) = (   1.9821766   4.4208814  16.0404589  )
        44           O1  tau(  44) = (   4.4954461   1.5000296  16.1066544  )
        45           O1  tau(  45) = (   1.9782815   1.5221889  16.0619205  )
        46           Ti1 tau(  46) = (   0.0269324   1.3869748  16.0447141  )
        47           O1  tau(  47) = (   6.5379229   5.9414530  17.1901000  )
        48           O1  tau(  48) = (   6.5175113   2.9740192  17.3772383  )
        49           C1  tau(  49) = (   5.9742390   3.1768082  18.5865123  )
        50           H1  tau(  50) = (   5.8341806   4.1706531  18.9840957  )
        51           N1  tau(  51) = (   5.5886240   2.1683037  19.3003467  )
        52           N1  tau(  52) = (   5.2398892   1.2394158  19.8970451  )
        53           O1  tau(  53) = (   3.2183551   5.8834210  18.1446619  )
        54           H1  tau(  54) = (   3.7026433   0.4006729  18.8445816  )

     number of k points=    10  Fermi-Dirac smearing, width (Ry)=  0.0073
                       cart. coord. in units 2pi/alat
        k(    1) = (   0.0000000   0.0000000   0.0000000), wk =   0.1250000
        k(    2) = (   0.0000000   0.0419351   0.0000000), wk =   0.2500000
        k(    3) = (   0.0000000  -0.0838702   0.0000000), wk =   0.1250000
        k(    4) = (   0.0379955   0.0000049   0.0000000), wk =   0.2500000
        k(    5) = (   0.0379955   0.0419400   0.0000000), wk =   0.2500000
        k(    6) = (   0.0379955  -0.0838652   0.0000000), wk =   0.2500000
        k(    7) = (   0.0379955  -0.0419301   0.0000000), wk =   0.2500000
        k(    8) = (  -0.0759910  -0.0000099   0.0000000), wk =   0.1250000
        k(    9) = (  -0.0759910   0.0419252   0.0000000), wk =   0.2500000
        k(   10) = (  -0.0759910  -0.0838800   0.0000000), wk =   0.1250000

     Initial potential from superposition of free atoms

     starting charge  389.99917, renormalised to  406.00000

     negative rho (up, down):  1.659E-02 0.000E+00

     %%%%%%%%%%%%%%%%%%%%%%%%%%%%%%%%%%%%%%%%%%%%%%%%%%%%%%%%%%%%%%%%%%%%%%%%
     %                                                                      %
     % You are using vdW-DF, which was implemented by the Thonhauser group. %
     % Please cite the following two papers that made this development      %
     % possible and the two reviews that describe the various versions:     %
     %                                                                      %
     %   T. Thonhauser et al., PRL 115, 136402 (2015).                      %
     %   T. Thonhauser et al., PRB 76, 125112 (2007).                       %
     %   K. Berland et al., Rep. Prog. Phys. 78, 066501 (2015).             %
     %   D.C. Langreth et al., J. Phys.: Condens. Matter 21, 084203 (2009). %
     %                                                                      %
     %                                                                      %
     % If you are calculating the stress with vdW-DF, please also cite:     %
     %                                                                      %
     %   R. Sabatini et al., J. Phys.: Condens. Matter 24, 424209 (2012).   %
     %                                                                      %
     %%%%%%%%%%%%%%%%%%%%%%%%%%%%%%%%%%%%%%%%%%%%%%%%%%%%%%%%%%%%%%%%%%%%%%%%

     Adding external electric field

     Computed dipole along edir(3) :
        Dipole              -13.7787 Ry au,        -35.0219 Debye
        Dipole field         -0.0260 Ry au,

        Potential amp.        2.4104 Ry
        Total length         46.3494 bohr

     Starting wfcs are  306 atomic wfcs
  @ DRIVER MODE: Message from server: STATUS
  @ DRIVER MODE: Message from server: POSDATA
  @ DRIVER MODE: Reading and sharing cell
  @ DRIVER MODE: Reading and sharing positions
  @ DRIVER MODE: Received positions

     Self-consistent Calculation

     iteration #  1     ecut=    29.40 Ry     beta= 0.05
     Davidson diagonalization with overlap
     c_bands:  1 eigenvalues not converged
     c_bands:  1 eigenvalues not converged
     c_bands:  5 eigenvalues not converged
     c_bands:  5 eigenvalues not converged
     ethr =  1.00E-05,  avg # of iterations = 30.9

[...]

     total energy              =   -2308.86730521 Ry
     estimated scf accuracy    <    7885.51690836 Ry

     iteration #  2     ecut=    29.40 Ry     beta= 0.05
     Davidson diagonalization with overlap
     ethr =  1.00E-02,  avg # of iterations = 25.6

[...]

     iteration # 48     ecut=    29.40 Ry     beta= 0.05
     Davidson diagonalization with overlap
     c_bands:  1 eigenvalues not converged
     ethr =  1.81E-07,  avg # of iterations =  3.8

[...]

     total energy              =   -3002.64636409 Ry
     estimated scf accuracy    <       0.00000011 Ry

     iteration # 78     ecut=    29.40 Ry     beta= 0.05
     Davidson diagonalization with overlap
     ethr =  2.42E-11,  avg # of iterations =  3.2

     negative rho (up, down):  1.646E-02 0.000E+00

     Adding external electric field

     Computed dipole along edir(3) :
        Dipole                0.4162 Ry au,          1.0579 Debye
        Dipole field          0.0008 Ry au,

        Potential amp.       -0.0728 Ry
        Total length         46.3494 bohr

     End of self-consistent calculation

          k = 0.0000 0.0000 0.0000 ( 18029 PWs)   bands (ev):

   -56.2523 -56.1956 -55.7634 -55.7081 -55.7057 -55.6910 -55.6581 -55.6492
   -55.6146 -55.6118 -55.5711 -55.5520 -55.4884 -55.3171 -54.9027 -54.8687
   -32.6672 -32.5283 -32.4629 -32.4225 -32.3240 -32.2919 -32.2435 -32.2165
   -32.1999 -32.0986 -32.0639 -32.0047 -32.0005 -31.9931 -31.9810 -31.9610
   -31.9522 -31.9487 -31.9279 -31.9183 -31.8670 -31.8636 -31.8598 -31.8578
   -31.8532 -31.8340 -31.8321 -31.8129 -31.8096 -31.8087 -31.8020 -31.7697
   -31.7690 -31.7685 -31.7411 -31.7301 -31.7236 -31.7187 -31.6901 -31.5770
   -31.5357 -31.5272 -31.2993 -31.2406 -31.2164 -31.1158 -31.0306 -30.9194
   -20.5487 -18.6708 -16.5037 -16.4649 -16.3078 -16.1020 -15.9416 -15.8697
   -15.6783 -15.5915 -15.5303 -15.5014 -15.4700 -15.3874 -15.3536 -15.3008
   -15.2565 -15.2416 -15.2161 -15.2007 -15.1881 -15.1869 -15.1844 -15.1537
   -15.1122 -15.0149 -14.9467 -14.9092 -14.8899 -14.8803 -14.8401 -14.5314
   -13.5375 -13.4049 -13.2953  -6.9375  -5.8955  -4.9246  -4.3641  -3.9604
    -3.7848  -3.6920  -3.6359  -3.5667  -3.5286  -3.3385  -3.3041  -3.1487
    -3.0263  -2.9442  -2.8722  -2.8539  -2.8306  -2.7918  -2.7335  -2.6995
    -2.6680  -2.6371  -2.5803  -2.5401  -2.5137  -2.4804  -2.4675  -2.4307
    -2.4119  -2.4077  -2.2655  -2.2193  -2.1766  -2.1716  -2.1459  -2.1249
    -2.1016  -2.0686  -2.0560  -2.0048  -1.9280  -1.8432  -1.8262  -1.7424
    -1.7097  -1.5355  -1.4743  -1.3991  -1.3679  -1.2031  -1.1749  -1.1680
    -1.1449  -1.1258  -1.0019  -0.9701  -0.9334  -0.9232  -0.8872  -0.8656
    -0.8403  -0.7347  -0.6693  -0.6297  -0.6151  -0.5502  -0.4524  -0.3805
    -0.3531  -0.3197  -0.2877  -0.1842  -0.1527  -0.1112  -0.1035  -0.0420
    -0.0079   0.0148   0.0715   0.0990   0.1520   0.1672   0.1863   0.2262
     0.2360   0.2820   0.3509   0.4143   0.5111   0.5317   0.5566   0.5935
     0.6743   0.7484   0.8284   1.0106   1.1150   1.1553   1.3202   1.3654
     1.6658   1.7134   2.5273   3.0385   3.1906   3.4542   3.5062   3.5421
     3.5843   3.6387   3.7695   3.8798   3.9369

[...]

          k = 0.0380-0.0419 0.0000 ( 17876 PWs)   bands (ev):

[...]

          k =-0.0760-0.0000 0.0000 ( 17886 PWs)   bands (ev):

[...]

          k =-0.0760-0.0839 0.0000 ( 17948 PWs)   bands (ev):

   -56.2467 -56.2010 -55.7609 -55.7067 -55.6980 -55.6871 -55.6655 -55.6515
   -55.6185 -55.6028 -55.5801 -55.5530 -55.4867 -55.3186 -54.8859 -54.8854
   -32.5247 -32.5028 -32.4655 -32.4639 -32.3907 -32.3527 -32.1475 -32.0654
   -32.0568 -32.0193 -32.0098 -31.9777 -31.9774 -31.9730 -31.9503 -31.9452
   -31.9369 -31.9306 -31.9292 -31.9196 -31.9067 -31.9024 -31.8795 -31.8754
   -31.8723 -31.8664 -31.8652 -31.8554 -31.8420 -31.8339 -31.8206 -31.8189
   -31.8158 -31.8058 -31.7929 -31.7735 -31.7562 -31.7230 -31.6938 -31.6512
   -31.5758 -31.5299 -31.2295 -31.2293 -31.1149 -31.1127 -31.0726 -31.0715
   -20.5472 -18.6590 -16.4821 -15.8303 -15.8201 -15.7893 -15.7492 -15.7021
   -15.6879 -15.6196 -15.6108 -15.5823 -15.5026 -15.4393 -15.3837 -15.3609
   -15.3579 -15.3351 -15.3076 -15.2672 -15.2451 -15.2367 -15.2258 -15.1711
   -15.1497 -15.1463 -15.1211 -15.1000 -15.0739 -15.0331 -14.8956 -14.6896
   -13.5449 -13.3998 -13.3979  -6.9094  -5.9106  -4.9233  -4.3526  -3.6119
    -3.2899  -3.0902  -3.0590  -2.9793  -2.9225  -2.8247  -2.8048  -2.7854
    -2.7720  -2.7583  -2.7323  -2.7027  -2.6525  -2.6252  -2.5905  -2.5801
    -2.5721  -2.5522  -2.5441  -2.5130  -2.4968  -2.4791  -2.4607  -2.4428
    -2.4277  -2.4143  -2.3427  -2.3103  -2.2759  -2.1108  -2.0990  -2.0962
    -2.0697  -2.0525  -2.0410  -1.9818  -1.9197  -1.9103  -1.8590  -1.8442
    -1.7612  -1.6984  -1.5413  -1.4977  -1.4718  -1.3925  -1.3364  -1.3004
    -1.2804  -1.2473  -1.2140  -1.2048  -1.1620  -1.1095  -1.0323  -1.0093
    -0.9601  -0.9513  -0.9425  -0.8596  -0.7877  -0.7712  -0.7262  -0.7072
    -0.6837  -0.6451  -0.5911  -0.5573  -0.5438  -0.5300  -0.4338  -0.3836
    -0.3290  -0.2261  -0.1901  -0.1311  -0.0202   0.0638   0.0759   0.1734
     0.2150   0.3141   0.3534   0.4057   0.4436   0.4711   0.5013   0.6182
     0.6366   0.6826   0.7609   0.7776   0.8061   0.8559   1.5040   1.5114
     1.5219   1.5234   2.4467   3.5608   3.5886   3.6071   3.6460   3.8442
     3.8762   3.8925   3.9226   3.9395   3.9931

     the Fermi energy is     2.8397 ev

!    total energy              =   -3002.64637327 Ry
     estimated scf accuracy    <       0.00000005 Ry
     smearing contrib. (-TS)   =      -0.00423161 Ry
     internal energy E=F+TS    =   -3002.64214166 Ry

     The total energy is F=E-TS. E is the sum of the following terms:
     one-electron contribution =  -23370.33211759 Ry
     hartree contribution      =   11779.03293286 Ry
     xc contribution           =    -498.78932151 Ry
     ewald contribution        =    9087.44603767 Ry
     electric field correction =       0.00032691 Ry

     convergence has been achieved in  78 iterations

     Forces acting on atoms (cartesian axes, Ry/au):

     atom    1 type  1   force =     0.00016628    0.00010446    0.09955583
     atom    2 type  1   force =     0.00014741    0.00020948    0.09906085
     atom    3 type  2   force =     0.00018467    0.00034202    0.12394634
     atom    4 type  2   force =     0.00044476    0.00004454    0.13852383
     atom    5 type  2   force =    -0.00010171    0.00965253   -0.15996113
     atom    6 type  2   force =     0.00009335   -0.00873132   -0.15974612
     atom    7 type  1   force =    -0.07910984    0.00146258   -0.03321734
     atom    8 type  1   force =    -0.07914085   -0.00181708   -0.03325582
     atom    9 type  1   force =     0.07906746    0.00179309   -0.03329541
     atom   10 type  1   force =     0.07909615   -0.00147094   -0.03327345
     atom   11 type  1   force =    -0.00114217    0.00062892    0.04290434
     atom   12 type  1   force =    -0.00114940    0.00003636    0.04555990
     atom   13 type  1   force =    -0.00039439   -0.00173588   -0.05067825
     atom   14 type  1   force =    -0.00085893    0.00123618   -0.04788814
     atom   15 type  2   force =    -0.00033866   -0.00004211    0.00014204
     atom   16 type  2   force =    -0.00033397    0.00005497   -0.00012705
     atom   17 type  2   force =     0.00023544   -0.00038596   -0.00011919
     atom   18 type  1   force =    -0.01154869   -0.00689884   -0.00024463
     atom   19 type  1   force =    -0.01367906    0.00098374    0.00211234
     atom   20 type  1   force =     0.01284747   -0.00248693   -0.00226250
     atom   21 type  1   force =     0.01410456    0.00576516    0.00036489
     atom   22 type  2   force =     0.00030960    0.00005240    0.00028900
     atom   23 type  1   force =    -0.00010073   -0.00009092   -0.00010501
     atom   24 type  1   force =    -0.00025679   -0.00000377    0.00031229
     atom   25 type  1   force =     0.00023352    0.00032416   -0.00020979
     atom   26 type  1   force =     0.00034960    0.00012572   -0.00037423
     atom   27 type  2   force =    -0.00031249   -0.00044023    0.00039923
     atom   28 type  2   force =     0.00052424   -0.00032300    0.00004281
     atom   29 type  2   force =    -0.00014767    0.00024005    0.00022950
     atom   30 type  1   force =    -0.00032172   -0.00036246   -0.00026907
     atom   31 type  1   force =     0.00048341   -0.00005516    0.00010644
     atom   32 type  1   force =    -0.00029390    0.00040233   -0.00002557
     atom   33 type  1   force =     0.00022553    0.00034045    0.00007251
     atom   34 type  2   force =     0.00041480    0.00018908   -0.00021406
     atom   35 type  1   force =     0.00005819   -0.00009839   -0.00050838
     atom   36 type  1   force =     0.00008045   -0.00006889    0.00024835
     atom   37 type  1   force =    -0.00000672   -0.00013397    0.00040830
     atom   38 type  1   force =     0.00004876   -0.00056795   -0.00016977
     atom   39 type  2   force =    -0.00000913   -0.00007536    0.00043277
     atom   40 type  2   force =    -0.00010577    0.00028831   -0.00040312
     atom   41 type  2   force =    -0.00032364    0.00074787   -0.00036505
     atom   42 type  1   force =     0.00065074    0.00003546    0.00005984
     atom   43 type  1   force =    -0.00077653    0.00002272    0.00003414
     atom   44 type  1   force =    -0.00000007   -0.00019978    0.00028852
     atom   45 type  1   force =    -0.00021155   -0.00009085    0.00018196
     atom   46 type  2   force =    -0.00006363    0.00048023    0.00004423
     atom   47 type  1   force =    -0.00000191   -0.00092156    0.00007564
     atom   48 type  1   force =    -0.00014146    0.00476265    0.00097040
     atom   49 type  3   force =     0.00089428   -0.00261483   -0.00184108
     atom   50 type  4   force =     0.00035840    0.00044058   -0.00034468
     atom   51 type  5   force =    -0.00118070   -0.00104217    0.00202589
     atom   52 type  5   force =     0.00066983    0.00007746   -0.00030230
     atom   53 type  1   force =     0.00047901    0.00034195    0.00072962
     atom   54 type  4   force =    -0.00011589   -0.00052708    0.00007938

     Total force =     0.380313     Total SCF correction =     0.000686
  @ DRIVER MODE: Message from server: STATUS
  @ DRIVER MODE: Message from server: GETFORCE
  @ DRIVER MODE: Returning v,forces,stress,ensemble

     Writing output data file ./calc.save/
  @ DRIVER MODE: Message from server: EXIT
  @ DRIVE MODE: Exiting

     General routines

     Parallel routines

   This run was terminated on:  17:46:12  22Sep2021

   JOB DONE.