     Program PWSCF v.6.7GPU starts on 20Sep2021 at 12:12:51

     R & G space division:  proc/nbgrp/npool/nimage =      10
     Reading input from /storage/home/hcoda1/3/ntian30/research/carbon/CxH_vib/CH3_calc/ads_slab/CH3O_a/out_0011/pw.inp
Warning: card &CELL ignored
Warning: card   CELL_DYNAMICS='IPI', ignored
Warning: card / ignored

     Current dimensions of program PWSCF are:
     Max number of different atomic species (ntypx) = 10
     Max number of k-points (npk) =  40000
     Max angular momentum in pseudopotentials (lmaxx) =  3
     Presently no symmetry can be used with electric field

     Message from routine cell_base_init:
     DEPRECATED: use true lattice parameter, not A to a.u. conversion factor

     IMPORTANT: XC functional enforced from input :
     Exchange-correlation= BEEF-VDW
                           (   1   4  43  14   2   0   0)
     Any further DFT definition will be discarded
     Please, verify this is what you really want

  @ DRIVER MODE: Connecting to
 qe_1139763_2907627.sched-torque.pace.gatech.eduwzjz_5x3_scratch
  using UNIX socket
  @ DRIVER MODE: Message from server: STATUS
  @ DRIVER MODE: Message from server: INIT
  @ DRIVER MODE: Receiving replica           0          -1
  @ DRIVER MODE: Receiving encoded integer          25
  @ DRIVER MODE:  SCF:  T  FORCE:  T  STRESS:  F  VC:  F  ENSEMBLE:  F
  @ DRIVER MODE:  SCF:  T  FORCE:  T  STRESS:  F  VC:  F  ENSEMBLE:  F

     Using Slab Decomposition

     bravais-lattice index     =            0
     lattice parameter (alat)  =       1.8897  a.u.
     unit-cell volume          =    6658.9804 (a.u.)^3
     number of atoms/cell      =           52
     number of atomic types    =            4
     number of electrons       =       391.00
     number of Kohn-Sham states=          205
     kinetic-energy cutoff     =      29.3995  Ry
     charge density cutoff     =     293.9946  Ry
     scf convergence threshold =      7.3E-08
     mixing beta               =       0.0500
     number of iterations used =            8  plain     mixing
     Exchange-correlation= BEEF-VDW
                           (   1   4  43  14   2   0   0)

     celldm(1)=   1.889726  celldm(2)=   0.000000  celldm(3)=   0.000000
     celldm(4)=   0.000000  celldm(5)=   0.000000  celldm(6)=   0.000000

     crystal axes: (cart. coord. in units of alat)
               a(1) = (   6.579727   0.000000   0.000000 )
               a(2) = (  -0.000775   5.961596   0.000000 )
               a(3) = (   0.000000   0.000000  25.155947 )

     reciprocal axes: (cart. coord. in units 2 pi/alat)
               b(1) = (  0.151982  0.000020  0.000000 )
               b(2) = (  0.000000  0.167740  0.000000 )
               b(3) = (  0.000000  0.000000  0.039752 )

     PseudoPot. # 1 for Ti read from file:
     /storage/coda1/p-amedford6/0/shared/rich_project_chbe-medford/medford-share/data/pseudos_module/espresso/nninc/pbe/van/Ti.UPF
     MD5 check sum: 8e4df49b7f0d34bbd5052bf3f5ea0213
     Pseudo is Ultrasoft, Zval = 12.0
     Generated by new atomic code, or converted to UPF format
     Using radial grid of  851 points,  6 beta functions with:
                l(1) =   0
                l(2) =   0
                l(3) =   1
                l(4) =   1
                l(5) =   2
                l(6) =   2
     Q(r) pseudized with  8 coefficients,  rinner =    1.000   1.000   1.000
                                                       1.000   1.000

     PseudoPot. # 2 for O  read from file:
     /storage/coda1/p-amedford6/0/shared/rich_project_chbe-medford/medford-share/data/pseudos_module/espresso/nninc/pbe/van/O.UPF
     MD5 check sum: 78c19812648e8988a0fe644b0f25305e
     Pseudo is Ultrasoft, Zval =  6.0
     Generated by new atomic code, or converted to UPF format
     Using radial grid of  737 points,  4 beta functions with:
                l(1) =   0
                l(2) =   0
                l(3) =   1
                l(4) =   1
     Q(r) pseudized with  8 coefficients,  rinner =    0.800   0.800   0.800

     PseudoPot. # 3 for C  read from file:
     /storage/coda1/p-amedford6/0/shared/rich_project_chbe-medford/medford-share/data/pseudos_module/espresso/nninc/pbe/van/C.UPF
     MD5 check sum: 1a69bf6b8db32088f5b2163dbdb77a27
     Pseudo is Ultrasoft, Zval =  4.0
     Generated by new atomic code, or converted to UPF format
     Using radial grid of  721 points,  4 beta functions with:
                l(1) =   0
                l(2) =   0
                l(3) =   1
                l(4) =   1
     Q(r) pseudized with  8 coefficients,  rinner =    0.800   0.800   0.800

     PseudoPot. # 4 for H  read from file:
     /storage/coda1/p-amedford6/0/shared/rich_project_chbe-medford/medford-share/data/pseudos_module/espresso/nninc/pbe/van/H.UPF
     MD5 check sum: b5ee9d7bfd3a09ee7748110bda690ff7
     Pseudo is Ultrasoft, Zval =  1.0
     Generated by new atomic code, or converted to UPF format
     Using radial grid of  615 points,  1 beta functions with:
                l(1) =   0
     Q(r) pseudized with  8 coefficients,  rinner =    0.800

     atomic species   valence    mass     pseudopotential
        Ti1           12.00    47.86700     Ti( 1.00)
        O1             6.00    15.99900     O ( 1.00)
        C1             4.00    12.01100     C ( 1.00)
        H1             1.00     1.00800     H ( 1.00)

     No symmetry found

   Cartesian axes

     site n.     atom                  positions (alat units)
         1           Ti1 tau(   1) = (   0.0004258   2.9801865   6.0000000  )
         2           Ti1 tau(   2) = (   3.2906075   1.4906267   6.0002472  )
         3           O1  tau(   3) = (   0.0006271   0.0005054   7.9858123  )
         4           O1  tau(   4) = (   3.2906025   0.0005020   7.3038282  )
         5           O1  tau(   5) = (   4.5942328   1.4918067   9.2879030  )
         6           O1  tau(   6) = (   1.9868534   1.4903216   9.2879459  )
         7           Ti1 tau(   7) = (   3.3187032   3.0312427   9.1575206  )
         8           Ti1 tau(   8) = (   0.0282419   1.6147502   9.3704053  )
         9           O1  tau(   9) = (   3.3236385   0.0141534  11.3532293  )
        10           O1  tau(  10) = (   0.0104197   0.0125229  10.6127740  )
        11           O1  tau(  11) = (   1.3245732   1.5021988  12.6430083  )
        12           O1  tau(  12) = (   5.3244981   1.5061434  12.6562219  )
        13           Ti1 tau(  13) = (   0.0403031   3.0097444  12.8244759  )
        14           Ti1 tau(  14) = (   3.3296682   1.5108177  12.4986020  )
        15           O1  tau(  15) = (   0.0398480   0.0117783  14.7343716  )
        16           O1  tau(  16) = (   3.3300567   0.0146708  13.9469669  )
        17           O1  tau(  17) = (   4.5805658   1.5026465  16.1145873  )
        18           O1  tau(  18) = (   2.0880061   1.5021997  16.1152651  )
        19           Ti1 tau(  19) = (   3.3307167   2.9906167  15.7324548  )
        20           Ti1 tau(  20) = (   0.0579274   1.3843852  16.1188819  )
        21           O1  tau(  21) = (   3.2904802   0.0005063   4.7018136  )
        22           O1  tau(  22) = (   0.0436517   5.9586681  17.2572535  )
        23           O1  tau(  23) = (   1.3043587   1.4918075   6.0039043  )
        24           O1  tau(  24) = (   5.2767064   1.4903225   6.0039473  )
        25           Ti1 tau(  25) = (   0.0000382   5.9609847   6.0000000  )
        26           Ti1 tau(  26) = (   3.2902200   4.4714249   6.0002472  )
        27           O1  tau(  27) = (   0.0002396   2.9813036   7.9858123  )
        28           O1  tau(  28) = (   3.2902150   2.9813002   7.3038282  )
        29           O1  tau(  29) = (   4.5938453   4.4726049   9.2879030  )
        30           O1  tau(  30) = (   1.9864658   4.4711199   9.2879459  )
        31           Ti1 tau(  31) = (   3.3083866   0.0539517   9.1541167  )
        32           Ti1 tau(  32) = (   0.0315341   4.5377404   9.2709708  )
        33           O1  tau(  33) = (   3.3215087   2.9954721  11.3555336  )
        34           O1  tau(  34) = (   0.0112336   2.9957203  10.5730616  )
        35           O1  tau(  35) = (   1.3257220   4.4896437  12.6447561  )
        36           O1  tau(  36) = (   5.3225596   4.4851362  12.6583724  )
        37           Ti1 tau(  37) = (   0.0354833   0.0274604  12.5282598  )
        38           Ti1 tau(  38) = (   3.3297026   4.4921445  12.4963722  )
        39           O1  tau(  39) = (   0.0599690   3.0154325  14.7102929  )
        40           O1  tau(  40) = (   3.3251099   2.9889739  13.9402376  )
        41           O1  tau(  41) = (   4.5781535   4.4756942  16.0984728  )
        42           O1  tau(  42) = (   2.0867977   4.4764083  16.0997756  )
        43           Ti1 tau(  43) = (   3.3478802   0.0108728  15.7387323  )
        44           Ti1 tau(  44) = (   0.0598937   4.5429110  15.9843511  )
        45           O1  tau(  45) = (   3.2900926   2.9813045   4.7018136  )
        46           O1  tau(  46) = (   1.3039711   4.4726057   6.0039043  )
        47           O1  tau(  47) = (   5.2763189   4.4711207   6.0039473  )
        48           C1  tau(  48) = (   6.0696523   3.0631652  18.6664891  )
        49           O1  tau(  49) = (   0.0149881   2.9985468  17.3326271  )
        50           H1  tau(  50) = (   4.9903245   2.8753800  18.6581135  )
        51           H1  tau(  51) = (   6.5502243   2.3063723  19.2898855  )
        52           H1  tau(  52) = (   6.2508803   4.0560215  19.0798806  )

     number of k points=    10  Fermi-Dirac smearing, width (Ry)=  0.0073
                       cart. coord. in units 2pi/alat
        k(    1) = (   0.0000000   0.0000000   0.0000000), wk =   0.1250000
        k(    2) = (   0.0000000   0.0419351   0.0000000), wk =   0.2500000
        k(    3) = (   0.0000000  -0.0838702   0.0000000), wk =   0.1250000
        k(    4) = (   0.0379955   0.0000049   0.0000000), wk =   0.2500000
        k(    5) = (   0.0379955   0.0419400   0.0000000), wk =   0.2500000
        k(    6) = (   0.0379955  -0.0838652   0.0000000), wk =   0.2500000
        k(    7) = (   0.0379955  -0.0419301   0.0000000), wk =   0.2500000
        k(    8) = (  -0.0759910  -0.0000099   0.0000000), wk =   0.1250000
        k(    9) = (  -0.0759910   0.0419252   0.0000000), wk =   0.2500000
        k(   10) = (  -0.0759910  -0.0838800   0.0000000), wk =   0.1250000

     Initial potential from superposition of free atoms

     starting charge  374.99918, renormalised to  391.00000

     negative rho (up, down):  1.819E-02 0.000E+00

     %%%%%%%%%%%%%%%%%%%%%%%%%%%%%%%%%%%%%%%%%%%%%%%%%%%%%%%%%%%%%%%%%%%%%%%%
     %                                                                      %
     % You are using vdW-DF, which was implemented by the Thonhauser group. %
     % Please cite the following two papers that made this development      %
     % possible and the two reviews that describe the various versions:     %
     %                                                                      %
     %   T. Thonhauser et al., PRL 115, 136402 (2015).                      %
     %   T. Thonhauser et al., PRB 76, 125112 (2007).                       %
     %   K. Berland et al., Rep. Prog. Phys. 78, 066501 (2015).             %
     %   D.C. Langreth et al., J. Phys.: Condens. Matter 21, 084203 (2009). %
     %                                                                      %
     %                                                                      %
     % If you are calculating the stress with vdW-DF, please also cite:     %
     %                                                                      %
     %   R. Sabatini et al., J. Phys.: Condens. Matter 24, 424209 (2012).   %
     %                                                                      %
     %%%%%%%%%%%%%%%%%%%%%%%%%%%%%%%%%%%%%%%%%%%%%%%%%%%%%%%%%%%%%%%%%%%%%%%%

     Adding external electric field

     Computed dipole along edir(3) :
        Dipole               -5.5353 Ry au,        -14.0692 Debye
        Dipole field         -0.0104 Ry au,

        Potential amp.        0.9683 Ry
        Total length         46.3494 bohr

     Starting wfcs are  295 atomic wfcs
  @ DRIVER MODE: Message from server: STATUS
  @ DRIVER MODE: Message from server: POSDATA
  @ DRIVER MODE: Reading and sharing cell
  @ DRIVER MODE: Reading and sharing positions
  @ DRIVER MODE: Received positions

     Self-consistent Calculation

     iteration #  1     ecut=    29.40 Ry     beta= 0.05
     Davidson diagonalization with overlap
     c_bands:  3 eigenvalues not converged
     c_bands:  2 eigenvalues not converged
     c_bands:  3 eigenvalues not converged
     c_bands:  2 eigenvalues not converged
     c_bands:  3 eigenvalues not converged
     c_bands:  2 eigenvalues not converged
     c_bands:  1 eigenvalues not converged
     c_bands:  1 eigenvalues not converged
     c_bands:  2 eigenvalues not converged
     ethr =  1.00E-05,  avg # of iterations = 19.7

[...]

     total energy              =   -2791.71105703 Ry
     estimated scf accuracy    <    1531.27725606 Ry

     iteration #  2     ecut=    29.40 Ry     beta= 0.05
     Davidson diagonalization with overlap
     ethr =  1.00E-02,  avg # of iterations = 17.9

[...]

     iteration # 44     ecut=    29.40 Ry     beta= 0.05
     Davidson diagonalization with overlap
     c_bands:  1 eigenvalues not converged
     ethr =  4.40E-09,  avg # of iterations = 15.9

[...]

     total energy              =   -2931.50267001 Ry
     estimated scf accuracy    <       0.00000009 Ry

     iteration # 56     ecut=    29.40 Ry     beta= 0.05
     Davidson diagonalization with overlap
     ethr =  2.26E-11,  avg # of iterations = 10.3

     negative rho (up, down):  1.844E-02 0.000E+00

     Adding external electric field

     Computed dipole along edir(3) :
        Dipole                0.7711 Ry au,          1.9599 Debye
        Dipole field          0.0015 Ry au,

        Potential amp.       -0.1349 Ry
        Total length         46.3494 bohr

     End of self-consistent calculation

          k = 0.0000 0.0000 0.0000 ( 18029 PWs)   bands (ev):

   -55.9431 -55.9283 -55.9065 -55.8921 -55.8277 -55.8232 -55.8022 -55.7716
   -55.7682 -55.7172 -55.7076 -55.7016 -55.6676 -55.5850 -54.9565 -54.9224
   -32.4939 -32.4104 -32.3399 -32.2859 -32.2610 -32.2414 -32.2340 -32.2114
   -32.1801 -32.1676 -32.1480 -32.1424 -32.1386 -32.1089 -32.1038 -32.0817
   -32.0768 -32.0741 -32.0585 -32.0334 -32.0323 -32.0086 -32.0024 -31.9842
   -31.9836 -31.9834 -31.9547 -31.9540 -31.9426 -31.9326 -31.9257 -31.9236
   -31.9153 -31.9036 -31.8783 -31.8753 -31.8666 -31.8452 -31.8095 -31.8039
   -31.7815 -31.7735 -31.3665 -31.2691 -31.2467 -31.1831 -31.0970 -30.9859
   -17.6287 -16.6707 -16.3851 -16.2215 -16.0890 -16.0530 -15.9500 -15.7654
   -15.6267 -15.6090 -15.5453 -15.5064 -15.4915 -15.4651 -15.4614 -15.4476
   -15.4463 -15.3947 -15.3599 -15.3591 -15.3442 -15.3218 -15.2604 -15.2195
   -15.1388 -15.0841 -15.0597 -15.0061 -14.9426 -14.9237 -13.4574 -13.3392
    -9.5464  -4.3926  -4.1440  -4.0297  -3.8723  -3.8531  -3.8277  -3.8061
    -3.7422  -3.4918  -3.4764  -3.1571  -3.0981  -3.0739  -3.0600  -3.0537
    -2.8154  -2.7962  -2.7676  -2.7575  -2.7496  -2.7204  -2.6927  -2.6826
    -2.6589  -2.6434  -2.5481  -2.4639  -2.4558  -2.3505  -2.3047  -2.2936
    -2.2432  -2.2052  -2.1977  -2.1786  -2.1528  -2.1357  -2.1111  -2.1062
    -2.0089  -1.8793  -1.7753  -1.7467  -1.7063  -1.6430  -1.4382  -1.3910
    -1.3562  -1.3429  -1.2855  -1.2546  -1.2498  -1.1722  -1.1333  -1.1177
    -1.0108  -0.9486  -0.9388  -0.8981  -0.8346  -0.7983  -0.7549  -0.6791
    -0.6603  -0.6451  -0.4388  -0.4079  -0.4022  -0.3908  -0.2786  -0.2269
    -0.1729  -0.1599  -0.1473  -0.1170  -0.0443   0.0197   0.0298   0.0529
     0.0863   0.1122   0.1787   0.1994   0.2418   0.2662   0.2983   0.3865
     0.4292   0.5750   0.7040   0.7145   0.8226   0.9698   1.0677   1.1406
     1.2380   1.6572   1.7174   3.2425   3.2618   3.3066   3.3357   3.3945
     3.5164   3.6359   3.6705   3.7054   3.7274

[...]

          k = 0.0380-0.0419 0.0000 ( 17876 PWs)   bands (ev):

[...]

          k =-0.0760-0.0000 0.0000 ( 17886 PWs)   bands (ev):

[...]

          k =-0.0760-0.0839 0.0000 ( 17948 PWs)   bands (ev):

   -55.9316 -55.9179 -55.9104 -55.9098 -55.8225 -55.8203 -55.7855 -55.7851
   -55.7767 -55.7145 -55.7102 -55.6878 -55.6817 -55.5872 -54.9400 -54.9388
   -32.2980 -32.2936 -32.2386 -32.2340 -32.2232 -32.2193 -32.2017 -32.1966
   -32.1927 -32.1498 -32.1291 -32.1220 -32.1177 -32.0810 -32.0720 -32.0664
   -32.0583 -32.0546 -32.0518 -32.0493 -32.0392 -32.0270 -32.0231 -32.0168
   -32.0090 -32.0041 -32.0012 -31.9888 -31.9834 -31.9825 -31.9578 -31.9398
   -31.9377 -31.9347 -31.9292 -31.9114 -31.9086 -31.8974 -31.8915 -31.8797
   -31.8173 -31.7817 -31.2601 -31.2587 -31.1798 -31.1790 -31.1406 -31.1396
   -17.5888 -16.1119 -16.0957 -15.8614 -15.8563 -15.8519 -15.7820 -15.6970
   -15.6769 -15.6622 -15.6565 -15.6021 -15.5879 -15.5759 -15.5145 -15.4767
   -15.4503 -15.4426 -15.4388 -15.3903 -15.3863 -15.3327 -15.3143 -15.2997
   -15.2895 -15.2738 -15.2663 -15.1730 -15.1692 -15.0986 -13.4416 -13.4393
    -9.5471  -4.2592  -4.1138  -3.8746  -3.4020  -3.3840  -3.1030  -3.0704
    -3.0669  -2.9776  -2.8922  -2.8495  -2.8134  -2.7819  -2.7773  -2.7749
    -2.7557  -2.7256  -2.7221  -2.7031  -2.6807  -2.6702  -2.6168  -2.5815
    -2.5732  -2.5710  -2.5589  -2.5308  -2.5136  -2.4920  -2.4832  -2.4738
    -2.4538  -2.3568  -2.2258  -2.1927  -2.0819  -2.0730  -2.0362  -2.0230
    -1.9953  -1.9862  -1.9671  -1.8601  -1.7936  -1.6661  -1.6627  -1.6434
    -1.5867  -1.5182  -1.4479  -1.3785  -1.3550  -1.3388  -1.2445  -1.2310
    -1.1607  -1.1412  -1.0856  -1.0596  -1.0400  -0.9440  -0.9082  -0.8960
    -0.8898  -0.8090  -0.7936  -0.7786  -0.7381  -0.6778  -0.6673  -0.5972
    -0.5622  -0.5181  -0.4547  -0.4302  -0.3827  -0.2929  -0.1264  -0.0365
     0.0661   0.1092   0.1650   0.1783   0.2719   0.3138   0.3249   0.3345
     0.4163   0.4794   0.5194   0.5833   0.5965   0.6225   0.6844   1.4273
     1.4291   1.5198   1.5301   3.4500   3.4811   3.4945   3.5434   3.7025
     3.7076   3.7275   3.7326   3.8056   3.8682

     the Fermi energy is     3.2120 ev

!    total energy              =   -2931.50272894 Ry
     estimated scf accuracy    <       0.00000005 Ry
     smearing contrib. (-TS)   =      -0.02313443 Ry
     internal energy E=F+TS    =   -2931.47959451 Ry

     The total energy is F=E-TS. E is the sum of the following terms:
     one-electron contribution =  -24513.60637421 Ry
     hartree contribution      =   12341.92213497 Ry
     xc contribution           =    -482.04919949 Ry
     ewald contribution        =    9722.25272223 Ry
     electric field correction =       0.00112200 Ry

     convergence has been achieved in  56 iterations

     Forces acting on atoms (cartesian axes, Ry/au):

     atom    1 type  1   force =    -0.00013838   -0.00171245    0.10701352
     atom    2 type  1   force =    -0.00040538    0.00039933   -0.17992627
     atom    3 type  2   force =     0.00029730   -0.00715408   -0.03304632
     atom    4 type  2   force =     0.00067513    0.00052031    0.04595651
     atom    5 type  2   force =    -0.01815468    0.00044088    0.00393531
     atom    6 type  2   force =     0.02137706   -0.00104186    0.00545726
     atom    7 type  1   force =    -0.00015668   -0.00030318   -0.00013208
     atom    8 type  1   force =    -0.00008330   -0.00028738   -0.00172441
     atom    9 type  2   force =    -0.00030708   -0.00018050    0.00033282
     atom   10 type  2   force =    -0.00014635   -0.00053400    0.00012031
     atom   11 type  2   force =    -0.00031634    0.00013418    0.00059077
     atom   12 type  2   force =    -0.00021707    0.00021228    0.00019836
     atom   13 type  1   force =    -0.00018113   -0.00038820   -0.00083394
     atom   14 type  1   force =     0.00028937    0.00022052   -0.00051012
     atom   15 type  2   force =    -0.00014329    0.00026827   -0.00158208
     atom   16 type  2   force =    -0.00039668   -0.00027587   -0.00082240
     atom   17 type  2   force =    -0.00148140    0.00032908   -0.00065343
     atom   18 type  2   force =     0.00026365    0.00014544   -0.00066994
     atom   19 type  1   force =    -0.00005652   -0.00002802   -0.00016809
     atom   20 type  1   force =    -0.00081467   -0.00189040   -0.00039595
     atom   21 type  2   force =    -0.00005769    0.00009340    0.10420297
     atom   22 type  2   force =     0.00011982    0.00021001   -0.00049624
     atom   23 type  2   force =    -0.06896793    0.00066869   -0.02969950
     atom   24 type  2   force =     0.06867537    0.00114075   -0.02975665
     atom   25 type  1   force =    -0.00011829    0.00160198    0.11783567
     atom   26 type  1   force =    -0.00015347    0.00003045   -0.17996884
     atom   27 type  2   force =     0.00043792    0.00402168   -0.02693709
     atom   28 type  2   force =     0.00078161    0.00082838    0.04757724
     atom   29 type  2   force =    -0.01697192    0.00166663    0.00320682
     atom   30 type  2   force =     0.01945636    0.00118860    0.00455718
     atom   31 type  1   force =    -0.00025155    0.00053148   -0.00018969
     atom   32 type  1   force =    -0.00001327    0.00018979   -0.00093323
     atom   33 type  2   force =    -0.00030637   -0.00006850   -0.00004508
     atom   34 type  2   force =    -0.00012492    0.00070083    0.00043998
     atom   35 type  2   force =    -0.00027838   -0.00001698    0.00012887
     atom   36 type  2   force =    -0.00023776   -0.00002790   -0.00022421
     atom   37 type  1   force =    -0.00012061    0.00062054    0.00092874
     atom   38 type  1   force =     0.00019766   -0.00030228   -0.00051932
     atom   39 type  2   force =    -0.00023123   -0.00018756   -0.00055026
     atom   40 type  2   force =    -0.00034687    0.00023884   -0.00029805
     atom   41 type  2   force =    -0.00095949    0.00001573   -0.00032452
     atom   42 type  2   force =     0.00045992    0.00020637   -0.00049828
     atom   43 type  1   force =    -0.00012001    0.00019696    0.00027704
     atom   44 type  1   force =    -0.00068128    0.00148047   -0.00008113
     atom   45 type  2   force =    -0.00006343    0.00006515    0.10424648
     atom   46 type  2   force =    -0.06851688   -0.00129484   -0.02972826
     atom   47 type  2   force =     0.06833192   -0.00085515   -0.02980735
     atom   48 type  3   force =     0.00159734   -0.00151757   -0.00691122
     atom   49 type  2   force =    -0.00436095    0.00083219    0.01404999
     atom   50 type  4   force =     0.00114305   -0.00017771   -0.00071924
     atom   51 type  4   force =     0.00075918   -0.00058094   -0.00198563
     atom   52 type  4   force =     0.00101860   -0.00037385   -0.00091704

     Total force =     0.377245     Total SCF correction =     0.000745
  @ DRIVER MODE: Message from server: STATUS
  @ DRIVER MODE: Message from server: GETFORCE
  @ DRIVER MODE: Returning v,forces,stress,ensemble

     Writing output data file ./calc.save/
  @ DRIVER MODE: Message from server: EXIT
  @ DRIVE MODE: Exiting

     General routines

     Parallel routines

   This run was terminated on:  12:28:26  20Sep2021

   JOB DONE.