     Program PWSCF v.6.7GPU starts on 22Sep2021 at 21:58:12

     R & G space division:  proc/nbgrp/npool/nimage =       8
     Reading input from /storage/home/hcoda1/3/ntian30/research/carbon/CxH_vib/H2O_calc/ads_slab/CH3NHNHHO_a/out_0000/pw.inp
Warning: card &CELL ignored
Warning: card   CELL_DYNAMICS='IPI', ignored
Warning: card / ignored

     Current dimensions of program PWSCF are:
     Max number of different atomic species (ntypx) = 10
     Max number of k-points (npk) =  40000
     Max angular momentum in pseudopotentials (lmaxx) =  3
     Presently no symmetry can be used with electric field

     Message from routine cell_base_init:
     DEPRECATED: use true lattice parameter, not A to a.u. conversion factor

     IMPORTANT: XC functional enforced from input :
     Exchange-correlation= BEEF-VDW
                           (   1   4  43  14   2   0   0)
     Any further DFT definition will be discarded
     Please, verify this is what you really want

  @ DRIVER MODE: Connecting to
 qe_1139763_2941006.sched-torque.pace.gatech.eduk13m9jx7_scratch
  using UNIX socket
  @ DRIVER MODE: Message from server: STATUS
  @ DRIVER MODE: Message from server: INIT
  @ DRIVER MODE: Receiving replica           0          -1
  @ DRIVER MODE: Receiving encoded integer          25
  @ DRIVER MODE:  SCF:  T  FORCE:  T  STRESS:  F  VC:  F  ENSEMBLE:  F
  @ DRIVER MODE:  SCF:  T  FORCE:  T  STRESS:  F  VC:  F  ENSEMBLE:  F

     Using Slab Decomposition

     bravais-lattice index     =            0
     lattice parameter (alat)  =       1.8897  a.u.
     unit-cell volume          =    6658.9804 (a.u.)^3
     number of atoms/cell      =           57
     number of atomic types    =            5
     number of electrons       =       404.00
     number of Kohn-Sham states=          212
     kinetic-energy cutoff     =      29.3995  Ry
     charge density cutoff     =     293.9946  Ry
     scf convergence threshold =      7.3E-08
     mixing beta               =       0.0500
     number of iterations used =            8  plain     mixing
     Exchange-correlation= BEEF-VDW
                           (   1   4  43  14   2   0   0)

     celldm(1)=   1.889726  celldm(2)=   0.000000  celldm(3)=   0.000000
     celldm(4)=   0.000000  celldm(5)=   0.000000  celldm(6)=   0.000000

     crystal axes: (cart. coord. in units of alat)
               a(1) = (   6.579727   0.000000   0.000000 )
               a(2) = (  -0.000775   5.961596   0.000000 )
               a(3) = (   0.000000   0.000000  25.155947 )

     reciprocal axes: (cart. coord. in units 2 pi/alat)
               b(1) = (  0.151982  0.000020  0.000000 )
               b(2) = (  0.000000  0.167740  0.000000 )
               b(3) = (  0.000000  0.000000  0.039752 )

     PseudoPot. # 1 for Ti read from file:
     /storage/coda1/p-amedford6/0/shared/rich_project_chbe-medford/medford-share/data/pseudos_module/espresso/nninc/pbe/van/Ti.UPF
     MD5 check sum: 8e4df49b7f0d34bbd5052bf3f5ea0213
     Pseudo is Ultrasoft, Zval = 12.0
     Generated by new atomic code, or converted to UPF format
     Using radial grid of  851 points,  6 beta functions with:
                l(1) =   0
                l(2) =   0
                l(3) =   1
                l(4) =   1
                l(5) =   2
                l(6) =   2
     Q(r) pseudized with  8 coefficients,  rinner =    1.000   1.000   1.000
                                                       1.000   1.000

     PseudoPot. # 2 for O  read from file:
     /storage/coda1/p-amedford6/0/shared/rich_project_chbe-medford/medford-share/data/pseudos_module/espresso/nninc/pbe/van/O.UPF
     MD5 check sum: 78c19812648e8988a0fe644b0f25305e
     Pseudo is Ultrasoft, Zval =  6.0
     Generated by new atomic code, or converted to UPF format
     Using radial grid of  737 points,  4 beta functions with:
                l(1) =   0
                l(2) =   0
                l(3) =   1
                l(4) =   1
     Q(r) pseudized with  8 coefficients,  rinner =    0.800   0.800   0.800

     PseudoPot. # 3 for N  read from file:
     /storage/coda1/p-amedford6/0/shared/rich_project_chbe-medford/medford-share/data/pseudos_module/espresso/nninc/pbe/van/N.UPF
     MD5 check sum: 90d10febe142ad51ac9d5be1deb811c4
     Pseudo is Ultrasoft, Zval =  5.0
     Generated by new atomic code, or converted to UPF format
     Using radial grid of  729 points,  4 beta functions with:
                l(1) =   0
                l(2) =   0
                l(3) =   1
                l(4) =   1
     Q(r) pseudized with  8 coefficients,  rinner =    0.800   0.800   0.800

     PseudoPot. # 4 for C  read from file:
     /storage/coda1/p-amedford6/0/shared/rich_project_chbe-medford/medford-share/data/pseudos_module/espresso/nninc/pbe/van/C.UPF
     MD5 check sum: 1a69bf6b8db32088f5b2163dbdb77a27
     Pseudo is Ultrasoft, Zval =  4.0
     Generated by new atomic code, or converted to UPF format
     Using radial grid of  721 points,  4 beta functions with:
                l(1) =   0
                l(2) =   0
                l(3) =   1
                l(4) =   1
     Q(r) pseudized with  8 coefficients,  rinner =    0.800   0.800   0.800

     PseudoPot. # 5 for H  read from file:
     /storage/coda1/p-amedford6/0/shared/rich_project_chbe-medford/medford-share/data/pseudos_module/espresso/nninc/pbe/van/H.UPF
     MD5 check sum: b5ee9d7bfd3a09ee7748110bda690ff7
     Pseudo is Ultrasoft, Zval =  1.0
     Generated by new atomic code, or converted to UPF format
     Using radial grid of  615 points,  1 beta functions with:
                l(1) =   0
     Q(r) pseudized with  8 coefficients,  rinner =    0.800

     atomic species   valence    mass     pseudopotential
        Ti1           12.00    47.86700     Ti( 1.00)
        O1             6.00    15.99900     O ( 1.00)
        N1             5.00    14.00700     N ( 1.00)
        C1             4.00    12.01100     C ( 1.00)
        H1             1.00     1.00800     H ( 1.00)

     No symmetry found

   Cartesian axes

     site n.     atom                  positions (alat units)
         1           Ti1 tau(   1) = (   0.0004258   2.9801865   6.0000000  )
         2           Ti1 tau(   2) = (   3.2906075   1.4906267   6.0002472  )
         3           O1  tau(   3) = (   0.0006271   0.0005054   7.9858123  )
         4           O1  tau(   4) = (   3.2906025   0.0005020   7.3038282  )
         5           O1  tau(   5) = (   4.5942328   1.4918067   9.2879030  )
         6           O1  tau(   6) = (   1.9868534   1.4903216   9.2879459  )
         7           Ti1 tau(   7) = (   3.2907910   2.8959150   9.1758416  )
         8           Ti1 tau(   8) = (   0.0015273   1.4827037   9.2680791  )
         9           O1  tau(   9) = (   3.2953096   5.9421394  11.2884464  )
        10           O1  tau(  10) = (   0.0116148   5.9584955  10.6183126  )
        11           O1  tau(  11) = (   1.3041449   1.4755329  12.6321863  )
        12           O1  tau(  12) = (   5.3089623   1.4871430  12.6059879  )
        13           Ti1 tau(  13) = (   6.5683417   3.1096339  12.6902584  )
        14           Ti1 tau(  14) = (   3.3171551   1.3050273  12.6602886  )
        15           O1  tau(  15) = (   6.5441980   0.0188234  14.6400653  )
        16           O1  tau(  16) = (   3.3305379   0.0354930  13.9003223  )
        17           O1  tau(  17) = (   4.5569828   1.5958521  16.0354584  )
        18           O1  tau(  18) = (   2.0254723   1.5302355  15.9749146  )
        19           Ti1 tau(  19) = (   3.2479256   3.0467527  15.6517507  )
        20           Ti1 tau(  20) = (   6.4631478   1.5268535  15.8454044  )
        21           O1  tau(  21) = (   3.2904802   0.0005063   4.7018136  )
        22           O1  tau(  22) = (   6.5640117   0.0389496  17.1838934  )
        23           O1  tau(  23) = (   1.3043587   1.4918075   6.0039043  )
        24           O1  tau(  24) = (   5.2767064   1.4903225   6.0039473  )
        25           Ti1 tau(  25) = (   0.0000382   5.9609847   6.0000000  )
        26           Ti1 tau(  26) = (   3.2902200   4.4714249   6.0002472  )
        27           O1  tau(  27) = (   0.0002396   2.9813036   7.9858123  )
        28           O1  tau(  28) = (   3.2902150   2.9813002   7.3038282  )
        29           O1  tau(  29) = (   4.5938453   4.4726049   9.2879030  )
        30           O1  tau(  30) = (   1.9864658   4.4711199   9.2879459  )
        31           Ti1 tau(  31) = (   3.2891106   5.8743827   9.1763621  )
        32           Ti1 tau(  32) = (   0.0006254   4.4649316   9.2693709  )
        33           O1  tau(  33) = (   3.2909858   3.0116154  11.2527998  )
        34           O1  tau(  34) = (   0.0092240   2.9805883  10.6323155  )
        35           O1  tau(  35) = (   1.2990260   4.4726261  12.6330189  )
        36           O1  tau(  36) = (   5.2946483   4.4606482  12.6134978  )
        37           Ti1 tau(  37) = (   0.0333947   0.1262769  12.6104238  )
        38           Ti1 tau(  38) = (   3.2900473   4.3917186  12.4086616  )
        39           O1  tau(  39) = (   6.5591047   2.9728048  14.6463482  )
        40           O1  tau(  40) = (   3.3071982   2.9909887  13.8663713  )
        41           O1  tau(  41) = (   4.5374868   4.4330245  16.1128471  )
        42           O1  tau(  42) = (   2.0037144   4.4952966  15.9584979  )
        43           Ti1 tau(  43) = (   3.1911318   0.0573200  16.2061952  )
        44           Ti1 tau(  44) = (   6.5299348   4.6473693  16.0672121  )
        45           O1  tau(  45) = (   3.2900926   2.9813045   4.7018136  )
        46           O1  tau(  46) = (   1.3039711   4.4726057   6.0039043  )
        47           O1  tau(  47) = (   5.2763189   4.4711207   6.0039473  )
        48           N1  tau(  48) = (   1.2509970   2.8552009  18.3001485  )
        49           N1  tau(  49) = (   0.1090600   2.9410495  17.4585617  )
        50           C1  tau(  50) = (   1.1117997   3.5424446  19.5707766  )
        51           H1  tau(  51) = (   0.2696121   3.1616043  20.1716506  )
        52           H1  tau(  52) = (   2.0314425   3.4001925  20.1392599  )
        53           H1  tau(  53) = (   0.9679189   4.6079482  19.3970517  )
        54           H1  tau(  54) = (   1.5306055   1.8840965  18.4148701  )
        55           H1  tau(  55) = (   5.8389999   2.9001924  18.0325661  )
        56           O1  tau(  56) = (   3.2424369   0.1001929  18.0579484  )
        57           H1  tau(  57) = (   3.9792659   5.6040190  18.4897823  )

     number of k points=    10  Fermi-Dirac smearing, width (Ry)=  0.0073
                       cart. coord. in units 2pi/alat
        k(    1) = (   0.0000000   0.0000000   0.0000000), wk =   0.1250000
        k(    2) = (   0.0000000   0.0419351   0.0000000), wk =   0.2500000
        k(    3) = (   0.0000000  -0.0838702   0.0000000), wk =   0.1250000
        k(    4) = (   0.0379955   0.0000049   0.0000000), wk =   0.2500000
        k(    5) = (   0.0379955   0.0419400   0.0000000), wk =   0.2500000
        k(    6) = (   0.0379955  -0.0838652   0.0000000), wk =   0.2500000
        k(    7) = (   0.0379955  -0.0419301   0.0000000), wk =   0.2500000
        k(    8) = (  -0.0759910  -0.0000099   0.0000000), wk =   0.1250000
        k(    9) = (  -0.0759910   0.0419252   0.0000000), wk =   0.2500000
        k(   10) = (  -0.0759910  -0.0838800   0.0000000), wk =   0.1250000

     Initial potential from superposition of free atoms

     starting charge  387.99913, renormalised to  404.00000

     negative rho (up, down):  1.467E-02 0.000E+00

     %%%%%%%%%%%%%%%%%%%%%%%%%%%%%%%%%%%%%%%%%%%%%%%%%%%%%%%%%%%%%%%%%%%%%%%%
     %                                                                      %
     % You are using vdW-DF, which was implemented by the Thonhauser group. %
     % Please cite the following two papers that made this development      %
     % possible and the two reviews that describe the various versions:     %
     %                                                                      %
     %   T. Thonhauser et al., PRL 115, 136402 (2015).                      %
     %   T. Thonhauser et al., PRB 76, 125112 (2007).                       %
     %   K. Berland et al., Rep. Prog. Phys. 78, 066501 (2015).             %
     %   D.C. Langreth et al., J. Phys.: Condens. Matter 21, 084203 (2009). %
     %                                                                      %
     %                                                                      %
     % If you are calculating the stress with vdW-DF, please also cite:     %
     %                                                                      %
     %   R. Sabatini et al., J. Phys.: Condens. Matter 24, 424209 (2012).   %
     %                                                                      %
     %%%%%%%%%%%%%%%%%%%%%%%%%%%%%%%%%%%%%%%%%%%%%%%%%%%%%%%%%%%%%%%%%%%%%%%%

     Adding external electric field

     Computed dipole along edir(3) :
        Dipole              -12.7315 Ry au,        -32.3602 Debye
        Dipole field         -0.0240 Ry au,

        Potential amp.        2.2272 Ry
        Total length         46.3494 bohr

     Starting wfcs are  306 atomic wfcs
  @ DRIVER MODE: Message from server: STATUS
  @ DRIVER MODE: Message from server: POSDATA
  @ DRIVER MODE: Reading and sharing cell
  @ DRIVER MODE: Reading and sharing positions
  @ DRIVER MODE: Received positions

     Self-consistent Calculation

     iteration #  1     ecut=    29.40 Ry     beta= 0.05
     Davidson diagonalization with overlap
     ethr =  1.00E-02,  avg # of iterations =  3.4

[...]

     total energy              =   -2403.77186657 Ry
     estimated scf accuracy    <    6511.13135889 Ry

[...]

     iteration #  5     ecut=    29.40 Ry     beta= 0.05
     Davidson diagonalization with overlap
     c_bands:  2 eigenvalues not converged
     ethr =  1.00E-02,  avg # of iterations = 15.6

[...]

     iteration # 42     ecut=    29.40 Ry     beta= 0.05
     Davidson diagonalization with overlap
     c_bands:  1 eigenvalues not converged
     ethr =  4.33E-07,  avg # of iterations =  3.8

[...]

     total energy              =   -2975.25037142 Ry
     estimated scf accuracy    <       0.00000018 Ry

     iteration # 67     ecut=    29.40 Ry     beta= 0.05
     Davidson diagonalization with overlap
     ethr =  4.53E-11,  avg # of iterations =  2.0

     negative rho (up, down):  1.542E-02 0.000E+00

     Adding external electric field

     Computed dipole along edir(3) :
        Dipole                0.5369 Ry au,          1.3647 Debye
        Dipole field          0.0010 Ry au,

        Potential amp.       -0.0939 Ry
        Total length         46.3494 bohr

     End of self-consistent calculation

          k = 0.0000 0.0000 0.0000 ( 18029 PWs)   bands (ev):

   -56.4273 -56.3936 -55.7715 -55.7367 -55.5397 -55.4786 -55.3662 -55.2107
   -55.2072 -55.1387 -55.1036 -55.0902 -55.0563 -55.0500 -54.9847 -54.8649
   -32.8603 -32.7116 -32.6836 -32.5948 -32.5035 -32.4859 -32.2516 -32.0178
   -31.9909 -31.9681 -31.9152 -31.9097 -31.8801 -31.7677 -31.7558 -31.7459
   -31.7046 -31.6958 -31.6808 -31.6405 -31.6342 -31.6242 -31.5752 -31.5545
   -31.5137 -31.4825 -31.4806 -31.4301 -31.4170 -31.4104 -31.4059 -31.3859
   -31.3665 -31.3661 -31.3293 -31.3111 -31.3052 -31.3005 -31.2820 -31.2371
   -31.2344 -31.2176 -31.2049 -31.1845 -31.1132 -31.1090 -31.1059 -31.0581
   -16.6170 -16.5695 -16.1897 -16.1726 -15.8656 -15.8011 -15.7760 -15.7411
   -15.6793 -15.5561 -15.4381 -15.3926 -15.3847 -15.3364 -15.1771 -15.0798
   -14.9848 -14.9131 -14.9056 -14.8585 -14.8504 -14.8209 -14.8096 -14.8014
   -14.7356 -14.7008 -14.5926 -14.5477 -14.4516 -14.2569 -14.1782 -13.5878
   -13.4780 -11.5362  -8.6610  -5.0356  -4.2564  -4.1677  -3.7813  -3.6930
    -3.5224  -3.4459  -3.2930  -3.2622  -3.1755  -3.0731  -3.0113  -2.9542
    -2.9432  -2.8381  -2.6896  -2.6378  -2.6330  -2.6097  -2.6036  -2.5129
    -2.4443  -2.4108  -2.3434  -2.2734  -2.2415  -2.1561  -2.1507  -2.1249
    -2.1039  -2.0749  -2.0271  -1.9783  -1.9546  -1.9352  -1.8236  -1.7815
    -1.7552  -1.7102  -1.6779  -1.6038  -1.5682  -1.5217  -1.4437  -1.3832
    -1.2602  -1.2338  -1.1682  -1.1538  -1.1243  -1.0000  -0.9616  -0.9272
    -0.8661  -0.8324  -0.7671  -0.7436  -0.7116  -0.6736  -0.6651  -0.6250
    -0.5183  -0.4891  -0.3623  -0.3449  -0.2924  -0.2223  -0.2123  -0.1577
    -0.1361  -0.0998  -0.0545  -0.0189   0.0241   0.0930   0.1308   0.2182
     0.2614   0.3245   0.4203   0.4496   0.4712   0.5340   0.5518   0.5850
     0.6306   0.7242   0.7333   0.7941   0.8699   0.9149   0.9328   0.9938
     1.0535   1.0728   1.1713   1.1991   1.2102   1.2653   1.4729   1.5132
     1.6907   2.4470   2.8370   2.9837   3.2695   3.3011   3.5614   3.7963
     3.8262   3.8282   3.9110   4.0136

[...]

          k = 0.0380-0.0419 0.0000 ( 17876 PWs)   bands (ev):

[...]

          k =-0.0760-0.0000 0.0000 ( 17886 PWs)   bands (ev):

[...]

          k =-0.0760-0.0839 0.0000 ( 17948 PWs)   bands (ev):

   -56.4107 -56.4101 -55.7588 -55.7492 -55.5345 -55.4836 -55.3648 -55.2119
   -55.2025 -55.1431 -55.1014 -55.0738 -55.0726 -55.0485 -54.9869 -54.8663
   -32.6975 -32.6969 -32.6773 -32.6765 -32.5477 -32.5474 -32.0767 -32.0683
   -31.9528 -31.9454 -31.9416 -31.9392 -31.8377 -31.7988 -31.7618 -31.7536
   -31.7092 -31.7039 -31.6643 -31.6152 -31.5827 -31.5638 -31.5398 -31.4993
   -31.4871 -31.4844 -31.4339 -31.4319 -31.4194 -31.4185 -31.4163 -31.3959
   -31.3824 -31.3565 -31.3349 -31.3228 -31.3093 -31.2983 -31.2969 -31.2967
   -31.2598 -31.2588 -31.2415 -31.2343 -31.1915 -31.1754 -31.1144 -31.0896
   -16.5446 -16.1760 -15.9978 -15.9938 -15.9143 -15.9117 -15.7036 -15.6980
   -15.5272 -15.4981 -15.4235 -15.3054 -15.2537 -15.1973 -15.1892 -15.1469
   -15.0925 -15.0733 -15.0304 -15.0135 -14.9507 -14.9070 -14.8585 -14.8127
   -14.7938 -14.7549 -14.6340 -14.5850 -14.5781 -14.3913 -14.3590 -13.5819
   -13.5813 -11.5428  -8.6677  -5.0439  -4.2540  -3.7531  -3.4028  -3.0998
    -3.0817  -3.0361  -3.0270  -2.8115  -2.7908  -2.7654  -2.6922  -2.6795
    -2.6296  -2.6222  -2.5304  -2.4897  -2.4476  -2.4331  -2.4186  -2.3635
    -2.3363  -2.2919  -2.2884  -2.2531  -2.2181  -2.1845  -2.1596  -2.1180
    -2.0935  -2.0796  -2.0407  -2.0094  -1.9824  -1.9324  -1.9121  -1.8806
    -1.8706  -1.8490  -1.6917  -1.6376  -1.5819  -1.5396  -1.5089  -1.4426
    -1.4324  -1.3772  -1.3181  -1.2846  -1.2563  -1.2382  -1.1516  -1.1202
    -1.1037  -1.0683  -1.0262  -0.9656  -0.9072  -0.8588  -0.7817  -0.6876
    -0.6587  -0.6414  -0.6141  -0.6065  -0.5658  -0.5135  -0.4251  -0.3730
    -0.3209  -0.3040  -0.2605  -0.2547  -0.2244  -0.1873  -0.1176   0.0050
     0.0703   0.1064   0.1617   0.2177   0.2740   0.3385   0.3810   0.4626
     0.5417   0.5631   0.6489   0.6824   0.8064   0.8491   0.9648   1.0059
     1.0436   1.0881   1.1575   1.2548   1.2798   1.3240   1.3257   1.3426
     1.3570   2.4725   3.4038   3.4068   3.4572   3.4647   3.7392   3.7473
     3.8808   3.8826   4.0073   4.0199

     the Fermi energy is     2.7183 ev

!    total energy              =   -2975.25040256 Ry
     estimated scf accuracy    <       0.00000007 Ry
     smearing contrib. (-TS)   =      -0.00754952 Ry
     internal energy E=F+TS    =   -2975.24285305 Ry

     The total energy is F=E-TS. E is the sum of the following terms:
     one-electron contribution =  -23773.57887940 Ry
     hartree contribution      =   11982.41821547 Ry
     xc contribution           =    -494.80929394 Ry
     ewald contribution        =    9310.72656084 Ry
     electric field correction =       0.00054399 Ry

     convergence has been achieved in  67 iterations

     Forces acting on atoms (cartesian axes, Ry/au):

     atom    1 type  1   force =     0.00002125   -0.00034861    0.11625143
     atom    2 type  1   force =    -0.00014169    0.00031319   -0.16019477
     atom    3 type  2   force =     0.00004563    0.00032673   -0.05317698
     atom    4 type  2   force =     0.00007090   -0.00041779    0.02650512
     atom    5 type  2   force =    -0.00502629   -0.00225948   -0.01002212
     atom    6 type  2   force =     0.00670917   -0.00183413   -0.01075264
     atom    7 type  1   force =    -0.00038431   -0.00639433    0.04568117
     atom    8 type  1   force =     0.00057132    0.01078909    0.08182508
     atom    9 type  2   force =    -0.00001741    0.00035862   -0.00015351
     atom   10 type  2   force =    -0.00139956    0.00154879   -0.05456006
     atom   11 type  2   force =     0.00073316    0.00028627   -0.00023266
     atom   12 type  2   force =    -0.00115200    0.00021202    0.00018823
     atom   13 type  1   force =    -0.00022425   -0.00092220    0.00038681
     atom   14 type  1   force =     0.00047448    0.00126015   -0.00027331
     atom   15 type  2   force =     0.00000328   -0.00052105    0.00041893
     atom   16 type  2   force =    -0.00030457    0.00061963    0.00092652
     atom   17 type  2   force =    -0.00071935   -0.00044675    0.00018053
     atom   18 type  2   force =     0.00073403   -0.00020284    0.00019910
     atom   19 type  1   force =    -0.00059427   -0.00056424   -0.00044143
     atom   20 type  1   force =     0.00038926   -0.00039524   -0.00028479
     atom   21 type  2   force =     0.00007480    0.00015060    0.09918095
     atom   22 type  2   force =     0.00029089   -0.00041034    0.00079238
     atom   23 type  2   force =    -0.07950111   -0.00002874   -0.03162776
     atom   24 type  2   force =     0.07941930    0.00040059   -0.03165983
     atom   25 type  1   force =     0.00017681   -0.00036381    0.11650209
     atom   26 type  1   force =    -0.00008965   -0.00141839   -0.16033662
     atom   27 type  2   force =     0.00013358   -0.00011930   -0.05155665
     atom   28 type  2   force =     0.00003013    0.00129599    0.02170047
     atom   29 type  2   force =    -0.00384511    0.00422630   -0.01241960
     atom   30 type  2   force =     0.00542680    0.00483896   -0.01301210
     atom   31 type  1   force =    -0.00015037    0.00314062    0.03065141
     atom   32 type  1   force =     0.00051374   -0.01302564    0.08269108
     atom   33 type  2   force =     0.00017875   -0.00051876    0.00022909
     atom   34 type  2   force =    -0.00049820    0.00168346   -0.06792610
     atom   35 type  2   force =    -0.00044909   -0.00065068   -0.00009904
     atom   36 type  2   force =     0.00007356   -0.00003424   -0.00001770
     atom   37 type  1   force =    -0.00012331   -0.00121639   -0.00016314
     atom   38 type  1   force =     0.00047742   -0.00034367    0.00014156
     atom   39 type  2   force =     0.00015562    0.00032989   -0.00002157
     atom   40 type  2   force =    -0.00012918   -0.00023552    0.00023112
     atom   41 type  2   force =     0.00113673   -0.00003673    0.00018027
     atom   42 type  2   force =    -0.00104241   -0.00037889    0.00021863
     atom   43 type  1   force =     0.00010552   -0.00078458    0.00004310
     atom   44 type  1   force =     0.00041672    0.00063269   -0.00044508
     atom   45 type  2   force =     0.00007520   -0.00002944    0.09898743
     atom   46 type  2   force =    -0.07951422   -0.00001044   -0.03164322
     atom   47 type  2   force =     0.07945267    0.00043470   -0.03166672
     atom   48 type  3   force =    -0.00076717    0.00037603   -0.00064189
     atom   49 type  3   force =    -0.00103878    0.00024629   -0.00011217
     atom   50 type  4   force =    -0.00050782    0.00077838   -0.00007607
     atom   51 type  5   force =    -0.00112850    0.00019228   -0.00019915
     atom   52 type  5   force =    -0.00000985   -0.00043585    0.00019410
     atom   53 type  5   force =     0.00051329    0.00022161   -0.00058622
     atom   54 type  5   force =    -0.00010545   -0.00163294    0.00009987
     atom   55 type  5   force =    -0.00050280    0.00011159    0.00032806
     atom   56 type  2   force =     0.00111352   -0.00021778    0.00001579
     atom   57 type  5   force =    -0.00015079    0.00142435   -0.00044745

     Total force =     0.399068     Total SCF correction =     0.000863
  @ DRIVER MODE: Message from server: STATUS
  @ DRIVER MODE: Message from server: GETFORCE
  @ DRIVER MODE: Returning v,forces,stress,ensemble

     Writing output data file ./calc.save/
  @ DRIVER MODE: Message from server: EXIT
  @ DRIVE MODE: Exiting

     General routines

     Parallel routines

   This run was terminated on:  22:19:41  22Sep2021

   JOB DONE.