     Program PWSCF v.6.7GPU starts on 16Sep2021 at 13:54:27

     R & G space division:  proc/nbgrp/npool/nimage =      10
     Reading input from /storage/home/hcoda1/3/ntian30/research/carbon/CxH_vib/H2O_calc/ads_slab/CH3NNHHHH2O_a/out_0063/pw.inp
Warning: card &CELL ignored
Warning: card   CELL_DYNAMICS='IPI', ignored
Warning: card / ignored

     Current dimensions of program PWSCF are:
     Max number of different atomic species (ntypx) = 10
     Max number of k-points (npk) =  40000
     Max angular momentum in pseudopotentials (lmaxx) =  3
     Presently no symmetry can be used with electric field

     Message from routine cell_base_init:
     DEPRECATED: use true lattice parameter, not A to a.u. conversion factor

     IMPORTANT: XC functional enforced from input :
     Exchange-correlation= BEEF-VDW
                           (   1   4  43  14   2   0   0)
     Any further DFT definition will be discarded
     Please, verify this is what you really want

  @ DRIVER MODE: Connecting to
 qe_1139763_2852622.sched-torque.pace.gatech.edu0ghf8rgm_scratch
  using UNIX socket
  @ DRIVER MODE: Message from server: STATUS
  @ DRIVER MODE: Message from server: INIT
  @ DRIVER MODE: Receiving replica           0          -1
  @ DRIVER MODE: Receiving encoded integer          25
  @ DRIVER MODE:  SCF:  T  FORCE:  T  STRESS:  F  VC:  F  ENSEMBLE:  F
  @ DRIVER MODE:  SCF:  T  FORCE:  T  STRESS:  F  VC:  F  ENSEMBLE:  F

     Using Slab Decomposition

     bravais-lattice index     =            0
     lattice parameter (alat)  =       1.8897  a.u.
     unit-cell volume          =    6658.9804 (a.u.)^3
     number of atoms/cell      =           59
     number of atomic types    =            5
     number of electrons       =       406.00
     number of Kohn-Sham states=          213
     kinetic-energy cutoff     =      29.3995  Ry
     charge density cutoff     =     293.9946  Ry
     scf convergence threshold =      7.3E-08
     mixing beta               =       0.0500
     number of iterations used =            8  plain     mixing
     Exchange-correlation= BEEF-VDW
                           (   1   4  43  14   2   0   0)

     celldm(1)=   1.889726  celldm(2)=   0.000000  celldm(3)=   0.000000
     celldm(4)=   0.000000  celldm(5)=   0.000000  celldm(6)=   0.000000

     crystal axes: (cart. coord. in units of alat)
               a(1) = (   6.579727   0.000000   0.000000 )
               a(2) = (  -0.000775   5.961596   0.000000 )
               a(3) = (   0.000000   0.000000  25.155947 )

     reciprocal axes: (cart. coord. in units 2 pi/alat)
               b(1) = (  0.151982  0.000020  0.000000 )
               b(2) = (  0.000000  0.167740  0.000000 )
               b(3) = (  0.000000  0.000000  0.039752 )

     PseudoPot. # 1 for Ti read from file:
     /storage/coda1/p-amedford6/0/shared/rich_project_chbe-medford/medford-share/data/pseudos_module/espresso/nninc/pbe/van/Ti.UPF
     MD5 check sum: 8e4df49b7f0d34bbd5052bf3f5ea0213
     Pseudo is Ultrasoft, Zval = 12.0
     Generated by new atomic code, or converted to UPF format
     Using radial grid of  851 points,  6 beta functions with:
                l(1) =   0
                l(2) =   0
                l(3) =   1
                l(4) =   1
                l(5) =   2
                l(6) =   2
     Q(r) pseudized with  8 coefficients,  rinner =    1.000   1.000   1.000
                                                       1.000   1.000

     PseudoPot. # 2 for O  read from file:
     /storage/coda1/p-amedford6/0/shared/rich_project_chbe-medford/medford-share/data/pseudos_module/espresso/nninc/pbe/van/O.UPF
     MD5 check sum: 78c19812648e8988a0fe644b0f25305e
     Pseudo is Ultrasoft, Zval =  6.0
     Generated by new atomic code, or converted to UPF format
     Using radial grid of  737 points,  4 beta functions with:
                l(1) =   0
                l(2) =   0
                l(3) =   1
                l(4) =   1
     Q(r) pseudized with  8 coefficients,  rinner =    0.800   0.800   0.800

     PseudoPot. # 3 for N  read from file:
     /storage/coda1/p-amedford6/0/shared/rich_project_chbe-medford/medford-share/data/pseudos_module/espresso/nninc/pbe/van/N.UPF
     MD5 check sum: 90d10febe142ad51ac9d5be1deb811c4
     Pseudo is Ultrasoft, Zval =  5.0
     Generated by new atomic code, or converted to UPF format
     Using radial grid of  729 points,  4 beta functions with:
                l(1) =   0
                l(2) =   0
                l(3) =   1
                l(4) =   1
     Q(r) pseudized with  8 coefficients,  rinner =    0.800   0.800   0.800

     PseudoPot. # 4 for C  read from file:
     /storage/coda1/p-amedford6/0/shared/rich_project_chbe-medford/medford-share/data/pseudos_module/espresso/nninc/pbe/van/C.UPF
     MD5 check sum: 1a69bf6b8db32088f5b2163dbdb77a27
     Pseudo is Ultrasoft, Zval =  4.0
     Generated by new atomic code, or converted to UPF format
     Using radial grid of  721 points,  4 beta functions with:
                l(1) =   0
                l(2) =   0
                l(3) =   1
                l(4) =   1
     Q(r) pseudized with  8 coefficients,  rinner =    0.800   0.800   0.800

     PseudoPot. # 5 for H  read from file:
     /storage/coda1/p-amedford6/0/shared/rich_project_chbe-medford/medford-share/data/pseudos_module/espresso/nninc/pbe/van/H.UPF
     MD5 check sum: b5ee9d7bfd3a09ee7748110bda690ff7
     Pseudo is Ultrasoft, Zval =  1.0
     Generated by new atomic code, or converted to UPF format
     Using radial grid of  615 points,  1 beta functions with:
                l(1) =   0
     Q(r) pseudized with  8 coefficients,  rinner =    0.800

     atomic species   valence    mass     pseudopotential
        Ti1           12.00    47.86700     Ti( 1.00)
        O1             6.00    15.99900     O ( 1.00)
        N1             5.00    14.00700     N ( 1.00)
        C1             4.00    12.01100     C ( 1.00)
        H1             1.00     1.00800     H ( 1.00)

     No symmetry found

   Cartesian axes

     site n.     atom                  positions (alat units)
         1           Ti1 tau(   1) = (   0.0004258   2.9801865   6.0000000  )
         2           Ti1 tau(   2) = (   3.2906075   1.4906267   6.0002472  )
         3           O1  tau(   3) = (   0.0006271   0.0005054   7.9858123  )
         4           O1  tau(   4) = (   3.2906025   0.0005020   7.3038282  )
         5           O1  tau(   5) = (   4.5942328   1.4918067   9.2879030  )
         6           O1  tau(   6) = (   1.9868534   1.4903216   9.2879459  )
         7           Ti1 tau(   7) = (   3.2907910   2.8959150   9.1758416  )
         8           Ti1 tau(   8) = (   0.0015273   1.4827037   9.2680791  )
         9           O1  tau(   9) = (   3.2800960   5.9426830  11.3808346  )
        10           O1  tau(  10) = (   0.0116148   5.9584955  10.6183126  )
        11           O1  tau(  11) = (   1.2797812   1.4911726  12.6624455  )
        12           O1  tau(  12) = (   5.2824698   1.4871998  12.6412817  )
        13           Ti1 tau(  13) = (   0.0041451   2.9720195  12.5119452  )
        14           Ti1 tau(  14) = (   3.3095611   1.4699318  12.5307708  )
        15           O1  tau(  15) = (   6.5436702   0.0697967  14.6864816  )
        16           O1  tau(  16) = (   3.2812162   5.9597207  14.0300411  )
        17           O1  tau(  17) = (   4.5129646   1.5046642  16.2361130  )
        18           O1  tau(  18) = (   1.9708392   1.5012857  16.1671103  )
        19           Ti1 tau(  19) = (   3.2655272   2.9480959  15.7331506  )
        20           Ti1 tau(  20) = (   6.5674642   1.4497656  15.9937491  )
        21           O1  tau(  21) = (   3.2904802   0.0005063   4.7018136  )
        22           O1  tau(  22) = (   6.5217933   5.8323795  17.2454964  )
        23           O1  tau(  23) = (   1.3043587   1.4918075   6.0039043  )
        24           O1  tau(  24) = (   5.2767064   1.4903225   6.0039473  )
        25           Ti1 tau(  25) = (   0.0000382   5.9609847   6.0000000  )
        26           Ti1 tau(  26) = (   3.2902200   4.4714249   6.0002472  )
        27           O1  tau(  27) = (   0.0002396   2.9813036   7.9858123  )
        28           O1  tau(  28) = (   3.2902150   2.9813002   7.3038282  )
        29           O1  tau(  29) = (   4.5938453   4.4726049   9.2879030  )
        30           O1  tau(  30) = (   1.9864658   4.4711199   9.2879459  )
        31           Ti1 tau(  31) = (   3.2891106   5.8743827   9.1763621  )
        32           Ti1 tau(  32) = (   0.0006254   4.4649316   9.2693709  )
        33           O1  tau(  33) = (   3.2830490   2.9749636  11.3746576  )
        34           O1  tau(  34) = (   0.0092240   2.9805883  10.6323155  )
        35           O1  tau(  35) = (   1.2760807   4.4612897  12.6946019  )
        36           O1  tau(  36) = (   5.2846406   4.4647657  12.6742532  )
        37           Ti1 tau(  37) = (   0.0173662   5.9591775  12.4970172  )
        38           Ti1 tau(  38) = (   3.3070294   4.4569304  12.5379467  )
        39           O1  tau(  39) = (   6.5190077   2.9374781  14.9220565  )
        40           O1  tau(  40) = (   3.2909943   2.9519766  13.9498127  )
        41           O1  tau(  41) = (   4.5146313   4.4149292  16.1460290  )
        42           O1  tau(  42) = (   1.9668235   4.4047650  16.1116202  )
        43           Ti1 tau(  43) = (   3.2426406   5.9218513  15.8539982  )
        44           Ti1 tau(  44) = (   6.5337747   4.6515477  15.8702276  )
        45           O1  tau(  45) = (   3.2900926   2.9813045   4.7018136  )
        46           O1  tau(  46) = (   1.3039711   4.4726057   6.0039043  )
        47           O1  tau(  47) = (   5.2763189   4.4711207   6.0039473  )
        48           N1  tau(  48) = (   1.0802268   3.0592680  18.8437747  )
        49           N1  tau(  49) = (   6.4825355   2.6367244  18.1156036  )
        50           C1  tau(  50) = (   0.7269815   3.7261681  20.0984356  )
        51           H1  tau(  51) = (   0.0344531   4.5672025  19.9493712  )
        52           H1  tau(  52) = (   0.2718923   3.0081313  20.7822053  )
        53           H1  tau(  53) = (   1.6424345   4.1087450  20.5485440  )
        54           H1  tau(  54) = (   5.7152520   3.3097272  18.2274121  )
        55           H1  tau(  55) = (   6.1788988   1.7551022  18.5268573  )
        56           H1  tau(  56) = (   1.5478348   3.7306874  18.2371031  )
        57           O1  tau(  57) = (   3.1661568   0.0027346  18.3937517  )
        58           H1  tau(  58) = (   4.0701885   0.3369208  18.4697374  )
        59           H1  tau(  59) = (   2.5798038   0.7742236  18.5044111  )

     number of k points=    10  Fermi-Dirac smearing, width (Ry)=  0.0073
                       cart. coord. in units 2pi/alat
        k(    1) = (   0.0000000   0.0000000   0.0000000), wk =   0.1250000
        k(    2) = (   0.0000000   0.0419351   0.0000000), wk =   0.2500000
        k(    3) = (   0.0000000  -0.0838702   0.0000000), wk =   0.1250000
        k(    4) = (   0.0379955   0.0000049   0.0000000), wk =   0.2500000
        k(    5) = (   0.0379955   0.0419400   0.0000000), wk =   0.2500000
        k(    6) = (   0.0379955  -0.0838652   0.0000000), wk =   0.2500000
        k(    7) = (   0.0379955  -0.0419301   0.0000000), wk =   0.2500000
        k(    8) = (  -0.0759910  -0.0000099   0.0000000), wk =   0.1250000
        k(    9) = (  -0.0759910   0.0419252   0.0000000), wk =   0.2500000
        k(   10) = (  -0.0759910  -0.0838800   0.0000000), wk =   0.1250000

     Initial potential from superposition of free atoms

     starting charge  389.99912, renormalised to  406.00000

     negative rho (up, down):  1.306E-02 0.000E+00

     %%%%%%%%%%%%%%%%%%%%%%%%%%%%%%%%%%%%%%%%%%%%%%%%%%%%%%%%%%%%%%%%%%%%%%%%
     %                                                                      %
     % You are using vdW-DF, which was implemented by the Thonhauser group. %
     % Please cite the following two papers that made this development      %
     % possible and the two reviews that describe the various versions:     %
     %                                                                      %
     %   T. Thonhauser et al., PRL 115, 136402 (2015).                      %
     %   T. Thonhauser et al., PRB 76, 125112 (2007).                       %
     %   K. Berland et al., Rep. Prog. Phys. 78, 066501 (2015).             %
     %   D.C. Langreth et al., J. Phys.: Condens. Matter 21, 084203 (2009). %
     %                                                                      %
     %                                                                      %
     % If you are calculating the stress with vdW-DF, please also cite:     %
     %                                                                      %
     %   R. Sabatini et al., J. Phys.: Condens. Matter 24, 424209 (2012).   %
     %                                                                      %
     %%%%%%%%%%%%%%%%%%%%%%%%%%%%%%%%%%%%%%%%%%%%%%%%%%%%%%%%%%%%%%%%%%%%%%%%

     Adding external electric field

     Computed dipole along edir(3) :
        Dipole              -16.1158 Ry au,        -40.9623 Debye
        Dipole field         -0.0304 Ry au,

        Potential amp.        2.8192 Ry
        Total length         46.3494 bohr

     Starting wfcs are  308 atomic wfcs
  @ DRIVER MODE: Message from server: STATUS
  @ DRIVER MODE: Message from server: POSDATA
  @ DRIVER MODE: Reading and sharing cell
  @ DRIVER MODE: Reading and sharing positions
  @ DRIVER MODE: Received positions

     Self-consistent Calculation

     iteration #  1     ecut=    29.40 Ry     beta= 0.05
     Davidson diagonalization with overlap
     c_bands:  2 eigenvalues not converged
     c_bands:  3 eigenvalues not converged
     c_bands:  2 eigenvalues not converged
     c_bands:  3 eigenvalues not converged
     c_bands:  4 eigenvalues not converged
     c_bands:  2 eigenvalues not converged
     c_bands:  1 eigenvalues not converged
     c_bands:  5 eigenvalues not converged
     c_bands:  1 eigenvalues not converged
     ethr =  1.00E-05,  avg # of iterations = 23.1

[...]

     total energy              =   -2140.63263214 Ry
     estimated scf accuracy    <    9598.82537718 Ry

     iteration #  2     ecut=    29.40 Ry     beta= 0.05
     Davidson diagonalization with overlap
     ethr =  1.00E-02,  avg # of iterations = 33.1

[...]

     iteration # 78     ecut=    29.40 Ry     beta= 0.05
     Davidson diagonalization with overlap
     c_bands:  1 eigenvalues not converged
     ethr =  4.81E-09,  avg # of iterations = 16.0

[...]

     total energy              =   -2977.70012386 Ry
     estimated scf accuracy    <       0.00000010 Ry

     iteration # 90     ecut=    29.40 Ry     beta= 0.05
     Davidson diagonalization with overlap
     ethr =  2.59E-11,  avg # of iterations =  8.9

     negative rho (up, down):  1.407E-02 0.000E+00

     Adding external electric field

     Computed dipole along edir(3) :
        Dipole                1.3389 Ry au,          3.4033 Debye
        Dipole field          0.0025 Ry au,

        Potential amp.       -0.2342 Ry
        Total length         46.3494 bohr

     End of self-consistent calculation

          k = 0.0000 0.0000 0.0000 ( 18029 PWs)   bands (ev):

   -55.1196 -55.0829 -55.0753 -55.0412 -55.0355 -55.0304 -54.9988 -54.9629
   -54.9443 -54.9095 -54.9057 -54.8888 -54.8720 -54.8386 -54.1050 -54.0709
   -31.6814 -31.5954 -31.5677 -31.4879 -31.4334 -31.4307 -31.4172 -31.4112
   -31.3643 -31.3415 -31.3312 -31.3201 -31.3134 -31.3106 -31.2923 -31.2841
   -31.2639 -31.2612 -31.2589 -31.2405 -31.2279 -31.2186 -31.2012 -31.1969
   -31.1891 -31.1776 -31.1744 -31.1452 -31.1325 -31.1297 -31.1247 -31.1042
   -31.1016 -31.0939 -31.0904 -31.0668 -31.0577 -31.0411 -31.0337 -31.0320
   -31.0167 -31.0159 -30.5144 -30.4201 -30.3980 -30.3307 -30.2440 -30.1331
   -18.8179 -17.8185 -15.9506 -15.6952 -15.5586 -15.4576 -15.3227 -15.2167
   -15.1353 -15.0212 -14.9714 -14.8562 -14.8237 -14.8192 -14.7797 -14.7484
   -14.6995 -14.6608 -14.6586 -14.6363 -14.6168 -14.6092 -14.5663 -14.5594
   -14.5195 -14.5178 -14.4979 -14.3619 -14.2803 -14.2102 -14.0286 -13.2013
   -12.6075 -12.4901  -9.7779  -6.5801  -6.4031  -5.4492  -4.9207  -3.5341
    -3.2841  -3.1394  -3.0859  -3.0499  -3.0155  -2.9465  -2.8814  -2.8028
    -2.6489  -2.5820  -2.5566  -2.4043  -2.3303  -2.3204  -2.2639  -2.1643
    -2.1395  -2.0927  -2.0506  -1.9860  -1.9482  -1.9249  -1.9032  -1.8682
    -1.8641  -1.8106  -1.7569  -1.6872  -1.5975  -1.5663  -1.5204  -1.4767
    -1.4546  -1.4520  -1.4115  -1.4051  -1.3953  -1.3502  -1.3441  -1.3139
    -1.2680  -1.1585  -1.0083  -0.9462  -0.8565  -0.7618  -0.7371  -0.7112
    -0.6910  -0.6288  -0.6063  -0.5772  -0.5013  -0.4531  -0.3739  -0.3282
    -0.3050  -0.2252  -0.1206  -0.1035  -0.0964  -0.0083   0.0840   0.0968
     0.1116   0.1212   0.2191   0.2845   0.3183   0.3601   0.4242   0.4333
     0.4910   0.5202   0.5718   0.6381   0.6709   0.7502   0.7895   0.8105
     0.8160   0.8385   0.8586   0.8699   0.9511   0.9600   0.9855   1.0742
     1.1787   1.3327   1.4791   1.4900   1.8233   1.8244   1.9179   2.1014
     2.4941   2.5424   3.9749   4.0505   4.1090   4.1202   4.1258   4.2107
     4.4598   4.4776   4.4890   4.4906   4.5255

[...]

          k = 0.0380-0.0419 0.0000 ( 17876 PWs)   bands (ev):

[...]

          k =-0.0760-0.0000 0.0000 ( 17886 PWs)   bands (ev):

[...]

          k =-0.0760-0.0839 0.0000 ( 17948 PWs)   bands (ev):

   -55.1051 -55.0971 -55.0583 -55.0581 -55.0328 -55.0292 -54.9860 -54.9757
   -54.9299 -54.9235 -54.8907 -54.8895 -54.8883 -54.8402 -54.0879 -54.0879
   -31.5107 -31.4911 -31.4812 -31.3829 -31.3826 -31.3774 -31.3707 -31.3496
   -31.3495 -31.3291 -31.3240 -31.3184 -31.3087 -31.2898 -31.2762 -31.2617
   -31.2574 -31.2561 -31.2527 -31.2463 -31.2443 -31.2405 -31.2286 -31.2275
   -31.1982 -31.1973 -31.1803 -31.1780 -31.1779 -31.1692 -31.1690 -31.1630
   -31.1546 -31.1423 -31.1367 -31.1211 -31.1196 -31.1039 -31.0696 -31.0690
   -31.0677 -31.0447 -30.4107 -30.4106 -30.3269 -30.3268 -30.2874 -30.2873
   -18.8165 -17.8151 -15.5308 -15.3920 -15.2529 -15.1493 -15.1344 -15.0808
   -15.0317 -14.9899 -14.9484 -14.9039 -14.8940 -14.8758 -14.8470 -14.8203
   -14.7960 -14.7369 -14.7206 -14.7050 -14.6827 -14.6358 -14.6280 -14.6252
   -14.6181 -14.5718 -14.5692 -14.5445 -14.4756 -14.4735 -14.2878 -13.2032
   -12.5916 -12.5914  -9.7748  -6.6235  -6.3339  -5.4465  -4.9314  -3.5073
    -2.9378  -2.8168  -2.6541  -2.6183  -2.4719  -2.3722  -2.3270  -2.2989
    -2.2450  -2.1995  -2.1393  -2.1242  -2.1059  -2.0472  -2.0218  -2.0030
    -1.9715  -1.9525  -1.9389  -1.9205  -1.9030  -1.8750  -1.8486  -1.8399
    -1.8352  -1.8068  -1.7906  -1.7511  -1.7445  -1.7365  -1.6932  -1.6812
    -1.6552  -1.5980  -1.4912  -1.4809  -1.3284  -1.3261  -1.2919  -1.2466
    -1.2268  -1.2164  -1.1557  -1.1478  -1.1355  -0.9001  -0.8727  -0.8626
    -0.8355  -0.7777  -0.7598  -0.6970  -0.6876  -0.6038  -0.5890  -0.4870
    -0.4713  -0.4151  -0.3315  -0.3235  -0.3113  -0.2004  -0.1505  -0.1129
    -0.0863  -0.0761  -0.0586  -0.0209  -0.0207   0.0691   0.1126   0.1429
     0.1581   0.1880   0.3525   0.4012   0.4101   0.5490   0.5629   0.7111
     0.7744   0.7886   0.8760   0.8967   0.9844   0.9944   1.0340   1.1735
     1.1851   1.2079   1.2553   1.2837   1.3356   1.3408   2.2741   2.2755
     2.3623   2.3624   4.1073   4.2325   4.2389   4.2996   4.4089   4.4420
     4.4883   4.5220   4.5595   4.5622   4.6295

     the Fermi energy is     4.0369 ev

!    total energy              =   -2977.70012835 Ry
     estimated scf accuracy    <       0.00000005 Ry
     smearing contrib. (-TS)   =      -0.03675151 Ry
     internal energy E=F+TS    =   -2977.66337684 Ry

     The total energy is F=E-TS. E is the sum of the following terms:
     one-electron contribution =  -23082.92619761 Ry
     hartree contribution      =   11640.61401510 Ry
     xc contribution           =    -496.62520647 Ry
     ewald contribution        =    8961.27062894 Ry
     electric field correction =       0.00338320 Ry

     convergence has been achieved in  90 iterations

     Forces acting on atoms (cartesian axes, Ry/au):

     atom    1 type  1   force =     0.00017880   -0.00018859    0.09311286
     atom    2 type  1   force =    -0.00010724   -0.00032753   -0.17821391
     atom    3 type  2   force =     0.00002118   -0.00017668   -0.02037733
     atom    4 type  2   force =    -0.00002698   -0.00200288    0.05899966
     atom    5 type  2   force =    -0.01059063   -0.00142235    0.00860433
     atom    6 type  2   force =     0.01185377   -0.00070443    0.00713745
     atom    7 type  1   force =    -0.00088746    0.00312932   -0.01229255
     atom    8 type  1   force =     0.00054766    0.00112967   -0.00449012
     atom    9 type  2   force =    -0.00007702   -0.00037118    0.00014419
     atom   10 type  2   force =    -0.00129283   -0.00050532   -0.00194136
     atom   11 type  2   force =    -0.00021646   -0.00021919   -0.00005508
     atom   12 type  2   force =     0.00060816   -0.00007686   -0.00024028
     atom   13 type  1   force =    -0.00102596   -0.00063253    0.00020908
     atom   14 type  1   force =     0.00011738   -0.00004426    0.00017879
     atom   15 type  2   force =    -0.00027133   -0.00051592   -0.00005899
     atom   16 type  2   force =    -0.00000741   -0.00008261    0.00066841
     atom   17 type  2   force =    -0.00029069    0.00023609    0.00047605
     atom   18 type  2   force =     0.00018509    0.00002867    0.00032282
     atom   19 type  1   force =     0.00023689   -0.00003705    0.00061682
     atom   20 type  1   force =    -0.00023816   -0.00017209    0.00028905
     atom   21 type  2   force =     0.00007143   -0.00001560    0.10395095
     atom   22 type  2   force =     0.00001345   -0.00023638   -0.00102036
     atom   23 type  2   force =    -0.07038294   -0.00010507   -0.02687993
     atom   24 type  2   force =     0.07026089    0.00033915   -0.02692028
     atom   25 type  1   force =     0.00000365   -0.00022652    0.09274258
     atom   26 type  1   force =    -0.00019984   -0.00037859   -0.17832098
     atom   27 type  2   force =     0.00010284   -0.00028700   -0.01935266
     atom   28 type  2   force =     0.00003847   -0.00162502    0.05807182
     atom   29 type  2   force =    -0.01067583   -0.00080855    0.00800258
     atom   30 type  2   force =     0.01179295   -0.00047902    0.00652745
     atom   31 type  1   force =    -0.00072446    0.00504380   -0.01492732
     atom   32 type  1   force =     0.00039639   -0.00138949   -0.00477385
     atom   33 type  2   force =    -0.00011285    0.00021390    0.00029342
     atom   34 type  2   force =    -0.00128850    0.00140354   -0.00090166
     atom   35 type  2   force =     0.00019937    0.00014190    0.00002214
     atom   36 type  2   force =     0.00011617   -0.00001148   -0.00011122
     atom   37 type  1   force =    -0.00103126    0.00056430    0.00004337
     atom   38 type  1   force =     0.00014253   -0.00015087   -0.00003924
     atom   39 type  2   force =    -0.00003070   -0.00014730    0.00010046
     atom   40 type  2   force =    -0.00020690    0.00020855    0.00023677
     atom   41 type  2   force =     0.00000558   -0.00013339    0.00046717
     atom   42 type  2   force =    -0.00016646   -0.00005664    0.00005189
     atom   43 type  1   force =     0.00008085    0.00039540    0.00037713
     atom   44 type  1   force =    -0.00005306    0.00016300   -0.00039310
     atom   45 type  2   force =     0.00004202   -0.00004988    0.10394425
     atom   46 type  2   force =    -0.07037285   -0.00005676   -0.02691141
     atom   47 type  2   force =     0.07028244    0.00037235   -0.02694169
     atom   48 type  3   force =     0.00003975    0.00018709   -0.00035856
     atom   49 type  3   force =    -0.00086144   -0.00033277    0.00025315
     atom   50 type  4   force =     0.00070764    0.00034313   -0.00049483
     atom   51 type  5   force =     0.00013687   -0.00027890    0.00009748
     atom   52 type  5   force =     0.00033677   -0.00059874    0.00048180
     atom   53 type  5   force =     0.00057122    0.00010568   -0.00021196
     atom   54 type  5   force =     0.00081053   -0.00027483   -0.00028191
     atom   55 type  5   force =     0.00036907    0.00085869   -0.00001332
     atom   56 type  5   force =     0.00008054    0.00032745    0.00020834
     atom   57 type  2   force =    -0.00718492   -0.00314511   -0.00149405
     atom   58 type  5   force =     0.00631172    0.00307276    0.00092955
     atom   59 type  5   force =     0.00166213    0.00000297    0.00045612

     Total force =     0.366207     Total SCF correction =     0.000436
  @ DRIVER MODE: Message from server: STATUS
  @ DRIVER MODE: Message from server: GETFORCE
  @ DRIVER MODE: Returning v,forces,stress,ensemble

     Writing output data file ./calc.save/
  @ DRIVER MODE: Message from server: EXIT
  @ DRIVE MODE: Exiting

     General routines

     Parallel routines

   This run was terminated on:  14:19:30  16Sep2021

   JOB DONE.