     Program PWSCF v.6.7GPU starts on  5Oct2021 at 21:37:24

     R & G space division:  proc/nbgrp/npool/nimage =       8
     Reading input from /storage/home/hcoda1/3/ntian30/research/carbon/CxH_vib/pristine/ads_slab/CH2N2_a/out_0029/pw.inp
Warning: card &CELL ignored
Warning: card   CELL_DYNAMICS='IPI', ignored
Warning: card / ignored

     Current dimensions of program PWSCF are:
     Max number of different atomic species (ntypx) = 10
     Max number of k-points (npk) =  40000
     Max angular momentum in pseudopotentials (lmaxx) =  3
     Presently no symmetry can be used with electric field

     Message from routine cell_base_init:
     DEPRECATED: use true lattice parameter, not A to a.u. conversion factor

     IMPORTANT: XC functional enforced from input :
     Exchange-correlation= BEEF-VDW
                           (   1   4  43  14   2   0   0)
     Any further DFT definition will be discarded
     Please, verify this is what you really want

  @ DRIVER MODE: Connecting to
 qe_1139763_3091261.sched-torque.pace.gatech.edu_11x7f79_scratch
  using UNIX socket
  @ DRIVER MODE: Message from server: STATUS
  @ DRIVER MODE: Message from server: INIT
  @ DRIVER MODE: Receiving replica           0          -1
  @ DRIVER MODE: Receiving encoded integer          25
  @ DRIVER MODE:  SCF:  T  FORCE:  T  STRESS:  F  VC:  F  ENSEMBLE:  F
  @ DRIVER MODE:  SCF:  T  FORCE:  T  STRESS:  F  VC:  F  ENSEMBLE:  F

     Using Slab Decomposition

     bravais-lattice index     =            0
     lattice parameter (alat)  =       1.8897  a.u.
     unit-cell volume          =    6658.9804 (a.u.)^3
     number of atoms/cell      =           53
     number of atomic types    =            5
     number of electrons       =       400.00
     number of Kohn-Sham states=          210
     kinetic-energy cutoff     =      29.3995  Ry
     charge density cutoff     =     293.9946  Ry
     scf convergence threshold =      7.3E-08
     mixing beta               =       0.0500
     number of iterations used =            8  plain     mixing
     Exchange-correlation= BEEF-VDW
                           (   1   4  43  14   2   0   0)

     celldm(1)=   1.889726  celldm(2)=   0.000000  celldm(3)=   0.000000
     celldm(4)=   0.000000  celldm(5)=   0.000000  celldm(6)=   0.000000

     crystal axes: (cart. coord. in units of alat)
               a(1) = (   6.579727   0.000000   0.000000 )
               a(2) = (  -0.000775   5.961596   0.000000 )
               a(3) = (   0.000000   0.000000  25.155947 )

     reciprocal axes: (cart. coord. in units 2 pi/alat)
               b(1) = (  0.151982  0.000020  0.000000 )
               b(2) = (  0.000000  0.167740  0.000000 )
               b(3) = (  0.000000  0.000000  0.039752 )

     PseudoPot. # 1 for Ti read from file:
     /storage/coda1/p-amedford6/0/shared/rich_project_chbe-medford/medford-share/data/pseudos_module/espresso/nninc/pbe/van/Ti.UPF
     MD5 check sum: 8e4df49b7f0d34bbd5052bf3f5ea0213
     Pseudo is Ultrasoft, Zval = 12.0
     Generated by new atomic code, or converted to UPF format
     Using radial grid of  851 points,  6 beta functions with:
                l(1) =   0
                l(2) =   0
                l(3) =   1
                l(4) =   1
                l(5) =   2
                l(6) =   2
     Q(r) pseudized with  8 coefficients,  rinner =    1.000   1.000   1.000
                                                       1.000   1.000

     PseudoPot. # 2 for O  read from file:
     /storage/coda1/p-amedford6/0/shared/rich_project_chbe-medford/medford-share/data/pseudos_module/espresso/nninc/pbe/van/O.UPF
     MD5 check sum: 78c19812648e8988a0fe644b0f25305e
     Pseudo is Ultrasoft, Zval =  6.0
     Generated by new atomic code, or converted to UPF format
     Using radial grid of  737 points,  4 beta functions with:
                l(1) =   0
                l(2) =   0
                l(3) =   1
                l(4) =   1
     Q(r) pseudized with  8 coefficients,  rinner =    0.800   0.800   0.800

     PseudoPot. # 3 for N  read from file:
     /storage/coda1/p-amedford6/0/shared/rich_project_chbe-medford/medford-share/data/pseudos_module/espresso/nninc/pbe/van/N.UPF
     MD5 check sum: 90d10febe142ad51ac9d5be1deb811c4
     Pseudo is Ultrasoft, Zval =  5.0
     Generated by new atomic code, or converted to UPF format
     Using radial grid of  729 points,  4 beta functions with:
                l(1) =   0
                l(2) =   0
                l(3) =   1
                l(4) =   1
     Q(r) pseudized with  8 coefficients,  rinner =    0.800   0.800   0.800

     PseudoPot. # 4 for C  read from file:
     /storage/coda1/p-amedford6/0/shared/rich_project_chbe-medford/medford-share/data/pseudos_module/espresso/nninc/pbe/van/C.UPF
     MD5 check sum: 1a69bf6b8db32088f5b2163dbdb77a27
     Pseudo is Ultrasoft, Zval =  4.0
     Generated by new atomic code, or converted to UPF format
     Using radial grid of  721 points,  4 beta functions with:
                l(1) =   0
                l(2) =   0
                l(3) =   1
                l(4) =   1
     Q(r) pseudized with  8 coefficients,  rinner =    0.800   0.800   0.800

     PseudoPot. # 5 for H  read from file:
     /storage/coda1/p-amedford6/0/shared/rich_project_chbe-medford/medford-share/data/pseudos_module/espresso/nninc/pbe/van/H.UPF
     MD5 check sum: b5ee9d7bfd3a09ee7748110bda690ff7
     Pseudo is Ultrasoft, Zval =  1.0
     Generated by new atomic code, or converted to UPF format
     Using radial grid of  615 points,  1 beta functions with:
                l(1) =   0
     Q(r) pseudized with  8 coefficients,  rinner =    0.800

     atomic species   valence    mass     pseudopotential
        Ti1           12.00    47.86700     Ti( 1.00)
        O1             6.00    15.99900     O ( 1.00)
        N1             5.00    14.00700     N ( 1.00)
        C1             4.00    12.01100     C ( 1.00)
        H1             1.00     1.00800     H ( 1.00)

     No symmetry found

   Cartesian axes

     site n.     atom                  positions (alat units)
         1           Ti1 tau(   1) = (   0.0004258   2.9801865   6.0000000  )
         2           Ti1 tau(   2) = (   3.2906075   1.4906267   6.0002472  )
         3           O1  tau(   3) = (   0.0006271   0.0005054   7.9858123  )
         4           O1  tau(   4) = (   3.2906025   0.0005020   7.3038282  )
         5           O1  tau(   5) = (   4.5942328   1.4918067   9.2879030  )
         6           O1  tau(   6) = (   1.9868534   1.4903216   9.2879459  )
         7           Ti1 tau(   7) = (   3.2967797   2.8647345   9.1688538  )
         8           Ti1 tau(   8) = (   0.0139078   1.4260134   9.3797207  )
         9           O1  tau(   9) = (   3.2818202   5.9426219  11.3413624  )
        10           O1  tau(  10) = (  -0.0006713   5.9438105  10.5613913  )
        11           O1  tau(  11) = (   1.2629550   1.4689526  12.6431422  )
        12           O1  tau(  12) = (   5.2627372   1.4724369  12.6244454  )
        13           Ti1 tau(  13) = (   0.0649248   2.9521173  12.8162972  )
        14           Ti1 tau(  14) = (   3.3900010   1.4623865  12.4921655  )
        15           O1  tau(  15) = (   6.5612248   5.9427239  14.6529025  )
        16           O1  tau(  16) = (   3.2707349   5.9499158  13.9186396  )
        17           O1  tau(  17) = (   4.5120437   1.4930778  16.0516072  )
        18           O1  tau(  18) = (   2.0188724   1.4901805  16.0528637  )
        19           Ti1 tau(  19) = (   3.2526435   2.9656207  15.7242400  )
        20           Ti1 tau(  20) = (   6.5390660   1.5270114  16.1581541  )
        21           O1  tau(  21) = (   3.2904802   0.0005063   4.7018136  )
        22           O1  tau(  22) = (   6.5517350   0.0054997  17.2382445  )
        23           O1  tau(  23) = (   1.3043587   1.4918075   6.0039043  )
        24           O1  tau(  24) = (   5.2767064   1.4903225   6.0039473  )
        25           Ti1 tau(  25) = (   0.0000382   5.9609847   6.0000000  )
        26           Ti1 tau(  26) = (   3.2902200   4.4714249   6.0002472  )
        27           O1  tau(  27) = (   0.0002396   2.9813036   7.9858123  )
        28           O1  tau(  28) = (   3.2902150   2.9813002   7.3038282  )
        29           O1  tau(  29) = (   4.5938453   4.4726049   9.2879030  )
        30           O1  tau(  30) = (   1.9864658   4.4711199   9.2879459  )
        31           Ti1 tau(  31) = (   3.2991641   5.8454459   9.1677744  )
        32           Ti1 tau(  32) = (   0.0142928   4.4069258   9.3804372  )
        33           O1  tau(  33) = (   3.2794024   2.9620648  11.3429404  )
        34           O1  tau(  34) = (   0.0008107   2.9631099  10.5617750  )
        35           O1  tau(  35) = (   1.2628400   4.4505553  12.6449227  )
        36           O1  tau(  36) = (   5.2621040   4.4508628  12.6271667  )
        37           Ti1 tau(  37) = (   0.0634051   5.9337149  12.8176510  )
        38           Ti1 tau(  38) = (   3.3888395   4.4462795  12.4902329  )
        39           O1  tau(  39) = (   6.5643088   2.9532696  14.6533357  )
        40           O1  tau(  40) = (   3.2687884   2.9653797  13.9163527  )
        41           O1  tau(  41) = (   4.5138939   4.4677068  16.0260545  )
        42           O1  tau(  42) = (   2.0159196   4.4685127  16.0260682  )
        43           Ti1 tau(  43) = (   3.2551286   5.9518885  15.7372992  )
        44           Ti1 tau(  44) = (   6.5382561   4.5045293  16.1449140  )
        45           O1  tau(  45) = (   3.2900926   2.9813045   4.7018136  )
        46           O1  tau(  46) = (   6.5520679   2.9954315  17.2342401  )
        47           O1  tau(  47) = (   1.3039711   4.4726057   6.0039043  )
        48           O1  tau(  48) = (   5.2763189   4.4711207   6.0039473  )
        49           N1  tau(  49) = (   3.2718132   4.4933032  18.6889481  )
        50           N1  tau(  50) = (   3.2619367   3.3563452  18.5802627  )
        51           C1  tau(  51) = (   3.2831389   5.7900214  18.6539038  )
        52           H1  tau(  52) = (   2.3406966   0.3270794  18.8225995  )
        53           H1  tau(  53) = (   4.2401870   0.3074325  18.7913464  )

     number of k points=    10  Fermi-Dirac smearing, width (Ry)=  0.0073
                       cart. coord. in units 2pi/alat
        k(    1) = (   0.0000000   0.0000000   0.0000000), wk =   0.1250000
        k(    2) = (   0.0000000   0.0419351   0.0000000), wk =   0.2500000
        k(    3) = (   0.0000000  -0.0838702   0.0000000), wk =   0.1250000
        k(    4) = (   0.0379955   0.0000049   0.0000000), wk =   0.2500000
        k(    5) = (   0.0379955   0.0419400   0.0000000), wk =   0.2500000
        k(    6) = (   0.0379955  -0.0838652   0.0000000), wk =   0.2500000
        k(    7) = (   0.0379955  -0.0419301   0.0000000), wk =   0.2500000
        k(    8) = (  -0.0759910  -0.0000099   0.0000000), wk =   0.1250000
        k(    9) = (  -0.0759910   0.0419252   0.0000000), wk =   0.2500000
        k(   10) = (  -0.0759910  -0.0838800   0.0000000), wk =   0.1250000

     Initial potential from superposition of free atoms

     starting charge  383.99917, renormalised to  400.00000

     negative rho (up, down):  1.830E-02 0.000E+00

     %%%%%%%%%%%%%%%%%%%%%%%%%%%%%%%%%%%%%%%%%%%%%%%%%%%%%%%%%%%%%%%%%%%%%%%%
     %                                                                      %
     % You are using vdW-DF, which was implemented by the Thonhauser group. %
     % Please cite the following two papers that made this development      %
     % possible and the two reviews that describe the various versions:     %
     %                                                                      %
     %   T. Thonhauser et al., PRL 115, 136402 (2015).                      %
     %   T. Thonhauser et al., PRB 76, 125112 (2007).                       %
     %   K. Berland et al., Rep. Prog. Phys. 78, 066501 (2015).             %
     %   D.C. Langreth et al., J. Phys.: Condens. Matter 21, 084203 (2009). %
     %                                                                      %
     %                                                                      %
     % If you are calculating the stress with vdW-DF, please also cite:     %
     %                                                                      %
     %   R. Sabatini et al., J. Phys.: Condens. Matter 24, 424209 (2012).   %
     %                                                                      %
     %%%%%%%%%%%%%%%%%%%%%%%%%%%%%%%%%%%%%%%%%%%%%%%%%%%%%%%%%%%%%%%%%%%%%%%%

     Adding external electric field

     Computed dipole along edir(3) :
        Dipole               -9.8390 Ry au,        -25.0082 Debye
        Dipole field         -0.0186 Ry au,

        Potential amp.        1.7212 Ry
        Total length         46.3494 bohr

     Starting wfcs are  302 atomic wfcs
  @ DRIVER MODE: Message from server: STATUS
  @ DRIVER MODE: Message from server: POSDATA
  @ DRIVER MODE: Reading and sharing cell
  @ DRIVER MODE: Reading and sharing positions
  @ DRIVER MODE: Received positions

     Self-consistent Calculation

     iteration #  1     ecut=    29.40 Ry     beta= 0.05
     Davidson diagonalization with overlap
     c_bands:  1 eigenvalues not converged
     c_bands:  2 eigenvalues not converged
     c_bands:  1 eigenvalues not converged
     c_bands:  2 eigenvalues not converged
     c_bands:  2 eigenvalues not converged
     c_bands:  2 eigenvalues not converged
     c_bands:  1 eigenvalues not converged
     c_bands:  3 eigenvalues not converged
     ethr =  1.00E-05,  avg # of iterations = 20.0

[...]

     total energy              =   -2519.78297594 Ry
     estimated scf accuracy    <    5013.01226670 Ry

     iteration #  2     ecut=    29.40 Ry     beta= 0.05
     Davidson diagonalization with overlap
     ethr =  1.00E-02,  avg # of iterations = 24.4

[...]

     iteration # 43     ecut=    29.40 Ry     beta= 0.05
     Davidson diagonalization with overlap
     c_bands:  1 eigenvalues not converged
     ethr =  4.53E-07,  avg # of iterations =  6.8

[...]

     total energy              =   -2970.35085193 Ry
     estimated scf accuracy    <       0.00000008 Ry

     iteration # 63     ecut=    29.40 Ry     beta= 0.05
     Davidson diagonalization with overlap
     ethr =  2.01E-11,  avg # of iterations =  4.7

     negative rho (up, down):  1.789E-02 0.000E+00

     Adding external electric field

     Computed dipole along edir(3) :
        Dipole                0.5331 Ry au,          1.3551 Debye
        Dipole field          0.0010 Ry au,

        Potential amp.       -0.0933 Ry
        Total length         46.3494 bohr

     End of self-consistent calculation

          k = 0.0000 0.0000 0.0000 ( 18029 PWs)   bands (ev):

   -56.2408 -56.2073 -55.8913 -55.8556 -55.7667 -55.7317 -55.6333 -55.6098
   -55.5987 -55.5758 -55.5288 -55.4938 -55.4826 -55.4459 -55.0140 -54.9800
   -32.6678 -32.4884 -32.4605 -32.4322 -32.4263 -32.3411 -32.2947 -32.2407
   -32.1875 -32.1362 -32.1052 -32.1017 -32.0704 -32.0689 -32.0529 -32.0474
   -32.0340 -32.0142 -32.0087 -31.9927 -31.9074 -31.8847 -31.8738 -31.8625
   -31.8535 -31.8482 -31.8249 -31.8159 -31.8026 -31.7743 -31.7677 -31.7456
   -31.7390 -31.7261 -31.7079 -31.7061 -31.7057 -31.6890 -31.6867 -31.6585
   -31.6328 -31.5534 -31.4133 -31.3412 -31.3173 -31.2317 -31.1468 -31.0349
   -21.0509 -16.5585 -16.3949 -16.1737 -16.0204 -15.9313 -15.8001 -15.6049
   -15.5795 -15.4865 -15.4841 -15.4604 -15.3897 -15.3891 -15.3556 -15.3505
   -15.3219 -15.3007 -15.2611 -15.2445 -15.2421 -15.1995 -15.1396 -15.1140
   -15.0213 -14.9742 -14.8690 -14.8638 -14.8334 -14.7489 -14.7176 -14.2790
   -13.5079 -13.3945  -6.8104  -5.8741  -5.0983  -3.9860  -3.9283  -3.8944
    -3.7801  -3.7611  -3.6349  -3.3566  -3.3016  -3.0505  -2.9955  -2.9788
    -2.9333  -2.9114  -2.8440  -2.8347  -2.7394  -2.7348  -2.6887  -2.6815
    -2.6484  -2.6461  -2.6296  -2.5690  -2.5481  -2.4634  -2.4547  -2.4233
    -2.3948  -2.2816  -2.2370  -2.1923  -2.1904  -2.1616  -2.0624  -2.0548
    -2.0410  -2.0117  -1.9293  -1.8784  -1.7514  -1.6510  -1.6348  -1.5898
    -1.5286  -1.4961  -1.2970  -1.2497  -1.2461  -1.2248  -1.2026  -1.1901
    -1.1214  -1.0549  -0.9322  -0.8576  -0.8314  -0.7766  -0.7560  -0.7501
    -0.7307  -0.6526  -0.6231  -0.6167  -0.5935  -0.4525  -0.3071  -0.2680
    -0.2457  -0.2311  -0.2094  -0.1304  -0.1139  -0.0777  -0.0367  -0.0190
     0.0010   0.0494   0.0780   0.0867   0.1910   0.2112   0.2727   0.2940
     0.3039   0.3394   0.3833   0.5290   0.6158   0.7293   0.7385   0.8180
     0.9659   0.9728   1.0135   1.2238   1.2280   1.2753   1.5990   1.6722
     3.0312   3.2147   3.4462   3.5169   3.5372   3.6297   3.7355   3.7653
     3.8321   3.9108

[...]

          k = 0.0380-0.0419 0.0000 ( 17876 PWs)   bands (ev):

[...]

          k =-0.0760-0.0000 0.0000 ( 17886 PWs)   bands (ev):

[...]

          k =-0.0760-0.0839 0.0000 ( 17948 PWs)   bands (ev):

   -56.2240 -56.2239 -55.8736 -55.8730 -55.7514 -55.7468 -55.6166 -55.6152
   -55.5931 -55.5922 -55.5120 -55.5107 -55.4646 -55.4638 -54.9969 -54.9969
   -32.4853 -32.4852 -32.4741 -32.4739 -32.3851 -32.3849 -32.2325 -32.2281
   -32.1373 -32.1326 -32.0796 -32.0787 -32.0693 -32.0586 -32.0387 -32.0304
   -31.9565 -31.9491 -31.9378 -31.9361 -31.9231 -31.9222 -31.8564 -31.8559
   -31.8448 -31.8436 -31.8382 -31.8378 -31.8315 -31.8311 -31.8033 -31.8025
   -31.7916 -31.7854 -31.7279 -31.7269 -31.7185 -31.7174 -31.7010 -31.6997
   -31.6843 -31.6834 -31.3302 -31.3302 -31.2276 -31.2275 -31.1894 -31.1893
   -21.0498 -15.9794 -15.9677 -15.7742 -15.7692 -15.7061 -15.7060 -15.6657
   -15.6634 -15.6134 -15.6120 -15.4735 -15.4707 -15.4696 -15.4659 -15.3897
   -15.3884 -15.3744 -15.3733 -15.3224 -15.3207 -15.1864 -15.1852 -15.0991
   -15.0981 -15.0543 -15.0535 -14.9974 -14.9967 -14.8975 -14.8835 -14.2912
   -13.4970 -13.4969  -6.6534  -5.8446  -5.0870  -4.1508  -3.2650  -3.2519
    -2.9857  -2.9798  -2.8873  -2.8648  -2.8512  -2.8278  -2.8264  -2.7410
    -2.7327  -2.7093  -2.7038  -2.6764  -2.6723  -2.6150  -2.6137  -2.5911
    -2.5851  -2.5755  -2.5745  -2.5691  -2.5670  -2.4775  -2.4741  -2.4608
    -2.4588  -2.3862  -2.3798  -2.3460  -2.3336  -2.1254  -2.1249  -2.0553
    -2.0543  -1.9363  -1.9350  -1.9186  -1.9148  -1.8785  -1.8389  -1.6002
    -1.5980  -1.5407  -1.5380  -1.4887  -1.4745  -1.3687  -1.3397  -1.2122
    -1.1931  -1.1769  -1.1694  -1.0192  -1.0157  -1.0138  -1.0102  -0.9864
    -0.9830  -0.8671  -0.8535  -0.7673  -0.7603  -0.7435  -0.7399  -0.7018
    -0.6843  -0.5340  -0.5336  -0.5105  -0.5048  -0.3633  -0.3622  -0.3031
    -0.2964  -0.0545  -0.0462   0.0658   0.0660   0.2958   0.3297   0.3507
     0.3620   0.5044   0.5129   0.5266   0.5356   0.6608   0.6654   0.6822
     0.6881   0.7752   0.7752   1.2196   1.4012   1.4018   1.4536   1.4537
     3.5721   3.5766   3.5811   3.5855   3.6259   3.6275   3.6729   3.6747
     3.9304   3.9529

     the Fermi energy is     2.4040 ev

!    total energy              =   -2970.35089377 Ry
     estimated scf accuracy    <       0.00000004 Ry
     smearing contrib. (-TS)   =      -0.00009814 Ry
     internal energy E=F+TS    =   -2970.35079562 Ry

     The total energy is F=E-TS. E is the sum of the following terms:
     one-electron contribution =  -24067.35460254 Ry
     hartree contribution      =   12123.97200589 Ry
     xc contribution           =    -491.48531338 Ry
     ewald contribution        =    9464.51657802 Ry
     electric field correction =       0.00053639 Ry

     convergence has been achieved in  63 iterations

     Forces acting on atoms (cartesian axes, Ry/au):

     atom    1 type  1   force =     0.00011147   -0.00011935    0.14847488
     atom    2 type  1   force =    -0.00010566   -0.00048929   -0.16834208
     atom    3 type  2   force =     0.00014016    0.00223345   -0.05993690
     atom    4 type  2   force =     0.00015607   -0.00146565    0.03991431
     atom    5 type  2   force =    -0.02120080   -0.00097299    0.00397736
     atom    6 type  2   force =     0.02099815    0.00032907    0.00311190
     atom    7 type  1   force =    -0.00011649   -0.00020057   -0.00001320
     atom    8 type  1   force =    -0.00021682    0.00002238    0.00002621
     atom    9 type  2   force =    -0.00023560   -0.00005685    0.00012888
     atom   10 type  2   force =     0.00001475   -0.00000344    0.00004600
     atom   11 type  2   force =    -0.00000599   -0.00006456   -0.00012898
     atom   12 type  2   force =    -0.00009275   -0.00013268   -0.00006835
     atom   13 type  1   force =    -0.00008225   -0.00001192   -0.00007380
     atom   14 type  1   force =     0.00006058   -0.00002417    0.00004523
     atom   15 type  2   force =     0.00010250    0.00001400   -0.00001133
     atom   16 type  2   force =     0.00007678   -0.00004278    0.00013359
     atom   17 type  2   force =     0.00005392   -0.00015178    0.00024727
     atom   18 type  2   force =     0.00021670   -0.00009414   -0.00006788
     atom   19 type  1   force =     0.00014750    0.00011770    0.00003415
     atom   20 type  1   force =    -0.00010691   -0.00000351   -0.00015743
     atom   21 type  2   force =     0.00004164   -0.00004423    0.10206270
     atom   22 type  2   force =     0.00003568   -0.00003937   -0.00004020
     atom   23 type  2   force =    -0.07528103    0.00015862   -0.03468898
     atom   24 type  2   force =     0.07521482    0.00058353   -0.03476532
     atom   25 type  1   force =     0.00010690   -0.00013658    0.14838539
     atom   26 type  1   force =    -0.00013643   -0.00085747   -0.16857903
     atom   27 type  2   force =     0.00012395    0.00218380   -0.05989108
     atom   28 type  2   force =     0.00009011   -0.00145922    0.04019518
     atom   29 type  2   force =    -0.02099784   -0.00107812    0.00395613
     atom   30 type  2   force =     0.02119181    0.00040950    0.00310869
     atom   31 type  1   force =    -0.00019663   -0.00010608   -0.00000842
     atom   32 type  1   force =    -0.00011169   -0.00006023   -0.00009756
     atom   33 type  2   force =     0.00013320    0.00008244    0.00004514
     atom   34 type  2   force =    -0.00008774    0.00002717   -0.00003147
     atom   35 type  2   force =    -0.00003934    0.00002781    0.00003310
     atom   36 type  2   force =    -0.00013900    0.00022569   -0.00014910
     atom   37 type  1   force =    -0.00006863   -0.00014484   -0.00004440
     atom   38 type  1   force =     0.00004789    0.00004504    0.00020400
     atom   39 type  2   force =    -0.00008300   -0.00000931   -0.00015363
     atom   40 type  2   force =     0.00011774    0.00002066    0.00005167
     atom   41 type  2   force =     0.00024367   -0.00008446    0.00010501
     atom   42 type  2   force =     0.00022025   -0.00004645    0.00019599
     atom   43 type  1   force =    -0.00018736    0.00027215    0.00008664
     atom   44 type  1   force =    -0.00003096    0.00001897    0.00002005
     atom   45 type  2   force =     0.00003585   -0.00004735    0.10205774
     atom   46 type  2   force =     0.00002898    0.00001827   -0.00015600
     atom   47 type  2   force =    -0.07528324    0.00019733   -0.03468897
     atom   48 type  2   force =     0.07522153    0.00062936   -0.03476204
     atom   49 type  3   force =    -0.00003280    0.00013812   -0.00140746
     atom   50 type  3   force =     0.00012963    0.00034524    0.00122148
     atom   51 type  4   force =    -0.00238496   -0.00117719   -0.00113397
     atom   52 type  5   force =     0.00021695   -0.00011446    0.00041108
     atom   53 type  5   force =     0.00194475    0.00113873    0.00111783

     Total force =     0.401728     Total SCF correction =     0.000629
  @ DRIVER MODE: Message from server: STATUS
  @ DRIVER MODE: Message from server: GETFORCE
  @ DRIVER MODE: Returning v,forces,stress,ensemble

     Writing output data file ./calc.save/
  @ DRIVER MODE: Message from server: EXIT
  @ DRIVE MODE: Exiting

     General routines

     Parallel routines

   This run was terminated on:  21:59:51   5Oct2021

   JOB DONE.