     Program PWSCF v.6.7GPU starts on 15Sep2021 at 23:21:30

     R & G space division:  proc/nbgrp/npool/nimage =      10
     Reading input from /storage/home/hcoda1/3/ntian30/research/carbon/CxH_vib/H2O_calc/ads_slab/CH2OH2O_a/out_0023/pw.inp
Warning: card &CELL ignored
Warning: card   CELL_DYNAMICS='IPI', ignored
Warning: card / ignored

     Current dimensions of program PWSCF are:
     Max number of different atomic species (ntypx) = 10
     Max number of k-points (npk) =  40000
     Max angular momentum in pseudopotentials (lmaxx) =  3
     Presently no symmetry can be used with electric field

     Message from routine cell_base_init:
     DEPRECATED: use true lattice parameter, not A to a.u. conversion factor

     IMPORTANT: XC functional enforced from input :
     Exchange-correlation= BEEF-VDW
                           (   1   4  43  14   2   0   0)
     Any further DFT definition will be discarded
     Please, verify this is what you really want

  @ DRIVER MODE: Connecting to
 qe_1139763_2852613.sched-torque.pace.gatech.edus_eqeh4q_scratch
  using UNIX socket
  @ DRIVER MODE: Message from server: STATUS
  @ DRIVER MODE: Message from server: INIT
  @ DRIVER MODE: Receiving replica           0          -1
  @ DRIVER MODE: Receiving encoded integer          25
  @ DRIVER MODE:  SCF:  T  FORCE:  T  STRESS:  F  VC:  F  ENSEMBLE:  F
  @ DRIVER MODE:  SCF:  T  FORCE:  T  STRESS:  F  VC:  F  ENSEMBLE:  F

     Using Slab Decomposition

     bravais-lattice index     =            0
     lattice parameter (alat)  =       1.8897  a.u.
     unit-cell volume          =    6658.9804 (a.u.)^3
     number of atoms/cell      =           54
     number of atomic types    =            4
     number of electrons       =       398.00
     number of Kohn-Sham states=          209
     kinetic-energy cutoff     =      29.3995  Ry
     charge density cutoff     =     293.9946  Ry
     scf convergence threshold =      7.3E-08
     mixing beta               =       0.0500
     number of iterations used =            8  plain     mixing
     Exchange-correlation= BEEF-VDW
                           (   1   4  43  14   2   0   0)

     celldm(1)=   1.889726  celldm(2)=   0.000000  celldm(3)=   0.000000
     celldm(4)=   0.000000  celldm(5)=   0.000000  celldm(6)=   0.000000

     crystal axes: (cart. coord. in units of alat)
               a(1) = (   6.579727   0.000000   0.000000 )
               a(2) = (  -0.000775   5.961596   0.000000 )
               a(3) = (   0.000000   0.000000  25.155947 )

     reciprocal axes: (cart. coord. in units 2 pi/alat)
               b(1) = (  0.151982  0.000020  0.000000 )
               b(2) = (  0.000000  0.167740  0.000000 )
               b(3) = (  0.000000  0.000000  0.039752 )

     PseudoPot. # 1 for O  read from file:
     /storage/coda1/p-amedford6/0/shared/rich_project_chbe-medford/medford-share/data/pseudos_module/espresso/nninc/pbe/van/O.UPF
     MD5 check sum: 78c19812648e8988a0fe644b0f25305e
     Pseudo is Ultrasoft, Zval =  6.0
     Generated by new atomic code, or converted to UPF format
     Using radial grid of  737 points,  4 beta functions with:
                l(1) =   0
                l(2) =   0
                l(3) =   1
                l(4) =   1
     Q(r) pseudized with  8 coefficients,  rinner =    0.800   0.800   0.800

     PseudoPot. # 2 for Ti read from file:
     /storage/coda1/p-amedford6/0/shared/rich_project_chbe-medford/medford-share/data/pseudos_module/espresso/nninc/pbe/van/Ti.UPF
     MD5 check sum: 8e4df49b7f0d34bbd5052bf3f5ea0213
     Pseudo is Ultrasoft, Zval = 12.0
     Generated by new atomic code, or converted to UPF format
     Using radial grid of  851 points,  6 beta functions with:
                l(1) =   0
                l(2) =   0
                l(3) =   1
                l(4) =   1
                l(5) =   2
                l(6) =   2
     Q(r) pseudized with  8 coefficients,  rinner =    1.000   1.000   1.000
                                                       1.000   1.000

     PseudoPot. # 3 for C  read from file:
     /storage/coda1/p-amedford6/0/shared/rich_project_chbe-medford/medford-share/data/pseudos_module/espresso/nninc/pbe/van/C.UPF
     MD5 check sum: 1a69bf6b8db32088f5b2163dbdb77a27
     Pseudo is Ultrasoft, Zval =  4.0
     Generated by new atomic code, or converted to UPF format
     Using radial grid of  721 points,  4 beta functions with:
                l(1) =   0
                l(2) =   0
                l(3) =   1
                l(4) =   1
     Q(r) pseudized with  8 coefficients,  rinner =    0.800   0.800   0.800

     PseudoPot. # 4 for H  read from file:
     /storage/coda1/p-amedford6/0/shared/rich_project_chbe-medford/medford-share/data/pseudos_module/espresso/nninc/pbe/van/H.UPF
     MD5 check sum: b5ee9d7bfd3a09ee7748110bda690ff7
     Pseudo is Ultrasoft, Zval =  1.0
     Generated by new atomic code, or converted to UPF format
     Using radial grid of  615 points,  1 beta functions with:
                l(1) =   0
     Q(r) pseudized with  8 coefficients,  rinner =    0.800

     atomic species   valence    mass     pseudopotential
        O1             6.00    15.99900     O ( 1.00)
        Ti1           12.00    47.86700     Ti( 1.00)
        C1             4.00    12.01100     C ( 1.00)
        H1             1.00     1.00800     H ( 1.00)

     No symmetry found

   Cartesian axes

     site n.     atom                  positions (alat units)
         1           O1  tau(   1) = (   3.2904802   0.0005063   4.7018136  )
         2           O1  tau(   2) = (   3.2900926   2.9813045   4.7018136  )
         3           Ti1 tau(   3) = (   0.0004258   2.9801865   6.0000000  )
         4           Ti1 tau(   4) = (   0.0000382   5.9609847   6.0000000  )
         5           Ti1 tau(   5) = (   3.2906075   1.4906267   6.0002472  )
         6           Ti1 tau(   6) = (   3.2902200   4.4714249   6.0002472  )
         7           O1  tau(   7) = (   1.3043587   1.4918075   6.0039043  )
         8           O1  tau(   8) = (   1.3039711   4.4726057   6.0039043  )
         9           O1  tau(   9) = (   5.2767064   1.4903225   6.0039473  )
        10           O1  tau(  10) = (   5.2763189   4.4711207   6.0039473  )
        11           O1  tau(  11) = (   3.2906025   0.0005020   7.3038282  )
        12           O1  tau(  12) = (   3.2902150   2.9813002   7.3038282  )
        13           O1  tau(  13) = (   0.0006271   0.0005054   7.9858123  )
        14           O1  tau(  14) = (   0.0002396   2.9813036   7.9858123  )
        15           Ti1 tau(  15) = (   3.3036605   0.0548493   9.1550340  )
        16           Ti1 tau(  16) = (   3.3179312   3.0323762   9.1622521  )
        17           Ti1 tau(  17) = (   0.0293130   4.5303424   9.2586280  )
        18           Ti1 tau(  18) = (   0.0255512   1.6071936   9.3606264  )
        19           O1  tau(  19) = (   4.5942328   1.4918067   9.2879030  )
        20           O1  tau(  20) = (   4.5938453   4.4726049   9.2879030  )
        21           O1  tau(  21) = (   1.9868534   1.4903216   9.2879459  )
        22           O1  tau(  22) = (   1.9864658   4.4711199   9.2879459  )
        23           O1  tau(  23) = (   0.0067149   0.0090568  10.6008527  )
        24           O1  tau(  24) = (   0.0066098   2.9904127  10.5810825  )
        25           O1  tau(  25) = (   3.3023248   2.9935247  11.3558429  )
        26           O1  tau(  26) = (   3.3019398   0.0103095  11.3581380  )
        27           Ti1 tau(  27) = (   0.0322082   0.0188897  12.5014682  )
        28           Ti1 tau(  28) = (   3.3323403   4.4947089  12.5096490  )
        29           Ti1 tau(  29) = (   3.3327227   1.5059056  12.5040540  )
        30           Ti1 tau(  30) = (   0.0321551   3.0004163  12.7750784  )
        31           O1  tau(  31) = (   1.2963378   4.4834263  12.6382484  )
        32           O1  tau(  32) = (   1.2968596   1.4996660  12.6342602  )
        33           O1  tau(  33) = (   5.3004736   4.4821179  12.6410582  )
        34           O1  tau(  34) = (   5.3007909   1.4998706  12.6367838  )
        35           O1  tau(  35) = (   3.3017874   2.9879694  13.9086975  )
        36           O1  tau(  36) = (   3.3040514   0.0100701  13.9766235  )
        37           O1  tau(  37) = (   0.0177811   0.0165449  14.6846256  )
        38           O1  tau(  38) = (   0.0218693   2.9952767  14.7100221  )
        39           Ti1 tau(  39) = (   3.3083447   2.9915206  15.7010863  )
        40           Ti1 tau(  40) = (   3.3165693   0.0114089  15.8055842  )
        41           Ti1 tau(  41) = (   0.0300915   4.5703342  15.9344200  )
        42           Ti1 tau(  42) = (   0.0294271   1.3911826  15.9958598  )
        43           O1  tau(  43) = (   4.5666857   4.4545776  16.0545193  )
        44           O1  tau(  44) = (   4.5654216   1.5273373  16.0688375  )
        45           O1  tau(  45) = (   2.0398213   1.5345912  16.0698912  )
        46           O1  tau(  46) = (   2.0372649   4.4468515  16.0554978  )
        47           O1  tau(  47) = (   0.0160947   0.0056016  17.2166677  )
        48           O1  tau(  48) = (   6.5639191   3.0028441  17.4181802  )
        49           C1  tau(  49) = (   6.3909186   3.0704891  18.6902598  )
        50           H1  tau(  50) = (   6.3116585   4.0479728  19.1570877  )
        51           H1  tau(  51) = (   6.3127454   2.1532251  19.2564540  )
        52           O1  tau(  52) = (   3.2659488   5.9319982  18.2141537  )
        53           H1  tau(  53) = (   4.0486762   5.9278262  18.7801078  )
        54           H1  tau(  54) = (   2.4667005   5.9275743  18.7583984  )

     number of k points=    10  Fermi-Dirac smearing, width (Ry)=  0.0073
                       cart. coord. in units 2pi/alat
        k(    1) = (   0.0000000   0.0000000   0.0000000), wk =   0.1250000
        k(    2) = (   0.0000000   0.0419351   0.0000000), wk =   0.2500000
        k(    3) = (   0.0000000  -0.0838702   0.0000000), wk =   0.1250000
        k(    4) = (   0.0379955   0.0000049   0.0000000), wk =   0.2500000
        k(    5) = (   0.0379955   0.0419400   0.0000000), wk =   0.2500000
        k(    6) = (   0.0379955  -0.0838652   0.0000000), wk =   0.2500000
        k(    7) = (   0.0379955  -0.0419301   0.0000000), wk =   0.2500000
        k(    8) = (  -0.0759910  -0.0000099   0.0000000), wk =   0.1250000
        k(    9) = (  -0.0759910   0.0419252   0.0000000), wk =   0.2500000
        k(   10) = (  -0.0759910  -0.0838800   0.0000000), wk =   0.1250000

     Initial potential from superposition of free atoms

     starting charge  381.99917, renormalised to  398.00000

     negative rho (up, down):  1.687E-02 0.000E+00

     %%%%%%%%%%%%%%%%%%%%%%%%%%%%%%%%%%%%%%%%%%%%%%%%%%%%%%%%%%%%%%%%%%%%%%%%
     %                                                                      %
     % You are using vdW-DF, which was implemented by the Thonhauser group. %
     % Please cite the following two papers that made this development      %
     % possible and the two reviews that describe the various versions:     %
     %                                                                      %
     %   T. Thonhauser et al., PRL 115, 136402 (2015).                      %
     %   T. Thonhauser et al., PRB 76, 125112 (2007).                       %
     %   K. Berland et al., Rep. Prog. Phys. 78, 066501 (2015).             %
     %   D.C. Langreth et al., J. Phys.: Condens. Matter 21, 084203 (2009). %
     %                                                                      %
     %                                                                      %
     % If you are calculating the stress with vdW-DF, please also cite:     %
     %                                                                      %
     %   R. Sabatini et al., J. Phys.: Condens. Matter 24, 424209 (2012).   %
     %                                                                      %
     %%%%%%%%%%%%%%%%%%%%%%%%%%%%%%%%%%%%%%%%%%%%%%%%%%%%%%%%%%%%%%%%%%%%%%%%

     Adding external electric field

     Computed dipole along edir(3) :
        Dipole               -9.6365 Ry au,        -24.4934 Debye
        Dipole field         -0.0182 Ry au,

        Potential amp.        1.6858 Ry
        Total length         46.3494 bohr

     Starting wfcs are  300 atomic wfcs
  @ DRIVER MODE: Message from server: STATUS
  @ DRIVER MODE: Message from server: POSDATA
  @ DRIVER MODE: Reading and sharing cell
  @ DRIVER MODE: Reading and sharing positions
  @ DRIVER MODE: Received positions

     Self-consistent Calculation

     iteration #  1     ecut=    29.40 Ry     beta= 0.05
     Davidson diagonalization with overlap
     c_bands:  1 eigenvalues not converged
     c_bands:  3 eigenvalues not converged
     c_bands:  2 eigenvalues not converged
     c_bands:  2 eigenvalues not converged
     c_bands:  2 eigenvalues not converged
     c_bands:  1 eigenvalues not converged
     c_bands:  2 eigenvalues not converged
     c_bands:  1 eigenvalues not converged
     c_bands:  2 eigenvalues not converged
     ethr =  1.00E-05,  avg # of iterations = 19.6

[...]

     total energy              =   -2526.82633623 Ry
     estimated scf accuracy    <    4873.64176099 Ry

     iteration #  2     ecut=    29.40 Ry     beta= 0.05
     Davidson diagonalization with overlap
     ethr =  1.00E-02,  avg # of iterations = 26.6

[...]

     iteration # 72     ecut=    29.40 Ry     beta= 0.05
     Davidson diagonalization with overlap
     ethr =  3.45E-11,  avg # of iterations = 14.7

[...]

     total energy              =   -2964.99532977 Ry
     estimated scf accuracy    <       0.00000034 Ry

     iteration # 73     ecut=    29.40 Ry     beta= 0.05
     Davidson diagonalization with overlap
     c_bands:  1 eigenvalues not converged
     ethr =  3.45E-11,  avg # of iterations = 14.0

     negative rho (up, down):  1.529E-02 0.000E+00

     Adding external electric field

     Computed dipole along edir(3) :
        Dipole                1.2230 Ry au,          3.1086 Debye
        Dipole field          0.0023 Ry au,

        Potential amp.       -0.2140 Ry
        Total length         46.3494 bohr

     End of self-consistent calculation

          k = 0.0000 0.0000 0.0000 ( 18029 PWs)   bands (ev):

   -55.5397 -55.5030 -55.5022 -55.4660 -55.4629 -55.4186 -55.3822 -55.3152
   -55.3024 -55.2792 -55.2690 -55.2596 -55.2182 -55.2100 -54.5507 -54.5166
   -32.0578 -32.0099 -31.8963 -31.8532 -31.8515 -31.8339 -31.8136 -31.8049
   -31.7814 -31.7697 -31.7360 -31.7259 -31.6985 -31.6860 -31.6835 -31.6495
   -31.6463 -31.6399 -31.6350 -31.6319 -31.6032 -31.5979 -31.5903 -31.5861
   -31.5586 -31.5545 -31.5510 -31.5305 -31.5235 -31.5217 -31.4762 -31.4748
   -31.4488 -31.4471 -31.4336 -31.4284 -31.4222 -31.4083 -31.3968 -31.3952
   -31.3922 -31.3756 -30.9602 -30.8640 -30.8416 -30.7768 -30.6907 -30.5796
   -19.3622 -19.1378 -16.2550 -15.9923 -15.8205 -15.7095 -15.6625 -15.4604
   -15.3675 -15.2867 -15.2231 -15.1455 -15.1289 -15.0912 -15.0651 -15.0596
   -15.0543 -15.0057 -14.9966 -14.9572 -14.9453 -14.9440 -14.9254 -14.9066
   -14.8247 -14.7222 -14.6789 -14.6606 -14.6020 -14.5455 -14.5321 -13.0515
   -12.9335  -9.0262  -7.1518  -5.2446  -5.1754  -3.7765  -3.5762  -3.4586
    -3.4240  -3.3882  -3.3197  -3.1377  -3.1291  -3.0370  -2.8000  -2.7094
    -2.6762  -2.6184  -2.6082  -2.5086  -2.4681  -2.3613  -2.3525  -2.3482
    -2.3321  -2.3062  -2.2732  -2.2311  -2.2066  -2.1947  -2.0671  -2.0558
    -1.9278  -1.9219  -1.8984  -1.8435  -1.8387  -1.7966  -1.7840  -1.7800
    -1.7674  -1.7190  -1.7074  -1.5942  -1.5208  -1.4580  -1.3707  -1.2321
    -1.1703  -1.0990  -1.0441  -1.0095  -0.9469  -0.9437  -0.8895  -0.8489
    -0.7906  -0.7804  -0.7717  -0.6752  -0.5765  -0.5545  -0.5243  -0.4460
    -0.3681  -0.2812  -0.2620  -0.2599  -0.2585  -0.2374  -0.0998  -0.0164
     0.0408   0.0459   0.1421   0.1752   0.2105   0.2245   0.2567   0.2775
     0.3335   0.4083   0.4201   0.4332   0.4589   0.5046   0.5102   0.6227
     0.6990   0.7005   0.7367   0.7694   0.9448   0.9798   1.1068   1.2140
     1.3804   1.4735   1.5452   1.6465   2.0596   2.1172   3.6334   3.6753
     3.6903   3.7328   3.7822   3.8089   3.8765   4.0757   4.0920   4.1018
     4.1412

[...]

          k = 0.0380-0.0419 0.0000 ( 17876 PWs)   bands (ev):

[...]

          k =-0.0760-0.0000 0.0000 ( 17886 PWs)   bands (ev):

[...]

          k =-0.0760-0.0839 0.0000 ( 17948 PWs)   bands (ev):

   -55.5283 -55.5143 -55.4854 -55.4826 -55.4614 -55.4084 -55.3924 -55.3117
   -55.2872 -55.2847 -55.2737 -55.2611 -55.2235 -55.2128 -54.5341 -54.5330
   -31.8684 -31.8537 -31.8340 -31.8214 -31.8185 -31.7992 -31.7742 -31.7563
   -31.7434 -31.7388 -31.7381 -31.7305 -31.6970 -31.6630 -31.6568 -31.6530
   -31.6440 -31.6411 -31.6379 -31.6353 -31.6295 -31.6108 -31.6098 -31.6088
   -31.6039 -31.5893 -31.5682 -31.5530 -31.5400 -31.5385 -31.5317 -31.5145
   -31.4969 -31.4925 -31.4854 -31.4840 -31.4658 -31.4476 -31.4422 -31.4370
   -31.4066 -31.4001 -30.8550 -30.8536 -30.7736 -30.7727 -30.7342 -30.7333
   -19.3534 -19.1375 -15.7062 -15.5972 -15.5629 -15.4160 -15.4118 -15.3608
   -15.3524 -15.3166 -15.2367 -15.2332 -15.1834 -15.1641 -15.1296 -15.1060
   -15.0942 -15.0488 -15.0464 -15.0276 -15.0037 -14.9852 -14.9687 -14.9413
   -14.9171 -14.9098 -14.8721 -14.8638 -14.7992 -14.7452 -14.7236 -13.0359
   -13.0337  -9.0271  -7.1493  -5.2217  -5.1521  -3.7330  -3.1554  -2.9902
    -2.8032  -2.7874  -2.6551  -2.6203  -2.6023  -2.5119  -2.4786  -2.4449
    -2.3818  -2.3710  -2.3645  -2.3428  -2.3377  -2.3241  -2.3031  -2.2659
    -2.2560  -2.2243  -2.1945  -2.1808  -2.1601  -2.1503  -2.1218  -2.1023
    -2.0897  -2.0861  -2.0241  -1.9960  -1.9107  -1.8449  -1.7638  -1.7117
    -1.6801  -1.6777  -1.6416  -1.6030  -1.5952  -1.5799  -1.4344  -1.3846
    -1.2621  -1.2487  -1.2295  -1.1533  -1.1376  -1.1043  -1.0983  -1.0318
    -0.9450  -0.9408  -0.9196  -0.8894  -0.8021  -0.7339  -0.6929  -0.6570
    -0.6131  -0.5831  -0.5093  -0.4957  -0.4848  -0.4225  -0.3820  -0.2970
    -0.2834  -0.2642  -0.2131  -0.1840  -0.1492  -0.0805  -0.0624  -0.0395
     0.0413   0.1078   0.1138   0.3237   0.4861   0.5151   0.5316   0.6164
     0.6632   0.7721   0.7948   0.8045   0.8467   0.8921   0.9795   1.0055
     1.0073   1.0848   1.8338   1.8345   1.9220   1.9326   3.5653   3.8792
     3.9436   3.9669   3.9919   4.1070   4.1096   4.1289   4.1375   4.2796
     4.2977

     the Fermi energy is     3.6117 ev

!    total energy              =   -2964.99534407 Ry
     estimated scf accuracy    <       0.00000006 Ry
     smearing contrib. (-TS)   =      -0.03111095 Ry
     internal energy E=F+TS    =   -2964.96423312 Ry

     The total energy is F=E-TS. E is the sum of the following terms:
     one-electron contribution =  -24342.96430966 Ry
     hartree contribution      =   12264.54213081 Ry
     xc contribution           =    -490.10662901 Ry
     ewald contribution        =    9603.56175195 Ry
     electric field correction =       0.00282280 Ry

     convergence has been achieved in  73 iterations

     Forces acting on atoms (cartesian axes, Ry/au):

     atom    1 type  1   force =    -0.00009857    0.00006693    0.10408417
     atom    2 type  1   force =    -0.00008849    0.00006312    0.10410139
     atom    3 type  2   force =    -0.00029700   -0.00188411    0.10330819
     atom    4 type  2   force =    -0.00015620    0.00151281    0.11462636
     atom    5 type  2   force =    -0.00038178    0.00124495   -0.17937058
     atom    6 type  2   force =    -0.00016875   -0.00076683   -0.17974847
     atom    7 type  1   force =    -0.06939259    0.00065922   -0.02930153
     atom    8 type  1   force =    -0.06894213   -0.00123310   -0.02934427
     atom    9 type  1   force =     0.06903575    0.00115478   -0.02936219
     atom   10 type  1   force =     0.06867007   -0.00081392   -0.02941676
     atom   11 type  1   force =     0.00041913    0.00056735    0.04681440
     atom   12 type  1   force =     0.00063066    0.00080825    0.04851896
     atom   13 type  1   force =     0.00026575   -0.00568928   -0.03322977
     atom   14 type  1   force =     0.00033364    0.00340073   -0.02636794
     atom   15 type  2   force =    -0.00010092   -0.00002505    0.00040067
     atom   16 type  2   force =     0.00001669    0.00002683    0.00051095
     atom   17 type  2   force =    -0.00002013    0.00012864    0.00041412
     atom   18 type  2   force =    -0.00006434   -0.00033050    0.00007728
     atom   19 type  1   force =    -0.01806600   -0.00015639    0.00403759
     atom   20 type  1   force =    -0.01683715    0.00147976    0.00329158
     atom   21 type  1   force =     0.01933495   -0.00136656    0.00448517
     atom   22 type  1   force =     0.01789693    0.00116678    0.00356339
     atom   23 type  1   force =     0.00001878    0.00002886   -0.00014055
     atom   24 type  1   force =    -0.00005433   -0.00000579   -0.00009133
     atom   25 type  1   force =    -0.00004934    0.00000626   -0.00059257
     atom   26 type  1   force =    -0.00023002    0.00014227   -0.00066589
     atom   27 type  2   force =     0.00004309    0.00013925   -0.00043432
     atom   28 type  2   force =     0.00022529    0.00002754   -0.00008575
     atom   29 type  2   force =     0.00021782    0.00000411   -0.00020800
     atom   30 type  2   force =    -0.00008410    0.00020275    0.00019361
     atom   31 type  1   force =    -0.00064799   -0.00023892    0.00053631
     atom   32 type  1   force =    -0.00055735    0.00032154    0.00056519
     atom   33 type  1   force =     0.00040454   -0.00013836    0.00035382
     atom   34 type  1   force =     0.00032451    0.00018800    0.00038114
     atom   35 type  1   force =    -0.00014700    0.00000992    0.00023465
     atom   36 type  1   force =    -0.00008886    0.00000853   -0.00017901
     atom   37 type  1   force =    -0.00036847    0.00003686   -0.00020157
     atom   38 type  1   force =    -0.00051495    0.00027470   -0.00004833
     atom   39 type  2   force =    -0.00016826   -0.00006864    0.00131334
     atom   40 type  2   force =     0.00008687    0.00020379   -0.00136342
     atom   41 type  2   force =    -0.00029083   -0.00110799   -0.00053741
     atom   42 type  2   force =    -0.00028258    0.00105659   -0.00048083
     atom   43 type  1   force =    -0.00003916    0.00023223    0.00030191
     atom   44 type  1   force =    -0.00009303   -0.00009963    0.00010610
     atom   45 type  1   force =    -0.00039736   -0.00026307   -0.00000743
     atom   46 type  1   force =    -0.00043834    0.00043533    0.00013180
     atom   47 type  1   force =    -0.00006132   -0.00017226    0.00028149
     atom   48 type  1   force =    -0.00002944    0.00122672   -0.00070320
     atom   49 type  3   force =     0.00069282    0.00349568   -0.00399676
     atom   50 type  4   force =     0.00046060   -0.00152666    0.00075640
     atom   51 type  4   force =    -0.00028930   -0.00506539    0.00448946
     atom   52 type  1   force =     0.00048844    0.00066193   -0.00057778
     atom   53 type  4   force =     0.00033454   -0.00001360    0.00022692
     atom   54 type  4   force =    -0.00045479   -0.00001695   -0.00165072

     Total force =     0.374608     Total SCF correction =     0.000629
  @ DRIVER MODE: Message from server: STATUS
  @ DRIVER MODE: Message from server: GETFORCE
  @ DRIVER MODE: Returning v,forces,stress,ensemble

     Writing output data file ./calc.save/
  @ DRIVER MODE: Message from server: EXIT
  @ DRIVE MODE: Exiting

     General routines

     Parallel routines

   This run was terminated on:  23:41:39  15Sep2021

   JOB DONE.