     Program PWSCF v.6.7GPU starts on 16Jul2021 at 16:59:24

     R & G space division:  proc/nbgrp/npool/nimage =      16
     Reading input from /storage/home/hcoda1/3/ntian30/research/carbon/15Jul_vib/ads_slab/CH3NNHHH_a/out_0030/pw.inp
Warning: card &CELL ignored
Warning: card   CELL_DYNAMICS='IPI', ignored
Warning: card / ignored

     Current dimensions of program PWSCF are:
     Max number of different atomic species (ntypx) = 10
     Max number of k-points (npk) =  40000
     Max angular momentum in pseudopotentials (lmaxx) =  3
     Presently no symmetry can be used with electric field

     Message from routine cell_base_init:
     DEPRECATED: use true lattice parameter, not A to a.u. conversion factor

     IMPORTANT: XC functional enforced from input :
     Exchange-correlation= BEEF-VDW
                           (   1   4  43  14   2   0   0)
     Any further DFT definition will be discarded
     Please, verify this is what you really want

  @ DRIVER MODE: Connecting to
 qe_1139763_2351652.sched-torque.pace.gatech.edu26727kle_scratch
  using UNIX socket
  @ DRIVER MODE: Message from server: STATUS
  @ DRIVER MODE: Message from server: INIT
  @ DRIVER MODE: Receiving replica           0          -1
  @ DRIVER MODE: Receiving encoded integer          25
  @ DRIVER MODE:  SCF:  T  FORCE:  T  STRESS:  F  VC:  F  ENSEMBLE:  F
  @ DRIVER MODE:  SCF:  T  FORCE:  T  STRESS:  F  VC:  F  ENSEMBLE:  F

     Using Slab Decomposition

     bravais-lattice index     =            0
     lattice parameter (alat)  =       1.8897  a.u.
     unit-cell volume          =    6658.9804 (a.u.)^3
     number of atoms/cell      =           56
     number of atomic types    =            5
     number of electrons       =       398.00
     number of Kohn-Sham states=          209
     kinetic-energy cutoff     =      29.3995  Ry
     charge density cutoff     =     293.9946  Ry
     scf convergence threshold =      7.3E-08
     mixing beta               =       0.0500
     number of iterations used =            8  plain     mixing
     Exchange-correlation= BEEF-VDW
                           (   1   4  43  14   2   0   0)

     celldm(1)=   1.889726  celldm(2)=   0.000000  celldm(3)=   0.000000
     celldm(4)=   0.000000  celldm(5)=   0.000000  celldm(6)=   0.000000

     crystal axes: (cart. coord. in units of alat)
               a(1) = (   6.579727   0.000000   0.000000 )
               a(2) = (  -0.000775   5.961596   0.000000 )
               a(3) = (   0.000000   0.000000  25.155947 )

     reciprocal axes: (cart. coord. in units 2 pi/alat)
               b(1) = (  0.151982  0.000020  0.000000 )
               b(2) = (  0.000000  0.167740  0.000000 )
               b(3) = (  0.000000  0.000000  0.039752 )

     PseudoPot. # 1 for Ti read from file:
     /storage/coda1/p-amedford6/0/shared/rich_project_chbe-medford/medford-share/data/pseudos_module/espresso/nninc/pbe/van/Ti.UPF
     MD5 check sum: 8e4df49b7f0d34bbd5052bf3f5ea0213
     Pseudo is Ultrasoft, Zval = 12.0
     Generated by new atomic code, or converted to UPF format
     Using radial grid of  851 points,  6 beta functions with:
                l(1) =   0
                l(2) =   0
                l(3) =   1
                l(4) =   1
                l(5) =   2
                l(6) =   2
     Q(r) pseudized with  8 coefficients,  rinner =    1.000   1.000   1.000
                                                       1.000   1.000

     PseudoPot. # 2 for O  read from file:
     /storage/coda1/p-amedford6/0/shared/rich_project_chbe-medford/medford-share/data/pseudos_module/espresso/nninc/pbe/van/O.UPF
     MD5 check sum: 78c19812648e8988a0fe644b0f25305e
     Pseudo is Ultrasoft, Zval =  6.0
     Generated by new atomic code, or converted to UPF format
     Using radial grid of  737 points,  4 beta functions with:
                l(1) =   0
                l(2) =   0
                l(3) =   1
                l(4) =   1
     Q(r) pseudized with  8 coefficients,  rinner =    0.800   0.800   0.800

     PseudoPot. # 3 for N  read from file:
     /storage/coda1/p-amedford6/0/shared/rich_project_chbe-medford/medford-share/data/pseudos_module/espresso/nninc/pbe/van/N.UPF
     MD5 check sum: 90d10febe142ad51ac9d5be1deb811c4
     Pseudo is Ultrasoft, Zval =  5.0
     Generated by new atomic code, or converted to UPF format
     Using radial grid of  729 points,  4 beta functions with:
                l(1) =   0
                l(2) =   0
                l(3) =   1
                l(4) =   1
     Q(r) pseudized with  8 coefficients,  rinner =    0.800   0.800   0.800

     PseudoPot. # 4 for C  read from file:
     /storage/coda1/p-amedford6/0/shared/rich_project_chbe-medford/medford-share/data/pseudos_module/espresso/nninc/pbe/van/C.UPF
     MD5 check sum: 1a69bf6b8db32088f5b2163dbdb77a27
     Pseudo is Ultrasoft, Zval =  4.0
     Generated by new atomic code, or converted to UPF format
     Using radial grid of  721 points,  4 beta functions with:
                l(1) =   0
                l(2) =   0
                l(3) =   1
                l(4) =   1
     Q(r) pseudized with  8 coefficients,  rinner =    0.800   0.800   0.800

     PseudoPot. # 5 for H  read from file:
     /storage/coda1/p-amedford6/0/shared/rich_project_chbe-medford/medford-share/data/pseudos_module/espresso/nninc/pbe/van/H.UPF
     MD5 check sum: b5ee9d7bfd3a09ee7748110bda690ff7
     Pseudo is Ultrasoft, Zval =  1.0
     Generated by new atomic code, or converted to UPF format
     Using radial grid of  615 points,  1 beta functions with:
                l(1) =   0
     Q(r) pseudized with  8 coefficients,  rinner =    0.800

     atomic species   valence    mass     pseudopotential
        Ti1           12.00    47.86700     Ti( 1.00)
        O1             6.00    15.99900     O ( 1.00)
        N1             5.00    14.00700     N ( 1.00)
        C1             4.00    12.01100     C ( 1.00)
        H1             1.00     1.00800     H ( 1.00)

     Starting magnetic structure
     atomic species   magnetization
        Ti1          0.000
        O1           0.000
        N1           0.000
        C1           0.025
        H1           0.000

     No symmetry found

   Cartesian axes

     site n.     atom                  positions (alat units)
         1           Ti1 tau(   1) = (   0.0004258   2.9801865   6.0000000  )
         2           Ti1 tau(   2) = (   3.2906075   1.4906267   6.0002472  )
         3           O1  tau(   3) = (   0.0006271   0.0005054   7.9858123  )
         4           O1  tau(   4) = (   3.2906025   0.0005020   7.3038282  )
         5           O1  tau(   5) = (   4.5942328   1.4918067   9.2879030  )
         6           O1  tau(   6) = (   1.9868534   1.4903216   9.2879459  )
         7           Ti1 tau(   7) = (   3.2907910   2.8959150   9.1758416  )
         8           Ti1 tau(   8) = (   0.0015273   1.4827037   9.2680791  )
         9           O1  tau(   9) = (   3.2969863   5.9453513  11.3493076  )
        10           O1  tau(  10) = (   0.0116148   5.9584955  10.6183126  )
        11           O1  tau(  11) = (   1.3059050   1.4736943  12.6642453  )
        12           O1  tau(  12) = (   5.3003793   1.4775083  12.6459419  )
        13           Ti1 tau(  13) = (   0.0167275   2.9625105  12.5508078  )
        14           Ti1 tau(  14) = (   3.3131340   1.4712512  12.4909780  )
        15           O1  tau(  15) = (   6.5517612   5.9325698  14.7566896  )
        16           O1  tau(  16) = (   3.3302114   5.9429442  13.9823395  )
        17           O1  tau(  17) = (   4.5243935   1.5056208  16.2316672  )
        18           O1  tau(  18) = (   2.0170937   1.4633510  16.1378485  )
        19           Ti1 tau(  19) = (   3.2500237   2.9242626  15.6920970  )
        20           Ti1 tau(  20) = (   6.5441017   1.2779805  16.1516014  )
        21           O1  tau(  21) = (   3.2904802   0.0005063   4.7018136  )
        22           O1  tau(  22) = (   6.5540411   5.9581837  17.3465722  )
        23           O1  tau(  23) = (   1.3043587   1.4918075   6.0039043  )
        24           O1  tau(  24) = (   5.2767064   1.4903225   6.0039473  )
        25           Ti1 tau(  25) = (   0.0000382   5.9609847   6.0000000  )
        26           Ti1 tau(  26) = (   3.2902200   4.4714249   6.0002472  )
        27           O1  tau(  27) = (   0.0002396   2.9813036   7.9858123  )
        28           O1  tau(  28) = (   3.2902150   2.9813002   7.3038282  )
        29           O1  tau(  29) = (   4.5938453   4.4726049   9.2879030  )
        30           O1  tau(  30) = (   1.9864658   4.4711199   9.2879459  )
        31           Ti1 tau(  31) = (   3.2891106   5.8743827   9.1763621  )
        32           Ti1 tau(  32) = (   0.0006254   4.4649316   9.2693709  )
        33           O1  tau(  33) = (   3.2962403   2.9651072  11.3429128  )
        34           O1  tau(  34) = (   0.0092240   2.9805883  10.6323155  )
        35           O1  tau(  35) = (   1.3076126   4.4641214  12.6643835  )
        36           O1  tau(  36) = (   5.2981430   4.4591552  12.6429889  )
        37           Ti1 tau(  37) = (   0.0194730   5.9489450  12.5196332  )
        38           Ti1 tau(  38) = (   3.3150505   4.4522436  12.4946186  )
        39           O1  tau(  39) = (   6.5702761   2.9869041  14.8038460  )
        40           O1  tau(  40) = (   3.3119818   2.9576719  13.9204832  )
        41           O1  tau(  41) = (   4.5223198   4.3950437  16.2490866  )
        42           O1  tau(  42) = (   2.0356696   4.4339808  16.1311045  )
        43           Ti1 tau(  43) = (   3.3057863   5.9493229  15.7677403  )
        44           Ti1 tau(  44) = (   0.0958844   4.4293496  15.8701971  )
        45           O1  tau(  45) = (   3.2900926   2.9813045   4.7018136  )
        46           O1  tau(  46) = (   1.3039711   4.4726057   6.0039043  )
        47           O1  tau(  47) = (   5.2763189   4.4711207   6.0039473  )
        48           N1  tau(  48) = (   0.0620580   3.0375546  17.6897758  )
        49           C1  tau(  49) = (   1.1116374   2.9693208  18.6984743  )
        50           H1  tau(  50) = (   1.2951007   3.9532040  19.1583453  )
        51           H1  tau(  51) = (   0.8627774   2.2426413  19.4871689  )
        52           H1  tau(  52) = (   2.0263963   2.6228967  18.2408865  )
        53           N1  tau(  53) = (   5.4279256   3.3744730  18.4033390  )
        54           H1  tau(  54) = (   5.6103604   4.1199394  19.0852601  )
        55           H1  tau(  55) = (   4.7934260   3.8076565  17.6395878  )
        56           H1  tau(  56) = (   5.0090149   2.5598412  18.8678436  )

     number of k points=    10  Fermi-Dirac smearing, width (Ry)=  0.0073
                       cart. coord. in units 2pi/alat
        k(    1) = (   0.0000000   0.0000000   0.0000000), wk =   0.0625000
        k(    2) = (   0.0000000   0.0419351   0.0000000), wk =   0.1250000
        k(    3) = (   0.0000000  -0.0838702   0.0000000), wk =   0.0625000
        k(    4) = (   0.0379955   0.0000049   0.0000000), wk =   0.1250000
        k(    5) = (   0.0379955   0.0419400   0.0000000), wk =   0.1250000
[...]
     % Please cite the following two papers that made this development      %
     % possible and the two reviews that describe the various versions:     %
     %                                                                      %
     %   T. Thonhauser et al., PRL 115, 136402 (2015).                      %
     %   T. Thonhauser et al., PRB 76, 125112 (2007).                       %
     %   K. Berland et al., Rep. Prog. Phys. 78, 066501 (2015).             %
     %   D.C. Langreth et al., J. Phys.: Condens. Matter 21, 084203 (2009). %
     %                                                                      %
     %                                                                      %
     % If you are calculating the stress with vdW-DF, please also cite:     %
     %                                                                      %
     %   R. Sabatini et al., J. Phys.: Condens. Matter 24, 424209 (2012).   %
     %                                                                      %
     %%%%%%%%%%%%%%%%%%%%%%%%%%%%%%%%%%%%%%%%%%%%%%%%%%%%%%%%%%%%%%%%%%%%%%%%

     Adding external electric field

     Computed dipole along edir(3) :
        Dipole              -10.5737 Ry au,        -26.8756 Debye
        Dipole field         -0.0200 Ry au,

        Potential amp.        1.8497 Ry
        Total length         46.3494 bohr

[...]

     Starting wfcs are  302 atomic wfcs
  @ DRIVER MODE: Message from server: STATUS
  @ DRIVER MODE: Message from server: POSDATA
  @ DRIVER MODE: Reading and sharing cell
  @ DRIVER MODE: Reading and sharing positions
  @ DRIVER MODE: Received positions

     Self-consistent Calculation

     iteration #  1     ecut=    29.40 Ry     beta= 0.05
     Davidson diagonalization with overlap
     c_bands:  4 eigenvalues not converged
     c_bands:  2 eigenvalues not converged
     c_bands:  1 eigenvalues not converged
     c_bands:  4 eigenvalues not converged
     c_bands:  5 eigenvalues not converged
     c_bands:  5 eigenvalues not converged
     c_bands:  1 eigenvalues not converged
     c_bands:  5 eigenvalues not converged
     c_bands:  3 eigenvalues not converged
     c_bands:  4 eigenvalues not converged
     c_bands:  2 eigenvalues not converged
     c_bands:  1 eigenvalues not converged
     c_bands:  4 eigenvalues not converged
     c_bands:  5 eigenvalues not converged
     c_bands:  5 eigenvalues not converged
     c_bands:  5 eigenvalues not converged
     c_bands:  3 eigenvalues not converged
     ethr =  1.00E-05,  avg # of iterations = 20.0

[...]

     total energy              =   -2443.27015077 Ry
     estimated scf accuracy    <    5586.09999090 Ry

     total magnetization       =     0.00 Bohr mag/cell
     absolute magnetization    =     0.01 Bohr mag/cell

     iteration #  2     ecut=    29.40 Ry     beta= 0.05
     Davidson diagonalization with overlap
     ethr =  1.00E-02,  avg # of iterations = 24.6

[...]

     iteration #102     ecut=    29.40 Ry     beta= 0.05
     Davidson diagonalization with overlap
     ethr =  1.35E-10,  avg # of iterations =  8.1

[...]

     total energy              =   -2942.82552027 Ry
     estimated scf accuracy    <       0.00000030 Ry

[...]

     iteration #105     ecut=    29.40 Ry     beta= 0.05
     Davidson diagonalization with overlap
     c_bands:  1 eigenvalues not converged
     c_bands:  1 eigenvalues not converged
     ethr =  6.51E-11,  avg # of iterations = 12.7

     negative rho (up, down):  7.277E-03 7.249E-03

[...]

     Adding external electric field

     Computed dipole along edir(3) :
        Dipole                1.6177 Ry au,          4.1117 Debye
        Dipole field          0.0031 Ry au,

        Potential amp.       -0.2830 Ry
        Total length         46.3494 bohr

     Magnetic moment per site  (integrated on atomic sphere of radius R)
     atom   1 (R=0.723)  charge=  7.9140  magn=  0.0053
     atom   2 (R=0.723)  charge=  7.8964  magn=  0.0002
     atom   3 (R=0.633)  charge=  4.2081  magn= -0.0004
     atom   4 (R=0.633)  charge=  4.2373  magn= -0.0000
     atom   5 (R=0.633)  charge=  4.2137  magn= -0.0000
     atom   6 (R=0.633)  charge=  4.2139  magn= -0.0000
     atom   7 (R=0.723)  charge=  7.8964  magn=  0.0003
     atom   8 (R=0.723)  charge=  7.8945  magn=  0.0022
     atom   9 (R=0.633)  charge=  4.2238  magn= -0.0001
     atom  10 (R=0.633)  charge=  4.2125  magn= -0.0001
     atom  11 (R=0.633)  charge=  4.2093  magn= -0.0001
     atom  12 (R=0.633)  charge=  4.2112  magn= -0.0001
     atom  13 (R=0.723)  charge=  7.8926  magn=  0.0007
     atom  14 (R=0.723)  charge=  7.9040  magn=  0.0006
     atom  15 (R=0.633)  charge=  4.2098  magn=  0.0000
     atom  16 (R=0.633)  charge=  4.2161  magn= -0.0000
     atom  17 (R=0.633)  charge=  4.2035  magn=  0.0000
     atom  18 (R=0.633)  charge=  4.2034  magn=  0.0000
     atom  19 (R=0.723)  charge=  7.9504  magn=  0.0000
     atom  20 (R=0.723)  charge=  7.9298  magn= -0.0000
     atom  21 (R=0.633)  charge=  4.1284  magn= -0.0001
     atom  22 (R=0.633)  charge=  4.1764  magn=  0.0001
     atom  23 (R=0.633)  charge=  4.2073  magn= -0.0006
     atom  24 (R=0.633)  charge=  4.2074  magn= -0.0006
     atom  25 (R=0.723)  charge=  7.9141  magn=  0.0053
     atom  26 (R=0.723)  charge=  7.8964  magn=  0.0002
     atom  27 (R=0.633)  charge=  4.2077  magn= -0.0004
     atom  28 (R=0.633)  charge=  4.2375  magn= -0.0000
     atom  29 (R=0.633)  charge=  4.2143  magn= -0.0000
     atom  30 (R=0.633)  charge=  4.2144  magn= -0.0000
     atom  31 (R=0.723)  charge=  7.8969  magn=  0.0003
     atom  32 (R=0.723)  charge=  7.8947  magn=  0.0022
     atom  33 (R=0.633)  charge=  4.2222  magn= -0.0001
     atom  34 (R=0.633)  charge=  4.2053  magn= -0.0001
     atom  35 (R=0.633)  charge=  4.2090  magn= -0.0001
     atom  36 (R=0.633)  charge=  4.2115  magn= -0.0001
     atom  37 (R=0.723)  charge=  7.8964  magn=  0.0007
     atom  38 (R=0.723)  charge=  7.9034  magn=  0.0006
     atom  39 (R=0.633)  charge=  4.1926  magn=  0.0000
     atom  40 (R=0.633)  charge=  4.2343  magn= -0.0000
     atom  41 (R=0.633)  charge=  4.2025  magn=  0.0000
     atom  42 (R=0.633)  charge=  4.2135  magn=  0.0000
     atom  43 (R=0.723)  charge=  7.9399  magn= -0.0000
     atom  44 (R=0.723)  charge=  7.9262  magn=  0.0000
     atom  45 (R=0.633)  charge=  4.1284  magn= -0.0001
     atom  46 (R=0.633)  charge=  4.2073  magn= -0.0006
     atom  47 (R=0.633)  charge=  4.2074  magn= -0.0006
     atom  48 (R=0.423)  charge=  1.3356  magn= -0.0000
     atom  49 (R=0.445)  charge=  0.8301  magn=  0.0000
     atom  50 (R=0.423)  charge=  0.4486  magn= -0.0000
     atom  51 (R=0.423)  charge=  0.4499  magn= -0.0000
     atom  52 (R=0.423)  charge=  0.4580  magn= -0.0000
     atom  53 (R=0.423)  charge=  1.3749  magn= -0.0000
     atom  54 (R=0.423)  charge=  0.4520  magn= -0.0000
     atom  55 (R=0.423)  charge=  0.3988  magn=  0.0000
     atom  56 (R=0.423)  charge=  0.4521  magn= -0.0000

     End of self-consistent calculation

 ------ SPIN UP ------------

          k = 0.0000 0.0000 0.0000 ( 18029 PWs)   bands (ev):

   -55.1359 -55.1016 -55.0992 -55.0675 -55.0182 -55.0023 -54.9801 -54.9370
   -54.9258 -54.9156 -54.9017 -54.8930 -54.8576 -54.7863 -54.1089 -54.0748
   -31.7154 -31.5882 -31.5043 -31.4723 -31.4295 -31.4268 -31.4241 -31.3950
   -31.3920 -31.3912 -31.3599 -31.3466 -31.3455 -31.3134 -31.2954 -31.2705
   -31.2550 -31.2540 -31.2398 -31.2340 -31.2098 -31.2024 -31.1953 -31.1682
   -31.1594 -31.1474 -31.1398 -31.1341 -31.1333 -31.1213 -31.1203 -31.1131
   -31.0964 -31.0870 -31.0815 -31.0561 -31.0524 -31.0396 -31.0345 -31.0288
   -31.0175 -30.9759 -30.5170 -30.4253 -30.4031 -30.3337 -30.2470 -30.1359
   -18.9390 -15.9993 -15.7449 -15.6092 -15.3745 -15.3221 -15.2660 -15.0609
   -15.0570 -14.9860 -14.9708 -14.9220 -14.9021 -14.8350 -14.7505 -14.7307
   -14.6612 -14.6599 -14.6305 -14.6203 -14.6178 -14.5552 -14.5459 -14.5161
   -14.5028 -14.4782 -14.3599 -14.2752 -14.2165 -13.9678 -13.5989 -12.6109
   -12.4938  -9.7613  -7.7231  -7.2210  -5.4563  -3.8197  -3.3368  -3.2939
    -3.1624  -3.1330  -3.0564  -3.0265  -2.8419  -2.8214  -2.4794  -2.4431
    -2.3933  -2.3751  -2.3545  -2.3363  -2.1691  -2.1427  -2.0697  -2.0369
    -2.0185  -1.9781  -1.9608  -1.9505  -1.9169  -1.9120  -1.9020  -1.6947
    -1.6385  -1.5436  -1.5211  -1.4983  -1.4622  -1.4263  -1.4175  -1.4143
    -1.4083  -1.3949  -1.3826  -1.3023  -1.2446  -1.1631  -1.1541  -1.1184
    -1.0143  -0.9690  -0.7670  -0.7526  -0.7069  -0.6647  -0.6017  -0.5816
    -0.5139  -0.4831  -0.4645  -0.3430  -0.3142  -0.2746  -0.2463  -0.1787
    -0.1489  -0.1027  -0.0199   0.0522   0.0881   0.1069   0.1653   0.2954
     0.3067   0.3361   0.3972   0.4610   0.5015   0.5214   0.5400   0.5768
     0.6269   0.7528   0.7971   0.8172   0.8214   0.8557   0.8779   0.9289
     0.9535   1.0139   1.0197   1.1373   1.2066   1.4338   1.4682   1.4941
     1.8265   1.8498   1.9141   2.1001   2.4884   2.5354   3.9673   4.0289
     4.0864   4.0982   4.1209   4.2099   4.2454   4.4318   4.4589   4.4608
     4.4650

[...]

          k =-0.0760-0.0000 0.0000 ( 17886 PWs)   bands (ev):

[...]

 ------ SPIN DOWN ----------

[...]

          k = 0.0380-0.0419 0.0000 ( 17876 PWs)   bands (ev):

[...]

          k =-0.0760-0.0839 0.0000 ( 17948 PWs)   bands (ev):

   -55.1191 -55.1132 -55.0746 -55.0745 -55.0064 -54.9987 -54.9896 -54.9203
   -54.9188 -54.9162 -54.9070 -54.9056 -54.8539 -54.7901 -54.0916 -54.0914
   -31.5183 -31.5153 -31.4387 -31.4166 -31.3992 -31.3991 -31.3663 -31.3661
   -31.3456 -31.3397 -31.3370 -31.3365 -31.3041 -31.2679 -31.2609 -31.2565
   -31.2554 -31.2513 -31.2486 -31.2422 -31.2122 -31.2072 -31.2048 -31.2027
   -31.1927 -31.1927 -31.1849 -31.1822 -31.1548 -31.1501 -31.1347 -31.1306
   -31.1279 -31.1274 -31.1267 -31.1188 -31.0946 -31.0881 -31.0858 -31.0659
   -31.0407 -31.0230 -30.4154 -30.4153 -30.3296 -30.3295 -30.2901 -30.2901
   -18.9342 -15.5063 -15.3967 -15.2892 -15.2233 -15.1806 -15.1293 -15.1117
   -15.1011 -15.0561 -15.0261 -14.9571 -14.8928 -14.8398 -14.8388 -14.8044
   -14.7258 -14.7119 -14.7048 -14.6943 -14.6376 -14.6309 -14.5995 -14.5787
   -14.5756 -14.5457 -14.4717 -14.4693 -14.3832 -14.1765 -13.6350 -12.5955
   -12.5954  -9.7302  -7.7198  -7.1675  -5.4596  -3.8415  -3.4483  -2.7552
    -2.6438  -2.4333  -2.4073  -2.3474  -2.3273  -2.2437  -2.1820  -2.1597
    -2.1364  -2.1024  -2.0994  -2.0762  -2.0536  -2.0004  -1.9711  -1.9595
    -1.9537  -1.9390  -1.9262  -1.9064  -1.8497  -1.8395  -1.8321  -1.7895
    -1.7786  -1.7468  -1.7407  -1.7016  -1.6848  -1.6101  -1.5164  -1.4920
    -1.4330  -1.3322  -1.3174  -1.3117  -1.2195  -1.2103  -1.1807  -1.1499
    -1.0954  -0.9963  -0.9414  -0.8647  -0.8614  -0.8323  -0.7447  -0.6813
    -0.6474  -0.6377  -0.5988  -0.5419  -0.5188  -0.4845  -0.4018  -0.3604
    -0.3333  -0.2994  -0.2049  -0.1434  -0.1196  -0.0880  -0.0846   0.0044
     0.0377   0.0748   0.0957   0.1334   0.1601   0.2241   0.2470   0.3573
     0.4252   0.4572   0.5762   0.6003   0.6641   0.7964   0.8680   0.9084
     0.9611   1.0193   1.0467   1.1770   1.1841   1.2037   1.3028   1.3433
     1.3502   1.3630   2.2730   2.2741   2.3556   2.3557   4.1011   4.1882
     4.2320   4.2696   4.3761   4.4882   4.5067   4.5493   4.5499   4.6250
     4.6317

     the Fermi energy is     4.0217 ev

!    total energy              =   -2942.82552125 Ry
     estimated scf accuracy    <       0.00000003 Ry
     smearing contrib. (-TS)   =      -0.03684759 Ry
     internal energy E=F+TS    =   -2942.78867367 Ry

     The total energy is F=E-TS. E is the sum of the following terms:
     one-electron contribution =  -23971.77404711 Ry
     hartree contribution      =   12081.46340210 Ry
     xc contribution           =    -487.77566590 Ry
     ewald contribution        =    9435.29269899 Ry
     electric field correction =       0.00493825 Ry

     total magnetization       =     0.02 Bohr mag/cell
     absolute magnetization    =     0.04 Bohr mag/cell

     convergence has been achieved in 105 iterations

     Forces acting on atoms (cartesian axes, Ry/au):

     atom    1 type  1   force =     0.00015159   -0.00022378    0.09430291
     atom    2 type  1   force =    -0.00009467   -0.00033258   -0.17742552
     atom    3 type  2   force =     0.00005524   -0.00016454   -0.02136392
     atom    4 type  2   force =    -0.00001504   -0.00172558    0.05658768
     atom    5 type  2   force =    -0.01054829   -0.00127523    0.00624020
     atom    6 type  2   force =     0.01221629   -0.00074164    0.00571139
     atom    7 type  1   force =    -0.00032846    0.00172133   -0.01618756
     atom    8 type  1   force =    -0.00011063    0.00438427    0.00560386
     atom    9 type  2   force =     0.00000958   -0.00004352   -0.00004991
     atom   10 type  2   force =    -0.00074316   -0.00022162   -0.00044664
     atom   11 type  2   force =     0.00034465    0.00012879   -0.00018628
     atom   12 type  2   force =    -0.00051802    0.00000671   -0.00012265
     atom   13 type  1   force =     0.00004306   -0.00035178    0.00015016
     atom   14 type  1   force =     0.00055625    0.00011967   -0.00031573
     atom   15 type  2   force =    -0.00040584    0.00023925   -0.00017645
     atom   16 type  2   force =    -0.00032911    0.00019553   -0.00003284
     atom   17 type  2   force =    -0.00018514    0.00009021    0.00044781
     atom   18 type  2   force =     0.00012875    0.00034476   -0.00002407
     atom   19 type  1   force =     0.00007305    0.00000430    0.00012694
     atom   20 type  1   force =     0.00015927    0.00053807   -0.00044978
     atom   21 type  2   force =     0.00003713    0.00004218    0.10362528
     atom   22 type  2   force =    -0.00004620   -0.00080076   -0.00028565
     atom   23 type  2   force =    -0.07082639   -0.00010056   -0.02719920
     atom   24 type  2   force =     0.07068980    0.00034064   -0.02722897
     atom   25 type  1   force =    -0.00009504   -0.00019705    0.09372225
     atom   26 type  1   force =    -0.00015305   -0.00032062   -0.17735288
     atom   27 type  2   force =     0.00008709   -0.00035107   -0.02046352
     atom   28 type  2   force =     0.00003134   -0.00144143    0.05589868
     atom   29 type  2   force =    -0.01091005   -0.00073455    0.00608882
     atom   30 type  2   force =     0.01246215   -0.00029093    0.00556755
     atom   31 type  1   force =    -0.00017501    0.00462390   -0.01721781
     atom   32 type  1   force =    -0.00003765   -0.00480341    0.00558319
     atom   33 type  2   force =     0.00005721    0.00012206    0.00026844
     atom   34 type  2   force =     0.00005743   -0.00085241   -0.00297293
     atom   35 type  2   force =     0.00023223    0.00002792    0.00008217
     atom   36 type  2   force =    -0.00042652    0.00015255   -0.00006375
     atom   37 type  1   force =    -0.00012909   -0.00010912   -0.00016750
     atom   38 type  1   force =     0.00043425   -0.00028856    0.00038154
     atom   39 type  2   force =    -0.00045605    0.00010100    0.00072680
     atom   40 type  2   force =    -0.00011600    0.00018437   -0.00020096
     atom   41 type  2   force =     0.00008025    0.00028814    0.00026442
     atom   42 type  2   force =    -0.00004245    0.00020155    0.00000714
     atom   43 type  1   force =    -0.00046254    0.00061317   -0.00004973
     atom   44 type  1   force =    -0.00017601    0.00032691   -0.00022274
     atom   45 type  2   force =     0.00002644    0.00001019    0.10362712
     atom   46 type  2   force =    -0.07082819   -0.00003461   -0.02719888
     atom   47 type  2   force =     0.07069533    0.00037852   -0.02720550
     atom   48 type  3   force =     0.00090661   -0.00105641   -0.00017539
     atom   49 type  4   force =    -0.00433690    0.00165438    0.00320119
     atom   50 type  5   force =    -0.00030114    0.00009899    0.00022787
     atom   51 type  5   force =    -0.00092618   -0.00003081    0.00037343
     atom   52 type  5   force =     0.00371660   -0.00155344   -0.00398634
     atom   53 type  3   force =     0.00065961    0.00075419    0.00125272
     atom   54 type  5   force =     0.00015162    0.00006870   -0.00021223
     atom   55 type  5   force =    -0.00005860    0.00015780   -0.00088786
     atom   56 type  5   force =    -0.00028139    0.00012598   -0.00019634

     Total force =     0.365700     Total SCF correction =     0.000468
  @ DRIVER MODE: Message from server: STATUS
  @ DRIVER MODE: Message from server: GETFORCE
  @ DRIVER MODE: Returning v,forces,stress,ensemble

     Writing output data file ./calc.save/
  @ DRIVER MODE: Message from server: EXIT
  @ DRIVE MODE: Exiting

     General routines

     Parallel routines

   This run was terminated on:  17:43:37  16Jul2021

   JOB DONE.