     Program PWSCF v.6.7GPU starts on 24Sep2021 at  0:54:27

     R & G space division:  proc/nbgrp/npool/nimage =       8
     Reading input from /storage/home/hcoda1/3/ntian30/research/carbon/CxH_vib/H2O_calc/ads_slab/CH3NHNH2HO_a/out_0030/pw.inp
Warning: card &CELL ignored
Warning: card   CELL_DYNAMICS='IPI', ignored
Warning: card / ignored

     Current dimensions of program PWSCF are:
     Max number of different atomic species (ntypx) = 10
     Max number of k-points (npk) =  40000
     Max angular momentum in pseudopotentials (lmaxx) =  3
     Presently no symmetry can be used with electric field

     Message from routine cell_base_init:
     DEPRECATED: use true lattice parameter, not A to a.u. conversion factor

     IMPORTANT: XC functional enforced from input :
     Exchange-correlation= BEEF-VDW
                           (   1   4  43  14   2   0   0)
     Any further DFT definition will be discarded
     Please, verify this is what you really want

  @ DRIVER MODE: Connecting to
 qe_1139763_2947307.sched-torque.pace.gatech.edufaw8_och_scratch
  using UNIX socket
  @ DRIVER MODE: Message from server: STATUS
  @ DRIVER MODE: Message from server: INIT
  @ DRIVER MODE: Receiving replica           0          -1
  @ DRIVER MODE: Receiving encoded integer          25
  @ DRIVER MODE:  SCF:  T  FORCE:  T  STRESS:  F  VC:  F  ENSEMBLE:  F
  @ DRIVER MODE:  SCF:  T  FORCE:  T  STRESS:  F  VC:  F  ENSEMBLE:  F

     Using Slab Decomposition

     bravais-lattice index     =            0
     lattice parameter (alat)  =       1.8897  a.u.
     unit-cell volume          =    6658.9804 (a.u.)^3
     number of atoms/cell      =           58
     number of atomic types    =            5
     number of electrons       =       405.00
     number of Kohn-Sham states=          212
     kinetic-energy cutoff     =      29.3995  Ry
     charge density cutoff     =     293.9946  Ry
     scf convergence threshold =      7.3E-08
     mixing beta               =       0.0500
     number of iterations used =            8  plain     mixing
     Exchange-correlation= BEEF-VDW
                           (   1   4  43  14   2   0   0)

     celldm(1)=   1.889726  celldm(2)=   0.000000  celldm(3)=   0.000000
     celldm(4)=   0.000000  celldm(5)=   0.000000  celldm(6)=   0.000000

     crystal axes: (cart. coord. in units of alat)
               a(1) = (   6.579727   0.000000   0.000000 )
               a(2) = (  -0.000775   5.961596   0.000000 )
               a(3) = (   0.000000   0.000000  25.155947 )

     reciprocal axes: (cart. coord. in units 2 pi/alat)
               b(1) = (  0.151982  0.000020  0.000000 )
               b(2) = (  0.000000  0.167740  0.000000 )
               b(3) = (  0.000000  0.000000  0.039752 )

     PseudoPot. # 1 for Ti read from file:
     /storage/coda1/p-amedford6/0/shared/rich_project_chbe-medford/medford-share/data/pseudos_module/espresso/nninc/pbe/van/Ti.UPF
     MD5 check sum: 8e4df49b7f0d34bbd5052bf3f5ea0213
     Pseudo is Ultrasoft, Zval = 12.0
     Generated by new atomic code, or converted to UPF format
     Using radial grid of  851 points,  6 beta functions with:
                l(1) =   0
                l(2) =   0
                l(3) =   1
                l(4) =   1
                l(5) =   2
                l(6) =   2
     Q(r) pseudized with  8 coefficients,  rinner =    1.000   1.000   1.000
                                                       1.000   1.000

     PseudoPot. # 2 for O  read from file:
     /storage/coda1/p-amedford6/0/shared/rich_project_chbe-medford/medford-share/data/pseudos_module/espresso/nninc/pbe/van/O.UPF
     MD5 check sum: 78c19812648e8988a0fe644b0f25305e
     Pseudo is Ultrasoft, Zval =  6.0
     Generated by new atomic code, or converted to UPF format
     Using radial grid of  737 points,  4 beta functions with:
                l(1) =   0
                l(2) =   0
                l(3) =   1
                l(4) =   1
     Q(r) pseudized with  8 coefficients,  rinner =    0.800   0.800   0.800

     PseudoPot. # 3 for N  read from file:
     /storage/coda1/p-amedford6/0/shared/rich_project_chbe-medford/medford-share/data/pseudos_module/espresso/nninc/pbe/van/N.UPF
     MD5 check sum: 90d10febe142ad51ac9d5be1deb811c4
     Pseudo is Ultrasoft, Zval =  5.0
     Generated by new atomic code, or converted to UPF format
     Using radial grid of  729 points,  4 beta functions with:
                l(1) =   0
                l(2) =   0
                l(3) =   1
                l(4) =   1
     Q(r) pseudized with  8 coefficients,  rinner =    0.800   0.800   0.800

     PseudoPot. # 4 for C  read from file:
     /storage/coda1/p-amedford6/0/shared/rich_project_chbe-medford/medford-share/data/pseudos_module/espresso/nninc/pbe/van/C.UPF
     MD5 check sum: 1a69bf6b8db32088f5b2163dbdb77a27
     Pseudo is Ultrasoft, Zval =  4.0
     Generated by new atomic code, or converted to UPF format
     Using radial grid of  721 points,  4 beta functions with:
                l(1) =   0
                l(2) =   0
                l(3) =   1
                l(4) =   1
     Q(r) pseudized with  8 coefficients,  rinner =    0.800   0.800   0.800

     PseudoPot. # 5 for H  read from file:
     /storage/coda1/p-amedford6/0/shared/rich_project_chbe-medford/medford-share/data/pseudos_module/espresso/nninc/pbe/van/H.UPF
     MD5 check sum: b5ee9d7bfd3a09ee7748110bda690ff7
     Pseudo is Ultrasoft, Zval =  1.0
     Generated by new atomic code, or converted to UPF format
     Using radial grid of  615 points,  1 beta functions with:
                l(1) =   0
     Q(r) pseudized with  8 coefficients,  rinner =    0.800

     atomic species   valence    mass     pseudopotential
        Ti1           12.00    47.86700     Ti( 1.00)
        O1             6.00    15.99900     O ( 1.00)
        N1             5.00    14.00700     N ( 1.00)
        C1             4.00    12.01100     C ( 1.00)
        H1             1.00     1.00800     H ( 1.00)

     No symmetry found

   Cartesian axes

     site n.     atom                  positions (alat units)
         1           Ti1 tau(   1) = (   0.0004258   2.9801865   6.0000000  )
         2           Ti1 tau(   2) = (   3.2906075   1.4906267   6.0002472  )
         3           O1  tau(   3) = (   0.0006271   0.0005054   7.9858123  )
         4           O1  tau(   4) = (   3.2906025   0.0005020   7.3038282  )
         5           O1  tau(   5) = (   4.5942328   1.4918067   9.2879030  )
         6           O1  tau(   6) = (   1.9868534   1.4903216   9.2879459  )
         7           Ti1 tau(   7) = (   3.2907910   2.8959150   9.1758416  )
         8           Ti1 tau(   8) = (   0.0015273   1.4827037   9.2680791  )
         9           O1  tau(   9) = (   3.3003128   0.0493987  11.3625472  )
        10           O1  tau(  10) = (   0.0116148   5.9584955  10.6183126  )
        11           O1  tau(  11) = (   1.2863924   1.5188706  12.6959087  )
        12           O1  tau(  12) = (   5.3173592   1.5183023  12.6957539  )
        13           Ti1 tau(  13) = (   0.0130489   2.9571150  12.5182267  )
        14           Ti1 tau(  14) = (   3.3124343   1.5987737  12.4587140  )
        15           O1  tau(  15) = (   0.0455642   5.8537743  14.6515032  )
        16           O1  tau(  16) = (   3.3135256   5.8999501  14.0036581  )
        17           O1  tau(  17) = (   4.5824137   1.5787328  16.0473457  )
        18           O1  tau(  18) = (   2.0456054   1.5356268  16.0652349  )
        19           Ti1 tau(  19) = (   3.2855744   2.9948502  15.7047272  )
        20           Ti1 tau(  20) = (   0.0729980   1.3194477  15.7501807  )
        21           O1  tau(  21) = (   3.2904802   0.0005063   4.7018136  )
        22           O1  tau(  22) = (   6.5643345   0.1786488  17.1561759  )
        23           O1  tau(  23) = (   1.3043587   1.4918075   6.0039043  )
        24           O1  tau(  24) = (   5.2767064   1.4903225   6.0039473  )
        25           Ti1 tau(  25) = (   0.0000382   5.9609847   6.0000000  )
        26           Ti1 tau(  26) = (   3.2902200   4.4714249   6.0002472  )
        27           O1  tau(  27) = (   0.0002396   2.9813036   7.9858123  )
        28           O1  tau(  28) = (   3.2902150   2.9813002   7.3038282  )
        29           O1  tau(  29) = (   4.5938453   4.4726049   9.2879030  )
        30           O1  tau(  30) = (   1.9864658   4.4711199   9.2879459  )
        31           Ti1 tau(  31) = (   3.2891106   5.8743827   9.1763621  )
        32           Ti1 tau(  32) = (   0.0006254   4.4649316   9.2693709  )
        33           O1  tau(  33) = (   3.3044115   2.9646987  11.3227374  )
        34           O1  tau(  34) = (   0.0092240   2.9805883  10.6323155  )
        35           O1  tau(  35) = (   1.2889249   4.4812606  12.6373974  )
        36           O1  tau(  36) = (   5.3198440   4.4849614  12.6453916  )
        37           Ti1 tau(  37) = (   0.0274371   5.9167426  12.5032498  )
        38           Ti1 tau(  38) = (   3.3124303   4.6827448  12.7121475  )
        39           O1  tau(  39) = (   0.0064664   3.0605765  14.9143048  )
        40           O1  tau(  40) = (   3.2921723   3.0190953  13.9337278  )
        41           O1  tau(  41) = (   4.5343043   4.4484976  16.2223827  )
        42           O1  tau(  42) = (   2.0055671   4.4324605  16.2273083  )
        43           Ti1 tau(  43) = (   3.3963104   0.0511244  16.3072024  )
        44           Ti1 tau(  44) = (   0.1011521   4.5293608  16.0606835  )
        45           O1  tau(  45) = (   3.2900926   2.9813045   4.7018136  )
        46           O1  tau(  46) = (   1.3039711   4.4726057   6.0039043  )
        47           O1  tau(  47) = (   5.2763189   4.4711207   6.0039473  )
        48           N1  tau(  48) = (   0.7799224   3.1460235  19.0808133  )
        49           N1  tau(  49) = (   6.3029119   3.3142126  18.0946246  )
        50           C1  tau(  50) = (   0.9829876   4.3811599  19.8296872  )
        51           H1  tau(  51) = (   0.0599524   4.7630682  20.2995108  )
        52           H1  tau(  52) = (   1.7087173   4.1728717  20.6253690  )
        53           H1  tau(  53) = (   1.3778604   5.1510331  19.1745456  )
        54           H1  tau(  54) = (   0.4845774   2.4057476  19.7140978  )
        55           H1  tau(  55) = (   5.5451363   3.8924421  18.4761980  )
        56           H1  tau(  56) = (   5.8791802   2.3931312  17.9634808  )
        57           O1  tau(  57) = (   3.3895457   0.1916509  18.1699706  )
        58           H1  tau(  58) = (   3.8128180   5.4341384  18.6581559  )

     number of k points=    10  Fermi-Dirac smearing, width (Ry)=  0.0073
                       cart. coord. in units 2pi/alat
        k(    1) = (   0.0000000   0.0000000   0.0000000), wk =   0.1250000
        k(    2) = (   0.0000000   0.0419351   0.0000000), wk =   0.2500000
        k(    3) = (   0.0000000  -0.0838702   0.0000000), wk =   0.1250000
        k(    4) = (   0.0379955   0.0000049   0.0000000), wk =   0.2500000
        k(    5) = (   0.0379955   0.0419400   0.0000000), wk =   0.2500000
        k(    6) = (   0.0379955  -0.0838652   0.0000000), wk =   0.2500000
        k(    7) = (   0.0379955  -0.0419301   0.0000000), wk =   0.2500000
        k(    8) = (  -0.0759910  -0.0000099   0.0000000), wk =   0.1250000
        k(    9) = (  -0.0759910   0.0419252   0.0000000), wk =   0.2500000
        k(   10) = (  -0.0759910  -0.0838800   0.0000000), wk =   0.1250000

     Initial potential from superposition of free atoms

     starting charge  388.99913, renormalised to  405.00000

     negative rho (up, down):  1.367E-02 0.000E+00

     %%%%%%%%%%%%%%%%%%%%%%%%%%%%%%%%%%%%%%%%%%%%%%%%%%%%%%%%%%%%%%%%%%%%%%%%
     %                                                                      %
     % You are using vdW-DF, which was implemented by the Thonhauser group. %
     % Please cite the following two papers that made this development      %
     % possible and the two reviews that describe the various versions:     %
     %                                                                      %
     %   T. Thonhauser et al., PRL 115, 136402 (2015).                      %
     %   T. Thonhauser et al., PRB 76, 125112 (2007).                       %
     %   K. Berland et al., Rep. Prog. Phys. 78, 066501 (2015).             %
     %   D.C. Langreth et al., J. Phys.: Condens. Matter 21, 084203 (2009). %
     %                                                                      %
     %                                                                      %
     % If you are calculating the stress with vdW-DF, please also cite:     %
     %                                                                      %
     %   R. Sabatini et al., J. Phys.: Condens. Matter 24, 424209 (2012).   %
     %                                                                      %
     %%%%%%%%%%%%%%%%%%%%%%%%%%%%%%%%%%%%%%%%%%%%%%%%%%%%%%%%%%%%%%%%%%%%%%%%

     Adding external electric field

     Computed dipole along edir(3) :
        Dipole              -14.8132 Ry au,        -37.6513 Debye
        Dipole field         -0.0280 Ry au,

        Potential amp.        2.5913 Ry
        Total length         46.3494 bohr

     Starting wfcs are  307 atomic wfcs
  @ DRIVER MODE: Message from server: STATUS
  @ DRIVER MODE: Message from server: POSDATA
  @ DRIVER MODE: Reading and sharing cell
  @ DRIVER MODE: Reading and sharing positions
  @ DRIVER MODE: Received positions

     Self-consistent Calculation

     iteration #  1     ecut=    29.40 Ry     beta= 0.05
     Davidson diagonalization with overlap
     c_bands:  4 eigenvalues not converged
     c_bands:  4 eigenvalues not converged
     c_bands:  5 eigenvalues not converged
     c_bands:  2 eigenvalues not converged
     c_bands:  3 eigenvalues not converged
     c_bands:  4 eigenvalues not converged
     c_bands:  2 eigenvalues not converged
     ethr =  1.00E-05,  avg # of iterations = 22.9

[...]

     total energy              =   -2203.05290232 Ry
     estimated scf accuracy    <    8803.32561308 Ry

     iteration #  2     ecut=    29.40 Ry     beta= 0.05
     Davidson diagonalization with overlap
     ethr =  1.00E-02,  avg # of iterations = 31.7

[...]

     iteration # 79     ecut=    29.40 Ry     beta= 0.05
     Davidson diagonalization with overlap
     c_bands:  1 eigenvalues not converged
     ethr =  2.76E-09,  avg # of iterations = 14.2

[...]

     total energy              =   -2976.46400368 Ry
     estimated scf accuracy    <       0.00000009 Ry

     iteration # 89     ecut=    29.40 Ry     beta= 0.05
     Davidson diagonalization with overlap
     ethr =  2.12E-11,  avg # of iterations = 10.0

     negative rho (up, down):  1.440E-02 0.000E+00

     Adding external electric field

     Computed dipole along edir(3) :
        Dipole                1.2253 Ry au,          3.1143 Debye
        Dipole field          0.0023 Ry au,

        Potential amp.       -0.2143 Ry
        Total length         46.3494 bohr

     End of self-consistent calculation

          k = 0.0000 0.0000 0.0000 ( 18029 PWs)   bands (ev):

   -55.4444 -55.3564 -55.3224 -55.2181 -55.2150 -55.1873 -55.1853 -55.1773
   -55.1533 -55.1301 -55.0870 -54.9852 -54.9371 -54.8936 -54.3312 -54.2971
   -31.8416 -31.7909 -31.7219 -31.7043 -31.6901 -31.6751 -31.6543 -31.6473
   -31.6162 -31.6026 -31.5969 -31.5090 -31.4942 -31.4870 -31.4671 -31.4635
   -31.4598 -31.4508 -31.4502 -31.4203 -31.4139 -31.3924 -31.3854 -31.3755
   -31.3707 -31.3545 -31.3536 -31.3216 -31.3215 -31.3148 -31.3141 -31.3082
   -31.2999 -31.2818 -31.2580 -31.2395 -31.1743 -31.1528 -31.1410 -31.1329
   -31.1119 -31.1028 -30.7372 -30.6507 -30.6283 -30.5546 -30.4683 -30.3565
   -17.7434 -16.3666 -16.0109 -15.8470 -15.6322 -15.5396 -15.5125 -15.3137
   -15.2187 -15.1604 -14.9593 -14.9321 -14.8941 -14.8816 -14.8725 -14.8515
   -14.8480 -14.7964 -14.7808 -14.7710 -14.7676 -14.7373 -14.7102 -14.6709
   -14.6114 -14.5976 -14.4948 -14.4395 -14.3997 -14.1587 -14.1386 -13.1729
   -12.8299 -12.7135  -9.4301  -6.4426  -5.7414  -4.2701  -3.9332  -3.3689
    -3.2674  -3.2558  -3.1987  -3.1319  -2.9648  -2.8841  -2.7826  -2.7433
    -2.6100  -2.5960  -2.4922  -2.4434  -2.3704  -2.3243  -2.2830  -2.2483
    -2.2204  -2.1645  -2.1421  -2.1164  -2.1052  -2.0322  -2.0139  -1.9243
    -1.8913  -1.8780  -1.7603  -1.7257  -1.6909  -1.6776  -1.6684  -1.6614
    -1.6184  -1.6083  -1.5977  -1.5551  -1.4551  -1.4472  -1.4296  -1.3390
    -1.2414  -0.9915  -0.9599  -0.9098  -0.8983  -0.8201  -0.7814  -0.7497
    -0.7172  -0.6473  -0.6361  -0.6102  -0.5488  -0.4733  -0.4189  -0.3713
    -0.3374  -0.2254  -0.1753  -0.1314  -0.0985  -0.0618   0.0011   0.0404
     0.0647   0.1079   0.1955   0.2589   0.2863   0.3031   0.3534   0.3950
     0.4331   0.4735   0.5453   0.5678   0.5780   0.6174   0.6259   0.6468
     0.7422   0.7607   0.8202   0.8474   0.9353   0.9662   1.0105   1.1799
     1.2494   1.3081   1.3862   1.4776   1.6406   1.6951   1.7197   1.8891
     2.2624   2.3078   3.7273   3.8747   3.8911   3.9687   3.9856   4.0498
     4.2162   4.2754   4.4128   4.4236

[...]

          k = 0.0380-0.0419 0.0000 ( 17876 PWs)   bands (ev):

[...]

          k =-0.0760-0.0000 0.0000 ( 17886 PWs)   bands (ev):

[...]

          k =-0.0760-0.0839 0.0000 ( 17948 PWs)   bands (ev):

   -55.4436 -55.3394 -55.3392 -55.2168 -55.2035 -55.1888 -55.1860 -55.1715
   -55.1687 -55.1221 -55.0952 -54.9821 -54.9382 -54.8966 -54.3141 -54.3140
   -31.7295 -31.6692 -31.6569 -31.6568 -31.6558 -31.6419 -31.6329 -31.6326
   -31.5758 -31.5308 -31.5093 -31.4985 -31.4931 -31.4880 -31.4651 -31.4594
   -31.4588 -31.4561 -31.4494 -31.4369 -31.4304 -31.4276 -31.4159 -31.3897
   -31.3853 -31.3833 -31.3758 -31.3679 -31.3496 -31.3442 -31.3406 -31.3403
   -31.3378 -31.3173 -31.3158 -31.2513 -31.2343 -31.2068 -31.1785 -31.1551
   -31.1489 -31.1076 -30.6410 -30.6410 -30.5502 -30.5499 -30.5116 -30.5114
   -17.7394 -16.3566 -15.5918 -15.4466 -15.3381 -15.3277 -15.2038 -15.1367
   -15.1268 -15.0933 -15.0705 -15.0486 -15.0302 -15.0149 -14.9602 -14.9203
   -14.8890 -14.8616 -14.8569 -14.8140 -14.8043 -14.7930 -14.7751 -14.7636
   -14.7083 -14.6720 -14.6623 -14.6043 -14.4649 -14.4448 -14.2889 -13.1743
   -12.8155 -12.8152  -9.4492  -6.4269  -5.7473  -4.2559  -3.9222  -2.9476
    -2.8013  -2.6581  -2.6065  -2.5626  -2.4492  -2.4247  -2.3669  -2.3164
    -2.2923  -2.2708  -2.2182  -2.2084  -2.1628  -2.1466  -2.1224  -2.1077
    -2.0912  -2.0847  -2.0568  -2.0409  -2.0306  -2.0175  -1.9905  -1.9795
    -1.9613  -1.9325  -1.9122  -1.9031  -1.8699  -1.8275  -1.7663  -1.6554
    -1.5814  -1.5705  -1.5271  -1.5020  -1.4858  -1.4447  -1.4321  -1.3911
    -1.3737  -1.3077  -1.1498  -1.1248  -1.1102  -0.9675  -0.9603  -0.9315
    -0.8574  -0.8156  -0.7938  -0.7360  -0.7060  -0.6655  -0.5890  -0.5457
    -0.4913  -0.4252  -0.3254  -0.3177  -0.3016  -0.2817  -0.2655  -0.2576
    -0.2245  -0.1873  -0.1143  -0.0677  -0.0589  -0.0529  -0.0019   0.0779
     0.1289   0.2431   0.3893   0.3940   0.4608   0.4617   0.6614   0.6702
     0.7469   0.7825   0.8169   0.8440   0.9378   0.9558   0.9934   1.0759
     1.1397   1.1693   1.1902   1.1949   1.2481   1.4602   2.0574   2.0653
     2.1281   2.1282   3.9682   4.2013   4.2416   4.2548   4.2731   4.2997
     4.3133   4.3275   4.3943   4.4176

     the Fermi energy is     3.7646 ev

!    total energy              =   -2976.46401369 Ry
     estimated scf accuracy    <       0.00000004 Ry
     smearing contrib. (-TS)   =      -0.01955828 Ry
     internal energy E=F+TS    =   -2976.44445541 Ry

     The total energy is F=E-TS. E is the sum of the following terms:
     one-electron contribution =  -23036.86528583 Ry
     hartree contribution      =   11616.15052707 Ry
     xc contribution           =    -495.72026171 Ry
     ewald contribution        =    8939.98773199 Ry
     electric field correction =       0.00283307 Ry

     convergence has been achieved in  89 iterations

     Forces acting on atoms (cartesian axes, Ry/au):

     atom    1 type  1   force =     0.00016184   -0.00023283    0.09413818
     atom    2 type  1   force =    -0.00010130    0.00018860   -0.17536906
     atom    3 type  2   force =     0.00005427   -0.00049360   -0.02103875
     atom    4 type  2   force =    -0.00002436   -0.00093787    0.05425406
     atom    5 type  2   force =    -0.00487910   -0.00216295    0.00106553
     atom    6 type  2   force =     0.00670318   -0.00138860    0.00108039
     atom    7 type  1   force =     0.00006367    0.00330084    0.00863048
     atom    8 type  1   force =    -0.00010104    0.00119448    0.00270203
     atom    9 type  2   force =    -0.00021882   -0.00030828   -0.00059060
     atom   10 type  2   force =    -0.00111908    0.00429174   -0.01024050
     atom   11 type  2   force =    -0.00006920   -0.00055021   -0.00009572
     atom   12 type  2   force =     0.00061443   -0.00031644   -0.00025689
     atom   13 type  1   force =    -0.00142986    0.00017720   -0.00057030
     atom   14 type  1   force =     0.00070774    0.00018194   -0.00047131
     atom   15 type  2   force =     0.00013107   -0.00002127    0.00004343
     atom   16 type  2   force =    -0.00009416   -0.00067712   -0.00027360
     atom   17 type  2   force =    -0.00041200    0.00069493    0.00008072
     atom   18 type  2   force =    -0.00077197    0.00030975   -0.00021385
     atom   19 type  1   force =     0.00041110   -0.00093291    0.00058222
     atom   20 type  1   force =    -0.00069504   -0.00004705    0.00051028
     atom   21 type  2   force =     0.00003743   -0.00001094    0.10319798
     atom   22 type  2   force =    -0.00009899    0.00001298    0.00047976
     atom   23 type  2   force =    -0.07196802   -0.00019980   -0.02725841
     atom   24 type  2   force =     0.07184498    0.00025574   -0.02732845
     atom   25 type  1   force =     0.00007693   -0.00016422    0.09386791
     atom   26 type  1   force =    -0.00011685   -0.00137319   -0.17551447
     atom   27 type  2   force =     0.00011169   -0.00005349   -0.01984627
     atom   28 type  2   force =     0.00006479   -0.00105142    0.04980180
     atom   29 type  2   force =    -0.00745805    0.00209283    0.00338813
     atom   30 type  2   force =     0.00906236    0.00223398    0.00330722
     atom   31 type  1   force =     0.00019815    0.00151984    0.00002458
     atom   32 type  1   force =    -0.00008831   -0.00226921    0.00301081
     atom   33 type  2   force =    -0.00017521   -0.00029943   -0.00002037
     atom   34 type  2   force =    -0.00117007   -0.00218564   -0.00962509
     atom   35 type  2   force =     0.00064992    0.00004967   -0.00021329
     atom   36 type  2   force =     0.00036694    0.00011087   -0.00034188
     atom   37 type  1   force =    -0.00096382    0.00026632    0.00035309
     atom   38 type  1   force =     0.00096169   -0.00025282    0.00019037
     atom   39 type  2   force =    -0.00016865   -0.00052249    0.00009156
     atom   40 type  2   force =    -0.00019934   -0.00019105   -0.00017255
     atom   41 type  2   force =     0.00027206   -0.00032450   -0.00009586
     atom   42 type  2   force =    -0.00067362    0.00006095   -0.00009526
     atom   43 type  1   force =     0.00021917    0.00092095    0.00051151
     atom   44 type  1   force =    -0.00039024    0.00085029    0.00004356
     atom   45 type  2   force =     0.00002406    0.00003447    0.10302315
     atom   46 type  2   force =    -0.07192031   -0.00007748   -0.02721042
     atom   47 type  2   force =     0.07181145    0.00035307   -0.02729228
     atom   48 type  3   force =     0.00042021   -0.00109491   -0.00016570
     atom   49 type  3   force =    -0.00031590   -0.00004276   -0.00045087
     atom   50 type  4   force =     0.00445601   -0.00148071    0.00672205
     atom   51 type  5   force =    -0.00138363   -0.00011672    0.00010886
     atom   52 type  5   force =    -0.00443801    0.00124191   -0.00682842
     atom   53 type  5   force =     0.00028295    0.00055417   -0.00001937
     atom   54 type  5   force =     0.00065622   -0.00025122    0.00001593
     atom   55 type  5   force =     0.00051698   -0.00058272    0.00007333
     atom   56 type  5   force =     0.00066797   -0.00004745   -0.00002612
     atom   57 type  2   force =     0.00071450   -0.00117380    0.00007032
     atom   58 type  5   force =    -0.00081880    0.00093760    0.00025642

     Total force =     0.362142     Total SCF correction =     0.000594
  @ DRIVER MODE: Message from server: STATUS
  @ DRIVER MODE: Message from server: GETFORCE
  @ DRIVER MODE: Returning v,forces,stress,ensemble

     Writing output data file ./calc.save/
  @ DRIVER MODE: Message from server: EXIT
  @ DRIVE MODE: Exiting

     General routines

     Parallel routines

   This run was terminated on:   1:35:55  24Sep2021

   JOB DONE.