     Program PWSCF v.6.7GPU starts on 23Sep2021 at  5:43:40

     R & G space division:  proc/nbgrp/npool/nimage =       8
     Reading input from /storage/home/hcoda1/3/ntian30/research/carbon/CxH_vib/H2O_calc/ads_slab/CH3NHNHHO_a/out_0019/pw.inp
Warning: card &CELL ignored
Warning: card   CELL_DYNAMICS='IPI', ignored
Warning: card / ignored

     Current dimensions of program PWSCF are:
     Max number of different atomic species (ntypx) = 10
     Max number of k-points (npk) =  40000
     Max angular momentum in pseudopotentials (lmaxx) =  3
     Presently no symmetry can be used with electric field

     Message from routine cell_base_init:
     DEPRECATED: use true lattice parameter, not A to a.u. conversion factor

     IMPORTANT: XC functional enforced from input :
     Exchange-correlation= BEEF-VDW
                           (   1   4  43  14   2   0   0)
     Any further DFT definition will be discarded
     Please, verify this is what you really want

  @ DRIVER MODE: Connecting to
 qe_1139763_2941006.sched-torque.pace.gatech.eduxg38nz0o_scratch
  using UNIX socket
  @ DRIVER MODE: Message from server: STATUS
  @ DRIVER MODE: Message from server: INIT
  @ DRIVER MODE: Receiving replica           0          -1
  @ DRIVER MODE: Receiving encoded integer          25
  @ DRIVER MODE:  SCF:  T  FORCE:  T  STRESS:  F  VC:  F  ENSEMBLE:  F
  @ DRIVER MODE:  SCF:  T  FORCE:  T  STRESS:  F  VC:  F  ENSEMBLE:  F

     Using Slab Decomposition

     bravais-lattice index     =            0
     lattice parameter (alat)  =       1.8897  a.u.
     unit-cell volume          =    6658.9804 (a.u.)^3
     number of atoms/cell      =           57
     number of atomic types    =            5
     number of electrons       =       404.00
     number of Kohn-Sham states=          212
     kinetic-energy cutoff     =      29.3995  Ry
     charge density cutoff     =     293.9946  Ry
     scf convergence threshold =      7.3E-08
     mixing beta               =       0.0500
     number of iterations used =            8  plain     mixing
     Exchange-correlation= BEEF-VDW
                           (   1   4  43  14   2   0   0)

     celldm(1)=   1.889726  celldm(2)=   0.000000  celldm(3)=   0.000000
     celldm(4)=   0.000000  celldm(5)=   0.000000  celldm(6)=   0.000000

     crystal axes: (cart. coord. in units of alat)
               a(1) = (   6.579727   0.000000   0.000000 )
               a(2) = (  -0.000775   5.961596   0.000000 )
               a(3) = (   0.000000   0.000000  25.155947 )

     reciprocal axes: (cart. coord. in units 2 pi/alat)
               b(1) = (  0.151982  0.000020  0.000000 )
               b(2) = (  0.000000  0.167740  0.000000 )
               b(3) = (  0.000000  0.000000  0.039752 )

     PseudoPot. # 1 for Ti read from file:
     /storage/coda1/p-amedford6/0/shared/rich_project_chbe-medford/medford-share/data/pseudos_module/espresso/nninc/pbe/van/Ti.UPF
     MD5 check sum: 8e4df49b7f0d34bbd5052bf3f5ea0213
     Pseudo is Ultrasoft, Zval = 12.0
     Generated by new atomic code, or converted to UPF format
     Using radial grid of  851 points,  6 beta functions with:
                l(1) =   0
                l(2) =   0
                l(3) =   1
                l(4) =   1
                l(5) =   2
                l(6) =   2
     Q(r) pseudized with  8 coefficients,  rinner =    1.000   1.000   1.000
                                                       1.000   1.000

     PseudoPot. # 2 for O  read from file:
     /storage/coda1/p-amedford6/0/shared/rich_project_chbe-medford/medford-share/data/pseudos_module/espresso/nninc/pbe/van/O.UPF
     MD5 check sum: 78c19812648e8988a0fe644b0f25305e
     Pseudo is Ultrasoft, Zval =  6.0
     Generated by new atomic code, or converted to UPF format
     Using radial grid of  737 points,  4 beta functions with:
                l(1) =   0
                l(2) =   0
                l(3) =   1
                l(4) =   1
     Q(r) pseudized with  8 coefficients,  rinner =    0.800   0.800   0.800

     PseudoPot. # 3 for N  read from file:
     /storage/coda1/p-amedford6/0/shared/rich_project_chbe-medford/medford-share/data/pseudos_module/espresso/nninc/pbe/van/N.UPF
     MD5 check sum: 90d10febe142ad51ac9d5be1deb811c4
     Pseudo is Ultrasoft, Zval =  5.0
     Generated by new atomic code, or converted to UPF format
     Using radial grid of  729 points,  4 beta functions with:
                l(1) =   0
                l(2) =   0
                l(3) =   1
                l(4) =   1
     Q(r) pseudized with  8 coefficients,  rinner =    0.800   0.800   0.800

     PseudoPot. # 4 for C  read from file:
     /storage/coda1/p-amedford6/0/shared/rich_project_chbe-medford/medford-share/data/pseudos_module/espresso/nninc/pbe/van/C.UPF
     MD5 check sum: 1a69bf6b8db32088f5b2163dbdb77a27
     Pseudo is Ultrasoft, Zval =  4.0
     Generated by new atomic code, or converted to UPF format
     Using radial grid of  721 points,  4 beta functions with:
                l(1) =   0
                l(2) =   0
                l(3) =   1
                l(4) =   1
     Q(r) pseudized with  8 coefficients,  rinner =    0.800   0.800   0.800

     PseudoPot. # 5 for H  read from file:
     /storage/coda1/p-amedford6/0/shared/rich_project_chbe-medford/medford-share/data/pseudos_module/espresso/nninc/pbe/van/H.UPF
     MD5 check sum: b5ee9d7bfd3a09ee7748110bda690ff7
     Pseudo is Ultrasoft, Zval =  1.0
     Generated by new atomic code, or converted to UPF format
     Using radial grid of  615 points,  1 beta functions with:
                l(1) =   0
     Q(r) pseudized with  8 coefficients,  rinner =    0.800

     atomic species   valence    mass     pseudopotential
        Ti1           12.00    47.86700     Ti( 1.00)
        O1             6.00    15.99900     O ( 1.00)
        N1             5.00    14.00700     N ( 1.00)
        C1             4.00    12.01100     C ( 1.00)
        H1             1.00     1.00800     H ( 1.00)

     No symmetry found

   Cartesian axes

     site n.     atom                  positions (alat units)
         1           Ti1 tau(   1) = (   0.0004258   2.9801865   6.0000000  )
         2           Ti1 tau(   2) = (   3.2906075   1.4906267   6.0002472  )
         3           O1  tau(   3) = (   0.0006271   0.0005054   7.9858123  )
         4           O1  tau(   4) = (   3.2906025   0.0005020   7.3038282  )
         5           O1  tau(   5) = (   4.5942328   1.4918067   9.2879030  )
         6           O1  tau(   6) = (   1.9868534   1.4903216   9.2879459  )
         7           Ti1 tau(   7) = (   3.2907910   2.8959150   9.1758416  )
         8           Ti1 tau(   8) = (   0.0015273   1.4827037   9.2680791  )
         9           O1  tau(   9) = (   3.2953096   5.9421394  11.2884464  )
        10           O1  tau(  10) = (   0.0116148   5.9584955  10.6183126  )
        11           O1  tau(  11) = (   1.3041449   1.4755329  12.6321863  )
        12           O1  tau(  12) = (   5.3089623   1.4871430  12.6059879  )
        13           Ti1 tau(  13) = (   6.5683417   3.1096339  12.6902584  )
        14           Ti1 tau(  14) = (   3.3171551   1.3050273  12.6602886  )
        15           O1  tau(  15) = (   6.5441980   0.0188234  14.6400653  )
        16           O1  tau(  16) = (   3.3305379   0.0354930  13.9003223  )
        17           O1  tau(  17) = (   4.5569828   1.5958521  16.0354584  )
        18           O1  tau(  18) = (   2.0254723   1.5302355  15.9749146  )
        19           Ti1 tau(  19) = (   3.2479256   3.0467527  15.6517507  )
        20           Ti1 tau(  20) = (   6.4631478   1.5268535  15.8454044  )
        21           O1  tau(  21) = (   3.2904802   0.0005063   4.7018136  )
        22           O1  tau(  22) = (   6.5640117   0.0389496  17.1838934  )
        23           O1  tau(  23) = (   1.3043587   1.4918075   6.0039043  )
        24           O1  tau(  24) = (   5.2767064   1.4903225   6.0039473  )
        25           Ti1 tau(  25) = (   0.0000382   5.9609847   6.0000000  )
        26           Ti1 tau(  26) = (   3.2902200   4.4714249   6.0002472  )
        27           O1  tau(  27) = (   0.0002396   2.9813036   7.9858123  )
        28           O1  tau(  28) = (   3.2902150   2.9813002   7.3038282  )
        29           O1  tau(  29) = (   4.5938453   4.4726049   9.2879030  )
        30           O1  tau(  30) = (   1.9864658   4.4711199   9.2879459  )
        31           Ti1 tau(  31) = (   3.2891106   5.8743827   9.1763621  )
        32           Ti1 tau(  32) = (   0.0006254   4.4649316   9.2693709  )
        33           O1  tau(  33) = (   3.2909858   3.0116154  11.2527998  )
        34           O1  tau(  34) = (   0.0092240   2.9805883  10.6323155  )
        35           O1  tau(  35) = (   1.2990260   4.4726261  12.6330189  )
        36           O1  tau(  36) = (   5.2946483   4.4606482  12.6134978  )
        37           Ti1 tau(  37) = (   0.0333947   0.1262769  12.6104238  )
        38           Ti1 tau(  38) = (   3.2900473   4.3917186  12.4086616  )
        39           O1  tau(  39) = (   6.5591047   2.9728048  14.6463482  )
        40           O1  tau(  40) = (   3.3071982   2.9909887  13.8663713  )
        41           O1  tau(  41) = (   4.5374868   4.4330245  16.1128471  )
        42           O1  tau(  42) = (   2.0037144   4.4952966  15.9584979  )
        43           Ti1 tau(  43) = (   3.1911318   0.0573200  16.2061952  )
        44           Ti1 tau(  44) = (   6.5299348   4.6473693  16.0672121  )
        45           O1  tau(  45) = (   3.2900926   2.9813045   4.7018136  )
        46           O1  tau(  46) = (   1.3039711   4.4726057   6.0039043  )
        47           O1  tau(  47) = (   5.2763189   4.4711207   6.0039473  )
        48           N1  tau(  48) = (   1.2509970   2.8552009  18.3001485  )
        49           N1  tau(  49) = (   0.1090600   2.9410495  17.4585617  )
        50           C1  tau(  50) = (   1.1117997   3.5424446  19.5707766  )
        51           H1  tau(  51) = (   0.2596121   3.1616043  20.1716506  )
        52           H1  tau(  52) = (   2.0314425   3.4001925  20.1392599  )
        53           H1  tau(  53) = (   0.9679189   4.6079482  19.3970517  )
        54           H1  tau(  54) = (   1.5306055   1.8840965  18.4148701  )
        55           H1  tau(  55) = (   5.8389999   2.9001924  18.0325661  )
        56           O1  tau(  56) = (   3.2424369   0.1001929  18.0579484  )
        57           H1  tau(  57) = (   3.9792659   5.6040190  18.4897823  )

     number of k points=    10  Fermi-Dirac smearing, width (Ry)=  0.0073
                       cart. coord. in units 2pi/alat
        k(    1) = (   0.0000000   0.0000000   0.0000000), wk =   0.1250000
        k(    2) = (   0.0000000   0.0419351   0.0000000), wk =   0.2500000
        k(    3) = (   0.0000000  -0.0838702   0.0000000), wk =   0.1250000
        k(    4) = (   0.0379955   0.0000049   0.0000000), wk =   0.2500000
        k(    5) = (   0.0379955   0.0419400   0.0000000), wk =   0.2500000
        k(    6) = (   0.0379955  -0.0838652   0.0000000), wk =   0.2500000
        k(    7) = (   0.0379955  -0.0419301   0.0000000), wk =   0.2500000
        k(    8) = (  -0.0759910  -0.0000099   0.0000000), wk =   0.1250000
        k(    9) = (  -0.0759910   0.0419252   0.0000000), wk =   0.2500000
        k(   10) = (  -0.0759910  -0.0838800   0.0000000), wk =   0.1250000

     Initial potential from superposition of free atoms

     starting charge  387.99913, renormalised to  404.00000

     negative rho (up, down):  1.467E-02 0.000E+00

     %%%%%%%%%%%%%%%%%%%%%%%%%%%%%%%%%%%%%%%%%%%%%%%%%%%%%%%%%%%%%%%%%%%%%%%%
     %                                                                      %
     % You are using vdW-DF, which was implemented by the Thonhauser group. %
     % Please cite the following two papers that made this development      %
     % possible and the two reviews that describe the various versions:     %
     %                                                                      %
     %   T. Thonhauser et al., PRL 115, 136402 (2015).                      %
     %   T. Thonhauser et al., PRB 76, 125112 (2007).                       %
     %   K. Berland et al., Rep. Prog. Phys. 78, 066501 (2015).             %
     %   D.C. Langreth et al., J. Phys.: Condens. Matter 21, 084203 (2009). %
     %                                                                      %
     %                                                                      %
     % If you are calculating the stress with vdW-DF, please also cite:     %
     %                                                                      %
     %   R. Sabatini et al., J. Phys.: Condens. Matter 24, 424209 (2012).   %
     %                                                                      %
     %%%%%%%%%%%%%%%%%%%%%%%%%%%%%%%%%%%%%%%%%%%%%%%%%%%%%%%%%%%%%%%%%%%%%%%%

     Adding external electric field

     Computed dipole along edir(3) :
        Dipole              -12.7315 Ry au,        -32.3602 Debye
        Dipole field         -0.0240 Ry au,

        Potential amp.        2.2272 Ry
        Total length         46.3494 bohr

     Starting wfcs are  306 atomic wfcs
  @ DRIVER MODE: Message from server: STATUS
  @ DRIVER MODE: Message from server: POSDATA
  @ DRIVER MODE: Reading and sharing cell
  @ DRIVER MODE: Reading and sharing positions
  @ DRIVER MODE: Received positions

     Self-consistent Calculation

     iteration #  1     ecut=    29.40 Ry     beta= 0.05
     Davidson diagonalization with overlap
     c_bands:  4 eigenvalues not converged
     c_bands:  5 eigenvalues not converged
     c_bands:  5 eigenvalues not converged
     c_bands:  5 eigenvalues not converged
     c_bands:  1 eigenvalues not converged
     c_bands:  3 eigenvalues not converged
     c_bands:  4 eigenvalues not converged
     c_bands:  4 eigenvalues not converged
     ethr =  1.00E-05,  avg # of iterations = 24.4

[...]

     total energy              =   -2345.48429521 Ry
     estimated scf accuracy    <    7121.28589652 Ry

     iteration #  2     ecut=    29.40 Ry     beta= 0.05
     Davidson diagonalization with overlap
     ethr =  1.00E-02,  avg # of iterations = 24.7

[...]

     iteration # 53     ecut=    29.40 Ry     beta= 0.05
     Davidson diagonalization with overlap
     c_bands:  1 eigenvalues not converged
     c_bands:  1 eigenvalues not converged
     ethr =  1.09E-07,  avg # of iterations =  9.0

[...]

     total energy              =   -2975.25032203 Ry
     estimated scf accuracy    <       0.00000011 Ry

     iteration # 69     ecut=    29.40 Ry     beta= 0.05
     Davidson diagonalization with overlap
     ethr =  2.68E-11,  avg # of iterations =  5.6

     negative rho (up, down):  1.541E-02 0.000E+00

     Adding external electric field

     Computed dipole along edir(3) :
        Dipole                0.5336 Ry au,          1.3564 Debye
        Dipole field          0.0010 Ry au,

        Potential amp.       -0.0934 Ry
        Total length         46.3494 bohr

     End of self-consistent calculation

          k = 0.0000 0.0000 0.0000 ( 18029 PWs)   bands (ev):

   -56.4290 -56.3953 -55.7731 -55.7382 -55.5413 -55.4803 -55.3673 -55.2121
   -55.2085 -55.1403 -55.1050 -55.0918 -55.0579 -55.0515 -54.9861 -54.8664
   -32.8620 -32.7134 -32.6853 -32.5966 -32.5053 -32.4876 -32.2532 -32.0195
   -31.9925 -31.9697 -31.9168 -31.9113 -31.8817 -31.7694 -31.7574 -31.7471
   -31.7063 -31.6973 -31.6825 -31.6423 -31.6353 -31.6256 -31.5763 -31.5558
   -31.5152 -31.4839 -31.4822 -31.4317 -31.4184 -31.4118 -31.4076 -31.3872
   -31.3679 -31.3676 -31.3308 -31.3126 -31.3067 -31.3021 -31.2834 -31.2386
   -31.2358 -31.2192 -31.2063 -31.1859 -31.1146 -31.1104 -31.1075 -31.0595
   -16.6187 -16.5705 -16.1907 -16.1738 -15.8669 -15.8028 -15.7775 -15.7427
   -15.6810 -15.5572 -15.4398 -15.3943 -15.3861 -15.3379 -15.1786 -15.0814
   -14.9860 -14.9142 -14.9068 -14.8598 -14.8517 -14.8219 -14.8109 -14.8030
   -14.7369 -14.7021 -14.5940 -14.5487 -14.4529 -14.2582 -14.1791 -13.5895
   -13.4796 -11.5328  -8.6506  -5.0359  -4.2499  -4.1694  -3.7816  -3.6944
    -3.5203  -3.4412  -3.2942  -3.2638  -3.1751  -3.0745  -3.0130  -2.9558
    -2.9448  -2.8397  -2.6911  -2.6393  -2.6344  -2.6115  -2.6051  -2.5097
    -2.4456  -2.4123  -2.3441  -2.2748  -2.2424  -2.1570  -2.1519  -2.1263
    -2.1053  -2.0762  -2.0285  -1.9791  -1.9560  -1.9354  -1.8247  -1.7828
    -1.7561  -1.7112  -1.6797  -1.6054  -1.5696  -1.5230  -1.4443  -1.3844
    -1.2616  -1.2352  -1.1695  -1.1554  -1.1259  -0.9998  -0.9630  -0.9285
    -0.8673  -0.8337  -0.7686  -0.7453  -0.7129  -0.6747  -0.6662  -0.6263
    -0.5197  -0.4902  -0.3638  -0.3465  -0.2936  -0.2233  -0.2138  -0.1592
    -0.1376  -0.1010  -0.0561  -0.0200   0.0228   0.0918   0.1294   0.2170
     0.2603   0.3234   0.4191   0.4483   0.4698   0.5327   0.5504   0.5837
     0.6293   0.7229   0.7318   0.7928   0.8687   0.9136   0.9312   0.9925
     1.0522   1.0716   1.1700   1.1978   1.2089   1.2643   1.4712   1.5115
     1.6893   2.4452   2.8354   2.9821   3.2679   3.2996   3.5598   3.7946
     3.8246   3.8267   3.9096   4.0127

[...]

          k = 0.0380-0.0419 0.0000 ( 17876 PWs)   bands (ev):

[...]

          k =-0.0760-0.0000 0.0000 ( 17886 PWs)   bands (ev):

[...]

          k =-0.0760-0.0839 0.0000 ( 17948 PWs)   bands (ev):

   -56.4123 -56.4119 -55.7603 -55.7508 -55.5362 -55.4854 -55.3659 -55.2133
   -55.2038 -55.1447 -55.1028 -55.0754 -55.0742 -55.0501 -54.9884 -54.8677
   -32.6992 -32.6988 -32.6790 -32.6783 -32.5495 -32.5493 -32.0783 -32.0699
   -31.9544 -31.9470 -31.9432 -31.9408 -31.8393 -31.8005 -31.7635 -31.7552
   -31.7109 -31.7056 -31.6654 -31.6163 -31.5838 -31.5651 -31.5411 -31.5007
   -31.4887 -31.4858 -31.4353 -31.4333 -31.4210 -31.4202 -31.4177 -31.3973
   -31.3840 -31.3579 -31.3364 -31.3243 -31.3108 -31.2999 -31.2986 -31.2981
   -31.2614 -31.2604 -31.2429 -31.2358 -31.1929 -31.1768 -31.1158 -31.0910
   -16.5455 -16.1766 -15.9995 -15.9955 -15.9160 -15.9134 -15.7053 -15.6997
   -15.5288 -15.4996 -15.4248 -15.3068 -15.2552 -15.1988 -15.1906 -15.1485
   -15.0938 -15.0746 -15.0315 -15.0147 -14.9518 -14.9082 -14.8598 -14.8140
   -14.7950 -14.7561 -14.6353 -14.5864 -14.5794 -14.3925 -14.3598 -13.5836
   -13.5829 -11.5394  -8.6573  -5.0441  -4.2474  -3.7527  -3.3919  -3.1015
    -3.0834  -3.0379  -3.0288  -2.8131  -2.7925  -2.7669  -2.6938  -2.6810
    -2.6310  -2.6238  -2.5319  -2.4912  -2.4491  -2.4346  -2.4201  -2.3649
    -2.3376  -2.2935  -2.2901  -2.2541  -2.2186  -2.1850  -2.1588  -2.1166
    -2.0946  -2.0810  -2.0417  -2.0110  -1.9834  -1.9337  -1.9135  -1.8815
    -1.8721  -1.8499  -1.6923  -1.6388  -1.5832  -1.5407  -1.5103  -1.4439
    -1.4339  -1.3783  -1.3196  -1.2860  -1.2579  -1.2396  -1.1526  -1.1217
    -1.1053  -1.0696  -1.0274  -0.9670  -0.9084  -0.8600  -0.7830  -0.6888
    -0.6601  -0.6427  -0.6155  -0.6079  -0.5669  -0.5147  -0.4263  -0.3742
    -0.3222  -0.3054  -0.2619  -0.2560  -0.2253  -0.1882  -0.1189   0.0036
     0.0691   0.1049   0.1603   0.2164   0.2728   0.3370   0.3798   0.4612
     0.5403   0.5617   0.6477   0.6812   0.8052   0.8477   0.9637   1.0047
     1.0423   1.0868   1.1561   1.2536   1.2787   1.3223   1.3241   1.3409
     1.3554   2.4709   3.4022   3.4052   3.4556   3.4631   3.7376   3.7457
     3.8793   3.8811   4.0056   4.0183

     the Fermi energy is     2.7166 ev

!    total energy              =   -2975.25035598 Ry
     estimated scf accuracy    <       0.00000007 Ry
     smearing contrib. (-TS)   =      -0.00754660 Ry
     internal energy E=F+TS    =   -2975.24280938 Ry

     The total energy is F=E-TS. E is the sum of the following terms:
     one-electron contribution =  -23773.49677551 Ry
     hartree contribution      =   11982.36533963 Ry
     xc contribution           =    -494.80391871 Ry
     ewald contribution        =    9310.69200781 Ry
     electric field correction =       0.00053740 Ry

     convergence has been achieved in  69 iterations

     Forces acting on atoms (cartesian axes, Ry/au):

     atom    1 type  1   force =     0.00001692   -0.00034841    0.11625355
     atom    2 type  1   force =    -0.00014305    0.00031337   -0.16022091
     atom    3 type  2   force =     0.00004533    0.00032566   -0.05318384
     atom    4 type  2   force =     0.00007173   -0.00041791    0.02651325
     atom    5 type  2   force =    -0.00501733   -0.00226048   -0.01003086
     atom    6 type  2   force =     0.00670065   -0.00183413   -0.01076234
     atom    7 type  1   force =    -0.00038539   -0.00639846    0.04568866
     atom    8 type  1   force =     0.00057212    0.01078872    0.08182789
     atom    9 type  2   force =    -0.00001655    0.00035691   -0.00014542
     atom   10 type  2   force =    -0.00140062    0.00154883   -0.05455625
     atom   11 type  2   force =     0.00073988    0.00028361   -0.00023171
     atom   12 type  2   force =    -0.00116035    0.00020890    0.00018686
     atom   13 type  1   force =    -0.00022055   -0.00091588    0.00041679
     atom   14 type  1   force =     0.00047420    0.00123302   -0.00024892
     atom   15 type  2   force =     0.00000289   -0.00052308    0.00039938
     atom   16 type  2   force =    -0.00030153    0.00060013    0.00095223
     atom   17 type  2   force =    -0.00071421   -0.00044340    0.00018213
     atom   18 type  2   force =     0.00073700   -0.00018689    0.00021123
     atom   19 type  1   force =    -0.00058410   -0.00054816   -0.00045591
     atom   20 type  1   force =     0.00037099   -0.00040718   -0.00027603
     atom   21 type  2   force =     0.00007628    0.00015025    0.09917256
     atom   22 type  2   force =     0.00029412   -0.00042541    0.00075403
     atom   23 type  2   force =    -0.07951059   -0.00002262   -0.03162910
     atom   24 type  2   force =     0.07943100    0.00040744   -0.03166391
     atom   25 type  1   force =     0.00017644   -0.00036910    0.11649208
     atom   26 type  1   force =    -0.00009092   -0.00142051   -0.16035561
     atom   27 type  2   force =     0.00013491   -0.00011807   -0.05156984
     atom   28 type  2   force =     0.00003097    0.00129561    0.02170300
     atom   29 type  2   force =    -0.00383383    0.00422717   -0.01242985
     atom   30 type  2   force =     0.00541740    0.00483891   -0.01302168
     atom   31 type  1   force =    -0.00015063    0.00313550    0.03066733
     atom   32 type  1   force =     0.00051444   -0.01302030    0.08269860
     atom   33 type  2   force =     0.00017955   -0.00051216    0.00023840
     atom   34 type  2   force =    -0.00049738    0.00168222   -0.06792241
     atom   35 type  2   force =    -0.00043795   -0.00064262   -0.00009582
     atom   36 type  2   force =     0.00006315   -0.00002483   -0.00001441
     atom   37 type  1   force =    -0.00012787   -0.00122276   -0.00014064
     atom   38 type  1   force =     0.00047686   -0.00032646    0.00016272
     atom   39 type  2   force =     0.00015667    0.00034557   -0.00004016
     atom   40 type  2   force =    -0.00012774   -0.00023622    0.00021261
     atom   41 type  2   force =     0.00113470   -0.00004058    0.00017904
     atom   42 type  2   force =    -0.00103843   -0.00039181    0.00022844
     atom   43 type  1   force =     0.00011738   -0.00079078    0.00006477
     atom   44 type  1   force =     0.00041660    0.00065590   -0.00041890
     atom   45 type  2   force =     0.00007286   -0.00002869    0.09899904
     atom   46 type  2   force =    -0.07952521   -0.00001391   -0.03164719
     atom   47 type  2   force =     0.07946373    0.00043074   -0.03166741
     atom   48 type  3   force =    -0.00089442    0.00056929   -0.00032462
     atom   49 type  3   force =    -0.00088312    0.00027159   -0.00018859
     atom   50 type  4   force =    -0.00706281   -0.00162221    0.00286494
     atom   51 type  5   force =     0.00599119    0.00275717   -0.00391721
     atom   52 type  5   force =    -0.00075267   -0.00084739    0.00071010
     atom   53 type  5   force =     0.00060757    0.00025834   -0.00066646
     atom   54 type  5   force =    -0.00010278   -0.00162564    0.00011662
     atom   55 type  5   force =    -0.00049441    0.00010611    0.00041696
     atom   56 type  2   force =     0.00111885   -0.00022835   -0.00006218
     atom   57 type  5   force =    -0.00013194    0.00142343   -0.00042503

     Total force =     0.399250     Total SCF correction =     0.000605
  @ DRIVER MODE: Message from server: STATUS
  @ DRIVER MODE: Message from server: GETFORCE
  @ DRIVER MODE: Returning v,forces,stress,ensemble

     Writing output data file ./calc.save/
  @ DRIVER MODE: Message from server: EXIT
  @ DRIVE MODE: Exiting

     General routines

     Parallel routines

   This run was terminated on:   6: 7:33  23Sep2021

   JOB DONE.