     Program PWSCF v.6.7GPU starts on 23Aug2021 at 20:20:25

     R & G space division:  proc/nbgrp/npool/nimage =       6
     Reading input from /storage/home/hcoda1/3/ntian30/research/carbon/CH_vib/ads_slab/CHN2_a/out_0015/pw.inp
Warning: card &CELL ignored
Warning: card   CELL_DYNAMICS='IPI', ignored
Warning: card / ignored

     Current dimensions of program PWSCF are:
     Max number of different atomic species (ntypx) = 10
     Max number of k-points (npk) =  40000
     Max angular momentum in pseudopotentials (lmaxx) =  3
     Presently no symmetry can be used with electric field

     Message from routine cell_base_init:
     DEPRECATED: use true lattice parameter, not A to a.u. conversion factor

     IMPORTANT: XC functional enforced from input :
     Exchange-correlation= BEEF-VDW
                           (   1   4  43  14   2   0   0)
     Any further DFT definition will be discarded
     Please, verify this is what you really want

  @ DRIVER MODE: Connecting to
 qe_1139763_2632791.sched-torque.pace.gatech.edu035grguw_scratch
  using UNIX socket
  @ DRIVER MODE: Message from server: STATUS
  @ DRIVER MODE: Message from server: INIT
  @ DRIVER MODE: Receiving replica           0          -1
  @ DRIVER MODE: Receiving encoded integer          25
  @ DRIVER MODE:  SCF:  T  FORCE:  T  STRESS:  F  VC:  F  ENSEMBLE:  F
  @ DRIVER MODE:  SCF:  T  FORCE:  T  STRESS:  F  VC:  F  ENSEMBLE:  F

     Using Slab Decomposition

     bravais-lattice index     =            0
     lattice parameter (alat)  =       1.8897  a.u.
     unit-cell volume          =    6658.9804 (a.u.)^3
     number of atoms/cell      =           51
     number of atomic types    =            5
     number of electrons       =       393.00
     number of Kohn-Sham states=          206
     kinetic-energy cutoff     =      29.3995  Ry
     charge density cutoff     =     293.9946  Ry
     scf convergence threshold =      7.3E-08
     mixing beta               =       0.0500
     number of iterations used =            8  plain     mixing
     Exchange-correlation= BEEF-VDW
                           (   1   4  43  14   2   0   0)

     celldm(1)=   1.889726  celldm(2)=   0.000000  celldm(3)=   0.000000
     celldm(4)=   0.000000  celldm(5)=   0.000000  celldm(6)=   0.000000

     crystal axes: (cart. coord. in units of alat)
               a(1) = (   6.579727   0.000000   0.000000 )
               a(2) = (  -0.000775   5.961596   0.000000 )
               a(3) = (   0.000000   0.000000  25.155947 )

     reciprocal axes: (cart. coord. in units 2 pi/alat)
               b(1) = (  0.151982  0.000020  0.000000 )
               b(2) = (  0.000000  0.167740  0.000000 )
               b(3) = (  0.000000  0.000000  0.039752 )

     PseudoPot. # 1 for Ti read from file:
     /storage/coda1/p-amedford6/0/shared/rich_project_chbe-medford/medford-share/data/pseudos_module/espresso/nninc/pbe/van/Ti.UPF
     MD5 check sum: 8e4df49b7f0d34bbd5052bf3f5ea0213
     Pseudo is Ultrasoft, Zval = 12.0
     Generated by new atomic code, or converted to UPF format
     Using radial grid of  851 points,  6 beta functions with:
                l(1) =   0
                l(2) =   0
                l(3) =   1
                l(4) =   1
                l(5) =   2
                l(6) =   2
     Q(r) pseudized with  8 coefficients,  rinner =    1.000   1.000   1.000
                                                       1.000   1.000

     PseudoPot. # 2 for O  read from file:
     /storage/coda1/p-amedford6/0/shared/rich_project_chbe-medford/medford-share/data/pseudos_module/espresso/nninc/pbe/van/O.UPF
     MD5 check sum: 78c19812648e8988a0fe644b0f25305e
     Pseudo is Ultrasoft, Zval =  6.0
     Generated by new atomic code, or converted to UPF format
     Using radial grid of  737 points,  4 beta functions with:
                l(1) =   0
                l(2) =   0
                l(3) =   1
                l(4) =   1
     Q(r) pseudized with  8 coefficients,  rinner =    0.800   0.800   0.800

     PseudoPot. # 3 for N  read from file:
     /storage/coda1/p-amedford6/0/shared/rich_project_chbe-medford/medford-share/data/pseudos_module/espresso/nninc/pbe/van/N.UPF
     MD5 check sum: 90d10febe142ad51ac9d5be1deb811c4
     Pseudo is Ultrasoft, Zval =  5.0
     Generated by new atomic code, or converted to UPF format
     Using radial grid of  729 points,  4 beta functions with:
                l(1) =   0
                l(2) =   0
                l(3) =   1
                l(4) =   1
     Q(r) pseudized with  8 coefficients,  rinner =    0.800   0.800   0.800

     PseudoPot. # 4 for C  read from file:
     /storage/coda1/p-amedford6/0/shared/rich_project_chbe-medford/medford-share/data/pseudos_module/espresso/nninc/pbe/van/C.UPF
     MD5 check sum: 1a69bf6b8db32088f5b2163dbdb77a27
     Pseudo is Ultrasoft, Zval =  4.0
     Generated by new atomic code, or converted to UPF format
     Using radial grid of  721 points,  4 beta functions with:
                l(1) =   0
                l(2) =   0
                l(3) =   1
                l(4) =   1
     Q(r) pseudized with  8 coefficients,  rinner =    0.800   0.800   0.800

     PseudoPot. # 5 for H  read from file:
     /storage/coda1/p-amedford6/0/shared/rich_project_chbe-medford/medford-share/data/pseudos_module/espresso/nninc/pbe/van/H.UPF
     MD5 check sum: b5ee9d7bfd3a09ee7748110bda690ff7
     Pseudo is Ultrasoft, Zval =  1.0
     Generated by new atomic code, or converted to UPF format
     Using radial grid of  615 points,  1 beta functions with:
                l(1) =   0
     Q(r) pseudized with  8 coefficients,  rinner =    0.800

     atomic species   valence    mass     pseudopotential
        Ti1           12.00    47.86700     Ti( 1.00)
        O1             6.00    15.99900     O ( 1.00)
        N1             5.00    14.00700     N ( 1.00)
        C1             4.00    12.01100     C ( 1.00)
        H1             1.00     1.00800     H ( 1.00)

     No symmetry found

   Cartesian axes

     site n.     atom                  positions (alat units)
         1           Ti1 tau(   1) = (   0.0004258   2.9801865   6.0000000  )
         2           Ti1 tau(   2) = (   3.2906075   1.4906267   6.0002472  )
         3           O1  tau(   3) = (   0.0006271   0.0005054   7.9858123  )
         4           O1  tau(   4) = (   3.2906025   0.0005020   7.3038282  )
         5           O1  tau(   5) = (   4.5942328   1.4918067   9.2879030  )
         6           O1  tau(   6) = (   1.9868534   1.4903216   9.2879459  )
         7           Ti1 tau(   7) = (   3.2907910   2.8959150   9.1758416  )
         8           Ti1 tau(   8) = (   0.0015273   1.4827037   9.2680791  )
         9           O1  tau(   9) = (   3.3035207   5.9473585  11.3310231  )
        10           O1  tau(  10) = (   0.0116148   5.9584955  10.6183126  )
        11           O1  tau(  11) = (   1.3208475   1.4758257  12.6111770  )
        12           O1  tau(  12) = (   5.3082752   1.4698866  12.6250687  )
        13           Ti1 tau(  13) = (   6.5356446   2.9641997  12.6185077  )
        14           Ti1 tau(  14) = (   3.2189969   1.4721334  12.4835407  )
        15           O1  tau(  15) = (   0.0393797   5.9575543  14.6615593  )
        16           O1  tau(  16) = (   3.2985004   5.9511915  13.9168519  )
        17           O1  tau(  17) = (   4.5692420   1.4945533  16.0479082  )
        18           O1  tau(  18) = (   2.0930108   1.4957509  16.0624375  )
        19           Ti1 tau(  19) = (   3.3255584   2.9801015  15.7018593  )
        20           Ti1 tau(  20) = (   6.5669960   1.4976744  15.8335939  )
        21           O1  tau(  21) = (   3.2904802   0.0005063   4.7018136  )
        22           O1  tau(  22) = (   0.0392190   0.0140749  17.2134629  )
        23           O1  tau(  23) = (   1.3043587   1.4918075   6.0039043  )
        24           O1  tau(  24) = (   5.2767064   1.4903225   6.0039473  )
        25           Ti1 tau(  25) = (   0.0000382   5.9609847   6.0000000  )
        26           Ti1 tau(  26) = (   3.2902200   4.4714249   6.0002472  )
        27           O1  tau(  27) = (   0.0002396   2.9813036   7.9858123  )
        28           O1  tau(  28) = (   3.2902150   2.9813002   7.3038282  )
        29           O1  tau(  29) = (   4.5938453   4.4726049   9.2879030  )
        30           O1  tau(  30) = (   1.9864658   4.4711199   9.2879459  )
        31           Ti1 tau(  31) = (   3.2891106   5.8743827   9.1763621  )
        32           Ti1 tau(  32) = (   0.0006254   4.4649316   9.2693709  )
        33           O1  tau(  33) = (   3.3031456   2.9698018  11.3313920  )
        34           O1  tau(  34) = (   0.0092240   2.9805883  10.6323155  )
        35           O1  tau(  35) = (   1.3161540   4.4602657  12.6201046  )
        36           O1  tau(  36) = (   5.3094940   4.4638127  12.6365964  )
        37           Ti1 tau(  37) = (   6.5345696   5.9399333  12.5489351  )
        38           Ti1 tau(  38) = (   3.2177077   4.4523588  12.4826418  )
        39           O1  tau(  39) = (   0.0172592   2.9259015  14.6604509  )
        40           O1  tau(  40) = (   3.3090452   2.9742471  13.9045505  )
        41           O1  tau(  41) = (   4.5663562   4.4668710  16.0744231  )
        42           O1  tau(  42) = (   2.0880155   4.4652721  16.0825153  )
        43           Ti1 tau(  43) = (   3.2840513   5.9573583  15.7162584  )
        44           Ti1 tau(  44) = (   0.0037803   4.6334615  16.1183230  )
        45           O1  tau(  45) = (   3.2900926   2.9813045   4.7018136  )
        46           O1  tau(  46) = (   1.3039711   4.4726057   6.0039043  )
        47           O1  tau(  47) = (   5.2763189   4.4711207   6.0039473  )
        48           N1  tau(  48) = (   0.6403421   2.7964730  18.4694378  )
        49           C1  tau(  49) = (   1.0548146   2.6213466  19.5673862  )
        50           H1  tau(  50) = (   1.9720372   2.4538087  20.0927579  )
        51           N1  tau(  51) = (   0.0785678   2.9476959  17.3929364  )

     number of k points=    10  Fermi-Dirac smearing, width (Ry)=  0.0073
                       cart. coord. in units 2pi/alat
        k(    1) = (   0.0000000   0.0000000   0.0000000), wk =   0.1250000
        k(    2) = (   0.0000000   0.0419351   0.0000000), wk =   0.2500000
        k(    3) = (   0.0000000  -0.0838702   0.0000000), wk =   0.1250000
        k(    4) = (   0.0379955   0.0000049   0.0000000), wk =   0.2500000
        k(    5) = (   0.0379955   0.0419400   0.0000000), wk =   0.2500000
        k(    6) = (   0.0379955  -0.0838652   0.0000000), wk =   0.2500000
        k(    7) = (   0.0379955  -0.0419301   0.0000000), wk =   0.2500000
        k(    8) = (  -0.0759910  -0.0000099   0.0000000), wk =   0.1250000
        k(    9) = (  -0.0759910   0.0419252   0.0000000), wk =   0.2500000
        k(   10) = (  -0.0759910  -0.0838800   0.0000000), wk =   0.1250000

     Initial potential from superposition of free atoms

     starting charge  376.99918, renormalised to  393.00000

     negative rho (up, down):  1.612E-02 0.000E+00

     %%%%%%%%%%%%%%%%%%%%%%%%%%%%%%%%%%%%%%%%%%%%%%%%%%%%%%%%%%%%%%%%%%%%%%%%
     %                                                                      %
     % You are using vdW-DF, which was implemented by the Thonhauser group. %
     % Please cite the following two papers that made this development      %
     % possible and the two reviews that describe the various versions:     %
     %                                                                      %
     %   T. Thonhauser et al., PRL 115, 136402 (2015).                      %
     %   T. Thonhauser et al., PRB 76, 125112 (2007).                       %
     %   K. Berland et al., Rep. Prog. Phys. 78, 066501 (2015).             %
     %   D.C. Langreth et al., J. Phys.: Condens. Matter 21, 084203 (2009). %
     %                                                                      %
     %                                                                      %
     % If you are calculating the stress with vdW-DF, please also cite:     %
     %                                                                      %
     %   R. Sabatini et al., J. Phys.: Condens. Matter 24, 424209 (2012).   %
     %                                                                      %
     %%%%%%%%%%%%%%%%%%%%%%%%%%%%%%%%%%%%%%%%%%%%%%%%%%%%%%%%%%%%%%%%%%%%%%%%

     Adding external electric field

     Computed dipole along edir(3) :
        Dipole               -7.3725 Ry au,        -18.7391 Debye
        Dipole field         -0.0139 Ry au,

        Potential amp.        1.2897 Ry
        Total length         46.3494 bohr

     Starting wfcs are  297 atomic wfcs
  @ DRIVER MODE: Message from server: STATUS
  @ DRIVER MODE: Message from server: POSDATA
  @ DRIVER MODE: Reading and sharing cell
  @ DRIVER MODE: Reading and sharing positions
  @ DRIVER MODE: Received positions

     Self-consistent Calculation

     iteration #  1     ecut=    29.40 Ry     beta= 0.05
     Davidson diagonalization with overlap
     c_bands:  1 eigenvalues not converged
     c_bands:  1 eigenvalues not converged
     c_bands:  1 eigenvalues not converged
     c_bands:  1 eigenvalues not converged
     ethr =  1.00E-05,  avg # of iterations = 18.6

[...]

     total energy              =   -2707.99172176 Ry
     estimated scf accuracy    <    2533.40307370 Ry

[...]

     iteration #  3     ecut=    29.40 Ry     beta= 0.05
     Davidson diagonalization with overlap
     ethr =  1.00E-02,  avg # of iterations = 15.8

[...]

     iteration # 67     ecut=    29.40 Ry     beta= 0.05
     Davidson diagonalization with overlap
     c_bands:  1 eigenvalues not converged
     ethr =  1.87E-10,  avg # of iterations = 10.3

[...]

     total energy              =   -2936.63873054 Ry
     estimated scf accuracy    <       0.00000008 Ry

     iteration # 73     ecut=    29.40 Ry     beta= 0.05
     Davidson diagonalization with overlap
     ethr =  1.93E-11,  avg # of iterations =  3.6

     negative rho (up, down):  1.642E-02 0.000E+00

     Adding external electric field

     Computed dipole along edir(3) :
        Dipole                0.6631 Ry au,          1.6854 Debye
        Dipole field          0.0013 Ry au,

        Potential amp.       -0.1160 Ry
        Total length         46.3494 bohr

     End of self-consistent calculation

          k = 0.0000 0.0000 0.0000 ( 18029 PWs)   bands (ev):

   -55.9514 -55.9466 -55.9173 -55.9106 -55.8142 -55.8104 -55.7791 -55.7741
   -55.7622 -55.7283 -55.7281 -55.6945 -55.5062 -55.2843 -54.9303 -54.8963
   -32.5009 -32.4342 -32.3132 -32.2714 -32.2612 -32.2540 -32.2441 -32.2190
   -32.1945 -32.1717 -32.1487 -32.1408 -32.1263 -32.1037 -32.0982 -32.0863
   -32.0561 -32.0501 -32.0450 -32.0196 -32.0157 -32.0086 -31.9877 -31.9685
   -31.9592 -31.9516 -31.9515 -31.9491 -31.9394 -31.9301 -31.9258 -31.9034
   -31.8931 -31.8814 -31.8787 -31.8691 -31.8405 -31.7348 -31.7256 -31.5555
   -31.5198 -31.5039 -31.3375 -31.2491 -31.2267 -31.1543 -31.0678 -30.9567
   -19.3007 -16.7003 -16.4301 -16.1969 -16.1065 -16.0824 -15.9619 -15.7976
   -15.6787 -15.6229 -15.5221 -15.5173 -15.4889 -15.4567 -15.4366 -15.4242
   -15.3996 -15.3960 -15.3728 -15.3591 -15.3140 -15.2932 -15.2770 -15.1835
   -15.1297 -15.0872 -15.0522 -15.0273 -15.0116 -14.5558 -14.0063 -13.4329
   -13.3164  -6.7559  -5.2420  -4.2816  -4.0730  -4.0563  -3.9159  -3.8587
    -3.8099  -3.7054  -3.5690  -3.5031  -3.1920  -3.1359  -3.1210  -3.1051
    -3.0733  -2.8596  -2.8051  -2.7675  -2.7405  -2.7304  -2.7220  -2.7164
    -2.7000  -2.6724  -2.5661  -2.4950  -2.4203  -2.4106  -2.3535  -2.3507
    -2.2646  -2.2415  -2.2192  -2.1976  -2.1932  -2.1829  -2.1563  -2.1348
    -2.0092  -1.9386  -1.8276  -1.7593  -1.7241  -1.5611  -1.5437  -1.4162
    -1.4124  -1.3807  -1.3450  -1.3271  -1.2531  -1.1537  -1.1192  -1.1037
    -1.0575  -0.9743  -0.9278  -0.8466  -0.8018  -0.7760  -0.7234  -0.7155
    -0.7073  -0.6608  -0.5090  -0.4330  -0.3793  -0.3661  -0.3316  -0.2583
    -0.2327  -0.1498  -0.1069  -0.0822  -0.0726  -0.0187   0.0209   0.0343
     0.0479   0.0571   0.0676   0.2457   0.2946   0.3195   0.3726   0.3938
     0.5719   0.6030   0.7024   0.7915   1.0181   1.0917   1.1709   1.2723
     1.2837   1.4895   1.6630   1.7086   3.1792   3.2690   3.3105   3.3153
     3.4210   3.4868   3.6341   3.6553   3.6796   3.7225

[...]

          k = 0.0380-0.0419 0.0000 ( 17876 PWs)   bands (ev):

[...]

          k =-0.0760-0.0000 0.0000 ( 17886 PWs)   bands (ev):

[...]

          k =-0.0760-0.0839 0.0000 ( 17948 PWs)   bands (ev):

   -55.9348 -55.9338 -55.9293 -55.9277 -55.8003 -55.7976 -55.7929 -55.7867
   -55.7459 -55.7440 -55.7129 -55.7100 -55.5050 -55.2854 -54.9133 -54.9132
   -32.3042 -32.3033 -32.2498 -32.2491 -32.2299 -32.2290 -32.2044 -32.2030
   -32.1588 -32.1545 -32.1337 -32.1308 -32.0838 -32.0808 -32.0785 -32.0719
   -32.0662 -32.0588 -32.0544 -32.0534 -32.0514 -32.0484 -32.0164 -32.0064
   -32.0055 -31.9933 -31.9877 -31.9767 -31.9467 -31.9460 -31.9438 -31.9414
   -31.9274 -31.9258 -31.9225 -31.9198 -31.8798 -31.7372 -31.7226 -31.6243
   -31.5297 -31.5202 -31.2395 -31.2394 -31.1503 -31.1502 -31.1111 -31.1111
   -19.2979 -16.1325 -16.1104 -15.9067 -15.8712 -15.8659 -15.8537 -15.7434
   -15.6658 -15.6478 -15.6456 -15.5750 -15.5482 -15.5295 -15.4922 -15.4871
   -15.4733 -15.4699 -15.4387 -15.4165 -15.4096 -15.3921 -15.3841 -15.3065
   -15.2712 -15.2667 -15.2461 -15.1350 -14.9961 -14.7353 -14.0122 -13.4183
   -13.4181  -6.7551  -5.2115  -4.2499  -4.0466  -3.4224  -3.3975  -3.1476
    -3.1110  -3.1027  -3.0465  -2.8745  -2.8582  -2.8431  -2.8175  -2.7862
    -2.7805  -2.7741  -2.7603  -2.7417  -2.7067  -2.6737  -2.6484  -2.6256
    -2.6208  -2.6113  -2.5809  -2.5674  -2.5419  -2.5228  -2.5001  -2.4842
    -2.4701  -2.4597  -2.2795  -2.1945  -2.1582  -2.0944  -2.0852  -2.0609
    -2.0174  -2.0089  -1.9895  -1.9436  -1.8085  -1.6957  -1.6547  -1.6363
    -1.5588  -1.5210  -1.4464  -1.3833  -1.3431  -1.3349  -1.2862  -1.2222
    -1.1756  -1.1591  -1.1003  -1.0678  -1.0191  -1.0024  -0.9535  -0.9133
    -0.9092  -0.8337  -0.7803  -0.7603  -0.7230  -0.7185  -0.6798  -0.6245
    -0.6076  -0.5738  -0.4567  -0.4319  -0.3208  -0.2403  -0.1904   0.0088
     0.0826   0.1196   0.1739   0.2398   0.3215   0.3437   0.3554   0.3657
     0.4170   0.4671   0.5751   0.5863   0.6209   0.7450   1.1831   1.4036
     1.4555   1.4561   1.5284   1.5286   3.4809   3.4979   3.5205   3.5355
     3.6887   3.6939   3.7156   3.7163   3.8435   3.8621

     the Fermi energy is     3.1811 ev

!    total energy              =   -2936.63875863 Ry
     estimated scf accuracy    <       0.00000006 Ry
     smearing contrib. (-TS)   =      -0.02150089 Ry
     internal energy E=F+TS    =   -2936.61725774 Ry

     The total energy is F=E-TS. E is the sum of the following terms:
     one-electron contribution =  -24412.57821264 Ry
     hartree contribution      =   12291.64497712 Ry
     xc contribution           =    -483.59043036 Ry
     ewald contribution        =    9667.90557842 Ry
     electric field correction =       0.00082971 Ry

     convergence has been achieved in  73 iterations

     Forces acting on atoms (cartesian axes, Ry/au):

     atom    1 type  1   force =     0.00001074   -0.00025046    0.09652247
     atom    2 type  1   force =     0.00006440   -0.00047740   -0.17539280
     atom    3 type  2   force =     0.00017666   -0.00006473   -0.02447550
     atom    4 type  2   force =     0.00003312   -0.00142491    0.05286926
     atom    5 type  2   force =    -0.01166606   -0.00077712    0.00291569
     atom    6 type  2   force =     0.01354189   -0.00028916    0.00322832
     atom    7 type  1   force =     0.00094692    0.00041983   -0.01153064
     atom    8 type  1   force =    -0.00000816    0.00992568    0.02614500
     atom    9 type  2   force =    -0.00031289    0.00021496    0.00025203
     atom   10 type  2   force =    -0.00267455    0.00000173   -0.01400179
     atom   11 type  2   force =     0.00069899    0.00022157    0.00031077
     atom   12 type  2   force =    -0.00057895    0.00000196   -0.00003039
     atom   13 type  1   force =     0.00036128   -0.00030193    0.00037356
     atom   14 type  1   force =    -0.00059613   -0.00055978   -0.00051237
     atom   15 type  2   force =    -0.00014290   -0.00011570    0.00061476
     atom   16 type  2   force =     0.00023402   -0.00011423   -0.00033009
     atom   17 type  2   force =     0.00001623    0.00011105   -0.00022703
     atom   18 type  2   force =    -0.00029776    0.00027806   -0.00025463
     atom   19 type  1   force =    -0.00047432   -0.00002970   -0.00072732
     atom   20 type  1   force =     0.00045579    0.00000443    0.00011269
     atom   21 type  2   force =     0.00005940    0.00001779    0.10327100
     atom   22 type  2   force =     0.00015357   -0.00032849   -0.00018512
     atom   23 type  2   force =    -0.07145108   -0.00007384   -0.02762763
     atom   24 type  2   force =     0.07142664    0.00040028   -0.02770443
     atom   25 type  1   force =     0.00025645   -0.00024226    0.09598767
     atom   26 type  1   force =     0.00010071   -0.00027187   -0.17569308
     atom   27 type  2   force =     0.00020194   -0.00016624   -0.02351182
     atom   28 type  2   force =     0.00004827   -0.00120887    0.05302089
     atom   29 type  2   force =    -0.01183622   -0.00001539    0.00275813
     atom   30 type  2   force =     0.01361138    0.00035801    0.00305312
     atom   31 type  1   force =     0.00086468    0.00349318   -0.01215907
     atom   32 type  1   force =     0.00011832   -0.01160478    0.02661782
     atom   33 type  2   force =    -0.00010309    0.00006909   -0.00033707
     atom   34 type  2   force =    -0.00274487   -0.00024351   -0.02149855
     atom   35 type  2   force =     0.00043094   -0.00003479    0.00029005
     atom   36 type  2   force =    -0.00034365   -0.00023057   -0.00022939
     atom   37 type  1   force =     0.00046380   -0.00075972   -0.00042914
     atom   38 type  1   force =    -0.00058417    0.00095150    0.00009518
     atom   39 type  2   force =    -0.00030806   -0.00019724    0.00072799
     atom   40 type  2   force =     0.00009661    0.00020487    0.00001812
     atom   41 type  2   force =     0.00001510    0.00026593   -0.00009196
     atom   42 type  2   force =     0.00006404    0.00016388   -0.00006662
     atom   43 type  1   force =    -0.00002852    0.00056542   -0.00070103
     atom   44 type  1   force =     0.00032487    0.00094874   -0.00091021
     atom   45 type  2   force =     0.00006425    0.00002311    0.10325173
     atom   46 type  2   force =    -0.07149074   -0.00000739   -0.02765393
     atom   47 type  2   force =     0.07143536    0.00037345   -0.02771321
     atom   48 type  3   force =     0.00045667   -0.00007504    0.00053632
     atom   49 type  4   force =     0.00199356   -0.00043827    0.00110550
     atom   50 type  5   force =    -0.00304281    0.00169574   -0.00095606
     atom   51 type  3   force =    -0.00004165   -0.00040688    0.00087279

     Total force =     0.367477     Total SCF correction =     0.000548
  @ DRIVER MODE: Message from server: STATUS
  @ DRIVER MODE: Message from server: GETFORCE
  @ DRIVER MODE: Returning v,forces,stress,ensemble

     Writing output data file ./calc.save/
  @ DRIVER MODE: Message from server: EXIT
  @ DRIVE MODE: Exiting

     General routines

     Parallel routines

   This run was terminated on:  20:52:22  23Aug2021

   JOB DONE.