     Program PWSCF v.6.7GPU starts on  9Sep2021 at  5:24:44

     R & G space division:  proc/nbgrp/npool/nimage =      10
     Reading input from /storage/home/hcoda1/3/ntian30/research/carbon/CxH_vib/CH3_calc/ads_slab/CH3N2H_a/out_0024/pw.inp
Warning: card &CELL ignored
Warning: card   CELL_DYNAMICS='IPI', ignored
Warning: card / ignored

     Current dimensions of program PWSCF are:
     Max number of different atomic species (ntypx) = 10
     Max number of k-points (npk) =  40000
     Max angular momentum in pseudopotentials (lmaxx) =  3
     Presently no symmetry can be used with electric field

     Message from routine cell_base_init:
     DEPRECATED: use true lattice parameter, not A to a.u. conversion factor

     IMPORTANT: XC functional enforced from input :
     Exchange-correlation= BEEF-VDW
                           (   1   4  43  14   2   0   0)
     Any further DFT definition will be discarded
     Please, verify this is what you really want

  @ DRIVER MODE: Connecting to
 qe_1139763_2767396.sched-torque.pace.gatech.edulzuwtghv_scratch
  using UNIX socket
  @ DRIVER MODE: Message from server: STATUS
  @ DRIVER MODE: Message from server: INIT
  @ DRIVER MODE: Receiving replica           0          -1
  @ DRIVER MODE: Receiving encoded integer          25
  @ DRIVER MODE:  SCF:  T  FORCE:  T  STRESS:  F  VC:  F  ENSEMBLE:  F
  @ DRIVER MODE:  SCF:  T  FORCE:  T  STRESS:  F  VC:  F  ENSEMBLE:  F

     Using Slab Decomposition

     bravais-lattice index     =            0
     lattice parameter (alat)  =       1.8897  a.u.
     unit-cell volume          =    6658.9804 (a.u.)^3
     number of atoms/cell      =           54
     number of atomic types    =            5
     number of electrons       =       396.00
     number of Kohn-Sham states=          208
     kinetic-energy cutoff     =      29.3995  Ry
     charge density cutoff     =     293.9946  Ry
     scf convergence threshold =      7.3E-08
     mixing beta               =       0.0500
     number of iterations used =            8  plain     mixing
     Exchange-correlation= BEEF-VDW
                           (   1   4  43  14   2   0   0)

     celldm(1)=   1.889726  celldm(2)=   0.000000  celldm(3)=   0.000000
     celldm(4)=   0.000000  celldm(5)=   0.000000  celldm(6)=   0.000000

     crystal axes: (cart. coord. in units of alat)
               a(1) = (   6.579727   0.000000   0.000000 )
               a(2) = (  -0.000775   5.961596   0.000000 )
               a(3) = (   0.000000   0.000000  25.155947 )

     reciprocal axes: (cart. coord. in units 2 pi/alat)
               b(1) = (  0.151982  0.000020  0.000000 )
               b(2) = (  0.000000  0.167740  0.000000 )
               b(3) = (  0.000000  0.000000  0.039752 )

     PseudoPot. # 1 for Ti read from file:
     /storage/coda1/p-amedford6/0/shared/rich_project_chbe-medford/medford-share/data/pseudos_module/espresso/nninc/pbe/van/Ti.UPF
     MD5 check sum: 8e4df49b7f0d34bbd5052bf3f5ea0213
     Pseudo is Ultrasoft, Zval = 12.0
     Generated by new atomic code, or converted to UPF format
     Using radial grid of  851 points,  6 beta functions with:
                l(1) =   0
                l(2) =   0
                l(3) =   1
                l(4) =   1
                l(5) =   2
                l(6) =   2
     Q(r) pseudized with  8 coefficients,  rinner =    1.000   1.000   1.000
                                                       1.000   1.000

     PseudoPot. # 2 for O  read from file:
     /storage/coda1/p-amedford6/0/shared/rich_project_chbe-medford/medford-share/data/pseudos_module/espresso/nninc/pbe/van/O.UPF
     MD5 check sum: 78c19812648e8988a0fe644b0f25305e
     Pseudo is Ultrasoft, Zval =  6.0
     Generated by new atomic code, or converted to UPF format
     Using radial grid of  737 points,  4 beta functions with:
                l(1) =   0
                l(2) =   0
                l(3) =   1
                l(4) =   1
     Q(r) pseudized with  8 coefficients,  rinner =    0.800   0.800   0.800

     PseudoPot. # 3 for N  read from file:
     /storage/coda1/p-amedford6/0/shared/rich_project_chbe-medford/medford-share/data/pseudos_module/espresso/nninc/pbe/van/N.UPF
     MD5 check sum: 90d10febe142ad51ac9d5be1deb811c4
     Pseudo is Ultrasoft, Zval =  5.0
     Generated by new atomic code, or converted to UPF format
     Using radial grid of  729 points,  4 beta functions with:
                l(1) =   0
                l(2) =   0
                l(3) =   1
                l(4) =   1
     Q(r) pseudized with  8 coefficients,  rinner =    0.800   0.800   0.800

     PseudoPot. # 4 for C  read from file:
     /storage/coda1/p-amedford6/0/shared/rich_project_chbe-medford/medford-share/data/pseudos_module/espresso/nninc/pbe/van/C.UPF
     MD5 check sum: 1a69bf6b8db32088f5b2163dbdb77a27
     Pseudo is Ultrasoft, Zval =  4.0
     Generated by new atomic code, or converted to UPF format
     Using radial grid of  721 points,  4 beta functions with:
                l(1) =   0
                l(2) =   0
                l(3) =   1
                l(4) =   1
     Q(r) pseudized with  8 coefficients,  rinner =    0.800   0.800   0.800

     PseudoPot. # 5 for H  read from file:
     /storage/coda1/p-amedford6/0/shared/rich_project_chbe-medford/medford-share/data/pseudos_module/espresso/nninc/pbe/van/H.UPF
     MD5 check sum: b5ee9d7bfd3a09ee7748110bda690ff7
     Pseudo is Ultrasoft, Zval =  1.0
     Generated by new atomic code, or converted to UPF format
     Using radial grid of  615 points,  1 beta functions with:
                l(1) =   0
     Q(r) pseudized with  8 coefficients,  rinner =    0.800

     atomic species   valence    mass     pseudopotential
        Ti1           12.00    47.86700     Ti( 1.00)
        O1             6.00    15.99900     O ( 1.00)
        N1             5.00    14.00700     N ( 1.00)
        C1             4.00    12.01100     C ( 1.00)
        H1             1.00     1.00800     H ( 1.00)

     No symmetry found

   Cartesian axes

     site n.     atom                  positions (alat units)
         1           Ti1 tau(   1) = (   0.0004258   2.9801865   6.0000000  )
         2           Ti1 tau(   2) = (   3.2906075   1.4906267   6.0002472  )
         3           O1  tau(   3) = (   0.0006271   0.0005054   7.9858123  )
         4           O1  tau(   4) = (   3.2906025   0.0005020   7.3038282  )
         5           O1  tau(   5) = (   4.5942328   1.4918067   9.2879030  )
         6           O1  tau(   6) = (   1.9868534   1.4903216   9.2879459  )
         7           Ti1 tau(   7) = (   3.2907910   2.8959150   9.1758416  )
         8           Ti1 tau(   8) = (   0.0015273   1.4827037   9.2680791  )
         9           O1  tau(   9) = (   3.2896288   0.0042867  11.3205077  )
        10           O1  tau(  10) = (   0.0116148   5.9584955  10.6183126  )
        11           O1  tau(  11) = (   1.2848067   1.4985890  12.6232755  )
        12           O1  tau(  12) = (   5.2688617   1.4893877  12.6055203  )
        13           Ti1 tau(  13) = (   0.0799559   3.0171279  12.6206390  )
        14           Ti1 tau(  14) = (   3.4009582   1.4891986  12.4726338  )
        15           O1  tau(  15) = (   6.5707323   0.0080309  14.6263129  )
        16           O1  tau(  16) = (   3.2902489   0.0120312  13.8979102  )
        17           O1  tau(  17) = (   4.5126121   1.5346005  16.0500440  )
        18           O1  tau(  18) = (   2.0453867   1.5362785  16.0447169  )
        19           Ti1 tau(  19) = (   3.2767562   3.0203775  15.6892921  )
        20           Ti1 tau(  20) = (   6.5596632   1.5778499  15.8310978  )
        21           O1  tau(  21) = (   3.2904802   0.0005063   4.7018136  )
        22           O1  tau(  22) = (   6.5709656   0.0671247  17.2345223  )
        23           O1  tau(  23) = (   1.3043587   1.4918075   6.0039043  )
        24           O1  tau(  24) = (   5.2767064   1.4903225   6.0039473  )
        25           Ti1 tau(  25) = (   0.0000382   5.9609847   6.0000000  )
        26           Ti1 tau(  26) = (   3.2902200   4.4714249   6.0002472  )
        27           O1  tau(  27) = (   0.0002396   2.9813036   7.9858123  )
        28           O1  tau(  28) = (   3.2902150   2.9813002   7.3038282  )
        29           O1  tau(  29) = (   4.5938453   4.4726049   9.2879030  )
        30           O1  tau(  30) = (   1.9864658   4.4711199   9.2879459  )
        31           Ti1 tau(  31) = (   3.2891106   5.8743827   9.1763621  )
        32           Ti1 tau(  32) = (   0.0006254   4.4649316   9.2693709  )
        33           O1  tau(  33) = (   3.2919429   2.9835650  11.3172650  )
        34           O1  tau(  34) = (   0.0092240   2.9805883  10.6323155  )
        35           O1  tau(  35) = (   1.2842535   4.4799506  12.6241420  )
        36           O1  tau(  36) = (   5.2755836   4.4732255  12.6042992  )
        37           Ti1 tau(  37) = (   0.0783641   0.0295629  12.6394962  )
        38           Ti1 tau(  38) = (   3.4022659   4.4693352  12.4708195  )
        39           O1  tau(  39) = (   6.5693815   2.9799975  14.6326336  )
        40           O1  tau(  40) = (   3.2899495   3.0014797  13.8849495  )
        41           O1  tau(  41) = (   4.5062741   4.5069571  16.0893315  )
        42           O1  tau(  42) = (   2.0480812   4.5060041  16.0753496  )
        43           Ti1 tau(  43) = (   3.2742444   0.0367023  15.7020416  )
        44           Ti1 tau(  44) = (   6.5658628   4.6518251  16.1481936  )
        45           O1  tau(  45) = (   3.2900926   2.9813045   4.7018136  )
        46           O1  tau(  46) = (   1.3039711   4.4726057   6.0039043  )
        47           O1  tau(  47) = (   5.2763189   4.4711207   6.0039473  )
        48           N1  tau(  48) = (   6.5201982   2.6597193  18.5868863  )
        49           N1  tau(  49) = (   6.5663212   2.9659568  17.3251533  )
        50           C1  tau(  50) = (   0.1092964   3.6297355  19.6533281  )
        51           H1  tau(  51) = (   6.1365678   4.5355971  19.4191500  )
        52           H1  tau(  52) = (   6.3142024   3.1981282  20.5813133  )
        53           H1  tau(  53) = (   1.1661384   3.8973747  19.7839464  )
        54           H1  tau(  54) = (   6.5756389   1.6632157  18.8047554  )

     number of k points=    10  Fermi-Dirac smearing, width (Ry)=  0.0073
                       cart. coord. in units 2pi/alat
        k(    1) = (   0.0000000   0.0000000   0.0000000), wk =   0.1250000
        k(    2) = (   0.0000000   0.0419351   0.0000000), wk =   0.2500000
        k(    3) = (   0.0000000  -0.0838702   0.0000000), wk =   0.1250000
        k(    4) = (   0.0379955   0.0000049   0.0000000), wk =   0.2500000
        k(    5) = (   0.0379955   0.0419400   0.0000000), wk =   0.2500000
        k(    6) = (   0.0379955  -0.0838652   0.0000000), wk =   0.2500000
        k(    7) = (   0.0379955  -0.0419301   0.0000000), wk =   0.2500000
        k(    8) = (  -0.0759910  -0.0000099   0.0000000), wk =   0.1250000
        k(    9) = (  -0.0759910   0.0419252   0.0000000), wk =   0.2500000
        k(   10) = (  -0.0759910  -0.0838800   0.0000000), wk =   0.1250000

     Initial potential from superposition of free atoms

     starting charge  379.99915, renormalised to  396.00000

     negative rho (up, down):  1.474E-02 0.000E+00

     %%%%%%%%%%%%%%%%%%%%%%%%%%%%%%%%%%%%%%%%%%%%%%%%%%%%%%%%%%%%%%%%%%%%%%%%
     %                                                                      %
     % You are using vdW-DF, which was implemented by the Thonhauser group. %
     % Please cite the following two papers that made this development      %
     % possible and the two reviews that describe the various versions:     %
     %                                                                      %
     %   T. Thonhauser et al., PRL 115, 136402 (2015).                      %
     %   T. Thonhauser et al., PRB 76, 125112 (2007).                       %
     %   K. Berland et al., Rep. Prog. Phys. 78, 066501 (2015).             %
     %   D.C. Langreth et al., J. Phys.: Condens. Matter 21, 084203 (2009). %
     %                                                                      %
     %                                                                      %
     % If you are calculating the stress with vdW-DF, please also cite:     %
     %                                                                      %
     %   R. Sabatini et al., J. Phys.: Condens. Matter 24, 424209 (2012).   %
     %                                                                      %
     %%%%%%%%%%%%%%%%%%%%%%%%%%%%%%%%%%%%%%%%%%%%%%%%%%%%%%%%%%%%%%%%%%%%%%%%

     Adding external electric field

     Computed dipole along edir(3) :
        Dipole               -9.2712 Ry au,        -23.5651 Debye
        Dipole field         -0.0175 Ry au,

        Potential amp.        1.6219 Ry
        Total length         46.3494 bohr

     Starting wfcs are  300 atomic wfcs
  @ DRIVER MODE: Message from server: STATUS
  @ DRIVER MODE: Message from server: POSDATA
  @ DRIVER MODE: Reading and sharing cell
  @ DRIVER MODE: Reading and sharing positions
  @ DRIVER MODE: Received positions

     Self-consistent Calculation

     iteration #  1     ecut=    29.40 Ry     beta= 0.05
     Davidson diagonalization with overlap
     c_bands:  1 eigenvalues not converged
     c_bands:  1 eigenvalues not converged
     c_bands:  1 eigenvalues not converged
     ethr =  1.00E-05,  avg # of iterations = 17.9

[...]

     total energy              =   -2585.25605423 Ry
     estimated scf accuracy    <    3947.39269087 Ry

     iteration #  2     ecut=    29.40 Ry     beta= 0.05
     Davidson diagonalization with overlap
     ethr =  1.00E-02,  avg # of iterations = 22.6

[...]

     iteration # 58     ecut=    29.40 Ry     beta= 0.05
     Davidson diagonalization with overlap
     c_bands:  1 eigenvalues not converged
     ethr =  3.48E-07,  avg # of iterations = 11.3

[...]

     total energy              =   -2940.39768645 Ry
     estimated scf accuracy    <       0.00000028 Ry

     iteration # 76     ecut=    29.40 Ry     beta= 0.05
     Davidson diagonalization with overlap
     ethr =  4.87E-11,  avg # of iterations =  6.0

     negative rho (up, down):  1.567E-02 0.000E+00

     Adding external electric field

     Computed dipole along edir(3) :
        Dipole                1.1308 Ry au,          2.8742 Debye
        Dipole field          0.0021 Ry au,

        Potential amp.       -0.1978 Ry
        Total length         46.3494 bohr

     End of self-consistent calculation

          k = 0.0000 0.0000 0.0000 ( 18029 PWs)   bands (ev):

   -55.6433 -55.6093 -55.5510 -55.5133 -55.4073 -55.3845 -55.3735 -55.3496
   -55.3422 -55.3348 -55.3158 -55.2652 -54.7245 -54.5852 -54.5563 -54.5512
   -32.1178 -32.0945 -31.9375 -31.9244 -31.8940 -31.8638 -31.8454 -31.8391
   -31.7964 -31.7792 -31.7786 -31.7400 -31.7307 -31.7129 -31.7019 -31.6914
   -31.6815 -31.6729 -31.6390 -31.6281 -31.6053 -31.5856 -31.5781 -31.5633
   -31.5509 -31.5443 -31.5377 -31.5361 -31.5305 -31.5134 -31.5038 -31.5027
   -31.4985 -31.4618 -31.4468 -31.3793 -31.2224 -30.9909 -30.9476 -30.9330
   -30.9063 -30.8936 -30.8836 -30.8078 -30.7646 -30.7360 -30.7215 -30.6104
   -18.0003 -16.2772 -16.0495 -15.7720 -15.6708 -15.6476 -15.5268 -15.3945
   -15.2941 -15.1989 -15.1589 -15.1045 -15.0997 -15.0704 -15.0404 -15.0044
   -14.9764 -14.9373 -14.9184 -14.8997 -14.8736 -14.8645 -14.7550 -14.7407
   -14.7166 -14.6253 -14.6150 -14.5413 -14.5159 -14.0847 -13.0872 -12.9714
   -12.0207  -8.9350  -5.7280  -4.4611  -4.1577  -3.6601  -3.5344  -3.5041
    -3.4027  -3.2256  -3.1380  -3.0778  -2.9440  -2.7643  -2.7293  -2.7195
    -2.6994  -2.6416  -2.4437  -2.4181  -2.3864  -2.3469  -2.3370  -2.3346
    -2.3205  -2.2588  -2.1919  -2.1279  -2.0290  -2.0241  -1.9681  -1.9548
    -1.9378  -1.9027  -1.8594  -1.8202  -1.7987  -1.7564  -1.7380  -1.7312
    -1.6892  -1.6077  -1.5050  -1.3479  -1.3317  -1.3003  -1.2518  -1.1972
    -1.0326  -1.0164  -0.9795  -0.9735  -0.9413  -0.8661  -0.7987  -0.7139
    -0.6772  -0.6006  -0.5850  -0.5561  -0.4818  -0.3963  -0.3734  -0.3586
    -0.3510  -0.3354  -0.2769  -0.1622  -0.0676  -0.0378   0.0838   0.0884
     0.1235   0.1676   0.1844   0.2660   0.3020   0.3161   0.3672   0.3676
     0.3794   0.4233   0.4463   0.5091   0.5651   0.6490   0.7223   0.7877
     0.8247   0.9407   1.0117   1.0769   1.1096   1.2386   1.3668   1.3752
     1.4367   1.6324   1.6347   2.0052   2.0495   3.5280   3.5493   3.6419
     3.6854   3.7834   3.8225   3.9665   4.0224   4.0594   4.1730   4.2050

[...]

          k = 0.0380-0.0419 0.0000 ( 17876 PWs)   bands (ev):

[...]

          k =-0.0760-0.0000 0.0000 ( 17886 PWs)   bands (ev):

[...]

          k =-0.0760-0.0839 0.0000 ( 17948 PWs)   bands (ev):

   -55.6264 -55.6260 -55.5379 -55.5262 -55.3904 -55.3901 -55.3754 -55.3512
   -55.3341 -55.3314 -55.3300 -55.2698 -54.7230 -54.5682 -54.5681 -54.5577
   -31.9333 -31.9332 -31.9227 -31.9227 -31.9023 -31.8930 -31.7955 -31.7857
   -31.7619 -31.7492 -31.7472 -31.7467 -31.7023 -31.6993 -31.6864 -31.6831
   -31.6748 -31.6709 -31.6704 -31.6447 -31.6006 -31.5983 -31.5860 -31.5830
   -31.5786 -31.5770 -31.5751 -31.5650 -31.5624 -31.5563 -31.5490 -31.5461
   -31.5383 -31.5284 -31.5024 -31.4675 -31.1316 -30.9680 -30.9340 -30.9211
   -30.8964 -30.8963 -30.8039 -30.8038 -30.7838 -30.7659 -30.7647 -30.7647
   -17.9945 -15.7001 -15.6888 -15.5099 -15.5047 -15.4441 -15.4379 -15.2853
   -15.2843 -15.2656 -15.2574 -15.1345 -15.1307 -15.0986 -15.0950 -15.0527
   -15.0438 -15.0264 -15.0180 -15.0164 -15.0097 -14.9824 -14.9314 -14.8984
   -14.8929 -14.7151 -14.7146 -14.5940 -14.5611 -14.2198 -13.0735 -13.0734
   -12.0216  -8.9449  -5.7196  -4.3995  -4.1611  -2.9899  -2.9778  -2.9596
    -2.7047  -2.6995  -2.6751  -2.6646  -2.4594  -2.4467  -2.4256  -2.4200
    -2.3926  -2.3868  -2.3719  -2.3647  -2.2815  -2.2712  -2.2599  -2.2360
    -2.2330  -2.2279  -2.2115  -2.2041  -2.1942  -2.1606  -2.1246  -2.0955
    -2.0610  -2.0383  -1.9188  -1.8082  -1.7311  -1.7244  -1.6939  -1.6881
    -1.6822  -1.6758  -1.6425  -1.5382  -1.4829  -1.4271  -1.2904  -1.2648
    -1.2479  -1.2014  -1.1130  -1.0323  -0.9693  -0.9516  -0.9046  -0.8615
    -0.8365  -0.7522  -0.7283  -0.7204  -0.6530  -0.6201  -0.5759  -0.5702
    -0.5552  -0.4893  -0.4412  -0.3919  -0.3687  -0.3380  -0.2926  -0.2720
    -0.2091  -0.1573  -0.1099  -0.1043  -0.0561  -0.0478   0.0177   0.1673
     0.2167   0.4701   0.4844   0.5154   0.6400   0.7108   0.7161   0.7443
     0.7764   0.8278   0.8397   0.9731   0.9849   0.9879   1.1526   1.1770
     1.2649   1.8051   1.8054   1.8685   1.8689   3.4307   3.9210   3.9382
     3.9634   3.9785   4.0493   4.0504   4.0588   4.0664   4.2645   4.2849

     the Fermi energy is     3.5053 ev

!    total energy              =   -2940.39769802 Ry
     estimated scf accuracy    <       0.00000006 Ry
     smearing contrib. (-TS)   =      -0.02301851 Ry
     internal energy E=F+TS    =   -2940.37467951 Ry

     The total energy is F=E-TS. E is the sum of the following terms:
     one-electron contribution =  -24108.91076353 Ry
     hartree contribution      =   12145.68730759 Ry
     xc contribution           =    -486.04667884 Ry
     ewald contribution        =    9508.89304214 Ry
     electric field correction =       0.00241314 Ry

     convergence has been achieved in  76 iterations

     Forces acting on atoms (cartesian axes, Ry/au):

     atom    1 type  1   force =     0.00015798   -0.00012187    0.09935489
     atom    2 type  1   force =    -0.00012397   -0.00047567   -0.17360032
     atom    3 type  2   force =    -0.00005156   -0.00000012   -0.02881010
     atom    4 type  2   force =     0.00007377   -0.00124905    0.04997706
     atom    5 type  2   force =    -0.01306825    0.00057702    0.00120846
     atom    6 type  2   force =     0.01461615    0.00138480   -0.00011663
     atom    7 type  1   force =    -0.00144512   -0.00059979   -0.00836308
     atom    8 type  1   force =     0.00088177   -0.00412616    0.04512629
     atom    9 type  2   force =    -0.00003195   -0.00065974   -0.00026819
     atom   10 type  2   force =    -0.00129216    0.00227565   -0.02841528
     atom   11 type  2   force =     0.00019126    0.00061195   -0.00003612
     atom   12 type  2   force =     0.00025661    0.00040946    0.00011017
     atom   13 type  1   force =     0.00037470    0.00021226   -0.00056773
     atom   14 type  1   force =     0.00003348    0.00047113    0.00033749
     atom   15 type  2   force =     0.00034269   -0.00010345   -0.00007523
     atom   16 type  2   force =    -0.00040827   -0.00023425   -0.00019888
     atom   17 type  2   force =    -0.00101227    0.00014027   -0.00052696
     atom   18 type  2   force =     0.00089655    0.00019247    0.00023342
     atom   19 type  1   force =     0.00022474   -0.00006525    0.00003192
     atom   20 type  1   force =    -0.00048159   -0.00085295    0.00025714
     atom   21 type  2   force =     0.00009145   -0.00007037    0.10277276
     atom   22 type  2   force =     0.00010852    0.00003589    0.00007238
     atom   23 type  2   force =    -0.07213737   -0.00015741   -0.02832792
     atom   24 type  2   force =     0.07213338    0.00030161   -0.02832511
     atom   25 type  1   force =     0.00012378   -0.00019952    0.09866355
     atom   26 type  1   force =    -0.00010723   -0.00046228   -0.17381281
     atom   27 type  2   force =     0.00001132   -0.00002693   -0.02809200
     atom   28 type  2   force =     0.00011427   -0.00099989    0.04943150
     atom   29 type  2   force =    -0.01338838    0.00005491    0.00127029
     atom   30 type  2   force =     0.01484544    0.00042025   -0.00007464
     atom   31 type  1   force =    -0.00139627    0.00250754   -0.00865103
     atom   32 type  1   force =     0.00106369    0.00237918    0.04544858
     atom   33 type  2   force =    -0.00013107    0.00104480    0.00055033
     atom   34 type  2   force =    -0.00071783    0.00120334   -0.03116345
     atom   35 type  2   force =     0.00068084   -0.00050908   -0.00018138
     atom   36 type  2   force =    -0.00163008   -0.00010866    0.00006413
     atom   37 type  1   force =    -0.00017635   -0.00153308    0.00023146
     atom   38 type  1   force =     0.00078393   -0.00004298    0.00052924
     atom   39 type  2   force =     0.00032903    0.00017703   -0.00058827
     atom   40 type  2   force =    -0.00040382    0.00033313   -0.00005367
     atom   41 type  2   force =     0.00042662   -0.00058716    0.00001706
     atom   42 type  2   force =    -0.00041849   -0.00071305    0.00051729
     atom   43 type  1   force =     0.00036734   -0.00032938   -0.00055470
     atom   44 type  1   force =    -0.00036546   -0.00060200   -0.00013940
     atom   45 type  2   force =     0.00011014   -0.00006786    0.10279570
     atom   46 type  2   force =    -0.07216178   -0.00009936   -0.02832323
     atom   47 type  2   force =     0.07214453    0.00034217   -0.02830083
     atom   48 type  3   force =    -0.00047773    0.00058714   -0.00105655
     atom   49 type  3   force =    -0.00002393   -0.00048145   -0.00029890
     atom   50 type  4   force =     0.00241575   -0.00185832    0.00328207
     atom   51 type  5   force =    -0.00160214    0.00135987   -0.00236484
     atom   52 type  5   force =     0.00088434   -0.00062276   -0.00025966
     atom   53 type  5   force =    -0.00104589    0.00042512   -0.00092226
     atom   54 type  5   force =    -0.00058513    0.00051289    0.00018597

     Total force =     0.372272     Total SCF correction =     0.000495
  @ DRIVER MODE: Message from server: STATUS
  @ DRIVER MODE: Message from server: GETFORCE
  @ DRIVER MODE: Returning v,forces,stress,ensemble

     Writing output data file ./calc.save/
  @ DRIVER MODE: Message from server: EXIT
  @ DRIVE MODE: Exiting

     General routines

     Parallel routines

   This run was terminated on:   5:43:56   9Sep2021

   JOB DONE.