     Program PWSCF v.6.7GPU starts on 27Sep2021 at 17: 0:40

     R & G space division:  proc/nbgrp/npool/nimage =       8
     Reading input from /storage/home/hcoda1/3/ntian30/research/carbon/CxH_vib/CH_calc/ads_slab/CHONHH_a/out_0021/pw.inp
Warning: card &CELL ignored
Warning: card   CELL_DYNAMICS='IPI', ignored
Warning: card / ignored

     Current dimensions of program PWSCF are:
     Max number of different atomic species (ntypx) = 10
     Max number of k-points (npk) =  40000
     Max angular momentum in pseudopotentials (lmaxx) =  3
     Presently no symmetry can be used with electric field

     Message from routine cell_base_init:
     DEPRECATED: use true lattice parameter, not A to a.u. conversion factor

     IMPORTANT: XC functional enforced from input :
     Exchange-correlation= BEEF-VDW
                           (   1   4  43  14   2   0   0)
     Any further DFT definition will be discarded
     Please, verify this is what you really want

  @ DRIVER MODE: Connecting to
 qe_1139763_2982670.sched-torque.pace.gatech.edun0d5wr5a_scratch
  using UNIX socket
  @ DRIVER MODE: Message from server: STATUS
  @ DRIVER MODE: Message from server: INIT
  @ DRIVER MODE: Receiving replica           0          -1
  @ DRIVER MODE: Receiving encoded integer          25
  @ DRIVER MODE:  SCF:  T  FORCE:  T  STRESS:  F  VC:  F  ENSEMBLE:  F
  @ DRIVER MODE:  SCF:  T  FORCE:  T  STRESS:  F  VC:  F  ENSEMBLE:  F

     Using Slab Decomposition

     bravais-lattice index     =            0
     lattice parameter (alat)  =       1.8897  a.u.
     unit-cell volume          =    6658.9804 (a.u.)^3
     number of atoms/cell      =           53
     number of atomic types    =            5
     number of electrons       =       396.00
     number of Kohn-Sham states=          208
     kinetic-energy cutoff     =      29.3995  Ry
     charge density cutoff     =     293.9946  Ry
     scf convergence threshold =      7.3E-08
     mixing beta               =       0.0500
     number of iterations used =            8  plain     mixing
     Exchange-correlation= BEEF-VDW
                           (   1   4  43  14   2   0   0)

     celldm(1)=   1.889726  celldm(2)=   0.000000  celldm(3)=   0.000000
     celldm(4)=   0.000000  celldm(5)=   0.000000  celldm(6)=   0.000000

     crystal axes: (cart. coord. in units of alat)
               a(1) = (   6.579727   0.000000   0.000000 )
               a(2) = (  -0.000775   5.961596   0.000000 )
               a(3) = (   0.000000   0.000000  25.155947 )

     reciprocal axes: (cart. coord. in units 2 pi/alat)
               b(1) = (  0.151982  0.000020  0.000000 )
               b(2) = (  0.000000  0.167740  0.000000 )
               b(3) = (  0.000000  0.000000  0.039752 )

     PseudoPot. # 1 for O  read from file:
     /storage/coda1/p-amedford6/0/shared/rich_project_chbe-medford/medford-share/data/pseudos_module/espresso/nninc/pbe/van/O.UPF
     MD5 check sum: 78c19812648e8988a0fe644b0f25305e
     Pseudo is Ultrasoft, Zval =  6.0
     Generated by new atomic code, or converted to UPF format
     Using radial grid of  737 points,  4 beta functions with:
                l(1) =   0
                l(2) =   0
                l(3) =   1
                l(4) =   1
     Q(r) pseudized with  8 coefficients,  rinner =    0.800   0.800   0.800

     PseudoPot. # 2 for Ti read from file:
     /storage/coda1/p-amedford6/0/shared/rich_project_chbe-medford/medford-share/data/pseudos_module/espresso/nninc/pbe/van/Ti.UPF
     MD5 check sum: 8e4df49b7f0d34bbd5052bf3f5ea0213
     Pseudo is Ultrasoft, Zval = 12.0
     Generated by new atomic code, or converted to UPF format
     Using radial grid of  851 points,  6 beta functions with:
                l(1) =   0
                l(2) =   0
                l(3) =   1
                l(4) =   1
                l(5) =   2
                l(6) =   2
     Q(r) pseudized with  8 coefficients,  rinner =    1.000   1.000   1.000
                                                       1.000   1.000

     PseudoPot. # 3 for C  read from file:
     /storage/coda1/p-amedford6/0/shared/rich_project_chbe-medford/medford-share/data/pseudos_module/espresso/nninc/pbe/van/C.UPF
     MD5 check sum: 1a69bf6b8db32088f5b2163dbdb77a27
     Pseudo is Ultrasoft, Zval =  4.0
     Generated by new atomic code, or converted to UPF format
     Using radial grid of  721 points,  4 beta functions with:
                l(1) =   0
                l(2) =   0
                l(3) =   1
                l(4) =   1
     Q(r) pseudized with  8 coefficients,  rinner =    0.800   0.800   0.800

     PseudoPot. # 4 for H  read from file:
     /storage/coda1/p-amedford6/0/shared/rich_project_chbe-medford/medford-share/data/pseudos_module/espresso/nninc/pbe/van/H.UPF
     MD5 check sum: b5ee9d7bfd3a09ee7748110bda690ff7
     Pseudo is Ultrasoft, Zval =  1.0
     Generated by new atomic code, or converted to UPF format
     Using radial grid of  615 points,  1 beta functions with:
                l(1) =   0
     Q(r) pseudized with  8 coefficients,  rinner =    0.800

     PseudoPot. # 5 for N  read from file:
     /storage/coda1/p-amedford6/0/shared/rich_project_chbe-medford/medford-share/data/pseudos_module/espresso/nninc/pbe/van/N.UPF
     MD5 check sum: 90d10febe142ad51ac9d5be1deb811c4
     Pseudo is Ultrasoft, Zval =  5.0
     Generated by new atomic code, or converted to UPF format
     Using radial grid of  729 points,  4 beta functions with:
                l(1) =   0
                l(2) =   0
                l(3) =   1
                l(4) =   1
     Q(r) pseudized with  8 coefficients,  rinner =    0.800   0.800   0.800

     atomic species   valence    mass     pseudopotential
        O1             6.00    15.99900     O ( 1.00)
        Ti1           12.00    47.86700     Ti( 1.00)
        C1             4.00    12.01100     C ( 1.00)
        H1             1.00     1.00800     H ( 1.00)
        N1             5.00    14.00700     N ( 1.00)

     No symmetry found

   Cartesian axes

     site n.     atom                  positions (alat units)
         1           O1  tau(   1) = (   3.2904802   0.0005063   4.7018136  )
         2           O1  tau(   2) = (   3.2900926   2.9813045   4.7018136  )
         3           Ti1 tau(   3) = (   0.0004258   2.9801865   6.0000000  )
         4           Ti1 tau(   4) = (   0.0000382   5.9609847   6.0000000  )
         5           Ti1 tau(   5) = (   3.2906075   1.4906267   6.0002472  )
         6           Ti1 tau(   6) = (   3.2902200   4.4714249   6.0002472  )
         7           O1  tau(   7) = (   1.3043587   1.4918075   6.0039043  )
         8           O1  tau(   8) = (   1.3039711   4.4726057   6.0039043  )
         9           O1  tau(   9) = (   5.2767064   1.4903225   6.0039473  )
        10           O1  tau(  10) = (   5.2763189   4.4711207   6.0039473  )
        11           O1  tau(  11) = (   3.2906025   0.0005020   7.3038282  )
        12           O1  tau(  12) = (   3.2902150   2.9813002   7.3038282  )
        13           O1  tau(  13) = (   0.0006271   0.0005054   7.9858123  )
        14           O1  tau(  14) = (   0.0002396   2.9813036   7.9858123  )
        15           Ti1 tau(  15) = (   3.2907910   2.8959150   9.1758416  )
        16           Ti1 tau(  16) = (   3.2891106   5.8743827   9.1763621  )
        17           Ti1 tau(  17) = (   0.0015273   1.4827037   9.2680791  )
        18           Ti1 tau(  18) = (   0.0006254   4.4649316   9.2693709  )
        19           O1  tau(  19) = (   4.5942328   1.4918067   9.2879030  )
        20           O1  tau(  20) = (   4.5938453   4.4726049   9.2879030  )
        21           O1  tau(  21) = (   1.9868534   1.4903216   9.2879459  )
        22           O1  tau(  22) = (   1.9864658   4.4711199   9.2879459  )
        23           O1  tau(  23) = (   0.0116148   5.9584955  10.6183126  )
        24           O1  tau(  24) = (   0.0092240   2.9805883  10.6323155  )
        25           O1  tau(  25) = (   3.2982867   2.9605634  11.3629554  )
        26           O1  tau(  26) = (   3.2970280   5.9418052  11.3670498  )
        27           Ti1 tau(  27) = (   3.3197620   1.4647166  12.5186485  )
        28           Ti1 tau(  28) = (   3.3197371   4.4442548  12.5174675  )
        29           Ti1 tau(  29) = (   0.0247145   5.9392298  12.5050521  )
        30           Ti1 tau(  30) = (   0.0207888   2.9549252  12.5325712  )
        31           O1  tau(  31) = (   5.2994564   1.4737048  12.6581032  )
        32           O1  tau(  32) = (   5.2987173   4.4536623  12.6588755  )
        33           O1  tau(  33) = (   1.2980767   1.4735271  12.6640466  )
        34           O1  tau(  34) = (   1.2983722   4.4539272  12.6649509  )
        35           O1  tau(  35) = (   3.3003782   2.9593424  13.9572071  )
        36           O1  tau(  36) = (   3.3054355   5.9407569  13.9837565  )
        37           O1  tau(  37) = (   0.0046088   5.9251545  14.7309831  )
        38           O1  tau(  38) = (   0.0006132   2.9575759  14.8603695  )
        39           Ti1 tau(  39) = (   3.2921441   2.9479593  15.7473734  )
        40           Ti1 tau(  40) = (   3.3096684   5.9297328  15.7786280  )
        41           Ti1 tau(  41) = (   0.0292748   4.4653737  15.8834615  )
        42           Ti1 tau(  42) = (   0.0203033   1.2983705  16.0532229  )
        43           O1  tau(  43) = (   2.0312177   4.4313956  16.1584376  )
        44           O1  tau(  44) = (   2.0329186   1.4682422  16.1585226  )
        45           O1  tau(  45) = (   4.5395334   1.4708069  16.1744780  )
        46           O1  tau(  46) = (   4.5451706   4.4284814  16.1696510  )
        47           O1  tau(  47) = (   6.5626888   5.9521290  17.2995914  )
        48           C1  tau(  48) = (   6.0895709   3.0833951  18.7413599  )
        49           H1  tau(  49) = (   6.1064821   5.1028269  18.6976294  )
        50           H1  tau(  50) = (   5.8218695   2.1931775  19.3174373  )
        51           N1  tau(  51) = (   5.9176545   4.2605979  19.3036562  )
        52           H1  tau(  52) = (   5.4685665   4.3395963  20.1994452  )
        53           O1  tau(  53) = (   6.5488429   2.9572365  17.5815492  )

     number of k points=    10  Fermi-Dirac smearing, width (Ry)=  0.0073
                       cart. coord. in units 2pi/alat
        k(    1) = (   0.0000000   0.0000000   0.0000000), wk =   0.1250000
        k(    2) = (   0.0000000   0.0419351   0.0000000), wk =   0.2500000
        k(    3) = (   0.0000000  -0.0838702   0.0000000), wk =   0.1250000
        k(    4) = (   0.0379955   0.0000049   0.0000000), wk =   0.2500000
        k(    5) = (   0.0379955   0.0419400   0.0000000), wk =   0.2500000
        k(    6) = (   0.0379955  -0.0838652   0.0000000), wk =   0.2500000
        k(    7) = (   0.0379955  -0.0419301   0.0000000), wk =   0.2500000
        k(    8) = (  -0.0759910  -0.0000099   0.0000000), wk =   0.1250000
        k(    9) = (  -0.0759910   0.0419252   0.0000000), wk =   0.2500000
        k(   10) = (  -0.0759910  -0.0838800   0.0000000), wk =   0.1250000

     Initial potential from superposition of free atoms

     starting charge  379.99917, renormalised to  396.00000

     negative rho (up, down):  1.603E-02 0.000E+00

     %%%%%%%%%%%%%%%%%%%%%%%%%%%%%%%%%%%%%%%%%%%%%%%%%%%%%%%%%%%%%%%%%%%%%%%%
     %                                                                      %
     % You are using vdW-DF, which was implemented by the Thonhauser group. %
     % Please cite the following two papers that made this development      %
     % possible and the two reviews that describe the various versions:     %
     %                                                                      %
     %   T. Thonhauser et al., PRL 115, 136402 (2015).                      %
     %   T. Thonhauser et al., PRB 76, 125112 (2007).                       %
     %   K. Berland et al., Rep. Prog. Phys. 78, 066501 (2015).             %
     %   D.C. Langreth et al., J. Phys.: Condens. Matter 21, 084203 (2009). %
     %                                                                      %
     %                                                                      %
     % If you are calculating the stress with vdW-DF, please also cite:     %
     %                                                                      %
     %   R. Sabatini et al., J. Phys.: Condens. Matter 24, 424209 (2012).   %
     %                                                                      %
     %%%%%%%%%%%%%%%%%%%%%%%%%%%%%%%%%%%%%%%%%%%%%%%%%%%%%%%%%%%%%%%%%%%%%%%%

     Adding external electric field

     Computed dipole along edir(3) :
        Dipole               -9.7756 Ry au,        -24.8472 Debye
        Dipole field         -0.0184 Ry au,

        Potential amp.        1.7101 Ry
        Total length         46.3494 bohr

     Starting wfcs are  299 atomic wfcs
  @ DRIVER MODE: Message from server: STATUS
  @ DRIVER MODE: Message from server: POSDATA
  @ DRIVER MODE: Reading and sharing cell
  @ DRIVER MODE: Reading and sharing positions
  @ DRIVER MODE: Received positions

     Self-consistent Calculation

     iteration #  1     ecut=    29.40 Ry     beta= 0.05
     Davidson diagonalization with overlap
     c_bands:  1 eigenvalues not converged
     c_bands:  1 eigenvalues not converged
     c_bands:  2 eigenvalues not converged
     c_bands:  3 eigenvalues not converged
     c_bands:  2 eigenvalues not converged
     c_bands:  1 eigenvalues not converged
     c_bands:  2 eigenvalues not converged
     c_bands:  1 eigenvalues not converged
     c_bands:  2 eigenvalues not converged
     c_bands:  2 eigenvalues not converged
     ethr =  1.00E-05,  avg # of iterations = 20.0

[...]

     total energy              =   -2552.98943487 Ry
     estimated scf accuracy    <    4457.91115757 Ry

     iteration #  2     ecut=    29.40 Ry     beta= 0.05
     Davidson diagonalization with overlap
     ethr =  1.00E-02,  avg # of iterations = 25.7

[...]

     iteration # 58     ecut=    29.40 Ry     beta= 0.05
     Davidson diagonalization with overlap
     ethr =  7.97E-10,  avg # of iterations = 10.3

[...]

     total energy              =   -2951.54873803 Ry
     estimated scf accuracy    <       0.00000010 Ry

     iteration # 65     ecut=    29.40 Ry     beta= 0.05
     Davidson diagonalization with overlap
     c_bands:  2 eigenvalues not converged
     c_bands:  1 eigenvalues not converged
     c_bands:  2 eigenvalues not converged
     ethr =  2.55E-11,  avg # of iterations = 13.8

     negative rho (up, down):  1.441E-02 0.000E+00

     Adding external electric field

     Computed dipole along edir(3) :
        Dipole                1.7552 Ry au,          4.4612 Debye
        Dipole field          0.0033 Ry au,

        Potential amp.       -0.3070 Ry
        Total length         46.3494 bohr

     End of self-consistent calculation

          k = 0.0000 0.0000 0.0000 ( 18029 PWs)   bands (ev):

   -55.1149 -55.0790 -55.0711 -55.0370 -54.9977 -54.9936 -54.9902 -54.9566
   -54.9458 -54.9270 -54.9175 -54.8981 -54.8926 -54.8645 -54.0928 -54.0588
   -31.6836 -31.5892 -31.5624 -31.4823 -31.4313 -31.4235 -31.4165 -31.4019
   -31.3602 -31.3552 -31.3247 -31.3209 -31.3154 -31.3007 -31.2871 -31.2699
   -31.2550 -31.2514 -31.2367 -31.2267 -31.2225 -31.2156 -31.1944 -31.1838
   -31.1722 -31.1574 -31.1434 -31.1301 -31.1293 -31.1284 -31.1236 -31.1125
   -31.0989 -31.0963 -31.0955 -31.0853 -31.0791 -31.0759 -31.0413 -31.0367
   -31.0267 -31.0078 -30.5018 -30.4086 -30.3865 -30.3183 -30.2315 -30.1206
   -20.4367 -16.9468 -15.9330 -15.6621 -15.5177 -15.3819 -15.3048 -15.1825
   -15.1359 -15.0278 -14.9276 -14.8364 -14.8007 -14.7714 -14.7562 -14.7466
   -14.7283 -14.6495 -14.6459 -14.6156 -14.6039 -14.5732 -14.5425 -14.5200
   -14.5019 -14.4862 -14.4568 -14.3427 -14.2627 -14.1996 -14.1260 -12.5956
   -12.4783  -9.5353  -8.0090  -6.3929  -5.0372  -4.3023  -3.2769  -3.1207
    -3.0292  -3.0251  -3.0066  -2.8426  -2.7149  -2.5207  -2.3968  -2.3745
    -2.3287  -2.3094  -2.2891  -2.1836  -2.0945  -2.0538  -2.0102  -1.9635
    -1.9235  -1.8987  -1.8907  -1.8784  -1.8583  -1.8566  -1.7549  -1.6491
    -1.5874  -1.5723  -1.5497  -1.5106  -1.4511  -1.4169  -1.3968  -1.3938
    -1.3581  -1.3459  -1.3234  -1.2973  -1.1474  -1.0555  -1.0395  -0.9852
    -0.8517  -0.8093  -0.7455  -0.6730  -0.6708  -0.5910  -0.5903  -0.5527
    -0.5307  -0.4932  -0.4506  -0.3158  -0.2101  -0.1943  -0.1521  -0.1043
    -0.0660  -0.0474   0.1052   0.1104   0.1218   0.1388   0.3212   0.3227
     0.3788   0.3995   0.4562   0.4628   0.4933   0.5611   0.6328   0.6647
     0.6957   0.7784   0.8276   0.8312   0.8390   0.8466   0.8791   0.9617
     0.9932   1.0145   1.0550   1.1931   1.3065   1.4990   1.5063   1.8387
     1.8533   1.9297   2.1144   2.5050   2.5529   3.9838   4.0576   4.1252
     4.1372   4.1418   4.2221   4.3255   4.4630   4.4739   4.4850   4.4919

[...]

          k = 0.0380-0.0419 0.0000 ( 17876 PWs)   bands (ev):

[...]

          k =-0.0760-0.0000 0.0000 ( 17886 PWs)   bands (ev):

[...]

          k =-0.0760-0.0839 0.0000 ( 17948 PWs)   bands (ev):

   -55.0970 -55.0967 -55.0541 -55.0538 -54.9924 -54.9836 -54.9816 -54.9683
   -54.9538 -54.9213 -54.9106 -54.9084 -54.8821 -54.8808 -54.0758 -54.0757
   -31.4908 -31.4874 -31.4870 -31.4007 -31.3776 -31.3774 -31.3737 -31.3456
   -31.3454 -31.3241 -31.3169 -31.3144 -31.3074 -31.2799 -31.2654 -31.2478
   -31.2444 -31.2413 -31.2400 -31.2381 -31.2351 -31.2294 -31.2194 -31.1966
   -31.1905 -31.1869 -31.1810 -31.1778 -31.1738 -31.1736 -31.1610 -31.1472
   -31.1435 -31.1413 -31.1347 -31.1242 -31.1217 -31.1089 -31.1083 -31.1079
   -31.0629 -31.0610 -30.3992 -30.3991 -30.3144 -30.3143 -30.2749 -30.2749
   -20.4325 -16.9495 -15.3683 -15.3529 -15.3200 -15.1046 -15.1041 -15.0885
   -15.0786 -14.9342 -14.9032 -14.8864 -14.8742 -14.8244 -14.8132 -14.8118
   -14.8075 -14.7012 -14.6980 -14.6962 -14.6893 -14.6206 -14.6134 -14.6036
   -14.5727 -14.5609 -14.5567 -14.4623 -14.4602 -14.4575 -14.4093 -12.5799
   -12.5798  -9.5646  -8.0004  -6.3597  -5.0041  -4.3047  -2.6252  -2.5856
    -2.5190  -2.3212  -2.3128  -2.2855  -2.2007  -2.1663  -2.1040  -2.0915
    -2.0759  -2.0343  -1.9989  -1.9881  -1.9498  -1.9404  -1.9301  -1.9091
    -1.8913  -1.8577  -1.8339  -1.8238  -1.7954  -1.7729  -1.7675  -1.7542
    -1.7236  -1.7007  -1.6872  -1.6738  -1.6008  -1.5057  -1.4633  -1.3945
    -1.3091  -1.3079  -1.3015  -1.2141  -1.1944  -1.1616  -1.1475  -1.1013
    -1.0510  -0.9718  -0.8886  -0.8550  -0.8466  -0.8216  -0.7217  -0.6938
    -0.6449  -0.6087  -0.5973  -0.5463  -0.4292  -0.4263  -0.3865  -0.3226
    -0.3035  -0.2417  -0.1310  -0.1029  -0.0701  -0.0675  -0.0276   0.0066
     0.0207   0.0855   0.1187   0.1525   0.1702   0.2314   0.3942   0.4011
     0.4934   0.5185   0.5918   0.7582   0.7874   0.8083   0.9327   0.9653
     0.9992   1.0503   1.0914   1.1928   1.2004   1.2893   1.3388   1.3536
     1.3601   2.2875   2.2880   2.3728   2.3729   4.1122   4.2358   4.2572
     4.2960   4.3423   4.5059   4.5139   4.5676   4.5688   4.6008   4.6466

     the Fermi energy is     4.0440 ev

!    total energy              =   -2951.54876203 Ry
     estimated scf accuracy    <       0.00000007 Ry
     smearing contrib. (-TS)   =      -0.03723704 Ry
     internal energy E=F+TS    =   -2951.51152499 Ry

     The total energy is F=E-TS. E is the sum of the following terms:
     one-electron contribution =  -23931.00703907 Ry
     hartree contribution      =   12059.80207205 Ry
     xc contribution           =    -487.46370701 Ry
     ewald contribution        =    9407.15133555 Ry
     electric field correction =       0.00581349 Ry

     convergence has been achieved in  65 iterations

     Forces acting on atoms (cartesian axes, Ry/au):

     atom    1 type  1   force =    -0.00000016    0.00001818    0.10375772
     atom    2 type  1   force =    -0.00000580    0.00001295    0.10376527
     atom    3 type  2   force =     0.00003017   -0.00018395    0.09363549
     atom    4 type  2   force =    -0.00001029   -0.00013992    0.09333503
     atom    5 type  2   force =    -0.00020742   -0.00037788   -0.17779522
     atom    6 type  2   force =    -0.00019050   -0.00030491   -0.17790194
     atom    7 type  1   force =    -0.07059804   -0.00007710   -0.02702655
     atom    8 type  1   force =    -0.07060365   -0.00003548   -0.02701305
     atom    9 type  1   force =     0.07041834    0.00037224   -0.02706757
     atom   10 type  1   force =     0.07040381    0.00040092   -0.02703126
     atom   11 type  1   force =    -0.00003939   -0.00187367    0.05772010
     atom   12 type  1   force =     0.00001808   -0.00159729    0.05728496
     atom   13 type  1   force =     0.00003284   -0.00021853   -0.02104588
     atom   14 type  1   force =     0.00006166   -0.00036019   -0.02011637
     atom   15 type  2   force =    -0.00034461    0.00219910   -0.01416081
     atom   16 type  2   force =    -0.00014561    0.00520323   -0.01501831
     atom   17 type  2   force =    -0.00009306    0.00330039    0.00053680
     atom   18 type  2   force =     0.00004673   -0.00378998    0.00039861
     atom   19 type  1   force =    -0.01057438   -0.00135513    0.00705271
     atom   20 type  1   force =    -0.01088512   -0.00104256    0.00699253
     atom   21 type  1   force =     0.01219463   -0.00075269    0.00658014
     atom   22 type  1   force =     0.01239925   -0.00067509    0.00650120
     atom   23 type  1   force =    -0.00110720   -0.00065388   -0.00094160
     atom   24 type  1   force =    -0.00064859   -0.00142239   -0.00126861
     atom   25 type  1   force =     0.00001608    0.00021716    0.00026643
     atom   26 type  1   force =     0.00001534    0.00003453   -0.00011318
     atom   27 type  2   force =     0.00000164    0.00033757   -0.00010734
     atom   28 type  2   force =     0.00006408   -0.00014192    0.00000837
     atom   29 type  2   force =    -0.00001830    0.00008183   -0.00038656
     atom   30 type  2   force =     0.00008722   -0.00002792   -0.00030191
     atom   31 type  1   force =    -0.00009341   -0.00011587    0.00004779
     atom   32 type  1   force =    -0.00024897    0.00003187   -0.00001082
     atom   33 type  1   force =     0.00007790   -0.00002906   -0.00005806
     atom   34 type  1   force =     0.00011174   -0.00004341   -0.00003601
     atom   35 type  1   force =    -0.00000437   -0.00003593    0.00017303
     atom   36 type  1   force =    -0.00012211   -0.00021369   -0.00003112
     atom   37 type  1   force =     0.00013920    0.00000215   -0.00012751
     atom   38 type  1   force =    -0.00020941    0.00018790   -0.00039530
     atom   39 type  2   force =     0.00011606   -0.00001885    0.00016156
     atom   40 type  2   force =    -0.00002356    0.00037471   -0.00009074
     atom   41 type  2   force =    -0.00010203    0.00028430   -0.00002779
     atom   42 type  2   force =     0.00007750    0.00047470    0.00006681
     atom   43 type  1   force =     0.00000114    0.00028019   -0.00006588
     atom   44 type  1   force =    -0.00010880    0.00033217   -0.00005678
     atom   45 type  1   force =     0.00004425    0.00033972   -0.00010589
     atom   46 type  1   force =    -0.00002567    0.00023659    0.00017808
     atom   47 type  1   force =    -0.00056362   -0.00034715    0.00124033
     atom   48 type  3   force =     0.00071110   -0.01432367   -0.00457300
     atom   49 type  4   force =    -0.00047963   -0.00666911    0.00338253
     atom   50 type  4   force =     0.00053288   -0.00143019   -0.00033988
     atom   51 type  5   force =    -0.00097665    0.02595221   -0.00059519
     atom   52 type  4   force =     0.00021847   -0.00250015    0.00099769
     atom   53 type  1   force =     0.00061021    0.00008293   -0.00027304

     Total force =     0.367057     Total SCF correction =     0.000484
  @ DRIVER MODE: Message from server: STATUS
  @ DRIVER MODE: Message from server: GETFORCE
  @ DRIVER MODE: Returning v,forces,stress,ensemble

     Writing output data file ./calc.save/
  @ DRIVER MODE: Message from server: EXIT
  @ DRIVE MODE: Exiting

     General routines

     Parallel routines

   This run was terminated on:  17:25:14  27Sep2021

   JOB DONE.