     Program PWSCF v.6.7GPU starts on 23Sep2021 at  4:28: 7

     R & G space division:  proc/nbgrp/npool/nimage =      10
     Reading input from /storage/home/hcoda1/3/ntian30/research/carbon/CxH_vib/H2O_calc/ads_slab/CHNHNHH2O_b/out_0037/pw.inp
Warning: card &CELL ignored
Warning: card   CELL_DYNAMICS='IPI', ignored
Warning: card / ignored

     Current dimensions of program PWSCF are:
     Max number of different atomic species (ntypx) = 10
     Max number of k-points (npk) =  40000
     Max angular momentum in pseudopotentials (lmaxx) =  3
     Presently no symmetry can be used with electric field

     Message from routine cell_base_init:
     DEPRECATED: use true lattice parameter, not A to a.u. conversion factor

     IMPORTANT: XC functional enforced from input :
     Exchange-correlation= BEEF-VDW
                           (   1   4  43  14   2   0   0)
     Any further DFT definition will be discarded
     Please, verify this is what you really want

  @ DRIVER MODE: Connecting to
 qe_1139763_2937311.sched-torque.pace.gatech.edub4c_wqze_scratch
  using UNIX socket
  @ DRIVER MODE: Message from server: STATUS
  @ DRIVER MODE: Message from server: INIT
  @ DRIVER MODE: Receiving replica           0          -1
  @ DRIVER MODE: Receiving encoded integer          25
  @ DRIVER MODE:  SCF:  T  FORCE:  T  STRESS:  F  VC:  F  ENSEMBLE:  F
  @ DRIVER MODE:  SCF:  T  FORCE:  T  STRESS:  F  VC:  F  ENSEMBLE:  F

     Using Slab Decomposition

     bravais-lattice index     =            0
     lattice parameter (alat)  =       1.8897  a.u.
     unit-cell volume          =    6658.9804 (a.u.)^3
     number of atoms/cell      =           56
     number of atomic types    =            5
     number of electrons       =       403.00
     number of Kohn-Sham states=          211
     kinetic-energy cutoff     =      29.3995  Ry
     charge density cutoff     =     293.9946  Ry
     scf convergence threshold =      7.3E-08
     mixing beta               =       0.0500
     number of iterations used =            8  plain     mixing
     Exchange-correlation= BEEF-VDW
                           (   1   4  43  14   2   0   0)

     celldm(1)=   1.889726  celldm(2)=   0.000000  celldm(3)=   0.000000
     celldm(4)=   0.000000  celldm(5)=   0.000000  celldm(6)=   0.000000

     crystal axes: (cart. coord. in units of alat)
               a(1) = (   6.579727   0.000000   0.000000 )
               a(2) = (  -0.000775   5.961596   0.000000 )
               a(3) = (   0.000000   0.000000  25.155947 )

     reciprocal axes: (cart. coord. in units 2 pi/alat)
               b(1) = (  0.151982  0.000020  0.000000 )
               b(2) = (  0.000000  0.167740  0.000000 )
               b(3) = (  0.000000  0.000000  0.039752 )

     PseudoPot. # 1 for Ti read from file:
     /storage/coda1/p-amedford6/0/shared/rich_project_chbe-medford/medford-share/data/pseudos_module/espresso/nninc/pbe/van/Ti.UPF
     MD5 check sum: 8e4df49b7f0d34bbd5052bf3f5ea0213
     Pseudo is Ultrasoft, Zval = 12.0
     Generated by new atomic code, or converted to UPF format
     Using radial grid of  851 points,  6 beta functions with:
                l(1) =   0
                l(2) =   0
                l(3) =   1
                l(4) =   1
                l(5) =   2
                l(6) =   2
     Q(r) pseudized with  8 coefficients,  rinner =    1.000   1.000   1.000
                                                       1.000   1.000

     PseudoPot. # 2 for O  read from file:
     /storage/coda1/p-amedford6/0/shared/rich_project_chbe-medford/medford-share/data/pseudos_module/espresso/nninc/pbe/van/O.UPF
     MD5 check sum: 78c19812648e8988a0fe644b0f25305e
     Pseudo is Ultrasoft, Zval =  6.0
     Generated by new atomic code, or converted to UPF format
     Using radial grid of  737 points,  4 beta functions with:
                l(1) =   0
                l(2) =   0
                l(3) =   1
                l(4) =   1
     Q(r) pseudized with  8 coefficients,  rinner =    0.800   0.800   0.800

     PseudoPot. # 3 for N  read from file:
     /storage/coda1/p-amedford6/0/shared/rich_project_chbe-medford/medford-share/data/pseudos_module/espresso/nninc/pbe/van/N.UPF
     MD5 check sum: 90d10febe142ad51ac9d5be1deb811c4
     Pseudo is Ultrasoft, Zval =  5.0
     Generated by new atomic code, or converted to UPF format
     Using radial grid of  729 points,  4 beta functions with:
                l(1) =   0
                l(2) =   0
                l(3) =   1
                l(4) =   1
     Q(r) pseudized with  8 coefficients,  rinner =    0.800   0.800   0.800

     PseudoPot. # 4 for C  read from file:
     /storage/coda1/p-amedford6/0/shared/rich_project_chbe-medford/medford-share/data/pseudos_module/espresso/nninc/pbe/van/C.UPF
     MD5 check sum: 1a69bf6b8db32088f5b2163dbdb77a27
     Pseudo is Ultrasoft, Zval =  4.0
     Generated by new atomic code, or converted to UPF format
     Using radial grid of  721 points,  4 beta functions with:
                l(1) =   0
                l(2) =   0
                l(3) =   1
                l(4) =   1
     Q(r) pseudized with  8 coefficients,  rinner =    0.800   0.800   0.800

     PseudoPot. # 5 for H  read from file:
     /storage/coda1/p-amedford6/0/shared/rich_project_chbe-medford/medford-share/data/pseudos_module/espresso/nninc/pbe/van/H.UPF
     MD5 check sum: b5ee9d7bfd3a09ee7748110bda690ff7
     Pseudo is Ultrasoft, Zval =  1.0
     Generated by new atomic code, or converted to UPF format
     Using radial grid of  615 points,  1 beta functions with:
                l(1) =   0
     Q(r) pseudized with  8 coefficients,  rinner =    0.800

     atomic species   valence    mass     pseudopotential
        Ti1           12.00    47.86700     Ti( 1.00)
        O1             6.00    15.99900     O ( 1.00)
        N1             5.00    14.00700     N ( 1.00)
        C1             4.00    12.01100     C ( 1.00)
        H1             1.00     1.00800     H ( 1.00)

     No symmetry found

   Cartesian axes

     site n.     atom                  positions (alat units)
         1           Ti1 tau(   1) = (   0.0004258   2.9801865   6.0000000  )
         2           Ti1 tau(   2) = (   3.2906075   1.4906267   6.0002472  )
         3           O1  tau(   3) = (   0.0006271   0.0005054   7.9858123  )
         4           O1  tau(   4) = (   3.2906025   0.0005020   7.3038282  )
         5           O1  tau(   5) = (   4.5942328   1.4918067   9.2879030  )
         6           O1  tau(   6) = (   1.9868534   1.4903216   9.2879459  )
         7           Ti1 tau(   7) = (   3.2907910   2.8959150   9.1758416  )
         8           Ti1 tau(   8) = (   0.0015273   1.4827037   9.2680791  )
         9           O1  tau(   9) = (   3.2780774   5.9605562  11.3537357  )
        10           O1  tau(  10) = (   0.0116148   5.9584955  10.6183126  )
        11           O1  tau(  11) = (   1.2922713   1.4781662  12.6511241  )
        12           O1  tau(  12) = (   5.2965393   1.5043564  12.6031353  )
        13           Ti1 tau(  13) = (   6.5273184   3.0207086  12.5807821  )
        14           Ti1 tau(  14) = (   3.2344070   1.4559942  12.5004267  )
        15           O1  tau(  15) = (   6.4759410   0.0295824  14.6525783  )
        16           O1  tau(  16) = (   3.3604338   0.0238249  13.9383540  )
        17           O1  tau(  17) = (   4.5324113   1.5808541  16.1066768  )
        18           O1  tau(  18) = (   1.9684897   1.4712893  15.8817925  )
        19           Ti1 tau(  19) = (   3.2566353   3.0739815  15.8599551  )
        20           Ti1 tau(  20) = (   6.5466614   1.5318677  15.7800735  )
        21           O1  tau(  21) = (   3.2904802   0.0005063   4.7018136  )
        22           O1  tau(  22) = (   6.5744325   0.0155309  17.2227980  )
        23           O1  tau(  23) = (   1.3043587   1.4918075   6.0039043  )
        24           O1  tau(  24) = (   5.2767064   1.4903225   6.0039473  )
        25           Ti1 tau(  25) = (   0.0000382   5.9609847   6.0000000  )
        26           Ti1 tau(  26) = (   3.2902200   4.4714249   6.0002472  )
        27           O1  tau(  27) = (   0.0002396   2.9813036   7.9858123  )
        28           O1  tau(  28) = (   3.2902150   2.9813002   7.3038282  )
        29           O1  tau(  29) = (   4.5938453   4.4726049   9.2879030  )
        30           O1  tau(  30) = (   1.9864658   4.4711199   9.2879459  )
        31           Ti1 tau(  31) = (   3.2891106   5.8743827   9.1763621  )
        32           Ti1 tau(  32) = (   0.0006254   4.4649316   9.2693709  )
        33           O1  tau(  33) = (   3.2727763   2.9788165  11.3438337  )
        34           O1  tau(  34) = (   0.0092240   2.9805883  10.6323155  )
        35           O1  tau(  35) = (   1.2865780   4.4896361  12.6556599  )
        36           O1  tau(  36) = (   5.2967437   4.4749066  12.6066920  )
        37           Ti1 tau(  37) = (   6.5467059   0.0356701  12.5108493  )
        38           Ti1 tau(  38) = (   3.2305653   4.4019604  12.5605372  )
        39           O1  tau(  39) = (   6.5199767   2.9846217  14.6905747  )
        40           O1  tau(  40) = (   3.2851694   3.0254550  13.9321539  )
        41           O1  tau(  41) = (   4.5310495   4.4602642  16.1636806  )
        42           O1  tau(  42) = (   1.9842988   4.5744318  15.9411167  )
        43           Ti1 tau(  43) = (   3.2691225   0.1036042  15.7405456  )
        44           Ti1 tau(  44) = (   6.5697781   4.6877429  16.0360384  )
        45           O1  tau(  45) = (   3.2900926   2.9813045   4.7018136  )
        46           O1  tau(  46) = (   1.3039711   4.4726057   6.0039043  )
        47           O1  tau(  47) = (   5.2763189   4.4711207   6.0039473  )
        48           N1  tau(  48) = (   1.2792381   2.8578196  18.3696018  )
        49           N1  tau(  49) = (   0.1888888   2.9646215  17.5057353  )
        50           C1  tau(  50) = (   2.5352320   2.9081513  18.0382144  )
        51           H1  tau(  51) = (   3.1442446   2.7411670  18.9317345  )
        52           H1  tau(  52) = (   1.0014291   2.6635404  19.3302151  )
        53           H1  tau(  53) = (   5.9397212   2.8571719  18.0851170  )
        54           O1  tau(  54) = (   3.2530597   0.0341043  18.2348460  )
        55           H1  tau(  55) = (   4.0455299   5.4198958  18.2485053  )
        56           H1  tau(  56) = (   2.4923979   5.4091459  18.3156537  )

     number of k points=    10  Fermi-Dirac smearing, width (Ry)=  0.0073
                       cart. coord. in units 2pi/alat
        k(    1) = (   0.0000000   0.0000000   0.0000000), wk =   0.1250000
        k(    2) = (   0.0000000   0.0419351   0.0000000), wk =   0.2500000
        k(    3) = (   0.0000000  -0.0838702   0.0000000), wk =   0.1250000
        k(    4) = (   0.0379955   0.0000049   0.0000000), wk =   0.2500000
        k(    5) = (   0.0379955   0.0419400   0.0000000), wk =   0.2500000
        k(    6) = (   0.0379955  -0.0838652   0.0000000), wk =   0.2500000
        k(    7) = (   0.0379955  -0.0419301   0.0000000), wk =   0.2500000
        k(    8) = (  -0.0759910  -0.0000099   0.0000000), wk =   0.1250000
        k(    9) = (  -0.0759910   0.0419252   0.0000000), wk =   0.2500000
        k(   10) = (  -0.0759910  -0.0838800   0.0000000), wk =   0.1250000

     Initial potential from superposition of free atoms

     starting charge  386.99914, renormalised to  403.00000

     negative rho (up, down):  1.739E-02 0.000E+00

     %%%%%%%%%%%%%%%%%%%%%%%%%%%%%%%%%%%%%%%%%%%%%%%%%%%%%%%%%%%%%%%%%%%%%%%%
     %                                                                      %
     % You are using vdW-DF, which was implemented by the Thonhauser group. %
     % Please cite the following two papers that made this development      %
     % possible and the two reviews that describe the various versions:     %
     %                                                                      %
     %   T. Thonhauser et al., PRL 115, 136402 (2015).                      %
     %   T. Thonhauser et al., PRB 76, 125112 (2007).                       %
     %   K. Berland et al., Rep. Prog. Phys. 78, 066501 (2015).             %
     %   D.C. Langreth et al., J. Phys.: Condens. Matter 21, 084203 (2009). %
     %                                                                      %
     %                                                                      %
     % If you are calculating the stress with vdW-DF, please also cite:     %
     %                                                                      %
     %   R. Sabatini et al., J. Phys.: Condens. Matter 24, 424209 (2012).   %
     %                                                                      %
     %%%%%%%%%%%%%%%%%%%%%%%%%%%%%%%%%%%%%%%%%%%%%%%%%%%%%%%%%%%%%%%%%%%%%%%%

     Adding external electric field

     Computed dipole along edir(3) :
        Dipole              -12.3463 Ry au,        -31.3811 Debye
        Dipole field         -0.0233 Ry au,

        Potential amp.        2.1598 Ry
        Total length         46.3494 bohr

     Starting wfcs are  305 atomic wfcs
  @ DRIVER MODE: Message from server: STATUS
  @ DRIVER MODE: Message from server: POSDATA
  @ DRIVER MODE: Reading and sharing cell
  @ DRIVER MODE: Reading and sharing positions
  @ DRIVER MODE: Received positions

     Self-consistent Calculation

     iteration #  1     ecut=    29.40 Ry     beta= 0.05
     Davidson diagonalization with overlap
     c_bands:  5 eigenvalues not converged
     c_bands:  3 eigenvalues not converged
     c_bands:  3 eigenvalues not converged
     c_bands:  1 eigenvalues not converged
     c_bands:  2 eigenvalues not converged
     c_bands:  2 eigenvalues not converged
     c_bands:  5 eigenvalues not converged
     c_bands:  2 eigenvalues not converged
     c_bands:  4 eigenvalues not converged
     ethr =  1.00E-05,  avg # of iterations = 29.3

[...]

     total energy              =   -2358.71089529 Ry
     estimated scf accuracy    <    6971.47258429 Ry

     iteration #  2     ecut=    29.40 Ry     beta= 0.05
     Davidson diagonalization with overlap
     ethr =  1.00E-02,  avg # of iterations = 27.7

[...]

     iteration # 75     ecut=    29.40 Ry     beta= 0.05
     Davidson diagonalization with overlap
     c_bands:  1 eigenvalues not converged
     ethr =  2.59E-10,  avg # of iterations = 12.7

[...]

     total energy              =   -2973.93989089 Ry
     estimated scf accuracy    <       0.00000007 Ry

     iteration # 80     ecut=    29.40 Ry     beta= 0.05
     Davidson diagonalization with overlap
     ethr =  1.85E-11,  avg # of iterations = 10.9

     negative rho (up, down):  1.725E-02 0.000E+00

     Adding external electric field

     Computed dipole along edir(3) :
        Dipole                1.3991 Ry au,          3.5562 Debye
        Dipole field          0.0026 Ry au,

        Potential amp.       -0.2448 Ry
        Total length         46.3494 bohr

     End of self-consistent calculation

          k = 0.0000 0.0000 0.0000 ( 18029 PWs)   bands (ev):

   -55.3195 -55.2855 -55.2102 -55.1858 -55.1672 -55.1555 -55.1402 -55.1183
   -55.1063 -55.1043 -55.0976 -55.0631 -54.9919 -54.8337 -54.3000 -54.2660
   -31.8037 -31.7312 -31.6569 -31.6499 -31.6400 -31.6115 -31.5872 -31.5647
   -31.5198 -31.5009 -31.4719 -31.4639 -31.4554 -31.4409 -31.4256 -31.4213
   -31.3980 -31.3802 -31.3767 -31.3649 -31.3354 -31.3329 -31.3287 -31.3258
   -31.3230 -31.3192 -31.3150 -31.2969 -31.2892 -31.2791 -31.2721 -31.2720
   -31.2618 -31.2603 -31.2520 -31.2480 -31.2399 -31.2146 -31.2101 -31.0900
   -31.0750 -31.0492 -30.7069 -30.6188 -30.5964 -30.5238 -30.4373 -30.3261
   -18.8794 -18.6507 -15.9776 -15.7939 -15.6129 -15.4738 -15.3917 -15.1601
   -15.1017 -15.0632 -14.9822 -14.9592 -14.8588 -14.8404 -14.8389 -14.8202
   -14.8173 -14.7622 -14.7469 -14.7426 -14.6940 -14.6872 -14.6619 -14.6464
   -14.5942 -14.5152 -14.5067 -14.4602 -14.4149 -14.3685 -14.0224 -13.4125
   -12.8008 -12.6843  -8.8020  -7.2703  -6.6161  -4.3214  -3.7898  -3.3607
    -3.2845  -3.2491  -3.2242  -3.0884  -2.9716  -2.8657  -2.7553  -2.6711
    -2.5845  -2.4801  -2.4236  -2.3777  -2.3174  -2.2575  -2.2312  -2.1454
    -2.1259  -2.1062  -2.0844  -2.0579  -2.0285  -1.9919  -1.8685  -1.8582
    -1.7761  -1.7197  -1.6813  -1.6632  -1.6389  -1.6337  -1.6014  -1.5807
    -1.5724  -1.5606  -1.5589  -1.5241  -1.3848  -1.3607  -1.3322  -1.3099
    -1.1630  -1.0258  -0.9372  -0.9345  -0.8249  -0.7602  -0.7571  -0.7186
    -0.7029  -0.6004  -0.5153  -0.4781  -0.4541  -0.3751  -0.3178  -0.2625
    -0.2109  -0.1751  -0.1089  -0.0848  -0.0684  -0.0514   0.0176   0.0803
     0.1415   0.2263   0.2698   0.2944   0.3855   0.3995   0.4228   0.4874
     0.5194   0.5643   0.5997   0.6290   0.6525   0.6827   0.7079   0.7513
     0.7895   0.9150   0.9334   0.9620   0.9829   1.1572   1.2070   1.3099
     1.3399   1.4426   1.4844   1.6627   1.7239   1.8035   1.9159   2.2941
     2.3399   3.7898   3.9011   3.9352   3.9601   3.9994   4.0508   4.2574
     4.3304   4.3717   4.4306

[...]

          k = 0.0380-0.0419 0.0000 ( 17876 PWs)   bands (ev):

[...]

          k =-0.0760-0.0000 0.0000 ( 17886 PWs)   bands (ev):

[...]

          k =-0.0760-0.0839 0.0000 ( 17948 PWs)   bands (ev):

   -55.3027 -55.3021 -55.2008 -55.1824 -55.1759 -55.1440 -55.1301 -55.1233
   -55.1225 -55.1080 -55.0844 -55.0764 -54.9902 -54.8353 -54.2829 -54.2829
   -31.6192 -31.6188 -31.5972 -31.5968 -31.5654 -31.5334 -31.5023 -31.4898
   -31.4827 -31.4674 -31.4487 -31.4439 -31.4395 -31.4304 -31.4253 -31.4234
   -31.4221 -31.4217 -31.4166 -31.4009 -31.3900 -31.3759 -31.3651 -31.3628
   -31.3578 -31.3534 -31.3441 -31.3315 -31.3257 -31.3242 -31.3092 -31.3000
   -31.2965 -31.2961 -31.2943 -31.2913 -31.2613 -31.2332 -31.2193 -31.1461
   -31.0923 -31.0780 -30.6091 -30.6091 -30.5197 -30.5196 -30.4806 -30.4805
   -18.8686 -18.6571 -15.3550 -15.3199 -15.2820 -15.2545 -15.2385 -15.1177
   -15.1041 -15.0685 -15.0265 -15.0139 -14.9839 -14.9548 -14.9058 -14.8978
   -14.8631 -14.8435 -14.8044 -14.7779 -14.7586 -14.7542 -14.7375 -14.7159
   -14.6724 -14.6506 -14.6380 -14.6337 -14.5817 -14.4874 -14.2076 -13.4351
   -12.7861 -12.7861  -8.7979  -7.1956  -6.6165  -4.5299  -3.5713  -2.8665
    -2.6689  -2.6305  -2.5785  -2.4881  -2.4408  -2.3191  -2.3122  -2.2898
    -2.2443  -2.2312  -2.1905  -2.1504  -2.1446  -2.1166  -2.1043  -2.0596
    -2.0482  -2.0457  -2.0310  -1.9974  -1.9916  -1.9712  -1.9470  -1.9440
    -1.9339  -1.9174  -1.8843  -1.8772  -1.8500  -1.8311  -1.6801  -1.6062
    -1.5628  -1.4855  -1.4623  -1.4455  -1.4265  -1.3918  -1.3716  -1.3461
    -1.3175  -1.1715  -1.0300  -0.9964  -0.9713  -0.8731  -0.8579  -0.8386
    -0.7913  -0.7500  -0.7148  -0.6556  -0.6475  -0.6014  -0.5803  -0.4600
    -0.4234  -0.3240  -0.2879  -0.2864  -0.2686  -0.2538  -0.2368  -0.2110
    -0.1612  -0.0899  -0.0744  -0.0257  -0.0019   0.0007   0.0137   0.1596
     0.2305   0.2513   0.3534   0.3832   0.5580   0.7220   0.7339   0.8018
     0.8647   0.9198   0.9536   0.9936   1.0039   1.0696   1.0944   1.1991
     1.2092   1.2581   1.2635   1.3422   1.3544   2.0876   2.0893   2.1598
     2.1600   4.1536   4.1693   4.1975   4.2606   4.3041   4.3157   4.3530
     4.3568   4.4597   4.4752

     the Fermi energy is     3.8080 ev

!    total energy              =   -2973.93989931 Ry
     estimated scf accuracy    <       0.00000004 Ry
     smearing contrib. (-TS)   =      -0.02071938 Ry
     internal energy E=F+TS    =   -2973.91917993 Ry

     The total energy is F=E-TS. E is the sum of the following terms:
     one-electron contribution =  -24339.02849410 Ry
     hartree contribution      =   12267.22330226 Ry
     xc contribution           =    -494.11791446 Ry
     ewald contribution        =    9592.00023217 Ry
     electric field correction =       0.00369420 Ry

     convergence has been achieved in  80 iterations

     Forces acting on atoms (cartesian axes, Ry/au):

     atom    1 type  1   force =     0.00001849   -0.00010291    0.09508829
     atom    2 type  1   force =     0.00017675   -0.00068725   -0.17562572
     atom    3 type  2   force =     0.00008780   -0.00004972   -0.02294931
     atom    4 type  2   force =     0.00002235   -0.00143313    0.05290589
     atom    5 type  2   force =    -0.01000298   -0.00031077    0.00380377
     atom    6 type  2   force =     0.01112388    0.00020402    0.00205924
     atom    7 type  1   force =    -0.00020992    0.00177215   -0.00589418
     atom    8 type  1   force =     0.00081350    0.01008769    0.01604826
     atom    9 type  2   force =    -0.00015333    0.00087143    0.00033261
     atom   10 type  2   force =    -0.00227285    0.00217727   -0.01801750
     atom   11 type  2   force =     0.00024071   -0.00003025    0.00007436
     atom   12 type  2   force =    -0.00035594   -0.00018795    0.00055455
     atom   13 type  1   force =    -0.00002096    0.00126185    0.00017935
     atom   14 type  1   force =    -0.00012910    0.00009078   -0.00000488
     atom   15 type  2   force =     0.00010618    0.00021356   -0.00003003
     atom   16 type  2   force =    -0.00036874    0.00044125   -0.00024495
     atom   17 type  2   force =    -0.00022412   -0.00036157    0.00018506
     atom   18 type  2   force =    -0.00005704    0.00011077    0.00028795
     atom   19 type  1   force =    -0.00073976    0.00031898   -0.00027636
     atom   20 type  1   force =    -0.00013469   -0.00012400    0.00017189
     atom   21 type  2   force =     0.00008866   -0.00008273    0.10318817
     atom   22 type  2   force =     0.00025846    0.00000127    0.00053980
     atom   23 type  2   force =    -0.07161328   -0.00016348   -0.02757196
     atom   24 type  2   force =     0.07157039    0.00024492   -0.02761969
     atom   25 type  1   force =     0.00023689   -0.00039795    0.09519271
     atom   26 type  1   force =    -0.00004253   -0.00020154   -0.17580034
     atom   27 type  2   force =     0.00011923   -0.00012216   -0.02197843
     atom   28 type  2   force =     0.00001533   -0.00139852    0.05323539
     atom   29 type  2   force =    -0.01034544   -0.00022455    0.00364839
     atom   30 type  2   force =     0.01138033    0.00042366    0.00191623
     atom   31 type  1   force =    -0.00029631    0.00265514   -0.00010320
     atom   32 type  1   force =     0.00067301   -0.01114464    0.01692413
     atom   33 type  2   force =     0.00036854   -0.00027359    0.00000297
     atom   34 type  2   force =    -0.00033842    0.00143976   -0.01894910
     atom   35 type  2   force =    -0.00000806   -0.00035600   -0.00017025
     atom   36 type  2   force =    -0.00000430   -0.00024439    0.00043258
     atom   37 type  1   force =    -0.00006012   -0.00121967    0.00034133
     atom   38 type  1   force =    -0.00039455    0.00089310    0.00005515
     atom   39 type  2   force =     0.00006913    0.00007995    0.00008563
     atom   40 type  2   force =    -0.00047623   -0.00059629   -0.00001270
     atom   41 type  2   force =     0.00016876    0.00003056    0.00052763
     atom   42 type  2   force =    -0.00021704   -0.00045547   -0.00033834
     atom   43 type  1   force =    -0.00057252   -0.00018403    0.00045132
     atom   44 type  1   force =     0.00021504   -0.00031223    0.00022871
     atom   45 type  2   force =     0.00009916   -0.00010265    0.10320530
     atom   46 type  2   force =    -0.07159694   -0.00016952   -0.02755809
     atom   47 type  2   force =     0.07159626    0.00023948   -0.02756992
     atom   48 type  3   force =     0.00029758   -0.00045550    0.00027678
     atom   49 type  3   force =     0.00005513    0.00009513   -0.00017481
     atom   50 type  4   force =     0.00026266   -0.00029939    0.00045446
     atom   51 type  5   force =    -0.00016763   -0.00049634   -0.00023004
     atom   52 type  5   force =    -0.00001291   -0.00103856   -0.00082271
     atom   53 type  5   force =     0.00017832   -0.00040717   -0.00060512
     atom   54 type  2   force =     0.02505866    0.00174408   -0.00124898
     atom   55 type  5   force =    -0.01196961    0.00857941   -0.00023626
     atom   56 type  5   force =    -0.01251589   -0.01034230    0.00163499

     Total force =     0.366720     Total SCF correction =     0.000548
  @ DRIVER MODE: Message from server: STATUS
  @ DRIVER MODE: Message from server: GETFORCE
  @ DRIVER MODE: Returning v,forces,stress,ensemble

     Writing output data file ./calc.save/
  @ DRIVER MODE: Message from server: EXIT
  @ DRIVE MODE: Exiting

     General routines

     Parallel routines

   This run was terminated on:   4:50:12  23Sep2021

   JOB DONE.