     Program PWSCF v.6.7GPU starts on 16Sep2021 at  7:15:28

     R & G space division:  proc/nbgrp/npool/nimage =      10
     Reading input from /storage/home/hcoda1/3/ntian30/research/carbon/CxH_vib/H2O_calc/ads_slab/CH2NNHHH2O_a/out_0046/pw.inp
Warning: card &CELL ignored
Warning: card   CELL_DYNAMICS='IPI', ignored
Warning: card / ignored

     Current dimensions of program PWSCF are:
     Max number of different atomic species (ntypx) = 10
     Max number of k-points (npk) =  40000
     Max angular momentum in pseudopotentials (lmaxx) =  3
     Presently no symmetry can be used with electric field

     Message from routine cell_base_init:
     DEPRECATED: use true lattice parameter, not A to a.u. conversion factor

     IMPORTANT: XC functional enforced from input :
     Exchange-correlation= BEEF-VDW
                           (   1   4  43  14   2   0   0)
     Any further DFT definition will be discarded
     Please, verify this is what you really want

  @ DRIVER MODE: Connecting to
 qe_1139763_2852611.sched-torque.pace.gatech.eduouhcxzba_scratch
  using UNIX socket
  @ DRIVER MODE: Message from server: STATUS
  @ DRIVER MODE: Message from server: INIT
  @ DRIVER MODE: Receiving replica           0          -1
  @ DRIVER MODE: Receiving encoded integer          25
  @ DRIVER MODE:  SCF:  T  FORCE:  T  STRESS:  F  VC:  F  ENSEMBLE:  F
  @ DRIVER MODE:  SCF:  T  FORCE:  T  STRESS:  F  VC:  F  ENSEMBLE:  F

     Using Slab Decomposition

     bravais-lattice index     =            0
     lattice parameter (alat)  =       1.8897  a.u.
     unit-cell volume          =    6658.9804 (a.u.)^3
     number of atoms/cell      =           57
     number of atomic types    =            5
     number of electrons       =       404.00
     number of Kohn-Sham states=          212
     kinetic-energy cutoff     =      29.3995  Ry
     charge density cutoff     =     293.9946  Ry
     scf convergence threshold =      7.3E-08
     mixing beta               =       0.0500
     number of iterations used =            8  plain     mixing
     Exchange-correlation= BEEF-VDW
                           (   1   4  43  14   2   0   0)

     celldm(1)=   1.889726  celldm(2)=   0.000000  celldm(3)=   0.000000
     celldm(4)=   0.000000  celldm(5)=   0.000000  celldm(6)=   0.000000

     crystal axes: (cart. coord. in units of alat)
               a(1) = (   6.579727   0.000000   0.000000 )
               a(2) = (  -0.000775   5.961596   0.000000 )
               a(3) = (   0.000000   0.000000  25.155947 )

     reciprocal axes: (cart. coord. in units 2 pi/alat)
               b(1) = (  0.151982  0.000020  0.000000 )
               b(2) = (  0.000000  0.167740  0.000000 )
               b(3) = (  0.000000  0.000000  0.039752 )

     PseudoPot. # 1 for Ti read from file:
     /storage/coda1/p-amedford6/0/shared/rich_project_chbe-medford/medford-share/data/pseudos_module/espresso/nninc/pbe/van/Ti.UPF
     MD5 check sum: 8e4df49b7f0d34bbd5052bf3f5ea0213
     Pseudo is Ultrasoft, Zval = 12.0
     Generated by new atomic code, or converted to UPF format
     Using radial grid of  851 points,  6 beta functions with:
                l(1) =   0
                l(2) =   0
                l(3) =   1
                l(4) =   1
                l(5) =   2
                l(6) =   2
     Q(r) pseudized with  8 coefficients,  rinner =    1.000   1.000   1.000
                                                       1.000   1.000

     PseudoPot. # 2 for O  read from file:
     /storage/coda1/p-amedford6/0/shared/rich_project_chbe-medford/medford-share/data/pseudos_module/espresso/nninc/pbe/van/O.UPF
     MD5 check sum: 78c19812648e8988a0fe644b0f25305e
     Pseudo is Ultrasoft, Zval =  6.0
     Generated by new atomic code, or converted to UPF format
     Using radial grid of  737 points,  4 beta functions with:
                l(1) =   0
                l(2) =   0
                l(3) =   1
                l(4) =   1
     Q(r) pseudized with  8 coefficients,  rinner =    0.800   0.800   0.800

     PseudoPot. # 3 for N  read from file:
     /storage/coda1/p-amedford6/0/shared/rich_project_chbe-medford/medford-share/data/pseudos_module/espresso/nninc/pbe/van/N.UPF
     MD5 check sum: 90d10febe142ad51ac9d5be1deb811c4
     Pseudo is Ultrasoft, Zval =  5.0
     Generated by new atomic code, or converted to UPF format
     Using radial grid of  729 points,  4 beta functions with:
                l(1) =   0
                l(2) =   0
                l(3) =   1
                l(4) =   1
     Q(r) pseudized with  8 coefficients,  rinner =    0.800   0.800   0.800

     PseudoPot. # 4 for C  read from file:
     /storage/coda1/p-amedford6/0/shared/rich_project_chbe-medford/medford-share/data/pseudos_module/espresso/nninc/pbe/van/C.UPF
     MD5 check sum: 1a69bf6b8db32088f5b2163dbdb77a27
     Pseudo is Ultrasoft, Zval =  4.0
     Generated by new atomic code, or converted to UPF format
     Using radial grid of  721 points,  4 beta functions with:
                l(1) =   0
                l(2) =   0
                l(3) =   1
                l(4) =   1
     Q(r) pseudized with  8 coefficients,  rinner =    0.800   0.800   0.800

     PseudoPot. # 5 for H  read from file:
     /storage/coda1/p-amedford6/0/shared/rich_project_chbe-medford/medford-share/data/pseudos_module/espresso/nninc/pbe/van/H.UPF
     MD5 check sum: b5ee9d7bfd3a09ee7748110bda690ff7
     Pseudo is Ultrasoft, Zval =  1.0
     Generated by new atomic code, or converted to UPF format
     Using radial grid of  615 points,  1 beta functions with:
                l(1) =   0
     Q(r) pseudized with  8 coefficients,  rinner =    0.800

     atomic species   valence    mass     pseudopotential
        Ti1           12.00    47.86700     Ti( 1.00)
        O1             6.00    15.99900     O ( 1.00)
        N1             5.00    14.00700     N ( 1.00)
        C1             4.00    12.01100     C ( 1.00)
        H1             1.00     1.00800     H ( 1.00)

     No symmetry found

   Cartesian axes

     site n.     atom                  positions (alat units)
         1           Ti1 tau(   1) = (   0.0004258   2.9801865   6.0000000  )
         2           Ti1 tau(   2) = (   3.2906075   1.4906267   6.0002472  )
         3           O1  tau(   3) = (   0.0006271   0.0005054   7.9858123  )
         4           O1  tau(   4) = (   3.2906025   0.0005020   7.3038282  )
         5           O1  tau(   5) = (   4.5942328   1.4918067   9.2879030  )
         6           O1  tau(   6) = (   1.9868534   1.4903216   9.2879459  )
         7           Ti1 tau(   7) = (   3.2907910   2.8959150   9.1758416  )
         8           Ti1 tau(   8) = (   0.0015273   1.4827037   9.2680791  )
         9           O1  tau(   9) = (   3.3121314   5.9338840  11.3691909  )
        10           O1  tau(  10) = (   0.0116148   5.9584955  10.6183126  )
        11           O1  tau(  11) = (   1.3134021   1.4784130  12.6451072  )
        12           O1  tau(  12) = (   5.3172625   1.4801399  12.6491864  )
        13           Ti1 tau(  13) = (   0.0380378   2.9573341  12.5222382  )
        14           Ti1 tau(  14) = (   3.3404755   1.4532591  12.5245293  )
        15           O1  tau(  15) = (   0.0239237   0.0366503  14.6894071  )
        16           O1  tau(  16) = (   3.3255740   5.9570089  14.0129324  )
        17           O1  tau(  17) = (   4.5846449   1.4795273  16.1858442  )
        18           O1  tau(  18) = (   2.0539891   1.4908220  16.1938258  )
        19           Ti1 tau(  19) = (   3.3028508   2.9322526  15.7076921  )
        20           Ti1 tau(  20) = (   0.0088316   1.3655950  16.0522487  )
        21           O1  tau(  21) = (   3.2904802   0.0005063   4.7018136  )
        22           O1  tau(  22) = (   0.0586005   5.8320325  17.2288864  )
        23           O1  tau(  23) = (   1.3043587   1.4918075   6.0039043  )
        24           O1  tau(  24) = (   5.2767064   1.4903225   6.0039473  )
        25           Ti1 tau(  25) = (   0.0000382   5.9609847   6.0000000  )
        26           Ti1 tau(  26) = (   3.2902200   4.4714249   6.0002472  )
        27           O1  tau(  27) = (   0.0002396   2.9813036   7.9858123  )
        28           O1  tau(  28) = (   3.2902150   2.9813002   7.3038282  )
        29           O1  tau(  29) = (   4.5938453   4.4726049   9.2879030  )
        30           O1  tau(  30) = (   1.9864658   4.4711199   9.2879459  )
        31           Ti1 tau(  31) = (   3.2891106   5.8743827   9.1763621  )
        32           Ti1 tau(  32) = (   0.0006254   4.4649316   9.2693709  )
        33           O1  tau(  33) = (   3.3142679   2.9660735  11.3641874  )
        34           O1  tau(  34) = (   0.0092240   2.9805883  10.6323155  )
        35           O1  tau(  35) = (   1.3108675   4.4558178  12.6782323  )
        36           O1  tau(  36) = (   5.3175068   4.4537340  12.6790822  )
        37           Ti1 tau(  37) = (   0.0418451   5.9490355  12.4996082  )
        38           Ti1 tau(  38) = (   3.3402151   4.4429940  12.5219265  )
        39           O1  tau(  39) = (   0.0332256   2.9148708  14.9327709  )
        40           O1  tau(  40) = (   3.3156017   2.9437717  13.9283311  )
        41           O1  tau(  41) = (   4.5915719   4.3868214  16.1197993  )
        42           O1  tau(  42) = (   2.0539401   4.4017640  16.0846163  )
        43           Ti1 tau(  43) = (   3.3369130   5.9116756  15.8392261  )
        44           Ti1 tau(  44) = (   0.0533093   4.5818758  15.8415549  )
        45           O1  tau(  45) = (   3.2900926   2.9813045   4.7018136  )
        46           O1  tau(  46) = (   1.3039711   4.4726057   6.0039043  )
        47           O1  tau(  47) = (   5.2763189   4.4711207   6.0039473  )
        48           N1  tau(  48) = (   6.5287229   2.7802708  18.1865785  )
        49           C1  tau(  49) = (   0.9724842   2.7744648  18.9576868  )
        50           H1  tau(  50) = (   0.9153086   3.0669255  20.0057840  )
        51           H1  tau(  51) = (   1.9225290   2.4867234  18.5393133  )
        52           N1  tau(  52) = (   5.2958906   3.1014149  18.7352402  )
        53           H1  tau(  53) = (   5.3913054   3.6367428  19.5974321  )
        54           H1  tau(  54) = (   4.7863746   3.6605970  18.0522289  )
        55           O1  tau(  55) = (   3.2511457   5.8252340  18.3397965  )
        56           H1  tau(  56) = (   3.7467739   0.6636339  18.5518981  )
        57           H1  tau(  57) = (   2.3053106   0.0674530  18.4201010  )

     number of k points=    10  Fermi-Dirac smearing, width (Ry)=  0.0073
                       cart. coord. in units 2pi/alat
        k(    1) = (   0.0000000   0.0000000   0.0000000), wk =   0.1250000
        k(    2) = (   0.0000000   0.0419351   0.0000000), wk =   0.2500000
        k(    3) = (   0.0000000  -0.0838702   0.0000000), wk =   0.1250000
        k(    4) = (   0.0379955   0.0000049   0.0000000), wk =   0.2500000
        k(    5) = (   0.0379955   0.0419400   0.0000000), wk =   0.2500000
        k(    6) = (   0.0379955  -0.0838652   0.0000000), wk =   0.2500000
        k(    7) = (   0.0379955  -0.0419301   0.0000000), wk =   0.2500000
        k(    8) = (  -0.0759910  -0.0000099   0.0000000), wk =   0.1250000
        k(    9) = (  -0.0759910   0.0419252   0.0000000), wk =   0.2500000
        k(   10) = (  -0.0759910  -0.0838800   0.0000000), wk =   0.1250000

     Initial potential from superposition of free atoms

     starting charge  387.99913, renormalised to  404.00000

     negative rho (up, down):  1.527E-02 0.000E+00

     %%%%%%%%%%%%%%%%%%%%%%%%%%%%%%%%%%%%%%%%%%%%%%%%%%%%%%%%%%%%%%%%%%%%%%%%
     %                                                                      %
     % You are using vdW-DF, which was implemented by the Thonhauser group. %
     % Please cite the following two papers that made this development      %
     % possible and the two reviews that describe the various versions:     %
     %                                                                      %
     %   T. Thonhauser et al., PRL 115, 136402 (2015).                      %
     %   T. Thonhauser et al., PRB 76, 125112 (2007).                       %
     %   K. Berland et al., Rep. Prog. Phys. 78, 066501 (2015).             %
     %   D.C. Langreth et al., J. Phys.: Condens. Matter 21, 084203 (2009). %
     %                                                                      %
     %                                                                      %
     % If you are calculating the stress with vdW-DF, please also cite:     %
     %                                                                      %
     %   R. Sabatini et al., J. Phys.: Condens. Matter 24, 424209 (2012).   %
     %                                                                      %
     %%%%%%%%%%%%%%%%%%%%%%%%%%%%%%%%%%%%%%%%%%%%%%%%%%%%%%%%%%%%%%%%%%%%%%%%

     Adding external electric field

     Computed dipole along edir(3) :
        Dipole              -14.3244 Ry au,        -36.4090 Debye
        Dipole field         -0.0270 Ry au,

        Potential amp.        2.5058 Ry
        Total length         46.3494 bohr

     Starting wfcs are  306 atomic wfcs
  @ DRIVER MODE: Message from server: STATUS
  @ DRIVER MODE: Message from server: POSDATA
  @ DRIVER MODE: Reading and sharing cell
  @ DRIVER MODE: Reading and sharing positions
  @ DRIVER MODE: Received positions

     Self-consistent Calculation

     iteration #  1     ecut=    29.40 Ry     beta= 0.05
     Davidson diagonalization with overlap
     c_bands:  4 eigenvalues not converged
     c_bands:  3 eigenvalues not converged
     c_bands:  1 eigenvalues not converged
     c_bands:  2 eigenvalues not converged
     c_bands:  1 eigenvalues not converged
     c_bands:  2 eigenvalues not converged
     c_bands:  4 eigenvalues not converged
     c_bands:  5 eigenvalues not converged
     ethr =  1.00E-05,  avg # of iterations = 26.2

[...]

     total energy              =   -2233.89746718 Ry
     estimated scf accuracy    <    8445.35212664 Ry

     iteration #  2     ecut=    29.40 Ry     beta= 0.05
     Davidson diagonalization with overlap
     ethr =  1.00E-02,  avg # of iterations = 25.9

[...]

     iteration # 60     ecut=    29.40 Ry     beta= 0.05
     Davidson diagonalization with overlap
     ethr =  3.99E-11,  avg # of iterations = 11.9

[...]

     total energy              =   -2975.20579009 Ry
     estimated scf accuracy    <       0.00000011 Ry

     iteration # 61     ecut=    29.40 Ry     beta= 0.05
     Davidson diagonalization with overlap
     c_bands:  1 eigenvalues not converged
     c_bands:  1 eigenvalues not converged
     ethr =  2.77E-11,  avg # of iterations = 15.4

     negative rho (up, down):  1.521E-02 0.000E+00

     Adding external electric field

     Computed dipole along edir(3) :
        Dipole                1.4013 Ry au,          3.5617 Debye
        Dipole field          0.0026 Ry au,

        Potential amp.       -0.2451 Ry
        Total length         46.3494 bohr

     End of self-consistent calculation

          k = 0.0000 0.0000 0.0000 ( 18029 PWs)   bands (ev):

   -55.1882 -55.1522 -55.1485 -55.1144 -55.1008 -55.0689 -55.0348 -55.0309
   -55.0069 -54.9777 -54.9720 -54.9687 -54.9441 -54.8740 -54.1718 -54.1377
   -31.7534 -31.6402 -31.5988 -31.5575 -31.5068 -31.4963 -31.4895 -31.4823
   -31.4375 -31.4033 -31.3996 -31.3930 -31.3909 -31.3647 -31.3421 -31.3330
   -31.3322 -31.3258 -31.3063 -31.3003 -31.2811 -31.2765 -31.2616 -31.2479
   -31.2368 -31.2344 -31.2141 -31.2075 -31.2055 -31.1991 -31.1931 -31.1753
   -31.1707 -31.1601 -31.1552 -31.1423 -31.1211 -31.1172 -31.1058 -31.0893
   -31.0881 -31.0035 -30.5808 -30.4874 -30.4653 -30.3973 -30.3105 -30.1995
   -18.9616 -18.5449 -16.0140 -15.7489 -15.6129 -15.5028 -15.3871 -15.2574
   -15.2097 -15.0785 -15.0190 -14.9055 -14.8775 -14.8353 -14.8164 -14.8110
   -14.7531 -14.7256 -14.7188 -14.6934 -14.6832 -14.6619 -14.6224 -14.6162
   -14.5804 -14.5688 -14.5654 -14.4204 -14.3429 -14.2785 -13.9676 -13.6691
   -12.6741 -12.5568  -8.8006  -6.7958  -6.4629  -6.0620  -4.1427  -3.3570
    -3.2015  -3.1866  -3.1238  -3.0852  -3.0700  -2.9929  -2.9390  -2.7343
    -2.6010  -2.5737  -2.4548  -2.3888  -2.3847  -2.3305  -2.1885  -2.1839
    -2.1286  -2.0901  -2.0388  -2.0181  -1.9954  -1.9719  -1.9375  -1.9186
    -1.8916  -1.7569  -1.7368  -1.6624  -1.6006  -1.5900  -1.5320  -1.5081
    -1.4892  -1.4844  -1.4751  -1.4634  -1.4237  -1.4107  -1.3670  -1.3097
    -1.2072  -1.1193  -1.0265  -0.9477  -0.8855  -0.8230  -0.7612  -0.7520
    -0.6750  -0.6626  -0.5714  -0.5483  -0.5178  -0.4048  -0.3451  -0.3383
    -0.2748  -0.1731  -0.1444  -0.1268  -0.0574   0.0213   0.0401   0.0480
     0.0560   0.1795   0.2327   0.2652   0.2986   0.3692   0.3908   0.4404
     0.4869   0.4936   0.5727   0.6325   0.6867   0.7360   0.7535   0.7779
     0.7958   0.8054   0.8225   0.9035   0.9263   0.9594   1.0125   1.1681
     1.3272   1.4269   1.4430   1.7609   1.7742   1.8513   2.0356   2.4265
     2.4744   3.9078   3.9846   4.0436   4.0499   4.0591   4.1450   4.3894
     4.4050   4.4178   4.4301   4.4739

[...]

          k = 0.0380-0.0419 0.0000 ( 17876 PWs)   bands (ev):

[...]

          k =-0.0760-0.0000 0.0000 ( 17886 PWs)   bands (ev):

[...]

          k =-0.0760-0.0839 0.0000 ( 17948 PWs)   bands (ev):

   -55.1710 -55.1692 -55.1315 -55.1312 -55.0985 -55.0580 -55.0418 -55.0328
   -54.9924 -54.9859 -54.9708 -54.9613 -54.9607 -54.8759 -54.1547 -54.1547
   -31.5628 -31.5526 -31.5237 -31.4554 -31.4551 -31.4488 -31.4400 -31.4230
   -31.4227 -31.4017 -31.3911 -31.3883 -31.3758 -31.3499 -31.3255 -31.3201
   -31.3199 -31.3196 -31.3172 -31.3079 -31.3024 -31.2836 -31.2706 -31.2677
   -31.2540 -31.2510 -31.2507 -31.2502 -31.2404 -31.2360 -31.2259 -31.2244
   -31.2167 -31.2056 -31.1998 -31.1899 -31.1886 -31.1520 -31.1412 -31.1410
   -31.0976 -31.0899 -30.4780 -30.4780 -30.3934 -30.3932 -30.3539 -30.3539
   -18.9594 -18.5440 -15.5311 -15.4845 -15.3291 -15.1948 -15.1916 -15.1514
   -15.0958 -15.0242 -15.0032 -14.9600 -14.9494 -14.9306 -14.8934 -14.8865
   -14.8601 -14.7895 -14.7800 -14.7716 -14.7377 -14.6987 -14.6881 -14.6866
   -14.6698 -14.6400 -14.6369 -14.5395 -14.5373 -14.4451 -14.3073 -13.6843
   -12.6583 -12.6582  -8.7647  -6.7955  -6.4127  -6.0899  -4.1854  -3.2040
    -2.9192  -2.7485  -2.6432  -2.5391  -2.4140  -2.4085  -2.3231  -2.3147
    -2.2338  -2.1995  -2.1873  -2.1718  -2.0806  -2.0671  -2.0578  -2.0348
    -2.0184  -2.0005  -1.9686  -1.9628  -1.9393  -1.9122  -1.9018  -1.9001
    -1.8814  -1.8480  -1.8171  -1.7977  -1.7773  -1.7467  -1.7364  -1.6664
    -1.6270  -1.5395  -1.5046  -1.3897  -1.3879  -1.3660  -1.3111  -1.2908
    -1.2697  -1.2207  -1.2115  -1.1656  -1.0232  -0.9369  -0.9259  -0.8879
    -0.8397  -0.7900  -0.7431  -0.7276  -0.6618  -0.6408  -0.5477  -0.5323
    -0.4301  -0.3895  -0.3769  -0.3611  -0.2796  -0.2145  -0.1677  -0.1476
    -0.1432  -0.0920  -0.0783  -0.0650   0.0068   0.0540   0.0777   0.0923
     0.1338   0.3022   0.3624   0.3760   0.4953   0.5444   0.6484   0.7087
     0.7844   0.8044   0.8406   0.9310   0.9376   1.0141   1.1089   1.1228
     1.1587   1.2035   1.2523   1.2751   1.2800   2.2086   2.2099   2.2944
     2.2945   4.0516   4.1277   4.1859   4.2338   4.2420   4.3633   4.4251
     4.4678   4.4901   4.4921   4.5683

     the Fermi energy is     3.9658 ev

!    total energy              =   -2975.20584838 Ry
     estimated scf accuracy    <       0.00000006 Ry
     smearing contrib. (-TS)   =      -0.03732288 Ry
     internal energy E=F+TS    =   -2975.16852550 Ry

     The total energy is F=E-TS. E is the sum of the following terms:
     one-electron contribution =  -23538.30427405 Ry
     hartree contribution      =   11867.17291980 Ry
     xc contribution           =    -494.98162981 Ry
     ewald contribution        =    9190.94075297 Ry
     electric field correction =       0.00370560 Ry

     convergence has been achieved in  61 iterations

     Forces acting on atoms (cartesian axes, Ry/au):

     atom    1 type  1   force =     0.00005449   -0.00019443    0.09357524
     atom    2 type  1   force =    -0.00019990   -0.00020926   -0.17804296
     atom    3 type  2   force =     0.00010966   -0.00021088   -0.02066566
     atom    4 type  2   force =     0.00004818   -0.00197881    0.05806816
     atom    5 type  2   force =    -0.01003355   -0.00166943    0.00693182
     atom    6 type  2   force =     0.01217975   -0.00103993    0.00744783
     atom    7 type  1   force =     0.00022486    0.00249050   -0.01207873
     atom    8 type  1   force =    -0.00049434    0.00204944   -0.00193980
     atom    9 type  2   force =     0.00006675    0.00006203   -0.00006332
     atom   10 type  2   force =    -0.00044431   -0.00135778   -0.00318255
     atom   11 type  2   force =     0.00014221   -0.00007679   -0.00008245
     atom   12 type  2   force =    -0.00065339   -0.00011883    0.00007802
     atom   13 type  1   force =     0.00050941    0.00098939    0.00025379
     atom   14 type  1   force =    -0.00139763    0.00027607    0.00017656
     atom   15 type  2   force =    -0.00018683    0.00092327    0.00021603
     atom   16 type  2   force =    -0.00001185   -0.00043736    0.00014288
     atom   17 type  2   force =     0.00078196    0.00011451   -0.00037659
     atom   18 type  2   force =     0.00044837    0.00027945   -0.00058008
     atom   19 type  1   force =    -0.00119241    0.00072039    0.00051771
     atom   20 type  1   force =     0.00063330   -0.00003063   -0.00086271
     atom   21 type  2   force =     0.00001496   -0.00002311    0.10387489
     atom   22 type  2   force =     0.00011651    0.00085769   -0.00003253
     atom   23 type  2   force =    -0.07054131   -0.00012308   -0.02697551
     atom   24 type  2   force =     0.07047869    0.00030347   -0.02703841
     atom   25 type  1   force =     0.00001493   -0.00018086    0.09303483
     atom   26 type  1   force =    -0.00009147   -0.00049019   -0.17795848
     atom   27 type  2   force =     0.00017089   -0.00036288   -0.01954557
     atom   28 type  2   force =     0.00010983   -0.00160362    0.05714945
     atom   29 type  2   force =    -0.01007850   -0.00085880    0.00630803
     atom   30 type  2   force =     0.01214106   -0.00061462    0.00686798
     atom   31 type  1   force =     0.00031683    0.00503909   -0.01525069
     atom   32 type  1   force =    -0.00039368   -0.00270183   -0.00236591
     atom   33 type  2   force =    -0.00003315   -0.00025663   -0.00006280
     atom   34 type  2   force =     0.00046203    0.00032130   -0.00055387
     atom   35 type  2   force =    -0.00012868   -0.00037390   -0.00008147
     atom   36 type  2   force =    -0.00043455   -0.00036652    0.00023643
     atom   37 type  1   force =     0.00026951   -0.00103026    0.00051400
     atom   38 type  1   force =    -0.00122146    0.00025463    0.00128264
     atom   39 type  2   force =    -0.00012535   -0.00042893    0.00025727
     atom   40 type  2   force =     0.00003088   -0.00041041    0.00043849
     atom   41 type  2   force =    -0.00022628    0.00002520    0.00022310
     atom   42 type  2   force =     0.00135569   -0.00016392    0.00025208
     atom   43 type  1   force =    -0.00119448   -0.00043017    0.00001889
     atom   44 type  1   force =     0.00092256    0.00061601   -0.00005499
     atom   45 type  2   force =     0.00003980   -0.00001896    0.10380777
     atom   46 type  2   force =    -0.07057610   -0.00007126   -0.02698340
     atom   47 type  2   force =     0.07048305    0.00039486   -0.02701359
     atom   48 type  3   force =    -0.00062747    0.00011568    0.00089001
     atom   49 type  4   force =     0.00064163    0.00056475   -0.00025691
     atom   50 type  5   force =    -0.00046311    0.00006152   -0.00053513
     atom   51 type  5   force =    -0.00040567   -0.00011057   -0.00001668
     atom   52 type  3   force =    -0.00028225    0.00059310    0.00003889
     atom   53 type  5   force =     0.00021940    0.00052061   -0.00029921
     atom   54 type  5   force =    -0.00058874    0.00076296    0.00014888
     atom   55 type  2   force =    -0.00432717   -0.01597253   -0.00450403
     atom   56 type  5   force =     0.00600951    0.01340891    0.00441918
     atom   57 type  5   force =    -0.00264311    0.00217237    0.00023319

     Total force =     0.366489     Total SCF correction =     0.000592
  @ DRIVER MODE: Message from server: STATUS
  @ DRIVER MODE: Message from server: GETFORCE
  @ DRIVER MODE: Returning v,forces,stress,ensemble

     Writing output data file ./calc.save/
  @ DRIVER MODE: Message from server: EXIT
  @ DRIVE MODE: Exiting

     General routines

     Parallel routines

   This run was terminated on:   7:33:17  16Sep2021

   JOB DONE.