     Program PWSCF v.6.7GPU starts on 16Sep2021 at  4:59:27

     R & G space division:  proc/nbgrp/npool/nimage =      10
     Reading input from /storage/home/hcoda1/3/ntian30/research/carbon/CxH_vib/H2O_calc/ads_slab/CH3NHNH2H2O_a/out_0038/pw.inp
Warning: card &CELL ignored
Warning: card   CELL_DYNAMICS='IPI', ignored
Warning: card / ignored

     Current dimensions of program PWSCF are:
     Max number of different atomic species (ntypx) = 10
     Max number of k-points (npk) =  40000
     Max angular momentum in pseudopotentials (lmaxx) =  3
     Presently no symmetry can be used with electric field

     Message from routine cell_base_init:
     DEPRECATED: use true lattice parameter, not A to a.u. conversion factor

     IMPORTANT: XC functional enforced from input :
     Exchange-correlation= BEEF-VDW
                           (   1   4  43  14   2   0   0)
     Any further DFT definition will be discarded
     Please, verify this is what you really want

  @ DRIVER MODE: Connecting to
 qe_1139763_2852619.sched-torque.pace.gatech.eduzbdrcuts_scratch
  using UNIX socket
  @ DRIVER MODE: Message from server: STATUS
  @ DRIVER MODE: Message from server: INIT
  @ DRIVER MODE: Receiving replica           0          -1
  @ DRIVER MODE: Receiving encoded integer          25
  @ DRIVER MODE:  SCF:  T  FORCE:  T  STRESS:  F  VC:  F  ENSEMBLE:  F
  @ DRIVER MODE:  SCF:  T  FORCE:  T  STRESS:  F  VC:  F  ENSEMBLE:  F

     Using Slab Decomposition

     bravais-lattice index     =            0
     lattice parameter (alat)  =       1.8897  a.u.
     unit-cell volume          =    6658.9804 (a.u.)^3
     number of atoms/cell      =           59
     number of atomic types    =            5
     number of electrons       =       406.00
     number of Kohn-Sham states=          213
     kinetic-energy cutoff     =      29.3995  Ry
     charge density cutoff     =     293.9946  Ry
     scf convergence threshold =      7.3E-08
     mixing beta               =       0.0500
     number of iterations used =            8  plain     mixing
     Exchange-correlation= BEEF-VDW
                           (   1   4  43  14   2   0   0)

     celldm(1)=   1.889726  celldm(2)=   0.000000  celldm(3)=   0.000000
     celldm(4)=   0.000000  celldm(5)=   0.000000  celldm(6)=   0.000000

     crystal axes: (cart. coord. in units of alat)
               a(1) = (   6.579727   0.000000   0.000000 )
               a(2) = (  -0.000775   5.961596   0.000000 )
               a(3) = (   0.000000   0.000000  25.155947 )

     reciprocal axes: (cart. coord. in units 2 pi/alat)
               b(1) = (  0.151982  0.000020  0.000000 )
               b(2) = (  0.000000  0.167740  0.000000 )
               b(3) = (  0.000000  0.000000  0.039752 )

     PseudoPot. # 1 for Ti read from file:
     /storage/coda1/p-amedford6/0/shared/rich_project_chbe-medford/medford-share/data/pseudos_module/espresso/nninc/pbe/van/Ti.UPF
     MD5 check sum: 8e4df49b7f0d34bbd5052bf3f5ea0213
     Pseudo is Ultrasoft, Zval = 12.0
     Generated by new atomic code, or converted to UPF format
     Using radial grid of  851 points,  6 beta functions with:
                l(1) =   0
                l(2) =   0
                l(3) =   1
                l(4) =   1
                l(5) =   2
                l(6) =   2
     Q(r) pseudized with  8 coefficients,  rinner =    1.000   1.000   1.000
                                                       1.000   1.000

     PseudoPot. # 2 for O  read from file:
     /storage/coda1/p-amedford6/0/shared/rich_project_chbe-medford/medford-share/data/pseudos_module/espresso/nninc/pbe/van/O.UPF
     MD5 check sum: 78c19812648e8988a0fe644b0f25305e
     Pseudo is Ultrasoft, Zval =  6.0
     Generated by new atomic code, or converted to UPF format
     Using radial grid of  737 points,  4 beta functions with:
                l(1) =   0
                l(2) =   0
                l(3) =   1
                l(4) =   1
     Q(r) pseudized with  8 coefficients,  rinner =    0.800   0.800   0.800

     PseudoPot. # 3 for N  read from file:
     /storage/coda1/p-amedford6/0/shared/rich_project_chbe-medford/medford-share/data/pseudos_module/espresso/nninc/pbe/van/N.UPF
     MD5 check sum: 90d10febe142ad51ac9d5be1deb811c4
     Pseudo is Ultrasoft, Zval =  5.0
     Generated by new atomic code, or converted to UPF format
     Using radial grid of  729 points,  4 beta functions with:
                l(1) =   0
                l(2) =   0
                l(3) =   1
                l(4) =   1
     Q(r) pseudized with  8 coefficients,  rinner =    0.800   0.800   0.800

     PseudoPot. # 4 for C  read from file:
     /storage/coda1/p-amedford6/0/shared/rich_project_chbe-medford/medford-share/data/pseudos_module/espresso/nninc/pbe/van/C.UPF
     MD5 check sum: 1a69bf6b8db32088f5b2163dbdb77a27
     Pseudo is Ultrasoft, Zval =  4.0
     Generated by new atomic code, or converted to UPF format
     Using radial grid of  721 points,  4 beta functions with:
                l(1) =   0
                l(2) =   0
                l(3) =   1
                l(4) =   1
     Q(r) pseudized with  8 coefficients,  rinner =    0.800   0.800   0.800

     PseudoPot. # 5 for H  read from file:
     /storage/coda1/p-amedford6/0/shared/rich_project_chbe-medford/medford-share/data/pseudos_module/espresso/nninc/pbe/van/H.UPF
     MD5 check sum: b5ee9d7bfd3a09ee7748110bda690ff7
     Pseudo is Ultrasoft, Zval =  1.0
     Generated by new atomic code, or converted to UPF format
     Using radial grid of  615 points,  1 beta functions with:
                l(1) =   0
     Q(r) pseudized with  8 coefficients,  rinner =    0.800

     atomic species   valence    mass     pseudopotential
        Ti1           12.00    47.86700     Ti( 1.00)
        O1             6.00    15.99900     O ( 1.00)
        N1             5.00    14.00700     N ( 1.00)
        C1             4.00    12.01100     C ( 1.00)
        H1             1.00     1.00800     H ( 1.00)

     No symmetry found

   Cartesian axes

     site n.     atom                  positions (alat units)
         1           Ti1 tau(   1) = (   0.0004258   2.9801865   6.0000000  )
         2           Ti1 tau(   2) = (   3.2906075   1.4906267   6.0002472  )
         3           O1  tau(   3) = (   0.0006271   0.0005054   7.9858123  )
         4           O1  tau(   4) = (   3.2906025   0.0005020   7.3038282  )
         5           O1  tau(   5) = (   4.5942328   1.4918067   9.2879030  )
         6           O1  tau(   6) = (   1.9868534   1.4903216   9.2879459  )
         7           Ti1 tau(   7) = (   3.2907910   2.8959150   9.1758416  )
         8           Ti1 tau(   8) = (   0.0015273   1.4827037   9.2680791  )
         9           O1  tau(   9) = (   3.2683845   0.0132936  11.3796717  )
        10           O1  tau(  10) = (   0.0116148   5.9584955  10.6183126  )
        11           O1  tau(  11) = (   1.2681313   1.5011218  12.7194972  )
        12           O1  tau(  12) = (   5.2787963   1.4993765  12.6897032  )
        13           Ti1 tau(  13) = (   6.5560253   2.9823375  12.4990790  )
        14           Ti1 tau(  14) = (   3.2673924   1.4925278  12.5394213  )
        15           O1  tau(  15) = (   6.5345332   5.8735037  14.6996474  )
        16           O1  tau(  16) = (   3.2898196   5.9462848  13.9939205  )
        17           O1  tau(  17) = (   4.4957945   1.5291507  16.1605787  )
        18           O1  tau(  18) = (   1.9883785   1.5110281  16.0762771  )
        19           Ti1 tau(  19) = (   3.2526948   3.0056396  15.7740191  )
        20           Ti1 tau(  20) = (   0.0000763   1.3299063  15.8143521  )
        21           O1  tau(  21) = (   3.2904802   0.0005063   4.7018136  )
        22           O1  tau(  22) = (   6.5205728   0.2065101  17.2442985  )
        23           O1  tau(  23) = (   1.3043587   1.4918075   6.0039043  )
        24           O1  tau(  24) = (   5.2767064   1.4903225   6.0039473  )
        25           Ti1 tau(  25) = (   0.0000382   5.9609847   6.0000000  )
        26           Ti1 tau(  26) = (   3.2902200   4.4714249   6.0002472  )
        27           O1  tau(  27) = (   0.0002396   2.9813036   7.9858123  )
        28           O1  tau(  28) = (   3.2902150   2.9813002   7.3038282  )
        29           O1  tau(  29) = (   4.5938453   4.4726049   9.2879030  )
        30           O1  tau(  30) = (   1.9864658   4.4711199   9.2879459  )
        31           Ti1 tau(  31) = (   3.2891106   5.8743827   9.1763621  )
        32           Ti1 tau(  32) = (   0.0006254   4.4649316   9.2693709  )
        33           O1  tau(  33) = (   3.2688559   2.9716192  11.3757022  )
        34           O1  tau(  34) = (   0.0092240   2.9805883  10.6323155  )
        35           O1  tau(  35) = (   1.2711362   4.4646907  12.6658965  )
        36           O1  tau(  36) = (   5.2748280   4.4660984  12.6332574  )
        37           Ti1 tau(  37) = (   6.5627654   5.9477838  12.5072267  )
        38           Ti1 tau(  38) = (   3.2667511   4.4702655  12.5260729  )
        39           O1  tau(  39) = (   6.5087961   3.0586107  15.0099536  )
        40           O1  tau(  40) = (   3.2849776   3.0149387  13.9815115  )
        41           O1  tau(  41) = (   4.4906635   4.4862850  16.2792570  )
        42           O1  tau(  42) = (   1.9756856   4.4939852  16.2100911  )
        43           Ti1 tau(  43) = (   3.2747729   0.0241646  15.7895078  )
        44           Ti1 tau(  44) = (   6.5697470   4.5456975  16.1185117  )
        45           O1  tau(  45) = (   3.2900926   2.9813045   4.7018136  )
        46           O1  tau(  46) = (   1.3039711   4.4726057   6.0039043  )
        47           O1  tau(  47) = (   5.2763189   4.4711207   6.0039473  )
        48           N1  tau(  48) = (   0.9980056   3.0961469  19.0053282  )
        49           N1  tau(  49) = (   6.4063515   3.4839273  18.2229180  )
        50           C1  tau(  50) = (   1.6570833   4.2684698  19.5811903  )
        51           H1  tau(  51) = (   0.9936588   4.8902639  20.1979557  )
        52           H1  tau(  52) = (   2.4789334   3.9063689  20.1993048  )
        53           H1  tau(  53) = (   2.0598354   4.8861676  18.7819781  )
        54           H1  tau(  54) = (   0.6610520   2.5058952  19.7602174  )
        55           H1  tau(  55) = (   5.8507131   4.1735594  18.7414995  )
        56           H1  tau(  56) = (   5.8147758   2.6545292  18.1916272  )
        57           O1  tau(  57) = (   5.1718451   0.7889162  19.5681371  )
        58           H1  tau(  58) = (   5.5516362   0.5215711  18.6954158  )
        59           H1  tau(  59) = (   4.2099197   0.7512590  19.4668632  )

     number of k points=    10  Fermi-Dirac smearing, width (Ry)=  0.0073
                       cart. coord. in units 2pi/alat
        k(    1) = (   0.0000000   0.0000000   0.0000000), wk =   0.1250000
        k(    2) = (   0.0000000   0.0419351   0.0000000), wk =   0.2500000
        k(    3) = (   0.0000000  -0.0838702   0.0000000), wk =   0.1250000
        k(    4) = (   0.0379955   0.0000049   0.0000000), wk =   0.2500000
        k(    5) = (   0.0379955   0.0419400   0.0000000), wk =   0.2500000
        k(    6) = (   0.0379955  -0.0838652   0.0000000), wk =   0.2500000
        k(    7) = (   0.0379955  -0.0419301   0.0000000), wk =   0.2500000
        k(    8) = (  -0.0759910  -0.0000099   0.0000000), wk =   0.1250000
        k(    9) = (  -0.0759910   0.0419252   0.0000000), wk =   0.2500000
        k(   10) = (  -0.0759910  -0.0838800   0.0000000), wk =   0.1250000

     Initial potential from superposition of free atoms

     starting charge  389.99912, renormalised to  406.00000

     negative rho (up, down):  1.389E-02 0.000E+00

     %%%%%%%%%%%%%%%%%%%%%%%%%%%%%%%%%%%%%%%%%%%%%%%%%%%%%%%%%%%%%%%%%%%%%%%%
     %                                                                      %
     % You are using vdW-DF, which was implemented by the Thonhauser group. %
     % Please cite the following two papers that made this development      %
     % possible and the two reviews that describe the various versions:     %
     %                                                                      %
     %   T. Thonhauser et al., PRL 115, 136402 (2015).                      %
     %   T. Thonhauser et al., PRB 76, 125112 (2007).                       %
     %   K. Berland et al., Rep. Prog. Phys. 78, 066501 (2015).             %
     %   D.C. Langreth et al., J. Phys.: Condens. Matter 21, 084203 (2009). %
     %                                                                      %
     %                                                                      %
     % If you are calculating the stress with vdW-DF, please also cite:     %
     %                                                                      %
     %   R. Sabatini et al., J. Phys.: Condens. Matter 24, 424209 (2012).   %
     %                                                                      %
     %%%%%%%%%%%%%%%%%%%%%%%%%%%%%%%%%%%%%%%%%%%%%%%%%%%%%%%%%%%%%%%%%%%%%%%%

     Adding external electric field

     Computed dipole along edir(3) :
        Dipole              -16.7176 Ry au,        -42.4920 Debye
        Dipole field         -0.0315 Ry au,

        Potential amp.        2.9245 Ry
        Total length         46.3494 bohr

     Starting wfcs are  308 atomic wfcs
  @ DRIVER MODE: Message from server: STATUS
  @ DRIVER MODE: Message from server: POSDATA
  @ DRIVER MODE: Reading and sharing cell
  @ DRIVER MODE: Reading and sharing positions
  @ DRIVER MODE: Received positions

     Self-consistent Calculation

     iteration #  1     ecut=    29.40 Ry     beta= 0.05
     Davidson diagonalization with overlap
     c_bands:  2 eigenvalues not converged
     c_bands:  3 eigenvalues not converged
     c_bands:  2 eigenvalues not converged
     c_bands:  4 eigenvalues not converged
     c_bands:  1 eigenvalues not converged
     c_bands:  4 eigenvalues not converged
     c_bands:  3 eigenvalues not converged
     c_bands:  5 eigenvalues not converged
     c_bands:  3 eigenvalues not converged
     ethr =  1.00E-05,  avg # of iterations = 24.9

[...]

     total energy              =   -2136.64043615 Ry
     estimated scf accuracy    <    9692.88433591 Ry

     iteration #  2     ecut=    29.40 Ry     beta= 0.05
     Davidson diagonalization with overlap
     ethr =  1.00E-02,  avg # of iterations = 31.8

[...]

     iteration # 89     ecut=    29.40 Ry     beta= 0.05
     Davidson diagonalization with overlap
     c_bands:  2 eigenvalues not converged
     ethr =  3.04E-11,  avg # of iterations = 15.1

[...]

     total energy              =   -2977.68382652 Ry
     estimated scf accuracy    <       0.00000012 Ry

     iteration # 90     ecut=    29.40 Ry     beta= 0.05
     Davidson diagonalization with overlap
     ethr =  3.04E-11,  avg # of iterations =  3.2

     negative rho (up, down):  1.439E-02 0.000E+00

     Adding external electric field

     Computed dipole along edir(3) :
        Dipole                1.0189 Ry au,          2.5897 Debye
        Dipole field          0.0019 Ry au,

        Potential amp.       -0.1782 Ry
        Total length         46.3494 bohr

     End of self-consistent calculation

          k = 0.0000 0.0000 0.0000 ( 18029 PWs)   bands (ev):

   -55.3598 -55.3226 -55.3102 -55.2930 -55.2761 -55.2406 -55.2390 -55.2041
   -55.1829 -55.1815 -55.1485 -55.1425 -55.1088 -55.0181 -54.3425 -54.3084
   -31.9262 -31.8088 -31.8031 -31.7276 -31.6761 -31.6721 -31.6721 -31.6490
   -31.5991 -31.5951 -31.5719 -31.5694 -31.5552 -31.5393 -31.5302 -31.5268
   -31.5144 -31.5072 -31.4968 -31.4791 -31.4643 -31.4629 -31.4352 -31.4244
   -31.4174 -31.4134 -31.3929 -31.3854 -31.3691 -31.3675 -31.3628 -31.3539
   -31.3417 -31.3408 -31.3320 -31.3294 -31.2965 -31.2934 -31.2709 -31.2537
   -31.2304 -31.2283 -30.7520 -30.6574 -30.6354 -30.5683 -30.4816 -30.3706
   -18.0011 -17.6356 -16.1935 -15.9327 -15.7874 -15.6589 -15.5611 -15.4331
   -15.4138 -15.2917 -15.2214 -15.1178 -15.0667 -15.0482 -15.0125 -15.0022
   -14.9792 -14.9083 -14.9022 -14.8882 -14.8642 -14.8554 -14.8093 -14.8015
   -14.7603 -14.7359 -14.7118 -14.6128 -14.5228 -14.4479 -14.3407 -13.1622
   -12.8450 -12.7275  -9.4124  -6.3250  -5.8745  -5.7507  -4.2447  -3.5320
    -3.3832  -3.3144  -3.2783  -3.2528  -3.1193  -2.9621  -2.9234  -2.8067
    -2.7887  -2.6896  -2.6447  -2.5734  -2.5567  -2.5417  -2.3954  -2.3728
    -2.3477  -2.2813  -2.2536  -2.1878  -2.1654  -2.1546  -2.1449  -2.1220
    -2.0942  -2.0496  -1.9927  -1.9335  -1.8405  -1.8155  -1.7642  -1.7356
    -1.7138  -1.6968  -1.6511  -1.6401  -1.6008  -1.5863  -1.5674  -1.5519
    -1.3893  -1.3676  -1.2647  -1.2035  -1.1044  -1.0000  -0.9643  -0.9498
    -0.8528  -0.8344  -0.7820  -0.7410  -0.7379  -0.7035  -0.5916  -0.5291
    -0.4767  -0.4132  -0.3907  -0.3502  -0.2825  -0.1997  -0.1431  -0.1292
    -0.1120  -0.0947   0.0132   0.0256   0.0773   0.1521   0.1616   0.1678
     0.2413   0.2980   0.3682   0.3929   0.4109   0.5160   0.5316   0.5639
     0.5697   0.5995   0.6203   0.6453   0.7055   0.7359   0.8189   0.9407
     1.1327   1.2218   1.2492   1.3672   1.5722   1.5848   1.6804   1.8636
     2.2567   2.3051   3.7373   3.8084   3.8832   3.8872   3.9099   3.9737
     4.2104   4.2276   4.2422   4.2460   4.2699

[...]

          k = 0.0380-0.0419 0.0000 ( 17876 PWs)   bands (ev):

[...]

          k =-0.0760-0.0000 0.0000 ( 17886 PWs)   bands (ev):

[...]

          k =-0.0760-0.0839 0.0000 ( 17948 PWs)   bands (ev):

   -55.3462 -55.3360 -55.2933 -55.2928 -55.2917 -55.2334 -55.2285 -55.2162
   -55.1870 -55.1669 -55.1640 -55.1261 -55.1254 -55.0192 -54.3256 -54.3252
   -31.7343 -31.7263 -31.7244 -31.6398 -31.6201 -31.6183 -31.6180 -31.5844
   -31.5842 -31.5733 -31.5593 -31.5581 -31.5513 -31.5315 -31.5197 -31.5063
   -31.4998 -31.4966 -31.4951 -31.4936 -31.4868 -31.4795 -31.4472 -31.4395
   -31.4365 -31.4363 -31.4221 -31.4176 -31.4131 -31.4127 -31.4073 -31.3996
   -31.3972 -31.3800 -31.3769 -31.3746 -31.3600 -31.3567 -31.3069 -31.3066
   -31.3006 -31.2341 -30.6482 -30.6479 -30.5645 -30.5643 -30.5250 -30.5249
   -17.9893 -17.6444 -15.6743 -15.5891 -15.5682 -15.4129 -15.3612 -15.3349
   -15.3240 -15.2084 -15.1661 -15.1468 -15.1322 -15.1104 -15.0722 -15.0626
   -15.0559 -14.9926 -14.9723 -14.9634 -14.9375 -14.8836 -14.8760 -14.8680
   -14.8602 -14.8102 -14.8064 -14.7671 -14.7157 -14.7122 -14.6369 -13.1684
   -12.8290 -12.8289  -9.4175  -6.3457  -5.9118  -5.6605  -4.2224  -2.9345
    -2.8472  -2.8364  -2.8298  -2.6983  -2.6262  -2.5510  -2.5289  -2.5076
    -2.4208  -2.4093  -2.3785  -2.3535  -2.3234  -2.2848  -2.2466  -2.2407
    -2.2043  -2.1958  -2.1800  -2.1634  -2.1422  -2.1270  -2.0925  -2.0818
    -2.0687  -2.0247  -1.9984  -1.9848  -1.9632  -1.9431  -1.9349  -1.9164
    -1.8412  -1.7515  -1.7269  -1.6417  -1.5746  -1.5704  -1.5650  -1.5026
    -1.4592  -1.4210  -1.3957  -1.3789  -1.2396  -1.1680  -1.1240  -1.1097
    -1.0950  -0.9642  -0.9583  -0.8822  -0.8594  -0.8530  -0.7614  -0.7153
    -0.6765  -0.6695  -0.5828  -0.5708  -0.4947  -0.3964  -0.3744  -0.3606
    -0.3154  -0.3136  -0.2761  -0.2632  -0.1668  -0.1312  -0.1064  -0.0974
    -0.0802  -0.0393   0.1116   0.1606   0.1672   0.3002   0.3321   0.4705
     0.5004   0.5647   0.6444   0.6932   0.7457   0.7785   0.8651   0.9399
     0.9431   1.0064   1.0220   1.0881   1.1003   1.3729   2.0366   2.0371
     2.1249   2.1253   3.8853   4.0004   4.0040   4.0332   4.1552   4.1786
     4.2551   4.2826   4.3219   4.3253   4.3857

     the Fermi energy is     3.8014 ev

!    total energy              =   -2977.68382987 Ry
     estimated scf accuracy    <       0.00000006 Ry
     smearing contrib. (-TS)   =      -0.03717769 Ry
     internal energy E=F+TS    =   -2977.64665218 Ry

     The total energy is F=E-TS. E is the sum of the following terms:
     one-electron contribution =  -22681.88514144 Ry
     hartree contribution      =   11438.30425903 Ry
     xc contribution           =    -496.61751372 Ry
     ewald contribution        =    8762.54978489 Ry
     electric field correction =       0.00195906 Ry

     convergence has been achieved in  90 iterations

     Forces acting on atoms (cartesian axes, Ry/au):

     atom    1 type  1   force =     0.00024017   -0.00038399    0.09322288
     atom    2 type  1   force =     0.00002068   -0.00038691   -0.17817954
     atom    3 type  2   force =     0.00004841   -0.00041676   -0.02001100
     atom    4 type  2   force =     0.00001180   -0.00190401    0.05913613
     atom    5 type  2   force =    -0.01034932   -0.00059643    0.00860380
     atom    6 type  2   force =     0.01129789    0.00009418    0.00627603
     atom    7 type  1   force =    -0.00096367    0.00197123   -0.01428618
     atom    8 type  1   force =     0.00097337   -0.00256286   -0.00599291
     atom    9 type  2   force =     0.00016704   -0.00001191    0.00007244
     atom   10 type  2   force =    -0.00230901    0.00309282    0.00260942
     atom   11 type  2   force =     0.00042904   -0.00043163   -0.00056815
     atom   12 type  2   force =     0.00002431   -0.00041094   -0.00057450
     atom   13 type  1   force =     0.00033011   -0.00027127   -0.00020505
     atom   14 type  1   force =     0.00005333   -0.00008614   -0.00006950
     atom   15 type  2   force =    -0.00000050    0.00057813   -0.00004533
     atom   16 type  2   force =     0.00030903    0.00027337   -0.00014449
     atom   17 type  2   force =     0.00039580    0.00024574    0.00036901
     atom   18 type  2   force =    -0.00051168    0.00019886   -0.00010034
     atom   19 type  1   force =    -0.00015445    0.00008059    0.00034686
     atom   20 type  1   force =    -0.00009500   -0.00010740    0.00060719
     atom   21 type  2   force =     0.00011992   -0.00011242    0.10402102
     atom   22 type  2   force =     0.00017560   -0.00028953    0.00052038
     atom   23 type  2   force =    -0.07029076   -0.00019024   -0.02685460
     atom   24 type  2   force =     0.07027384    0.00025631   -0.02685609
     atom   25 type  1   force =     0.00016878   -0.00029724    0.09241396
     atom   26 type  1   force =     0.00005540   -0.00054618   -0.17850614
     atom   27 type  2   force =     0.00008163   -0.00020988   -0.01907610
     atom   28 type  2   force =     0.00005949   -0.00173416    0.05854979
     atom   29 type  2   force =    -0.01101356   -0.00114157    0.00944207
     atom   30 type  2   force =     0.01187124   -0.00069853    0.00722328
     atom   31 type  1   force =    -0.00087834    0.00645967   -0.01494720
     atom   32 type  1   force =     0.00101908    0.00220731   -0.00639254
     atom   33 type  2   force =     0.00025835    0.00009131    0.00000483
     atom   34 type  2   force =    -0.00214551   -0.00243553   -0.00032283
     atom   35 type  2   force =     0.00028673    0.00012734   -0.00000686
     atom   36 type  2   force =     0.00024699    0.00003842    0.00050793
     atom   37 type  1   force =    -0.00010375    0.00001869   -0.00006659
     atom   38 type  1   force =     0.00015590   -0.00007436   -0.00000037
     atom   39 type  2   force =    -0.00010483   -0.00021249    0.00041688
     atom   40 type  2   force =    -0.00014127    0.00008451    0.00004227
     atom   41 type  2   force =    -0.00040647    0.00013182    0.00029023
     atom   42 type  2   force =     0.00026092   -0.00008929   -0.00016976
     atom   43 type  1   force =     0.00037207    0.00029780   -0.00002888
     atom   44 type  1   force =     0.00002254   -0.00009563   -0.00006819
     atom   45 type  2   force =     0.00012651   -0.00010948    0.10395485
     atom   46 type  2   force =    -0.07026375   -0.00013626   -0.02679696
     atom   47 type  2   force =     0.07025316    0.00027263   -0.02685847
     atom   48 type  3   force =     0.00317405    0.00392245   -0.00408490
     atom   49 type  3   force =     0.00049435   -0.00096968    0.00061633
     atom   50 type  4   force =    -0.00004585    0.00010096   -0.00086974
     atom   51 type  5   force =    -0.00075047    0.00032706    0.00042798
     atom   52 type  5   force =     0.00043351   -0.00002696    0.00037544
     atom   53 type  5   force =     0.00003230    0.00033362   -0.00037814
     atom   54 type  5   force =    -0.00376708   -0.00334255    0.00273961
     atom   55 type  5   force =     0.00029803    0.00034778   -0.00018864
     atom   56 type  5   force =    -0.00041917   -0.00085574    0.00061944
     atom   57 type  2   force =    -0.00101597   -0.00066363    0.00082681
     atom   58 type  5   force =     0.00005851   -0.00024762   -0.00013591
     atom   59 type  5   force =     0.00113051    0.00049664   -0.00145097

     Total force =     0.366393     Total SCF correction =     0.000646
  @ DRIVER MODE: Message from server: STATUS
  @ DRIVER MODE: Message from server: GETFORCE
  @ DRIVER MODE: Returning v,forces,stress,ensemble

     Writing output data file ./calc.save/
  @ DRIVER MODE: Message from server: EXIT
  @ DRIVE MODE: Exiting

     General routines

     Parallel routines

   This run was terminated on:   5:23: 8  16Sep2021

   JOB DONE.