     Program PWSCF v.6.7GPU starts on 12Oct2021 at 13:45:12

     R & G space division:  proc/nbgrp/npool/nimage =       8
     Reading input from /storage/home/hcoda1/3/ntian30/research/carbon/ACS_vib/ads_slab/NH3/out_0016/pw.inp
Warning: card &CELL ignored
Warning: card   CELL_DYNAMICS='IPI', ignored
Warning: card / ignored

     Current dimensions of program PWSCF are:
     Max number of different atomic species (ntypx) = 10
     Max number of k-points (npk) =  40000
     Max angular momentum in pseudopotentials (lmaxx) =  3
     Presently no symmetry can be used with electric field

     Message from routine cell_base_init:
     DEPRECATED: use true lattice parameter, not A to a.u. conversion factor

     IMPORTANT: XC functional enforced from input :
     Exchange-correlation= BEEF-VDW
                           (   1   4  43  14   2   0   0)
     Any further DFT definition will be discarded
     Please, verify this is what you really want

  @ DRIVER MODE: Connecting to
 qe_1139763_3181317.sched-torque.pace.gatech.edufbgomvzj_scratch
  using UNIX socket
  @ DRIVER MODE: Message from server: STATUS
  @ DRIVER MODE: Message from server: INIT
  @ DRIVER MODE: Receiving replica           0          -1
  @ DRIVER MODE: Receiving encoded integer          25
  @ DRIVER MODE:  SCF:  T  FORCE:  T  STRESS:  F  VC:  F  ENSEMBLE:  F
  @ DRIVER MODE:  SCF:  T  FORCE:  T  STRESS:  F  VC:  F  ENSEMBLE:  F

     Using Slab Decomposition

     bravais-lattice index     =            0
     lattice parameter (alat)  =       1.8897  a.u.
     unit-cell volume          =    6658.9804 (a.u.)^3
     number of atoms/cell      =           51
     number of atomic types    =            4
     number of electrons       =       386.00
     number of Kohn-Sham states=          203
     kinetic-energy cutoff     =      29.3995  Ry
     charge density cutoff     =     293.9946  Ry
     scf convergence threshold =      7.3E-08
     mixing beta               =       0.0500
     number of iterations used =            8  plain     mixing
     Exchange-correlation= BEEF-VDW
                           (   1   4  43  14   2   0   0)

     celldm(1)=   1.889726  celldm(2)=   0.000000  celldm(3)=   0.000000
     celldm(4)=   0.000000  celldm(5)=   0.000000  celldm(6)=   0.000000

     crystal axes: (cart. coord. in units of alat)
               a(1) = (   6.579727   0.000000   0.000000 )
               a(2) = (  -0.000775   5.961596   0.000000 )
               a(3) = (   0.000000   0.000000  25.155947 )

     reciprocal axes: (cart. coord. in units 2 pi/alat)
               b(1) = (  0.151982  0.000020  0.000000 )
               b(2) = (  0.000000  0.167740  0.000000 )
               b(3) = (  0.000000  0.000000  0.039752 )

     PseudoPot. # 1 for Ti read from file:
     /storage/coda1/p-amedford6/0/shared/rich_project_chbe-medford/medford-share/data/pseudos_module/espresso/nninc/pbe/van/Ti.UPF
     MD5 check sum: 8e4df49b7f0d34bbd5052bf3f5ea0213
     Pseudo is Ultrasoft, Zval = 12.0
     Generated by new atomic code, or converted to UPF format
     Using radial grid of  851 points,  6 beta functions with:
                l(1) =   0
                l(2) =   0
                l(3) =   1
                l(4) =   1
                l(5) =   2
                l(6) =   2
     Q(r) pseudized with  8 coefficients,  rinner =    1.000   1.000   1.000
                                                       1.000   1.000

     PseudoPot. # 2 for O  read from file:
     /storage/coda1/p-amedford6/0/shared/rich_project_chbe-medford/medford-share/data/pseudos_module/espresso/nninc/pbe/van/O.UPF
     MD5 check sum: 78c19812648e8988a0fe644b0f25305e
     Pseudo is Ultrasoft, Zval =  6.0
     Generated by new atomic code, or converted to UPF format
     Using radial grid of  737 points,  4 beta functions with:
                l(1) =   0
                l(2) =   0
                l(3) =   1
                l(4) =   1
     Q(r) pseudized with  8 coefficients,  rinner =    0.800   0.800   0.800

     PseudoPot. # 3 for N  read from file:
     /storage/coda1/p-amedford6/0/shared/rich_project_chbe-medford/medford-share/data/pseudos_module/espresso/nninc/pbe/van/N.UPF
     MD5 check sum: 90d10febe142ad51ac9d5be1deb811c4
     Pseudo is Ultrasoft, Zval =  5.0
     Generated by new atomic code, or converted to UPF format
     Using radial grid of  729 points,  4 beta functions with:
                l(1) =   0
                l(2) =   0
                l(3) =   1
                l(4) =   1
     Q(r) pseudized with  8 coefficients,  rinner =    0.800   0.800   0.800

     PseudoPot. # 4 for H  read from file:
     /storage/coda1/p-amedford6/0/shared/rich_project_chbe-medford/medford-share/data/pseudos_module/espresso/nninc/pbe/van/H.UPF
     MD5 check sum: b5ee9d7bfd3a09ee7748110bda690ff7
     Pseudo is Ultrasoft, Zval =  1.0
     Generated by new atomic code, or converted to UPF format
     Using radial grid of  615 points,  1 beta functions with:
                l(1) =   0
     Q(r) pseudized with  8 coefficients,  rinner =    0.800

     atomic species   valence    mass     pseudopotential
        Ti1           12.00    47.86700     Ti( 1.00)
        O1             6.00    15.99900     O ( 1.00)
        N1             5.00    14.00700     N ( 1.00)
        H1             1.00     1.00800     H ( 1.00)

     No symmetry found

   Cartesian axes

     site n.     atom                  positions (alat units)
         1           Ti1 tau(   1) = (   0.0004258   2.9801865   6.0000000  )
         2           Ti1 tau(   2) = (   3.2906075   1.4906267   6.0002472  )
         3           O1  tau(   3) = (   0.0006271   0.0005054   7.9858123  )
         4           O1  tau(   4) = (   3.2906025   0.0005020   7.3038282  )
         5           O1  tau(   5) = (   4.5942328   1.4918067   9.2879030  )
         6           O1  tau(   6) = (   1.9868534   1.4903216   9.2879459  )
         7           Ti1 tau(   7) = (   3.2905188   2.9817269   9.1608671  )
         8           Ti1 tau(   8) = (   0.0008727   1.4903491   9.2579811  )
         9           O1  tau(   9) = (   3.2954587   0.0012773  11.3746546  )
        10           O1  tau(  10) = (   0.0020290   0.0006084  10.6073296  )
        11           O1  tau(  11) = (   1.2942686   1.4887116  12.6629798  )
        12           O1  tau(  12) = (   5.2972733   1.4890718  12.6650130  )
        13           Ti1 tau(  13) = (   0.0067627   2.9786896  12.5148789  )
        14           Ti1 tau(  14) = (   3.2982433   1.4907855  12.5198723  )
        15           O1  tau(  15) = (   0.0088675   5.9288053  14.6873217  )
        16           O1  tau(  16) = (   3.2976659   5.9545549  13.9976866  )
        17           O1  tau(  17) = (   4.5618459   1.5065800  16.1616785  )
        18           O1  tau(  18) = (   2.0406978   1.5054917  16.1618958  )
        19           Ti1 tau(  19) = (   3.3003398   2.9801551  15.7464260  )
        20           Ti1 tau(  20) = (   0.0122322   1.3591711  15.8926631  )
        21           O1  tau(  21) = (   3.2904802   0.0005063   4.7018136  )
        22           O1  tau(  22) = (   0.0111396   0.0327255  17.2179391  )
        23           O1  tau(  23) = (   1.3043587   1.4918075   6.0039043  )
        24           O1  tau(  24) = (   5.2767064   1.4903225   6.0039473  )
        25           Ti1 tau(  25) = (   0.0000382   5.9609847   6.0000000  )
        26           Ti1 tau(  26) = (   3.2902200   4.4714249   6.0002472  )
        27           O1  tau(  27) = (   0.0002396   2.9813036   7.9858123  )
        28           O1  tau(  28) = (   3.2902150   2.9813002   7.3038282  )
        29           O1  tau(  29) = (   4.5938453   4.4726049   9.2879030  )
        30           O1  tau(  30) = (   1.9864658   4.4711199   9.2879459  )
        31           Ti1 tau(  31) = (   3.2908958   0.0009406   9.1591437  )
        32           Ti1 tau(  32) = (   0.0004876   4.4725358   9.2579169  )
        33           O1  tau(  33) = (   3.2950182   2.9773574  11.3676543  )
        34           O1  tau(  34) = (   0.0019984   2.9784031  10.6274637  )
        35           O1  tau(  35) = (   1.2946310   4.4674284  12.6500497  )
        36           O1  tau(  36) = (   5.2961322   4.4668132  12.6522398  )
        37           Ti1 tau(  37) = (   0.0072964   5.9565020  12.4821340  )
        38           Ti1 tau(  38) = (   3.2980713   4.4687862  12.5160290  )
        39           O1  tau(  39) = (   0.0098827   2.9916113  14.9005182  )
        40           O1  tau(  40) = (   3.2960480   2.9848727  13.9584560  )
        41           O1  tau(  41) = (   4.5591248   4.4529439  16.1935040  )
        42           O1  tau(  42) = (   2.0431063   4.4547719  16.1917947  )
        43           Ti1 tau(  43) = (   3.3030955   0.0010839  15.7925060  )
        44           Ti1 tau(  44) = (   0.0111621   4.5610188  15.9796684  )
        45           O1  tau(  45) = (   3.2900926   2.9813045   4.7018136  )
        46           O1  tau(  46) = (   1.3039711   4.4726057   6.0039043  )
        47           O1  tau(  47) = (   5.2763189   4.4711207   6.0039473  )
        48           N1  tau(  48) = (   0.0348475   3.0484350  18.0388005  )
        49           H1  tau(  49) = (   0.0344738   2.0763216  18.3478120  )
        50           H1  tau(  50) = (   0.8651728   3.4982926  18.4252144  )
        51           H1  tau(  51) = (   5.8033537   3.4985160  18.4509717  )

     number of k points=    10  Fermi-Dirac smearing, width (Ry)=  0.0073
                       cart. coord. in units 2pi/alat
        k(    1) = (   0.0000000   0.0000000   0.0000000), wk =   0.1250000
        k(    2) = (   0.0000000   0.0419351   0.0000000), wk =   0.2500000
        k(    3) = (   0.0000000  -0.0838702   0.0000000), wk =   0.1250000
        k(    4) = (   0.0379955   0.0000049   0.0000000), wk =   0.2500000
        k(    5) = (   0.0379955   0.0419400   0.0000000), wk =   0.2500000
        k(    6) = (   0.0379955  -0.0838652   0.0000000), wk =   0.2500000
        k(    7) = (   0.0379955  -0.0419301   0.0000000), wk =   0.2500000
        k(    8) = (  -0.0759910  -0.0000099   0.0000000), wk =   0.1250000
        k(    9) = (  -0.0759910   0.0419252   0.0000000), wk =   0.2500000
        k(   10) = (  -0.0759910  -0.0838800   0.0000000), wk =   0.1250000

     Initial potential from superposition of free atoms

     starting charge  369.99921, renormalised to  386.00000

     negative rho (up, down):  1.972E-02 0.000E+00

     %%%%%%%%%%%%%%%%%%%%%%%%%%%%%%%%%%%%%%%%%%%%%%%%%%%%%%%%%%%%%%%%%%%%%%%%
     %                                                                      %
     % You are using vdW-DF, which was implemented by the Thonhauser group. %
     % Please cite the following two papers that made this development      %
     % possible and the two reviews that describe the various versions:     %
     %                                                                      %
     %   T. Thonhauser et al., PRL 115, 136402 (2015).                      %
     %   T. Thonhauser et al., PRB 76, 125112 (2007).                       %
     %   K. Berland et al., Rep. Prog. Phys. 78, 066501 (2015).             %
     %   D.C. Langreth et al., J. Phys.: Condens. Matter 21, 084203 (2009). %
     %                                                                      %
     %                                                                      %
     % If you are calculating the stress with vdW-DF, please also cite:     %
     %                                                                      %
     %   R. Sabatini et al., J. Phys.: Condens. Matter 24, 424209 (2012).   %
     %                                                                      %
     %%%%%%%%%%%%%%%%%%%%%%%%%%%%%%%%%%%%%%%%%%%%%%%%%%%%%%%%%%%%%%%%%%%%%%%%

     Adding external electric field

     Computed dipole along edir(3) :
        Dipole               -3.5656 Ry au,         -9.0628 Debye
        Dipole field         -0.0067 Ry au,

        Potential amp.        0.6237 Ry
        Total length         46.3494 bohr

     Starting wfcs are  291 atomic wfcs
  @ DRIVER MODE: Message from server: STATUS
  @ DRIVER MODE: Message from server: POSDATA
  @ DRIVER MODE: Reading and sharing cell
  @ DRIVER MODE: Reading and sharing positions
  @ DRIVER MODE: Received positions

     Self-consistent Calculation

     iteration #  1     ecut=    29.40 Ry     beta= 0.05
     Davidson diagonalization with overlap
     c_bands:  1 eigenvalues not converged
     c_bands:  2 eigenvalues not converged
     c_bands:  1 eigenvalues not converged
     c_bands:  4 eigenvalues not converged
     c_bands:  1 eigenvalues not converged
     c_bands:  1 eigenvalues not converged
     c_bands:  3 eigenvalues not converged
     ethr =  1.00E-05,  avg # of iterations = 20.0

[...]

     total energy              =   -2896.14691313 Ry
     estimated scf accuracy    <     156.21615837 Ry

     iteration #  2     ecut=    29.40 Ry     beta= 0.05
     Davidson diagonalization with overlap
     ethr =  1.00E-02,  avg # of iterations = 14.8

[...]

     iteration # 44     ecut=    29.40 Ry     beta= 0.05
     Davidson diagonalization with overlap
     c_bands:  1 eigenvalues not converged
     c_bands:  2 eigenvalues not converged
     c_bands:  1 eigenvalues not converged
     ethr =  2.46E-10,  avg # of iterations = 12.6

[...]

     total energy              =   -2907.69380679 Ry
     estimated scf accuracy    <       0.00000010 Ry

     iteration # 50     ecut=    29.40 Ry     beta= 0.05
     Davidson diagonalization with overlap
     ethr =  2.62E-11,  avg # of iterations = 10.0

     negative rho (up, down):  1.930E-02 0.000E+00

     Adding external electric field

     Computed dipole along edir(3) :
        Dipole                1.2445 Ry au,          3.1631 Debye
        Dipole field          0.0023 Ry au,

        Potential amp.       -0.2177 Ry
        Total length         46.3494 bohr

     End of self-consistent calculation

          k = 0.0000 0.0000 0.0000 ( 18029 PWs)   bands (ev):

   -55.6690 -55.6328 -55.6262 -55.5920 -55.5787 -55.5507 -55.5412 -55.5037
   -55.4976 -55.4964 -55.4622 -55.4608 -55.4511 -55.4172 -54.7121 -54.6780
   -32.2382 -32.1736 -32.1245 -32.0274 -31.9858 -31.9709 -31.9693 -31.9632
   -31.9169 -31.9123 -31.8756 -31.8748 -31.8725 -31.8713 -31.8434 -31.8236
   -31.8222 -31.8132 -31.8042 -31.7974 -31.7795 -31.7749 -31.7531 -31.7500
   -31.7452 -31.7302 -31.7219 -31.7208 -31.6865 -31.6819 -31.6704 -31.6552
   -31.6548 -31.6428 -31.6358 -31.6305 -31.6281 -31.6012 -31.5954 -31.5850
   -31.5832 -31.5649 -31.1237 -31.0227 -31.0011 -30.9400 -30.8536 -30.7425
   -16.5052 -16.2636 -16.1372 -15.9979 -15.8867 -15.8445 -15.7572 -15.7244
   -15.6107 -15.5227 -15.3983 -15.3529 -15.3265 -15.3209 -15.3088 -15.2903
   -15.2808 -15.2176 -15.1789 -15.1702 -15.1498 -15.1485 -15.1059 -15.1050
   -15.0484 -15.0325 -14.8956 -14.8209 -14.7601 -14.5090 -13.2135 -13.0944
    -6.0803  -5.9367  -3.8330  -3.6736  -3.6459  -3.5960  -3.5854  -3.4293
    -3.2696  -3.1363  -3.0917  -2.9538  -2.9199  -2.8720  -2.8436  -2.6958
    -2.6619  -2.6319  -2.5746  -2.5446  -2.5434  -2.5354  -2.5218  -2.4405
    -2.4380  -2.4196  -2.3041  -2.2536  -2.1429  -2.1123  -2.0485  -2.0314
    -1.9942  -1.9932  -1.9828  -1.9322  -1.9311  -1.9072  -1.8735  -1.8037
    -1.7083  -1.6529  -1.5637  -1.5279  -1.4211  -1.4178  -1.2505  -1.2308
    -1.1652  -1.1215  -1.1115  -1.0782  -1.0686  -1.0187  -0.9091  -0.8246
    -0.7861  -0.7240  -0.6731  -0.6407  -0.6035  -0.5304  -0.4599  -0.4527
    -0.4212  -0.3055  -0.2637  -0.2086  -0.1557  -0.1470  -0.1118  -0.0127
    -0.0072   0.0916   0.0982   0.1309   0.1592   0.2655   0.2739   0.2832
     0.3032   0.3042   0.3915   0.4296   0.4911   0.5069   0.6522   0.8667
     0.9035   0.9345   1.2063   1.2815   1.3132   1.4765   1.8958   1.9480
     3.4300   3.4942   3.5289   3.5587   3.5726   3.6395   3.9198   3.9227
     3.9354   3.9503   3.9860

[...]

          k = 0.0380-0.0419 0.0000 ( 17876 PWs)   bands (ev):

[...]

          k =-0.0760-0.0000 0.0000 ( 17886 PWs)   bands (ev):

[...]

          k =-0.0760-0.0839 0.0000 ( 17948 PWs)   bands (ev):

   -55.6526 -55.6490 -55.6091 -55.6090 -55.5742 -55.5475 -55.5301 -55.5148
   -55.5018 -55.4801 -55.4782 -55.4640 -55.4355 -55.4329 -54.6950 -54.6949
   -32.0929 -32.0427 -32.0395 -31.9561 -31.9393 -31.9393 -31.9279 -31.9022
   -31.9022 -31.8721 -31.8700 -31.8654 -31.8617 -31.8394 -31.8290 -31.8190
   -31.7966 -31.7957 -31.7956 -31.7922 -31.7898 -31.7872 -31.7853 -31.7464
   -31.7449 -31.7429 -31.7372 -31.7328 -31.7275 -31.7272 -31.7272 -31.7256
   -31.7071 -31.7039 -31.6915 -31.6781 -31.6767 -31.6589 -31.6562 -31.6466
   -31.6212 -31.6188 -31.0137 -31.0137 -30.9364 -30.9363 -30.8968 -30.8968
   -16.0634 -15.9166 -15.9125 -15.8590 -15.6966 -15.6834 -15.6530 -15.6341
   -15.4924 -15.4757 -15.4601 -15.4537 -15.4098 -15.4002 -15.3928 -15.3824
   -15.2630 -15.2587 -15.2484 -15.2450 -15.1770 -15.1739 -15.1706 -15.1538
   -15.1286 -15.1157 -15.0798 -15.0755 -14.9990 -14.8436 -13.1955 -13.1955
    -6.0368  -5.9429  -3.1883  -3.1481  -3.1230  -2.9052  -2.8711  -2.8420
    -2.8304  -2.7478  -2.6859  -2.6819  -2.6683  -2.6294  -2.5757  -2.5605
    -2.5547  -2.5194  -2.5069  -2.4940  -2.4608  -2.4470  -2.3909  -2.3621
    -2.3496  -2.3478  -2.3354  -2.3287  -2.3133  -2.2947  -2.2726  -2.2670
    -2.1496  -2.0451  -1.9989  -1.9901  -1.8883  -1.8843  -1.8832  -1.7967
    -1.7763  -1.7236  -1.7184  -1.6971  -1.4828  -1.4652  -1.4477  -1.4438
    -1.4187  -1.3408  -1.2628  -1.2348  -1.2192  -1.1648  -1.0505  -1.0180
    -0.9979  -0.9243  -0.8810  -0.8663  -0.8164  -0.6824  -0.6694  -0.6653
    -0.6509  -0.6455  -0.5880  -0.5824  -0.5014  -0.4548  -0.4035  -0.3911
    -0.3706  -0.1784  -0.1447  -0.0783   0.0183   0.0239   0.1997   0.2455
     0.2523   0.3554   0.3779   0.4152   0.4708   0.5925   0.6059   0.6424
     0.7181   0.7746   0.7751   0.7773   1.6647   1.6661   1.7661   1.7663
     3.5768   3.6661   3.6831   3.7461   3.8393   3.9421   3.9437   3.9586
     3.9880   3.9897   4.0924

     the Fermi energy is     3.4898 ev

!    total energy              =   -2907.69390267 Ry
     estimated scf accuracy    <       0.00000002 Ry
     smearing contrib. (-TS)   =      -0.03697960 Ry
     internal energy E=F+TS    =   -2907.65692307 Ry

     The total energy is F=E-TS. E is the sum of the following terms:
     one-electron contribution =  -24675.89196830 Ry
     hartree contribution      =   12422.75250581 Ry
     xc contribution           =    -476.54671786 Ry
     ewald contribution        =    9822.02633464 Ry
     electric field correction =       0.00292265 Ry

     convergence has been achieved in  50 iterations

     Forces acting on atoms (cartesian axes, Ry/au):

     atom    1 type  1   force =    -0.00000186    0.00005450    0.09122026
     atom    2 type  1   force =    -0.00012616    0.00034496   -0.18249804
     atom    3 type  2   force =     0.00003487   -0.00041073   -0.02466151
     atom    4 type  2   force =     0.00001225    0.00000555    0.05210046
     atom    5 type  2   force =    -0.01339792   -0.00056777    0.00484726
     atom    6 type  2   force =     0.01364447   -0.00009249    0.00500588
     atom    7 type  1   force =    -0.00000366   -0.00033757   -0.00326115
     atom    8 type  1   force =    -0.00006954    0.00368623    0.00359305
     atom    9 type  2   force =     0.00000659    0.00016314   -0.00018281
     atom   10 type  2   force =     0.00003566    0.00005142   -0.00039194
     atom   11 type  2   force =    -0.00003730    0.00019402    0.00016517
     atom   12 type  2   force =     0.00008032    0.00014780    0.00012673
     atom   13 type  1   force =     0.00012158    0.00055507   -0.00018786
     atom   14 type  1   force =     0.00010378   -0.00015583   -0.00074210
     atom   15 type  2   force =     0.00010746   -0.00006273   -0.00011981
     atom   16 type  2   force =    -0.00004297    0.00005956    0.00025257
     atom   17 type  2   force =     0.00055867    0.00009861    0.00001122
     atom   18 type  2   force =    -0.00054394    0.00016373    0.00006082
     atom   19 type  1   force =     0.00025637    0.00024187    0.00047129
     atom   20 type  1   force =    -0.00000586   -0.00159931   -0.00041516
     atom   21 type  2   force =     0.00001338    0.00011458    0.10480541
     atom   22 type  2   force =     0.00011119    0.00049775    0.00147305
     atom   23 type  2   force =    -0.06843793   -0.00024909   -0.02641329
     atom   24 type  2   force =     0.06827795    0.00017572   -0.02646535
     atom   25 type  1   force =     0.00006827    0.00000878    0.09097323
     atom   26 type  1   force =    -0.00009079   -0.00044368   -0.18244135
     atom   27 type  2   force =     0.00002589    0.00005264   -0.02327386
     atom   28 type  2   force =     0.00000644    0.00001463    0.05198071
     atom   29 type  2   force =    -0.01323614   -0.00010908    0.00518091
     atom   30 type  2   force =     0.01347224    0.00040479    0.00532985
     atom   31 type  1   force =     0.00004909    0.00023500   -0.00292793
     atom   32 type  1   force =    -0.00008578   -0.00361202    0.00349785
     atom   33 type  2   force =     0.00001472   -0.00019965    0.00017784
     atom   34 type  2   force =     0.00001574   -0.00007245   -0.00064864
     atom   35 type  2   force =    -0.00009382   -0.00028538   -0.00004039
     atom   36 type  2   force =     0.00013227   -0.00023873   -0.00006778
     atom   37 type  1   force =     0.00008825   -0.00064835    0.00076515
     atom   38 type  1   force =     0.00009946    0.00015825   -0.00069137
     atom   39 type  2   force =     0.00007234   -0.00017261    0.00011440
     atom   40 type  2   force =     0.00008834   -0.00010744    0.00066720
     atom   41 type  2   force =     0.00036537   -0.00014914    0.00015811
     atom   42 type  2   force =    -0.00038255   -0.00026077    0.00040636
     atom   43 type  1   force =     0.00010940   -0.00033164    0.00001933
     atom   44 type  1   force =    -0.00019125    0.00038088    0.00001625
     atom   45 type  2   force =     0.00001460    0.00009428    0.10478581
     atom   46 type  2   force =    -0.06841497   -0.00014692   -0.02639829
     atom   47 type  2   force =     0.06827093    0.00028785   -0.02644807
     atom   48 type  3   force =     0.00504536    0.00568594    0.00230841
     atom   49 type  4   force =     0.00091301    0.00019305   -0.00007593
     atom   50 type  4   force =    -0.00538880   -0.00435042   -0.00262288
     atom   51 type  4   force =    -0.00166500    0.00053321    0.00046091

     Total force =     0.366376     Total SCF correction =     0.000394
  @ DRIVER MODE: Message from server: STATUS
  @ DRIVER MODE: Message from server: GETFORCE
  @ DRIVER MODE: Returning v,forces,stress,ensemble

     Writing output data file ./calc.save/
  @ DRIVER MODE: Message from server: EXIT
  @ DRIVE MODE: Exiting

     General routines

     Parallel routines

   This run was terminated on:  14: 1:17  12Oct2021

   JOB DONE.