     Program PWSCF v.6.7GPU starts on 15Sep2021 at 16:49:54

     R & G space division:  proc/nbgrp/npool/nimage =      10
     Reading input from /storage/home/hcoda1/3/ntian30/research/carbon/CxH_vib/H2O_calc/ads_slab/CHNHH2O_a/out_0004/pw.inp
Warning: card &CELL ignored
Warning: card   CELL_DYNAMICS='IPI', ignored
Warning: card / ignored

     Current dimensions of program PWSCF are:
     Max number of different atomic species (ntypx) = 10
     Max number of k-points (npk) =  40000
     Max angular momentum in pseudopotentials (lmaxx) =  3
     Presently no symmetry can be used with electric field

     Message from routine cell_base_init:
     DEPRECATED: use true lattice parameter, not A to a.u. conversion factor

     IMPORTANT: XC functional enforced from input :
     Exchange-correlation= BEEF-VDW
                           (   1   4  43  14   2   0   0)
     Any further DFT definition will be discarded
     Please, verify this is what you really want

  @ DRIVER MODE: Connecting to
 qe_1139763_2852628.sched-torque.pace.gatech.eduzmtmiduc_scratch
  using UNIX socket
  @ DRIVER MODE: Message from server: STATUS
  @ DRIVER MODE: Message from server: INIT
  @ DRIVER MODE: Receiving replica           0          -1
  @ DRIVER MODE: Receiving encoded integer          25
  @ DRIVER MODE:  SCF:  T  FORCE:  T  STRESS:  F  VC:  F  ENSEMBLE:  F
  @ DRIVER MODE:  SCF:  T  FORCE:  T  STRESS:  F  VC:  F  ENSEMBLE:  F

     Using Slab Decomposition

     bravais-lattice index     =            0
     lattice parameter (alat)  =       1.8897  a.u.
     unit-cell volume          =    6658.9804 (a.u.)^3
     number of atoms/cell      =           54
     number of atomic types    =            5
     number of electrons       =       397.00
     number of Kohn-Sham states=          208
     kinetic-energy cutoff     =      29.3995  Ry
     charge density cutoff     =     293.9946  Ry
     scf convergence threshold =      7.3E-08
     mixing beta               =       0.0500
     number of iterations used =            8  plain     mixing
     Exchange-correlation= BEEF-VDW
                           (   1   4  43  14   2   0   0)

     celldm(1)=   1.889726  celldm(2)=   0.000000  celldm(3)=   0.000000
     celldm(4)=   0.000000  celldm(5)=   0.000000  celldm(6)=   0.000000

     crystal axes: (cart. coord. in units of alat)
               a(1) = (   6.579727   0.000000   0.000000 )
               a(2) = (  -0.000775   5.961596   0.000000 )
               a(3) = (   0.000000   0.000000  25.155947 )

     reciprocal axes: (cart. coord. in units 2 pi/alat)
               b(1) = (  0.151982  0.000020  0.000000 )
               b(2) = (  0.000000  0.167740  0.000000 )
               b(3) = (  0.000000  0.000000  0.039752 )

     PseudoPot. # 1 for Ti read from file:
     /storage/coda1/p-amedford6/0/shared/rich_project_chbe-medford/medford-share/data/pseudos_module/espresso/nninc/pbe/van/Ti.UPF
     MD5 check sum: 8e4df49b7f0d34bbd5052bf3f5ea0213
     Pseudo is Ultrasoft, Zval = 12.0
     Generated by new atomic code, or converted to UPF format
     Using radial grid of  851 points,  6 beta functions with:
                l(1) =   0
                l(2) =   0
                l(3) =   1
                l(4) =   1
                l(5) =   2
                l(6) =   2
     Q(r) pseudized with  8 coefficients,  rinner =    1.000   1.000   1.000
                                                       1.000   1.000

     PseudoPot. # 2 for O  read from file:
     /storage/coda1/p-amedford6/0/shared/rich_project_chbe-medford/medford-share/data/pseudos_module/espresso/nninc/pbe/van/O.UPF
     MD5 check sum: 78c19812648e8988a0fe644b0f25305e
     Pseudo is Ultrasoft, Zval =  6.0
     Generated by new atomic code, or converted to UPF format
     Using radial grid of  737 points,  4 beta functions with:
                l(1) =   0
                l(2) =   0
                l(3) =   1
                l(4) =   1
     Q(r) pseudized with  8 coefficients,  rinner =    0.800   0.800   0.800

     PseudoPot. # 3 for N  read from file:
     /storage/coda1/p-amedford6/0/shared/rich_project_chbe-medford/medford-share/data/pseudos_module/espresso/nninc/pbe/van/N.UPF
     MD5 check sum: 90d10febe142ad51ac9d5be1deb811c4
     Pseudo is Ultrasoft, Zval =  5.0
     Generated by new atomic code, or converted to UPF format
     Using radial grid of  729 points,  4 beta functions with:
                l(1) =   0
                l(2) =   0
                l(3) =   1
                l(4) =   1
     Q(r) pseudized with  8 coefficients,  rinner =    0.800   0.800   0.800

     PseudoPot. # 4 for C  read from file:
     /storage/coda1/p-amedford6/0/shared/rich_project_chbe-medford/medford-share/data/pseudos_module/espresso/nninc/pbe/van/C.UPF
     MD5 check sum: 1a69bf6b8db32088f5b2163dbdb77a27
     Pseudo is Ultrasoft, Zval =  4.0
     Generated by new atomic code, or converted to UPF format
     Using radial grid of  721 points,  4 beta functions with:
                l(1) =   0
                l(2) =   0
                l(3) =   1
                l(4) =   1
     Q(r) pseudized with  8 coefficients,  rinner =    0.800   0.800   0.800

     PseudoPot. # 5 for H  read from file:
     /storage/coda1/p-amedford6/0/shared/rich_project_chbe-medford/medford-share/data/pseudos_module/espresso/nninc/pbe/van/H.UPF
     MD5 check sum: b5ee9d7bfd3a09ee7748110bda690ff7
     Pseudo is Ultrasoft, Zval =  1.0
     Generated by new atomic code, or converted to UPF format
     Using radial grid of  615 points,  1 beta functions with:
                l(1) =   0
     Q(r) pseudized with  8 coefficients,  rinner =    0.800

     atomic species   valence    mass     pseudopotential
        Ti1           12.00    47.86700     Ti( 1.00)
        O1             6.00    15.99900     O ( 1.00)
        N1             5.00    14.00700     N ( 1.00)
        C1             4.00    12.01100     C ( 1.00)
        H1             1.00     1.00800     H ( 1.00)

     No symmetry found

   Cartesian axes

     site n.     atom                  positions (alat units)
         1           Ti1 tau(   1) = (   0.0004258   2.9801865   6.0000000  )
         2           Ti1 tau(   2) = (   3.2906075   1.4906267   6.0002472  )
         3           O1  tau(   3) = (   0.0006271   0.0005054   7.9858123  )
         4           O1  tau(   4) = (   3.2906025   0.0005020   7.3038282  )
         5           O1  tau(   5) = (   4.5942328   1.4918067   9.2879030  )
         6           O1  tau(   6) = (   1.9868534   1.4903216   9.2879459  )
         7           Ti1 tau(   7) = (   3.2907910   2.8959150   9.1758416  )
         8           Ti1 tau(   8) = (   0.0015273   1.4827037   9.2680791  )
         9           O1  tau(   9) = (   3.2914171   5.9475995  11.3455371  )
        10           O1  tau(  10) = (   0.0116148   5.9584955  10.6183126  )
        11           O1  tau(  11) = (   1.3057669   1.4807986  12.6390077  )
        12           O1  tau(  12) = (   5.3035249   1.4749620  12.6227664  )
        13           Ti1 tau(  13) = (   6.5294082   2.9362577  12.6231083  )
        14           Ti1 tau(  14) = (   3.2175537   1.4615748  12.5070279  )
        15           O1  tau(  15) = (   6.5585639   5.9474800  14.6380151  )
        16           O1  tau(  16) = (   3.3125803   5.9531145  13.9695519  )
        17           O1  tau(  17) = (   4.5393379   1.5011389  16.1071157  )
        18           O1  tau(  18) = (   2.0094023   1.5044898  16.0307267  )
        19           Ti1 tau(  19) = (   3.2760958   2.9523363  15.6877793  )
        20           Ti1 tau(  20) = (   0.0277933   1.3451898  16.0452527  )
        21           O1  tau(  21) = (   3.2904802   0.0005063   4.7018136  )
        22           O1  tau(  22) = (   0.0198929   5.9263875  17.1601691  )
        23           O1  tau(  23) = (   1.3043587   1.4918075   6.0039043  )
        24           O1  tau(  24) = (   5.2767064   1.4903225   6.0039473  )
        25           Ti1 tau(  25) = (   0.0000382   5.9609847   6.0000000  )
        26           Ti1 tau(  26) = (   3.2902200   4.4714249   6.0002472  )
        27           O1  tau(  27) = (   0.0002396   2.9813036   7.9858123  )
        28           O1  tau(  28) = (   3.2902150   2.9813002   7.3038282  )
        29           O1  tau(  29) = (   4.5938453   4.4726049   9.2879030  )
        30           O1  tau(  30) = (   1.9864658   4.4711199   9.2879459  )
        31           Ti1 tau(  31) = (   3.2891106   5.8743827   9.1763621  )
        32           Ti1 tau(  32) = (   0.0006254   4.4649316   9.2693709  )
        33           O1  tau(  33) = (   3.2862706   2.9662616  11.3468726  )
        34           O1  tau(  34) = (   0.0092240   2.9805883  10.6323155  )
        35           O1  tau(  35) = (   1.3102706   4.4726941  12.6361575  )
        36           O1  tau(  36) = (   5.3014905   4.4644878  12.6181669  )
        37           Ti1 tau(  37) = (   6.5311680   5.9227251  12.5202533  )
        38           Ti1 tau(  38) = (   3.2191334   4.4553394  12.5017427  )
        39           O1  tau(  39) = (   6.5614274   2.9920157  14.6796082  )
        40           O1  tau(  40) = (   3.3146075   2.9603188  13.8993185  )
        41           O1  tau(  41) = (   4.5484517   4.4144432  16.0509510  )
        42           O1  tau(  42) = (   2.0146171   4.4214036  15.9967612  )
        43           Ti1 tau(  43) = (   3.3303817   5.9274347  15.8100502  )
        44           Ti1 tau(  44) = (   0.0273359   4.4939047  15.8144843  )
        45           O1  tau(  45) = (   3.2900926   2.9813045   4.7018136  )
        46           O1  tau(  46) = (   1.3039711   4.4726057   6.0039043  )
        47           O1  tau(  47) = (   5.2763189   4.4711207   6.0039473  )
        48           N1  tau(  48) = (   6.5134970   2.9713368  17.6459670  )
        49           C1  tau(  49) = (   0.7931072   3.0267964  18.6255283  )
        50           H1  tau(  50) = (   1.8307262   2.9311331  18.2395185  )
        51           H1  tau(  51) = (   5.5494773   3.0666896  17.9713127  )
        52           O1  tau(  52) = (   3.1855344   5.8058271  18.1612476  )
        53           H1  tau(  53) = (   3.8461454   0.3022996  18.7034462  )
        54           H1  tau(  54) = (   2.3120581   0.0053998  18.5533318  )

     number of k points=    10  Fermi-Dirac smearing, width (Ry)=  0.0073
                       cart. coord. in units 2pi/alat
        k(    1) = (   0.0000000   0.0000000   0.0000000), wk =   0.1250000
        k(    2) = (   0.0000000   0.0419351   0.0000000), wk =   0.2500000
        k(    3) = (   0.0000000  -0.0838702   0.0000000), wk =   0.1250000
        k(    4) = (   0.0379955   0.0000049   0.0000000), wk =   0.2500000
        k(    5) = (   0.0379955   0.0419400   0.0000000), wk =   0.2500000
        k(    6) = (   0.0379955  -0.0838652   0.0000000), wk =   0.2500000
        k(    7) = (   0.0379955  -0.0419301   0.0000000), wk =   0.2500000
        k(    8) = (  -0.0759910  -0.0000099   0.0000000), wk =   0.1250000
        k(    9) = (  -0.0759910   0.0419252   0.0000000), wk =   0.2500000
        k(   10) = (  -0.0759910  -0.0838800   0.0000000), wk =   0.1250000

     Initial potential from superposition of free atoms

     starting charge  380.99916, renormalised to  397.00000

     negative rho (up, down):  1.755E-02 0.000E+00

     %%%%%%%%%%%%%%%%%%%%%%%%%%%%%%%%%%%%%%%%%%%%%%%%%%%%%%%%%%%%%%%%%%%%%%%%
     %                                                                      %
     % You are using vdW-DF, which was implemented by the Thonhauser group. %
     % Please cite the following two papers that made this development      %
     % possible and the two reviews that describe the various versions:     %
     %                                                                      %
     %   T. Thonhauser et al., PRL 115, 136402 (2015).                      %
     %   T. Thonhauser et al., PRB 76, 125112 (2007).                       %
     %   K. Berland et al., Rep. Prog. Phys. 78, 066501 (2015).             %
     %   D.C. Langreth et al., J. Phys.: Condens. Matter 21, 084203 (2009). %
     %                                                                      %
     %                                                                      %
     % If you are calculating the stress with vdW-DF, please also cite:     %
     %                                                                      %
     %   R. Sabatini et al., J. Phys.: Condens. Matter 24, 424209 (2012).   %
     %                                                                      %
     %%%%%%%%%%%%%%%%%%%%%%%%%%%%%%%%%%%%%%%%%%%%%%%%%%%%%%%%%%%%%%%%%%%%%%%%

     Adding external electric field

     Computed dipole along edir(3) :
        Dipole               -9.1667 Ry au,        -23.2993 Debye
        Dipole field         -0.0173 Ry au,

        Potential amp.        1.6036 Ry
        Total length         46.3494 bohr

     Starting wfcs are  300 atomic wfcs
  @ DRIVER MODE: Message from server: STATUS
  @ DRIVER MODE: Message from server: POSDATA
  @ DRIVER MODE: Reading and sharing cell
  @ DRIVER MODE: Reading and sharing positions
  @ DRIVER MODE: Received positions

     Self-consistent Calculation

     iteration #  1     ecut=    29.40 Ry     beta= 0.05
     Davidson diagonalization with overlap
     c_bands:  1 eigenvalues not converged
     c_bands:  1 eigenvalues not converged
     c_bands:  1 eigenvalues not converged
     c_bands:  1 eigenvalues not converged
     c_bands:  1 eigenvalues not converged
     c_bands:  1 eigenvalues not converged
     c_bands:  1 eigenvalues not converged
     c_bands:  1 eigenvalues not converged
     c_bands:  1 eigenvalues not converged
     ethr =  1.00E-05,  avg # of iterations = 19.9

[...]

     total energy              =   -2547.26538229 Ry
     estimated scf accuracy    <    4504.92587709 Ry

     iteration #  2     ecut=    29.40 Ry     beta= 0.05
     Davidson diagonalization with overlap
     ethr =  1.00E-02,  avg # of iterations = 24.7

[...]

     iteration # 47     ecut=    29.40 Ry     beta= 0.05
     Davidson diagonalization with overlap
     c_bands:  1 eigenvalues not converged
     ethr =  3.13E-08,  avg # of iterations = 13.7

[...]

     total energy              =   -2952.61571738 Ry
     estimated scf accuracy    <       0.00000008 Ry

     iteration # 67     ecut=    29.40 Ry     beta= 0.05
     Davidson diagonalization with overlap
     ethr =  2.06E-11,  avg # of iterations = 10.8

     negative rho (up, down):  1.616E-02 0.000E+00

     Adding external electric field

     Computed dipole along edir(3) :
        Dipole                0.4087 Ry au,          1.0388 Debye
        Dipole field          0.0008 Ry au,

        Potential amp.       -0.0715 Ry
        Total length         46.3494 bohr

     End of self-consistent calculation

          k = 0.0000 0.0000 0.0000 ( 18029 PWs)   bands (ev):

   -56.0232 -55.9984 -55.9917 -55.9891 -55.9621 -55.8686 -55.8362 -55.8272
   -55.8240 -55.8104 -55.8020 -55.7769 -55.7447 -55.5820 -55.0086 -54.9746
   -32.5442 -32.5072 -32.4001 -32.3680 -32.3352 -32.3153 -32.3060 -32.3004
   -32.2665 -32.2358 -32.2238 -32.2175 -32.2072 -32.1954 -32.1774 -32.1755
   -32.1507 -32.1290 -32.1272 -32.1241 -32.0912 -32.0804 -32.0713 -32.0390
   -32.0282 -32.0263 -32.0227 -32.0185 -32.0154 -32.0104 -31.9958 -31.9835
   -31.9826 -31.9812 -31.9692 -31.9631 -31.9577 -31.9409 -31.9215 -31.8425
   -31.8256 -31.7366 -31.4161 -31.3268 -31.3045 -31.2326 -31.1461 -31.0352
   -19.2333 -16.7556 -16.5155 -16.3410 -16.2003 -16.1695 -15.9528 -15.8513
   -15.7804 -15.7263 -15.6568 -15.6055 -15.5712 -15.5620 -15.5453 -15.5224
   -15.5028 -15.4790 -15.4560 -15.4447 -15.4381 -15.3995 -15.3884 -15.3722
   -15.3537 -15.2479 -15.1835 -15.1592 -15.1139 -15.0907 -14.7383 -13.5110
   -13.3945  -7.8759  -7.0855  -4.1542  -4.0597  -3.9841  -3.9438  -3.9285
    -3.7729  -3.6938  -3.5466  -3.5178  -3.3066  -3.2770  -3.2196  -3.1945
    -3.1329  -3.0709  -2.9751  -2.9335  -2.8557  -2.8393  -2.8268  -2.8041
    -2.7842  -2.7675  -2.7276  -2.6631  -2.5924  -2.5601  -2.4425  -2.4203
    -2.4144  -2.3479  -2.3388  -2.3257  -2.3142  -2.2821  -2.2602  -2.2573
    -2.1860  -2.1548  -2.0834  -2.0314  -1.9710  -1.8522  -1.7007  -1.6388
    -1.5882  -1.5283  -1.5031  -1.4670  -1.4448  -1.4207  -1.3616  -1.3034
    -1.2394  -1.2273  -1.1570  -1.0643  -0.9930  -0.9550  -0.8846  -0.8231
    -0.8014  -0.7733  -0.7652  -0.7561  -0.7082  -0.5347  -0.4787  -0.4650
    -0.4256  -0.3424  -0.3120  -0.3022  -0.2531  -0.2450  -0.2050  -0.1162
    -0.0970  -0.0621  -0.0443  -0.0308   0.0023   0.0217   0.1766   0.1971
     0.2400   0.2615   0.3634   0.4696   0.5368   0.6243   0.7188   0.9375
     1.0135   1.0909   1.2046   1.5857   1.6318   2.7818   3.1051   3.1938
     3.2319   3.2379   3.2721   3.3427   3.5591   3.5902   3.6076   3.6640

[...]

          k = 0.0380-0.0419 0.0000 ( 17876 PWs)   bands (ev):

[...]

          k =-0.0760-0.0000 0.0000 ( 17886 PWs)   bands (ev):

[...]

          k =-0.0760-0.0839 0.0000 ( 17948 PWs)   bands (ev):

   -56.0068 -56.0053 -55.9904 -55.9822 -55.9777 -55.8594 -55.8365 -55.8256
   -55.8197 -55.8178 -55.7944 -55.7933 -55.7430 -55.5836 -54.9917 -54.9914
   -32.3580 -32.3422 -32.3230 -32.3219 -32.3013 -32.3000 -32.2790 -32.2712
   -32.2514 -32.2186 -32.2036 -32.1994 -32.1948 -32.1734 -32.1454 -32.1405
   -32.1361 -32.1337 -32.1321 -32.1299 -32.1295 -32.1264 -32.1262 -32.1247
   -32.0775 -32.0583 -32.0496 -32.0377 -32.0261 -32.0237 -32.0225 -32.0207
   -32.0203 -32.0093 -32.0074 -31.9967 -31.9908 -31.9756 -31.9690 -31.8463
   -31.8309 -31.8239 -31.3173 -31.3170 -31.2289 -31.2287 -31.1895 -31.1893
   -19.2324 -16.2145 -16.0948 -16.0403 -15.9473 -15.9219 -15.9073 -15.8335
   -15.7816 -15.7277 -15.7185 -15.6942 -15.6800 -15.6731 -15.6139 -15.5853
   -15.5609 -15.5498 -15.5066 -15.4936 -15.4856 -15.4719 -15.4698 -15.4637
   -15.4199 -15.3938 -15.3518 -15.3478 -15.2082 -15.0995 -15.0109 -13.4964
   -13.4961  -7.8851  -7.0872  -3.9147  -3.6502  -3.4925  -3.3154  -3.2646
    -3.1659  -3.1563  -3.1228  -3.1026  -2.9936  -2.9337  -2.9214  -2.8990
    -2.8586  -2.8488  -2.8421  -2.8371  -2.8029  -2.8012  -2.7647  -2.7460
    -2.7140  -2.7005  -2.6948  -2.6879  -2.6640  -2.6445  -2.6048  -2.5901
    -2.5739  -2.5442  -2.5072  -2.3732  -2.3038  -2.2261  -2.2193  -2.1786
    -2.1660  -2.1463  -2.1030  -2.0855  -2.0582  -1.9778  -1.9021  -1.7478
    -1.7291  -1.7064  -1.6745  -1.6143  -1.5235  -1.4971  -1.4702  -1.4224
    -1.4060  -1.3462  -1.3273  -1.2960  -1.2405  -1.1771  -1.1401  -1.1130
    -1.0678  -1.0029  -0.9823  -0.9614  -0.9474  -0.8869  -0.7784  -0.7718
    -0.7660  -0.7164  -0.7010  -0.6714  -0.6516  -0.5586  -0.4792  -0.4193
    -0.3225  -0.1584  -0.0796   0.0193   0.0567   0.1014   0.1459   0.1876
     0.2847   0.2867   0.3589   0.3896   0.4065   0.4893   0.5003   0.5233
     0.6840   1.3761   1.3773   1.4513   1.4517   2.8165   3.3621   3.4089
     3.4430   3.4898   3.5925   3.6127   3.6411   3.6429   3.7214   3.7693

     the Fermi energy is     3.1083 ev

!    total energy              =   -2952.61574471 Ry
     estimated scf accuracy    <       0.00000007 Ry
     smearing contrib. (-TS)   =      -0.02586078 Ry
     internal energy E=F+TS    =   -2952.58988393 Ry

     The total energy is F=E-TS. E is the sum of the following terms:
     one-electron contribution =  -24509.50838054 Ry
     hartree contribution      =   12341.94770208 Ry
     xc contribution           =    -487.96359594 Ry
     ewald contribution        =    9702.93407524 Ry
     electric field correction =       0.00031523 Ry

     convergence has been achieved in  67 iterations

     Forces acting on atoms (cartesian axes, Ry/au):

     atom    1 type  1   force =    -0.00003366   -0.00030593    0.09593929
     atom    2 type  1   force =     0.00005608   -0.00050532   -0.17608547
     atom    3 type  2   force =     0.00010370   -0.00009789   -0.02432536
     atom    4 type  2   force =     0.00000965   -0.00163108    0.05389007
     atom    5 type  2   force =    -0.01178592   -0.00141613    0.00393823
     atom    6 type  2   force =     0.01321269   -0.00102438    0.00318015
     atom    7 type  1   force =     0.00035229    0.00068748   -0.00763354
     atom    8 type  1   force =     0.00027155    0.01496196    0.02334007
     atom    9 type  2   force =    -0.00005170    0.00018240    0.00011275
     atom   10 type  2   force =    -0.00219279    0.00050237   -0.01742290
     atom   11 type  2   force =     0.00047581   -0.00026915   -0.00021789
     atom   12 type  2   force =    -0.00084373   -0.00017216   -0.00000489
     atom   13 type  1   force =     0.00045573    0.00042893    0.00005146
     atom   14 type  1   force =    -0.00018965    0.00004863    0.00086442
     atom   15 type  2   force =    -0.00013639    0.00076057   -0.00059338
     atom   16 type  2   force =     0.00001185    0.00053277   -0.00022651
     atom   17 type  2   force =    -0.00021013    0.00038485    0.00026858
     atom   18 type  2   force =     0.00011373    0.00018865   -0.00013714
     atom   19 type  1   force =     0.00069999    0.00082162   -0.00047529
     atom   20 type  1   force =    -0.00057353    0.00031446   -0.00042634
     atom   21 type  2   force =     0.00006365   -0.00000237    0.10331505
     atom   22 type  2   force =    -0.00026458    0.00072782    0.00072849
     atom   23 type  2   force =    -0.07135448   -0.00010989   -0.02762909
     atom   24 type  2   force =     0.07127625    0.00034101   -0.02769882
     atom   25 type  1   force =     0.00023894   -0.00029177    0.09578328
     atom   26 type  1   force =     0.00010991   -0.00029701   -0.17600643
     atom   27 type  2   force =     0.00013893   -0.00028879   -0.02321908
     atom   28 type  2   force =     0.00000245   -0.00132275    0.05365177
     atom   29 type  2   force =    -0.01213047    0.00039918    0.00378275
     atom   30 type  2   force =     0.01351555    0.00101271    0.00302653
     atom   31 type  1   force =     0.00024675    0.00375892   -0.01141605
     atom   32 type  1   force =     0.00044254   -0.01662198    0.02315453
     atom   33 type  2   force =     0.00017714    0.00010548   -0.00032982
     atom   34 type  2   force =    -0.00191271   -0.00010168   -0.02071046
     atom   35 type  2   force =     0.00046028    0.00006879    0.00008038
     atom   36 type  2   force =    -0.00088148    0.00000677    0.00034173
     atom   37 type  1   force =     0.00081698    0.00007744   -0.00030737
     atom   38 type  1   force =    -0.00000090    0.00013776    0.00039458
     atom   39 type  2   force =    -0.00024809    0.00044061   -0.00055391
     atom   40 type  2   force =    -0.00039716   -0.00008518   -0.00018032
     atom   41 type  2   force =    -0.00079303    0.00040990    0.00008972
     atom   42 type  2   force =     0.00015975    0.00025638    0.00006201
     atom   43 type  1   force =     0.00034843   -0.00036701    0.00031695
     atom   44 type  1   force =    -0.00003344   -0.00099633    0.00064059
     atom   45 type  2   force =     0.00006913   -0.00000274    0.10327475
     atom   46 type  2   force =    -0.07134244   -0.00004825   -0.02760677
     atom   47 type  2   force =     0.07126399    0.00038485   -0.02768089
     atom   48 type  3   force =     0.00237089   -0.00163230   -0.00093149
     atom   49 type  4   force =    -0.00007729   -0.00073793    0.00012733
     atom   50 type  5   force =    -0.00009828    0.00007734    0.00006586
     atom   51 type  5   force =    -0.00100929    0.00058368    0.00071580
     atom   52 type  2   force =    -0.00019665   -0.00015501    0.00142905
     atom   53 type  5   force =    -0.00082876   -0.00026784   -0.00022339
     atom   54 type  5   force =     0.00012194    0.00014752   -0.00052356

     Total force =     0.367792     Total SCF correction =     0.000632
  @ DRIVER MODE: Message from server: STATUS
  @ DRIVER MODE: Message from server: GETFORCE
  @ DRIVER MODE: Returning v,forces,stress,ensemble

     Writing output data file ./calc.save/
  @ DRIVER MODE: Message from server: EXIT
  @ DRIVE MODE: Exiting

     General routines

     Parallel routines

   This run was terminated on:  17: 7:48  15Sep2021

   JOB DONE.