     Program PWSCF v.6.7GPU starts on 26Sep2021 at 23:10:52

     R & G space division:  proc/nbgrp/npool/nimage =       8
     Reading input from /storage/home/hcoda1/3/ntian30/research/carbon/CxH_vib/CH_calc/ads_slab/CHONNHH_a/out_0016/pw.inp
Warning: card &CELL ignored
Warning: card   CELL_DYNAMICS='IPI', ignored
Warning: card / ignored

     Current dimensions of program PWSCF are:
     Max number of different atomic species (ntypx) = 10
     Max number of k-points (npk) =  40000
     Max angular momentum in pseudopotentials (lmaxx) =  3
     Presently no symmetry can be used with electric field

     Message from routine cell_base_init:
     DEPRECATED: use true lattice parameter, not A to a.u. conversion factor

     IMPORTANT: XC functional enforced from input :
     Exchange-correlation= BEEF-VDW
                           (   1   4  43  14   2   0   0)
     Any further DFT definition will be discarded
     Please, verify this is what you really want

  @ DRIVER MODE: Connecting to
 qe_1139763_2985878.sched-torque.pace.gatech.eduz7z88lga_scratch
  using UNIX socket
  @ DRIVER MODE: Message from server: STATUS
  @ DRIVER MODE: Message from server: INIT
  @ DRIVER MODE: Receiving replica           0          -1
  @ DRIVER MODE: Receiving encoded integer          25
  @ DRIVER MODE:  SCF:  T  FORCE:  T  STRESS:  F  VC:  F  ENSEMBLE:  F
  @ DRIVER MODE:  SCF:  T  FORCE:  T  STRESS:  F  VC:  F  ENSEMBLE:  F

     Using Slab Decomposition

     bravais-lattice index     =            0
     lattice parameter (alat)  =       1.8897  a.u.
     unit-cell volume          =    6658.9804 (a.u.)^3
     number of atoms/cell      =           54
     number of atomic types    =            5
     number of electrons       =       401.00
     number of Kohn-Sham states=          210
     kinetic-energy cutoff     =      29.3995  Ry
     charge density cutoff     =     293.9946  Ry
     scf convergence threshold =      7.3E-08
     mixing beta               =       0.0500
     number of iterations used =            8  plain     mixing
     Exchange-correlation= BEEF-VDW
                           (   1   4  43  14   2   0   0)

     celldm(1)=   1.889726  celldm(2)=   0.000000  celldm(3)=   0.000000
     celldm(4)=   0.000000  celldm(5)=   0.000000  celldm(6)=   0.000000

     crystal axes: (cart. coord. in units of alat)
               a(1) = (   6.579727   0.000000   0.000000 )
               a(2) = (  -0.000775   5.961596   0.000000 )
               a(3) = (   0.000000   0.000000  25.155947 )

     reciprocal axes: (cart. coord. in units 2 pi/alat)
               b(1) = (  0.151982  0.000020  0.000000 )
               b(2) = (  0.000000  0.167740  0.000000 )
               b(3) = (  0.000000  0.000000  0.039752 )

     PseudoPot. # 1 for O  read from file:
     /storage/coda1/p-amedford6/0/shared/rich_project_chbe-medford/medford-share/data/pseudos_module/espresso/nninc/pbe/van/O.UPF
     MD5 check sum: 78c19812648e8988a0fe644b0f25305e
     Pseudo is Ultrasoft, Zval =  6.0
     Generated by new atomic code, or converted to UPF format
     Using radial grid of  737 points,  4 beta functions with:
                l(1) =   0
                l(2) =   0
                l(3) =   1
                l(4) =   1
     Q(r) pseudized with  8 coefficients,  rinner =    0.800   0.800   0.800

     PseudoPot. # 2 for Ti read from file:
     /storage/coda1/p-amedford6/0/shared/rich_project_chbe-medford/medford-share/data/pseudos_module/espresso/nninc/pbe/van/Ti.UPF
     MD5 check sum: 8e4df49b7f0d34bbd5052bf3f5ea0213
     Pseudo is Ultrasoft, Zval = 12.0
     Generated by new atomic code, or converted to UPF format
     Using radial grid of  851 points,  6 beta functions with:
                l(1) =   0
                l(2) =   0
                l(3) =   1
                l(4) =   1
                l(5) =   2
                l(6) =   2
     Q(r) pseudized with  8 coefficients,  rinner =    1.000   1.000   1.000
                                                       1.000   1.000

     PseudoPot. # 3 for N  read from file:
     /storage/coda1/p-amedford6/0/shared/rich_project_chbe-medford/medford-share/data/pseudos_module/espresso/nninc/pbe/van/N.UPF
     MD5 check sum: 90d10febe142ad51ac9d5be1deb811c4
     Pseudo is Ultrasoft, Zval =  5.0
     Generated by new atomic code, or converted to UPF format
     Using radial grid of  729 points,  4 beta functions with:
                l(1) =   0
                l(2) =   0
                l(3) =   1
                l(4) =   1
     Q(r) pseudized with  8 coefficients,  rinner =    0.800   0.800   0.800

     PseudoPot. # 4 for H  read from file:
     /storage/coda1/p-amedford6/0/shared/rich_project_chbe-medford/medford-share/data/pseudos_module/espresso/nninc/pbe/van/H.UPF
     MD5 check sum: b5ee9d7bfd3a09ee7748110bda690ff7
     Pseudo is Ultrasoft, Zval =  1.0
     Generated by new atomic code, or converted to UPF format
     Using radial grid of  615 points,  1 beta functions with:
                l(1) =   0
     Q(r) pseudized with  8 coefficients,  rinner =    0.800

     PseudoPot. # 5 for C  read from file:
     /storage/coda1/p-amedford6/0/shared/rich_project_chbe-medford/medford-share/data/pseudos_module/espresso/nninc/pbe/van/C.UPF
     MD5 check sum: 1a69bf6b8db32088f5b2163dbdb77a27
     Pseudo is Ultrasoft, Zval =  4.0
     Generated by new atomic code, or converted to UPF format
     Using radial grid of  721 points,  4 beta functions with:
                l(1) =   0
                l(2) =   0
                l(3) =   1
                l(4) =   1
     Q(r) pseudized with  8 coefficients,  rinner =    0.800   0.800   0.800

     atomic species   valence    mass     pseudopotential
        O1             6.00    15.99900     O ( 1.00)
        Ti1           12.00    47.86700     Ti( 1.00)
        N1             5.00    14.00700     N ( 1.00)
        H1             1.00     1.00800     H ( 1.00)
        C1             4.00    12.01100     C ( 1.00)

     No symmetry found

   Cartesian axes

     site n.     atom                  positions (alat units)
         1           O1  tau(   1) = (   3.2904802   0.0005063   4.7018136  )
         2           O1  tau(   2) = (   3.2900926   2.9813045   4.7018136  )
         3           Ti1 tau(   3) = (   0.0004258   2.9801865   6.0000000  )
         4           Ti1 tau(   4) = (   0.0000382   5.9609847   6.0000000  )
         5           Ti1 tau(   5) = (   3.2906075   1.4906267   6.0002472  )
         6           Ti1 tau(   6) = (   3.2902200   4.4714249   6.0002472  )
         7           O1  tau(   7) = (   1.3043587   1.4918075   6.0039043  )
         8           O1  tau(   8) = (   1.3039711   4.4726057   6.0039043  )
         9           O1  tau(   9) = (   5.2767064   1.4903225   6.0039473  )
        10           O1  tau(  10) = (   5.2763189   4.4711207   6.0039473  )
        11           O1  tau(  11) = (   3.2906025   0.0005020   7.3038282  )
        12           O1  tau(  12) = (   3.2902150   2.9813002   7.3038282  )
        13           O1  tau(  13) = (   0.0006271   0.0005054   7.9858123  )
        14           O1  tau(  14) = (   0.0002396   2.9813036   7.9858123  )
        15           Ti1 tau(  15) = (   3.2907910   2.8959150   9.1758416  )
        16           Ti1 tau(  16) = (   3.2891106   5.8743827   9.1763621  )
        17           Ti1 tau(  17) = (   0.0015273   1.4827037   9.2680791  )
        18           Ti1 tau(  18) = (   0.0006254   4.4649316   9.2693709  )
        19           O1  tau(  19) = (   4.5942328   1.4918067   9.2879030  )
        20           O1  tau(  20) = (   4.5938453   4.4726049   9.2879030  )
        21           O1  tau(  21) = (   1.9868534   1.4903216   9.2879459  )
        22           O1  tau(  22) = (   1.9864658   4.4711199   9.2879459  )
        23           O1  tau(  23) = (   0.0116148   5.9584955  10.6183126  )
        24           O1  tau(  24) = (   0.0092240   2.9805883  10.6323155  )
        25           O1  tau(  25) = (   3.2871924   0.0092975  11.3134720  )
        26           O1  tau(  26) = (   3.2854473   2.9899114  11.3140924  )
        27           Ti1 tau(  27) = (   3.1645864   1.5001695  12.4631195  )
        28           Ti1 tau(  28) = (   3.1630299   4.4806833  12.4603605  )
        29           Ti1 tau(  29) = (   6.4825016   0.0268845  12.6761456  )
        30           O1  tau(  30) = (   5.2927839   4.4803479  12.6175172  )
        31           O1  tau(  31) = (   5.2917030   1.4958386  12.6158568  )
        32           O1  tau(  32) = (   1.3125566   4.4752595  12.6102184  )
        33           O1  tau(  33) = (   1.3147444   1.4884423  12.6074978  )
        34           Ti1 tau(  34) = (   6.4947133   3.0086745  12.6771613  )
        35           O1  tau(  35) = (   3.2927928   3.0034821  13.8909844  )
        36           O1  tau(  36) = (   3.2984538   0.0179784  13.8891953  )
        37           O1  tau(  37) = (   6.5782462   5.9542408  14.6113871  )
        38           O1  tau(  38) = (   0.0063130   2.9565225  14.5996091  )
        39           Ti1 tau(  39) = (   3.2946075   3.0248150  15.6873259  )
        40           Ti1 tau(  40) = (   3.3096140   0.0407809  15.6830396  )
        41           Ti1 tau(  41) = (   0.0052144   1.6347595  16.0230390  )
        42           O1  tau(  42) = (   2.0681981   1.5365669  16.0503333  )
        43           O1  tau(  43) = (   4.5323643   4.5197138  16.0585785  )
        44           O1  tau(  44) = (   2.0637162   4.5219542  16.0519313  )
        45           O1  tau(  45) = (   4.5361195   1.5375365  16.0414673  )
        46           Ti1 tau(  46) = (   0.0121038   4.6470822  16.0779317  )
        47           O1  tau(  47) = (   0.0166110   0.0790660  17.1873875  )
        48           N1  tau(  48) = (   3.1258632   2.7928715  18.8711073  )
        49           H1  tau(  49) = (   5.2135379   2.8994874  18.6379610  )
        50           N1  tau(  50) = (   1.8800116   2.5128027  19.3023652  )
        51           H1  tau(  51) = (   1.1979237   2.7808332  18.5810318  )
        52           C1  tau(  52) = (   4.2825308   2.7641870  19.1985473  )
        53           H1  tau(  53) = (   1.7950530   1.5048916  19.5010168  )
        54           O1  tau(  54) = (   0.0080391   3.0388675  17.2016835  )

     number of k points=    10  Fermi-Dirac smearing, width (Ry)=  0.0073
                       cart. coord. in units 2pi/alat
        k(    1) = (   0.0000000   0.0000000   0.0000000), wk =   0.1250000
        k(    2) = (   0.0000000   0.0419351   0.0000000), wk =   0.2500000
        k(    3) = (   0.0000000  -0.0838702   0.0000000), wk =   0.1250000
        k(    4) = (   0.0379955   0.0000049   0.0000000), wk =   0.2500000
        k(    5) = (   0.0379955   0.0419400   0.0000000), wk =   0.2500000
        k(    6) = (   0.0379955  -0.0838652   0.0000000), wk =   0.2500000
        k(    7) = (   0.0379955  -0.0419301   0.0000000), wk =   0.2500000
        k(    8) = (  -0.0759910  -0.0000099   0.0000000), wk =   0.1250000
        k(    9) = (  -0.0759910   0.0419252   0.0000000), wk =   0.2500000
        k(   10) = (  -0.0759910  -0.0838800   0.0000000), wk =   0.1250000

     Initial potential from superposition of free atoms

     starting charge  384.99916, renormalised to  401.00000

     negative rho (up, down):  1.609E-02 0.000E+00

     %%%%%%%%%%%%%%%%%%%%%%%%%%%%%%%%%%%%%%%%%%%%%%%%%%%%%%%%%%%%%%%%%%%%%%%%
     %                                                                      %
     % You are using vdW-DF, which was implemented by the Thonhauser group. %
     % Please cite the following two papers that made this development      %
     % possible and the two reviews that describe the various versions:     %
     %                                                                      %
     %   T. Thonhauser et al., PRL 115, 136402 (2015).                      %
     %   T. Thonhauser et al., PRB 76, 125112 (2007).                       %
     %   K. Berland et al., Rep. Prog. Phys. 78, 066501 (2015).             %
     %   D.C. Langreth et al., J. Phys.: Condens. Matter 21, 084203 (2009). %
     %                                                                      %
     %                                                                      %
     % If you are calculating the stress with vdW-DF, please also cite:     %
     %                                                                      %
     %   R. Sabatini et al., J. Phys.: Condens. Matter 24, 424209 (2012).   %
     %                                                                      %
     %%%%%%%%%%%%%%%%%%%%%%%%%%%%%%%%%%%%%%%%%%%%%%%%%%%%%%%%%%%%%%%%%%%%%%%%

     Adding external electric field

     Computed dipole along edir(3) :
        Dipole              -11.7434 Ry au,        -29.8489 Debye
        Dipole field         -0.0222 Ry au,

        Potential amp.        2.0543 Ry
        Total length         46.3494 bohr

     Starting wfcs are  303 atomic wfcs
  @ DRIVER MODE: Message from server: STATUS
  @ DRIVER MODE: Message from server: POSDATA
  @ DRIVER MODE: Reading and sharing cell
  @ DRIVER MODE: Reading and sharing positions
  @ DRIVER MODE: Received positions

     Self-consistent Calculation

     iteration #  1     ecut=    29.40 Ry     beta= 0.05
     Davidson diagonalization with overlap
     c_bands:  5 eigenvalues not converged
     c_bands:  1 eigenvalues not converged
     c_bands:  2 eigenvalues not converged
     c_bands:  4 eigenvalues not converged
     c_bands:  3 eigenvalues not converged
     c_bands:  1 eigenvalues not converged
     c_bands:  5 eigenvalues not converged
     ethr =  1.00E-05,  avg # of iterations = 22.9

[...]

     total energy              =   -2427.43703594 Ry
     estimated scf accuracy    <    6121.58389468 Ry

     iteration #  2     ecut=    29.40 Ry     beta= 0.05
     Davidson diagonalization with overlap
     ethr =  1.00E-02,  avg # of iterations = 23.6

[...]

     iteration # 39     ecut=    29.40 Ry     beta= 0.05
     Davidson diagonalization with overlap
     c_bands:  1 eigenvalues not converged
     ethr =  2.77E-07,  avg # of iterations = 11.2

[...]

     total energy              =   -2971.44212476 Ry
     estimated scf accuracy    <       0.00000010 Ry

     iteration # 60     ecut=    29.40 Ry     beta= 0.05
     Davidson diagonalization with overlap
     ethr =  2.39E-11,  avg # of iterations = 10.2

     negative rho (up, down):  1.474E-02 0.000E+00

     Adding external electric field

     Computed dipole along edir(3) :
        Dipole                0.6341 Ry au,          1.6117 Debye
        Dipole field          0.0012 Ry au,

        Potential amp.       -0.1109 Ry
        Total length         46.3494 bohr

     End of self-consistent calculation

          k = 0.0000 0.0000 0.0000 ( 18029 PWs)   bands (ev):

   -55.9322 -55.8983 -55.7377 -55.7018 -55.6237 -55.6206 -55.5869 -55.5868
   -55.5685 -55.5348 -55.5127 -55.4769 -55.2700 -55.1673 -54.8384 -54.8044
   -32.3984 -32.2876 -32.2262 -32.2017 -32.0878 -32.0854 -32.0835 -32.0565
   -32.0561 -32.0237 -32.0211 -31.9938 -31.9662 -31.9542 -31.9485 -31.9255
   -31.9042 -31.8852 -31.8733 -31.8599 -31.8362 -31.7981 -31.7945 -31.7716
   -31.7629 -31.7549 -31.7496 -31.7440 -31.7400 -31.7225 -31.7201 -31.6924
   -31.6913 -31.6791 -31.6686 -31.6320 -31.6313 -31.5097 -31.5024 -31.4083
   -31.3919 -31.3148 -31.2427 -31.1614 -31.1385 -31.0596 -30.9735 -30.8626
   -19.2029 -16.4798 -16.2884 -16.0348 -15.9373 -15.8217 -15.7452 -15.6088
   -15.5091 -15.4265 -15.4232 -15.3325 -15.3068 -15.3045 -15.2539 -15.2123
   -15.2070 -15.1966 -15.1721 -15.1674 -15.1376 -15.0928 -15.0206 -14.8998
   -14.8920 -14.8422 -14.8170 -14.7458 -14.6891 -14.6329 -14.5076 -14.3940
   -13.3406 -13.2255  -8.5722  -6.6367  -5.7496  -4.0486  -3.8622  -3.7889
    -3.6788  -3.6093  -3.5856  -3.3110  -3.3071  -2.9830  -2.9281  -2.9184
    -2.8946  -2.8556  -2.6797  -2.6435  -2.6269  -2.5825  -2.5713  -2.5652
    -2.5625  -2.5238  -2.4696  -2.4683  -2.3731  -2.3618  -2.3144  -2.2096
    -2.2073  -2.1882  -2.1224  -2.0969  -2.0453  -2.0012  -1.9823  -1.9773
    -1.9425  -1.9188  -1.7889  -1.7317  -1.6769  -1.5854  -1.5205  -1.4572
    -1.4353  -1.2989  -1.1845  -1.1775  -1.1438  -1.1035  -1.0877  -1.0616
    -0.9380  -0.8758  -0.8599  -0.8062  -0.7485  -0.6915  -0.6845  -0.6306
    -0.5992  -0.5849  -0.5621  -0.5388  -0.4756  -0.3026  -0.2233  -0.1313
    -0.1216  -0.0764  -0.0628  -0.0479   0.0081   0.0306   0.0455   0.1051
     0.1216   0.1731   0.2001   0.2139   0.2241   0.3003   0.3942   0.4173
     0.5265   0.5379   0.5980   0.6156   0.7892   0.8446   0.8616   0.9064
     1.0218   1.0851   1.1293   1.1829   1.3860   1.4913   1.7496   1.7930
     3.2655   3.2679   3.3545   3.4819   3.5956   3.6477   3.6966   3.7055
     3.8783   3.9372

[...]

          k = 0.0380-0.0419 0.0000 ( 17876 PWs)   bands (ev):

[...]

          k =-0.0760-0.0000 0.0000 ( 17886 PWs)   bands (ev):

[...]

          k =-0.0760-0.0839 0.0000 ( 17948 PWs)   bands (ev):

   -55.9152 -55.9151 -55.7208 -55.7185 -55.6115 -55.6046 -55.6026 -55.5988
   -55.5522 -55.5512 -55.4993 -55.4902 -55.2668 -55.1704 -54.8214 -54.8213
   -32.2143 -32.2142 -32.2113 -32.2110 -32.0925 -32.0907 -32.0386 -32.0386
   -32.0094 -32.0061 -31.9406 -31.9385 -31.9331 -31.9314 -31.9110 -31.9072
   -31.8932 -31.8890 -31.8871 -31.8829 -31.8258 -31.8173 -31.8127 -31.8019
   -31.7938 -31.7917 -31.7881 -31.7878 -31.7844 -31.7829 -31.7653 -31.7645
   -31.7362 -31.7270 -31.6563 -31.6484 -31.5757 -31.5234 -31.5040 -31.4542
   -31.4113 -31.4021 -31.1513 -31.1512 -31.0560 -31.0558 -31.0167 -31.0166
   -19.2006 -15.9134 -15.9082 -15.7343 -15.7276 -15.6735 -15.6716 -15.5371
   -15.5362 -15.4338 -15.4314 -15.3748 -15.3719 -15.3589 -15.3478 -15.2872
   -15.2699 -15.2673 -15.2605 -15.2196 -15.2174 -15.2122 -15.2100 -15.1197
   -15.1130 -14.9383 -14.8335 -14.7932 -14.6922 -14.6444 -14.5913 -14.5448
   -13.3277 -13.3277  -8.5203  -6.6089  -5.8955  -4.0403  -3.2135  -3.2052
    -2.9210  -2.9192  -2.8758  -2.8701  -2.6661  -2.6653  -2.6430  -2.6352
    -2.6006  -2.5894  -2.5662  -2.5626  -2.5070  -2.4847  -2.4714  -2.4685
    -2.4657  -2.4560  -2.4458  -2.4366  -2.4083  -2.3995  -2.3951  -2.3895
    -2.3461  -2.2869  -2.2699  -2.1784  -2.1604  -1.9422  -1.9416  -1.9184
    -1.9141  -1.8979  -1.8848  -1.8590  -1.8495  -1.7001  -1.6557  -1.4887
    -1.4855  -1.4197  -1.4030  -1.3509  -1.3153  -1.2518  -1.2289  -1.1308
    -1.1188  -1.0485  -1.0401  -0.9826  -0.9393  -0.9315  -0.9209  -0.8276
    -0.8252  -0.8057  -0.7662  -0.6997  -0.6889  -0.6165  -0.6107  -0.5605
    -0.5590  -0.4914  -0.4843  -0.3157  -0.3122  -0.2207  -0.1937  -0.0981
    -0.0822   0.1171   0.2079   0.2311   0.2620   0.2671   0.4533   0.4670
     0.4845   0.4903   0.5160   0.5529   0.6771   0.6974   0.7637   0.7771
     0.8126   0.8187   1.0465   1.0629   1.5552   1.5556   1.6111   1.6113
     3.3907   3.6679   3.6837   3.7698   3.7704   3.7894   3.7900   3.8186
     3.8233   4.0365

     the Fermi energy is     3.2298 ev

!    total energy              =   -2971.44217387 Ry
     estimated scf accuracy    <       0.00000007 Ry
     smearing contrib. (-TS)   =      -0.01958961 Ry
     internal energy E=F+TS    =   -2971.42258425 Ry

     The total energy is F=E-TS. E is the sum of the following terms:
     one-electron contribution =  -23899.98765547 Ry
     hartree contribution      =   12042.13352004 Ry
     xc contribution           =    -492.30193388 Ry
     ewald contribution        =    9378.73272628 Ry
     electric field correction =       0.00075878 Ry

     convergence has been achieved in  60 iterations

     Forces acting on atoms (cartesian axes, Ry/au):

     atom    1 type  1   force =     0.00003817   -0.00008284    0.10232893
     atom    2 type  1   force =     0.00004519   -0.00006882    0.10234579
     atom    3 type  2   force =     0.00001196   -0.00023967    0.10289432
     atom    4 type  2   force =     0.00008315   -0.00018017    0.10232144
     atom    5 type  2   force =    -0.00009742   -0.00057980   -0.17192242
     atom    6 type  2   force =    -0.00009194   -0.00034464   -0.17207953
     atom    7 type  1   force =    -0.07283680   -0.00013370   -0.02895537
     atom    8 type  1   force =    -0.07284598   -0.00008402   -0.02895973
     atom    9 type  1   force =     0.07271032    0.00030374   -0.02904133
     atom   10 type  1   force =     0.07273287    0.00033427   -0.02905478
     atom   11 type  1   force =    -0.00003983   -0.00106244    0.04699704
     atom   12 type  1   force =    -0.00001182   -0.00087242    0.04696057
     atom   13 type  1   force =     0.00020379    0.00004998   -0.03512748
     atom   14 type  1   force =     0.00023542   -0.00007925   -0.03433035
     atom   15 type  2   force =     0.00066488   -0.00145140   -0.00644235
     atom   16 type  2   force =     0.00062641    0.00163376   -0.00656445
     atom   17 type  2   force =     0.00001820   -0.00075909    0.06346123
     atom   18 type  2   force =    -0.00004379   -0.00155052    0.06386096
     atom   19 type  1   force =    -0.01511211    0.00120117   -0.00076411
     atom   20 type  1   force =    -0.01544819    0.00065087   -0.00080372
     atom   21 type  1   force =     0.01664672    0.00174443   -0.00154338
     atom   22 type  1   force =     0.01686968    0.00105271   -0.00156123
     atom   23 type  1   force =    -0.00339517    0.00174940   -0.03963017
     atom   24 type  1   force =    -0.00234029    0.00099919   -0.04611124
     atom   25 type  1   force =     0.00003999   -0.00007150    0.00017489
     atom   26 type  1   force =     0.00030724   -0.00004439    0.00009013
     atom   27 type  2   force =    -0.00005051   -0.00009822   -0.00002581
     atom   28 type  2   force =     0.00019428   -0.00003569    0.00035426
     atom   29 type  2   force =     0.00063384   -0.00029276    0.00050803
     atom   30 type  1   force =    -0.00039792   -0.00010326    0.00031075
     atom   31 type  1   force =    -0.00024258    0.00008918   -0.00018249
     atom   32 type  1   force =     0.00044186   -0.00013393    0.00017858
     atom   33 type  1   force =     0.00037983    0.00008352    0.00010097
     atom   34 type  2   force =    -0.00008171   -0.00018068    0.00049995
     atom   35 type  1   force =     0.00007690   -0.00026085   -0.00019671
     atom   36 type  1   force =    -0.00003781    0.00011511   -0.00024733
     atom   37 type  1   force =     0.00012340   -0.00022798    0.00000443
     atom   38 type  1   force =    -0.00016965   -0.00032931    0.00004174
     atom   39 type  2   force =    -0.00001647   -0.00036100   -0.00015224
     atom   40 type  2   force =    -0.00027965   -0.00002352    0.00045446
     atom   41 type  2   force =    -0.00026765    0.00024194    0.00017150
     atom   42 type  1   force =     0.00002985    0.00005832   -0.00007165
     atom   43 type  1   force =    -0.00014204   -0.00005047   -0.00051863
     atom   44 type  1   force =     0.00037412   -0.00043679    0.00024498
     atom   45 type  1   force =    -0.00011897   -0.00011473   -0.00034645
     atom   46 type  2   force =    -0.00015349   -0.00078834    0.00009140
     atom   47 type  1   force =     0.00015463   -0.00008458    0.00001130
     atom   48 type  3   force =     0.00300325    0.00255779   -0.00011808
     atom   49 type  4   force =     0.00067164    0.00038528   -0.00043485
     atom   50 type  3   force =     0.00075526   -0.01993658    0.00622663
     atom   51 type  4   force =    -0.00278763    0.00255804   -0.00337907
     atom   52 type  5   force =    -0.00110614   -0.00011727   -0.00064354
     atom   53 type  4   force =     0.00065811    0.01498640   -0.00107864
     atom   54 type  1   force =    -0.00061539    0.00038553   -0.00034718

     Total force =     0.382392     Total SCF correction =     0.000660
  @ DRIVER MODE: Message from server: STATUS
  @ DRIVER MODE: Message from server: GETFORCE
  @ DRIVER MODE: Returning v,forces,stress,ensemble

     Writing output data file ./calc.save/
  @ DRIVER MODE: Message from server: EXIT
  @ DRIVE MODE: Exiting

     General routines

     Parallel routines

   This run was terminated on:  23:31:55  26Sep2021

   JOB DONE.