     Program PWSCF v.6.7GPU starts on  8Sep2021 at 23:53:34

     R & G space division:  proc/nbgrp/npool/nimage =      10
     Reading input from /storage/home/hcoda1/3/ntian30/research/carbon/CxH_vib/CH3_calc/ads_slab/CH3N_a/out_0008/pw.inp
Warning: card &CELL ignored
Warning: card   CELL_DYNAMICS='IPI', ignored
Warning: card / ignored

     Current dimensions of program PWSCF are:
     Max number of different atomic species (ntypx) = 10
     Max number of k-points (npk) =  40000
     Max angular momentum in pseudopotentials (lmaxx) =  3
     Presently no symmetry can be used with electric field

     Message from routine cell_base_init:
     DEPRECATED: use true lattice parameter, not A to a.u. conversion factor

     IMPORTANT: XC functional enforced from input :
     Exchange-correlation= BEEF-VDW
                           (   1   4  43  14   2   0   0)
     Any further DFT definition will be discarded
     Please, verify this is what you really want

  @ DRIVER MODE: Connecting to
 qe_1139763_2767403.sched-torque.pace.gatech.edul6opwfhg_scratch
  using UNIX socket
  @ DRIVER MODE: Message from server: STATUS
  @ DRIVER MODE: Message from server: INIT
  @ DRIVER MODE: Receiving replica           0          -1
  @ DRIVER MODE: Receiving encoded integer          25
  @ DRIVER MODE:  SCF:  T  FORCE:  T  STRESS:  F  VC:  F  ENSEMBLE:  F
  @ DRIVER MODE:  SCF:  T  FORCE:  T  STRESS:  F  VC:  F  ENSEMBLE:  F

     Using Slab Decomposition

     bravais-lattice index     =            0
     lattice parameter (alat)  =       1.8897  a.u.
     unit-cell volume          =    6658.9804 (a.u.)^3
     number of atoms/cell      =           52
     number of atomic types    =            5
     number of electrons       =       390.00
     number of Kohn-Sham states=          205
     kinetic-energy cutoff     =      29.3995  Ry
     charge density cutoff     =     293.9946  Ry
     scf convergence threshold =      7.3E-08
     mixing beta               =       0.0500
     number of iterations used =            8  plain     mixing
     Exchange-correlation= BEEF-VDW
                           (   1   4  43  14   2   0   0)

     celldm(1)=   1.889726  celldm(2)=   0.000000  celldm(3)=   0.000000
     celldm(4)=   0.000000  celldm(5)=   0.000000  celldm(6)=   0.000000

     crystal axes: (cart. coord. in units of alat)
               a(1) = (   6.579727   0.000000   0.000000 )
               a(2) = (  -0.000775   5.961596   0.000000 )
               a(3) = (   0.000000   0.000000  25.155947 )

     reciprocal axes: (cart. coord. in units 2 pi/alat)
               b(1) = (  0.151982  0.000020  0.000000 )
               b(2) = (  0.000000  0.167740  0.000000 )
               b(3) = (  0.000000  0.000000  0.039752 )

     PseudoPot. # 1 for Ti read from file:
     /storage/coda1/p-amedford6/0/shared/rich_project_chbe-medford/medford-share/data/pseudos_module/espresso/nninc/pbe/van/Ti.UPF
     MD5 check sum: 8e4df49b7f0d34bbd5052bf3f5ea0213
     Pseudo is Ultrasoft, Zval = 12.0
     Generated by new atomic code, or converted to UPF format
     Using radial grid of  851 points,  6 beta functions with:
                l(1) =   0
                l(2) =   0
                l(3) =   1
                l(4) =   1
                l(5) =   2
                l(6) =   2
     Q(r) pseudized with  8 coefficients,  rinner =    1.000   1.000   1.000
                                                       1.000   1.000

     PseudoPot. # 2 for O  read from file:
     /storage/coda1/p-amedford6/0/shared/rich_project_chbe-medford/medford-share/data/pseudos_module/espresso/nninc/pbe/van/O.UPF
     MD5 check sum: 78c19812648e8988a0fe644b0f25305e
     Pseudo is Ultrasoft, Zval =  6.0
     Generated by new atomic code, or converted to UPF format
     Using radial grid of  737 points,  4 beta functions with:
                l(1) =   0
                l(2) =   0
                l(3) =   1
                l(4) =   1
     Q(r) pseudized with  8 coefficients,  rinner =    0.800   0.800   0.800

     PseudoPot. # 3 for N  read from file:
     /storage/coda1/p-amedford6/0/shared/rich_project_chbe-medford/medford-share/data/pseudos_module/espresso/nninc/pbe/van/N.UPF
     MD5 check sum: 90d10febe142ad51ac9d5be1deb811c4
     Pseudo is Ultrasoft, Zval =  5.0
     Generated by new atomic code, or converted to UPF format
     Using radial grid of  729 points,  4 beta functions with:
                l(1) =   0
                l(2) =   0
                l(3) =   1
                l(4) =   1
     Q(r) pseudized with  8 coefficients,  rinner =    0.800   0.800   0.800

     PseudoPot. # 4 for C  read from file:
     /storage/coda1/p-amedford6/0/shared/rich_project_chbe-medford/medford-share/data/pseudos_module/espresso/nninc/pbe/van/C.UPF
     MD5 check sum: 1a69bf6b8db32088f5b2163dbdb77a27
     Pseudo is Ultrasoft, Zval =  4.0
     Generated by new atomic code, or converted to UPF format
     Using radial grid of  721 points,  4 beta functions with:
                l(1) =   0
                l(2) =   0
                l(3) =   1
                l(4) =   1
     Q(r) pseudized with  8 coefficients,  rinner =    0.800   0.800   0.800

     PseudoPot. # 5 for H  read from file:
     /storage/coda1/p-amedford6/0/shared/rich_project_chbe-medford/medford-share/data/pseudos_module/espresso/nninc/pbe/van/H.UPF
     MD5 check sum: b5ee9d7bfd3a09ee7748110bda690ff7
     Pseudo is Ultrasoft, Zval =  1.0
     Generated by new atomic code, or converted to UPF format
     Using radial grid of  615 points,  1 beta functions with:
                l(1) =   0
     Q(r) pseudized with  8 coefficients,  rinner =    0.800

     atomic species   valence    mass     pseudopotential
        Ti1           12.00    47.86700     Ti( 1.00)
        O1             6.00    15.99900     O ( 1.00)
        N1             5.00    14.00700     N ( 1.00)
        C1             4.00    12.01100     C ( 1.00)
        H1             1.00     1.00800     H ( 1.00)

     No symmetry found

   Cartesian axes

     site n.     atom                  positions (alat units)
         1           Ti1 tau(   1) = (   0.0004258   2.9801865   6.0000000  )
         2           Ti1 tau(   2) = (   3.2906075   1.4906267   6.0002472  )
         3           O1  tau(   3) = (   0.0006271   0.0005054   7.9858123  )
         4           O1  tau(   4) = (   3.2906025   0.0005020   7.3038282  )
         5           O1  tau(   5) = (   4.5942328   1.4918067   9.2879030  )
         6           O1  tau(   6) = (   1.9868534   1.4903216   9.2879459  )
         7           Ti1 tau(   7) = (   3.2907910   2.8959150   9.1758416  )
         8           Ti1 tau(   8) = (   0.0015273   1.4827037   9.2680791  )
         9           O1  tau(   9) = (   3.3018735   5.9614316  11.2970789  )
        10           O1  tau(  10) = (   0.0116148   5.9584955  10.6183126  )
        11           O1  tau(  11) = (   1.3353665   1.4968727  12.6140821  )
        12           O1  tau(  12) = (   5.3123320   1.5002621  12.6324210  )
        13           Ti1 tau(  13) = (   6.4913169   2.9877414  12.7576577  )
        14           Ti1 tau(  14) = (   3.1819880   1.4874128  12.4666476  )
        15           O1  tau(  15) = (   0.0325390   5.9514364  14.5942808  )
        16           O1  tau(  16) = (   3.3157460   0.0104736  13.8786857  )
        17           O1  tau(  17) = (   4.5538541   1.5308062  16.0536203  )
        18           O1  tau(  18) = (   2.1012647   1.5271178  16.0466835  )
        19           Ti1 tau(  19) = (   3.3239613   3.0121693  15.6870930  )
        20           Ti1 tau(  20) = (   0.0188375   1.6096557  16.0875739  )
        21           O1  tau(  21) = (   3.2904802   0.0005063   4.7018136  )
        22           O1  tau(  22) = (   0.0443345   0.0604659  17.2041813  )
        23           O1  tau(  23) = (   1.3043587   1.4918075   6.0039043  )
        24           O1  tau(  24) = (   5.2767064   1.4903225   6.0039473  )
        25           Ti1 tau(  25) = (   0.0000382   5.9609847   6.0000000  )
        26           Ti1 tau(  26) = (   3.2902200   4.4714249   6.0002472  )
        27           O1  tau(  27) = (   0.0002396   2.9813036   7.9858123  )
        28           O1  tau(  28) = (   3.2902150   2.9813002   7.3038282  )
        29           O1  tau(  29) = (   4.5938453   4.4726049   9.2879030  )
        30           O1  tau(  30) = (   1.9864658   4.4711199   9.2879459  )
        31           Ti1 tau(  31) = (   3.2891106   5.8743827   9.1763621  )
        32           Ti1 tau(  32) = (   0.0006254   4.4649316   9.2693709  )
        33           O1  tau(  33) = (   3.3028429   2.9834257  11.2952420  )
        34           O1  tau(  34) = (   0.0092240   2.9805883  10.6323155  )
        35           O1  tau(  35) = (   1.3370139   4.4664586  12.6123119  )
        36           O1  tau(  36) = (   5.3107101   4.4655690  12.6333123  )
        37           Ti1 tau(  37) = (   6.5188704   0.0058144  12.7695920  )
        38           Ti1 tau(  38) = (   3.1805296   4.4670443  12.4671176  )
        39           O1  tau(  39) = (   0.0099197   2.9765079  14.6559069  )
        40           O1  tau(  40) = (   3.3143426   2.9928857  13.8797190  )
        41           O1  tau(  41) = (   4.5573730   4.5089470  16.0521860  )
        42           O1  tau(  42) = (   2.1018054   4.5121927  16.0508938  )
        43           Ti1 tau(  43) = (   3.3145791   0.0316975  15.6896801  )
        44           Ti1 tau(  44) = (   0.0207397   4.5876961  16.1385408  )
        45           O1  tau(  45) = (   3.2900926   2.9813045   4.7018136  )
        46           O1  tau(  46) = (   1.3039711   4.4726057   6.0039043  )
        47           O1  tau(  47) = (   5.2763189   4.4711207   6.0039473  )
        48           N1  tau(  48) = (   0.0936308   3.0233000  17.3257847  )
        49           C1  tau(  49) = (   0.4381149   3.0137428  18.7308649  )
        50           H1  tau(  50) = (   0.7292188   4.0033843  19.0862330  )
        51           H1  tau(  51) = (   6.1445545   2.6862439  19.3232575  )
        52           H1  tau(  52) = (   1.2401080   2.3040860  18.9332505  )

     number of k points=    10  Fermi-Dirac smearing, width (Ry)=  0.0073
                       cart. coord. in units 2pi/alat
        k(    1) = (   0.0000000   0.0000000   0.0000000), wk =   0.1250000
        k(    2) = (   0.0000000   0.0419351   0.0000000), wk =   0.2500000
        k(    3) = (   0.0000000  -0.0838702   0.0000000), wk =   0.1250000
        k(    4) = (   0.0379955   0.0000049   0.0000000), wk =   0.2500000
        k(    5) = (   0.0379955   0.0419400   0.0000000), wk =   0.2500000
        k(    6) = (   0.0379955  -0.0838652   0.0000000), wk =   0.2500000
        k(    7) = (   0.0379955  -0.0419301   0.0000000), wk =   0.2500000
        k(    8) = (  -0.0759910  -0.0000099   0.0000000), wk =   0.1250000
        k(    9) = (  -0.0759910   0.0419252   0.0000000), wk =   0.2500000
        k(   10) = (  -0.0759910  -0.0838800   0.0000000), wk =   0.1250000

     Initial potential from superposition of free atoms

     starting charge  373.99917, renormalised to  390.00000

     negative rho (up, down):  1.729E-02 0.000E+00

     %%%%%%%%%%%%%%%%%%%%%%%%%%%%%%%%%%%%%%%%%%%%%%%%%%%%%%%%%%%%%%%%%%%%%%%%
     %                                                                      %
     % You are using vdW-DF, which was implemented by the Thonhauser group. %
     % Please cite the following two papers that made this development      %
     % possible and the two reviews that describe the various versions:     %
     %                                                                      %
     %   T. Thonhauser et al., PRL 115, 136402 (2015).                      %
     %   T. Thonhauser et al., PRB 76, 125112 (2007).                       %
     %   K. Berland et al., Rep. Prog. Phys. 78, 066501 (2015).             %
     %   D.C. Langreth et al., J. Phys.: Condens. Matter 21, 084203 (2009). %
     %                                                                      %
     %                                                                      %
     % If you are calculating the stress with vdW-DF, please also cite:     %
     %                                                                      %
     %   R. Sabatini et al., J. Phys.: Condens. Matter 24, 424209 (2012).   %
     %                                                                      %
     %%%%%%%%%%%%%%%%%%%%%%%%%%%%%%%%%%%%%%%%%%%%%%%%%%%%%%%%%%%%%%%%%%%%%%%%

     Adding external electric field

     Computed dipole along edir(3) :
        Dipole               -4.6272 Ry au,        -11.7612 Debye
        Dipole field         -0.0087 Ry au,

        Potential amp.        0.8095 Ry
        Total length         46.3494 bohr

     Starting wfcs are  295 atomic wfcs
  @ DRIVER MODE: Message from server: STATUS
  @ DRIVER MODE: Message from server: POSDATA
  @ DRIVER MODE: Reading and sharing cell
  @ DRIVER MODE: Reading and sharing positions
  @ DRIVER MODE: Received positions

     Self-consistent Calculation

     iteration #  1     ecut=    29.40 Ry     beta= 0.05
     Davidson diagonalization with overlap
     c_bands:  4 eigenvalues not converged
     c_bands:  2 eigenvalues not converged
     c_bands:  2 eigenvalues not converged
     c_bands:  4 eigenvalues not converged
     c_bands:  2 eigenvalues not converged
     c_bands:  4 eigenvalues not converged
     c_bands:  2 eigenvalues not converged
     c_bands:  2 eigenvalues not converged
     c_bands:  2 eigenvalues not converged
     ethr =  1.00E-05,  avg # of iterations = 19.9

[...]

     total energy              =   -2877.70505765 Ry
     estimated scf accuracy    <     478.29975110 Ry

     iteration #  2     ecut=    29.40 Ry     beta= 0.05
     Davidson diagonalization with overlap
     ethr =  1.00E-02,  avg # of iterations = 13.5

[...]

     iteration # 45     ecut=    29.40 Ry     beta= 0.05
     Davidson diagonalization with overlap
     c_bands:  1 eigenvalues not converged
     ethr =  5.21E-07,  avg # of iterations =  9.9

[...]

     total energy              =   -2919.13168393 Ry
     estimated scf accuracy    <       0.00000011 Ry

     iteration # 65     ecut=    29.40 Ry     beta= 0.05
     Davidson diagonalization with overlap
     ethr =  2.81E-11,  avg # of iterations =  4.4

     negative rho (up, down):  1.787E-02 0.000E+00

     Adding external electric field

     Computed dipole along edir(3) :
        Dipole                0.2609 Ry au,          0.6631 Debye
        Dipole field          0.0005 Ry au,

        Potential amp.       -0.0456 Ry
        Total length         46.3494 bohr

     End of self-consistent calculation

          k = 0.0000 0.0000 0.0000 ( 18029 PWs)   bands (ev):

   -56.8862 -56.8525 -56.0087 -55.9968 -55.9738 -55.9639 -55.8621 -55.8234
   -55.6465 -55.6112 -55.5505 -55.5481 -55.5166 -55.4389 -54.9672 -54.9200
   -33.3141 -33.1609 -33.1327 -33.0622 -32.9711 -32.9401 -32.4795 -32.4733
   -32.4028 -32.2928 -32.2463 -32.2225 -32.2040 -32.1827 -32.1491 -32.1447
   -32.1412 -32.1379 -32.1122 -32.1108 -32.0981 -32.0692 -32.0429 -32.0291
   -32.0160 -31.9964 -31.9900 -31.9666 -31.9429 -31.8891 -31.8778 -31.8649
   -31.7896 -31.7852 -31.7615 -31.7231 -31.7131 -31.6781 -31.6682 -31.6433
   -31.6246 -31.5672 -31.4970 -31.2180 -31.1924 -31.1717 -31.1406 -31.0258
   -17.0506 -16.6157 -16.3854 -16.2489 -16.1820 -16.1270 -16.0834 -15.9602
   -15.8865 -15.8815 -15.8408 -15.8093 -15.7385 -15.5999 -15.5014 -15.4444
   -15.4009 -15.2818 -15.2226 -15.1895 -15.1840 -15.1447 -15.1301 -14.9326
   -14.9060 -14.8178 -14.7989 -14.6712 -14.4396 -14.0490 -13.9389 -13.0678
    -7.8201  -4.6161  -4.1120  -3.8711  -3.7880  -3.6799  -3.6669  -3.5873
    -3.4672  -3.4207  -3.3741  -3.2579  -3.2549  -3.1282  -3.1082  -3.0619
    -3.0598  -3.0264  -2.9660  -2.9424  -2.8929  -2.8871  -2.8776  -2.7307
    -2.6318  -2.5660  -2.5381  -2.5253  -2.4945  -2.4229  -2.3938  -2.3833
    -2.3794  -2.2749  -2.1287  -2.1274  -2.0959  -2.0540  -2.0509  -2.0106
    -2.0010  -1.8746  -1.7851  -1.6755  -1.6662  -1.6286  -1.5668  -1.5600
    -1.4636  -1.3883  -1.3178  -1.2999  -1.1904  -1.1465  -1.1238  -1.0348
    -0.9727  -0.9349  -0.9124  -0.8958  -0.7917  -0.7758  -0.7693  -0.6757
    -0.6630  -0.6198  -0.5271  -0.5033  -0.4975  -0.4159  -0.4089  -0.3052
    -0.2755  -0.2311  -0.1981  -0.0934  -0.0729   0.0246   0.0625   0.0800
     0.2025   0.2197   0.2795   0.3526   0.4183   0.4347   0.4712   0.5011
     0.5176   0.5952   0.7077   0.7154   0.8185   0.8514   1.0237   1.0626
     1.3395   1.3534   2.0474   2.3882   2.5479   2.8463   3.0351   3.1485
     3.3631   3.3787   3.3839   3.5550   3.6075

[...]

          k = 0.0380-0.0419 0.0000 ( 17876 PWs)   bands (ev):

[...]

          k =-0.0760-0.0000 0.0000 ( 17886 PWs)   bands (ev):

[...]

          k =-0.0760-0.0839 0.0000 ( 17948 PWs)   bands (ev):

   -56.8694 -56.8691 -55.9935 -55.9878 -55.9811 -55.9805 -55.8506 -55.8348
   -55.6316 -55.6259 -55.5452 -55.5335 -55.5334 -55.4417 -54.9592 -54.9278
   -33.1467 -33.1465 -33.1310 -33.1308 -33.0152 -33.0149 -32.3094 -32.3070
   -32.2978 -32.2913 -32.2383 -32.2348 -32.1965 -32.1921 -32.1909 -32.1873
   -32.1831 -32.1802 -32.1781 -32.1764 -32.1010 -32.0885 -32.0497 -32.0375
   -31.9820 -31.9737 -31.9139 -31.9082 -31.8780 -31.8779 -31.8733 -31.8302
   -31.8287 -31.7982 -31.7615 -31.7591 -31.7590 -31.7200 -31.7200 -31.7188
   -31.6844 -31.6450 -31.3619 -31.2844 -31.1891 -31.1618 -31.1495 -31.1081
   -16.3993 -16.3972 -16.3645 -16.3642 -16.0954 -16.0919 -16.0460 -16.0426
   -15.8713 -15.8641 -15.6589 -15.6501 -15.6431 -15.6403 -15.5126 -15.5069
   -15.4438 -15.4296 -15.3423 -15.3397 -15.2763 -15.2702 -15.2321 -15.2123
   -14.9018 -14.8841 -14.7720 -14.7467 -14.5832 -14.0424 -14.0424 -13.0842
    -7.8109  -3.4978  -3.4970  -3.4336  -3.4326  -3.3086  -3.3027  -3.2290
    -3.2282  -3.1272  -3.1238  -3.1111  -2.9963  -2.9841  -2.9811  -2.9707
    -2.9457  -2.8275  -2.8240  -2.8154  -2.7999  -2.7434  -2.7412  -2.7229
    -2.6517  -2.6377  -2.6039  -2.5655  -2.4571  -2.4434  -2.4307  -2.3989
    -2.3414  -2.3289  -2.3157  -2.2738  -2.2483  -2.1603  -2.1071  -2.0549
    -1.9385  -1.9353  -1.9270  -1.9116  -1.7599  -1.7183  -1.6909  -1.6832
    -1.6756  -1.6320  -1.5331  -1.5264  -1.3921  -1.3915  -1.3120  -1.2327
    -1.2155  -1.1847  -1.0552  -1.0147  -0.9783  -0.9700  -0.9427  -0.9233
    -0.8992  -0.8629  -0.7210  -0.7080  -0.6711  -0.6358  -0.6309  -0.5742
    -0.5171  -0.4372  -0.3603  -0.3592  -0.3066  -0.2342  -0.1728  -0.0928
    -0.0778  -0.0733   0.2069   0.2870   0.3785   0.4552   0.5236   0.5773
     0.6115   0.6768   0.7153   0.8494   0.8539   0.8718   0.8722   0.9338
     0.9353   1.3302   1.9371   2.9613   2.9616   3.0284   3.0288   3.3524
     3.3582   3.4664   3.4759   3.5865   3.5887

     the Fermi energy is     2.2274 ev

!    total energy              =   -2919.13171033 Ry
     estimated scf accuracy    <       0.00000006 Ry
     smearing contrib. (-TS)   =      -0.00482206 Ry
     internal energy E=F+TS    =   -2919.12688827 Ry

     The total energy is F=E-TS. E is the sum of the following terms:
     one-electron contribution =  -24569.37808574 Ry
     hartree contribution      =   12368.93064414 Ry
     xc contribution           =    -479.89933825 Ry
     ewald contribution        =    9761.21976316 Ry
     electric field correction =       0.00012842 Ry

     convergence has been achieved in  65 iterations

     Forces acting on atoms (cartesian axes, Ry/au):

     atom    1 type  1   force =     0.00005801   -0.00050397    0.12425421
     atom    2 type  1   force =    -0.00009472   -0.00054867   -0.16066871
     atom    3 type  2   force =     0.00022084   -0.00024042   -0.06807937
     atom    4 type  2   force =    -0.00000071   -0.00032105    0.02760119
     atom    5 type  2   force =    -0.01621557    0.00174334   -0.00936546
     atom    6 type  2   force =     0.01826907    0.00228127   -0.00891897
     atom    7 type  1   force =     0.00112725   -0.00382025    0.02201261
     atom    8 type  1   force =    -0.00061531   -0.00325341    0.11122286
     atom    9 type  2   force =    -0.00010314    0.00138899   -0.00035999
     atom   10 type  2   force =    -0.00190772    0.00178627   -0.07344879
     atom   11 type  2   force =     0.00081826    0.00005977    0.00005552
     atom   12 type  2   force =    -0.00066994    0.00019194    0.00015293
     atom   13 type  1   force =     0.00006264    0.00022448   -0.00040059
     atom   14 type  1   force =    -0.00101039   -0.00024602   -0.00050810
     atom   15 type  2   force =     0.00003613   -0.00028092    0.00010826
     atom   16 type  2   force =    -0.00006006    0.00106858    0.00077005
     atom   17 type  2   force =     0.00011790    0.00016974   -0.00046540
     atom   18 type  2   force =     0.00003643    0.00019635   -0.00002394
     atom   19 type  1   force =     0.00015556    0.00003714   -0.00078279
     atom   20 type  1   force =     0.00028670   -0.00093374    0.00016713
     atom   21 type  2   force =     0.00003961   -0.00006653    0.09977350
     atom   22 type  2   force =     0.00025358   -0.00050758    0.00004891
     atom   23 type  2   force =    -0.07918966   -0.00005217   -0.03245095
     atom   24 type  2   force =     0.07905526    0.00038242   -0.03247667
     atom   25 type  1   force =     0.00004527   -0.00049900    0.12370201
     atom   26 type  1   force =    -0.00009959   -0.00050334   -0.16068149
     atom   27 type  2   force =     0.00032726   -0.00048132   -0.06713280
     atom   28 type  2   force =     0.00002615   -0.00014353    0.02729116
     atom   29 type  2   force =    -0.01661463    0.00134532   -0.00956855
     atom   30 type  2   force =     0.01855649    0.00165146   -0.00913746
     atom   31 type  1   force =     0.00110662   -0.00129495    0.02157111
     atom   32 type  1   force =    -0.00051634    0.00069037    0.11186762
     atom   33 type  2   force =    -0.00033793   -0.00115346    0.00014223
     atom   34 type  2   force =    -0.00156722    0.00135563   -0.07239281
     atom   35 type  2   force =    -0.00178353   -0.00019486    0.00026979
     atom   36 type  2   force =     0.00067405   -0.00041371   -0.00004828
     atom   37 type  1   force =     0.00071838   -0.00032935    0.00068613
     atom   38 type  1   force =    -0.00016250    0.00052672    0.00018213
     atom   39 type  2   force =     0.00011298   -0.00029802   -0.00039371
     atom   40 type  2   force =     0.00010929   -0.00017400    0.00036851
     atom   41 type  2   force =     0.00005096    0.00042614   -0.00015179
     atom   42 type  2   force =     0.00022660    0.00052687    0.00001182
     atom   43 type  1   force =     0.00040250    0.00015915   -0.00041958
     atom   44 type  1   force =    -0.00035076   -0.00000482    0.00005432
     atom   45 type  2   force =     0.00002477   -0.00006992    0.09978262
     atom   46 type  2   force =    -0.07919798   -0.00000677   -0.03245056
     atom   47 type  2   force =     0.07906790    0.00042142   -0.03247749
     atom   48 type  3   force =     0.00214889   -0.00088566    0.00093217
     atom   49 type  4   force =    -0.01912820   -0.00009646    0.00118639
     atom   50 type  5   force =     0.00171790    0.00230062    0.00083625
     atom   51 type  5   force =     0.00752846    0.00236700   -0.00342281
     atom   52 type  5   force =     0.00624416   -0.00397709    0.00117563

     Total force =     0.425218     Total SCF correction =     0.000960
  @ DRIVER MODE: Message from server: STATUS
  @ DRIVER MODE: Message from server: GETFORCE
  @ DRIVER MODE: Returning v,forces,stress,ensemble

     Writing output data file ./calc.save/
  @ DRIVER MODE: Message from server: EXIT
  @ DRIVE MODE: Exiting

     General routines

     Parallel routines

   This run was terminated on:   0: 8:53   9Sep2021

   JOB DONE.