     Program PWSCF v.6.7GPU starts on 15Jul2021 at 21: 5: 3

     R & G space division:  proc/nbgrp/npool/nimage =      16
     Reading input from /storage/home/hcoda1/3/ntian30/research/carbon/15Jul_vib/ads_slab/CH3N2H_a/out_0007/pw.inp
Warning: card &CELL ignored
Warning: card   CELL_DYNAMICS='IPI', ignored
Warning: card / ignored

     Current dimensions of program PWSCF are:
     Max number of different atomic species (ntypx) = 10
     Max number of k-points (npk) =  40000
     Max angular momentum in pseudopotentials (lmaxx) =  3
     Presently no symmetry can be used with electric field

     Message from routine cell_base_init:
     DEPRECATED: use true lattice parameter, not A to a.u. conversion factor

     IMPORTANT: XC functional enforced from input :
     Exchange-correlation= BEEF-VDW
                           (   1   4  43  14   2   0   0)
     Any further DFT definition will be discarded
     Please, verify this is what you really want

  @ DRIVER MODE: Connecting to
 qe_1139763_2351646.sched-torque.pace.gatech.eduo8mufk62_scratch
  using UNIX socket
  @ DRIVER MODE: Message from server: STATUS
  @ DRIVER MODE: Message from server: INIT
  @ DRIVER MODE: Receiving replica           0          -1
  @ DRIVER MODE: Receiving encoded integer          25
  @ DRIVER MODE:  SCF:  T  FORCE:  T  STRESS:  F  VC:  F  ENSEMBLE:  F
  @ DRIVER MODE:  SCF:  T  FORCE:  T  STRESS:  F  VC:  F  ENSEMBLE:  F

     Using Slab Decomposition

     bravais-lattice index     =            0
     lattice parameter (alat)  =       1.8897  a.u.
     unit-cell volume          =    6658.9804 (a.u.)^3
     number of atoms/cell      =           54
     number of atomic types    =            5
     number of electrons       =       396.00
     number of Kohn-Sham states=          208
     kinetic-energy cutoff     =      29.3995  Ry
     charge density cutoff     =     293.9946  Ry
     scf convergence threshold =      7.3E-08
     mixing beta               =       0.0500
     number of iterations used =            8  plain     mixing
     Exchange-correlation= BEEF-VDW
                           (   1   4  43  14   2   0   0)

     celldm(1)=   1.889726  celldm(2)=   0.000000  celldm(3)=   0.000000
     celldm(4)=   0.000000  celldm(5)=   0.000000  celldm(6)=   0.000000

     crystal axes: (cart. coord. in units of alat)
               a(1) = (   6.579727   0.000000   0.000000 )
               a(2) = (  -0.000775   5.961596   0.000000 )
               a(3) = (   0.000000   0.000000  25.155947 )

     reciprocal axes: (cart. coord. in units 2 pi/alat)
               b(1) = (  0.151982  0.000020  0.000000 )
               b(2) = (  0.000000  0.167740  0.000000 )
               b(3) = (  0.000000  0.000000  0.039752 )

     PseudoPot. # 1 for Ti read from file:
     /storage/coda1/p-amedford6/0/shared/rich_project_chbe-medford/medford-share/data/pseudos_module/espresso/nninc/pbe/van/Ti.UPF
     MD5 check sum: 8e4df49b7f0d34bbd5052bf3f5ea0213
     Pseudo is Ultrasoft, Zval = 12.0
     Generated by new atomic code, or converted to UPF format
     Using radial grid of  851 points,  6 beta functions with:
                l(1) =   0
                l(2) =   0
                l(3) =   1
                l(4) =   1
                l(5) =   2
                l(6) =   2
     Q(r) pseudized with  8 coefficients,  rinner =    1.000   1.000   1.000
                                                       1.000   1.000

     PseudoPot. # 2 for O  read from file:
     /storage/coda1/p-amedford6/0/shared/rich_project_chbe-medford/medford-share/data/pseudos_module/espresso/nninc/pbe/van/O.UPF
     MD5 check sum: 78c19812648e8988a0fe644b0f25305e
     Pseudo is Ultrasoft, Zval =  6.0
     Generated by new atomic code, or converted to UPF format
     Using radial grid of  737 points,  4 beta functions with:
                l(1) =   0
                l(2) =   0
                l(3) =   1
                l(4) =   1
     Q(r) pseudized with  8 coefficients,  rinner =    0.800   0.800   0.800

     PseudoPot. # 3 for N  read from file:
     /storage/coda1/p-amedford6/0/shared/rich_project_chbe-medford/medford-share/data/pseudos_module/espresso/nninc/pbe/van/N.UPF
     MD5 check sum: 90d10febe142ad51ac9d5be1deb811c4
     Pseudo is Ultrasoft, Zval =  5.0
     Generated by new atomic code, or converted to UPF format
     Using radial grid of  729 points,  4 beta functions with:
                l(1) =   0
                l(2) =   0
                l(3) =   1
                l(4) =   1
     Q(r) pseudized with  8 coefficients,  rinner =    0.800   0.800   0.800

     PseudoPot. # 4 for C  read from file:
     /storage/coda1/p-amedford6/0/shared/rich_project_chbe-medford/medford-share/data/pseudos_module/espresso/nninc/pbe/van/C.UPF
     MD5 check sum: 1a69bf6b8db32088f5b2163dbdb77a27
     Pseudo is Ultrasoft, Zval =  4.0
     Generated by new atomic code, or converted to UPF format
     Using radial grid of  721 points,  4 beta functions with:
                l(1) =   0
                l(2) =   0
                l(3) =   1
                l(4) =   1
     Q(r) pseudized with  8 coefficients,  rinner =    0.800   0.800   0.800

     PseudoPot. # 5 for H  read from file:
     /storage/coda1/p-amedford6/0/shared/rich_project_chbe-medford/medford-share/data/pseudos_module/espresso/nninc/pbe/van/H.UPF
     MD5 check sum: b5ee9d7bfd3a09ee7748110bda690ff7
     Pseudo is Ultrasoft, Zval =  1.0
     Generated by new atomic code, or converted to UPF format
     Using radial grid of  615 points,  1 beta functions with:
                l(1) =   0
     Q(r) pseudized with  8 coefficients,  rinner =    0.800

     atomic species   valence    mass     pseudopotential
        Ti1           12.00    47.86700     Ti( 1.00)
        O1             6.00    15.99900     O ( 1.00)
        N1             5.00    14.00700     N ( 1.00)
        C1             4.00    12.01100     C ( 1.00)
        H1             1.00     1.00800     H ( 1.00)

     Starting magnetic structure
     atomic species   magnetization
        Ti1          0.000
        O1           0.000
        N1           0.000
        C1           0.025
        H1           0.000

     No symmetry found

   Cartesian axes

     site n.     atom                  positions (alat units)
         1           Ti1 tau(   1) = (   0.0004258   2.9801865   6.0000000  )
         2           Ti1 tau(   2) = (   3.2906075   1.4906267   6.0002472  )
         3           O1  tau(   3) = (   0.0006271   0.0005054   7.9858123  )
         4           O1  tau(   4) = (   3.2906025   0.0005020   7.3038282  )
         5           O1  tau(   5) = (   4.5942328   1.4918067   9.2879030  )
         6           O1  tau(   6) = (   1.9868534   1.4903216   9.2879459  )
         7           Ti1 tau(   7) = (   3.2907910   2.8959150   9.1758416  )
         8           Ti1 tau(   8) = (   0.0015273   1.4827037   9.2680791  )
         9           O1  tau(   9) = (   3.3106937   0.0084137  11.2927479  )
        10           O1  tau(  10) = (   0.0116148   5.9584955  10.6183126  )
        11           O1  tau(  11) = (   1.3255326   1.5151957  12.5859258  )
        12           O1  tau(  12) = (   5.3246634   1.4871208  12.6441624  )
        13           Ti1 tau(  13) = (   6.5358624   2.9940264  12.7507449  )
        14           Ti1 tau(  14) = (   3.1828407   1.5032771  12.4528579  )
        15           O1  tau(  15) = (   0.1336207   0.0073438  14.6266748  )
        16           O1  tau(  16) = (   3.2550344   0.0288700  13.8306396  )
        17           O1  tau(  17) = (   4.6334483   1.5013943  15.9792279  )
        18           O1  tau(  18) = (   2.1409664   1.5470880  15.9954950  )
        19           Ti1 tau(  19) = (   3.4798582   3.0305884  15.6593850  )
        20           Ti1 tau(  20) = (   0.1386493   1.3724552  15.8613965  )
        21           O1  tau(  21) = (   3.2904802   0.0005063   4.7018136  )
        22           O1  tau(  22) = (   0.1429122   0.0333940  17.1908172  )
        23           O1  tau(  23) = (   1.3043587   1.4918075   6.0039043  )
        24           O1  tau(  24) = (   5.2767064   1.4903225   6.0039473  )
        25           Ti1 tau(  25) = (   0.0000382   5.9609847   6.0000000  )
        26           Ti1 tau(  26) = (   3.2902200   4.4714249   6.0002472  )
        27           O1  tau(  27) = (   0.0002396   2.9813036   7.9858123  )
        28           O1  tau(  28) = (   3.2902150   2.9813002   7.3038282  )
        29           O1  tau(  29) = (   4.5938453   4.4726049   9.2879030  )
        30           O1  tau(  30) = (   1.9864658   4.4711199   9.2879459  )
        31           Ti1 tau(  31) = (   3.2891106   5.8743827   9.1763621  )
        32           Ti1 tau(  32) = (   0.0006254   4.4649316   9.2693709  )
        33           O1  tau(  33) = (   3.3137399   2.9960163  11.2943833  )
        34           O1  tau(  34) = (   0.0092240   2.9805883  10.6323155  )
        35           O1  tau(  35) = (   1.3234708   4.4688006  12.5930975  )
        36           O1  tau(  36) = (   5.3222282   4.4932535  12.6449723  )
        37           Ti1 tau(  37) = (   6.5041614   0.0053836  12.5833808  )
        38           Ti1 tau(  38) = (   3.1843229   4.4812189  12.4522442  )
        39           O1  tau(  39) = (   0.0584892   2.9792810  14.6723703  )
        40           O1  tau(  40) = (   3.3232524   2.9928384  13.8523860  )
        41           O1  tau(  41) = (   4.6237859   4.5837569  15.7472905  )
        42           O1  tau(  42) = (   2.1882403   4.4693611  16.1038286  )
        43           Ti1 tau(  43) = (   3.3015484   0.0242660  15.6383815  )
        44           Ti1 tau(  44) = (   0.0181797   4.4930750  16.1931172  )
        45           O1  tau(  45) = (   3.2900926   2.9813045   4.7018136  )
        46           O1  tau(  46) = (   1.3039711   4.4726057   6.0039043  )
        47           O1  tau(  47) = (   5.2763189   4.4711207   6.0039473  )
        48           N1  tau(  48) = (   0.2677213   2.8760844  17.5655548  )
        49           C1  tau(  49) = (   1.2171684   2.7639891  18.6598760  )
        50           H1  tau(  50) = (   1.2930054   3.7106696  19.2072709  )
        51           H1  tau(  51) = (   0.8976878   1.9730418  19.3402421  )
        52           H1  tau(  52) = (   2.2102292   2.4972526  18.2850250  )
        53           N1  tau(  53) = (   5.6732178   3.4927010  17.8452151  )
        54           H1  tau(  54) = (   5.7345573   4.0058295  18.7343860  )

     number of k points=    10  Fermi-Dirac smearing, width (Ry)=  0.0073
                       cart. coord. in units 2pi/alat
        k(    1) = (   0.0000000   0.0000000   0.0000000), wk =   0.0625000
        k(    2) = (   0.0000000   0.0419351   0.0000000), wk =   0.1250000
        k(    3) = (   0.0000000  -0.0838702   0.0000000), wk =   0.0625000
        k(    4) = (   0.0379955   0.0000049   0.0000000), wk =   0.1250000
        k(    5) = (   0.0379955   0.0419400   0.0000000), wk =   0.1250000
        k(    6) = (   0.0379955  -0.0838652   0.0000000), wk =   0.1250000
        k(    7) = (   0.0379955  -0.0419301   0.0000000), wk =   0.1250000
[...]
     %                                                                      %
     % You are using vdW-DF, which was implemented by the Thonhauser group. %
     % Please cite the following two papers that made this development      %
     % possible and the two reviews that describe the various versions:     %
     %                                                                      %
     %   T. Thonhauser et al., PRL 115, 136402 (2015).                      %
     %   T. Thonhauser et al., PRB 76, 125112 (2007).                       %
     %   K. Berland et al., Rep. Prog. Phys. 78, 066501 (2015).             %
     %   D.C. Langreth et al., J. Phys.: Condens. Matter 21, 084203 (2009). %
     %                                                                      %
     %                                                                      %
     % If you are calculating the stress with vdW-DF, please also cite:     %
     %                                                                      %
     %   R. Sabatini et al., J. Phys.: Condens. Matter 24, 424209 (2012).   %
     %                                                                      %
     %%%%%%%%%%%%%%%%%%%%%%%%%%%%%%%%%%%%%%%%%%%%%%%%%%%%%%%%%%%%%%%%%%%%%%%%

     Adding external electric field

     Computed dipole along edir(3) :
        Dipole               -8.2222 Ry au,        -20.8988 Debye
        Dipole field         -0.0155 Ry au,

        Potential amp.        1.4384 Ry
        Total length         46.3494 bohr

[...]

     Starting wfcs are  300 atomic wfcs
  @ DRIVER MODE: Message from server: STATUS
  @ DRIVER MODE: Message from server: POSDATA
  @ DRIVER MODE: Reading and sharing cell
  @ DRIVER MODE: Reading and sharing positions
  @ DRIVER MODE: Received positions

     Self-consistent Calculation

     iteration #  1     ecut=    29.40 Ry     beta= 0.05
     Davidson diagonalization with overlap
     c_bands:  1 eigenvalues not converged
     c_bands:  1 eigenvalues not converged
     c_bands:  1 eigenvalues not converged
     c_bands:  1 eigenvalues not converged
     c_bands:  2 eigenvalues not converged
     c_bands:  1 eigenvalues not converged
     c_bands:  4 eigenvalues not converged
     c_bands:  2 eigenvalues not converged
     c_bands:  1 eigenvalues not converged
     c_bands:  1 eigenvalues not converged
     c_bands:  1 eigenvalues not converged
     c_bands:  1 eigenvalues not converged
     c_bands:  1 eigenvalues not converged
     c_bands:  1 eigenvalues not converged
     c_bands:  2 eigenvalues not converged
     c_bands:  1 eigenvalues not converged
     c_bands:  4 eigenvalues not converged
     c_bands:  2 eigenvalues not converged
     c_bands:  1 eigenvalues not converged
     c_bands:  1 eigenvalues not converged
     ethr =  1.00E-05,  avg # of iterations = 20.0

[...]

     total energy              =   -2607.56227958 Ry
     estimated scf accuracy    <    3675.58939242 Ry

     total magnetization       =     0.00 Bohr mag/cell
     absolute magnetization    =     0.02 Bohr mag/cell

[...]

     iteration #  3     ecut=    29.40 Ry     beta= 0.05
     Davidson diagonalization with overlap
     ethr =  1.00E-02,  avg # of iterations = 13.9

[...]

     iteration # 50     ecut=    29.40 Ry     beta= 0.05
     Davidson diagonalization with overlap
     c_bands:  1 eigenvalues not converged
     ethr =  2.82E-07,  avg # of iterations = 10.3

[...]

     total energy              =   -2940.35258198 Ry
     estimated scf accuracy    <       0.00000009 Ry

[...]

     iteration #159     ecut=    29.40 Ry     beta= 0.05
     Davidson diagonalization with overlap
     ethr =  1.92E-11,  avg # of iterations =  9.7

     negative rho (up, down):  8.763E-03 8.763E-03

[...]

     Adding external electric field

     Computed dipole along edir(3) :
        Dipole                0.7367 Ry au,          1.8726 Debye
        Dipole field          0.0014 Ry au,

        Potential amp.       -0.1289 Ry
        Total length         46.3494 bohr

     Magnetic moment per site  (integrated on atomic sphere of radius R)
     atom   1 (R=0.746)  charge=  8.1023  magn= -0.0073
     atom   2 (R=0.746)  charge=  8.0882  magn= -0.0003
     atom   3 (R=0.746)  charge=  5.0689  magn=  0.0005
     atom   4 (R=0.746)  charge=  5.1050  magn=  0.0001
     atom   5 (R=0.746)  charge=  5.0706  magn=  0.0001
     atom   6 (R=0.746)  charge=  5.0718  magn=  0.0001
     atom   7 (R=0.746)  charge=  8.0835  magn= -0.0002
     atom   8 (R=0.746)  charge=  8.0700  magn= -0.0011
     atom   9 (R=0.746)  charge=  5.0893  magn=  0.0000
     atom  10 (R=0.746)  charge=  5.0576  magn=  0.0001
     atom  11 (R=0.746)  charge=  5.0764  magn=  0.0000
     atom  12 (R=0.746)  charge=  5.0718  magn=  0.0000
     atom  13 (R=0.746)  charge=  8.0706  magn= -0.0001
     atom  14 (R=0.746)  charge=  8.0890  magn= -0.0000
     atom  15 (R=0.746)  charge=  5.0553  magn=  0.0000
     atom  16 (R=0.746)  charge=  5.0986  magn=  0.0000
     atom  17 (R=0.746)  charge=  5.0495  magn=  0.0000
     atom  18 (R=0.746)  charge=  5.0672  magn=  0.0000
     atom  19 (R=0.746)  charge=  8.1077  magn= -0.0000
     atom  20 (R=0.746)  charge=  8.0960  magn= -0.0000
     atom  21 (R=0.746)  charge=  4.9490  magn=  0.0003
     atom  22 (R=0.746)  charge=  5.0409  magn=  0.0000
     atom  23 (R=0.746)  charge=  5.0611  magn=  0.0009
     atom  24 (R=0.746)  charge=  5.0612  magn=  0.0009
     atom  25 (R=0.746)  charge=  8.1022  magn= -0.0072
     atom  26 (R=0.746)  charge=  8.0882  magn= -0.0003
     atom  27 (R=0.746)  charge=  5.0670  magn=  0.0005
     atom  28 (R=0.746)  charge=  5.1052  magn=  0.0001
     atom  29 (R=0.746)  charge=  5.0714  magn=  0.0001
     atom  30 (R=0.746)  charge=  5.0726  magn=  0.0001
     atom  31 (R=0.746)  charge=  8.0844  magn= -0.0002
     atom  32 (R=0.746)  charge=  8.0704  magn= -0.0011
     atom  33 (R=0.746)  charge=  5.0889  magn=  0.0000
     atom  34 (R=0.746)  charge=  5.0199  magn=  0.0001
     atom  35 (R=0.746)  charge=  5.0760  magn=  0.0000
     atom  36 (R=0.746)  charge=  5.0724  magn=  0.0000
     atom  37 (R=0.746)  charge=  8.0776  magn= -0.0002
     atom  38 (R=0.746)  charge=  8.0890  magn= -0.0001
     atom  39 (R=0.746)  charge=  5.0527  magn=  0.0000
     atom  40 (R=0.746)  charge=  5.0891  magn=  0.0000
     atom  41 (R=0.746)  charge=  5.0851  magn=  0.0000
     atom  42 (R=0.746)  charge=  5.0438  magn= -0.0000
     atom  43 (R=0.746)  charge=  8.1144  magn= -0.0000
     atom  44 (R=0.746)  charge=  8.1351  magn= -0.0002
     atom  45 (R=0.746)  charge=  4.9490  magn=  0.0003
     atom  46 (R=0.746)  charge=  5.0611  magn=  0.0009
     atom  47 (R=0.746)  charge=  5.0612  magn=  0.0009
     atom  48 (R=0.424)  charge=  1.3509  magn= -0.0000
     atom  49 (R=0.450)  charge=  0.8549  magn= -0.0000
     atom  50 (R=0.424)  charge=  0.4502  magn= -0.0000
     atom  51 (R=0.424)  charge=  0.4509  magn= -0.0000
     atom  52 (R=0.424)  charge=  0.4507  magn= -0.0000
     atom  53 (R=0.424)  charge=  1.3505  magn= -0.0000
     atom  54 (R=0.424)  charge=  0.4593  magn= -0.0000

     End of self-consistent calculation

 ------ SPIN UP ------------

          k = 0.0000 0.0000 0.0000 ( 18029 PWs)   bands (ev):

   -56.0176 -55.9836 -55.8054 -55.7666 -55.7254 -55.6909 -55.6649 -55.6405
   -55.6307 -55.6058 -55.5761 -55.4963 -55.2429 -54.9206 -54.8866 -54.7916
   -32.4881 -32.3474 -32.3106 -32.2877 -32.1915 -32.1709 -32.1675 -32.1300
   -32.1108 -32.1001 -32.0767 -32.0463 -32.0219 -31.9829 -31.9763 -31.9742
   -31.9422 -31.9320 -31.9202 -31.8966 -31.8882 -31.8702 -31.8643 -31.8595
   -31.8406 -31.8387 -31.8301 -31.8261 -31.8197 -31.8021 -31.7954 -31.7946
   -31.7775 -31.7532 -31.6925 -31.6669 -31.6169 -31.4691 -31.4663 -31.3239
   -31.2445 -31.2216 -31.2086 -31.1411 -31.0551 -30.9960 -30.9440 -30.9156
   -17.3294 -16.5604 -16.3701 -16.0800 -15.9288 -15.9084 -15.7895 -15.6929
   -15.6157 -15.5165 -15.4621 -15.4080 -15.3967 -15.3702 -15.3113 -15.2896
   -15.2482 -15.2308 -15.1881 -15.1773 -15.1307 -15.1102 -15.0870 -15.0513
   -14.9878 -14.9177 -14.9049 -14.7471 -14.6092 -14.4566 -13.4220 -13.3071
   -11.5621  -8.3303  -5.0321  -4.0018  -3.9468  -3.8772  -3.8525  -3.7754
    -3.6939  -3.4414  -3.4141  -3.3572  -3.0720  -3.0245  -3.0005  -2.9960
    -2.8978  -2.7586  -2.7279  -2.6680  -2.6623  -2.6415  -2.6212  -2.6048
    -2.5474  -2.4907  -2.4718  -2.4290  -2.2989  -2.2718  -2.2683  -2.2468
    -2.1768  -2.1673  -2.1029  -2.0854  -2.0626  -2.0444  -2.0070  -1.8737
    -1.8402  -1.7748  -1.6938  -1.6052  -1.5256  -1.4887  -1.3984  -1.3879
    -1.3328  -1.2621  -1.2504  -1.1775  -1.1470  -1.0674  -1.0454  -1.0075
    -0.8995  -0.8724  -0.8122  -0.7576  -0.7122  -0.6990  -0.6577  -0.6336
    -0.6268  -0.6121  -0.5994  -0.4035  -0.3757  -0.2326  -0.1866  -0.1620
    -0.1214  -0.0983  -0.0400  -0.0172  -0.0111   0.0276   0.0460   0.0892
     0.1452   0.1597   0.1859   0.2800   0.3121   0.3666   0.4925   0.5063
     0.5943   0.6608   0.7678   0.7798   0.8315   0.9628   1.0585   1.0826
     1.1016   1.3069   1.4124   1.6653   1.7081   3.0238   3.1736   3.2738
     3.3746   3.4943   3.5691   3.6115   3.7824   3.8207   3.8629   3.9174

[...]

          k =-0.0760-0.0000 0.0000 ( 17886 PWs)   bands (ev):

[...]

 ------ SPIN DOWN ----------

[...]

          k = 0.0380-0.0419 0.0000 ( 17876 PWs)   bands (ev):

[...]

          k =-0.0760-0.0839 0.0000 ( 17948 PWs)   bands (ev):

   -56.0153 -56.0134 -55.7934 -55.7786 -55.7140 -55.7065 -55.6498 -55.6464
   -55.6276 -55.6196 -55.5723 -55.5001 -55.2424 -54.9043 -54.9042 -54.7925
   -32.3126 -32.3112 -32.3094 -32.3087 -32.1550 -32.1428 -32.1396 -32.1375
   -32.0513 -32.0386 -32.0287 -32.0261 -32.0190 -32.0154 -31.9724 -31.9669
   -31.9570 -31.9450 -31.9133 -31.9048 -31.8926 -31.8881 -31.8832 -31.8821
   -31.8758 -31.8731 -31.8572 -31.8513 -31.8446 -31.8421 -31.8371 -31.8186
   -31.7977 -31.7959 -31.7651 -31.7064 -31.6089 -31.4716 -31.4659 -31.2590
   -31.2353 -31.2352 -31.1377 -31.1375 -31.0989 -31.0988 -31.0086 -30.9201
   -17.3106 -15.9772 -15.9489 -15.8417 -15.8222 -15.7335 -15.7202 -15.6054
   -15.5976 -15.5850 -15.5187 -15.4728 -15.4623 -15.3796 -15.3531 -15.3417
   -15.3174 -15.3076 -15.3013 -15.2903 -15.2768 -15.1983 -15.1930 -15.1899
   -15.1147 -15.0925 -14.9064 -14.8632 -14.6656 -14.6198 -13.4089 -13.4086
   -11.5654  -8.3105  -5.0385  -3.9060  -3.8372  -3.2793  -3.2432  -3.0282
    -3.0017  -2.9814  -2.9525  -2.7674  -2.7538  -2.7476  -2.7301  -2.7171
    -2.6799  -2.6606  -2.6467  -2.5811  -2.5717  -2.5522  -2.5473  -2.5362
    -2.5184  -2.5025  -2.4942  -2.4758  -2.4599  -2.4134  -2.3605  -2.3390
    -2.2890  -2.1943  -2.0830  -2.0448  -2.0312  -2.0231  -2.0001  -1.9908
    -1.9500  -1.9372  -1.8517  -1.6641  -1.6183  -1.5586  -1.5527  -1.5380
    -1.4841  -1.4275  -1.3849  -1.3107  -1.2446  -1.1930  -1.1641  -1.1399
    -1.1046  -1.0383  -0.9718  -0.9529  -0.9397  -0.9104  -0.9079  -0.8872
    -0.8110  -0.7279  -0.6872  -0.6564  -0.6342  -0.6203  -0.6046  -0.5814
    -0.4729  -0.4066  -0.3588  -0.3136  -0.2709  -0.2288  -0.1100  -0.0954
     0.0995   0.1651   0.1900   0.2693   0.3660   0.3915   0.4019   0.4665
     0.5414   0.6045   0.6391   0.6935   0.7084   0.7300   0.7967   1.0140
     1.0675   1.4759   1.4775   1.5265   1.5275   2.9868   3.6676   3.6730
     3.6772   3.6864   3.7095   3.7339   3.7854   3.8209   3.9217   3.9441

     the Fermi energy is     3.1336 ev

!    total energy              =   -2940.35258208 Ry
     estimated scf accuracy    <       0.00000005 Ry
     smearing contrib. (-TS)   =      -0.01867711 Ry
     internal energy E=F+TS    =   -2940.33390497 Ry

     The total energy is F=E-TS. E is the sum of the following terms:
     one-electron contribution =  -24661.81362122 Ry
     hartree contribution      =   12420.03002841 Ry
     xc contribution           =    -486.05198894 Ry
     ewald contribution        =    9787.50065249 Ry
     electric field correction =       0.00102429 Ry

     total magnetization       =    -0.02 Bohr mag/cell
     absolute magnetization    =     0.04 Bohr mag/cell

     convergence has been achieved in 159 iterations

     Forces acting on atoms (cartesian axes, Ry/au):

     atom    1 type  1   force =     0.00023542   -0.00036368    0.10153151
     atom    2 type  1   force =     0.00001353   -0.00086728   -0.17140335
     atom    3 type  2   force =     0.00029101    0.00021809   -0.03325847
     atom    4 type  2   force =     0.00003212   -0.00078744    0.04481791
     atom    5 type  2   force =    -0.01194621   -0.00021200   -0.00232865
     atom    6 type  2   force =     0.01437890    0.00038154   -0.00112875
     atom    7 type  1   force =     0.00140280   -0.00131640   -0.00429053
     atom    8 type  1   force =    -0.00077381    0.02219668    0.05620147
     atom    9 type  2   force =     0.00002951   -0.00032703    0.00044007
     atom   10 type  2   force =    -0.00266703    0.00207192   -0.02594152
     atom   11 type  2   force =     0.00001477    0.00024764   -0.00006080
     atom   12 type  2   force =     0.00010042    0.00073788    0.00001552
     atom   13 type  1   force =    -0.00003892    0.00014759    0.00022039
     atom   14 type  1   force =     0.00028980    0.00030276    0.00003507
     atom   15 type  2   force =     0.00016627   -0.00021779    0.00004786
     atom   16 type  2   force =    -0.00002534   -0.00013386    0.00069277
     atom   17 type  2   force =    -0.00005895   -0.00078807   -0.00000693
     atom   18 type  2   force =     0.00043151   -0.00075794    0.00016660
     atom   19 type  1   force =    -0.00013720   -0.00050168    0.00048137
     atom   20 type  1   force =     0.00004673   -0.00005563   -0.00031431
     atom   21 type  2   force =     0.00006351   -0.00001029    0.10209401
     atom   22 type  2   force =    -0.00001948   -0.00030256    0.00026791
     atom   23 type  2   force =    -0.07328925   -0.00016198   -0.02887261
     atom   24 type  2   force =     0.07323943    0.00033243   -0.02891949
     atom   25 type  1   force =    -0.00026816   -0.00029903    0.10195826
     atom   26 type  1   force =     0.00003493   -0.00019868   -0.17139465
     atom   27 type  2   force =     0.00036496   -0.00023072   -0.03196991
     atom   28 type  2   force =     0.00009250   -0.00057333    0.04543838
     atom   29 type  2   force =    -0.01209393    0.00212907   -0.00288513
     atom   30 type  2   force =     0.01440512    0.00229030   -0.00162696
     atom   31 type  1   force =     0.00158647    0.00092451   -0.00559663
     atom   32 type  1   force =    -0.00059914   -0.02476247    0.05723151
     atom   33 type  2   force =     0.00015232    0.00035994    0.00060092
     atom   34 type  2   force =    -0.00420859    0.00211954   -0.04832245
     atom   35 type  2   force =     0.00060784   -0.00058687    0.00000662
     atom   36 type  2   force =    -0.00039416   -0.00074899    0.00013400
     atom   37 type  1   force =     0.00005746    0.00061910   -0.00004849
     atom   38 type  1   force =     0.00004670   -0.00011746   -0.00009671
     atom   39 type  2   force =     0.00019228   -0.00002532   -0.00059014
     atom   40 type  2   force =    -0.00008806   -0.00003340   -0.00040928
     atom   41 type  2   force =     0.00004859    0.00052003   -0.00013921
     atom   42 type  2   force =    -0.00002300    0.00040109    0.00065821
     atom   43 type  1   force =    -0.00025721   -0.00009161    0.00027758
     atom   44 type  1   force =    -0.00002370    0.00025296    0.00033768
     atom   45 type  2   force =     0.00004609   -0.00004923    0.10214542
     atom   46 type  2   force =    -0.07329420   -0.00009075   -0.02884368
     atom   47 type  2   force =     0.07324596    0.00028348   -0.02888126
     atom   48 type  3   force =    -0.00439104    0.00102421   -0.00070762
     atom   49 type  4   force =     0.01928165   -0.00096858   -0.00258897
     atom   50 type  5   force =    -0.00186422   -0.00050806   -0.00024513
     atom   51 type  5   force =    -0.00317307   -0.00270832    0.00242777
     atom   52 type  5   force =    -0.00963174    0.00166132    0.00351713
     atom   53 type  3   force =    -0.00168449    0.00011465   -0.00041628
     atom   54 type  5   force =     0.00005231   -0.00054029   -0.00045803

     Total force =     0.378478     Total SCF correction =     0.000686
  @ DRIVER MODE: Message from server: STATUS
  @ DRIVER MODE: Message from server: GETFORCE
  @ DRIVER MODE: Returning v,forces,stress,ensemble

     Writing output data file ./calc.save/
  @ DRIVER MODE: Message from server: EXIT
  @ DRIVE MODE: Exiting

     General routines

     Parallel routines

   This run was terminated on:  22: 0:47  15Jul2021

   JOB DONE.