     Program PWSCF v.6.7GPU starts on 18Oct2021 at 18: 8:12

     R & G space division:  proc/nbgrp/npool/nimage =       8
     Reading input from /storage/home/hcoda1/3/ntian30/research/carbon/CxH_vib/Thiel_calc/ads_slab/N2HH_perslab/out_0013/pw.inp
Warning: card &CELL ignored
Warning: card   CELL_DYNAMICS='IPI', ignored
Warning: card / ignored

     Current dimensions of program PWSCF are:
     Max number of different atomic species (ntypx) = 10
     Max number of k-points (npk) =  40000
     Max angular momentum in pseudopotentials (lmaxx) =  3
     Presently no symmetry can be used with electric field

     Message from routine cell_base_init:
     DEPRECATED: use true lattice parameter, not A to a.u. conversion factor

     IMPORTANT: XC functional enforced from input :
     Exchange-correlation= BEEF-VDW
                           (   1   4  43  14   2   0   0)
     Any further DFT definition will be discarded
     Please, verify this is what you really want

  @ DRIVER MODE: Connecting to
 qe_1139763_3255130.sched-torque.pace.gatech.edu51zjjl6y_scratch
  using UNIX socket
  @ DRIVER MODE: Message from server: STATUS
  @ DRIVER MODE: Message from server: INIT
  @ DRIVER MODE: Receiving replica           0          -1
  @ DRIVER MODE: Receiving encoded integer          25
  @ DRIVER MODE:  SCF:  T  FORCE:  T  STRESS:  F  VC:  F  ENSEMBLE:  F
  @ DRIVER MODE:  SCF:  T  FORCE:  T  STRESS:  F  VC:  F  ENSEMBLE:  F

     Using Slab Decomposition

     bravais-lattice index     =            0
     lattice parameter (alat)  =       1.8897  a.u.
     unit-cell volume          =    9988.4706 (a.u.)^3
     number of atoms/cell      =           57
     number of atomic types    =            4
     number of electrons       =       438.00
     number of Kohn-Sham states=          229
     kinetic-energy cutoff     =      29.3995  Ry
     charge density cutoff     =     293.9946  Ry
     scf convergence threshold =      7.3E-08
     mixing beta               =       0.0500
     number of iterations used =            8  plain     mixing
     Exchange-correlation= BEEF-VDW
                           (   1   4  43  14   2   0   0)

     celldm(1)=   1.889726  celldm(2)=   0.000000  celldm(3)=   0.000000
     celldm(4)=   0.000000  celldm(5)=   0.000000  celldm(6)=   0.000000

     crystal axes: (cart. coord. in units of alat)
               a(1) = (   6.579727   0.000000   0.000000 )
               a(2) = (  -0.001163   8.942395   0.000000 )
               a(3) = (   0.000000   0.000000  25.155947 )

     reciprocal axes: (cart. coord. in units 2 pi/alat)
               b(1) = (  0.151982  0.000020  0.000000 )
               b(2) = (  0.000000  0.111827  0.000000 )
               b(3) = (  0.000000  0.000000  0.039752 )

     PseudoPot. # 1 for O  read from file:
     /storage/coda1/p-amedford6/0/shared/rich_project_chbe-medford/medford-share/data/pseudos_module/espresso/nninc/pbe/van/O.UPF
     MD5 check sum: 78c19812648e8988a0fe644b0f25305e
     Pseudo is Ultrasoft, Zval =  6.0
     Generated by new atomic code, or converted to UPF format
     Using radial grid of  737 points,  4 beta functions with:
                l(1) =   0
                l(2) =   0
                l(3) =   1
                l(4) =   1
     Q(r) pseudized with  8 coefficients,  rinner =    0.800   0.800   0.800

     PseudoPot. # 2 for Ti read from file:
     /storage/coda1/p-amedford6/0/shared/rich_project_chbe-medford/medford-share/data/pseudos_module/espresso/nninc/pbe/van/Ti.UPF
     MD5 check sum: 8e4df49b7f0d34bbd5052bf3f5ea0213
     Pseudo is Ultrasoft, Zval = 12.0
     Generated by new atomic code, or converted to UPF format
     Using radial grid of  851 points,  6 beta functions with:
                l(1) =   0
                l(2) =   0
                l(3) =   1
                l(4) =   1
                l(5) =   2
                l(6) =   2
     Q(r) pseudized with  8 coefficients,  rinner =    1.000   1.000   1.000
                                                       1.000   1.000

     PseudoPot. # 3 for H  read from file:
     /storage/coda1/p-amedford6/0/shared/rich_project_chbe-medford/medford-share/data/pseudos_module/espresso/nninc/pbe/van/H.UPF
     MD5 check sum: b5ee9d7bfd3a09ee7748110bda690ff7
     Pseudo is Ultrasoft, Zval =  1.0
     Generated by new atomic code, or converted to UPF format
     Using radial grid of  615 points,  1 beta functions with:
                l(1) =   0
     Q(r) pseudized with  8 coefficients,  rinner =    0.800

     PseudoPot. # 4 for N  read from file:
     /storage/coda1/p-amedford6/0/shared/rich_project_chbe-medford/medford-share/data/pseudos_module/espresso/nninc/pbe/van/N.UPF
     MD5 check sum: 90d10febe142ad51ac9d5be1deb811c4
     Pseudo is Ultrasoft, Zval =  5.0
     Generated by new atomic code, or converted to UPF format
     Using radial grid of  729 points,  4 beta functions with:
                l(1) =   0
                l(2) =   0
                l(3) =   1
                l(4) =   1
     Q(r) pseudized with  8 coefficients,  rinner =    0.800   0.800   0.800

     atomic species   valence    mass     pseudopotential
        O1             6.00    15.99900     O ( 1.00)
        Ti1           12.00    47.86700     Ti( 1.00)
        H1             1.00     1.00800     H ( 1.00)
        N1             5.00    14.00700     N ( 1.00)

     No symmetry found

   Cartesian axes

     site n.     atom                  positions (alat units)
         1           O1  tau(   1) = (   0.0007354   0.0005023  10.5931620  )
         2           O1  tau(   2) = (   3.3150156   8.9360210  13.9574341  )
         3           O1  tau(   3) = (   6.5771809   0.1322222  17.3752006  )
         4           O1  tau(   4) = (   0.0006271   0.0005054   7.9858123  )
         5           O1  tau(   5) = (   3.2854428   8.9395983  11.2048121  )
         6           O1  tau(   6) = (   6.5534721   0.0059909  14.6304568  )
         7           O1  tau(   7) = (   1.9868534   1.4903216   9.2879459  )
         8           O1  tau(   8) = (   5.2434221   1.6171961  12.5999149  )
         9           O1  tau(   9) = (   1.9662201   1.5518754  16.1237639  )
        10           Ti1 tau(  10) = (   0.0007404   1.4906270   9.2895810  )
        11           Ti1 tau(  11) = (   3.2893977   1.3594553  12.5356033  )
        12           Ti1 tau(  12) = (   0.0178951   1.3769434  15.7441411  )
        13           O1  tau(  13) = (   4.5942328   1.4918067   9.2879030  )
        14           O1  tau(  14) = (   1.3385959   1.6247007  12.6234478  )
        15           O1  tau(  15) = (   4.5909775   1.5586907  16.1788856  )
        16           Ti1 tau(  16) = (   3.2902859   2.9801868   9.2893338  )
        17           Ti1 tau(  17) = (   6.5767353   2.8476438  12.4354253  )
        18           Ti1 tau(  18) = (   3.2855622   3.0003959  15.7804328  )
        19           O1  tau(  19) = (   0.0003479   2.9813005  10.5931620  )
        20           O1  tau(  20) = (   3.3036998   2.9877085  13.9702655  )
        21           O1  tau(  21) = (   0.0002396   2.9813036   7.9858123  )
        22           O1  tau(  22) = (   3.2849372   2.9737507  11.2063419  )
        23           O1  tau(  23) = (   6.5394694   3.0167582  14.8135819  )
        24           O1  tau(  24) = (   1.9864658   4.4711199   9.2879459  )
        25           O1  tau(  25) = (   5.2427600   4.5794291  12.6037842  )
        26           O1  tau(  26) = (   1.9458942   4.4597853  16.1214517  )
        27           Ti1 tau(  27) = (   0.0003529   4.4714252   9.2895810  )
        28           Ti1 tau(  28) = (   3.2810590   4.3307370  12.5385870  )
        29           Ti1 tau(  29) = (   6.5544800   4.6619433  15.7291082  )
        30           O1  tau(  30) = (   4.5938453   4.4726049   9.2879030  )
        31           O1  tau(  31) = (   1.3254974   4.5864429  12.6215760  )
        32           O1  tau(  32) = (   4.5799584   4.4820416  16.1880388  )
        33           Ti1 tau(  33) = (   3.2898983   5.9609850   9.2893338  )
        34           Ti1 tau(  34) = (   6.5675573   5.8255355  12.4420054  )
        35           Ti1 tau(  35) = (   3.2444431   5.9917870  15.7690220  )
        36           O1  tau(  36) = (  -0.0000397   5.9620987  10.5931620  )
        37           O1  tau(  37) = (   3.2928066   5.9693490  13.9649938  )
        38           O1  tau(  38) = (   6.5603845   5.9023223  17.3786232  )
        39           O1  tau(  39) = (  -0.0001480   5.9621018   7.9858123  )
        40           O1  tau(  40) = (   3.2839194   5.9454927  11.2056182  )
        41           O1  tau(  41) = (   6.5420590   6.0665053  14.6296390  )
        42           O1  tau(  42) = (   1.9860782   7.4519181   9.2879459  )
        43           O1  tau(  43) = (   5.2396418   7.5574700  12.5673505  )
        44           O1  tau(  44) = (   1.9576089   7.5211923  16.0792554  )
        45           Ti1 tau(  45) = (  -0.0000347   7.4522234   9.2895810  )
        46           Ti1 tau(  46) = (   3.2826699   7.3152331  12.5262848  )
        47           Ti1 tau(  47) = (   0.0069763   7.4761561  16.0760502  )
        48           O1  tau(  48) = (   4.5934577   7.4534031   9.2879030  )
        49           O1  tau(  49) = (   1.3370172   7.5712087  12.5877691  )
        50           O1  tau(  50) = (   4.5576284   7.4668559  16.1934357  )
        51           Ti1 tau(  51) = (   3.2895107   8.9417832   9.2893338  )
        52           Ti1 tau(  52) = (   6.5702701   8.7900240  12.4479541  )
        53           Ti1 tau(  53) = (   3.3076380   0.0053799  15.7629688  )
        54           H1  tau(  54) = (   5.7681615   5.8474147  17.9327380  )
        55           H1  tau(  55) = (   5.8019348   0.2260023  17.9463436  )
        56           N1  tau(  56) = (   6.2864029   3.7918275  19.8857669  )
        57           N1  tau(  57) = (   6.3580303   2.9648886  19.1553858  )

     number of k points=    10  Fermi-Dirac smearing, width (Ry)=  0.0073
                       cart. coord. in units 2pi/alat
        k(    1) = (   0.0000000   0.0000000   0.0000000), wk =   0.1250000
        k(    2) = (   0.0000000   0.0279567   0.0000000), wk =   0.2500000
        k(    3) = (   0.0000000  -0.0559134   0.0000000), wk =   0.1250000
        k(    4) = (   0.0379955   0.0000049   0.0000000), wk =   0.2500000
        k(    5) = (   0.0379955   0.0279617   0.0000000), wk =   0.2500000
        k(    6) = (   0.0379955  -0.0559085   0.0000000), wk =   0.2500000
        k(    7) = (   0.0379955  -0.0279518   0.0000000), wk =   0.2500000
        k(    8) = (  -0.0759910  -0.0000099   0.0000000), wk =   0.1250000
        k(    9) = (  -0.0759910   0.0279468   0.0000000), wk =   0.2500000
        k(   10) = (  -0.0759910  -0.0559233   0.0000000), wk =   0.1250000

     Initial potential from superposition of free atoms

     starting charge  419.99912, renormalised to  438.00000

     negative rho (up, down):  3.691E-02 0.000E+00

     %%%%%%%%%%%%%%%%%%%%%%%%%%%%%%%%%%%%%%%%%%%%%%%%%%%%%%%%%%%%%%%%%%%%%%%%
     %                                                                      %
     % You are using vdW-DF, which was implemented by the Thonhauser group. %
     % Please cite the following two papers that made this development      %
     % possible and the two reviews that describe the various versions:     %
     %                                                                      %
     %   T. Thonhauser et al., PRL 115, 136402 (2015).                      %
     %   T. Thonhauser et al., PRB 76, 125112 (2007).                       %
     %   K. Berland et al., Rep. Prog. Phys. 78, 066501 (2015).             %
     %   D.C. Langreth et al., J. Phys.: Condens. Matter 21, 084203 (2009). %
     %                                                                      %
     %                                                                      %
     % If you are calculating the stress with vdW-DF, please also cite:     %
     %                                                                      %
     %   R. Sabatini et al., J. Phys.: Condens. Matter 24, 424209 (2012).   %
     %                                                                      %
     %%%%%%%%%%%%%%%%%%%%%%%%%%%%%%%%%%%%%%%%%%%%%%%%%%%%%%%%%%%%%%%%%%%%%%%%

     Adding external electric field

     Computed dipole along edir(3) :
        Dipole               -6.4270 Ry au,        -16.3359 Debye
        Dipole field         -0.0081 Ry au,

        Potential amp.        0.7495 Ry
        Total length         46.3494 bohr

     Starting wfcs are  330 atomic wfcs
  @ DRIVER MODE: Message from server: STATUS
  @ DRIVER MODE: Message from server: POSDATA
  @ DRIVER MODE: Reading and sharing cell
  @ DRIVER MODE: Reading and sharing positions
  @ DRIVER MODE: Received positions

     Self-consistent Calculation

     iteration #  1     ecut=    29.40 Ry     beta= 0.05
     Davidson diagonalization with overlap
     c_bands:  2 eigenvalues not converged
     c_bands:  2 eigenvalues not converged
     c_bands:  5 eigenvalues not converged
     c_bands:  2 eigenvalues not converged
     c_bands:  4 eigenvalues not converged
     c_bands:  5 eigenvalues not converged
     c_bands:  4 eigenvalues not converged
     c_bands:  3 eigenvalues not converged
     c_bands:  4 eigenvalues not converged
     c_bands:  4 eigenvalues not converged
     ethr =  1.00E-05,  avg # of iterations = 20.0

[...]

     total energy              =   -3267.03455241 Ry
     estimated scf accuracy    <     308.59071278 Ry

[...]

     iteration #  3     ecut=    29.40 Ry     beta= 0.05
     Davidson diagonalization with overlap
     ethr =  1.00E-02,  avg # of iterations = 13.7

[...]

     iteration # 28     ecut=    29.40 Ry     beta= 0.05
     Davidson diagonalization with overlap
     ethr =  4.59E-07,  avg # of iterations = 10.7

[...]

     total energy              =   -3290.82346539 Ry
     estimated scf accuracy    <       0.00000009 Ry

     iteration # 48     ecut=    29.40 Ry     beta= 0.05
     Davidson diagonalization with overlap
     c_bands:  1 eigenvalues not converged
     ethr =  2.04E-11,  avg # of iterations = 10.0

     negative rho (up, down):  3.510E-02 0.000E+00

     Adding external electric field

     Computed dipole along edir(3) :
        Dipole                1.4942 Ry au,          3.7979 Debye
        Dipole field          0.0019 Ry au,

        Potential amp.       -0.1743 Ry
        Total length         46.3494 bohr

     End of self-consistent calculation

          k = 0.0000 0.0000 0.0000 ( 26871 PWs)   bands (ev):

   -57.5959 -57.5708 -57.5694 -57.5057 -57.4835 -57.4659 -57.4409 -57.4387
   -57.4197 -57.4142 -57.3970 -57.3866 -57.3789 -57.3560 -57.3520 -56.7222
   -56.6985 -56.6924 -33.9879 -33.9861 -33.9694 -33.9646 -33.9450 -33.9318
   -33.9147 -33.9026 -33.8989 -33.8919 -33.8894 -33.8769 -33.8444 -33.8371
   -33.8194 -33.7940 -33.7653 -33.7414 -33.7366 -33.7348 -33.7213 -33.7176
   -33.7148 -33.7081 -33.6980 -33.6973 -33.6936 -33.6928 -33.6732 -33.6668
   -33.6402 -33.6369 -33.6324 -33.6285 -33.6223 -33.6151 -33.6004 -33.5979
   -33.5832 -33.5610 -33.5347 -33.5320 -33.5268 -33.4952 -33.4823 -33.0426
   -33.0345 -33.0284 -33.0131 -33.0079 -32.9525 -32.8911 -32.8842 -32.7515
   -23.7045 -19.5294 -19.3980 -18.4814 -18.1099 -17.9387 -17.9267 -17.9042
   -17.8702 -17.7260 -17.7002 -17.6563 -17.6269 -17.6103 -17.4611 -17.4414
   -17.4246 -17.4214 -17.3751 -17.3703 -17.3641 -17.3349 -17.3281 -17.3164
   -17.2930 -17.2649 -17.1650 -17.1460 -17.1408 -17.1080 -17.0694 -17.0676
   -16.7632 -15.1867 -15.1268 -15.1221  -8.9510  -7.2073  -7.0763  -6.8455
    -6.8335  -5.8026  -5.6742  -5.6117  -5.5597  -5.4277  -5.1304  -5.0922
    -5.0581  -5.0378  -5.0212  -4.9684  -4.9172  -4.9084  -4.8903  -4.8602
    -4.8539  -4.7900  -4.7725  -4.7579  -4.6678  -4.6322  -4.6252  -4.5900
    -4.5678  -4.5036  -4.4919  -4.4717  -4.4344  -4.4259  -4.3995  -4.3825
    -4.2677  -4.1575  -4.1371  -4.0931  -4.0749  -3.9654  -3.9500  -3.9141
    -3.8933  -3.8333  -3.7962  -3.7756  -3.7588  -3.6902  -3.6359  -3.6128
    -3.5751  -3.5211  -3.4705  -3.4479  -3.4266  -3.4101  -3.3506  -3.2945
    -3.2586  -3.1916  -3.1420  -3.0534  -3.0485  -2.9621  -2.9114  -2.7802
    -2.7435  -2.6837  -2.6656  -2.6177  -2.5955  -2.4499  -2.4375  -2.4219
    -2.4187  -2.3847  -2.3303  -2.3097  -2.3072  -2.2854  -2.2566  -2.2083
    -2.1909  -2.1241  -2.0826  -2.0593  -2.0443  -2.0104  -1.9476  -1.9211
    -1.8413  -1.7802  -1.7589  -1.6641  -1.5494  -1.5324  -1.5319  -1.4195
    -1.3957  -1.0221  -0.7954  -0.4980  -0.4326  -0.4305  -0.1459  -0.1406
    -0.0022   1.3419   1.4151   1.5858   1.6093   1.6756   1.8154   1.8388
     1.9186   1.9578   1.9757   1.9884   1.9967

[...]

          k = 0.0380-0.0280 0.0000 ( 26873 PWs)   bands (ev):

[...]

          k =-0.0760-0.0000 0.0000 ( 26902 PWs)   bands (ev):

[...]

          k =-0.0760-0.0559 0.0000 ( 26868 PWs)   bands (ev):

   -57.5880 -57.5865 -57.5616 -57.5022 -57.4893 -57.4633 -57.4373 -57.4367
   -57.4255 -57.4176 -57.3948 -57.3849 -57.3727 -57.3689 -57.3457 -56.7164
   -56.7100 -56.6866 -34.0812 -34.0276 -33.9842 -33.9705 -33.9502 -33.9272
   -33.9111 -33.9073 -33.9047 -33.8859 -33.8624 -33.8185 -33.8108 -33.7961
   -33.7939 -33.7484 -33.7388 -33.7370 -33.7362 -33.7243 -33.7185 -33.7057
   -33.7046 -33.6841 -33.6755 -33.6727 -33.6696 -33.6692 -33.6658 -33.6627
   -33.6605 -33.6570 -33.6526 -33.6420 -33.6363 -33.6303 -33.6220 -33.6016
   -33.5799 -33.5756 -33.5726 -33.5616 -33.5594 -33.5116 -33.4948 -33.1301
   -33.0299 -33.0243 -33.0018 -32.9346 -32.9273 -32.8663 -32.8520 -32.8448
   -23.7044 -19.5114 -19.4053 -18.1330 -18.0997 -17.9799 -17.9175 -17.7975
   -17.7802 -17.7002 -17.6868 -17.6783 -17.6429 -17.6048 -17.5655 -17.5500
   -17.4726 -17.4428 -17.4168 -17.4053 -17.3956 -17.3888 -17.3817 -17.3675
   -17.2615 -17.2596 -17.2548 -17.2244 -17.1566 -17.1034 -17.0509 -17.0353
   -16.7955 -15.1842 -15.1787 -15.0632  -8.9509  -7.2484  -7.0495  -6.8462
    -6.8375  -5.6522  -5.4015  -5.3398  -5.3182  -5.2708  -5.1705  -5.1024
    -5.0591  -5.0017  -4.9420  -4.8904  -4.8576  -4.7941  -4.7803  -4.7678
    -4.7567  -4.7075  -4.6672  -4.6503  -4.6359  -4.6202  -4.6037  -4.5756
    -4.5651  -4.5333  -4.4657  -4.4263  -4.3386  -4.3303  -4.3001  -4.2634
    -4.2385  -4.2177  -4.1594  -4.1441  -4.1137  -4.0904  -3.9711  -3.8550
    -3.8406  -3.8056  -3.7994  -3.7690  -3.7303  -3.7239  -3.6216  -3.5470
    -3.4108  -3.3843  -3.3809  -3.3682  -3.3477  -3.2800  -3.2705  -3.2349
    -3.2024  -3.1878  -3.1667  -3.1122  -3.0836  -3.0058  -2.9740  -2.9157
    -2.8625  -2.8301  -2.7716  -2.7609  -2.7382  -2.7271  -2.7222  -2.7107
    -2.6910  -2.6441  -2.6347  -2.4857  -2.4513  -2.4459  -2.4324  -2.3224
    -2.3043  -2.2061  -2.1965  -2.1628  -2.1517  -2.0633  -2.0441  -1.9379
    -1.9178  -1.8591  -1.8122  -1.7631  -1.4508  -1.4394  -1.4109  -1.3780
    -1.2921  -1.2855  -1.0353  -0.6334  -0.3744  -0.3549  -0.3094  -0.1376
    -0.1357   1.4676   1.5345   1.5591   1.5768   1.6748   1.6875   1.7124
     1.7282   1.7652   1.7776   1.8832   1.9476

     the Fermi energy is     1.4865 ev

!    total energy              =   -3290.82358548 Ry
     estimated scf accuracy    <       0.00000006 Ry
     smearing contrib. (-TS)   =      -0.05467518 Ry
     internal energy E=F+TS    =   -3290.76891030 Ry

     The total energy is F=E-TS. E is the sum of the following terms:
     one-electron contribution =  -33575.62978588 Ry
     hartree contribution      =   16851.50161644 Ry
     xc contribution           =    -540.39277761 Ry
     ewald contribution        =   13973.74922790 Ry
     electric field correction =       0.00280885 Ry

     convergence has been achieved in  48 iterations

     Forces acting on atoms (cartesian axes, Ry/au):

     atom    1 type  1   force =     0.00049282    0.00768175    0.05386768
     atom    2 type  1   force =     0.00022745    0.00347569    0.00202297
     atom    3 type  1   force =    -0.00217131   -0.00161008   -0.00180396
     atom    4 type  1   force =     0.00004298    0.00063055    0.10808468
     atom    5 type  1   force =     0.00012028   -0.00051774    0.01008799
     atom    6 type  1   force =    -0.00049605   -0.00865948   -0.00248551
     atom    7 type  1   force =     0.06411603    0.00022727   -0.02868192
     atom    8 type  1   force =     0.00332441   -0.02901812    0.00414639
     atom    9 type  1   force =     0.01267006   -0.00964047   -0.00138948
     atom   10 type  2   force =     0.00006156   -0.00637928   -0.19199369
     atom   11 type  2   force =    -0.00024614    0.01995505   -0.01154854
     atom   12 type  2   force =    -0.00128047    0.01557220    0.01040441
     atom   13 type  1   force =    -0.06425088   -0.00020567   -0.02810077
     atom   14 type  1   force =    -0.00398619   -0.02855717    0.00377546
     atom   15 type  1   force =    -0.01071361   -0.01192572    0.00083224
     atom   16 type  2   force =    -0.00028374   -0.00085690    0.07233448
     atom   17 type  2   force =     0.00033590    0.03631937    0.00478168
     atom   18 type  2   force =    -0.00024879    0.00087783   -0.00729141
     atom   19 type  1   force =     0.00076716    0.00326663    0.05938700
     atom   20 type  1   force =    -0.00031631    0.00182595   -0.00318097
     atom   21 type  1   force =     0.00006645    0.00073655    0.10921698
     atom   22 type  1   force =     0.00005764   -0.00032273    0.01011030
     atom   23 type  1   force =    -0.00003321    0.00082335    0.00148113
     atom   24 type  1   force =     0.06378308   -0.00057952   -0.02864947
     atom   25 type  1   force =     0.00305601   -0.02881359    0.00379510
     atom   26 type  1   force =     0.01006413    0.01238962    0.00067190
     atom   27 type  2   force =     0.00003426    0.00226441   -0.19416324
     atom   28 type  2   force =     0.00013384    0.01853351   -0.01070868
     atom   29 type  2   force =     0.00009718   -0.01693533    0.00908636
     atom   30 type  1   force =    -0.06394219   -0.00100885   -0.02802131
     atom   31 type  1   force =    -0.00267971   -0.02913614    0.00377252
     atom   32 type  1   force =    -0.01243878    0.00753297   -0.00165750
     atom   33 type  2   force =    -0.00027634   -0.00104148    0.07254934
     atom   34 type  2   force =    -0.00010925    0.03449570    0.00419008
     atom   35 type  2   force =     0.00289399   -0.01386412   -0.00294519
     atom   36 type  1   force =     0.00026291    0.00300161    0.05371289
     atom   37 type  1   force =    -0.00022854    0.00131127    0.00205591
     atom   38 type  1   force =    -0.00060588    0.00099472   -0.00081910
     atom   39 type  1   force =     0.00007904   -0.00111952    0.10846433
     atom   40 type  1   force =     0.00000177   -0.00027751    0.00994158
     atom   41 type  1   force =     0.00093603    0.00812338   -0.00132719
     atom   42 type  1   force =     0.06452820   -0.00058767   -0.02831292
     atom   43 type  1   force =     0.00210267   -0.02819120    0.00291243
     atom   44 type  1   force =     0.01357259   -0.00750174    0.00864447
     atom   45 type  2   force =     0.00016268    0.00154179   -0.18904360
     atom   46 type  2   force =    -0.00007399    0.01913963   -0.01215194
     atom   47 type  2   force =     0.00035292    0.00386916   -0.00950565
     atom   48 type  1   force =    -0.06469651   -0.00107742   -0.02774797
     atom   49 type  1   force =    -0.00262486   -0.02847455    0.00285334
     atom   50 type  1   force =    -0.01370240    0.00199995    0.00421281
     atom   51 type  2   force =    -0.00026468   -0.00042850    0.07293001
     atom   52 type  2   force =     0.00057128    0.03496064    0.00444354
     atom   53 type  2   force =    -0.00218299    0.01509734   -0.00247432
     atom   54 type  3   force =     0.00184175    0.00025023   -0.00117664
     atom   55 type  3   force =     0.00095681   -0.00010558   -0.00040836
     atom   56 type  4   force =     0.00045346   -0.00525427   -0.00277344
     atom   57 type  4   force =    -0.00031453    0.00519224    0.00359277

     Total force =     0.462887     Total SCF correction =     0.000610
  @ DRIVER MODE: Message from server: STATUS
  @ DRIVER MODE: Message from server: GETFORCE
  @ DRIVER MODE: Returning v,forces,stress,ensemble

     Writing output data file ./calc.save/
  @ DRIVER MODE: Message from server: EXIT
  @ DRIVE MODE: Exiting

     General routines

     Parallel routines

   This run was terminated on:  18:35:28  18Oct2021

   JOB DONE.