     Program PWSCF v.6.7GPU starts on 23Aug2021 at 23: 3:18

     R & G space division:  proc/nbgrp/npool/nimage =       6
     Reading input from /storage/home/hcoda1/3/ntian30/research/carbon/CH_vib/ads_slab/CHNNHHH_a/out_0019/pw.inp
Warning: card &CELL ignored
Warning: card   CELL_DYNAMICS='IPI', ignored
Warning: card / ignored

     Current dimensions of program PWSCF are:
     Max number of different atomic species (ntypx) = 10
     Max number of k-points (npk) =  40000
     Max angular momentum in pseudopotentials (lmaxx) =  3
     Presently no symmetry can be used with electric field

     Message from routine cell_base_init:
     DEPRECATED: use true lattice parameter, not A to a.u. conversion factor

     IMPORTANT: XC functional enforced from input :
     Exchange-correlation= BEEF-VDW
                           (   1   4  43  14   2   0   0)
     Any further DFT definition will be discarded
     Please, verify this is what you really want

  @ DRIVER MODE: Connecting to
 qe_1139763_2632795.sched-torque.pace.gatech.edu6znfehny_scratch
  using UNIX socket
  @ DRIVER MODE: Message from server: STATUS
  @ DRIVER MODE: Message from server: INIT
  @ DRIVER MODE: Receiving replica           0          -1
  @ DRIVER MODE: Receiving encoded integer          25
  @ DRIVER MODE:  SCF:  T  FORCE:  T  STRESS:  F  VC:  F  ENSEMBLE:  F
  @ DRIVER MODE:  SCF:  T  FORCE:  T  STRESS:  F  VC:  F  ENSEMBLE:  F

     Using Slab Decomposition

     bravais-lattice index     =            0
     lattice parameter (alat)  =       1.8897  a.u.
     unit-cell volume          =    6658.9804 (a.u.)^3
     number of atoms/cell      =           54
     number of atomic types    =            5
     number of electrons       =       396.00
     number of Kohn-Sham states=          208
     kinetic-energy cutoff     =      29.3995  Ry
     charge density cutoff     =     293.9946  Ry
     scf convergence threshold =      7.3E-08
     mixing beta               =       0.0500
     number of iterations used =            8  plain     mixing
     Exchange-correlation= BEEF-VDW
                           (   1   4  43  14   2   0   0)

     celldm(1)=   1.889726  celldm(2)=   0.000000  celldm(3)=   0.000000
     celldm(4)=   0.000000  celldm(5)=   0.000000  celldm(6)=   0.000000

     crystal axes: (cart. coord. in units of alat)
               a(1) = (   6.579727   0.000000   0.000000 )
               a(2) = (  -0.000775   5.961596   0.000000 )
               a(3) = (   0.000000   0.000000  25.155947 )

     reciprocal axes: (cart. coord. in units 2 pi/alat)
               b(1) = (  0.151982  0.000020  0.000000 )
               b(2) = (  0.000000  0.167740  0.000000 )
               b(3) = (  0.000000  0.000000  0.039752 )

     PseudoPot. # 1 for Ti read from file:
     /storage/coda1/p-amedford6/0/shared/rich_project_chbe-medford/medford-share/data/pseudos_module/espresso/nninc/pbe/van/Ti.UPF
     MD5 check sum: 8e4df49b7f0d34bbd5052bf3f5ea0213
     Pseudo is Ultrasoft, Zval = 12.0
     Generated by new atomic code, or converted to UPF format
     Using radial grid of  851 points,  6 beta functions with:
                l(1) =   0
                l(2) =   0
                l(3) =   1
                l(4) =   1
                l(5) =   2
                l(6) =   2
     Q(r) pseudized with  8 coefficients,  rinner =    1.000   1.000   1.000
                                                       1.000   1.000

     PseudoPot. # 2 for O  read from file:
     /storage/coda1/p-amedford6/0/shared/rich_project_chbe-medford/medford-share/data/pseudos_module/espresso/nninc/pbe/van/O.UPF
     MD5 check sum: 78c19812648e8988a0fe644b0f25305e
     Pseudo is Ultrasoft, Zval =  6.0
     Generated by new atomic code, or converted to UPF format
     Using radial grid of  737 points,  4 beta functions with:
                l(1) =   0
                l(2) =   0
                l(3) =   1
                l(4) =   1
     Q(r) pseudized with  8 coefficients,  rinner =    0.800   0.800   0.800

     PseudoPot. # 3 for N  read from file:
     /storage/coda1/p-amedford6/0/shared/rich_project_chbe-medford/medford-share/data/pseudos_module/espresso/nninc/pbe/van/N.UPF
     MD5 check sum: 90d10febe142ad51ac9d5be1deb811c4
     Pseudo is Ultrasoft, Zval =  5.0
     Generated by new atomic code, or converted to UPF format
     Using radial grid of  729 points,  4 beta functions with:
                l(1) =   0
                l(2) =   0
                l(3) =   1
                l(4) =   1
     Q(r) pseudized with  8 coefficients,  rinner =    0.800   0.800   0.800

     PseudoPot. # 4 for C  read from file:
     /storage/coda1/p-amedford6/0/shared/rich_project_chbe-medford/medford-share/data/pseudos_module/espresso/nninc/pbe/van/C.UPF
     MD5 check sum: 1a69bf6b8db32088f5b2163dbdb77a27
     Pseudo is Ultrasoft, Zval =  4.0
     Generated by new atomic code, or converted to UPF format
     Using radial grid of  721 points,  4 beta functions with:
                l(1) =   0
                l(2) =   0
                l(3) =   1
                l(4) =   1
     Q(r) pseudized with  8 coefficients,  rinner =    0.800   0.800   0.800

     PseudoPot. # 5 for H  read from file:
     /storage/coda1/p-amedford6/0/shared/rich_project_chbe-medford/medford-share/data/pseudos_module/espresso/nninc/pbe/van/H.UPF
     MD5 check sum: b5ee9d7bfd3a09ee7748110bda690ff7
     Pseudo is Ultrasoft, Zval =  1.0
     Generated by new atomic code, or converted to UPF format
     Using radial grid of  615 points,  1 beta functions with:
                l(1) =   0
     Q(r) pseudized with  8 coefficients,  rinner =    0.800

     atomic species   valence    mass     pseudopotential
        Ti1           12.00    47.86700     Ti( 1.00)
        O1             6.00    15.99900     O ( 1.00)
        N1             5.00    14.00700     N ( 1.00)
        C1             4.00    12.01100     C ( 1.00)
        H1             1.00     1.00800     H ( 1.00)

     No symmetry found

   Cartesian axes

     site n.     atom                  positions (alat units)
         1           Ti1 tau(   1) = (   0.0004258   2.9801865   6.0000000  )
         2           Ti1 tau(   2) = (   3.2906075   1.4906267   6.0002472  )
         3           O1  tau(   3) = (   0.0006271   0.0005054   7.9858123  )
         4           O1  tau(   4) = (   3.2906025   0.0005020   7.3038282  )
         5           O1  tau(   5) = (   4.5942328   1.4918067   9.2879030  )
         6           O1  tau(   6) = (   1.9868534   1.4903216   9.2879459  )
         7           Ti1 tau(   7) = (   3.2907910   2.8959150   9.1758416  )
         8           Ti1 tau(   8) = (   0.0015273   1.4827037   9.2680791  )
         9           O1  tau(   9) = (   3.3116888   5.9365513  11.3741315  )
        10           O1  tau(  10) = (   0.0116148   5.9584955  10.6183126  )
        11           O1  tau(  11) = (   1.3152863   1.4773744  12.6583839  )
        12           O1  tau(  12) = (   5.3185463   1.4781915  12.6604289  )
        13           Ti1 tau(  13) = (   0.0312267   2.9553392  12.5172039  )
        14           Ti1 tau(  14) = (   3.3247105   1.4628205  12.5237724  )
        15           O1  tau(  15) = (   0.0176705   0.0150782  14.7085838  )
        16           O1  tau(  16) = (   3.3263678   5.9469243  13.9928752  )
        17           O1  tau(  17) = (   4.5829619   1.4750097  16.2211409  )
        18           O1  tau(  18) = (   2.0801478   1.4636096  16.1819230  )
        19           Ti1 tau(  19) = (   3.3264833   2.9461821  15.7545810  )
        20           Ti1 tau(  20) = (   0.0064452   1.3478264  16.0581623  )
        21           O1  tau(  21) = (   3.2904802   0.0005063   4.7018136  )
        22           O1  tau(  22) = (   0.0393124   5.8647722  17.2449945  )
        23           O1  tau(  23) = (   1.3043587   1.4918075   6.0039043  )
        24           O1  tau(  24) = (   5.2767064   1.4903225   6.0039473  )
        25           Ti1 tau(  25) = (   0.0000382   5.9609847   6.0000000  )
        26           Ti1 tau(  26) = (   3.2902200   4.4714249   6.0002472  )
        27           O1  tau(  27) = (   0.0002396   2.9813036   7.9858123  )
        28           O1  tau(  28) = (   3.2902150   2.9813002   7.3038282  )
        29           O1  tau(  29) = (   4.5938453   4.4726049   9.2879030  )
        30           O1  tau(  30) = (   1.9864658   4.4711199   9.2879459  )
        31           Ti1 tau(  31) = (   3.2891106   5.8743827   9.1763621  )
        32           Ti1 tau(  32) = (   0.0006254   4.4649316   9.2693709  )
        33           O1  tau(  33) = (   3.3126387   2.9639063  11.3704323  )
        34           O1  tau(  34) = (   0.0092240   2.9805883  10.6323155  )
        35           O1  tau(  35) = (   1.3140505   4.4512041  12.6779488  )
        36           O1  tau(  36) = (   5.3186431   4.4503656  12.6784002  )
        37           Ti1 tau(  37) = (   0.0306983   5.9434578  12.5012515  )
        38           Ti1 tau(  38) = (   3.3249252   4.4426326  12.5284913  )
        39           O1  tau(  39) = (   0.0332616   2.9308952  14.9693926  )
        40           O1  tau(  40) = (   3.3269026   2.9510973  13.9662216  )
        41           O1  tau(  41) = (   4.5816979   4.4256876  16.1885362  )
        42           O1  tau(  42) = (   2.0739833   4.4348339  16.1471384  )
        43           Ti1 tau(  43) = (   3.3139036   5.9323143  15.7909994  )
        44           Ti1 tau(  44) = (   0.0257917   4.5791344  15.8913375  )
        45           O1  tau(  45) = (   3.2900926   2.9813045   4.7018136  )
        46           O1  tau(  46) = (   1.3039711   4.4726057   6.0039043  )
        47           O1  tau(  47) = (   5.2763189   4.4711207   6.0039473  )
        48           N1  tau(  48) = (   0.2611162   2.7486399  18.0384573  )
        49           C1  tau(  49) = (   1.0666652   3.1333113  18.7681872  )
        50           H1  tau(  50) = (   1.9496291   3.4674532  19.3170853  )
        51           N1  tau(  51) = (   3.9212863   3.7371558  19.5917579  )
        52           H1  tau(  52) = (   4.2637485   4.0673035  20.4913501  )
        53           H1  tau(  53) = (   4.3024207   4.3757745  18.8906580  )
        54           H1  tau(  54) = (   4.4024832   2.8518033  19.4177320  )

     number of k points=    10  Fermi-Dirac smearing, width (Ry)=  0.0073
                       cart. coord. in units 2pi/alat
        k(    1) = (   0.0000000   0.0000000   0.0000000), wk =   0.1250000
        k(    2) = (   0.0000000   0.0419351   0.0000000), wk =   0.2500000
        k(    3) = (   0.0000000  -0.0838702   0.0000000), wk =   0.1250000
        k(    4) = (   0.0379955   0.0000049   0.0000000), wk =   0.2500000
        k(    5) = (   0.0379955   0.0419400   0.0000000), wk =   0.2500000
        k(    6) = (   0.0379955  -0.0838652   0.0000000), wk =   0.2500000
        k(    7) = (   0.0379955  -0.0419301   0.0000000), wk =   0.2500000
        k(    8) = (  -0.0759910  -0.0000099   0.0000000), wk =   0.1250000
        k(    9) = (  -0.0759910   0.0419252   0.0000000), wk =   0.2500000
        k(   10) = (  -0.0759910  -0.0838800   0.0000000), wk =   0.1250000

     Initial potential from superposition of free atoms

     starting charge  379.99915, renormalised to  396.00000

     negative rho (up, down):  1.480E-02 0.000E+00

     %%%%%%%%%%%%%%%%%%%%%%%%%%%%%%%%%%%%%%%%%%%%%%%%%%%%%%%%%%%%%%%%%%%%%%%%
     %                                                                      %
     % You are using vdW-DF, which was implemented by the Thonhauser group. %
     % Please cite the following two papers that made this development      %
     % possible and the two reviews that describe the various versions:     %
     %                                                                      %
     %   T. Thonhauser et al., PRL 115, 136402 (2015).                      %
     %   T. Thonhauser et al., PRB 76, 125112 (2007).                       %
     %   K. Berland et al., Rep. Prog. Phys. 78, 066501 (2015).             %
     %   D.C. Langreth et al., J. Phys.: Condens. Matter 21, 084203 (2009). %
     %                                                                      %
     %                                                                      %
     % If you are calculating the stress with vdW-DF, please also cite:     %
     %                                                                      %
     %   R. Sabatini et al., J. Phys.: Condens. Matter 24, 424209 (2012).   %
     %                                                                      %
     %%%%%%%%%%%%%%%%%%%%%%%%%%%%%%%%%%%%%%%%%%%%%%%%%%%%%%%%%%%%%%%%%%%%%%%%

     Adding external electric field

     Computed dipole along edir(3) :
        Dipole              -10.3171 Ry au,        -26.2235 Debye
        Dipole field         -0.0195 Ry au,

        Potential amp.        1.8048 Ry
        Total length         46.3494 bohr

     Starting wfcs are  300 atomic wfcs
  @ DRIVER MODE: Message from server: STATUS
  @ DRIVER MODE: Message from server: POSDATA
  @ DRIVER MODE: Reading and sharing cell
  @ DRIVER MODE: Reading and sharing positions
  @ DRIVER MODE: Received positions

     Self-consistent Calculation

     iteration #  1     ecut=    29.40 Ry     beta= 0.05
     Davidson diagonalization with overlap
     c_bands:  1 eigenvalues not converged
     c_bands:  2 eigenvalues not converged
     c_bands:  2 eigenvalues not converged
     c_bands:  1 eigenvalues not converged
     c_bands:  3 eigenvalues not converged
     c_bands:  2 eigenvalues not converged
     c_bands:  3 eigenvalues not converged
     c_bands:  2 eigenvalues not converged
     c_bands:  2 eigenvalues not converged
     c_bands:  2 eigenvalues not converged
     ethr =  1.00E-05,  avg # of iterations = 20.0

[...]

     total energy              =   -2522.34753174 Ry
     estimated scf accuracy    <    4676.85022530 Ry

     iteration #  2     ecut=    29.40 Ry     beta= 0.05
     Davidson diagonalization with overlap
     ethr =  1.00E-02,  avg # of iterations = 24.3

[...]

     iteration # 87     ecut=    29.40 Ry     beta= 0.05
     Davidson diagonalization with overlap
     ethr =  3.98E-11,  avg # of iterations = 11.6

[...]

     total energy              =   -2940.41303655 Ry
     estimated scf accuracy    <       0.00000008 Ry

     iteration # 88     ecut=    29.40 Ry     beta= 0.05
     Davidson diagonalization with overlap
     c_bands:  1 eigenvalues not converged
     ethr =  2.09E-11,  avg # of iterations = 12.2

     negative rho (up, down):  1.578E-02 0.000E+00

     Adding external electric field

     Computed dipole along edir(3) :
        Dipole                1.4877 Ry au,          3.7813 Debye
        Dipole field          0.0028 Ry au,

        Potential amp.       -0.2602 Ry
        Total length         46.3494 bohr

     End of self-consistent calculation

          k = 0.0000 0.0000 0.0000 ( 18029 PWs)   bands (ev):

   -55.2546 -55.2187 -55.2062 -55.1720 -55.1320 -55.1238 -55.1000 -55.0966
   -55.0725 -55.0530 -55.0381 -55.0350 -55.0013 -54.9847 -54.2339 -54.1999
   -31.8233 -31.7030 -31.6985 -31.6197 -31.5640 -31.5621 -31.5534 -31.5404
   -31.4950 -31.4824 -31.4635 -31.4602 -31.4507 -31.4258 -31.4099 -31.4054
   -31.3910 -31.3795 -31.3706 -31.3692 -31.3586 -31.3463 -31.3199 -31.3175
   -31.3097 -31.3030 -31.2749 -31.2733 -31.2634 -31.2621 -31.2534 -31.2346
   -31.2335 -31.2254 -31.2216 -31.2201 -31.1864 -31.1862 -31.1684 -31.1629
   -31.1460 -31.0947 -30.6432 -30.5493 -30.5272 -30.4597 -30.3729 -30.2619
   -16.7719 -16.0796 -15.8100 -15.6675 -15.5615 -15.4503 -15.3354 -15.3151
   -15.1782 -15.1370 -15.0896 -14.9709 -14.9202 -14.9016 -14.8871 -14.8733
   -14.8666 -14.7955 -14.7904 -14.7670 -14.7467 -14.7339 -14.6910 -14.6893
   -14.6487 -14.6279 -14.5814 -14.4925 -14.4097 -14.3403 -14.0183 -12.7365
   -12.6191  -7.9734  -5.2064  -4.9949  -4.0119  -3.4186  -3.2682  -3.1722
    -3.1460  -3.1300  -3.0006  -2.8531  -2.8431  -2.7484  -2.6388  -2.5877
    -2.5051  -2.4565  -2.4442  -2.4259  -2.2427  -2.2258  -2.1728  -2.1247
    -2.0948  -2.0590  -2.0386  -2.0194  -2.0022  -1.9928  -1.9289  -1.8151
    -1.7796  -1.7273  -1.6759  -1.6506  -1.5966  -1.5759  -1.5399  -1.5339
    -1.5335  -1.4853  -1.4592  -1.4360  -1.3589  -1.2729  -1.1583  -1.1070
    -0.9521  -0.8897  -0.8335  -0.8212  -0.7578  -0.7379  -0.7090  -0.6316
    -0.6239  -0.5911  -0.4725  -0.3963  -0.3539  -0.3337  -0.2739  -0.2352
    -0.2078  -0.1612  -0.0646  -0.0325  -0.0157  -0.0113   0.1390   0.1528
     0.2219   0.2692   0.2909   0.2915   0.4044   0.4210   0.4935   0.5305
     0.5665   0.6398   0.6796   0.6956   0.6982   0.7318   0.7357   0.8267
     0.8488   0.8572   0.9294   1.0789   1.3054   1.3534   1.3613   1.6950
     1.6966   1.7888   1.9724   2.3647   2.4129   3.8440   3.9155   3.9897
     3.9961   4.0219   4.0820   4.3237   4.3340   4.3466   4.3497   4.3910

[...]

          k = 0.0380-0.0419 0.0000 ( 17876 PWs)   bands (ev):

[...]

          k =-0.0760-0.0000 0.0000 ( 17886 PWs)   bands (ev):

[...]

          k =-0.0760-0.0839 0.0000 ( 17948 PWs)   bands (ev):

   -55.2367 -55.2365 -55.1894 -55.1886 -55.1190 -55.1184 -55.1102 -55.0972
   -55.0573 -55.0562 -55.0539 -55.0184 -55.0181 -54.9875 -54.2169 -54.2168
   -31.6271 -31.6266 -31.6262 -31.5257 -31.5139 -31.5133 -31.5130 -31.4806
   -31.4801 -31.4621 -31.4548 -31.4491 -31.4447 -31.3940 -31.3893 -31.3871
   -31.3860 -31.3860 -31.3803 -31.3747 -31.3507 -31.3473 -31.3368 -31.3274
   -31.3266 -31.3205 -31.3120 -31.3091 -31.3084 -31.3023 -31.2893 -31.2867
   -31.2819 -31.2693 -31.2668 -31.2497 -31.2486 -31.2445 -31.1990 -31.1989
   -31.1933 -31.1869 -30.5399 -30.5398 -30.4557 -30.4556 -30.4163 -30.4163
   -16.7631 -15.6122 -15.4956 -15.4545 -15.2668 -15.2583 -15.2276 -15.2153
   -15.1438 -15.0643 -15.0375 -15.0273 -15.0140 -14.9624 -14.9562 -14.9508
   -14.9292 -14.8582 -14.8498 -14.8478 -14.8308 -14.7647 -14.7599 -14.7555
   -14.7447 -14.7017 -14.6988 -14.6044 -14.6024 -14.5086 -14.3849 -12.7206
   -12.7205  -7.9700  -5.2013  -5.0058  -3.9994  -2.7968  -2.7697  -2.7228
    -2.7139  -2.6975  -2.4784  -2.4555  -2.4185  -2.3686  -2.3071  -2.2558
    -2.2475  -2.2308  -2.1637  -2.1250  -2.1085  -2.0950  -2.0766  -2.0610
    -2.0466  -2.0211  -1.9787  -1.9711  -1.9500  -1.9295  -1.8997  -1.8914
    -1.8601  -1.8393  -1.8240  -1.8067  -1.6920  -1.6681  -1.6097  -1.5706
    -1.5292  -1.4569  -1.4517  -1.3545  -1.3471  -1.2929  -1.2811  -1.2549
    -1.1622  -1.0630  -1.0008  -0.9943  -0.9879  -0.8619  -0.8236  -0.7996
    -0.7625  -0.7343  -0.6758  -0.5968  -0.5754  -0.5418  -0.4566  -0.4484
    -0.3940  -0.3510  -0.2782  -0.2465  -0.2182  -0.2094  -0.2000  -0.1463
    -0.1400  -0.0688  -0.0188   0.0146   0.0257   0.0598   0.2646   0.2812
     0.3342   0.4325   0.5050   0.6254   0.6831   0.7044   0.7757   0.8159
     0.8598   0.9222   1.0247   1.0550   1.0579   1.1326   1.1643   1.2062
     1.2103   2.1458   2.1461   2.2328   2.2330   3.9880   4.0819   4.1040
     4.1522   4.2434   4.2786   4.3616   4.3797   4.4295   4.4310   4.4996

     the Fermi energy is     3.9070 ev

!    total energy              =   -2940.41304208 Ry
     estimated scf accuracy    <       0.00000007 Ry
     smearing contrib. (-TS)   =      -0.03731513 Ry
     internal energy E=F+TS    =   -2940.37572695 Ry

     The total energy is F=E-TS. E is the sum of the following terms:
     one-electron contribution =  -23553.11098003 Ry
     hartree contribution      =   11869.24760278 Ry
     xc contribution           =    -485.96008844 Ry
     ewald contribution        =    9229.44356208 Ry
     electric field correction =       0.00417666 Ry

     convergence has been achieved in  88 iterations

     Forces acting on atoms (cartesian axes, Ry/au):

     atom    1 type  1   force =    -0.00002762   -0.00017486    0.09328419
     atom    2 type  1   force =    -0.00015388   -0.00022203   -0.17814750
     atom    3 type  2   force =     0.00006431   -0.00019662   -0.02048807
     atom    4 type  2   force =     0.00000302   -0.00194724    0.05846154
     atom    5 type  2   force =    -0.01028030   -0.00134932    0.00735791
     atom    6 type  2   force =     0.01227530   -0.00075330    0.00785073
     atom    7 type  1   force =     0.00036289    0.00277541   -0.01406067
     atom    8 type  1   force =    -0.00056290    0.00105233   -0.00334822
     atom    9 type  2   force =     0.00003867    0.00049757   -0.00007076
     atom   10 type  2   force =    -0.00055346   -0.00102506   -0.00005486
     atom   11 type  2   force =     0.00009931    0.00011230    0.00004511
     atom   12 type  2   force =    -0.00026955    0.00016233   -0.00006826
     atom   13 type  1   force =    -0.00001184    0.00089584   -0.00029767
     atom   14 type  1   force =     0.00009707    0.00024146   -0.00017623
     atom   15 type  2   force =    -0.00013580    0.00011072    0.00096195
     atom   16 type  2   force =     0.00004520    0.00010858   -0.00006499
     atom   17 type  2   force =     0.00027332   -0.00030897    0.00002254
     atom   18 type  2   force =    -0.00021838   -0.00046255   -0.00047862
     atom   19 type  1   force =    -0.00063212   -0.00021967    0.00009994
     atom   20 type  1   force =    -0.00023582    0.00072231    0.00008164
     atom   21 type  2   force =    -0.00001791    0.00000599    0.10389001
     atom   22 type  2   force =    -0.00030936   -0.00068667   -0.00099529
     atom   23 type  2   force =    -0.07044317   -0.00008974   -0.02688655
     atom   24 type  2   force =     0.07027995    0.00034436   -0.02693969
     atom   25 type  1   force =     0.00005192   -0.00005294    0.09290775
     atom   26 type  1   force =    -0.00017586   -0.00018474   -0.17817829
     atom   27 type  2   force =     0.00012225   -0.00034311   -0.01948507
     atom   28 type  2   force =     0.00003177   -0.00167945    0.05803991
     atom   29 type  2   force =    -0.01040113   -0.00124739    0.00693010
     atom   30 type  2   force =     0.01228438   -0.00092001    0.00743891
     atom   31 type  1   force =     0.00034640    0.00515966   -0.01508609
     atom   32 type  1   force =    -0.00046366   -0.00159567   -0.00357287
     atom   33 type  2   force =    -0.00019414   -0.00021605   -0.00018544
     atom   34 type  2   force =     0.00029118   -0.00053331    0.00103551
     atom   35 type  2   force =    -0.00038872    0.00005709    0.00023750
     atom   36 type  2   force =     0.00032167   -0.00002761    0.00029920
     atom   37 type  1   force =    -0.00011573   -0.00044324   -0.00006062
     atom   38 type  1   force =     0.00012976    0.00033577   -0.00030256
     atom   39 type  2   force =    -0.00034513   -0.00042407    0.00115047
     atom   40 type  2   force =     0.00006824    0.00007471   -0.00018993
     atom   41 type  2   force =     0.00000182    0.00023795   -0.00030865
     atom   42 type  2   force =    -0.00014169    0.00000796   -0.00040594
     atom   43 type  1   force =    -0.00080428   -0.00016473    0.00010684
     atom   44 type  1   force =     0.00010316    0.00048194    0.00001760
     atom   45 type  2   force =    -0.00000901    0.00001007    0.10389166
     atom   46 type  2   force =    -0.07046297   -0.00003445   -0.02688987
     atom   47 type  2   force =     0.07028546    0.00040781   -0.02696193
     atom   48 type  3   force =    -0.00012434   -0.00082034    0.00012707
     atom   49 type  4   force =    -0.00124337    0.00043228   -0.00072965
     atom   50 type  5   force =     0.00034383    0.00004835    0.00090496
     atom   51 type  3   force =     0.00964319   -0.00199437   -0.00140325
     atom   52 type  5   force =    -0.00163493   -0.00033908   -0.00261312
     atom   53 type  5   force =    -0.00265429   -0.00217913    0.00248000
     atom   54 type  5   force =    -0.00455269    0.00635287    0.00082759

     Total force =     0.366244     Total SCF correction =     0.000678
  @ DRIVER MODE: Message from server: STATUS
  @ DRIVER MODE: Message from server: GETFORCE
  @ DRIVER MODE: Returning v,forces,stress,ensemble

     Writing output data file ./calc.save/
  @ DRIVER MODE: Message from server: EXIT
  @ DRIVE MODE: Exiting

     General routines

     Parallel routines

   This run was terminated on:  23:40:46  23Aug2021

   JOB DONE.