     Program PWSCF v.6.7GPU starts on 28Sep2021 at  3:23:39

     R & G space division:  proc/nbgrp/npool/nimage =       8
     Reading input from /storage/home/hcoda1/3/ntian30/research/carbon/CxH_vib/H2O_calc/ads_slab/CHNHO_a/out_0014/pw.inp
Warning: card &CELL ignored
Warning: card   CELL_DYNAMICS='IPI', ignored
Warning: card / ignored

     Current dimensions of program PWSCF are:
     Max number of different atomic species (ntypx) = 10
     Max number of k-points (npk) =  40000
     Max angular momentum in pseudopotentials (lmaxx) =  3
     Presently no symmetry can be used with electric field

     Message from routine cell_base_init:
     DEPRECATED: use true lattice parameter, not A to a.u. conversion factor

     IMPORTANT: XC functional enforced from input :
     Exchange-correlation= BEEF-VDW
                           (   1   4  43  14   2   0   0)
     Any further DFT definition will be discarded
     Please, verify this is what you really want

  @ DRIVER MODE: Connecting to
 qe_1139763_3003541.sched-torque.pace.gatech.edu61no_fec_scratch
  using UNIX socket
  @ DRIVER MODE: Message from server: STATUS
  @ DRIVER MODE: Message from server: INIT
  @ DRIVER MODE: Receiving replica           0          -1
  @ DRIVER MODE: Receiving encoded integer          25
  @ DRIVER MODE:  SCF:  T  FORCE:  T  STRESS:  F  VC:  F  ENSEMBLE:  F
  @ DRIVER MODE:  SCF:  T  FORCE:  T  STRESS:  F  VC:  F  ENSEMBLE:  F

     Using Slab Decomposition

     bravais-lattice index     =            0
     lattice parameter (alat)  =       1.8897  a.u.
     unit-cell volume          =    6658.9804 (a.u.)^3
     number of atoms/cell      =           52
     number of atomic types    =            5
     number of electrons       =       395.00
     number of Kohn-Sham states=          207
     kinetic-energy cutoff     =      29.3995  Ry
     charge density cutoff     =     293.9946  Ry
     scf convergence threshold =      7.3E-08
     mixing beta               =       0.0500
     number of iterations used =            8  plain     mixing
     Exchange-correlation= BEEF-VDW
                           (   1   4  43  14   2   0   0)

     celldm(1)=   1.889726  celldm(2)=   0.000000  celldm(3)=   0.000000
     celldm(4)=   0.000000  celldm(5)=   0.000000  celldm(6)=   0.000000

     crystal axes: (cart. coord. in units of alat)
               a(1) = (   6.579727   0.000000   0.000000 )
               a(2) = (  -0.000775   5.961596   0.000000 )
               a(3) = (   0.000000   0.000000  25.155947 )

     reciprocal axes: (cart. coord. in units 2 pi/alat)
               b(1) = (  0.151982  0.000020  0.000000 )
               b(2) = (  0.000000  0.167740  0.000000 )
               b(3) = (  0.000000  0.000000  0.039752 )

     PseudoPot. # 1 for Ti read from file:
     /storage/coda1/p-amedford6/0/shared/rich_project_chbe-medford/medford-share/data/pseudos_module/espresso/nninc/pbe/van/Ti.UPF
     MD5 check sum: 8e4df49b7f0d34bbd5052bf3f5ea0213
     Pseudo is Ultrasoft, Zval = 12.0
     Generated by new atomic code, or converted to UPF format
     Using radial grid of  851 points,  6 beta functions with:
                l(1) =   0
                l(2) =   0
                l(3) =   1
                l(4) =   1
                l(5) =   2
                l(6) =   2
     Q(r) pseudized with  8 coefficients,  rinner =    1.000   1.000   1.000
                                                       1.000   1.000

     PseudoPot. # 2 for O  read from file:
     /storage/coda1/p-amedford6/0/shared/rich_project_chbe-medford/medford-share/data/pseudos_module/espresso/nninc/pbe/van/O.UPF
     MD5 check sum: 78c19812648e8988a0fe644b0f25305e
     Pseudo is Ultrasoft, Zval =  6.0
     Generated by new atomic code, or converted to UPF format
     Using radial grid of  737 points,  4 beta functions with:
                l(1) =   0
                l(2) =   0
                l(3) =   1
                l(4) =   1
     Q(r) pseudized with  8 coefficients,  rinner =    0.800   0.800   0.800

     PseudoPot. # 3 for N  read from file:
     /storage/coda1/p-amedford6/0/shared/rich_project_chbe-medford/medford-share/data/pseudos_module/espresso/nninc/pbe/van/N.UPF
     MD5 check sum: 90d10febe142ad51ac9d5be1deb811c4
     Pseudo is Ultrasoft, Zval =  5.0
     Generated by new atomic code, or converted to UPF format
     Using radial grid of  729 points,  4 beta functions with:
                l(1) =   0
                l(2) =   0
                l(3) =   1
                l(4) =   1
     Q(r) pseudized with  8 coefficients,  rinner =    0.800   0.800   0.800

     PseudoPot. # 4 for C  read from file:
     /storage/coda1/p-amedford6/0/shared/rich_project_chbe-medford/medford-share/data/pseudos_module/espresso/nninc/pbe/van/C.UPF
     MD5 check sum: 1a69bf6b8db32088f5b2163dbdb77a27
     Pseudo is Ultrasoft, Zval =  4.0
     Generated by new atomic code, or converted to UPF format
     Using radial grid of  721 points,  4 beta functions with:
                l(1) =   0
                l(2) =   0
                l(3) =   1
                l(4) =   1
     Q(r) pseudized with  8 coefficients,  rinner =    0.800   0.800   0.800

     PseudoPot. # 5 for H  read from file:
     /storage/coda1/p-amedford6/0/shared/rich_project_chbe-medford/medford-share/data/pseudos_module/espresso/nninc/pbe/van/H.UPF
     MD5 check sum: b5ee9d7bfd3a09ee7748110bda690ff7
     Pseudo is Ultrasoft, Zval =  1.0
     Generated by new atomic code, or converted to UPF format
     Using radial grid of  615 points,  1 beta functions with:
                l(1) =   0
     Q(r) pseudized with  8 coefficients,  rinner =    0.800

     atomic species   valence    mass     pseudopotential
        Ti1           12.00    47.86700     Ti( 1.00)
        O1             6.00    15.99900     O ( 1.00)
        N1             5.00    14.00700     N ( 1.00)
        C1             4.00    12.01100     C ( 1.00)
        H1             1.00     1.00800     H ( 1.00)

     No symmetry found

   Cartesian axes

     site n.     atom                  positions (alat units)
         1           Ti1 tau(   1) = (   0.0004258   2.9801865   6.0000000  )
         2           Ti1 tau(   2) = (   3.2906075   1.4906267   6.0002472  )
         3           O1  tau(   3) = (   0.0006271   0.0005054   7.9858123  )
         4           O1  tau(   4) = (   3.2906025   0.0005020   7.3038282  )
         5           O1  tau(   5) = (   4.5942328   1.4918067   9.2879030  )
         6           O1  tau(   6) = (   1.9868534   1.4903216   9.2879459  )
         7           Ti1 tau(   7) = (   3.2907910   2.8959150   9.1758416  )
         8           Ti1 tau(   8) = (   0.0015273   1.4827037   9.2680791  )
         9           O1  tau(   9) = (   3.2959632   0.0395795  11.3506057  )
        10           O1  tau(  10) = (   0.0116148   5.9584955  10.6183126  )
        11           O1  tau(  11) = (   1.2788542   1.5152540  12.6826201  )
        12           O1  tau(  12) = (   5.3118026   1.5181145  12.6771052  )
        13           Ti1 tau(  13) = (   6.5565567   2.9614743  12.5245697  )
        14           Ti1 tau(  14) = (   3.2956814   1.5864178  12.4516600  )
        15           O1  tau(  15) = (   0.0252471   5.9065102  14.6673769  )
        16           O1  tau(  16) = (   3.3061784   5.9134112  13.9760755  )
        17           O1  tau(  17) = (   4.5493393   1.5513651  16.1111979  )
        18           O1  tau(  18) = (   2.0154464   1.5530992  16.0877549  )
        19           Ti1 tau(  19) = (   3.2773477   2.9896638  15.7021987  )
        20           Ti1 tau(  20) = (   0.0480268   1.3694702  15.7882682  )
        21           O1  tau(  21) = (   3.2904802   0.0005063   4.7018136  )
        22           O1  tau(  22) = (   6.5727385   0.1062933  17.1740559  )
        23           O1  tau(  23) = (   1.3043587   1.4918075   6.0039043  )
        24           O1  tau(  24) = (   5.2767064   1.4903225   6.0039473  )
        25           Ti1 tau(  25) = (   0.0000382   5.9609847   6.0000000  )
        26           Ti1 tau(  26) = (   3.2902200   4.4714249   6.0002472  )
        27           O1  tau(  27) = (   0.0002396   2.9813036   7.9858123  )
        28           O1  tau(  28) = (   3.2902150   2.9813002   7.3038282  )
        29           O1  tau(  29) = (   4.5938453   4.4726049   9.2879030  )
        30           O1  tau(  30) = (   1.9864658   4.4711199   9.2879459  )
        31           Ti1 tau(  31) = (   3.2891106   5.8743827   9.1763621  )
        32           Ti1 tau(  32) = (   0.0006254   4.4649316   9.2693709  )
        33           O1  tau(  33) = (   3.2965180   2.9598593  11.3174316  )
        34           O1  tau(  34) = (   0.0092240   2.9805883  10.6323155  )
        35           O1  tau(  35) = (   1.2824442   4.4846720  12.6503842  )
        36           O1  tau(  36) = (   5.3188658   4.4853930  12.6478368  )
        37           Ti1 tau(  37) = (   0.0485215   5.9261111  12.5025588  )
        38           Ti1 tau(  38) = (   3.3111372   4.6778342  12.7091208  )
        39           O1  tau(  39) = (   6.5585416   3.0335453  14.9077256  )
        40           O1  tau(  40) = (   3.2962521   3.0064119  13.9315977  )
        41           O1  tau(  41) = (   4.5433468   4.4479239  16.1972702  )
        42           O1  tau(  42) = (   2.0131479   4.4365031  16.1967174  )
        43           Ti1 tau(  43) = (   3.3705753   0.0290894  16.3529554  )
        44           Ti1 tau(  44) = (   0.0540424   4.5922997  16.0496824  )
        45           O1  tau(  45) = (   3.2900926   2.9813045   4.7018136  )
        46           O1  tau(  46) = (   1.3039711   4.4726057   6.0039043  )
        47           O1  tau(  47) = (   5.2763189   4.4711207   6.0039473  )
        48           N1  tau(  48) = (   6.5754701   3.2032128  17.9785674  )
        49           C1  tau(  49) = (   6.5468619   2.3444050  18.7439128  )
        50           H1  tau(  50) = (   6.5291205   1.5204410  19.4189644  )
        51           O1  tau(  51) = (   3.3183073   0.1146119  18.2142577  )
        52           H1  tau(  52) = (   3.2686675   5.2273609  18.6755658  )

     number of k points=    10  Fermi-Dirac smearing, width (Ry)=  0.0073
                       cart. coord. in units 2pi/alat
        k(    1) = (   0.0000000   0.0000000   0.0000000), wk =   0.1250000
        k(    2) = (   0.0000000   0.0419351   0.0000000), wk =   0.2500000
        k(    3) = (   0.0000000  -0.0838702   0.0000000), wk =   0.1250000
        k(    4) = (   0.0379955   0.0000049   0.0000000), wk =   0.2500000
        k(    5) = (   0.0379955   0.0419400   0.0000000), wk =   0.2500000
        k(    6) = (   0.0379955  -0.0838652   0.0000000), wk =   0.2500000
        k(    7) = (   0.0379955  -0.0419301   0.0000000), wk =   0.2500000
        k(    8) = (  -0.0759910  -0.0000099   0.0000000), wk =   0.1250000
        k(    9) = (  -0.0759910   0.0419252   0.0000000), wk =   0.2500000
        k(   10) = (  -0.0759910  -0.0838800   0.0000000), wk =   0.1250000

     Initial potential from superposition of free atoms

     starting charge  378.99918, renormalised to  395.00000

     negative rho (up, down):  1.718E-02 0.000E+00

     %%%%%%%%%%%%%%%%%%%%%%%%%%%%%%%%%%%%%%%%%%%%%%%%%%%%%%%%%%%%%%%%%%%%%%%%
     %                                                                      %
     % You are using vdW-DF, which was implemented by the Thonhauser group. %
     % Please cite the following two papers that made this development      %
     % possible and the two reviews that describe the various versions:     %
     %                                                                      %
     %   T. Thonhauser et al., PRL 115, 136402 (2015).                      %
     %   T. Thonhauser et al., PRB 76, 125112 (2007).                       %
     %   K. Berland et al., Rep. Prog. Phys. 78, 066501 (2015).             %
     %   D.C. Langreth et al., J. Phys.: Condens. Matter 21, 084203 (2009). %
     %                                                                      %
     %                                                                      %
     % If you are calculating the stress with vdW-DF, please also cite:     %
     %                                                                      %
     %   R. Sabatini et al., J. Phys.: Condens. Matter 24, 424209 (2012).   %
     %                                                                      %
     %%%%%%%%%%%%%%%%%%%%%%%%%%%%%%%%%%%%%%%%%%%%%%%%%%%%%%%%%%%%%%%%%%%%%%%%

     Adding external electric field

     Computed dipole along edir(3) :
        Dipole               -8.1496 Ry au,        -20.7143 Debye
        Dipole field         -0.0154 Ry au,

        Potential amp.        1.4257 Ry
        Total length         46.3494 bohr

     Starting wfcs are  298 atomic wfcs
  @ DRIVER MODE: Message from server: STATUS
  @ DRIVER MODE: Message from server: POSDATA
  @ DRIVER MODE: Reading and sharing cell
  @ DRIVER MODE: Reading and sharing positions
  @ DRIVER MODE: Received positions

     Self-consistent Calculation

     iteration #  1     ecut=    29.40 Ry     beta= 0.05
     Davidson diagonalization with overlap
     c_bands:  1 eigenvalues not converged
     c_bands:  2 eigenvalues not converged
     c_bands:  2 eigenvalues not converged
     c_bands:  3 eigenvalues not converged
     c_bands:  3 eigenvalues not converged
     c_bands:  1 eigenvalues not converged
     c_bands:  1 eigenvalues not converged
     ethr =  1.00E-05,  avg # of iterations = 19.3

[...]

     total energy              =   -2615.12058160 Ry
     estimated scf accuracy    <    3704.53989889 Ry

     iteration #  2     ecut=    29.40 Ry     beta= 0.05
     Davidson diagonalization with overlap
     ethr =  1.00E-02,  avg # of iterations = 22.5

[...]

     iteration # 59     ecut=    29.40 Ry     beta= 0.05
     Davidson diagonalization with overlap
     c_bands:  1 eigenvalues not converged
     ethr =  2.13E-07,  avg # of iterations = 14.3

[...]

     total energy              =   -2950.24122490 Ry
     estimated scf accuracy    <       0.00000009 Ry

     iteration # 83     ecut=    29.40 Ry     beta= 0.05
     Davidson diagonalization with overlap
     ethr =  2.31E-11,  avg # of iterations =  5.6

     negative rho (up, down):  1.736E-02 0.000E+00

     Adding external electric field

     Computed dipole along edir(3) :
        Dipole                1.2377 Ry au,          3.1460 Debye
        Dipole field          0.0023 Ry au,

        Potential amp.       -0.2165 Ry
        Total length         46.3494 bohr

     End of self-consistent calculation

          k = 0.0000 0.0000 0.0000 ( 18029 PWs)   bands (ev):

   -55.6681 -55.6172 -55.5831 -55.4458 -55.4419 -55.4411 -55.4091 -55.4086
   -55.4086 -55.3681 -55.3249 -55.2880 -55.2056 -55.0972 -54.5801 -54.5461
   -32.1008 -32.0168 -32.0126 -31.9456 -31.9332 -31.9082 -31.8908 -31.8811
   -31.8629 -31.8549 -31.8190 -31.7697 -31.7293 -31.7228 -31.7143 -31.7078
   -31.6975 -31.6908 -31.6748 -31.6534 -31.6495 -31.6407 -31.6378 -31.6209
   -31.6178 -31.5903 -31.5901 -31.5864 -31.5699 -31.5652 -31.5578 -31.5429
   -31.5411 -31.5211 -31.4899 -31.4785 -31.4754 -31.4194 -31.3991 -31.3487
   -31.3165 -31.3077 -30.9856 -30.9006 -30.8781 -30.8032 -30.7169 -30.6051
   -17.2622 -16.5950 -16.2424 -16.0791 -15.8602 -15.7799 -15.7482 -15.5618
   -15.4501 -15.4017 -15.1913 -15.1484 -15.1314 -15.1139 -15.0903 -15.0862
   -15.0712 -15.0318 -15.0316 -15.0146 -14.9953 -14.9609 -14.9441 -14.8952
   -14.8162 -14.8088 -14.7466 -14.6720 -14.6259 -14.3546 -14.3326 -13.0786
   -12.9624  -8.7408  -4.4757  -4.1511  -3.5978  -3.5146  -3.4862  -3.4409
    -3.3675  -3.2703  -3.0987  -3.0906  -2.9783  -2.9215  -2.8143  -2.7154
    -2.6450  -2.5987  -2.5410  -2.5080  -2.4711  -2.4277  -2.3913  -2.3513
    -2.3249  -2.3156  -2.2568  -2.2280  -2.1305  -2.1239  -2.0862  -1.9933
    -1.9757  -1.9287  -1.9211  -1.9174  -1.8636  -1.8485  -1.8319  -1.7976
    -1.6771  -1.6528  -1.6469  -1.5877  -1.5236  -1.2127  -1.2029  -1.1437
    -1.0678  -1.0364  -1.0101  -0.9920  -0.9310  -0.8928  -0.8789  -0.8608
    -0.7874  -0.6927  -0.6600  -0.6118  -0.4586  -0.4520  -0.3976  -0.3783
    -0.3514  -0.3122  -0.2598  -0.1907  -0.1635  -0.1403  -0.0095   0.0118
     0.0594   0.0734   0.1180   0.1666   0.2010   0.2674   0.3182   0.3396
     0.3570   0.3681   0.4006   0.4206   0.5125   0.5450   0.5947   0.6598
     0.7189   0.7361   0.7889   0.9466   1.0421   1.0701   1.1806   1.3995
     1.4463   1.4989   1.6424   2.0120   2.0569   3.4719   3.6213   3.6383
     3.7277   3.7393   3.8249   3.9593   4.0532   4.1737   4.2150

[...]

          k = 0.0380-0.0419 0.0000 ( 17876 PWs)   bands (ev):

[...]

          k =-0.0760-0.0000 0.0000 ( 17886 PWs)   bands (ev):

[...]

          k =-0.0760-0.0839 0.0000 ( 17948 PWs)   bands (ev):

   -55.6673 -55.6001 -55.6000 -55.4395 -55.4309 -55.4264 -55.4248 -55.4222
   -55.4092 -55.3600 -55.3331 -55.2899 -55.2030 -55.0997 -54.5631 -54.5630
   -31.9556 -31.9436 -31.9162 -31.9161 -31.8938 -31.8936 -31.8931 -31.8694
   -31.7991 -31.7569 -31.7552 -31.7477 -31.7347 -31.7201 -31.7198 -31.7075
   -31.7021 -31.6995 -31.6936 -31.6710 -31.6705 -31.6575 -31.6429 -31.6280
   -31.6262 -31.6235 -31.6151 -31.6058 -31.6046 -31.5980 -31.5951 -31.5797
   -31.5731 -31.5562 -31.5493 -31.5067 -31.4943 -31.4680 -31.4370 -31.4030
   -31.3546 -31.3121 -30.8909 -30.8908 -30.7987 -30.7983 -30.7602 -30.7599
   -17.2550 -16.5863 -15.8701 -15.6497 -15.5800 -15.5748 -15.4399 -15.3697
   -15.3473 -15.3180 -15.3019 -15.2655 -15.2412 -15.2253 -15.1822 -15.1589
   -15.1253 -15.1071 -15.0922 -15.0532 -15.0427 -15.0172 -15.0080 -14.9916
   -14.9346 -14.9126 -14.9036 -14.7713 -14.7365 -14.6641 -14.4727 -13.0644
   -13.0642  -8.7386  -4.4561  -4.1640  -3.3021  -3.1071  -3.0213  -2.8618
    -2.7955  -2.6735  -2.6490  -2.6129  -2.5460  -2.5295  -2.4989  -2.4539
    -2.3939  -2.3724  -2.3668  -2.3421  -2.3319  -2.3011  -2.2858  -2.2756
    -2.2704  -2.2447  -2.2297  -2.2174  -2.1919  -2.1617  -2.1592  -2.1427
    -2.1264  -2.0529  -1.9886  -1.9405  -1.8161  -1.7617  -1.7507  -1.7365
    -1.7215  -1.6838  -1.6772  -1.6386  -1.6131  -1.5014  -1.4215  -1.3781
    -1.3069  -1.1967  -1.1773  -1.1685  -1.1057  -1.0737  -1.0394  -1.0376
    -0.9324  -0.9020  -0.8164  -0.7624  -0.7275  -0.6621  -0.5708  -0.5558
    -0.5461  -0.5234  -0.5033  -0.4878  -0.4613  -0.4237  -0.3422  -0.3049
    -0.3000  -0.2993  -0.2479  -0.1737  -0.1101   0.0763   0.1642   0.1719
     0.2199   0.2577   0.4512   0.4860   0.5144   0.5293   0.5766   0.6290
     0.6928   0.7091   0.7570   0.8221   0.9125   0.9384   0.9712   0.9821
     1.0287   1.8106   1.8182   1.8772   1.8773   3.6420   3.9482   3.9869
     4.0053   4.0134   4.0519   4.0557   4.0751   4.1539   4.1634

     the Fermi energy is     3.5058 ev

!    total energy              =   -2950.24123086 Ry
     estimated scf accuracy    <       0.00000007 Ry
     smearing contrib. (-TS)   =      -0.01956947 Ry
     internal energy E=F+TS    =   -2950.22166139 Ry

     The total energy is F=E-TS. E is the sum of the following terms:
     one-electron contribution =  -23960.76285751 Ry
     hartree contribution      =   12071.35774653 Ry
     xc contribution           =    -486.32594009 Ry
     ewald contribution        =    9425.50649871 Ry
     electric field correction =       0.00289097 Ry

     convergence has been achieved in  83 iterations

     Forces acting on atoms (cartesian axes, Ry/au):

     atom    1 type  1   force =     0.00007166   -0.00023087    0.09444662
     atom    2 type  1   force =     0.00000545    0.00017890   -0.17481994
     atom    3 type  2   force =     0.00002763   -0.00043119   -0.02144499
     atom    4 type  2   force =     0.00004107   -0.00080030    0.05274634
     atom    5 type  2   force =    -0.00430924   -0.00229150    0.00043329
     atom    6 type  2   force =     0.00597256   -0.00164122    0.00006585
     atom    7 type  1   force =    -0.00012042    0.00325840    0.01148523
     atom    8 type  1   force =     0.00013816    0.00254407    0.00476359
     atom    9 type  2   force =    -0.00017476    0.00027118   -0.00022302
     atom   10 type  2   force =    -0.00077663    0.00345382   -0.01160988
     atom   11 type  2   force =     0.00053442   -0.00039792    0.00028834
     atom   12 type  2   force =    -0.00003203   -0.00024212    0.00012681
     atom   13 type  1   force =    -0.00103246   -0.00039476    0.00001610
     atom   14 type  1   force =     0.00080752    0.00052119   -0.00016254
     atom   15 type  2   force =     0.00021928   -0.00010001   -0.00060500
     atom   16 type  2   force =    -0.00033246   -0.00073019    0.00085741
     atom   17 type  2   force =     0.00072430    0.00007408   -0.00059618
     atom   18 type  2   force =    -0.00041824   -0.00015942    0.00018318
     atom   19 type  1   force =     0.00057618    0.00085716    0.00023905
     atom   20 type  1   force =     0.00007926   -0.00027250   -0.00022773
     atom   21 type  2   force =     0.00008868    0.00000730    0.10300382
     atom   22 type  2   force =     0.00008830    0.00081613   -0.00022148
     atom   23 type  2   force =    -0.07226889   -0.00017268   -0.02734942
     atom   24 type  2   force =     0.07224483    0.00023832   -0.02739783
     atom   25 type  1   force =     0.00014255   -0.00024765    0.09437750
     atom   26 type  1   force =    -0.00008550   -0.00124656   -0.17480259
     atom   27 type  2   force =     0.00020580   -0.00006624   -0.02022893
     atom   28 type  2   force =     0.00009569   -0.00096191    0.04854346
     atom   29 type  2   force =    -0.00684474    0.00193244    0.00269026
     atom   30 type  2   force =     0.00839525    0.00226699    0.00215362
     atom   31 type  1   force =     0.00004675    0.00103538    0.00136053
     atom   32 type  1   force =     0.00009869   -0.00336282    0.00512012
     atom   33 type  2   force =    -0.00015865   -0.00021710    0.00012260
     atom   34 type  2   force =    -0.00192637   -0.00084089   -0.01108084
     atom   35 type  2   force =     0.00067405   -0.00019571    0.00003024
     atom   36 type  2   force =    -0.00004839    0.00011125    0.00002779
     atom   37 type  1   force =    -0.00124120   -0.00011618   -0.00038491
     atom   38 type  1   force =     0.00067850    0.00015257    0.00067937
     atom   39 type  2   force =     0.00025720   -0.00078820    0.00006824
     atom   40 type  2   force =    -0.00035835   -0.00014689    0.00023620
     atom   41 type  2   force =    -0.00087483   -0.00047824    0.00018320
     atom   42 type  2   force =     0.00037316   -0.00053912   -0.00018788
     atom   43 type  1   force =     0.00030006   -0.00009940   -0.00001995
     atom   44 type  1   force =    -0.00091049   -0.00035059   -0.00000092
     atom   45 type  2   force =     0.00008133    0.00003729    0.10285356
     atom   46 type  2   force =    -0.07219938   -0.00008504   -0.02728258
     atom   47 type  2   force =     0.07219976    0.00037677   -0.02733532
     atom   48 type  3   force =    -0.00042514    0.00032427   -0.00086511
     atom   49 type  4   force =     0.00100096   -0.00041314    0.00032378
     atom   50 type  5   force =    -0.00084551    0.00003989    0.00021358
     atom   51 type  2   force =    -0.00028725    0.00072923   -0.00134012
     atom   52 type  5   force =    -0.00049810   -0.00120626    0.00054749

     Total force =     0.361542     Total SCF correction =     0.000847
  @ DRIVER MODE: Message from server: STATUS
  @ DRIVER MODE: Message from server: GETFORCE
  @ DRIVER MODE: Returning v,forces,stress,ensemble

     Writing output data file ./calc.save/
  @ DRIVER MODE: Message from server: EXIT
  @ DRIVE MODE: Exiting

     General routines

     Parallel routines

   This run was terminated on:   3:49:19  28Sep2021

   JOB DONE.