     Program PWSCF v.6.7GPU starts on 23Sep2021 at 11:17:55

     R & G space division:  proc/nbgrp/npool/nimage =       8
     Reading input from /storage/home/hcoda1/3/ntian30/research/carbon/CxH_vib/H2O_calc/ads_slab/CH3N2HHO_a/out_0033/pw.inp
Warning: card &CELL ignored
Warning: card   CELL_DYNAMICS='IPI', ignored
Warning: card / ignored

     Current dimensions of program PWSCF are:
     Max number of different atomic species (ntypx) = 10
     Max number of k-points (npk) =  40000
     Max angular momentum in pseudopotentials (lmaxx) =  3
     Presently no symmetry can be used with electric field

     Message from routine cell_base_init:
     DEPRECATED: use true lattice parameter, not A to a.u. conversion factor

     IMPORTANT: XC functional enforced from input :
     Exchange-correlation= BEEF-VDW
                           (   1   4  43  14   2   0   0)
     Any further DFT definition will be discarded
     Please, verify this is what you really want

  @ DRIVER MODE: Connecting to
 qe_1139763_2941009.sched-torque.pace.gatech.edugfdxfx4q_scratch
  using UNIX socket
  @ DRIVER MODE: Message from server: STATUS
  @ DRIVER MODE: Message from server: INIT
  @ DRIVER MODE: Receiving replica           0          -1
  @ DRIVER MODE: Receiving encoded integer          25
  @ DRIVER MODE:  SCF:  T  FORCE:  T  STRESS:  F  VC:  F  ENSEMBLE:  F
  @ DRIVER MODE:  SCF:  T  FORCE:  T  STRESS:  F  VC:  F  ENSEMBLE:  F

     Using Slab Decomposition

     bravais-lattice index     =            0
     lattice parameter (alat)  =       1.8897  a.u.
     unit-cell volume          =    6658.9804 (a.u.)^3
     number of atoms/cell      =           56
     number of atomic types    =            5
     number of electrons       =       403.00
     number of Kohn-Sham states=          211
     kinetic-energy cutoff     =      29.3995  Ry
     charge density cutoff     =     293.9946  Ry
     scf convergence threshold =      7.3E-08
     mixing beta               =       0.0500
     number of iterations used =            8  plain     mixing
     Exchange-correlation= BEEF-VDW
                           (   1   4  43  14   2   0   0)

     celldm(1)=   1.889726  celldm(2)=   0.000000  celldm(3)=   0.000000
     celldm(4)=   0.000000  celldm(5)=   0.000000  celldm(6)=   0.000000

     crystal axes: (cart. coord. in units of alat)
               a(1) = (   6.579727   0.000000   0.000000 )
               a(2) = (  -0.000775   5.961596   0.000000 )
               a(3) = (   0.000000   0.000000  25.155947 )

     reciprocal axes: (cart. coord. in units 2 pi/alat)
               b(1) = (  0.151982  0.000020  0.000000 )
               b(2) = (  0.000000  0.167740  0.000000 )
               b(3) = (  0.000000  0.000000  0.039752 )

     PseudoPot. # 1 for Ti read from file:
     /storage/coda1/p-amedford6/0/shared/rich_project_chbe-medford/medford-share/data/pseudos_module/espresso/nninc/pbe/van/Ti.UPF
     MD5 check sum: 8e4df49b7f0d34bbd5052bf3f5ea0213
     Pseudo is Ultrasoft, Zval = 12.0
     Generated by new atomic code, or converted to UPF format
     Using radial grid of  851 points,  6 beta functions with:
                l(1) =   0
                l(2) =   0
                l(3) =   1
                l(4) =   1
                l(5) =   2
                l(6) =   2
     Q(r) pseudized with  8 coefficients,  rinner =    1.000   1.000   1.000
                                                       1.000   1.000

     PseudoPot. # 2 for O  read from file:
     /storage/coda1/p-amedford6/0/shared/rich_project_chbe-medford/medford-share/data/pseudos_module/espresso/nninc/pbe/van/O.UPF
     MD5 check sum: 78c19812648e8988a0fe644b0f25305e
     Pseudo is Ultrasoft, Zval =  6.0
     Generated by new atomic code, or converted to UPF format
     Using radial grid of  737 points,  4 beta functions with:
                l(1) =   0
                l(2) =   0
                l(3) =   1
                l(4) =   1
     Q(r) pseudized with  8 coefficients,  rinner =    0.800   0.800   0.800

     PseudoPot. # 3 for N  read from file:
     /storage/coda1/p-amedford6/0/shared/rich_project_chbe-medford/medford-share/data/pseudos_module/espresso/nninc/pbe/van/N.UPF
     MD5 check sum: 90d10febe142ad51ac9d5be1deb811c4
     Pseudo is Ultrasoft, Zval =  5.0
     Generated by new atomic code, or converted to UPF format
     Using radial grid of  729 points,  4 beta functions with:
                l(1) =   0
                l(2) =   0
                l(3) =   1
                l(4) =   1
     Q(r) pseudized with  8 coefficients,  rinner =    0.800   0.800   0.800

     PseudoPot. # 4 for C  read from file:
     /storage/coda1/p-amedford6/0/shared/rich_project_chbe-medford/medford-share/data/pseudos_module/espresso/nninc/pbe/van/C.UPF
     MD5 check sum: 1a69bf6b8db32088f5b2163dbdb77a27
     Pseudo is Ultrasoft, Zval =  4.0
     Generated by new atomic code, or converted to UPF format
     Using radial grid of  721 points,  4 beta functions with:
                l(1) =   0
                l(2) =   0
                l(3) =   1
                l(4) =   1
     Q(r) pseudized with  8 coefficients,  rinner =    0.800   0.800   0.800

     PseudoPot. # 5 for H  read from file:
     /storage/coda1/p-amedford6/0/shared/rich_project_chbe-medford/medford-share/data/pseudos_module/espresso/nninc/pbe/van/H.UPF
     MD5 check sum: b5ee9d7bfd3a09ee7748110bda690ff7
     Pseudo is Ultrasoft, Zval =  1.0
     Generated by new atomic code, or converted to UPF format
     Using radial grid of  615 points,  1 beta functions with:
                l(1) =   0
     Q(r) pseudized with  8 coefficients,  rinner =    0.800

     atomic species   valence    mass     pseudopotential
        Ti1           12.00    47.86700     Ti( 1.00)
        O1             6.00    15.99900     O ( 1.00)
        N1             5.00    14.00700     N ( 1.00)
        C1             4.00    12.01100     C ( 1.00)
        H1             1.00     1.00800     H ( 1.00)

     No symmetry found

   Cartesian axes

     site n.     atom                  positions (alat units)
         1           Ti1 tau(   1) = (   0.0004258   2.9801865   6.0000000  )
         2           Ti1 tau(   2) = (   3.2906075   1.4906267   6.0002472  )
         3           O1  tau(   3) = (   0.0006271   0.0005054   7.9858123  )
         4           O1  tau(   4) = (   3.2906025   0.0005020   7.3038282  )
         5           O1  tau(   5) = (   4.5942328   1.4918067   9.2879030  )
         6           O1  tau(   6) = (   1.9868534   1.4903216   9.2879459  )
         7           Ti1 tau(   7) = (   3.2907910   2.8959150   9.1758416  )
         8           Ti1 tau(   8) = (   0.0015273   1.4827037   9.2680791  )
         9           O1  tau(   9) = (   3.2827749   5.9542966  11.3123607  )
        10           O1  tau(  10) = (   0.0116148   5.9584955  10.6183126  )
        11           O1  tau(  11) = (   1.2790800   1.4852124  12.6463597  )
        12           O1  tau(  12) = (   5.2943908   1.4901875  12.6352807  )
        13           Ti1 tau(  13) = (   6.5507123   3.1127926  12.6266869  )
        14           Ti1 tau(  14) = (   3.2873181   1.3120036  12.6863921  )
        15           O1  tau(  15) = (   6.5656690   0.0172326  14.6855350  )
        16           O1  tau(  16) = (   3.2842416   0.0515509  13.9244022  )
        17           O1  tau(  17) = (   4.5437539   1.5966601  16.0680646  )
        18           O1  tau(  18) = (   2.0303991   1.5956099  16.0781401  )
        19           Ti1 tau(  19) = (   3.2961159   3.0594788  15.6697774  )
        20           Ti1 tau(  20) = (   6.5318457   1.5630605  15.7780207  )
        21           O1  tau(  21) = (   3.2904802   0.0005063   4.7018136  )
        22           O1  tau(  22) = (   6.5726385   0.0820865  17.2550913  )
        23           O1  tau(  23) = (   1.3043587   1.4918075   6.0039043  )
        24           O1  tau(  24) = (   5.2767064   1.4903225   6.0039473  )
        25           Ti1 tau(  25) = (   0.0000382   5.9609847   6.0000000  )
        26           Ti1 tau(  26) = (   3.2902200   4.4714249   6.0002472  )
        27           O1  tau(  27) = (   0.0002396   2.9813036   7.9858123  )
        28           O1  tau(  28) = (   3.2902150   2.9813002   7.3038282  )
        29           O1  tau(  29) = (   4.5938453   4.4726049   9.2879030  )
        30           O1  tau(  30) = (   1.9864658   4.4711199   9.2879459  )
        31           Ti1 tau(  31) = (   3.2891106   5.8743827   9.1763621  )
        32           Ti1 tau(  32) = (   0.0006254   4.4649316   9.2693709  )
        33           O1  tau(  33) = (   3.2807365   3.0201584  11.2787527  )
        34           O1  tau(  34) = (   0.0092240   2.9805883  10.6323155  )
        35           O1  tau(  35) = (   1.2751182   4.4744369  12.6357194  )
        36           O1  tau(  36) = (   5.2842299   4.4734050  12.6250694  )
        37           Ti1 tau(  37) = (   0.0094520   0.1224552  12.5707632  )
        38           Ti1 tau(  38) = (   3.2670701   4.4034752  12.4162930  )
        39           O1  tau(  39) = (   6.5622168   3.0106679  14.6773207  )
        40           O1  tau(  40) = (   3.2891587   3.0115246  13.8909557  )
        41           O1  tau(  41) = (   4.5321968   4.4927823  16.1577793  )
        42           O1  tau(  42) = (   2.0250423   4.4919485  16.1304878  )
        43           Ti1 tau(  43) = (   3.2250977   0.0853664  16.3312049  )
        44           Ti1 tau(  44) = (   6.5532039   4.7053171  16.1332850  )
        45           O1  tau(  45) = (   3.2900926   2.9813045   4.7018136  )
        46           O1  tau(  46) = (   1.3039711   4.4726057   6.0039043  )
        47           O1  tau(  47) = (   5.2763189   4.4711207   6.0039473  )
        48           N1  tau(  48) = (   0.0650423   2.5931692  18.6004617  )
        49           N1  tau(  49) = (   0.0051179   2.9528117  17.3995676  )
        50           C1  tau(  50) = (   0.1360749   3.5155665  19.7334966  )
        51           H1  tau(  51) = (   6.1082608   4.3937080  19.5213757  )
        52           H1  tau(  52) = (   6.3628389   3.0028702  20.6266755  )
        53           H1  tau(  53) = (   1.1699357   3.8305576  19.8861820  )
        54           H1  tau(  54) = (   0.1060244   1.5775976  18.7788705  )
        55           O1  tau(  55) = (   3.2396048   0.1449850  18.2004881  )
        56           H1  tau(  56) = (   3.4111690   5.2654565  18.6466900  )

     number of k points=    10  Fermi-Dirac smearing, width (Ry)=  0.0073
                       cart. coord. in units 2pi/alat
        k(    1) = (   0.0000000   0.0000000   0.0000000), wk =   0.1250000
        k(    2) = (   0.0000000   0.0419351   0.0000000), wk =   0.2500000
        k(    3) = (   0.0000000  -0.0838702   0.0000000), wk =   0.1250000
        k(    4) = (   0.0379955   0.0000049   0.0000000), wk =   0.2500000
        k(    5) = (   0.0379955   0.0419400   0.0000000), wk =   0.2500000
        k(    6) = (   0.0379955  -0.0838652   0.0000000), wk =   0.2500000
        k(    7) = (   0.0379955  -0.0419301   0.0000000), wk =   0.2500000
        k(    8) = (  -0.0759910  -0.0000099   0.0000000), wk =   0.1250000
        k(    9) = (  -0.0759910   0.0419252   0.0000000), wk =   0.2500000
        k(   10) = (  -0.0759910  -0.0838800   0.0000000), wk =   0.1250000

     Initial potential from superposition of free atoms

     starting charge  386.99914, renormalised to  403.00000

     negative rho (up, down):  1.430E-02 0.000E+00

     %%%%%%%%%%%%%%%%%%%%%%%%%%%%%%%%%%%%%%%%%%%%%%%%%%%%%%%%%%%%%%%%%%%%%%%%
     %                                                                      %
     % You are using vdW-DF, which was implemented by the Thonhauser group. %
     % Please cite the following two papers that made this development      %
     % possible and the two reviews that describe the various versions:     %
     %                                                                      %
     %   T. Thonhauser et al., PRL 115, 136402 (2015).                      %
     %   T. Thonhauser et al., PRB 76, 125112 (2007).                       %
     %   K. Berland et al., Rep. Prog. Phys. 78, 066501 (2015).             %
     %   D.C. Langreth et al., J. Phys.: Condens. Matter 21, 084203 (2009). %
     %                                                                      %
     %                                                                      %
     % If you are calculating the stress with vdW-DF, please also cite:     %
     %                                                                      %
     %   R. Sabatini et al., J. Phys.: Condens. Matter 24, 424209 (2012).   %
     %                                                                      %
     %%%%%%%%%%%%%%%%%%%%%%%%%%%%%%%%%%%%%%%%%%%%%%%%%%%%%%%%%%%%%%%%%%%%%%%%

     Adding external electric field

     Computed dipole along edir(3) :
        Dipole              -12.7219 Ry au,        -32.3358 Debye
        Dipole field         -0.0240 Ry au,

        Potential amp.        2.2255 Ry
        Total length         46.3494 bohr

     Starting wfcs are  305 atomic wfcs
  @ DRIVER MODE: Message from server: STATUS
  @ DRIVER MODE: Message from server: POSDATA
  @ DRIVER MODE: Reading and sharing cell
  @ DRIVER MODE: Reading and sharing positions
  @ DRIVER MODE: Received positions

     Self-consistent Calculation

     iteration #  1     ecut=    29.40 Ry     beta= 0.05
     Davidson diagonalization with overlap
     c_bands:  5 eigenvalues not converged
     c_bands:  4 eigenvalues not converged
     c_bands:  3 eigenvalues not converged
     c_bands:  4 eigenvalues not converged
     c_bands:  5 eigenvalues not converged
     c_bands:  4 eigenvalues not converged
     c_bands:  1 eigenvalues not converged
     c_bands:  4 eigenvalues not converged
     ethr =  1.00E-05,  avg # of iterations = 25.4

[...]

     total energy              =   -2361.21811205 Ry
     estimated scf accuracy    <    6936.00657570 Ry

     iteration #  2     ecut=    29.40 Ry     beta= 0.05
     Davidson diagonalization with overlap
     ethr =  1.00E-02,  avg # of iterations = 23.7

[...]

     iteration # 53     ecut=    29.40 Ry     beta= 0.05
     Davidson diagonalization with overlap
     c_bands:  1 eigenvalues not converged
     ethr =  1.77E-06,  avg # of iterations = 11.1

[...]

     total energy              =   -2973.99528940 Ry
     estimated scf accuracy    <       0.00000010 Ry

     iteration # 81     ecut=    29.40 Ry     beta= 0.05
     Davidson diagonalization with overlap
     ethr =  2.03E-11,  avg # of iterations =  2.4

     negative rho (up, down):  1.502E-02 0.000E+00

     Adding external electric field

     Computed dipole along edir(3) :
        Dipole                1.1960 Ry au,          3.0399 Debye
        Dipole field          0.0023 Ry au,

        Potential amp.       -0.2092 Ry
        Total length         46.3494 bohr

     End of self-consistent calculation

          k = 0.0000 0.0000 0.0000 ( 18029 PWs)   bands (ev):

   -55.6993 -55.6654 -55.3851 -55.3511 -55.2771 -55.1684 -55.1133 -55.0355
   -54.9895 -54.9579 -54.8292 -54.7357 -54.6945 -54.6239 -54.5264 -54.4924
   -32.1592 -31.9935 -31.9696 -31.8607 -31.8543 -31.7827 -31.7611 -31.6505
   -31.6062 -31.6033 -31.5923 -31.5385 -31.5361 -31.5168 -31.4957 -31.4919
   -31.4881 -31.3941 -31.3855 -31.3700 -31.3342 -31.3150 -31.3046 -31.2940
   -31.2736 -31.2706 -31.2365 -31.1987 -31.1757 -31.1737 -31.1647 -31.1462
   -31.0962 -31.0293 -30.9910 -30.9518 -30.9495 -30.9258 -30.9197 -30.9055
   -30.8951 -30.8560 -30.8378 -30.8341 -30.8327 -30.7440 -30.6588 -30.5469
   -19.0760 -16.2305 -16.0557 -15.7645 -15.5939 -15.3868 -15.3582 -15.2626
   -15.1596 -15.1434 -15.0391 -14.9743 -14.8895 -14.8205 -14.8014 -14.7521
   -14.7226 -14.6951 -14.6801 -14.6709 -14.6329 -14.6006 -14.5838 -14.5080
   -14.4630 -14.4444 -14.4172 -14.3527 -14.2562 -13.9909 -13.9275 -13.0239
   -12.9105 -12.5841  -9.3447  -6.2126  -4.7704  -4.7369  -3.7778  -3.5346
    -3.4416  -3.3295  -3.1210  -3.0716  -2.8937  -2.7724  -2.7525  -2.5319
    -2.5043  -2.3922  -2.3775  -2.3382  -2.3247  -2.2904  -2.2240  -2.1957
    -2.1240  -2.0637  -2.0366  -2.0028  -1.9495  -1.8953  -1.8900  -1.8761
    -1.8187  -1.7514  -1.7225  -1.7131  -1.6693  -1.6059  -1.5971  -1.5810
    -1.5619  -1.5408  -1.3972  -1.2911  -1.2301  -1.1919  -1.1422  -1.0850
    -1.0322  -1.0194  -0.9189  -0.8388  -0.7973  -0.6804  -0.6526  -0.6117
    -0.5274  -0.5032  -0.4608  -0.4418  -0.4000  -0.3929  -0.2878  -0.2704
    -0.2364  -0.1932  -0.0750  -0.0267  -0.0184   0.0626   0.1223   0.2025
     0.2439   0.2592   0.2838   0.3700   0.3975   0.4150   0.4234   0.4952
     0.5141   0.5630   0.6166   0.6993   0.7116   0.7516   0.7862   0.7991
     0.9287   0.9371   1.0267   1.0510   1.0618   1.1261   1.2202   1.2802
     1.3912   1.4056   1.4983   1.4990   1.5195   1.7180   1.8920   2.0512
     2.0915   3.5021   3.6213   3.6836   3.7211   3.9318   3.9434   4.2054
     4.2810   4.2846   4.3748

[...]

          k = 0.0380-0.0419 0.0000 ( 17876 PWs)   bands (ev):

[...]

          k =-0.0760-0.0000 0.0000 ( 17886 PWs)   bands (ev):

[...]

          k =-0.0760-0.0839 0.0000 ( 17948 PWs)   bands (ev):

   -55.6824 -55.6820 -55.3707 -55.3654 -55.2764 -55.1625 -55.1190 -55.0277
   -54.9971 -54.9583 -54.8272 -54.7334 -54.6964 -54.6261 -54.5099 -54.5088
   -31.9793 -31.9790 -31.9747 -31.9746 -31.8060 -31.8055 -31.6889 -31.6833
   -31.5689 -31.5648 -31.5633 -31.5571 -31.5533 -31.4926 -31.4824 -31.4666
   -31.4336 -31.3845 -31.3827 -31.3603 -31.3458 -31.3451 -31.3332 -31.3330
   -31.2566 -31.2434 -31.2363 -31.2322 -31.2048 -31.1934 -31.1645 -31.1553
   -31.0883 -31.0390 -31.0345 -30.9914 -30.9583 -30.9531 -30.9524 -30.9104
   -30.8725 -30.8460 -30.8452 -30.8369 -30.7404 -30.7391 -30.7020 -30.7011
   -19.0726 -16.2234 -15.4704 -15.4601 -15.3161 -15.3067 -15.2295 -15.1395
   -15.1212 -15.0927 -15.0442 -15.0217 -14.9406 -14.8843 -14.8651 -14.8396
   -14.8211 -14.8066 -14.7486 -14.7457 -14.7300 -14.7169 -14.6506 -14.6123
   -14.5819 -14.5755 -14.4671 -14.3879 -14.3035 -14.1552 -14.0641 -13.0135
   -13.0130 -12.5845  -9.3513  -6.2055  -4.7687  -4.7287  -3.7712  -3.4134
    -2.6491  -2.6058  -2.5155  -2.4390  -2.4356  -2.3829  -2.3822  -2.3006
    -2.2482  -2.1901  -2.1658  -2.1579  -2.1571  -2.1261  -2.1174  -2.0627
    -2.0578  -2.0404  -2.0374  -1.9811  -1.9562  -1.9420  -1.8902  -1.8348
    -1.7843  -1.7478  -1.7261  -1.6860  -1.6660  -1.6631  -1.5789  -1.5658
    -1.5366  -1.5091  -1.4643  -1.4344  -1.3792  -1.3570  -1.3007  -1.1734
    -1.1020  -1.0161  -0.9109  -0.8894  -0.8565  -0.8233  -0.8105  -0.7882
    -0.7555  -0.6401  -0.6296  -0.5801  -0.5477  -0.5195  -0.5029  -0.4750
    -0.4522  -0.3513  -0.3092  -0.2796  -0.2393  -0.2053  -0.1770  -0.1439
    -0.0928  -0.0531  -0.0434  -0.0122   0.0218   0.0361   0.1895   0.2687
     0.4018   0.4297   0.5200   0.5670   0.5987   0.6282   0.6561   0.7759
     0.8234   0.8456   0.8823   0.9038   1.0022   1.0991   1.1195   1.1873
     1.2222   1.3274   1.3584   1.4461   1.4970   1.8809   1.8888   1.9097
     1.9102   3.3797   4.0471   4.0500   4.0616   4.0749   4.2401   4.2428
     4.3434   4.3676   4.4849

     the Fermi energy is     3.4586 ev

!    total energy              =   -2973.99529792 Ry
     estimated scf accuracy    <       0.00000005 Ry
     smearing contrib. (-TS)   =      -0.01689481 Ry
     internal energy E=F+TS    =   -2973.97840311 Ry

     The total energy is F=E-TS. E is the sum of the following terms:
     one-electron contribution =  -23437.90787557 Ry
     hartree contribution      =   11816.41783923 Ry
     xc contribution           =    -493.95812195 Ry
     ewald contribution        =    9141.46705582 Ry
     electric field correction =       0.00269936 Ry

     convergence has been achieved in  81 iterations

     Forces acting on atoms (cartesian axes, Ry/au):

     atom    1 type  1   force =     0.00012146   -0.00024208    0.10266884
     atom    2 type  1   force =    -0.00011970    0.00008908   -0.16809195
     atom    3 type  2   force =    -0.00000895    0.00045739   -0.03240509
     atom    4 type  2   force =     0.00002724   -0.00097409    0.04010408
     atom    5 type  2   force =    -0.00542671   -0.00191590   -0.00433094
     atom    6 type  2   force =     0.00666149   -0.00136093   -0.00592995
     atom    7 type  1   force =    -0.00053804   -0.00531311    0.03001990
     atom    8 type  1   force =     0.00069675    0.00860550    0.04849388
     atom    9 type  2   force =     0.00012312   -0.00131202   -0.00105884
     atom   10 type  2   force =    -0.00253555    0.00301208   -0.03412743
     atom   11 type  2   force =    -0.00037310   -0.00008236   -0.00022726
     atom   12 type  2   force =     0.00047224   -0.00036584   -0.00010978
     atom   13 type  1   force =     0.00022760   -0.00162267    0.00016358
     atom   14 type  1   force =     0.00017594   -0.00078410    0.00069233
     atom   15 type  2   force =     0.00008758    0.00003327   -0.00027320
     atom   16 type  2   force =    -0.00013116    0.00005172    0.00173551
     atom   17 type  2   force =    -0.00103388   -0.00058323    0.00040213
     atom   18 type  2   force =     0.00065985   -0.00110270    0.00052982
     atom   19 type  1   force =     0.00060041   -0.00098102   -0.00075606
     atom   20 type  1   force =    -0.00076185   -0.00039868   -0.00024980
     atom   21 type  2   force =     0.00004957    0.00012286    0.10115127
     atom   22 type  2   force =    -0.00010927    0.00053634    0.00036607
     atom   23 type  2   force =    -0.07541553   -0.00012034   -0.02930149
     atom   24 type  2   force =     0.07532797    0.00030109   -0.02932038
     atom   25 type  1   force =     0.00013820   -0.00023112    0.10279683
     atom   26 type  1   force =    -0.00004035   -0.00130613   -0.16849803
     atom   27 type  2   force =     0.00011843    0.00017321   -0.03117645
     atom   28 type  2   force =    -0.00000902    0.00072109    0.03582361
     atom   29 type  2   force =    -0.00425486    0.00378353   -0.00626013
     atom   30 type  2   force =     0.00527819    0.00442095   -0.00778531
     atom   31 type  1   force =    -0.00054060    0.00494991    0.01591515
     atom   32 type  1   force =     0.00077041   -0.01041572    0.04918077
     atom   33 type  2   force =     0.00002683   -0.00090240   -0.00137189
     atom   34 type  2   force =    -0.00240538    0.00222244   -0.04429560
     atom   35 type  2   force =     0.00056003    0.00020799   -0.00013326
     atom   36 type  2   force =    -0.00018985    0.00024078   -0.00006279
     atom   37 type  1   force =     0.00026949    0.00037384   -0.00048376
     atom   38 type  1   force =     0.00042112    0.00140785    0.00104397
     atom   39 type  2   force =     0.00036322    0.00045875    0.00011796
     atom   40 type  2   force =     0.00005901    0.00015709    0.00049685
     atom   41 type  2   force =    -0.00092669   -0.00023151    0.00011595
     atom   42 type  2   force =     0.00043580    0.00024661    0.00033116
     atom   43 type  1   force =     0.00027494    0.00025804   -0.00155144
     atom   44 type  1   force =    -0.00066356   -0.00016862   -0.00094517
     atom   45 type  2   force =     0.00007036   -0.00002151    0.10095478
     atom   46 type  2   force =    -0.07547285   -0.00005170   -0.02932008
     atom   47 type  2   force =     0.07538577    0.00038227   -0.02931569
     atom   48 type  3   force =    -0.00137108   -0.00047175    0.00030246
     atom   49 type  3   force =     0.00034314   -0.00065341   -0.00109367
     atom   50 type  4   force =    -0.00124225   -0.00105572    0.00030011
     atom   51 type  5   force =     0.00104968   -0.00044923   -0.00123382
     atom   52 type  5   force =    -0.00073698   -0.00069482   -0.00052905
     atom   53 type  5   force =     0.00266638    0.00203700   -0.00044049
     atom   54 type  5   force =    -0.00005411   -0.00067656   -0.00139781
     atom   55 type  2   force =    -0.00031999    0.00038979   -0.00095023
     atom   56 type  5   force =     0.00121914   -0.00115120   -0.00068016

     Total force =     0.372774     Total SCF correction =     0.000631
  @ DRIVER MODE: Message from server: STATUS
  @ DRIVER MODE: Message from server: GETFORCE
  @ DRIVER MODE: Returning v,forces,stress,ensemble

     Writing output data file ./calc.save/
  @ DRIVER MODE: Message from server: EXIT
  @ DRIVE MODE: Exiting

     General routines

     Parallel routines

   This run was terminated on:  11:44:45  23Sep2021

   JOB DONE.