     Program PWSCF v.6.7GPU starts on 23Sep2021 at  2:24:52

     R & G space division:  proc/nbgrp/npool/nimage =       8
     Reading input from /storage/home/hcoda1/3/ntian30/research/carbon/CxH_vib/H2O_calc/ads_slab/CH3N2HO_c/out_0011/pw.inp
Warning: card &CELL ignored
Warning: card   CELL_DYNAMICS='IPI', ignored
Warning: card / ignored

     Current dimensions of program PWSCF are:
     Max number of different atomic species (ntypx) = 10
     Max number of k-points (npk) =  40000
     Max angular momentum in pseudopotentials (lmaxx) =  3
     Presently no symmetry can be used with electric field

     Message from routine cell_base_init:
     DEPRECATED: use true lattice parameter, not A to a.u. conversion factor

     IMPORTANT: XC functional enforced from input :
     Exchange-correlation= BEEF-VDW
                           (   1   4  43  14   2   0   0)
     Any further DFT definition will be discarded
     Please, verify this is what you really want

  @ DRIVER MODE: Connecting to
 qe_1139763_2941007.sched-torque.pace.gatech.eduh6cgtm_6_scratch
  using UNIX socket
  @ DRIVER MODE: Message from server: STATUS
  @ DRIVER MODE: Message from server: INIT
  @ DRIVER MODE: Receiving replica           0          -1
  @ DRIVER MODE: Receiving encoded integer          25
  @ DRIVER MODE:  SCF:  T  FORCE:  T  STRESS:  F  VC:  F  ENSEMBLE:  F
  @ DRIVER MODE:  SCF:  T  FORCE:  T  STRESS:  F  VC:  F  ENSEMBLE:  F

     Using Slab Decomposition

     bravais-lattice index     =            0
     lattice parameter (alat)  =       1.8897  a.u.
     unit-cell volume          =    6658.9804 (a.u.)^3
     number of atoms/cell      =           55
     number of atomic types    =            5
     number of electrons       =       402.00
     number of Kohn-Sham states=          211
     kinetic-energy cutoff     =      29.3995  Ry
     charge density cutoff     =     293.9946  Ry
     scf convergence threshold =      7.3E-08
     mixing beta               =       0.0500
     number of iterations used =            8  plain     mixing
     Exchange-correlation= BEEF-VDW
                           (   1   4  43  14   2   0   0)

     celldm(1)=   1.889726  celldm(2)=   0.000000  celldm(3)=   0.000000
     celldm(4)=   0.000000  celldm(5)=   0.000000  celldm(6)=   0.000000

     crystal axes: (cart. coord. in units of alat)
               a(1) = (   6.579727   0.000000   0.000000 )
               a(2) = (  -0.000775   5.961596   0.000000 )
               a(3) = (   0.000000   0.000000  25.155947 )

     reciprocal axes: (cart. coord. in units 2 pi/alat)
               b(1) = (  0.151982  0.000020  0.000000 )
               b(2) = (  0.000000  0.167740  0.000000 )
               b(3) = (  0.000000  0.000000  0.039752 )

     PseudoPot. # 1 for Ti read from file:
     /storage/coda1/p-amedford6/0/shared/rich_project_chbe-medford/medford-share/data/pseudos_module/espresso/nninc/pbe/van/Ti.UPF
     MD5 check sum: 8e4df49b7f0d34bbd5052bf3f5ea0213
     Pseudo is Ultrasoft, Zval = 12.0
     Generated by new atomic code, or converted to UPF format
     Using radial grid of  851 points,  6 beta functions with:
                l(1) =   0
                l(2) =   0
                l(3) =   1
                l(4) =   1
                l(5) =   2
                l(6) =   2
     Q(r) pseudized with  8 coefficients,  rinner =    1.000   1.000   1.000
                                                       1.000   1.000

     PseudoPot. # 2 for O  read from file:
     /storage/coda1/p-amedford6/0/shared/rich_project_chbe-medford/medford-share/data/pseudos_module/espresso/nninc/pbe/van/O.UPF
     MD5 check sum: 78c19812648e8988a0fe644b0f25305e
     Pseudo is Ultrasoft, Zval =  6.0
     Generated by new atomic code, or converted to UPF format
     Using radial grid of  737 points,  4 beta functions with:
                l(1) =   0
                l(2) =   0
                l(3) =   1
                l(4) =   1
     Q(r) pseudized with  8 coefficients,  rinner =    0.800   0.800   0.800

     PseudoPot. # 3 for N  read from file:
     /storage/coda1/p-amedford6/0/shared/rich_project_chbe-medford/medford-share/data/pseudos_module/espresso/nninc/pbe/van/N.UPF
     MD5 check sum: 90d10febe142ad51ac9d5be1deb811c4
     Pseudo is Ultrasoft, Zval =  5.0
     Generated by new atomic code, or converted to UPF format
     Using radial grid of  729 points,  4 beta functions with:
                l(1) =   0
                l(2) =   0
                l(3) =   1
                l(4) =   1
     Q(r) pseudized with  8 coefficients,  rinner =    0.800   0.800   0.800

     PseudoPot. # 4 for C  read from file:
     /storage/coda1/p-amedford6/0/shared/rich_project_chbe-medford/medford-share/data/pseudos_module/espresso/nninc/pbe/van/C.UPF
     MD5 check sum: 1a69bf6b8db32088f5b2163dbdb77a27
     Pseudo is Ultrasoft, Zval =  4.0
     Generated by new atomic code, or converted to UPF format
     Using radial grid of  721 points,  4 beta functions with:
                l(1) =   0
                l(2) =   0
                l(3) =   1
                l(4) =   1
     Q(r) pseudized with  8 coefficients,  rinner =    0.800   0.800   0.800

     PseudoPot. # 5 for H  read from file:
     /storage/coda1/p-amedford6/0/shared/rich_project_chbe-medford/medford-share/data/pseudos_module/espresso/nninc/pbe/van/H.UPF
     MD5 check sum: b5ee9d7bfd3a09ee7748110bda690ff7
     Pseudo is Ultrasoft, Zval =  1.0
     Generated by new atomic code, or converted to UPF format
     Using radial grid of  615 points,  1 beta functions with:
                l(1) =   0
     Q(r) pseudized with  8 coefficients,  rinner =    0.800

     atomic species   valence    mass     pseudopotential
        Ti1           12.00    47.86700     Ti( 1.00)
        O1             6.00    15.99900     O ( 1.00)
        N1             5.00    14.00700     N ( 1.00)
        C1             4.00    12.01100     C ( 1.00)
        H1             1.00     1.00800     H ( 1.00)

     No symmetry found

   Cartesian axes

     site n.     atom                  positions (alat units)
         1           Ti1 tau(   1) = (   0.0004258   2.9801865   6.0000000  )
         2           Ti1 tau(   2) = (   3.2906075   1.4906267   6.0002472  )
         3           O1  tau(   3) = (   0.0006271   0.0005054   7.9858123  )
         4           O1  tau(   4) = (   3.2906025   0.0005020   7.3038282  )
         5           O1  tau(   5) = (   4.5942328   1.4918067   9.2879030  )
         6           O1  tau(   6) = (   1.9868534   1.4903216   9.2879459  )
         7           Ti1 tau(   7) = (   3.2907910   2.8959150   9.1758416  )
         8           Ti1 tau(   8) = (   0.0015273   1.4827037   9.2680791  )
         9           O1  tau(   9) = (   3.2989311   0.0219330  11.3020621  )
        10           O1  tau(  10) = (   0.0116148   5.9584955  10.6183126  )
        11           O1  tau(  11) = (   1.3029919   1.4976758  12.6257209  )
        12           O1  tau(  12) = (   5.3026591   1.4951023  12.6306759  )
        13           Ti1 tau(  13) = (   0.0286689   2.8598525  12.6759356  )
        14           Ti1 tau(  14) = (   3.3054201   1.5706400  12.4108957  )
        15           O1  tau(  15) = (   0.0066217   5.9386728  14.6456674  )
        16           O1  tau(  16) = (   3.2936494   5.9217248  13.9190535  )
        17           O1  tau(  17) = (   4.5783085   1.5227378  16.0725395  )
        18           O1  tau(  18) = (   2.0661487   1.5008106  16.0935948  )
        19           Ti1 tau(  19) = (   3.3004316   2.9577776  15.6622982  )
        20           Ti1 tau(  20) = (   6.5114840   1.4532315  15.8500040  )
        21           O1  tau(  21) = (   3.2904802   0.0005063   4.7018136  )
        22           O1  tau(  22) = (   0.0101108   5.9483577  17.1703567  )
        23           O1  tau(  23) = (   1.3043587   1.4918075   6.0039043  )
        24           O1  tau(  24) = (   5.2767064   1.4903225   6.0039473  )
        25           Ti1 tau(  25) = (   0.0000382   5.9609847   6.0000000  )
        26           Ti1 tau(  26) = (   3.2902200   4.4714249   6.0002472  )
        27           O1  tau(  27) = (   0.0002396   2.9813036   7.9858123  )
        28           O1  tau(  28) = (   3.2902150   2.9813002   7.3038282  )
        29           O1  tau(  29) = (   4.5938453   4.4726049   9.2879030  )
        30           O1  tau(  30) = (   1.9864658   4.4711199   9.2879459  )
        31           Ti1 tau(  31) = (   3.2891106   5.8743827   9.1763621  )
        32           Ti1 tau(  32) = (   0.0006254   4.4649316   9.2693709  )
        33           O1  tau(  33) = (   3.2985377   2.9527140  11.2683515  )
        34           O1  tau(  34) = (   0.0092240   2.9805883  10.6323155  )
        35           O1  tau(  35) = (   1.2869011   4.4751273  12.6337776  )
        36           O1  tau(  36) = (   5.3033013   4.4751711  12.6363117  )
        37           Ti1 tau(  37) = (   6.5677423   5.8343599  12.5653580  )
        38           Ti1 tau(  38) = (   3.2861748   4.6640272  12.6826305  )
        39           O1  tau(  39) = (   0.0268303   2.9326313  14.6927244  )
        40           O1  tau(  40) = (   3.2973518   2.9805258  13.8830516  )
        41           O1  tau(  41) = (   4.5656241   4.3944478  16.1024780  )
        42           O1  tau(  42) = (   2.0389263   4.3990843  16.1000718  )
        43           Ti1 tau(  43) = (   3.2183859   5.9292641  16.3327267  )
        44           Ti1 tau(  44) = (   6.5399727   4.6159235  16.0325440  )
        45           O1  tau(  45) = (   3.2900926   2.9813045   4.7018136  )
        46           O1  tau(  46) = (   1.3039711   4.4726057   6.0039043  )
        47           O1  tau(  47) = (   5.2763189   4.4711207   6.0039473  )
        48           N1  tau(  48) = (   0.1383159   2.7169024  18.7005470  )
        49           N1  tau(  49) = (   0.0454196   2.8879789  17.5011406  )
        50           C1  tau(  50) = (   0.1807782   3.8735959  19.6428767  )
        51           H1  tau(  51) = (   6.4938760   4.8136915  19.1652781  )
        52           H1  tau(  52) = (   6.0945921   3.6282151  20.4682347  )
        53           H1  tau(  53) = (   1.2016282   3.9139503  20.0277151  )
        54           O1  tau(  54) = (   3.2907091   5.9158944  18.1602194  )
        55           H1  tau(  55) = (   3.1351319   0.7410148  18.7017648  )

     number of k points=    10  Fermi-Dirac smearing, width (Ry)=  0.0073
                       cart. coord. in units 2pi/alat
        k(    1) = (   0.0000000   0.0000000   0.0000000), wk =   0.1250000
        k(    2) = (   0.0000000   0.0419351   0.0000000), wk =   0.2500000
        k(    3) = (   0.0000000  -0.0838702   0.0000000), wk =   0.1250000
        k(    4) = (   0.0379955   0.0000049   0.0000000), wk =   0.2500000
        k(    5) = (   0.0379955   0.0419400   0.0000000), wk =   0.2500000
        k(    6) = (   0.0379955  -0.0838652   0.0000000), wk =   0.2500000
        k(    7) = (   0.0379955  -0.0419301   0.0000000), wk =   0.2500000
        k(    8) = (  -0.0759910  -0.0000099   0.0000000), wk =   0.1250000
        k(    9) = (  -0.0759910   0.0419252   0.0000000), wk =   0.2500000
        k(   10) = (  -0.0759910  -0.0838800   0.0000000), wk =   0.1250000

     Initial potential from superposition of free atoms

     starting charge  385.99915, renormalised to  402.00000

     negative rho (up, down):  1.430E-02 0.000E+00

     %%%%%%%%%%%%%%%%%%%%%%%%%%%%%%%%%%%%%%%%%%%%%%%%%%%%%%%%%%%%%%%%%%%%%%%%
     %                                                                      %
     % You are using vdW-DF, which was implemented by the Thonhauser group. %
     % Please cite the following two papers that made this development      %
     % possible and the two reviews that describe the various versions:     %
     %                                                                      %
     %   T. Thonhauser et al., PRL 115, 136402 (2015).                      %
     %   T. Thonhauser et al., PRB 76, 125112 (2007).                       %
     %   K. Berland et al., Rep. Prog. Phys. 78, 066501 (2015).             %
     %   D.C. Langreth et al., J. Phys.: Condens. Matter 21, 084203 (2009). %
     %                                                                      %
     %                                                                      %
     % If you are calculating the stress with vdW-DF, please also cite:     %
     %                                                                      %
     %   R. Sabatini et al., J. Phys.: Condens. Matter 24, 424209 (2012).   %
     %                                                                      %
     %%%%%%%%%%%%%%%%%%%%%%%%%%%%%%%%%%%%%%%%%%%%%%%%%%%%%%%%%%%%%%%%%%%%%%%%

     Adding external electric field

     Computed dipole along edir(3) :
        Dipole              -12.0423 Ry au,        -30.6084 Debye
        Dipole field         -0.0227 Ry au,

        Potential amp.        2.1066 Ry
        Total length         46.3494 bohr

     Starting wfcs are  304 atomic wfcs
  @ DRIVER MODE: Message from server: STATUS
  @ DRIVER MODE: Message from server: POSDATA
  @ DRIVER MODE: Reading and sharing cell
  @ DRIVER MODE: Reading and sharing positions
  @ DRIVER MODE: Received positions

     Self-consistent Calculation

     iteration #  1     ecut=    29.40 Ry     beta= 0.05
     Davidson diagonalization with overlap
     c_bands:  5 eigenvalues not converged
     c_bands:  3 eigenvalues not converged
     c_bands:  5 eigenvalues not converged
     c_bands:  3 eigenvalues not converged
     c_bands:  3 eigenvalues not converged
     c_bands:  2 eigenvalues not converged
     c_bands:  5 eigenvalues not converged
     c_bands:  5 eigenvalues not converged
     ethr =  1.00E-05,  avg # of iterations = 21.5

[...]

     total energy              =   -2397.72772207 Ry
     estimated scf accuracy    <    6480.36662550 Ry

     iteration #  2     ecut=    29.40 Ry     beta= 0.05
     Davidson diagonalization with overlap
     ethr =  1.00E-02,  avg # of iterations = 23.3

[...]

     iteration # 46     ecut=    29.40 Ry     beta= 0.05
     Davidson diagonalization with overlap
     c_bands:  1 eigenvalues not converged
     ethr =  8.03E-07,  avg # of iterations =  7.4

[...]

     total energy              =   -2972.75278489 Ry
     estimated scf accuracy    <       0.00000017 Ry

     iteration # 74     ecut=    29.40 Ry     beta= 0.05
     Davidson diagonalization with overlap
     ethr =  4.32E-11,  avg # of iterations =  6.5

     negative rho (up, down):  1.495E-02 0.000E+00

     Adding external electric field

     Computed dipole along edir(3) :
        Dipole                0.6390 Ry au,          1.6242 Debye
        Dipole field          0.0012 Ry au,

        Potential amp.       -0.1118 Ry
        Total length         46.3494 bohr

     End of self-consistent calculation

          k = 0.0000 0.0000 0.0000 ( 18029 PWs)   bands (ev):

   -56.2229 -56.1891 -55.8023 -55.7687 -55.5711 -55.5604 -55.5103 -55.3504
   -55.3144 -55.3053 -55.1716 -55.1457 -55.0288 -54.9908 -54.9905 -54.9568
   -32.6726 -32.5152 -32.4882 -32.3815 -32.2968 -32.2890 -32.2820 -32.0444
   -32.0212 -32.0010 -31.9491 -31.9442 -31.9147 -31.9094 -31.8479 -31.8082
   -31.7823 -31.7812 -31.7804 -31.7347 -31.7106 -31.7081 -31.6739 -31.6683
   -31.6378 -31.6265 -31.5560 -31.5238 -31.5224 -31.5150 -31.4996 -31.4668
   -31.4375 -31.3925 -31.3872 -31.3661 -31.3486 -31.3241 -31.3005 -31.2858
   -31.2587 -31.2408 -31.2269 -31.2233 -31.2059 -31.2035 -31.1214 -31.0095
   -18.6312 -16.5125 -16.4285 -16.1726 -15.9543 -15.7909 -15.7016 -15.6865
   -15.6524 -15.5314 -15.4993 -15.4037 -15.3149 -15.2445 -15.2108 -15.1890
   -15.1142 -15.0592 -15.0107 -14.9839 -14.9771 -14.9596 -14.9408 -14.8366
   -14.8325 -14.7996 -14.7060 -14.6748 -14.5831 -14.2789 -14.2664 -13.4885
   -13.3764 -11.4154  -6.8984  -4.3168  -4.1429  -4.0238  -3.9234  -3.8844
    -3.7214  -3.5086  -3.4135  -3.2377  -3.2100  -3.1188  -2.9300  -2.9219
    -2.8716  -2.7974  -2.7156  -2.6555  -2.6119  -2.5956  -2.4861  -2.4605
    -2.4486  -2.4356  -2.3895  -2.3817  -2.2579  -2.2485  -2.2193  -2.1713
    -2.1246  -2.0976  -2.0375  -2.0267  -2.0139  -1.9633  -1.9106  -1.8774
    -1.7902  -1.7656  -1.6435  -1.6287  -1.6127  -1.5288  -1.5261  -1.5259
    -1.4562  -1.3006  -1.2327  -1.1895  -1.1693  -1.0485  -1.0253  -0.9860
    -0.9120  -0.8725  -0.7876  -0.7716  -0.7546  -0.7412  -0.6741  -0.6444
    -0.6163  -0.5915  -0.4145  -0.3752  -0.3128  -0.2768  -0.1735  -0.1308
    -0.1171  -0.1125  -0.0682  -0.0209   0.0087   0.0201   0.1249   0.1573
     0.2136   0.2706   0.3096   0.3831   0.3934   0.4013   0.4139   0.4640
     0.5604   0.6483   0.6880   0.7114   0.7766   0.7965   0.9288   0.9468
     1.0335   1.0780   1.0996   1.1635   1.2654   1.5611   1.5818   1.6208
     2.7343   3.0048   3.1330   3.2939   3.4367   3.5395   3.8497   3.8761
     3.9127   3.9502   3.9916

[...]

          k = 0.0380-0.0419 0.0000 ( 17876 PWs)   bands (ev):

[...]

          k =-0.0760-0.0000 0.0000 ( 17886 PWs)   bands (ev):

[...]

          k =-0.0760-0.0839 0.0000 ( 17948 PWs)   bands (ev):

   -56.2060 -56.2058 -55.7862 -55.7847 -55.5704 -55.5538 -55.5169 -55.3380
   -55.3266 -55.3059 -55.1697 -55.1438 -55.0306 -54.9923 -54.9738 -54.9736
   -32.5007 -32.5006 -32.4888 -32.4885 -32.3337 -32.3332 -32.1066 -32.1029
   -31.9804 -31.9771 -31.9749 -31.9736 -31.8598 -31.8582 -31.8332 -31.8093
   -31.7756 -31.7753 -31.7709 -31.7417 -31.7333 -31.6827 -31.6716 -31.6594
   -31.5955 -31.5890 -31.5767 -31.5595 -31.5445 -31.5426 -31.5169 -31.5062
   -31.4297 -31.3970 -31.3745 -31.3714 -31.3457 -31.3135 -31.3134 -31.2903
   -31.2894 -31.2463 -31.2365 -31.2271 -31.2022 -31.2017 -31.1640 -31.1636
   -18.6281 -16.4193 -15.9208 -15.9119 -15.7865 -15.7816 -15.6061 -15.5933
   -15.5731 -15.5037 -15.4516 -15.4420 -15.2958 -15.2800 -15.2190 -15.1884
   -15.1653 -15.1503 -15.1437 -15.1099 -15.0954 -15.0361 -14.9816 -14.9784
   -14.9218 -14.9136 -14.7542 -14.6947 -14.6517 -14.4861 -14.4041 -13.4797
   -13.4791 -11.4134  -6.9120  -4.2547  -4.1608  -3.9151  -3.8778  -3.0834
    -3.0366  -2.9312  -2.8982  -2.8105  -2.7951  -2.6918  -2.6700  -2.6309
    -2.6126  -2.6028  -2.5520  -2.5081  -2.4915  -2.4744  -2.4470  -2.4271
    -2.4162  -2.3695  -2.3235  -2.3105  -2.3021  -2.2786  -2.1793  -2.1516
    -2.1473  -2.1260  -2.0910  -2.0735  -2.0195  -1.9629  -1.9370  -1.8981
    -1.8831  -1.7996  -1.7324  -1.6973  -1.6473  -1.6071  -1.5484  -1.5091
    -1.4434  -1.4168  -1.3018  -1.2842  -1.2693  -1.2102  -1.1778  -1.1165
    -1.0958  -1.0406  -1.0047  -0.9789  -0.9699  -0.9492  -0.8741  -0.8218
    -0.7008  -0.6643  -0.6460  -0.6258  -0.6120  -0.5903  -0.5483  -0.5067
    -0.4134  -0.4022  -0.3793  -0.3365  -0.3232  -0.2436  -0.1773  -0.0591
     0.0703   0.1369   0.1490   0.1735   0.2015   0.2923   0.3600   0.4016
     0.4540   0.5147   0.5583   0.6046   0.6699   0.8010   0.8597   0.8882
     0.9607   0.9999   1.0731   1.1560   1.4223   1.4332   1.4365   1.4375
     2.7859   3.5543   3.5569   3.5873   3.5980   3.7287   3.7954   3.8127
     3.9426   3.9991   4.0483

     the Fermi energy is     2.9399 ev

!    total energy              =   -2972.75280133 Ry
     estimated scf accuracy    <       0.00000005 Ry
     smearing contrib. (-TS)   =      -0.01266171 Ry
     internal energy E=F+TS    =   -2972.74013963 Ry

     The total energy is F=E-TS. E is the sum of the following terms:
     one-electron contribution =  -23540.83491220 Ry
     hartree contribution      =   11864.00295322 Ry
     xc contribution           =    -493.05617524 Ry
     ewald contribution        =    9197.14722398 Ry
     electric field correction =       0.00077061 Ry

     convergence has been achieved in  74 iterations

     Forces acting on atoms (cartesian axes, Ry/au):

     atom    1 type  1   force =     0.00008211   -0.00037035    0.10705452
     atom    2 type  1   force =    -0.00013797    0.00016700   -0.16527434
     atom    3 type  2   force =     0.00006779   -0.00044929   -0.03927485
     atom    4 type  2   force =     0.00000211    0.00017153    0.03508625
     atom    5 type  2   force =    -0.00257511   -0.00317767   -0.00926021
     atom    6 type  2   force =     0.00439489   -0.00251274   -0.00954473
     atom    7 type  1   force =    -0.00001214    0.00131216    0.03513555
     atom    8 type  1   force =     0.00024474    0.01554208    0.06141577
     atom    9 type  2   force =    -0.00018026   -0.00042531   -0.00038984
     atom   10 type  2   force =    -0.00255302    0.00090554   -0.04332173
     atom   11 type  2   force =    -0.00097037    0.00033938    0.00018813
     atom   12 type  2   force =     0.00046352    0.00023506    0.00008345
     atom   13 type  1   force =     0.00046176    0.00070005    0.00071017
     atom   14 type  1   force =     0.00025807   -0.00011259    0.00097978
     atom   15 type  2   force =     0.00028390    0.00056115   -0.00100091
     atom   16 type  2   force =    -0.00009100   -0.00045498   -0.00118436
     atom   17 type  2   force =    -0.00031297    0.00015292   -0.00018573
     atom   18 type  2   force =     0.00041960   -0.00011172   -0.00042144
     atom   19 type  1   force =     0.00017419   -0.00092293    0.00074969
     atom   20 type  1   force =     0.00007521    0.00010274   -0.00013273
     atom   21 type  2   force =     0.00003358    0.00013331    0.10035858
     atom   22 type  2   force =     0.00011270    0.00063020   -0.00039989
     atom   23 type  2   force =    -0.07688662   -0.00000395   -0.03014529
     atom   24 type  2   force =     0.07675571    0.00046583   -0.03018920
     atom   25 type  1   force =    -0.00008283   -0.00046163    0.10744914
     atom   26 type  1   force =    -0.00021476   -0.00132007   -0.16532560
     atom   27 type  2   force =     0.00010065   -0.00032056   -0.03755829
     atom   28 type  2   force =     0.00004412    0.00000571    0.03024038
     atom   29 type  2   force =    -0.00561954    0.00366689   -0.00712578
     atom   30 type  2   force =     0.00725536    0.00401452   -0.00739768
     atom   31 type  1   force =    -0.00011239   -0.00229801    0.02329118
     atom   32 type  1   force =     0.00033455   -0.01774802    0.06188987
     atom   33 type  2   force =    -0.00017133    0.00027746   -0.00065689
     atom   34 type  2   force =    -0.00144282    0.00003347   -0.05499245
     atom   35 type  2   force =    -0.00006455   -0.00014221   -0.00040267
     atom   36 type  2   force =    -0.00025441    0.00009142   -0.00024517
     atom   37 type  1   force =     0.00013993   -0.00013338    0.00168843
     atom   38 type  1   force =     0.00032711   -0.00008540    0.00070184
     atom   39 type  2   force =    -0.00013161    0.00023765   -0.00168262
     atom   40 type  2   force =     0.00001321    0.00029792   -0.00017436
     atom   41 type  2   force =    -0.00048746    0.00025622   -0.00032886
     atom   42 type  2   force =     0.00048076    0.00006000   -0.00025972
     atom   43 type  1   force =     0.00020808    0.00046608    0.00084729
     atom   44 type  1   force =     0.00034117   -0.00005308    0.00027957
     atom   45 type  2   force =     0.00003498    0.00013421    0.10020477
     atom   46 type  2   force =    -0.07686266    0.00003510   -0.03013232
     atom   47 type  2   force =     0.07672234    0.00047228   -0.03015267
     atom   48 type  3   force =    -0.00150420    0.00376587   -0.02568656
     atom   49 type  3   force =     0.00238529   -0.00223377    0.02842324
     atom   50 type  4   force =    -0.00020324   -0.00082310   -0.00322901
     atom   51 type  5   force =    -0.00013309   -0.00032899   -0.00036710
     atom   52 type  5   force =    -0.00025556   -0.00057955   -0.00018545
     atom   53 type  5   force =     0.00031711    0.00007387   -0.00045936
     atom   54 type  2   force =     0.00016924   -0.00019228    0.00144598
     atom   55 type  5   force =    -0.00144386   -0.00004607   -0.00113576

     Total force =     0.383310     Total SCF correction =     0.000441
  @ DRIVER MODE: Message from server: STATUS
  @ DRIVER MODE: Message from server: GETFORCE
  @ DRIVER MODE: Returning v,forces,stress,ensemble

     Writing output data file ./calc.save/
  @ DRIVER MODE: Message from server: EXIT
  @ DRIVE MODE: Exiting

     General routines

     Parallel routines

   This run was terminated on:   2:49: 3  23Sep2021

   JOB DONE.