     Program PWSCF v.6.7GPU starts on 16Sep2021 at  7:57: 5

     R & G space division:  proc/nbgrp/npool/nimage =      10
     Reading input from /storage/home/hcoda1/3/ntian30/research/carbon/CxH_vib/H2O_calc/ads_slab/CH3NNH3H2O_a/out_0046/pw.inp
Warning: card &CELL ignored
Warning: card   CELL_DYNAMICS='IPI', ignored
Warning: card / ignored

     Current dimensions of program PWSCF are:
     Max number of different atomic species (ntypx) = 10
     Max number of k-points (npk) =  40000
     Max angular momentum in pseudopotentials (lmaxx) =  3
     Presently no symmetry can be used with electric field

     Message from routine cell_base_init:
     DEPRECATED: use true lattice parameter, not A to a.u. conversion factor

     IMPORTANT: XC functional enforced from input :
     Exchange-correlation= BEEF-VDW
                           (   1   4  43  14   2   0   0)
     Any further DFT definition will be discarded
     Please, verify this is what you really want

  @ DRIVER MODE: Connecting to
 qe_1139763_2852621.sched-torque.pace.gatech.edu8pqk1l83_scratch
  using UNIX socket
  @ DRIVER MODE: Message from server: STATUS
  @ DRIVER MODE: Message from server: INIT
  @ DRIVER MODE: Receiving replica           0          -1
  @ DRIVER MODE: Receiving encoded integer          25
  @ DRIVER MODE:  SCF:  T  FORCE:  T  STRESS:  F  VC:  F  ENSEMBLE:  F
  @ DRIVER MODE:  SCF:  T  FORCE:  T  STRESS:  F  VC:  F  ENSEMBLE:  F

     Using Slab Decomposition

     bravais-lattice index     =            0
     lattice parameter (alat)  =       1.8897  a.u.
     unit-cell volume          =    6658.9804 (a.u.)^3
     number of atoms/cell      =           59
     number of atomic types    =            5
     number of electrons       =       406.00
     number of Kohn-Sham states=          213
     kinetic-energy cutoff     =      29.3995  Ry
     charge density cutoff     =     293.9946  Ry
     scf convergence threshold =      7.3E-08
     mixing beta               =       0.0500
     number of iterations used =            8  plain     mixing
     Exchange-correlation= BEEF-VDW
                           (   1   4  43  14   2   0   0)

     celldm(1)=   1.889726  celldm(2)=   0.000000  celldm(3)=   0.000000
     celldm(4)=   0.000000  celldm(5)=   0.000000  celldm(6)=   0.000000

     crystal axes: (cart. coord. in units of alat)
               a(1) = (   6.579727   0.000000   0.000000 )
               a(2) = (  -0.000775   5.961596   0.000000 )
               a(3) = (   0.000000   0.000000  25.155947 )

     reciprocal axes: (cart. coord. in units 2 pi/alat)
               b(1) = (  0.151982  0.000020  0.000000 )
               b(2) = (  0.000000  0.167740  0.000000 )
               b(3) = (  0.000000  0.000000  0.039752 )

     PseudoPot. # 1 for Ti read from file:
     /storage/coda1/p-amedford6/0/shared/rich_project_chbe-medford/medford-share/data/pseudos_module/espresso/nninc/pbe/van/Ti.UPF
     MD5 check sum: 8e4df49b7f0d34bbd5052bf3f5ea0213
     Pseudo is Ultrasoft, Zval = 12.0
     Generated by new atomic code, or converted to UPF format
     Using radial grid of  851 points,  6 beta functions with:
                l(1) =   0
                l(2) =   0
                l(3) =   1
                l(4) =   1
                l(5) =   2
                l(6) =   2
     Q(r) pseudized with  8 coefficients,  rinner =    1.000   1.000   1.000
                                                       1.000   1.000

     PseudoPot. # 2 for O  read from file:
     /storage/coda1/p-amedford6/0/shared/rich_project_chbe-medford/medford-share/data/pseudos_module/espresso/nninc/pbe/van/O.UPF
     MD5 check sum: 78c19812648e8988a0fe644b0f25305e
     Pseudo is Ultrasoft, Zval =  6.0
     Generated by new atomic code, or converted to UPF format
     Using radial grid of  737 points,  4 beta functions with:
                l(1) =   0
                l(2) =   0
                l(3) =   1
                l(4) =   1
     Q(r) pseudized with  8 coefficients,  rinner =    0.800   0.800   0.800

     PseudoPot. # 3 for N  read from file:
     /storage/coda1/p-amedford6/0/shared/rich_project_chbe-medford/medford-share/data/pseudos_module/espresso/nninc/pbe/van/N.UPF
     MD5 check sum: 90d10febe142ad51ac9d5be1deb811c4
     Pseudo is Ultrasoft, Zval =  5.0
     Generated by new atomic code, or converted to UPF format
     Using radial grid of  729 points,  4 beta functions with:
                l(1) =   0
                l(2) =   0
                l(3) =   1
                l(4) =   1
     Q(r) pseudized with  8 coefficients,  rinner =    0.800   0.800   0.800

     PseudoPot. # 4 for C  read from file:
     /storage/coda1/p-amedford6/0/shared/rich_project_chbe-medford/medford-share/data/pseudos_module/espresso/nninc/pbe/van/C.UPF
     MD5 check sum: 1a69bf6b8db32088f5b2163dbdb77a27
     Pseudo is Ultrasoft, Zval =  4.0
     Generated by new atomic code, or converted to UPF format
     Using radial grid of  721 points,  4 beta functions with:
                l(1) =   0
                l(2) =   0
                l(3) =   1
                l(4) =   1
     Q(r) pseudized with  8 coefficients,  rinner =    0.800   0.800   0.800

     PseudoPot. # 5 for H  read from file:
     /storage/coda1/p-amedford6/0/shared/rich_project_chbe-medford/medford-share/data/pseudos_module/espresso/nninc/pbe/van/H.UPF
     MD5 check sum: b5ee9d7bfd3a09ee7748110bda690ff7
     Pseudo is Ultrasoft, Zval =  1.0
     Generated by new atomic code, or converted to UPF format
     Using radial grid of  615 points,  1 beta functions with:
                l(1) =   0
     Q(r) pseudized with  8 coefficients,  rinner =    0.800

     atomic species   valence    mass     pseudopotential
        Ti1           12.00    47.86700     Ti( 1.00)
        O1             6.00    15.99900     O ( 1.00)
        N1             5.00    14.00700     N ( 1.00)
        C1             4.00    12.01100     C ( 1.00)
        H1             1.00     1.00800     H ( 1.00)

     No symmetry found

   Cartesian axes

     site n.     atom                  positions (alat units)
         1           Ti1 tau(   1) = (   0.0004258   2.9801865   6.0000000  )
         2           Ti1 tau(   2) = (   3.2906075   1.4906267   6.0002472  )
         3           O1  tau(   3) = (   0.0006271   0.0005054   7.9858123  )
         4           O1  tau(   4) = (   3.2906025   0.0005020   7.3038282  )
         5           O1  tau(   5) = (   4.5942328   1.4918067   9.2879030  )
         6           O1  tau(   6) = (   1.9868534   1.4903216   9.2879459  )
         7           Ti1 tau(   7) = (   3.2907910   2.8959150   9.1758416  )
         8           Ti1 tau(   8) = (   0.0015273   1.4827037   9.2680791  )
         9           O1  tau(   9) = (   3.2954490   0.0159868  11.2922163  )
        10           O1  tau(  10) = (   0.0116148   5.9584955  10.6183126  )
        11           O1  tau(  11) = (   1.3242731   1.5050266  12.6143764  )
        12           O1  tau(  12) = (   5.3073597   1.5103589  12.6267567  )
        13           Ti1 tau(  13) = (   6.4831477   3.0011104  12.7364612  )
        14           Ti1 tau(  14) = (   3.1751638   1.4975352  12.4748964  )
        15           O1  tau(  15) = (   0.0212859   5.9607631  14.5987152  )
        16           O1  tau(  16) = (   3.3058086   0.0238703  13.8910224  )
        17           O1  tau(  17) = (   4.5539421   1.5574750  15.9960573  )
        18           O1  tau(  18) = (   2.0731809   1.5597727  15.9888445  )
        19           Ti1 tau(  19) = (   3.3176354   3.0289328  15.6523405  )
        20           Ti1 tau(  20) = (   0.0198791   1.6227889  16.0606591  )
        21           O1  tau(  21) = (   3.2904802   0.0005063   4.7018136  )
        22           O1  tau(  22) = (   0.0290054   0.0533443  17.2129705  )
        23           O1  tau(  23) = (   1.3043587   1.4918075   6.0039043  )
        24           O1  tau(  24) = (   5.2767064   1.4903225   6.0039473  )
        25           Ti1 tau(  25) = (   0.0000382   5.9609847   6.0000000  )
        26           Ti1 tau(  26) = (   3.2902200   4.4714249   6.0002472  )
        27           O1  tau(  27) = (   0.0002396   2.9813036   7.9858123  )
        28           O1  tau(  28) = (   3.2902150   2.9813002   7.3038282  )
        29           O1  tau(  29) = (   4.5938453   4.4726049   9.2879030  )
        30           O1  tau(  30) = (   1.9864658   4.4711199   9.2879459  )
        31           Ti1 tau(  31) = (   3.2891106   5.8743827   9.1763621  )
        32           Ti1 tau(  32) = (   0.0006254   4.4649316   9.2693709  )
        33           O1  tau(  33) = (   3.2918316   2.9938763  11.2915017  )
        34           O1  tau(  34) = (   0.0092240   2.9805883  10.6323155  )
        35           O1  tau(  35) = (   1.3226278   4.4784642  12.6110361  )
        36           O1  tau(  36) = (   5.3078083   4.4770455  12.6250823  )
        37           Ti1 tau(  37) = (   6.5141033   0.0190828  12.7620745  )
        38           Ti1 tau(  38) = (   3.1722404   4.4939287  12.4712879  )
        39           O1  tau(  39) = (   0.0035410   2.9850241  14.6487316  )
        40           O1  tau(  40) = (   3.3118331   3.0109266  13.8519036  )
        41           O1  tau(  41) = (   4.5522870   4.5059159  16.0259181  )
        42           O1  tau(  42) = (   2.0778134   4.5048723  16.0185459  )
        43           Ti1 tau(  43) = (   3.3116469   0.0596163  15.7453941  )
        44           Ti1 tau(  44) = (   0.0183239   4.5967015  16.1059876  )
        45           O1  tau(  45) = (   3.2900926   2.9813045   4.7018136  )
        46           O1  tau(  46) = (   1.3039711   4.4726057   6.0039043  )
        47           O1  tau(  47) = (   5.2763189   4.4711207   6.0039473  )
        48           N1  tau(  48) = (   0.0600715   3.0265251  17.3188267  )
        49           N1  tau(  49) = (   6.2826239   2.5295367  22.6224490  )
        50           C1  tau(  50) = (   0.2859397   3.0149959  18.7399364  )
        51           H1  tau(  51) = (   0.1411154   4.0060466  19.1894648  )
        52           H1  tau(  52) = (   6.1913215   2.3105648  19.2421896  )
        53           H1  tau(  53) = (   1.3125146   2.6868920  18.9691123  )
        54           H1  tau(  54) = (   6.1000088   3.2491606  23.3142794  )
        55           H1  tau(  55) = (   0.1456284   1.7686669  23.1118534  )
        56           H1  tau(  56) = (   0.3974265   2.9048463  21.9856970  )
        57           O1  tau(  57) = (   3.2908421   0.1144680  18.1630233  )
        58           H1  tau(  58) = (   4.0679411   5.5688996  18.4486002  )
        59           H1  tau(  59) = (   2.5060966   5.5711546  18.4327789  )

     number of k points=    10  Fermi-Dirac smearing, width (Ry)=  0.0073
                       cart. coord. in units 2pi/alat
        k(    1) = (   0.0000000   0.0000000   0.0000000), wk =   0.1250000
        k(    2) = (   0.0000000   0.0419351   0.0000000), wk =   0.2500000
        k(    3) = (   0.0000000  -0.0838702   0.0000000), wk =   0.1250000
        k(    4) = (   0.0379955   0.0000049   0.0000000), wk =   0.2500000
        k(    5) = (   0.0379955   0.0419400   0.0000000), wk =   0.2500000
        k(    6) = (   0.0379955  -0.0838652   0.0000000), wk =   0.2500000
        k(    7) = (   0.0379955  -0.0419301   0.0000000), wk =   0.2500000
        k(    8) = (  -0.0759910  -0.0000099   0.0000000), wk =   0.1250000
        k(    9) = (  -0.0759910   0.0419252   0.0000000), wk =   0.2500000
        k(   10) = (  -0.0759910  -0.0838800   0.0000000), wk =   0.1250000

     Initial potential from superposition of free atoms

     starting charge  389.99912, renormalised to  406.00000

     negative rho (up, down):  6.921E-03 0.000E+00

     %%%%%%%%%%%%%%%%%%%%%%%%%%%%%%%%%%%%%%%%%%%%%%%%%%%%%%%%%%%%%%%%%%%%%%%%
     %                                                                      %
     % You are using vdW-DF, which was implemented by the Thonhauser group. %
     % Please cite the following two papers that made this development      %
     % possible and the two reviews that describe the various versions:     %
     %                                                                      %
     %   T. Thonhauser et al., PRL 115, 136402 (2015).                      %
     %   T. Thonhauser et al., PRB 76, 125112 (2007).                       %
     %   K. Berland et al., Rep. Prog. Phys. 78, 066501 (2015).             %
     %   D.C. Langreth et al., J. Phys.: Condens. Matter 21, 084203 (2009). %
     %                                                                      %
     %                                                                      %
     % If you are calculating the stress with vdW-DF, please also cite:     %
     %                                                                      %
     %   R. Sabatini et al., J. Phys.: Condens. Matter 24, 424209 (2012).   %
     %                                                                      %
     %%%%%%%%%%%%%%%%%%%%%%%%%%%%%%%%%%%%%%%%%%%%%%%%%%%%%%%%%%%%%%%%%%%%%%%%

     Adding external electric field

     Computed dipole along edir(3) :
        Dipole              -16.2336 Ry au,        -41.2616 Debye
        Dipole field         -0.0306 Ry au,

        Potential amp.        2.8398 Ry
        Total length         46.3494 bohr

     Starting wfcs are  308 atomic wfcs
  @ DRIVER MODE: Message from server: STATUS
  @ DRIVER MODE: Message from server: POSDATA
  @ DRIVER MODE: Reading and sharing cell
  @ DRIVER MODE: Reading and sharing positions
  @ DRIVER MODE: Received positions

     Self-consistent Calculation

     iteration #  1     ecut=    29.40 Ry     beta= 0.05
     Davidson diagonalization with overlap
     c_bands:  2 eigenvalues not converged
     c_bands:  3 eigenvalues not converged
     c_bands:  5 eigenvalues not converged
     c_bands:  3 eigenvalues not converged
     c_bands:  3 eigenvalues not converged
     c_bands:  3 eigenvalues not converged
     c_bands:  1 eigenvalues not converged
     c_bands:  5 eigenvalues not converged
     c_bands:  3 eigenvalues not converged
     ethr =  1.00E-05,  avg # of iterations = 20.6

[...]

     total energy              =   -2253.44477379 Ry
     estimated scf accuracy    <    8263.00051487 Ry

     iteration #  2     ecut=    29.40 Ry     beta= 0.05
     Davidson diagonalization with overlap
     ethr =  1.00E-02,  avg # of iterations = 25.5

[...]

     iteration # 50     ecut=    29.40 Ry     beta= 0.05
     Davidson diagonalization with overlap
     c_bands:  1 eigenvalues not converged
     ethr =  2.22E-06,  avg # of iterations =  4.2

[...]

     total energy              =   -2977.74431289 Ry
     estimated scf accuracy    <       0.00000010 Ry

     iteration # 76     ecut=    29.40 Ry     beta= 0.05
     Davidson diagonalization with overlap
     ethr =  2.39E-11,  avg # of iterations =  5.5

     negative rho (up, down):  8.800E-03 0.000E+00

     Adding external electric field

     Computed dipole along edir(3) :
        Dipole                0.7663 Ry au,          1.9478 Debye
        Dipole field          0.0014 Ry au,

        Potential amp.       -0.1341 Ry
        Total length         46.3494 bohr

     End of self-consistent calculation

          k = 0.0000 0.0000 0.0000 ( 18029 PWs)   bands (ev):

   -56.2618 -56.2282 -55.3793 -55.3453 -55.3371 -55.3022 -55.1541 -55.1189
   -55.0320 -54.9118 -54.8935 -54.8917 -54.8779 -54.8070 -54.3908 -54.3413
   -32.6886 -32.5362 -32.5081 -32.4381 -32.3472 -32.3147 -31.8471 -31.8194
   -31.6895 -31.6451 -31.5963 -31.5784 -31.5482 -31.5391 -31.5100 -31.5051
   -31.4865 -31.4801 -31.4576 -31.4436 -31.4301 -31.3809 -31.3706 -31.3319
   -31.3194 -31.3028 -31.2938 -31.2804 -31.2562 -31.2553 -31.2513 -31.2271
   -31.1324 -31.1218 -31.0816 -31.0714 -31.0437 -31.0387 -31.0298 -31.0112
   -30.9805 -30.9278 -30.9055 -30.6344 -30.6122 -30.5812 -30.5603 -30.4514
   -18.4459 -16.4177 -15.9516 -15.7082 -15.6186 -15.5355 -15.4966 -15.4526
   -15.3004 -15.2331 -15.2104 -15.2101 -15.1393 -14.9912 -14.9442 -14.8462
   -14.7524 -14.6174 -14.6005 -14.5674 -14.5493 -14.5164 -14.5093 -14.4575
   -14.2943 -14.2586 -14.2106 -14.1474 -14.0729 -14.0622 -13.8370 -13.4100
   -13.3003 -12.6436  -7.4498  -6.2363  -4.1177  -4.1001  -3.9851  -3.4514
    -3.1820  -3.1543  -3.0258  -3.0211  -2.9756  -2.8357  -2.8278  -2.7544
    -2.7307  -2.6932  -2.6172  -2.5840  -2.5350  -2.4456  -2.4329  -2.4131
    -2.3994  -2.3839  -2.2623  -2.2208  -2.1686  -2.0649  -1.9568  -1.9137
    -1.8867  -1.8428  -1.8048  -1.7576  -1.7455  -1.7306  -1.7241  -1.6127
    -1.4985  -1.4657  -1.4508  -1.4047  -1.3863  -1.3776  -1.3556  -1.2705
    -1.1609  -1.0674  -1.0001  -0.9879  -0.9204  -0.9126  -0.8533  -0.7374
    -0.6767  -0.6721  -0.6562  -0.5527  -0.5259  -0.4546  -0.3916  -0.3337
    -0.2791  -0.2164  -0.1661  -0.1435  -0.1307  -0.0317   0.0398   0.0632
     0.1144   0.1239   0.1329   0.1535   0.2501   0.2859   0.3597   0.4041
     0.4404   0.4847   0.5678   0.6179   0.6856   0.7355   0.7583   0.8200
     0.8734   0.9288   1.0241   1.0646   1.0782   1.0866   1.1100   1.1702
     1.1840   1.2602   1.3432   1.3585   1.4310   1.4993   1.6601   1.6992
     1.9492   2.0205   2.6471   3.0152   3.1766   3.4718   3.6614   3.7987
     3.9944   4.0049   4.0120   4.2382   4.2615

[...]

          k = 0.0380-0.0419 0.0000 ( 17876 PWs)   bands (ev):

[...]

          k =-0.0760-0.0000 0.0000 ( 17886 PWs)   bands (ev):

[...]

          k =-0.0760-0.0839 0.0000 ( 17948 PWs)   bands (ev):

   -56.2452 -56.2447 -55.3643 -55.3599 -55.3246 -55.3149 -55.1375 -55.1353
   -55.0298 -54.8949 -54.8947 -54.8938 -54.8899 -54.8106 -54.3837 -54.3483
   -32.5221 -32.5217 -32.5056 -32.5053 -32.3913 -32.3909 -31.6707 -31.6649
   -31.6552 -31.6477 -31.5713 -31.5563 -31.5543 -31.5500 -31.5437 -31.5422
   -31.5365 -31.5278 -31.4956 -31.4792 -31.3831 -31.3810 -31.3474 -31.3416
   -31.3223 -31.2860 -31.2477 -31.2402 -31.2401 -31.2392 -31.2150 -31.1926
   -31.1501 -31.1196 -31.1194 -31.1160 -31.0928 -31.0805 -31.0804 -31.0657
   -31.0488 -31.0133 -30.7662 -30.7036 -30.6100 -30.5857 -30.5682 -30.5220
   -18.4451 -15.7683 -15.7664 -15.7312 -15.7305 -15.4636 -15.4602 -15.3669
   -15.3616 -15.2270 -15.1101 -15.0086 -14.9958 -14.9603 -14.9331 -14.8212
   -14.8004 -14.7911 -14.7810 -14.6693 -14.6492 -14.6039 -14.5928 -14.5764
   -14.5662 -14.2724 -14.2593 -14.1563 -14.1325 -14.0721 -13.9902 -13.4039
   -13.4039 -12.6622  -7.4435  -6.2288  -4.1305  -4.0988  -2.8648  -2.8577
    -2.8213  -2.8032  -2.8024  -2.7436  -2.6380  -2.5983  -2.5965  -2.5952
    -2.5140  -2.4468  -2.4389  -2.3674  -2.3345  -2.3152  -2.2570  -2.2463
    -2.1811  -2.1548  -2.1465  -2.1299  -2.1064  -2.1051  -2.0090  -1.9464
    -1.8945  -1.8911  -1.8236  -1.8055  -1.7415  -1.7208  -1.7093  -1.6776
    -1.6360  -1.6130  -1.5813  -1.5474  -1.5065  -1.4469  -1.2803  -1.2713
    -1.2618  -1.2403  -1.1151  -1.1083  -1.0771  -1.0470  -1.0412  -0.9674
    -0.9176  -0.8825  -0.8251  -0.7416  -0.7192  -0.6172  -0.5662  -0.5200
    -0.4638  -0.3577  -0.3402  -0.3295  -0.3202  -0.2899  -0.2237  -0.1945
    -0.1789  -0.0582  -0.0387   0.0145   0.0355   0.0918   0.1180   0.1825
     0.2095   0.2812   0.2929   0.3320   0.4060   0.4872   0.5215   0.5695
     0.5742   0.8504   0.9242   1.0509   1.0580   1.1222   1.1808   1.2523
     1.3119   1.3443   1.3711   1.4943   1.4986   1.5078   1.5084   1.5797
     1.5848   1.9269   2.5244   3.5912   3.5914   3.6580   3.6587   3.9793
     3.9856   4.0925   4.1028   4.2635   4.2786

     the Fermi energy is     2.8432 ev

!    total energy              =   -2977.74432385 Ry
     estimated scf accuracy    <       0.00000005 Ry
     smearing contrib. (-TS)   =      -0.00445580 Ry
     internal energy E=F+TS    =   -2977.73986804 Ry

     The total energy is F=E-TS. E is the sum of the following terms:
     one-electron contribution =  -22876.03935313 Ry
     hartree contribution      =   11535.73634818 Ry
     xc contribution           =    -496.33337862 Ry
     ewald contribution        =    8858.89540736 Ry
     electric field correction =       0.00110816 Ry

     convergence has been achieved in  76 iterations

     Forces acting on atoms (cartesian axes, Ry/au):

     atom    1 type  1   force =    -0.00003623   -0.00046468    0.12449387
     atom    2 type  1   force =    -0.00008806   -0.00048289   -0.15981349
     atom    3 type  2   force =     0.00019084   -0.00024317   -0.06792292
     atom    4 type  2   force =    -0.00000752   -0.00011490    0.02621494
     atom    5 type  2   force =    -0.01447529    0.00181693   -0.00989933
     atom    6 type  2   force =     0.01625333    0.00224092   -0.01024416
     atom    7 type  1   force =     0.00071378   -0.00387605    0.02888887
     atom    8 type  1   force =    -0.00034827   -0.00440114    0.10953684
     atom    9 type  2   force =     0.00024054   -0.00029016   -0.00051833
     atom   10 type  2   force =    -0.00231396    0.00256506   -0.07333231
     atom   11 type  2   force =    -0.00002256   -0.00033533    0.00000508
     atom   12 type  2   force =    -0.00016256   -0.00082644    0.00002713
     atom   13 type  1   force =     0.00106594   -0.00040731    0.00013091
     atom   14 type  1   force =    -0.00064579    0.00064778   -0.00008806
     atom   15 type  2   force =    -0.00028954   -0.00039501   -0.00075137
     atom   16 type  2   force =    -0.00001497   -0.00011138    0.00067865
     atom   17 type  2   force =     0.00015599   -0.00090906   -0.00019468
     atom   18 type  2   force =     0.00049913   -0.00052164    0.00013412
     atom   19 type  1   force =    -0.00113737   -0.00009709   -0.00096248
     atom   20 type  1   force =     0.00080786   -0.00013992   -0.00044068
     atom   21 type  2   force =     0.00004544   -0.00003675    0.09942484
     atom   22 type  2   force =     0.00002673   -0.00023767   -0.00040596
     atom   23 type  2   force =    -0.07967285   -0.00005651   -0.03250335
     atom   24 type  2   force =     0.07951579    0.00038178   -0.03255307
     atom   25 type  1   force =    -0.00000726   -0.00057287    0.12414956
     atom   26 type  1   force =    -0.00008685   -0.00062595   -0.15996807
     atom   27 type  2   force =     0.00029999   -0.00036204   -0.06697573
     atom   28 type  2   force =    -0.00002091    0.00015168    0.02513351
     atom   29 type  2   force =    -0.01509776    0.00192593   -0.00983617
     atom   30 type  2   force =     0.01677353    0.00242540   -0.01015002
     atom   31 type  1   force =     0.00074154   -0.00075538    0.02406405
     atom   32 type  1   force =    -0.00027739    0.00204946    0.11015780
     atom   33 type  2   force =     0.00007851    0.00029395    0.00057971
     atom   34 type  2   force =    -0.00193664    0.00199925   -0.07164703
     atom   35 type  2   force =    -0.00001731    0.00034434   -0.00000805
     atom   36 type  2   force =    -0.00054129    0.00061204   -0.00004876
     atom   37 type  1   force =     0.00120228    0.00043123    0.00030530
     atom   38 type  1   force =    -0.00054163   -0.00088307   -0.00020464
     atom   39 type  2   force =    -0.00027580   -0.00014376    0.00088926
     atom   40 type  2   force =     0.00018000   -0.00012848    0.00024081
     atom   41 type  2   force =     0.00103064    0.00015452    0.00017557
     atom   42 type  2   force =    -0.00049392   -0.00023453    0.00054903
     atom   43 type  1   force =    -0.00159229    0.00001112   -0.00029455
     atom   44 type  1   force =     0.00091461   -0.00013872   -0.00037892
     atom   45 type  2   force =     0.00001958   -0.00004737    0.09938680
     atom   46 type  2   force =    -0.07968885    0.00000378   -0.03251588
     atom   47 type  2   force =     0.07953992    0.00043796   -0.03254270
     atom   48 type  3   force =    -0.00087022   -0.00076734   -0.00043871
     atom   49 type  3   force =    -0.00486771    0.00894526   -0.00354727
     atom   50 type  4   force =    -0.00024835   -0.00009905    0.00005535
     atom   51 type  5   force =    -0.00020812    0.00038121    0.00027423
     atom   52 type  5   force =    -0.00006113   -0.00053827    0.00072539
     atom   53 type  5   force =     0.00050974   -0.00014593    0.00020171
     atom   54 type  5   force =    -0.00042998    0.00060178   -0.00125254
     atom   55 type  5   force =     0.00541297   -0.01036418    0.00546270
     atom   56 type  5   force =    -0.00005392    0.00080410   -0.00207013
     atom   57 type  2   force =     0.00158927   -0.00051127   -0.00036974
     atom   58 type  5   force =    -0.00047617    0.00090606    0.00002658
     atom   59 type  5   force =    -0.00079952    0.00013375   -0.00003347

     Total force =     0.423844     Total SCF correction =     0.000837
  @ DRIVER MODE: Message from server: STATUS
  @ DRIVER MODE: Message from server: GETFORCE
  @ DRIVER MODE: Returning v,forces,stress,ensemble

     Writing output data file ./calc.save/
  @ DRIVER MODE: Message from server: EXIT
  @ DRIVE MODE: Exiting

     General routines

     Parallel routines

   This run was terminated on:   8:18:24  16Sep2021

   JOB DONE.