     Program PWSCF v.6.7GPU starts on 22Sep2021 at  7:33: 9

     R & G space division:  proc/nbgrp/npool/nimage =      10
     Reading input from /storage/home/hcoda1/3/ntian30/research/carbon/CxH_vib/CH_calc/ads_slab/CHNHNH2H2O_b/out_0027/pw.inp
Warning: card &CELL ignored
Warning: card   CELL_DYNAMICS='IPI', ignored
Warning: card / ignored

     Current dimensions of program PWSCF are:
     Max number of different atomic species (ntypx) = 10
     Max number of k-points (npk) =  40000
     Max angular momentum in pseudopotentials (lmaxx) =  3
     Presently no symmetry can be used with electric field

     Message from routine cell_base_init:
     DEPRECATED: use true lattice parameter, not A to a.u. conversion factor

     IMPORTANT: XC functional enforced from input :
     Exchange-correlation= BEEF-VDW
                           (   1   4  43  14   2   0   0)
     Any further DFT definition will be discarded
     Please, verify this is what you really want

  @ DRIVER MODE: Connecting to
 qe_1139763_2927425.sched-torque.pace.gatech.eduuimkmsd5_scratch
  using UNIX socket
  @ DRIVER MODE: Message from server: STATUS
  @ DRIVER MODE: Message from server: INIT
  @ DRIVER MODE: Receiving replica           0          -1
  @ DRIVER MODE: Receiving encoded integer          25
  @ DRIVER MODE:  SCF:  T  FORCE:  T  STRESS:  F  VC:  F  ENSEMBLE:  F
  @ DRIVER MODE:  SCF:  T  FORCE:  T  STRESS:  F  VC:  F  ENSEMBLE:  F

     Using Slab Decomposition

     bravais-lattice index     =            0
     lattice parameter (alat)  =       1.8897  a.u.
     unit-cell volume          =    6658.9804 (a.u.)^3
     number of atoms/cell      =           57
     number of atomic types    =            5
     number of electrons       =       404.00
     number of Kohn-Sham states=          212
     kinetic-energy cutoff     =      29.3995  Ry
     charge density cutoff     =     293.9946  Ry
     scf convergence threshold =      7.3E-08
     mixing beta               =       0.0500
     number of iterations used =            8  plain     mixing
     Exchange-correlation= BEEF-VDW
                           (   1   4  43  14   2   0   0)

     celldm(1)=   1.889726  celldm(2)=   0.000000  celldm(3)=   0.000000
     celldm(4)=   0.000000  celldm(5)=   0.000000  celldm(6)=   0.000000

     crystal axes: (cart. coord. in units of alat)
               a(1) = (   6.579727   0.000000   0.000000 )
               a(2) = (  -0.000775   5.961596   0.000000 )
               a(3) = (   0.000000   0.000000  25.155947 )

     reciprocal axes: (cart. coord. in units 2 pi/alat)
               b(1) = (  0.151982  0.000020  0.000000 )
               b(2) = (  0.000000  0.167740  0.000000 )
               b(3) = (  0.000000  0.000000  0.039752 )

     PseudoPot. # 1 for Ti read from file:
     /storage/coda1/p-amedford6/0/shared/rich_project_chbe-medford/medford-share/data/pseudos_module/espresso/nninc/pbe/van/Ti.UPF
     MD5 check sum: 8e4df49b7f0d34bbd5052bf3f5ea0213
     Pseudo is Ultrasoft, Zval = 12.0
     Generated by new atomic code, or converted to UPF format
     Using radial grid of  851 points,  6 beta functions with:
                l(1) =   0
                l(2) =   0
                l(3) =   1
                l(4) =   1
                l(5) =   2
                l(6) =   2
     Q(r) pseudized with  8 coefficients,  rinner =    1.000   1.000   1.000
                                                       1.000   1.000

     PseudoPot. # 2 for O  read from file:
     /storage/coda1/p-amedford6/0/shared/rich_project_chbe-medford/medford-share/data/pseudos_module/espresso/nninc/pbe/van/O.UPF
     MD5 check sum: 78c19812648e8988a0fe644b0f25305e
     Pseudo is Ultrasoft, Zval =  6.0
     Generated by new atomic code, or converted to UPF format
     Using radial grid of  737 points,  4 beta functions with:
                l(1) =   0
                l(2) =   0
                l(3) =   1
                l(4) =   1
     Q(r) pseudized with  8 coefficients,  rinner =    0.800   0.800   0.800

     PseudoPot. # 3 for N  read from file:
     /storage/coda1/p-amedford6/0/shared/rich_project_chbe-medford/medford-share/data/pseudos_module/espresso/nninc/pbe/van/N.UPF
     MD5 check sum: 90d10febe142ad51ac9d5be1deb811c4
     Pseudo is Ultrasoft, Zval =  5.0
     Generated by new atomic code, or converted to UPF format
     Using radial grid of  729 points,  4 beta functions with:
                l(1) =   0
                l(2) =   0
                l(3) =   1
                l(4) =   1
     Q(r) pseudized with  8 coefficients,  rinner =    0.800   0.800   0.800

     PseudoPot. # 4 for C  read from file:
     /storage/coda1/p-amedford6/0/shared/rich_project_chbe-medford/medford-share/data/pseudos_module/espresso/nninc/pbe/van/C.UPF
     MD5 check sum: 1a69bf6b8db32088f5b2163dbdb77a27
     Pseudo is Ultrasoft, Zval =  4.0
     Generated by new atomic code, or converted to UPF format
     Using radial grid of  721 points,  4 beta functions with:
                l(1) =   0
                l(2) =   0
                l(3) =   1
                l(4) =   1
     Q(r) pseudized with  8 coefficients,  rinner =    0.800   0.800   0.800

     PseudoPot. # 5 for H  read from file:
     /storage/coda1/p-amedford6/0/shared/rich_project_chbe-medford/medford-share/data/pseudos_module/espresso/nninc/pbe/van/H.UPF
     MD5 check sum: b5ee9d7bfd3a09ee7748110bda690ff7
     Pseudo is Ultrasoft, Zval =  1.0
     Generated by new atomic code, or converted to UPF format
     Using radial grid of  615 points,  1 beta functions with:
                l(1) =   0
     Q(r) pseudized with  8 coefficients,  rinner =    0.800

     atomic species   valence    mass     pseudopotential
        Ti1           12.00    47.86700     Ti( 1.00)
        O1             6.00    15.99900     O ( 1.00)
        N1             5.00    14.00700     N ( 1.00)
        C1             4.00    12.01100     C ( 1.00)
        H1             1.00     1.00800     H ( 1.00)

     No symmetry found

   Cartesian axes

     site n.     atom                  positions (alat units)
         1           Ti1 tau(   1) = (   0.0004258   2.9801865   6.0000000  )
         2           Ti1 tau(   2) = (   3.2906075   1.4906267   6.0002472  )
         3           O1  tau(   3) = (   0.0006271   0.0005054   7.9858123  )
         4           O1  tau(   4) = (   3.2906025   0.0005020   7.3038282  )
         5           O1  tau(   5) = (   4.5942328   1.4918067   9.2879030  )
         6           O1  tau(   6) = (   1.9868534   1.4903216   9.2879459  )
         7           Ti1 tau(   7) = (   3.2907910   2.8959150   9.1758416  )
         8           Ti1 tau(   8) = (   0.0015273   1.4827037   9.2680791  )
         9           O1  tau(   9) = (   3.3066417   5.9496923  11.3845403  )
        10           O1  tau(  10) = (   0.0116148   5.9584955  10.6183126  )
        11           O1  tau(  11) = (   1.3010148   1.4986442  12.6442229  )
        12           O1  tau(  12) = (   5.3085967   1.5001388  12.6592367  )
        13           Ti1 tau(  13) = (   0.0282779   2.9853959  12.5065338  )
        14           Ti1 tau(  14) = (   3.3279724   1.4707331  12.5413945  )
        15           O1  tau(  15) = (   0.0378505   0.0859181  14.6860672  )
        16           O1  tau(  16) = (   3.3018867   0.0259462  14.0338077  )
        17           O1  tau(  17) = (   4.5998927   1.5484098  16.1661054  )
        18           O1  tau(  18) = (   2.0454451   1.5021798  16.2221046  )
        19           Ti1 tau(  19) = (   3.3206312   2.9825829  15.7321521  )
        20           Ti1 tau(  20) = (   0.0140791   1.4435866  15.9983415  )
        21           O1  tau(  21) = (   3.2904802   0.0005063   4.7018136  )
        22           O1  tau(  22) = (   6.5273045   5.8164216  17.2577718  )
        23           O1  tau(  23) = (   1.3043587   1.4918075   6.0039043  )
        24           O1  tau(  24) = (   5.2767064   1.4903225   6.0039473  )
        25           Ti1 tau(  25) = (   0.0000382   5.9609847   6.0000000  )
        26           Ti1 tau(  26) = (   3.2902200   4.4714249   6.0002472  )
        27           O1  tau(  27) = (   0.0002396   2.9813036   7.9858123  )
        28           O1  tau(  28) = (   3.2902150   2.9813002   7.3038282  )
        29           O1  tau(  29) = (   4.5938453   4.4726049   9.2879030  )
        30           O1  tau(  30) = (   1.9864658   4.4711199   9.2879459  )
        31           Ti1 tau(  31) = (   3.2891106   5.8743827   9.1763621  )
        32           Ti1 tau(  32) = (   0.0006254   4.4649316   9.2693709  )
        33           O1  tau(  33) = (   3.3068470   2.9864458  11.3814114  )
        34           O1  tau(  34) = (   0.0092240   2.9805883  10.6323155  )
        35           O1  tau(  35) = (   1.2982948   4.4740332  12.6840172  )
        36           O1  tau(  36) = (   5.3097620   4.4704985  12.6972095  )
        37           Ti1 tau(  37) = (   0.0348817   0.0130325  12.4954113  )
        38           Ti1 tau(  38) = (   3.3270268   4.4633798  12.5435021  )
        39           O1  tau(  39) = (   0.0563025   2.9439880  14.9425960  )
        40           O1  tau(  40) = (   3.2900316   2.9661073  13.9503945  )
        41           O1  tau(  41) = (   4.5967999   4.4093095  16.0633277  )
        42           O1  tau(  42) = (   2.0412097   4.4536800  16.1303113  )
        43           Ti1 tau(  43) = (   3.2964201   5.9600488  15.8742613  )
        44           Ti1 tau(  44) = (   0.0241369   4.6516137  15.8518307  )
        45           O1  tau(  45) = (   3.2900926   2.9813045   4.7018136  )
        46           O1  tau(  46) = (   1.3039711   4.4726057   6.0039043  )
        47           O1  tau(  47) = (   5.2763189   4.4711207   6.0039473  )
        48           N1  tau(  48) = (   1.4509408   2.7109095  18.7602185  )
        49           N1  tau(  49) = (   0.0917387   2.5303350  18.2207845  )
        50           C1  tau(  50) = (   1.9503960   3.7723240  19.2784661  )
        51           H1  tau(  51) = (   1.1612915   4.5273475  19.4152495  )
        52           H1  tau(  52) = (   2.0208952   1.9083395  18.4664618  )
        53           H1  tau(  53) = (   6.1377449   3.3539424  18.4987646  )
        54           H1  tau(  54) = (   6.2616785   1.7135167  18.6767212  )
        55           O1  tau(  55) = (   3.7012217   5.9496235  18.2853534  )
        56           H1  tau(  56) = (   4.6684668   5.8470116  18.1670174  )
        57           H1  tau(  57) = (   3.3852657   5.1278045  18.7338684  )

     number of k points=    10  Fermi-Dirac smearing, width (Ry)=  0.0073
                       cart. coord. in units 2pi/alat
        k(    1) = (   0.0000000   0.0000000   0.0000000), wk =   0.1250000
        k(    2) = (   0.0000000   0.0419351   0.0000000), wk =   0.2500000
        k(    3) = (   0.0000000  -0.0838702   0.0000000), wk =   0.1250000
        k(    4) = (   0.0379955   0.0000049   0.0000000), wk =   0.2500000
        k(    5) = (   0.0379955   0.0419400   0.0000000), wk =   0.2500000
        k(    6) = (   0.0379955  -0.0838652   0.0000000), wk =   0.2500000
        k(    7) = (   0.0379955  -0.0419301   0.0000000), wk =   0.2500000
        k(    8) = (  -0.0759910  -0.0000099   0.0000000), wk =   0.1250000
        k(    9) = (  -0.0759910   0.0419252   0.0000000), wk =   0.2500000
        k(   10) = (  -0.0759910  -0.0838800   0.0000000), wk =   0.1250000

     Initial potential from superposition of free atoms

     starting charge  387.99913, renormalised to  404.00000

     negative rho (up, down):  1.598E-02 0.000E+00

     %%%%%%%%%%%%%%%%%%%%%%%%%%%%%%%%%%%%%%%%%%%%%%%%%%%%%%%%%%%%%%%%%%%%%%%%
     %                                                                      %
     % You are using vdW-DF, which was implemented by the Thonhauser group. %
     % Please cite the following two papers that made this development      %
     % possible and the two reviews that describe the various versions:     %
     %                                                                      %
     %   T. Thonhauser et al., PRL 115, 136402 (2015).                      %
     %   T. Thonhauser et al., PRB 76, 125112 (2007).                       %
     %   K. Berland et al., Rep. Prog. Phys. 78, 066501 (2015).             %
     %   D.C. Langreth et al., J. Phys.: Condens. Matter 21, 084203 (2009). %
     %                                                                      %
     %                                                                      %
     % If you are calculating the stress with vdW-DF, please also cite:     %
     %                                                                      %
     %   R. Sabatini et al., J. Phys.: Condens. Matter 24, 424209 (2012).   %
     %                                                                      %
     %%%%%%%%%%%%%%%%%%%%%%%%%%%%%%%%%%%%%%%%%%%%%%%%%%%%%%%%%%%%%%%%%%%%%%%%

     Adding external electric field

     Computed dipole along edir(3) :
        Dipole              -14.3585 Ry au,        -36.4957 Debye
        Dipole field         -0.0271 Ry au,

        Potential amp.        2.5118 Ry
        Total length         46.3494 bohr

     Starting wfcs are  306 atomic wfcs
  @ DRIVER MODE: Message from server: STATUS
  @ DRIVER MODE: Message from server: POSDATA
  @ DRIVER MODE: Reading and sharing cell
  @ DRIVER MODE: Reading and sharing positions
  @ DRIVER MODE: Received positions

     Self-consistent Calculation

     iteration #  1     ecut=    29.40 Ry     beta= 0.05
     Davidson diagonalization with overlap
     c_bands:  3 eigenvalues not converged
     c_bands:  4 eigenvalues not converged
     c_bands:  4 eigenvalues not converged
     c_bands:  4 eigenvalues not converged
     c_bands:  5 eigenvalues not converged
     c_bands:  3 eigenvalues not converged
     c_bands:  2 eigenvalues not converged
     c_bands:  4 eigenvalues not converged
     ethr =  1.00E-05,  avg # of iterations = 21.9

[...]

     total energy              =   -2220.96227782 Ry
     estimated scf accuracy    <    8587.35261743 Ry

     iteration #  2     ecut=    29.40 Ry     beta= 0.05
     Davidson diagonalization with overlap
     ethr =  1.00E-02,  avg # of iterations = 28.7

[...]

     iteration # 81     ecut=    29.40 Ry     beta= 0.05
     Davidson diagonalization with overlap
     c_bands:  2 eigenvalues not converged
     c_bands:  4 eigenvalues not converged
     ethr =  1.66E-10,  avg # of iterations = 17.5

[...]

     total energy              =   -2975.10523299 Ry
     estimated scf accuracy    <       0.00000008 Ry

     iteration # 85     ecut=    29.40 Ry     beta= 0.05
     Davidson diagonalization with overlap
     ethr =  1.99E-11,  avg # of iterations =  4.4

     negative rho (up, down):  1.579E-02 0.000E+00

     Adding external electric field

     Computed dipole along edir(3) :
        Dipole                1.0241 Ry au,          2.6030 Debye
        Dipole field          0.0019 Ry au,

        Potential amp.       -0.1792 Ry
        Total length         46.3494 bohr

     End of self-consistent calculation

          k = 0.0000 0.0000 0.0000 ( 18029 PWs)   bands (ev):

   -55.3855 -55.3497 -55.3455 -55.3114 -55.3083 -55.3026 -55.2674 -55.2321
   -55.2170 -55.1822 -55.1753 -55.1602 -55.1416 -55.1126 -54.3770 -54.3429
   -31.9445 -31.8805 -31.8382 -31.7571 -31.7083 -31.7056 -31.6813 -31.6785
   -31.6343 -31.5986 -31.5916 -31.5901 -31.5832 -31.5797 -31.5617 -31.5595
   -31.5348 -31.5269 -31.5239 -31.5125 -31.4982 -31.4917 -31.4729 -31.4681
   -31.4596 -31.4467 -31.4460 -31.4173 -31.4028 -31.3991 -31.3960 -31.3738
   -31.3700 -31.3658 -31.3624 -31.3412 -31.3301 -31.3181 -31.3033 -31.3031
   -31.2930 -31.2864 -30.7864 -30.6919 -30.6699 -30.6028 -30.5160 -30.4051
   -18.8662 -18.4582 -16.2204 -15.9731 -15.8370 -15.7326 -15.5951 -15.4970
   -15.3878 -15.2746 -15.2514 -15.1576 -15.0834 -15.0796 -15.0424 -15.0166
   -14.9540 -14.9326 -14.9089 -14.9029 -14.8883 -14.8781 -14.8416 -14.8306
   -14.7962 -14.7868 -14.7694 -14.6397 -14.6258 -14.5521 -14.4816 -14.3439
   -12.8794 -12.7619  -9.8079  -6.9895  -6.3799  -6.0705  -4.4187  -3.7304
    -3.5439  -3.4106  -3.3324  -3.3030  -3.2858  -3.1544  -3.0627  -2.9028
    -2.8638  -2.8074  -2.6740  -2.5981  -2.5918  -2.5039  -2.4314  -2.4079
    -2.3750  -2.2660  -2.2596  -2.2098  -2.1924  -2.1693  -2.1601  -2.1134
    -2.0675  -2.0403  -1.9551  -1.8536  -1.8100  -1.7901  -1.7537  -1.7310
    -1.7263  -1.6826  -1.6764  -1.6529  -1.6140  -1.5896  -1.5441  -1.4322
    -1.3913  -1.2319  -1.1945  -1.0404  -1.0200  -0.9807  -0.9602  -0.9208
    -0.8936  -0.8773  -0.8606  -0.7724  -0.7142  -0.6480  -0.5839  -0.4933
    -0.4825  -0.4091  -0.3829  -0.3177  -0.2302  -0.1856  -0.1761  -0.1513
    -0.1479  -0.0341   0.0107   0.0709   0.0895   0.1470   0.1629   0.1850
     0.2550   0.3084   0.3781   0.4087   0.4879   0.5061   0.5412   0.5503
     0.5826   0.5932   0.6693   0.6842   0.7124   0.8151   0.9125   1.0058
     1.2162   1.2181   1.2559   1.5506   1.5528   1.6460   1.8294   2.2223
     2.2707   3.7044   3.7828   3.8324   3.8500   3.8544   3.9393   4.1939
     4.2083   4.2209   4.2271   4.2678

[...]

          k = 0.0380-0.0419 0.0000 ( 17876 PWs)   bands (ev):

[...]

          k =-0.0760-0.0000 0.0000 ( 17886 PWs)   bands (ev):

[...]

          k =-0.0760-0.0839 0.0000 ( 17948 PWs)   bands (ev):

   -55.3686 -55.3663 -55.3284 -55.3284 -55.3054 -55.3017 -55.2537 -55.2458
   -55.2027 -55.1961 -55.1620 -55.1593 -55.1578 -55.1144 -54.3599 -54.3599
   -31.7951 -31.7570 -31.7429 -31.6533 -31.6533 -31.6389 -31.6270 -31.6196
   -31.6195 -31.5987 -31.5937 -31.5905 -31.5676 -31.5599 -31.5480 -31.5340
   -31.5309 -31.5283 -31.5243 -31.5163 -31.5116 -31.5095 -31.5086 -31.5008
   -31.4688 -31.4675 -31.4482 -31.4481 -31.4478 -31.4429 -31.4401 -31.4356
   -31.4263 -31.4148 -31.4091 -31.3922 -31.3906 -31.3808 -31.3393 -31.3384
   -31.3378 -31.3191 -30.6825 -30.6825 -30.5990 -30.5988 -30.5594 -30.5594
   -18.8602 -18.4607 -15.8400 -15.6533 -15.5018 -15.4300 -15.4097 -15.3265
   -15.2712 -15.2680 -15.1948 -15.1769 -15.1644 -15.1430 -15.1331 -15.0857
   -15.0487 -15.0120 -14.9932 -14.9706 -14.9275 -14.9047 -14.9031 -14.8963
   -14.8886 -14.8484 -14.8431 -14.8398 -14.7481 -14.7462 -14.7005 -14.5550
   -12.8634 -12.8633  -9.8174  -6.9783  -6.3550  -6.0463  -4.4327  -3.6572
    -3.0248  -2.9114  -2.9008  -2.6720  -2.6534  -2.5924  -2.5799  -2.4919
    -2.4763  -2.4156  -2.3921  -2.3422  -2.3190  -2.2812  -2.2674  -2.2456
    -2.2246  -2.2109  -2.1844  -2.1682  -2.1514  -2.1318  -2.1205  -2.1092
    -2.0538  -2.0484  -2.0394  -2.0140  -1.9911  -1.9549  -1.9449  -1.9285
    -1.7733  -1.7576  -1.7363  -1.6006  -1.5963  -1.5618  -1.5221  -1.4945
    -1.4369  -1.4281  -1.3999  -1.3414  -1.1468  -1.1367  -1.1247  -1.1068
    -1.0357  -0.9802  -0.9665  -0.9482  -0.8948  -0.8168  -0.7817  -0.7302
    -0.6394  -0.5893  -0.5796  -0.5540  -0.4327  -0.4100  -0.3674  -0.3492
    -0.3331  -0.2986  -0.2971  -0.2394  -0.1871  -0.1515  -0.1285  -0.1142
    -0.0773   0.0775   0.1294   0.1458   0.2599   0.2894   0.4674   0.5102
     0.5320   0.6370   0.7204   0.7483   0.7628   0.8883   0.9105   0.9129
     0.9812   1.0034   1.0635   1.0692   1.2124   2.0021   2.0034   2.0906
     2.0908   3.8295   3.9523   3.9966   4.0324   4.1084   4.1611   4.2182
     4.2773   4.2892   4.2924   4.3585

     the Fermi energy is     3.7664 ev

!    total energy              =   -2975.10523708 Ry
     estimated scf accuracy    <       0.00000006 Ry
     smearing contrib. (-TS)   =      -0.03671969 Ry
     internal energy E=F+TS    =   -2975.06851739 Ry

     The total energy is F=E-TS. E is the sum of the following terms:
     one-electron contribution =  -23505.37440448 Ry
     hartree contribution      =   11848.70882506 Ry
     xc contribution           =    -494.91213043 Ry
     ewald contribution        =    9176.50721324 Ry
     electric field correction =       0.00197922 Ry

     convergence has been achieved in  85 iterations

     Forces acting on atoms (cartesian axes, Ry/au):

     atom    1 type  1   force =     0.00003086   -0.00025498    0.09308338
     atom    2 type  1   force =    -0.00019030   -0.00032243   -0.17839902
     atom    3 type  2   force =     0.00006105   -0.00017398   -0.02025943
     atom    4 type  2   force =     0.00001775   -0.00203578    0.05924613
     atom    5 type  2   force =    -0.01033321   -0.00110383    0.00809331
     atom    6 type  2   force =     0.01217529   -0.00054829    0.00817256
     atom    7 type  1   force =     0.00015059    0.00328767   -0.01111004
     atom    8 type  1   force =    -0.00030040    0.00053679   -0.00560986
     atom    9 type  2   force =     0.00004167    0.00017711   -0.00015141
     atom   10 type  2   force =    -0.00146319   -0.00003838   -0.00170689
     atom   11 type  2   force =     0.00038341   -0.00003686   -0.00006052
     atom   12 type  2   force =    -0.00010091    0.00010345   -0.00009129
     atom   13 type  1   force =    -0.00009220   -0.00017259   -0.00025061
     atom   14 type  1   force =    -0.00021399   -0.00036153    0.00033482
     atom   15 type  2   force =     0.00006837   -0.00048349    0.00007768
     atom   16 type  2   force =     0.00021946    0.00009489    0.00026698
     atom   17 type  2   force =     0.00034553   -0.00018512    0.00018139
     atom   18 type  2   force =    -0.00006062   -0.00023234   -0.00012053
     atom   19 type  1   force =    -0.00028474   -0.00041440    0.00011359
     atom   20 type  1   force =     0.00008649    0.00034173    0.00059237
     atom   21 type  2   force =    -0.00000414   -0.00007552    0.10400351
     atom   22 type  2   force =    -0.00010113   -0.00000653   -0.00008013
     atom   23 type  2   force =    -0.07034472   -0.00016353   -0.02683533
     atom   24 type  2   force =     0.07021236    0.00028218   -0.02691393
     atom   25 type  1   force =     0.00002528   -0.00015860    0.09274978
     atom   26 type  1   force =    -0.00015661   -0.00039621   -0.17834536
     atom   27 type  2   force =     0.00011133   -0.00030659   -0.01920030
     atom   28 type  2   force =     0.00004593   -0.00163049    0.05839692
     atom   29 type  2   force =    -0.01028185   -0.00064309    0.00729900
     atom   30 type  2   force =     0.01201559   -0.00031125    0.00743306
     atom   31 type  1   force =     0.00007736    0.00514696   -0.01465508
     atom   32 type  1   force =    -0.00013944   -0.00051990   -0.00595247
     atom   33 type  2   force =     0.00012877   -0.00039206   -0.00023919
     atom   34 type  2   force =    -0.00078685    0.00261038   -0.00103015
     atom   35 type  2   force =    -0.00006721   -0.00011134   -0.00012514
     atom   36 type  2   force =     0.00023372    0.00000560   -0.00015111
     atom   37 type  1   force =    -0.00043684    0.00008565    0.00002145
     atom   38 type  1   force =    -0.00003468   -0.00024070   -0.00025253
     atom   39 type  2   force =    -0.00030302   -0.00021549   -0.00017868
     atom   40 type  2   force =    -0.00013604   -0.00005947   -0.00003297
     atom   41 type  2   force =    -0.00015447   -0.00013884    0.00037594
     atom   42 type  2   force =    -0.00005396   -0.00021676    0.00011440
     atom   43 type  1   force =     0.00003474   -0.00035235    0.00003187
     atom   44 type  1   force =     0.00001885   -0.00006216    0.00020283
     atom   45 type  2   force =     0.00001072   -0.00010569    0.10397572
     atom   46 type  2   force =    -0.07037021   -0.00011290   -0.02685566
     atom   47 type  2   force =     0.07021487    0.00032197   -0.02691443
     atom   48 type  3   force =     0.00577727   -0.00842430   -0.00260095
     atom   49 type  3   force =    -0.00101568   -0.00046716    0.00029909
     atom   50 type  4   force =     0.00064176    0.00018479    0.00042024
     atom   51 type  5   force =    -0.00003844   -0.00065907   -0.00070487
     atom   52 type  5   force =    -0.00559601    0.00899946    0.00310557
     atom   53 type  5   force =    -0.00017952    0.00005689   -0.00002313
     atom   54 type  5   force =     0.00022170    0.00055015   -0.00003151
     atom   55 type  2   force =     0.00008426   -0.00014752    0.00056729
     atom   56 type  5   force =     0.00025427   -0.00033093   -0.00042761
     atom   57 type  5   force =    -0.00044889   -0.00017320    0.00015123

     Total force =     0.366511     Total SCF correction =     0.000565
  @ DRIVER MODE: Message from server: STATUS
  @ DRIVER MODE: Message from server: GETFORCE
  @ DRIVER MODE: Returning v,forces,stress,ensemble

     Writing output data file ./calc.save/
  @ DRIVER MODE: Message from server: EXIT
  @ DRIVE MODE: Exiting

     General routines

     Parallel routines

   This run was terminated on:   7:57:14  22Sep2021

   JOB DONE.