     Program PWSCF v.6.7GPU starts on 26Sep2021 at 19:53:23

     R & G space division:  proc/nbgrp/npool/nimage =       8
     Reading input from /storage/home/hcoda1/3/ntian30/research/carbon/CxH_vib/H2O_calc/ads_slab/CH3ON2H2O_a/out_0058/pw.inp
Warning: card &CELL ignored
Warning: card   CELL_DYNAMICS='IPI', ignored
Warning: card / ignored

     Current dimensions of program PWSCF are:
     Max number of different atomic species (ntypx) = 10
     Max number of k-points (npk) =  40000
     Max angular momentum in pseudopotentials (lmaxx) =  3
     Presently no symmetry can be used with electric field

     Message from routine cell_base_init:
     DEPRECATED: use true lattice parameter, not A to a.u. conversion factor

     IMPORTANT: XC functional enforced from input :
     Exchange-correlation= BEEF-VDW
                           (   1   4  43  14   2   0   0)
     Any further DFT definition will be discarded
     Please, verify this is what you really want

  @ DRIVER MODE: Connecting to
 qe_1139763_2971672.sched-torque.pace.gatech.edud5nn1kj6_scratch
  using UNIX socket
  @ DRIVER MODE: Message from server: STATUS
  @ DRIVER MODE: Message from server: INIT
  @ DRIVER MODE: Receiving replica           0          -1
  @ DRIVER MODE: Receiving encoded integer          25
  @ DRIVER MODE:  SCF:  T  FORCE:  T  STRESS:  F  VC:  F  ENSEMBLE:  F
  @ DRIVER MODE:  SCF:  T  FORCE:  T  STRESS:  F  VC:  F  ENSEMBLE:  F

     Using Slab Decomposition

     bravais-lattice index     =            0
     lattice parameter (alat)  =       1.8897  a.u.
     unit-cell volume          =    6658.9804 (a.u.)^3
     number of atoms/cell      =           57
     number of atomic types    =            5
     number of electrons       =       409.00
     number of Kohn-Sham states=          214
     kinetic-energy cutoff     =      29.3995  Ry
     charge density cutoff     =     293.9946  Ry
     scf convergence threshold =      7.3E-08
     mixing beta               =       0.0500
     number of iterations used =            8  plain     mixing
     Exchange-correlation= BEEF-VDW
                           (   1   4  43  14   2   0   0)

     celldm(1)=   1.889726  celldm(2)=   0.000000  celldm(3)=   0.000000
     celldm(4)=   0.000000  celldm(5)=   0.000000  celldm(6)=   0.000000

     crystal axes: (cart. coord. in units of alat)
               a(1) = (   6.579727   0.000000   0.000000 )
               a(2) = (  -0.000775   5.961596   0.000000 )
               a(3) = (   0.000000   0.000000  25.155947 )

     reciprocal axes: (cart. coord. in units 2 pi/alat)
               b(1) = (  0.151982  0.000020  0.000000 )
               b(2) = (  0.000000  0.167740  0.000000 )
               b(3) = (  0.000000  0.000000  0.039752 )

     PseudoPot. # 1 for Ti read from file:
     /storage/coda1/p-amedford6/0/shared/rich_project_chbe-medford/medford-share/data/pseudos_module/espresso/nninc/pbe/van/Ti.UPF
     MD5 check sum: 8e4df49b7f0d34bbd5052bf3f5ea0213
     Pseudo is Ultrasoft, Zval = 12.0
     Generated by new atomic code, or converted to UPF format
     Using radial grid of  851 points,  6 beta functions with:
                l(1) =   0
                l(2) =   0
                l(3) =   1
                l(4) =   1
                l(5) =   2
                l(6) =   2
     Q(r) pseudized with  8 coefficients,  rinner =    1.000   1.000   1.000
                                                       1.000   1.000

     PseudoPot. # 2 for O  read from file:
     /storage/coda1/p-amedford6/0/shared/rich_project_chbe-medford/medford-share/data/pseudos_module/espresso/nninc/pbe/van/O.UPF
     MD5 check sum: 78c19812648e8988a0fe644b0f25305e
     Pseudo is Ultrasoft, Zval =  6.0
     Generated by new atomic code, or converted to UPF format
     Using radial grid of  737 points,  4 beta functions with:
                l(1) =   0
                l(2) =   0
                l(3) =   1
                l(4) =   1
     Q(r) pseudized with  8 coefficients,  rinner =    0.800   0.800   0.800

     PseudoPot. # 3 for C  read from file:
     /storage/coda1/p-amedford6/0/shared/rich_project_chbe-medford/medford-share/data/pseudos_module/espresso/nninc/pbe/van/C.UPF
     MD5 check sum: 1a69bf6b8db32088f5b2163dbdb77a27
     Pseudo is Ultrasoft, Zval =  4.0
     Generated by new atomic code, or converted to UPF format
     Using radial grid of  721 points,  4 beta functions with:
                l(1) =   0
                l(2) =   0
                l(3) =   1
                l(4) =   1
     Q(r) pseudized with  8 coefficients,  rinner =    0.800   0.800   0.800

     PseudoPot. # 4 for H  read from file:
     /storage/coda1/p-amedford6/0/shared/rich_project_chbe-medford/medford-share/data/pseudos_module/espresso/nninc/pbe/van/H.UPF
     MD5 check sum: b5ee9d7bfd3a09ee7748110bda690ff7
     Pseudo is Ultrasoft, Zval =  1.0
     Generated by new atomic code, or converted to UPF format
     Using radial grid of  615 points,  1 beta functions with:
                l(1) =   0
     Q(r) pseudized with  8 coefficients,  rinner =    0.800

     PseudoPot. # 5 for N  read from file:
     /storage/coda1/p-amedford6/0/shared/rich_project_chbe-medford/medford-share/data/pseudos_module/espresso/nninc/pbe/van/N.UPF
     MD5 check sum: 90d10febe142ad51ac9d5be1deb811c4
     Pseudo is Ultrasoft, Zval =  5.0
     Generated by new atomic code, or converted to UPF format
     Using radial grid of  729 points,  4 beta functions with:
                l(1) =   0
                l(2) =   0
                l(3) =   1
                l(4) =   1
     Q(r) pseudized with  8 coefficients,  rinner =    0.800   0.800   0.800

     atomic species   valence    mass     pseudopotential
        Ti1           12.00    47.86700     Ti( 1.00)
        O1             6.00    15.99900     O ( 1.00)
        C1             4.00    12.01100     C ( 1.00)
        H1             1.00     1.00800     H ( 1.00)
        N1             5.00    14.00700     N ( 1.00)

     No symmetry found

   Cartesian axes

     site n.     atom                  positions (alat units)
         1           Ti1 tau(   1) = (   0.0004258   2.9801865   6.0000000  )
         2           Ti1 tau(   2) = (   3.2906075   1.4906267   6.0002472  )
         3           O1  tau(   3) = (   0.0006271   0.0005054   7.9858123  )
         4           O1  tau(   4) = (   3.2906025   0.0005020   7.3038282  )
         5           O1  tau(   5) = (   4.5942328   1.4918067   9.2879030  )
         6           O1  tau(   6) = (   1.9868534   1.4903216   9.2879459  )
         7           Ti1 tau(   7) = (   3.3113259   3.0354369   9.1618307  )
         8           Ti1 tau(   8) = (   0.0141821   1.6139659   9.3625064  )
         9           O1  tau(   9) = (   3.2964399   0.0287090  11.3517035  )
        10           O1  tau(  10) = (   0.0046459   0.0167322  10.6079620  )
        11           O1  tau(  11) = (   1.2916403   1.5142126  12.6509924  )
        12           O1  tau(  12) = (   5.2954765   1.5212855  12.6445515  )
        13           Ti1 tau(  13) = (   0.0303381   3.0181167  12.7741416  )
        14           Ti1 tau(  14) = (   3.3376880   1.5190318  12.5019279  )
        15           O1  tau(  15) = (   6.5702980   0.0162101  14.7136675  )
        16           O1  tau(  16) = (   3.3118210   0.0215951  13.9605728  )
        17           O1  tau(  17) = (   4.5586303   1.5408398  16.0643691  )
        18           O1  tau(  18) = (   2.0376984   1.5397913  16.0346728  )
        19           Ti1 tau(  19) = (   3.2806018   3.0126274  15.6982083  )
        20           Ti1 tau(  20) = (   0.0204579   1.3876160  16.0921805  )
        21           O1  tau(  21) = (   3.2904802   0.0005063   4.7018136  )
        22           O1  tau(  22) = (   0.0362274   0.0182013  17.2505027  )
        23           O1  tau(  23) = (   1.3043587   1.4918075   6.0039043  )
        24           O1  tau(  24) = (   5.2767064   1.4903225   6.0039473  )
        25           Ti1 tau(  25) = (   0.0000382   5.9609847   6.0000000  )
        26           Ti1 tau(  26) = (   3.2902200   4.4714249   6.0002472  )
        27           O1  tau(  27) = (   0.0002396   2.9813036   7.9858123  )
        28           O1  tau(  28) = (   3.2902150   2.9813002   7.3038282  )
        29           O1  tau(  29) = (   4.5938453   4.4726049   9.2879030  )
        30           O1  tau(  30) = (   1.9864658   4.4711199   9.2879459  )
        31           Ti1 tau(  31) = (   3.2918133   0.0584897   9.1554610  )
        32           Ti1 tau(  32) = (   0.0176696   4.5429683   9.2683582  )
        33           O1  tau(  33) = (   3.2944385   3.0046939  11.3531965  )
        34           O1  tau(  34) = (   0.0071923   2.9964285  10.5824339  )
        35           O1  tau(  35) = (   1.2923070   4.5060354  12.6395470  )
        36           O1  tau(  36) = (   5.2930342   4.4972821  12.6335129  )
        37           Ti1 tau(  37) = (   0.0360028   0.0369787  12.5252624  )
        38           Ti1 tau(  38) = (   3.3378333   4.5109478  12.5016189  )
        39           O1  tau(  39) = (   0.0182598   3.0415135  14.6926035  )
        40           O1  tau(  40) = (   3.2973286   3.0139918  13.9115332  )
        41           O1  tau(  41) = (   4.5518717   4.4752506  16.0920674  )
        42           O1  tau(  42) = (   2.0385343   4.4722040  16.0556704  )
        43           Ti1 tau(  43) = (   3.3273276   0.0437280  15.7880462  )
        44           Ti1 tau(  44) = (   0.0148993   4.5306414  15.9319406  )
        45           O1  tau(  45) = (   3.2900926   2.9813045   4.7018136  )
        46           O1  tau(  46) = (   1.3039711   4.4726057   6.0039043  )
        47           O1  tau(  47) = (   5.2763189   4.4711207   6.0039473  )
        48           C1  tau(  48) = (   6.0619278   3.0088867  18.6555636  )
        49           O1  tau(  49) = (   6.5788924   2.9994598  17.3400993  )
        50           H1  tau(  50) = (   4.9713474   2.8828304  18.6515055  )
        51           H1  tau(  51) = (   6.4909130   2.1836263  19.2313859  )
        52           H1  tau(  52) = (   6.3070107   3.9563896  19.1453893  )
        53           N1  tau(  53) = (   5.9950546   3.0301018  22.7159517  )
        54           N1  tau(  54) = (   5.2276613   3.1827328  21.9368001  )
        55           O1  tau(  55) = (   3.1818816   0.0591848  18.2205797  )
        56           H1  tau(  56) = (   3.8437189   5.3938241  18.5518935  )
        57           H1  tau(  57) = (   2.3086839   5.6288137  18.3735615  )

     number of k points=    10  Fermi-Dirac smearing, width (Ry)=  0.0073
                       cart. coord. in units 2pi/alat
        k(    1) = (   0.0000000   0.0000000   0.0000000), wk =   0.1250000
        k(    2) = (   0.0000000   0.0419351   0.0000000), wk =   0.2500000
        k(    3) = (   0.0000000  -0.0838702   0.0000000), wk =   0.1250000
        k(    4) = (   0.0379955   0.0000049   0.0000000), wk =   0.2500000
        k(    5) = (   0.0379955   0.0419400   0.0000000), wk =   0.2500000
        k(    6) = (   0.0379955  -0.0838652   0.0000000), wk =   0.2500000
        k(    7) = (   0.0379955  -0.0419301   0.0000000), wk =   0.2500000
        k(    8) = (  -0.0759910  -0.0000099   0.0000000), wk =   0.1250000
        k(    9) = (  -0.0759910   0.0419252   0.0000000), wk =   0.2500000
        k(   10) = (  -0.0759910  -0.0838800   0.0000000), wk =   0.1250000

     Initial potential from superposition of free atoms

     starting charge  392.99914, renormalised to  409.00000

     negative rho (up, down):  9.746E-03 0.000E+00

     %%%%%%%%%%%%%%%%%%%%%%%%%%%%%%%%%%%%%%%%%%%%%%%%%%%%%%%%%%%%%%%%%%%%%%%%
     %                                                                      %
     % You are using vdW-DF, which was implemented by the Thonhauser group. %
     % Please cite the following two papers that made this development      %
     % possible and the two reviews that describe the various versions:     %
     %                                                                      %
     %   T. Thonhauser et al., PRL 115, 136402 (2015).                      %
     %   T. Thonhauser et al., PRB 76, 125112 (2007).                       %
     %   K. Berland et al., Rep. Prog. Phys. 78, 066501 (2015).             %
     %   D.C. Langreth et al., J. Phys.: Condens. Matter 21, 084203 (2009). %
     %                                                                      %
     %                                                                      %
     % If you are calculating the stress with vdW-DF, please also cite:     %
     %                                                                      %
     %   R. Sabatini et al., J. Phys.: Condens. Matter 24, 424209 (2012).   %
     %                                                                      %
     %%%%%%%%%%%%%%%%%%%%%%%%%%%%%%%%%%%%%%%%%%%%%%%%%%%%%%%%%%%%%%%%%%%%%%%%

     Adding external electric field

     Computed dipole along edir(3) :
        Dipole              -18.5715 Ry au,        -47.2041 Debye
        Dipole field         -0.0350 Ry au,

        Potential amp.        3.2488 Ry
        Total length         46.3494 bohr

     Starting wfcs are  309 atomic wfcs
  @ DRIVER MODE: Message from server: STATUS
  @ DRIVER MODE: Message from server: POSDATA
  @ DRIVER MODE: Reading and sharing cell
  @ DRIVER MODE: Reading and sharing positions
  @ DRIVER MODE: Received positions

     Self-consistent Calculation

     iteration #  1     ecut=    29.40 Ry     beta= 0.05
     Davidson diagonalization with overlap
     c_bands:  3 eigenvalues not converged
     c_bands:  2 eigenvalues not converged
     c_bands:  2 eigenvalues not converged
     c_bands:  5 eigenvalues not converged
     c_bands:  5 eigenvalues not converged
     c_bands:  5 eigenvalues not converged
     c_bands:  1 eigenvalues not converged
     c_bands:  3 eigenvalues not converged
     ethr =  1.00E-05,  avg # of iterations = 28.5

[...]

     total energy              =   -2113.09619878 Ry
     estimated scf accuracy    <   10297.61556547 Ry

     iteration #  2     ecut=    29.40 Ry     beta= 0.05
     Davidson diagonalization with overlap
     ethr =  1.00E-02,  avg # of iterations = 31.0

[...]

     iteration # 62     ecut=    29.40 Ry     beta= 0.05
     Davidson diagonalization with overlap
     c_bands:  1 eigenvalues not converged
     ethr =  2.07E-10,  avg # of iterations = 16.5

[...]

     total energy              =   -3006.52130552 Ry
     estimated scf accuracy    <       0.00000009 Ry

     iteration # 67     ecut=    29.40 Ry     beta= 0.05
     Davidson diagonalization with overlap
     ethr =  2.27E-11,  avg # of iterations = 11.4

     negative rho (up, down):  1.093E-02 0.000E+00

     Adding external electric field

     Computed dipole along edir(3) :
        Dipole                0.9965 Ry au,          2.5329 Debye
        Dipole field          0.0019 Ry au,

        Potential amp.       -0.1743 Ry
        Total length         46.3494 bohr

     End of self-consistent calculation

          k = 0.0000 0.0000 0.0000 ( 18029 PWs)   bands (ev):

   -55.2854 -55.2507 -55.2495 -55.2143 -55.1917 -55.1763 -55.1686 -55.1329
   -55.0821 -55.0640 -55.0489 -55.0409 -55.0071 -54.9529 -54.2921 -54.2581
   -31.8077 -31.7546 -31.6777 -31.6456 -31.6240 -31.5772 -31.5599 -31.5562
   -31.5203 -31.5150 -31.4782 -31.4645 -31.4580 -31.4491 -31.4450 -31.4320
   -31.4259 -31.3898 -31.3845 -31.3769 -31.3726 -31.3537 -31.3499 -31.3408
   -31.3331 -31.3271 -31.3112 -31.2899 -31.2793 -31.2738 -31.2705 -31.2635
   -31.2604 -31.2447 -31.2318 -31.2218 -31.2201 -31.1856 -31.1703 -31.1500
   -31.1376 -31.1363 -30.7014 -30.6056 -30.5832 -30.5180 -30.4319 -30.3208
   -21.4251 -18.7502 -17.1979 -15.9999 -15.7295 -15.5691 -15.4382 -15.4029
   -15.2158 -15.0943 -14.9617 -14.9374 -14.8837 -14.8562 -14.8218 -14.8114
   -14.8064 -14.7941 -14.7859 -14.7394 -14.7047 -14.6874 -14.6869 -14.6638
   -14.6149 -14.5615 -14.4960 -14.4312 -14.4027 -14.3612 -14.2920 -14.2839
   -12.7927 -12.6748  -9.1231  -6.6024  -6.5705  -4.5633  -4.5525  -3.9163
    -3.7659  -3.4714  -3.3634  -3.2859  -3.2115  -3.1892  -3.1678  -3.0917
    -2.9732  -2.8455  -2.7481  -2.5107  -2.4554  -2.4127  -2.3808  -2.3515
    -2.1952  -2.1704  -2.1017  -2.0908  -2.0819  -2.0712  -2.0442  -2.0150
    -1.9894  -1.9575  -1.8984  -1.8745  -1.8039  -1.6729  -1.6641  -1.6324
    -1.5860  -1.5696  -1.5678  -1.5415  -1.4974  -1.4783  -1.4541  -1.4487
    -1.3517  -1.2591  -1.2162  -1.1222  -1.0425  -0.9697  -0.8475  -0.8083
    -0.7352  -0.7019  -0.6859  -0.6323  -0.5830  -0.5726  -0.5140  -0.4671
    -0.3595  -0.3170  -0.2750  -0.2384  -0.1867  -0.1427  -0.0720  -0.0385
    -0.0059  -0.0015   0.0197   0.2181   0.2294   0.2807   0.2936   0.3905
     0.4430   0.4776   0.4907   0.5000   0.5380   0.6136   0.6691   0.6777
     0.7094   0.7453   0.7645   0.8107   0.8515   0.9039   0.9336   0.9683
     1.0347   1.0752   1.2291   1.3241   1.3678   1.4839   1.6408   1.7321
     1.8059   1.9061   2.3188   2.3762   3.8962   3.9303   3.9570   3.9754
     4.0433   4.1423   4.2590   4.3498   4.3595   4.3900

[...]

          k = 0.0380-0.0419 0.0000 ( 17876 PWs)   bands (ev):

[...]

          k =-0.0760-0.0000 0.0000 ( 17886 PWs)   bands (ev):

[...]

          k =-0.0760-0.0839 0.0000 ( 17948 PWs)   bands (ev):

   -55.2732 -55.2615 -55.2347 -55.2300 -55.1885 -55.1741 -55.1580 -55.1437
   -55.0848 -55.0609 -55.0511 -55.0263 -55.0219 -54.9555 -54.2756 -54.2745
   -31.6195 -31.6030 -31.5774 -31.5756 -31.5654 -31.5640 -31.5466 -31.5134
   -31.5065 -31.4897 -31.4863 -31.4759 -31.4407 -31.4303 -31.4099 -31.4057
   -31.4008 -31.3989 -31.3972 -31.3913 -31.3883 -31.3849 -31.3735 -31.3651
   -31.3588 -31.3501 -31.3495 -31.3476 -31.3425 -31.3168 -31.2908 -31.2779
   -31.2755 -31.2742 -31.2713 -31.2625 -31.2540 -31.2414 -31.2319 -31.2227
   -31.1808 -31.1471 -30.5966 -30.5952 -30.5148 -30.5139 -30.4755 -30.4745
   -21.4250 -18.7492 -17.1674 -15.4678 -15.3588 -15.2299 -15.1653 -15.1426
   -15.1159 -15.0630 -15.0467 -14.9911 -14.9869 -14.9363 -14.9300 -14.8871
   -14.8799 -14.8262 -14.7980 -14.7891 -14.7600 -14.7274 -14.7114 -14.7103
   -14.6705 -14.6488 -14.6404 -14.6100 -14.6028 -14.5406 -14.5038 -14.4703
   -12.7770 -12.7752  -9.1250  -6.6030  -6.5641  -4.5638  -4.5597  -3.8259
    -3.7250  -3.4969  -3.2725  -2.9923  -2.7533  -2.5690  -2.4795  -2.4104
    -2.3574  -2.3395  -2.2299  -2.2054  -2.1754  -2.1408  -2.1184  -2.1076
    -2.0899  -2.0810  -2.0739  -2.0563  -2.0228  -2.0032  -1.9769  -1.9519
    -1.9370  -1.9137  -1.8959  -1.8885  -1.8638  -1.8360  -1.8291  -1.8264
    -1.7633  -1.7234  -1.5653  -1.5201  -1.4982  -1.4093  -1.3899  -1.3733
    -1.3478  -1.3337  -1.3170  -1.1979  -1.1474  -1.1186  -1.0107  -0.9927
    -0.9667  -0.8284  -0.8046  -0.7724  -0.7437  -0.7018  -0.6327  -0.6085
    -0.5530  -0.5403  -0.4389  -0.4018  -0.3770  -0.3637  -0.2678  -0.2455
    -0.2400  -0.2143  -0.1510  -0.1194  -0.0736  -0.0440  -0.0134   0.0111
     0.0571   0.0770   0.1709   0.1912   0.2275   0.2703   0.3642   0.5308
     0.6239   0.7341   0.7601   0.8070   0.8671   0.9097   0.9599   1.0132
     1.0610   1.0679   1.1304   1.1676   1.2523   1.2662   1.2695   1.3379
     2.0934   2.0937   2.1815   2.1906   4.1378   4.1460   4.2031   4.2227
     4.3619   4.3680   4.3816   4.3891   4.4841   4.5515

     the Fermi energy is     3.8662 ev

!    total energy              =   -3006.52133400 Ry
     estimated scf accuracy    <       0.00000004 Ry
     smearing contrib. (-TS)   =      -0.02294497 Ry
     internal energy E=F+TS    =   -3006.49838903 Ry

     The total energy is F=E-TS. E is the sum of the following terms:
     one-electron contribution =  -22563.16275972 Ry
     hartree contribution      =   11380.92642610 Ry
     xc contribution           =    -501.14955529 Ry
     ewald contribution        =    8676.88562580 Ry
     electric field correction =       0.00187408 Ry

     convergence has been achieved in  67 iterations

     Forces acting on atoms (cartesian axes, Ry/au):

     atom    1 type  1   force =    -0.00014844   -0.00167452    0.10541663
     atom    2 type  1   force =    -0.00021507    0.00113701   -0.17917772
     atom    3 type  2   force =     0.00020542   -0.00553367   -0.03234377
     atom    4 type  2   force =     0.00010369    0.00072235    0.04628380
     atom    5 type  2   force =    -0.01804968    0.00052843    0.00423088
     atom    6 type  2   force =     0.01844464   -0.00044570    0.00409847
     atom    7 type  1   force =     0.00007547    0.00018755    0.00005628
     atom    8 type  1   force =     0.00007311    0.00030573   -0.00014003
     atom    9 type  2   force =     0.00017554    0.00035184   -0.00008181
     atom   10 type  2   force =     0.00016955   -0.00000240    0.00002120
     atom   11 type  2   force =     0.00004236   -0.00035080   -0.00038325
     atom   12 type  2   force =    -0.00005798   -0.00052378   -0.00052437
     atom   13 type  1   force =     0.00047533    0.00023919    0.00008091
     atom   14 type  1   force =    -0.00026226   -0.00047156   -0.00042742
     atom   15 type  2   force =     0.00004393   -0.00053635    0.00032407
     atom   16 type  2   force =    -0.00008760    0.00031092   -0.00023286
     atom   17 type  2   force =    -0.00041204   -0.00060827    0.00004181
     atom   18 type  2   force =     0.00002931   -0.00051630    0.00024046
     atom   19 type  1   force =     0.00040639   -0.00022177   -0.00003052
     atom   20 type  1   force =    -0.00014548   -0.00070002   -0.00089457
     atom   21 type  2   force =    -0.00003383    0.00010113    0.10396079
     atom   22 type  2   force =     0.00002673   -0.00050307    0.00061743
     atom   23 type  2   force =    -0.06943125    0.00051829   -0.02947989
     atom   24 type  2   force =     0.06918575    0.00097525   -0.02953295
     atom   25 type  1   force =    -0.00003798    0.00156936    0.11483371
     atom   26 type  1   force =    -0.00022212   -0.00047920   -0.17918661
     atom   27 type  2   force =     0.00021294    0.00414256   -0.02604256
     atom   28 type  2   force =     0.00042683    0.00093088    0.04806906
     atom   29 type  2   force =    -0.01632434    0.00162758    0.00383983
     atom   30 type  2   force =     0.01737697    0.00217872    0.00361041
     atom   31 type  1   force =    -0.00014710    0.00009224   -0.00023645
     atom   32 type  1   force =     0.00011240   -0.00007845    0.00024839
     atom   33 type  2   force =     0.00028410   -0.00051128    0.00018697
     atom   34 type  2   force =    -0.00004134   -0.00031187   -0.00027685
     atom   35 type  2   force =    -0.00046436   -0.00013246    0.00001060
     atom   36 type  2   force =     0.00054225    0.00002034    0.00000266
     atom   37 type  1   force =     0.00046197   -0.00073495   -0.00004536
     atom   38 type  1   force =    -0.00037507   -0.00002979   -0.00036637
     atom   39 type  2   force =    -0.00042298   -0.00049526   -0.00048005
     atom   40 type  2   force =     0.00035610   -0.00041293   -0.00027217
     atom   41 type  2   force =    -0.00018229   -0.00000697    0.00008284
     atom   42 type  2   force =    -0.00031832   -0.00020805   -0.00001222
     atom   43 type  1   force =     0.00027376    0.00003569    0.00139329
     atom   44 type  1   force =     0.00009057   -0.00038664   -0.00077904
     atom   45 type  2   force =    -0.00003507    0.00008018    0.10400194
     atom   46 type  2   force =    -0.06903981   -0.00106732   -0.02953806
     atom   47 type  2   force =     0.06885215   -0.00062487   -0.02961526
     atom   48 type  3   force =    -0.00024184    0.00003765    0.00029370
     atom   49 type  2   force =     0.00000589    0.00023603   -0.00083621
     atom   50 type  4   force =    -0.00042539   -0.00006351    0.00002930
     atom   51 type  4   force =     0.00028820   -0.00027380    0.00015762
     atom   52 type  4   force =    -0.00003198    0.00036048   -0.00043220
     atom   53 type  5   force =    -0.00106372   -0.00018184   -0.00110115
     atom   54 type  5   force =     0.00052252    0.00037415    0.00081585
     atom   55 type  2   force =     0.00814873    0.00425908   -0.00144814
     atom   56 type  4   force =    -0.00276210   -0.00016976   -0.00051420
     atom   57 type  4   force =    -0.00643317   -0.00306546    0.00148318

     Total force =     0.374763     Total SCF correction =     0.000399
  @ DRIVER MODE: Message from server: STATUS
  @ DRIVER MODE: Message from server: GETFORCE
  @ DRIVER MODE: Returning v,forces,stress,ensemble

     Writing output data file ./calc.save/
  @ DRIVER MODE: Message from server: EXIT
  @ DRIVE MODE: Exiting

     General routines

     Parallel routines

   This run was terminated on:  20:20:32  26Sep2021

   JOB DONE.