     Program PWSCF v.6.7GPU starts on 22Sep2021 at  9:27:12

     R & G space division:  proc/nbgrp/npool/nimage =      10
     Reading input from /storage/home/hcoda1/3/ntian30/research/carbon/CxH_vib/CH_calc/ads_slab/CHNHNH2H2O_b/out_0032/pw.inp
Warning: card &CELL ignored
Warning: card   CELL_DYNAMICS='IPI', ignored
Warning: card / ignored

     Current dimensions of program PWSCF are:
     Max number of different atomic species (ntypx) = 10
     Max number of k-points (npk) =  40000
     Max angular momentum in pseudopotentials (lmaxx) =  3
     Presently no symmetry can be used with electric field

     Message from routine cell_base_init:
     DEPRECATED: use true lattice parameter, not A to a.u. conversion factor

     IMPORTANT: XC functional enforced from input :
     Exchange-correlation= BEEF-VDW
                           (   1   4  43  14   2   0   0)
     Any further DFT definition will be discarded
     Please, verify this is what you really want

  @ DRIVER MODE: Connecting to
 qe_1139763_2927425.sched-torque.pace.gatech.edudxrdck31_scratch
  using UNIX socket
  @ DRIVER MODE: Message from server: STATUS
  @ DRIVER MODE: Message from server: INIT
  @ DRIVER MODE: Receiving replica           0          -1
  @ DRIVER MODE: Receiving encoded integer          25
  @ DRIVER MODE:  SCF:  T  FORCE:  T  STRESS:  F  VC:  F  ENSEMBLE:  F
  @ DRIVER MODE:  SCF:  T  FORCE:  T  STRESS:  F  VC:  F  ENSEMBLE:  F

     Using Slab Decomposition

     bravais-lattice index     =            0
     lattice parameter (alat)  =       1.8897  a.u.
     unit-cell volume          =    6658.9804 (a.u.)^3
     number of atoms/cell      =           57
     number of atomic types    =            5
     number of electrons       =       404.00
     number of Kohn-Sham states=          212
     kinetic-energy cutoff     =      29.3995  Ry
     charge density cutoff     =     293.9946  Ry
     scf convergence threshold =      7.3E-08
     mixing beta               =       0.0500
     number of iterations used =            8  plain     mixing
     Exchange-correlation= BEEF-VDW
                           (   1   4  43  14   2   0   0)

     celldm(1)=   1.889726  celldm(2)=   0.000000  celldm(3)=   0.000000
     celldm(4)=   0.000000  celldm(5)=   0.000000  celldm(6)=   0.000000

     crystal axes: (cart. coord. in units of alat)
               a(1) = (   6.579727   0.000000   0.000000 )
               a(2) = (  -0.000775   5.961596   0.000000 )
               a(3) = (   0.000000   0.000000  25.155947 )

     reciprocal axes: (cart. coord. in units 2 pi/alat)
               b(1) = (  0.151982  0.000020  0.000000 )
               b(2) = (  0.000000  0.167740  0.000000 )
               b(3) = (  0.000000  0.000000  0.039752 )

     PseudoPot. # 1 for Ti read from file:
     /storage/coda1/p-amedford6/0/shared/rich_project_chbe-medford/medford-share/data/pseudos_module/espresso/nninc/pbe/van/Ti.UPF
     MD5 check sum: 8e4df49b7f0d34bbd5052bf3f5ea0213
     Pseudo is Ultrasoft, Zval = 12.0
     Generated by new atomic code, or converted to UPF format
     Using radial grid of  851 points,  6 beta functions with:
                l(1) =   0
                l(2) =   0
                l(3) =   1
                l(4) =   1
                l(5) =   2
                l(6) =   2
     Q(r) pseudized with  8 coefficients,  rinner =    1.000   1.000   1.000
                                                       1.000   1.000

     PseudoPot. # 2 for O  read from file:
     /storage/coda1/p-amedford6/0/shared/rich_project_chbe-medford/medford-share/data/pseudos_module/espresso/nninc/pbe/van/O.UPF
     MD5 check sum: 78c19812648e8988a0fe644b0f25305e
     Pseudo is Ultrasoft, Zval =  6.0
     Generated by new atomic code, or converted to UPF format
     Using radial grid of  737 points,  4 beta functions with:
                l(1) =   0
                l(2) =   0
                l(3) =   1
                l(4) =   1
     Q(r) pseudized with  8 coefficients,  rinner =    0.800   0.800   0.800

     PseudoPot. # 3 for N  read from file:
     /storage/coda1/p-amedford6/0/shared/rich_project_chbe-medford/medford-share/data/pseudos_module/espresso/nninc/pbe/van/N.UPF
     MD5 check sum: 90d10febe142ad51ac9d5be1deb811c4
     Pseudo is Ultrasoft, Zval =  5.0
     Generated by new atomic code, or converted to UPF format
     Using radial grid of  729 points,  4 beta functions with:
                l(1) =   0
                l(2) =   0
                l(3) =   1
                l(4) =   1
     Q(r) pseudized with  8 coefficients,  rinner =    0.800   0.800   0.800

     PseudoPot. # 4 for C  read from file:
     /storage/coda1/p-amedford6/0/shared/rich_project_chbe-medford/medford-share/data/pseudos_module/espresso/nninc/pbe/van/C.UPF
     MD5 check sum: 1a69bf6b8db32088f5b2163dbdb77a27
     Pseudo is Ultrasoft, Zval =  4.0
     Generated by new atomic code, or converted to UPF format
     Using radial grid of  721 points,  4 beta functions with:
                l(1) =   0
                l(2) =   0
                l(3) =   1
                l(4) =   1
     Q(r) pseudized with  8 coefficients,  rinner =    0.800   0.800   0.800

     PseudoPot. # 5 for H  read from file:
     /storage/coda1/p-amedford6/0/shared/rich_project_chbe-medford/medford-share/data/pseudos_module/espresso/nninc/pbe/van/H.UPF
     MD5 check sum: b5ee9d7bfd3a09ee7748110bda690ff7
     Pseudo is Ultrasoft, Zval =  1.0
     Generated by new atomic code, or converted to UPF format
     Using radial grid of  615 points,  1 beta functions with:
                l(1) =   0
     Q(r) pseudized with  8 coefficients,  rinner =    0.800

     atomic species   valence    mass     pseudopotential
        Ti1           12.00    47.86700     Ti( 1.00)
        O1             6.00    15.99900     O ( 1.00)
        N1             5.00    14.00700     N ( 1.00)
        C1             4.00    12.01100     C ( 1.00)
        H1             1.00     1.00800     H ( 1.00)

     No symmetry found

   Cartesian axes

     site n.     atom                  positions (alat units)
         1           Ti1 tau(   1) = (   0.0004258   2.9801865   6.0000000  )
         2           Ti1 tau(   2) = (   3.2906075   1.4906267   6.0002472  )
         3           O1  tau(   3) = (   0.0006271   0.0005054   7.9858123  )
         4           O1  tau(   4) = (   3.2906025   0.0005020   7.3038282  )
         5           O1  tau(   5) = (   4.5942328   1.4918067   9.2879030  )
         6           O1  tau(   6) = (   1.9868534   1.4903216   9.2879459  )
         7           Ti1 tau(   7) = (   3.2907910   2.8959150   9.1758416  )
         8           Ti1 tau(   8) = (   0.0015273   1.4827037   9.2680791  )
         9           O1  tau(   9) = (   3.3066417   5.9496923  11.3845403  )
        10           O1  tau(  10) = (   0.0116148   5.9584955  10.6183126  )
        11           O1  tau(  11) = (   1.3010148   1.4986442  12.6442229  )
        12           O1  tau(  12) = (   5.3085967   1.5001388  12.6592367  )
        13           Ti1 tau(  13) = (   0.0282779   2.9853959  12.5065338  )
        14           Ti1 tau(  14) = (   3.3279724   1.4707331  12.5413945  )
        15           O1  tau(  15) = (   0.0378505   0.0859181  14.6860672  )
        16           O1  tau(  16) = (   3.3018867   0.0259462  14.0338077  )
        17           O1  tau(  17) = (   4.5998927   1.5484098  16.1661054  )
        18           O1  tau(  18) = (   2.0454451   1.5021798  16.2221046  )
        19           Ti1 tau(  19) = (   3.3206312   2.9825829  15.7321521  )
        20           Ti1 tau(  20) = (   0.0140791   1.4435866  15.9983415  )
        21           O1  tau(  21) = (   3.2904802   0.0005063   4.7018136  )
        22           O1  tau(  22) = (   6.5273045   5.8164216  17.2577718  )
        23           O1  tau(  23) = (   1.3043587   1.4918075   6.0039043  )
        24           O1  tau(  24) = (   5.2767064   1.4903225   6.0039473  )
        25           Ti1 tau(  25) = (   0.0000382   5.9609847   6.0000000  )
        26           Ti1 tau(  26) = (   3.2902200   4.4714249   6.0002472  )
        27           O1  tau(  27) = (   0.0002396   2.9813036   7.9858123  )
        28           O1  tau(  28) = (   3.2902150   2.9813002   7.3038282  )
        29           O1  tau(  29) = (   4.5938453   4.4726049   9.2879030  )
        30           O1  tau(  30) = (   1.9864658   4.4711199   9.2879459  )
        31           Ti1 tau(  31) = (   3.2891106   5.8743827   9.1763621  )
        32           Ti1 tau(  32) = (   0.0006254   4.4649316   9.2693709  )
        33           O1  tau(  33) = (   3.3068470   2.9864458  11.3814114  )
        34           O1  tau(  34) = (   0.0092240   2.9805883  10.6323155  )
        35           O1  tau(  35) = (   1.2982948   4.4740332  12.6840172  )
        36           O1  tau(  36) = (   5.3097620   4.4704985  12.6972095  )
        37           Ti1 tau(  37) = (   0.0348817   0.0130325  12.4954113  )
        38           Ti1 tau(  38) = (   3.3270268   4.4633798  12.5435021  )
        39           O1  tau(  39) = (   0.0563025   2.9439880  14.9425960  )
        40           O1  tau(  40) = (   3.2900316   2.9661073  13.9503945  )
        41           O1  tau(  41) = (   4.5967999   4.4093095  16.0633277  )
        42           O1  tau(  42) = (   2.0412097   4.4536800  16.1303113  )
        43           Ti1 tau(  43) = (   3.2964201   5.9600488  15.8742613  )
        44           Ti1 tau(  44) = (   0.0241369   4.6516137  15.8518307  )
        45           O1  tau(  45) = (   3.2900926   2.9813045   4.7018136  )
        46           O1  tau(  46) = (   1.3039711   4.4726057   6.0039043  )
        47           O1  tau(  47) = (   5.2763189   4.4711207   6.0039473  )
        48           N1  tau(  48) = (   1.4509408   2.7109095  18.7602185  )
        49           N1  tau(  49) = (   0.0917387   2.5303350  18.2207845  )
        50           C1  tau(  50) = (   1.9503960   3.7723240  19.2784661  )
        51           H1  tau(  51) = (   1.1612915   4.5273475  19.4152495  )
        52           H1  tau(  52) = (   2.0208952   1.9183395  18.4664618  )
        53           H1  tau(  53) = (   6.1477449   3.3539424  18.4987646  )
        54           H1  tau(  54) = (   6.2616785   1.7135167  18.6767212  )
        55           O1  tau(  55) = (   3.7012217   5.9496235  18.2853534  )
        56           H1  tau(  56) = (   4.6684668   5.8470116  18.1670174  )
        57           H1  tau(  57) = (   3.3852657   5.1278045  18.7338684  )

     number of k points=    10  Fermi-Dirac smearing, width (Ry)=  0.0073
                       cart. coord. in units 2pi/alat
        k(    1) = (   0.0000000   0.0000000   0.0000000), wk =   0.1250000
        k(    2) = (   0.0000000   0.0419351   0.0000000), wk =   0.2500000
        k(    3) = (   0.0000000  -0.0838702   0.0000000), wk =   0.1250000
        k(    4) = (   0.0379955   0.0000049   0.0000000), wk =   0.2500000
        k(    5) = (   0.0379955   0.0419400   0.0000000), wk =   0.2500000
        k(    6) = (   0.0379955  -0.0838652   0.0000000), wk =   0.2500000
        k(    7) = (   0.0379955  -0.0419301   0.0000000), wk =   0.2500000
        k(    8) = (  -0.0759910  -0.0000099   0.0000000), wk =   0.1250000
        k(    9) = (  -0.0759910   0.0419252   0.0000000), wk =   0.2500000
        k(   10) = (  -0.0759910  -0.0838800   0.0000000), wk =   0.1250000

     Initial potential from superposition of free atoms

     starting charge  387.99913, renormalised to  404.00000

     negative rho (up, down):  1.598E-02 0.000E+00

     %%%%%%%%%%%%%%%%%%%%%%%%%%%%%%%%%%%%%%%%%%%%%%%%%%%%%%%%%%%%%%%%%%%%%%%%
     %                                                                      %
     % You are using vdW-DF, which was implemented by the Thonhauser group. %
     % Please cite the following two papers that made this development      %
     % possible and the two reviews that describe the various versions:     %
     %                                                                      %
     %   T. Thonhauser et al., PRL 115, 136402 (2015).                      %
     %   T. Thonhauser et al., PRB 76, 125112 (2007).                       %
     %   K. Berland et al., Rep. Prog. Phys. 78, 066501 (2015).             %
     %   D.C. Langreth et al., J. Phys.: Condens. Matter 21, 084203 (2009). %
     %                                                                      %
     %                                                                      %
     % If you are calculating the stress with vdW-DF, please also cite:     %
     %                                                                      %
     %   R. Sabatini et al., J. Phys.: Condens. Matter 24, 424209 (2012).   %
     %                                                                      %
     %%%%%%%%%%%%%%%%%%%%%%%%%%%%%%%%%%%%%%%%%%%%%%%%%%%%%%%%%%%%%%%%%%%%%%%%

     Adding external electric field

     Computed dipole along edir(3) :
        Dipole              -14.3585 Ry au,        -36.4957 Debye
        Dipole field         -0.0271 Ry au,

        Potential amp.        2.5118 Ry
        Total length         46.3494 bohr

     Starting wfcs are  306 atomic wfcs
  @ DRIVER MODE: Message from server: STATUS
  @ DRIVER MODE: Message from server: POSDATA
  @ DRIVER MODE: Reading and sharing cell
  @ DRIVER MODE: Reading and sharing positions
  @ DRIVER MODE: Received positions

     Self-consistent Calculation

     iteration #  1     ecut=    29.40 Ry     beta= 0.05
     Davidson diagonalization with overlap
     c_bands:  3 eigenvalues not converged
     c_bands:  4 eigenvalues not converged
     c_bands:  4 eigenvalues not converged
     c_bands:  4 eigenvalues not converged
     c_bands:  5 eigenvalues not converged
     c_bands:  3 eigenvalues not converged
     c_bands:  2 eigenvalues not converged
     c_bands:  4 eigenvalues not converged
     ethr =  1.00E-05,  avg # of iterations = 21.9

[...]

     total energy              =   -2220.92152836 Ry
     estimated scf accuracy    <    8587.39395797 Ry

     iteration #  2     ecut=    29.40 Ry     beta= 0.05
     Davidson diagonalization with overlap
     ethr =  1.00E-02,  avg # of iterations = 27.3

[...]

     iteration # 97     ecut=    29.40 Ry     beta= 0.05
     Davidson diagonalization with overlap
     c_bands:  1 eigenvalues not converged
     ethr =  7.19E-11,  avg # of iterations = 13.2

[...]

     total energy              =   -2975.10525277 Ry
     estimated scf accuracy    <       0.00000009 Ry

     iteration #100     ecut=    29.40 Ry     beta= 0.05
     Davidson diagonalization with overlap
     ethr =  2.23E-11,  avg # of iterations =  9.2

     negative rho (up, down):  1.579E-02 0.000E+00

     Adding external electric field

     Computed dipole along edir(3) :
        Dipole                1.0232 Ry au,          2.6007 Debye
        Dipole field          0.0019 Ry au,

        Potential amp.       -0.1790 Ry
        Total length         46.3494 bohr

     End of self-consistent calculation

          k = 0.0000 0.0000 0.0000 ( 18029 PWs)   bands (ev):

   -55.3853 -55.3495 -55.3454 -55.3113 -55.3080 -55.3025 -55.2673 -55.2320
   -55.2170 -55.1821 -55.1752 -55.1599 -55.1415 -55.1122 -54.3766 -54.3426
   -31.9443 -31.8803 -31.8381 -31.7570 -31.7080 -31.7055 -31.6812 -31.6782
   -31.6341 -31.5984 -31.5912 -31.5900 -31.5830 -31.5794 -31.5613 -31.5593
   -31.5347 -31.5267 -31.5237 -31.5124 -31.4980 -31.4915 -31.4727 -31.4678
   -31.4595 -31.4466 -31.4458 -31.4171 -31.4026 -31.3989 -31.3958 -31.3737
   -31.3698 -31.3658 -31.3622 -31.3408 -31.3301 -31.3178 -31.3030 -31.3029
   -31.2926 -31.2863 -30.7861 -30.6916 -30.6695 -30.6024 -30.5156 -30.4048
   -18.8899 -18.4546 -16.2200 -15.9727 -15.8366 -15.7321 -15.5948 -15.4967
   -15.3874 -15.2742 -15.2512 -15.1576 -15.0830 -15.0790 -15.0417 -15.0162
   -14.9537 -14.9323 -14.9085 -14.9025 -14.8880 -14.8778 -14.8413 -14.8304
   -14.7988 -14.7865 -14.7692 -14.6561 -14.6269 -14.5519 -14.4813 -14.3453
   -12.8789 -12.7614  -9.8407  -7.0063  -6.3779  -6.0996  -4.4289  -3.7354
    -3.5437  -3.4103  -3.3318  -3.3031  -3.2856  -3.1541  -3.0602  -2.9019
    -2.8632  -2.8068  -2.6737  -2.5978  -2.5914  -2.5034  -2.4311  -2.4077
    -2.3747  -2.2655  -2.2592  -2.2094  -2.1921  -2.1690  -2.1597  -2.1130
    -2.0673  -2.0400  -1.9548  -1.8534  -1.8094  -1.7898  -1.7534  -1.7308
    -1.7261  -1.6824  -1.6762  -1.6523  -1.6137  -1.5894  -1.5440  -1.4318
    -1.3901  -1.2317  -1.1942  -1.0399  -1.0195  -0.9802  -0.9600  -0.9241
    -0.8935  -0.8772  -0.8622  -0.7722  -0.7139  -0.6477  -0.5836  -0.4928
    -0.4823  -0.4084  -0.3826  -0.3175  -0.2300  -0.1854  -0.1759  -0.1509
    -0.1476  -0.0338   0.0110   0.0714   0.0899   0.1473   0.1632   0.1853
     0.2554   0.3089   0.3784   0.4091   0.4882   0.5063   0.5415   0.5507
     0.5830   0.5935   0.6697   0.6845   0.7127   0.8154   0.9129   1.0060
     1.2162   1.2185   1.2523   1.5510   1.5531   1.6465   1.8299   2.2227
     2.2711   3.7046   3.7831   3.8326   3.8501   3.8546   3.9395   4.1942
     4.2084   4.2211   4.2273   4.2681

[...]

          k = 0.0380-0.0419 0.0000 ( 17876 PWs)   bands (ev):

[...]

          k =-0.0760-0.0000 0.0000 ( 17886 PWs)   bands (ev):

[...]

          k =-0.0760-0.0839 0.0000 ( 17948 PWs)   bands (ev):

   -55.3684 -55.3662 -55.3283 -55.3283 -55.3051 -55.3016 -55.2536 -55.2456
   -55.2027 -55.1960 -55.1617 -55.1594 -55.1575 -55.1139 -54.3596 -54.3595
   -31.7950 -31.7568 -31.7427 -31.6532 -31.6532 -31.6386 -31.6266 -31.6194
   -31.6193 -31.5986 -31.5934 -31.5903 -31.5674 -31.5597 -31.5477 -31.5340
   -31.5307 -31.5282 -31.5242 -31.5161 -31.5113 -31.5094 -31.5083 -31.5005
   -31.4688 -31.4672 -31.4480 -31.4480 -31.4476 -31.4426 -31.4399 -31.4355
   -31.4261 -31.4147 -31.4090 -31.3922 -31.3903 -31.3804 -31.3393 -31.3381
   -31.3376 -31.3186 -30.6822 -30.6822 -30.5986 -30.5985 -30.5591 -30.5590
   -18.8842 -18.4569 -15.8396 -15.6528 -15.5015 -15.4297 -15.4095 -15.3262
   -15.2707 -15.2675 -15.1945 -15.1764 -15.1640 -15.1425 -15.1327 -15.0854
   -15.0483 -15.0116 -14.9929 -14.9702 -14.9270 -14.9045 -14.9029 -14.8961
   -14.8883 -14.8480 -14.8428 -14.8395 -14.7478 -14.7459 -14.7140 -14.5641
   -12.8630 -12.8628  -9.8499  -6.9945  -6.3535  -6.0761  -4.4425  -3.6633
    -3.0221  -2.9110  -2.9004  -2.6713  -2.6532  -2.5921  -2.5797  -2.4917
    -2.4760  -2.4154  -2.3918  -2.3417  -2.3187  -2.2808  -2.2670  -2.2453
    -2.2243  -2.2106  -2.1839  -2.1679  -2.1509  -2.1313  -2.1203  -2.1089
    -2.0536  -2.0483  -2.0391  -2.0138  -1.9907  -1.9547  -1.9448  -1.9284
    -1.7729  -1.7571  -1.7357  -1.6004  -1.5961  -1.5621  -1.5219  -1.4943
    -1.4363  -1.4278  -1.3995  -1.3406  -1.1471  -1.1366  -1.1244  -1.1067
    -1.0357  -0.9798  -0.9661  -0.9481  -0.8944  -0.8163  -0.7829  -0.7300
    -0.6413  -0.5890  -0.5795  -0.5536  -0.4325  -0.4094  -0.3669  -0.3490
    -0.3327  -0.2983  -0.2968  -0.2391  -0.1866  -0.1512  -0.1283  -0.1140
    -0.0770   0.0778   0.1296   0.1462   0.2600   0.2898   0.4678   0.5106
     0.5324   0.6375   0.7208   0.7489   0.7632   0.8887   0.9108   0.9132
     0.9815   1.0037   1.0637   1.0695   1.2087   2.0025   2.0039   2.0910
     2.0912   3.8298   3.9524   3.9969   4.0326   4.1084   4.1613   4.2183
     4.2775   4.2891   4.2929   4.3597

     the Fermi energy is     3.7667 ev

!    total energy              =   -2975.10525576 Ry
     estimated scf accuracy    <       0.00000005 Ry
     smearing contrib. (-TS)   =      -0.03671990 Ry
     internal energy E=F+TS    =   -2975.06853585 Ry

     The total energy is F=E-TS. E is the sum of the following terms:
     one-electron contribution =  -23505.50848724 Ry
     hartree contribution      =   11848.77113350 Ry
     xc contribution           =    -494.92240358 Ry
     ewald contribution        =    9176.58924581 Ry
     electric field correction =       0.00197565 Ry

     convergence has been achieved in 100 iterations

     Forces acting on atoms (cartesian axes, Ry/au):

     atom    1 type  1   force =     0.00003184   -0.00025232    0.09309053
     atom    2 type  1   force =    -0.00019120   -0.00032180   -0.17840309
     atom    3 type  2   force =     0.00006049   -0.00016795   -0.02025088
     atom    4 type  2   force =     0.00001666   -0.00203389    0.05924352
     atom    5 type  2   force =    -0.01032531   -0.00110420    0.00808506
     atom    6 type  2   force =     0.01216692   -0.00054945    0.00816437
     atom    7 type  1   force =     0.00015156    0.00328426   -0.01111822
     atom    8 type  1   force =    -0.00029633    0.00052930   -0.00560941
     atom    9 type  2   force =     0.00004143    0.00017357   -0.00014432
     atom   10 type  2   force =    -0.00146463   -0.00003547   -0.00171673
     atom   11 type  2   force =     0.00038040   -0.00003752   -0.00005852
     atom   12 type  2   force =    -0.00010108    0.00010401   -0.00008968
     atom   13 type  1   force =    -0.00008940   -0.00017239   -0.00024182
     atom   14 type  1   force =    -0.00021568   -0.00036563    0.00035793
     atom   15 type  2   force =     0.00006793   -0.00047350    0.00008881
     atom   16 type  2   force =     0.00021855    0.00009158    0.00025247
     atom   17 type  2   force =     0.00036292   -0.00018723    0.00015704
     atom   18 type  2   force =    -0.00007512   -0.00014141   -0.00013645
     atom   19 type  1   force =    -0.00024880   -0.00044088    0.00005063
     atom   20 type  1   force =     0.00010456    0.00028088    0.00050091
     atom   21 type  2   force =    -0.00000534   -0.00007573    0.10403824
     atom   22 type  2   force =    -0.00008655   -0.00001172   -0.00003898
     atom   23 type  2   force =    -0.07034824   -0.00015793   -0.02683705
     atom   24 type  2   force =     0.07021635    0.00028777   -0.02691664
     atom   25 type  1   force =     0.00002486   -0.00015903    0.09275808
     atom   26 type  1   force =    -0.00015942   -0.00039727   -0.17835154
     atom   27 type  2   force =     0.00011017   -0.00030957   -0.01919758
     atom   28 type  2   force =     0.00004529   -0.00163498    0.05839176
     atom   29 type  2   force =    -0.01027685   -0.00064189    0.00729238
     atom   30 type  2   force =     0.01201189   -0.00031072    0.00742780
     atom   31 type  1   force =     0.00007801    0.00514500   -0.01466143
     atom   32 type  1   force =    -0.00013822   -0.00052128   -0.00595526
     atom   33 type  2   force =     0.00012868   -0.00039012   -0.00023493
     atom   34 type  2   force =    -0.00078807    0.00260638   -0.00104209
     atom   35 type  2   force =    -0.00006689   -0.00011161   -0.00012011
     atom   36 type  2   force =     0.00023244    0.00000679   -0.00014663
     atom   37 type  1   force =    -0.00043165    0.00008328    0.00003447
     atom   38 type  1   force =    -0.00003680   -0.00024247   -0.00023090
     atom   39 type  2   force =    -0.00030076   -0.00020259   -0.00016311
     atom   40 type  2   force =    -0.00013628   -0.00005733   -0.00004329
     atom   41 type  2   force =    -0.00014365   -0.00013555    0.00033241
     atom   42 type  2   force =    -0.00009295   -0.00025967    0.00014590
     atom   43 type  1   force =     0.00003319   -0.00030833    0.00012994
     atom   44 type  1   force =    -0.00003514   -0.00003686    0.00012025
     atom   45 type  2   force =     0.00001077   -0.00010782    0.10401601
     atom   46 type  2   force =    -0.07037245   -0.00011893   -0.02685959
     atom   47 type  2   force =     0.07021802    0.00031611   -0.02691717
     atom   48 type  3   force =     0.00117029   -0.00038283   -0.00008219
     atom   49 type  3   force =     0.00450896   -0.00594634   -0.00140552
     atom   50 type  4   force =     0.00027626    0.00114151    0.00063032
     atom   51 type  5   force =    -0.00005628   -0.00057535   -0.00040869
     atom   52 type  5   force =     0.00012422   -0.00092314   -0.00014636
     atom   53 type  5   force =    -0.00605353    0.00585950    0.00186129
     atom   54 type  5   force =    -0.00017175    0.00103608    0.00009635
     atom   55 type  2   force =     0.00009933   -0.00012387    0.00056180
     atom   56 type  5   force =     0.00021974   -0.00039667   -0.00041549
     atom   57 type  5   force =    -0.00040337   -0.00012280    0.00011537

     Total force =     0.366407     Total SCF correction =     0.000435
  @ DRIVER MODE: Message from server: STATUS
  @ DRIVER MODE: Message from server: GETFORCE
  @ DRIVER MODE: Returning v,forces,stress,ensemble

     Writing output data file ./calc.save/
  @ DRIVER MODE: Message from server: EXIT
  @ DRIVE MODE: Exiting

     General routines

     Parallel routines

   This run was terminated on:   9:53:41  22Sep2021

   JOB DONE.