     Program PWSCF v.6.7GPU starts on 29Sep2021 at  1:28:34

     R & G space division:  proc/nbgrp/npool/nimage =       8
     Reading input from /storage/home/hcoda1/3/ntian30/research/carbon/CxH_vib/H2O_calc/ads_slab/CHNHNH2HO_b/out_0036/pw.inp
Warning: card &CELL ignored
Warning: card   CELL_DYNAMICS='IPI', ignored
Warning: card / ignored

     Current dimensions of program PWSCF are:
     Max number of different atomic species (ntypx) = 10
     Max number of k-points (npk) =  40000
     Max angular momentum in pseudopotentials (lmaxx) =  3
     Presently no symmetry can be used with electric field

     Message from routine cell_base_init:
     DEPRECATED: use true lattice parameter, not A to a.u. conversion factor

     IMPORTANT: XC functional enforced from input :
     Exchange-correlation= BEEF-VDW
                           (   1   4  43  14   2   0   0)
     Any further DFT definition will be discarded
     Please, verify this is what you really want

  @ DRIVER MODE: Connecting to
 qe_1139763_3009830.sched-torque.pace.gatech.edum0etdnnl_scratch
  using UNIX socket
  @ DRIVER MODE: Message from server: STATUS
  @ DRIVER MODE: Message from server: INIT
  @ DRIVER MODE: Receiving replica           0          -1
  @ DRIVER MODE: Receiving encoded integer          25
  @ DRIVER MODE:  SCF:  T  FORCE:  T  STRESS:  F  VC:  F  ENSEMBLE:  F
  @ DRIVER MODE:  SCF:  T  FORCE:  T  STRESS:  F  VC:  F  ENSEMBLE:  F

     Using Slab Decomposition

     bravais-lattice index     =            0
     lattice parameter (alat)  =       1.8897  a.u.
     unit-cell volume          =    6658.9804 (a.u.)^3
     number of atoms/cell      =           56
     number of atomic types    =            5
     number of electrons       =       403.00
     number of Kohn-Sham states=          211
     kinetic-energy cutoff     =      29.3995  Ry
     charge density cutoff     =     293.9946  Ry
     scf convergence threshold =      7.3E-08
     mixing beta               =       0.0500
     number of iterations used =            8  plain     mixing
     Exchange-correlation= BEEF-VDW
                           (   1   4  43  14   2   0   0)

     celldm(1)=   1.889726  celldm(2)=   0.000000  celldm(3)=   0.000000
     celldm(4)=   0.000000  celldm(5)=   0.000000  celldm(6)=   0.000000

     crystal axes: (cart. coord. in units of alat)
               a(1) = (   6.579727   0.000000   0.000000 )
               a(2) = (  -0.000775   5.961596   0.000000 )
               a(3) = (   0.000000   0.000000  25.155947 )

     reciprocal axes: (cart. coord. in units 2 pi/alat)
               b(1) = (  0.151982  0.000020  0.000000 )
               b(2) = (  0.000000  0.167740  0.000000 )
               b(3) = (  0.000000  0.000000  0.039752 )

     PseudoPot. # 1 for Ti read from file:
     /storage/coda1/p-amedford6/0/shared/rich_project_chbe-medford/medford-share/data/pseudos_module/espresso/nninc/pbe/van/Ti.UPF
     MD5 check sum: 8e4df49b7f0d34bbd5052bf3f5ea0213
     Pseudo is Ultrasoft, Zval = 12.0
     Generated by new atomic code, or converted to UPF format
     Using radial grid of  851 points,  6 beta functions with:
                l(1) =   0
                l(2) =   0
                l(3) =   1
                l(4) =   1
                l(5) =   2
                l(6) =   2
     Q(r) pseudized with  8 coefficients,  rinner =    1.000   1.000   1.000
                                                       1.000   1.000

     PseudoPot. # 2 for O  read from file:
     /storage/coda1/p-amedford6/0/shared/rich_project_chbe-medford/medford-share/data/pseudos_module/espresso/nninc/pbe/van/O.UPF
     MD5 check sum: 78c19812648e8988a0fe644b0f25305e
     Pseudo is Ultrasoft, Zval =  6.0
     Generated by new atomic code, or converted to UPF format
     Using radial grid of  737 points,  4 beta functions with:
                l(1) =   0
                l(2) =   0
                l(3) =   1
                l(4) =   1
     Q(r) pseudized with  8 coefficients,  rinner =    0.800   0.800   0.800

     PseudoPot. # 3 for N  read from file:
     /storage/coda1/p-amedford6/0/shared/rich_project_chbe-medford/medford-share/data/pseudos_module/espresso/nninc/pbe/van/N.UPF
     MD5 check sum: 90d10febe142ad51ac9d5be1deb811c4
     Pseudo is Ultrasoft, Zval =  5.0
     Generated by new atomic code, or converted to UPF format
     Using radial grid of  729 points,  4 beta functions with:
                l(1) =   0
                l(2) =   0
                l(3) =   1
                l(4) =   1
     Q(r) pseudized with  8 coefficients,  rinner =    0.800   0.800   0.800

     PseudoPot. # 4 for C  read from file:
     /storage/coda1/p-amedford6/0/shared/rich_project_chbe-medford/medford-share/data/pseudos_module/espresso/nninc/pbe/van/C.UPF
     MD5 check sum: 1a69bf6b8db32088f5b2163dbdb77a27
     Pseudo is Ultrasoft, Zval =  4.0
     Generated by new atomic code, or converted to UPF format
     Using radial grid of  721 points,  4 beta functions with:
                l(1) =   0
                l(2) =   0
                l(3) =   1
                l(4) =   1
     Q(r) pseudized with  8 coefficients,  rinner =    0.800   0.800   0.800

     PseudoPot. # 5 for H  read from file:
     /storage/coda1/p-amedford6/0/shared/rich_project_chbe-medford/medford-share/data/pseudos_module/espresso/nninc/pbe/van/H.UPF
     MD5 check sum: b5ee9d7bfd3a09ee7748110bda690ff7
     Pseudo is Ultrasoft, Zval =  1.0
     Generated by new atomic code, or converted to UPF format
     Using radial grid of  615 points,  1 beta functions with:
                l(1) =   0
     Q(r) pseudized with  8 coefficients,  rinner =    0.800

     atomic species   valence    mass     pseudopotential
        Ti1           12.00    47.86700     Ti( 1.00)
        O1             6.00    15.99900     O ( 1.00)
        N1             5.00    14.00700     N ( 1.00)
        C1             4.00    12.01100     C ( 1.00)
        H1             1.00     1.00800     H ( 1.00)

     No symmetry found

   Cartesian axes

     site n.     atom                  positions (alat units)
         1           Ti1 tau(   1) = (   0.0004258   2.9801865   6.0000000  )
         2           Ti1 tau(   2) = (   3.2906075   1.4906267   6.0002472  )
         3           O1  tau(   3) = (   0.0006271   0.0005054   7.9858123  )
         4           O1  tau(   4) = (   3.2906025   0.0005020   7.3038282  )
         5           O1  tau(   5) = (   4.5942328   1.4918067   9.2879030  )
         6           O1  tau(   6) = (   1.9868534   1.4903216   9.2879459  )
         7           Ti1 tau(   7) = (   3.2907910   2.8959150   9.1758416  )
         8           Ti1 tau(   8) = (   0.0015273   1.4827037   9.2680791  )
         9           O1  tau(   9) = (   3.2982983   0.0405180  11.3424948  )
        10           O1  tau(  10) = (   0.0116148   5.9584955  10.6183126  )
        11           O1  tau(  11) = (   1.2753745   1.5072422  12.7016807  )
        12           O1  tau(  12) = (   5.3195175   1.5181342  12.6954276  )
        13           Ti1 tau(  13) = (   0.0019584   2.9687762  12.4995492  )
        14           Ti1 tau(  14) = (   3.3051642   1.5697923  12.4614731  )
        15           O1  tau(  15) = (   6.5474216   5.8614089  14.6874354  )
        16           O1  tau(  16) = (   3.3077571   5.9224049  13.9445013  )
        17           O1  tau(  17) = (   4.5645563   1.5748115  16.1270233  )
        18           O1  tau(  18) = (   2.0342606   1.5395256  16.0843959  )
        19           Ti1 tau(  19) = (   3.2752269   2.9899004  15.7194909  )
        20           Ti1 tau(  20) = (   6.5310352   1.3332667  15.7916221  )
        21           O1  tau(  21) = (   3.2904802   0.0005063   4.7018136  )
        22           O1  tau(  22) = (   0.0193913   0.2006272  17.2172921  )
        23           O1  tau(  23) = (   1.3043587   1.4918075   6.0039043  )
        24           O1  tau(  24) = (   5.2767064   1.4903225   6.0039473  )
        25           Ti1 tau(  25) = (   0.0000382   5.9609847   6.0000000  )
        26           Ti1 tau(  26) = (   3.2902200   4.4714249   6.0002472  )
        27           O1  tau(  27) = (   0.0002396   2.9813036   7.9858123  )
        28           O1  tau(  28) = (   3.2902150   2.9813002   7.3038282  )
        29           O1  tau(  29) = (   4.5938453   4.4726049   9.2879030  )
        30           O1  tau(  30) = (   1.9864658   4.4711199   9.2879459  )
        31           Ti1 tau(  31) = (   3.2891106   5.8743827   9.1763621  )
        32           Ti1 tau(  32) = (   0.0006254   4.4649316   9.2693709  )
        33           O1  tau(  33) = (   3.2939295   2.9453814  11.3217152  )
        34           O1  tau(  34) = (   0.0092240   2.9805883  10.6323155  )
        35           O1  tau(  35) = (   1.2781447   4.4822909  12.6561401  )
        36           O1  tau(  36) = (   5.3212068   4.4743896  12.6463055  )
        37           Ti1 tau(  37) = (   0.0302233   5.9315785  12.5023592  )
        38           Ti1 tau(  38) = (   3.3112215   4.6713144  12.7097751  )
        39           O1  tau(  39) = (   0.0192075   3.0624537  14.9697097  )
        40           O1  tau(  40) = (   3.2993887   3.0147307  13.9488589  )
        41           O1  tau(  41) = (   4.5718800   4.4489939  16.2708329  )
        42           O1  tau(  42) = (   2.0246426   4.4466800  16.2581844  )
        43           Ti1 tau(  43) = (   3.2612680   0.0306108  16.4716933  )
        44           Ti1 tau(  44) = (   6.5506247   4.5497786  16.0606151  )
        45           O1  tau(  45) = (   3.2900926   2.9813045   4.7018136  )
        46           O1  tau(  46) = (   1.3039711   4.4726057   6.0039043  )
        47           O1  tau(  47) = (   5.2763189   4.4711207   6.0039473  )
        48           N1  tau(  48) = (   0.9981237   2.4704741  18.7333368  )
        49           N1  tau(  49) = (   6.5532285   3.4232418  18.2716252  )
        50           C1  tau(  50) = (   2.1690532   2.7243113  19.1879583  )
        51           H1  tau(  51) = (   2.3212509   3.8010200  19.3435938  )
        52           H1  tau(  52) = (   0.7222050   1.5235952  18.4365492  )
        53           H1  tau(  53) = (   0.1086806   4.2950834  18.7947415  )
        54           H1  tau(  54) = (   5.6367167   3.0457734  18.5222562  )
        55           O1  tau(  55) = (   3.2473456   0.1866190  18.2687603  )
        56           H1  tau(  56) = (   3.0571027   1.0491837  18.7494863  )

     number of k points=    10  Fermi-Dirac smearing, width (Ry)=  0.0073
                       cart. coord. in units 2pi/alat
        k(    1) = (   0.0000000   0.0000000   0.0000000), wk =   0.1250000
        k(    2) = (   0.0000000   0.0419351   0.0000000), wk =   0.2500000
        k(    3) = (   0.0000000  -0.0838702   0.0000000), wk =   0.1250000
        k(    4) = (   0.0379955   0.0000049   0.0000000), wk =   0.2500000
        k(    5) = (   0.0379955   0.0419400   0.0000000), wk =   0.2500000
        k(    6) = (   0.0379955  -0.0838652   0.0000000), wk =   0.2500000
        k(    7) = (   0.0379955  -0.0419301   0.0000000), wk =   0.2500000
        k(    8) = (  -0.0759910  -0.0000099   0.0000000), wk =   0.1250000
        k(    9) = (  -0.0759910   0.0419252   0.0000000), wk =   0.2500000
        k(   10) = (  -0.0759910  -0.0838800   0.0000000), wk =   0.1250000

     Initial potential from superposition of free atoms

     starting charge  386.99914, renormalised to  403.00000

     negative rho (up, down):  1.627E-02 0.000E+00

     %%%%%%%%%%%%%%%%%%%%%%%%%%%%%%%%%%%%%%%%%%%%%%%%%%%%%%%%%%%%%%%%%%%%%%%%
     %                                                                      %
     % You are using vdW-DF, which was implemented by the Thonhauser group. %
     % Please cite the following two papers that made this development      %
     % possible and the two reviews that describe the various versions:     %
     %                                                                      %
     %   T. Thonhauser et al., PRL 115, 136402 (2015).                      %
     %   T. Thonhauser et al., PRB 76, 125112 (2007).                       %
     %   K. Berland et al., Rep. Prog. Phys. 78, 066501 (2015).             %
     %   D.C. Langreth et al., J. Phys.: Condens. Matter 21, 084203 (2009). %
     %                                                                      %
     %                                                                      %
     % If you are calculating the stress with vdW-DF, please also cite:     %
     %                                                                      %
     %   R. Sabatini et al., J. Phys.: Condens. Matter 24, 424209 (2012).   %
     %                                                                      %
     %%%%%%%%%%%%%%%%%%%%%%%%%%%%%%%%%%%%%%%%%%%%%%%%%%%%%%%%%%%%%%%%%%%%%%%%

     Adding external electric field

     Computed dipole along edir(3) :
        Dipole              -13.0976 Ry au,        -33.2907 Debye
        Dipole field         -0.0247 Ry au,

        Potential amp.        2.2912 Ry
        Total length         46.3494 bohr

     Starting wfcs are  305 atomic wfcs
  @ DRIVER MODE: Message from server: STATUS
  @ DRIVER MODE: Message from server: POSDATA
  @ DRIVER MODE: Reading and sharing cell
  @ DRIVER MODE: Reading and sharing positions
  @ DRIVER MODE: Received positions

     Self-consistent Calculation

     iteration #  1     ecut=    29.40 Ry     beta= 0.05
     Davidson diagonalization with overlap
     c_bands:  5 eigenvalues not converged
     c_bands:  2 eigenvalues not converged
     c_bands:  1 eigenvalues not converged
     c_bands:  1 eigenvalues not converged
     c_bands:  4 eigenvalues not converged
     c_bands:  1 eigenvalues not converged
     ethr =  1.00E-05,  avg # of iterations = 28.5

[...]

     total energy              =   -2288.74938380 Ry
     estimated scf accuracy    <    7755.28743119 Ry

     iteration #  2     ecut=    29.40 Ry     beta= 0.05
     Davidson diagonalization with overlap
     ethr =  1.00E-02,  avg # of iterations = 25.4

[...]

     iteration # 40     ecut=    29.40 Ry     beta= 0.05
     Davidson diagonalization with overlap
     c_bands:  1 eigenvalues not converged
     ethr =  6.67E-08,  avg # of iterations = 12.2

[...]

     total energy              =   -2973.89798254 Ry
     estimated scf accuracy    <       0.00000009 Ry

     iteration # 67     ecut=    29.40 Ry     beta= 0.05
     Davidson diagonalization with overlap
     ethr =  2.33E-11,  avg # of iterations =  8.9

     negative rho (up, down):  1.611E-02 0.000E+00

     Adding external electric field

     Computed dipole along edir(3) :
        Dipole                0.8555 Ry au,          2.1744 Debye
        Dipole field          0.0016 Ry au,

        Potential amp.       -0.1496 Ry
        Total length         46.3494 bohr

     End of self-consistent calculation

          k = 0.0000 0.0000 0.0000 ( 18029 PWs)   bands (ev):

   -55.6397 -55.6371 -55.6030 -55.5671 -55.4868 -55.4648 -55.4446 -55.4409
   -55.4308 -55.3885 -55.3461 -55.2876 -55.2095 -55.0642 -54.6005 -54.5665
   -32.1214 -32.0947 -31.9747 -31.9695 -31.9680 -31.9277 -31.9024 -31.8830
   -31.8763 -31.8609 -31.8413 -31.8302 -31.7897 -31.7595 -31.7460 -31.7434
   -31.7387 -31.7247 -31.7040 -31.6998 -31.6948 -31.6682 -31.6630 -31.6500
   -31.6388 -31.6375 -31.6154 -31.6072 -31.5919 -31.5880 -31.5823 -31.5707
   -31.5600 -31.5433 -31.4999 -31.4915 -31.4883 -31.4733 -31.4094 -31.3237
   -31.2898 -31.2818 -31.0056 -30.9212 -30.8987 -30.8235 -30.7372 -30.6251
   -18.6992 -16.3044 -16.2510 -16.1095 -15.8865 -15.7994 -15.7681 -15.6073
   -15.4808 -15.4390 -15.3150 -15.1693 -15.1390 -15.1313 -15.1246 -15.1159
   -15.0986 -15.0712 -15.0579 -15.0533 -15.0396 -14.9753 -14.9565 -14.9273
   -14.8469 -14.7954 -14.7680 -14.6976 -14.6544 -14.5501 -14.5052 -14.2696
   -13.0979 -12.9817  -9.5767  -6.9129  -5.8305  -4.3039  -4.0883  -3.8430
    -3.6242  -3.5358  -3.5122  -3.4040  -3.3132  -3.0832  -3.0607  -2.9908
    -2.8393  -2.7462  -2.6611  -2.6342  -2.5931  -2.5395  -2.5255  -2.4827
    -2.4169  -2.3854  -2.3437  -2.3315  -2.2823  -2.2747  -2.2282  -2.1506
    -2.1441  -2.0383  -1.9705  -1.9655  -1.9511  -1.9426  -1.8929  -1.8776
    -1.8700  -1.7996  -1.7443  -1.7098  -1.6439  -1.6179  -1.5464  -1.3027
    -1.2236  -1.2104  -1.1483  -1.0678  -1.0372  -1.0230  -1.0121  -0.9860
    -0.9591  -0.8713  -0.8439  -0.7039  -0.6981  -0.6624  -0.6361  -0.6046
    -0.4928  -0.4293  -0.4061  -0.3606  -0.3395  -0.2991  -0.2370  -0.2178
    -0.1388  -0.0945  -0.0150  -0.0128   0.0126   0.0834   0.1431   0.1772
     0.1936   0.2934   0.3084   0.3373   0.3437   0.3667   0.3928   0.4859
     0.5038   0.5460   0.5684   0.7099   0.7205   0.7726   0.9162   0.9471
     1.0485   1.1467   1.3708   1.3873   1.4271   1.4544   1.6232   1.9920
     2.0369   3.4426   3.6018   3.6148   3.7115   3.7246   3.8017   3.9370
     4.0314   4.1035   4.1363

[...]

          k = 0.0380-0.0419 0.0000 ( 17876 PWs)   bands (ev):

[...]

          k =-0.0760-0.0000 0.0000 ( 17886 PWs)   bands (ev):

[...]

          k =-0.0760-0.0839 0.0000 ( 17948 PWs)   bands (ev):

   -55.6388 -55.6201 -55.6199 -55.5660 -55.4786 -55.4501 -55.4482 -55.4458
   -55.4452 -55.3801 -55.3545 -55.2887 -55.2076 -55.0660 -54.5835 -54.5833
   -32.0197 -31.9369 -31.9366 -31.9289 -31.9133 -31.9129 -31.9031 -31.8414
   -31.8160 -31.8077 -31.7973 -31.7818 -31.7763 -31.7603 -31.7580 -31.7400
   -31.7400 -31.7302 -31.7285 -31.7172 -31.7169 -31.7025 -31.6915 -31.6849
   -31.6492 -31.6452 -31.6441 -31.6386 -31.6235 -31.6209 -31.6133 -31.6010
   -31.5844 -31.5787 -31.5669 -31.5645 -31.4930 -31.4647 -31.4129 -31.4049
   -31.3284 -31.2851 -30.9114 -30.9114 -30.8187 -30.8183 -30.7805 -30.7802
   -18.6931 -16.2562 -15.9385 -15.6333 -15.6319 -15.6124 -15.4538 -15.4197
   -15.3880 -15.3581 -15.3077 -15.3020 -15.2768 -15.2413 -15.2275 -15.1754
   -15.1510 -15.1341 -15.1156 -15.0965 -15.0769 -15.0485 -15.0376 -15.0362
   -14.9564 -14.9475 -14.9332 -14.9254 -14.8467 -14.6357 -14.4775 -14.4274
   -13.0836 -13.0836  -9.5636  -6.9067  -5.7933  -4.4867  -3.9421  -3.7763
    -3.0657  -2.8675  -2.8376  -2.7107  -2.6775  -2.6543  -2.5896  -2.5488
    -2.5473  -2.4710  -2.4576  -2.4130  -2.4085  -2.3641  -2.3612  -2.3338
    -2.3247  -2.3114  -2.3019  -2.2950  -2.2462  -2.2201  -2.2168  -2.2044
    -2.1812  -2.1671  -2.1431  -2.1262  -2.0667  -1.9912  -1.8791  -1.8565
    -1.7972  -1.7628  -1.7484  -1.7291  -1.7072  -1.6796  -1.6611  -1.5638
    -1.4806  -1.4192  -1.3175  -1.2311  -1.2107  -1.1577  -1.1498  -1.1067
    -1.0841  -1.0643  -1.0278  -0.9593  -0.8494  -0.8381  -0.7695  -0.6836
    -0.6432  -0.5766  -0.5745  -0.5682  -0.5524  -0.5281  -0.5092  -0.4619
    -0.4546  -0.3632  -0.3391  -0.3322  -0.3139  -0.2847  -0.1494  -0.1110
    -0.0611   0.1384   0.1453   0.1735   0.2812   0.3712   0.4367   0.4471
     0.5045   0.5523   0.5866   0.6262   0.6818   0.7056   0.7723   0.8813
     0.8875   0.9065   0.9482   1.0095   1.2455   1.7922   1.7990   1.8572
     1.8575   3.6570   3.8510   3.9665   3.9719   3.9870   4.0284   4.0372
     4.0510   4.1116   4.1215

     the Fermi energy is     3.4832 ev

!    total energy              =   -2973.89801065 Ry
     estimated scf accuracy    <       0.00000004 Ry
     smearing contrib. (-TS)   =      -0.01933306 Ry
     internal energy E=F+TS    =   -2973.87867759 Ry

     The total energy is F=E-TS. E is the sum of the following terms:
     one-electron contribution =  -23221.14515573 Ry
     hartree contribution      =   11705.00824889 Ry
     xc contribution           =    -493.95196719 Ry
     ewald contribution        =    9036.20881541 Ry
     electric field correction =       0.00138103 Ry

     convergence has been achieved in  67 iterations

     Forces acting on atoms (cartesian axes, Ry/au):

     atom    1 type  1   force =     0.00006818   -0.00019790    0.09416934
     atom    2 type  1   force =    -0.00016039    0.00003695   -0.17484478
     atom    3 type  2   force =     0.00003018   -0.00050583   -0.02070096
     atom    4 type  2   force =     0.00004359   -0.00070881    0.05227938
     atom    5 type  2   force =    -0.00298773   -0.00197056    0.00014119
     atom    6 type  2   force =     0.00462306   -0.00150699   -0.00031520
     atom    7 type  1   force =    -0.00019398    0.00281565    0.01408871
     atom    8 type  1   force =    -0.00011963   -0.00121689   -0.00059340
     atom    9 type  2   force =     0.00005227   -0.00010010   -0.00008416
     atom   10 type  2   force =    -0.00139958    0.00346822   -0.00730098
     atom   11 type  2   force =    -0.00019480    0.00025096    0.00021458
     atom   12 type  2   force =     0.00038241    0.00039210    0.00062195
     atom   13 type  1   force =    -0.00042755    0.00057501   -0.00028691
     atom   14 type  1   force =     0.00000456   -0.00008290    0.00070035
     atom   15 type  2   force =     0.00038442    0.00088148    0.00063858
     atom   16 type  2   force =    -0.00009246   -0.00076866    0.00093816
     atom   17 type  2   force =     0.00056764   -0.00024105   -0.00010846
     atom   18 type  2   force =     0.00026669   -0.00008384   -0.00023024
     atom   19 type  1   force =    -0.00001181    0.00005145   -0.00057643
     atom   20 type  1   force =    -0.00026295   -0.00045091   -0.00050601
     atom   21 type  2   force =     0.00006997   -0.00000312    0.10298988
     atom   22 type  2   force =     0.00035623    0.00054285   -0.00019081
     atom   23 type  2   force =    -0.07236053   -0.00018430   -0.02726393
     atom   24 type  2   force =     0.07230501    0.00025872   -0.02731484
     atom   25 type  1   force =     0.00007140   -0.00030603    0.09361745
     atom   26 type  1   force =    -0.00005995   -0.00116433   -0.17495938
     atom   27 type  2   force =     0.00017270   -0.00002273   -0.01956667
     atom   28 type  2   force =     0.00003143   -0.00104386    0.04855820
     atom   29 type  2   force =    -0.00593644    0.00105722    0.00313607
     atom   30 type  2   force =     0.00741855    0.00157243    0.00263712
     atom   31 type  1   force =     0.00004611    0.00141935    0.00268571
     atom   32 type  1   force =     0.00006516    0.00068191   -0.00037308
     atom   33 type  2   force =    -0.00016907   -0.00011964   -0.00050110
     atom   34 type  2   force =    -0.00061552   -0.00197047   -0.01092315
     atom   35 type  2   force =     0.00022324   -0.00040235   -0.00013423
     atom   36 type  2   force =    -0.00002541   -0.00026042   -0.00019921
     atom   37 type  1   force =    -0.00026051   -0.00039327   -0.00051443
     atom   38 type  1   force =     0.00025653    0.00022498    0.00033972
     atom   39 type  2   force =    -0.00036835   -0.00119010   -0.00026610
     atom   40 type  2   force =    -0.00012986    0.00035193    0.00082494
     atom   41 type  2   force =    -0.00082742    0.00009067    0.00030238
     atom   42 type  2   force =     0.00037326   -0.00051089   -0.00008095
     atom   43 type  1   force =    -0.00034342    0.00059575    0.00002586
     atom   44 type  1   force =     0.00016704   -0.00100221    0.00030991
     atom   45 type  2   force =     0.00006626    0.00005509    0.10283838
     atom   46 type  2   force =    -0.07231867   -0.00006074   -0.02720786
     atom   47 type  2   force =     0.07222646    0.00038934   -0.02723928
     atom   48 type  3   force =    -0.00103280   -0.00072435    0.00004433
     atom   49 type  3   force =     0.00110598    0.00743535    0.00546249
     atom   50 type  4   force =     0.00035459    0.00037018    0.00037072
     atom   51 type  5   force =    -0.00030832   -0.00108150    0.00032671
     atom   52 type  5   force =     0.00000319    0.00140306    0.00053166
     atom   53 type  5   force =    -0.00119701   -0.00636098   -0.00554186
     atom   54 type  5   force =     0.00016760    0.00023706    0.00028065
     atom   55 type  2   force =     0.00034739    0.00039046   -0.00034010
     atom   56 type  5   force =    -0.00044691   -0.00091245   -0.00090992

     Total force =     0.361277     Total SCF correction =     0.000674
  @ DRIVER MODE: Message from server: STATUS
  @ DRIVER MODE: Message from server: GETFORCE
  @ DRIVER MODE: Returning v,forces,stress,ensemble

     Writing output data file ./calc.save/
  @ DRIVER MODE: Message from server: EXIT
  @ DRIVE MODE: Exiting

     General routines

     Parallel routines

   This run was terminated on:   1:51:54  29Sep2021

   JOB DONE.