     Program PWSCF v.6.7GPU starts on  2Aug2021 at 18:18:35

     R & G space division:  proc/nbgrp/npool/nimage =      16
     Reading input from /storage/home/hcoda1/3/ntian30/research/carbon/02Aug_vib_paired/ads_slab/CH3NH_a/out_0026/pw.inp
Warning: card &CELL ignored
Warning: card   CELL_DYNAMICS='IPI', ignored
Warning: card / ignored

     Current dimensions of program PWSCF are:
     Max number of different atomic species (ntypx) = 10
     Max number of k-points (npk) =  40000
     Max angular momentum in pseudopotentials (lmaxx) =  3
     Presently no symmetry can be used with electric field

     Message from routine cell_base_init:
     DEPRECATED: use true lattice parameter, not A to a.u. conversion factor

     IMPORTANT: XC functional enforced from input :
     Exchange-correlation= BEEF-VDW
                           (   1   4  43  14   2   0   0)
     Any further DFT definition will be discarded
     Please, verify this is what you really want

  @ DRIVER MODE: Connecting to
 qe_1139763_2482540.sched-torque.pace.gatech.edurcs89a1t_scratch
  using UNIX socket
  @ DRIVER MODE: Message from server: STATUS
  @ DRIVER MODE: Message from server: INIT
  @ DRIVER MODE: Receiving replica           0          -1
  @ DRIVER MODE: Receiving encoded integer          25
  @ DRIVER MODE:  SCF:  T  FORCE:  T  STRESS:  F  VC:  F  ENSEMBLE:  F
  @ DRIVER MODE:  SCF:  T  FORCE:  T  STRESS:  F  VC:  F  ENSEMBLE:  F

     Using Slab Decomposition

     bravais-lattice index     =            0
     lattice parameter (alat)  =       1.8897  a.u.
     unit-cell volume          =    6658.9804 (a.u.)^3
     number of atoms/cell      =           53
     number of atomic types    =            5
     number of electrons       =       391.00
     number of Kohn-Sham states=          205
     kinetic-energy cutoff     =      29.3995  Ry
     charge density cutoff     =     293.9946  Ry
     scf convergence threshold =      7.3E-08
     mixing beta               =       0.0500
     number of iterations used =            8  plain     mixing
     Exchange-correlation= BEEF-VDW
                           (   1   4  43  14   2   0   0)

     celldm(1)=   1.889726  celldm(2)=   0.000000  celldm(3)=   0.000000
     celldm(4)=   0.000000  celldm(5)=   0.000000  celldm(6)=   0.000000

     crystal axes: (cart. coord. in units of alat)
               a(1) = (   6.579727   0.000000   0.000000 )
               a(2) = (  -0.000775   5.961596   0.000000 )
               a(3) = (   0.000000   0.000000  25.155947 )

     reciprocal axes: (cart. coord. in units 2 pi/alat)
               b(1) = (  0.151982  0.000020  0.000000 )
               b(2) = (  0.000000  0.167740  0.000000 )
               b(3) = (  0.000000  0.000000  0.039752 )

     PseudoPot. # 1 for Ti read from file:
     /storage/coda1/p-amedford6/0/shared/rich_project_chbe-medford/medford-share/data/pseudos_module/espresso/nninc/pbe/van/Ti.UPF
     MD5 check sum: 8e4df49b7f0d34bbd5052bf3f5ea0213
     Pseudo is Ultrasoft, Zval = 12.0
     Generated by new atomic code, or converted to UPF format
     Using radial grid of  851 points,  6 beta functions with:
                l(1) =   0
                l(2) =   0
                l(3) =   1
                l(4) =   1
                l(5) =   2
                l(6) =   2
     Q(r) pseudized with  8 coefficients,  rinner =    1.000   1.000   1.000
                                                       1.000   1.000

     PseudoPot. # 2 for O  read from file:
     /storage/coda1/p-amedford6/0/shared/rich_project_chbe-medford/medford-share/data/pseudos_module/espresso/nninc/pbe/van/O.UPF
     MD5 check sum: 78c19812648e8988a0fe644b0f25305e
     Pseudo is Ultrasoft, Zval =  6.0
     Generated by new atomic code, or converted to UPF format
     Using radial grid of  737 points,  4 beta functions with:
                l(1) =   0
                l(2) =   0
                l(3) =   1
                l(4) =   1
     Q(r) pseudized with  8 coefficients,  rinner =    0.800   0.800   0.800

     PseudoPot. # 3 for H  read from file:
     /storage/coda1/p-amedford6/0/shared/rich_project_chbe-medford/medford-share/data/pseudos_module/espresso/nninc/pbe/van/H.UPF
     MD5 check sum: b5ee9d7bfd3a09ee7748110bda690ff7
     Pseudo is Ultrasoft, Zval =  1.0
     Generated by new atomic code, or converted to UPF format
     Using radial grid of  615 points,  1 beta functions with:
                l(1) =   0
     Q(r) pseudized with  8 coefficients,  rinner =    0.800

     PseudoPot. # 4 for N  read from file:
     /storage/coda1/p-amedford6/0/shared/rich_project_chbe-medford/medford-share/data/pseudos_module/espresso/nninc/pbe/van/N.UPF
     MD5 check sum: 90d10febe142ad51ac9d5be1deb811c4
     Pseudo is Ultrasoft, Zval =  5.0
     Generated by new atomic code, or converted to UPF format
     Using radial grid of  729 points,  4 beta functions with:
                l(1) =   0
                l(2) =   0
                l(3) =   1
                l(4) =   1
     Q(r) pseudized with  8 coefficients,  rinner =    0.800   0.800   0.800

     PseudoPot. # 5 for C  read from file:
     /storage/coda1/p-amedford6/0/shared/rich_project_chbe-medford/medford-share/data/pseudos_module/espresso/nninc/pbe/van/C.UPF
     MD5 check sum: 1a69bf6b8db32088f5b2163dbdb77a27
     Pseudo is Ultrasoft, Zval =  4.0
     Generated by new atomic code, or converted to UPF format
     Using radial grid of  721 points,  4 beta functions with:
                l(1) =   0
                l(2) =   0
                l(3) =   1
                l(4) =   1
     Q(r) pseudized with  8 coefficients,  rinner =    0.800   0.800   0.800

     atomic species   valence    mass     pseudopotential
        Ti1           12.00    47.86700     Ti( 1.00)
        O1             6.00    15.99900     O ( 1.00)
        H1             1.00     1.00800     H ( 1.00)
        N1             5.00    14.00700     N ( 1.00)
        C1             4.00    12.01100     C ( 1.00)

     No symmetry found

   Cartesian axes

     site n.     atom                  positions (alat units)
         1           Ti1 tau(   1) = (   0.0004258   2.9801865   6.0000000  )
         2           Ti1 tau(   2) = (   3.2906075   1.4906267   6.0002472  )
         3           O1  tau(   3) = (   0.0006271   0.0005054   7.9858123  )
         4           O1  tau(   4) = (   3.2906025   0.0005020   7.3038282  )
         5           O1  tau(   5) = (   4.5942328   1.4918067   9.2879030  )
         6           O1  tau(   6) = (   1.9868534   1.4903216   9.2879459  )
         7           Ti1 tau(   7) = (   3.2907910   2.8959150   9.1758416  )
         8           Ti1 tau(   8) = (   0.0015273   1.4827037   9.2680791  )
         9           O1  tau(   9) = (   3.2884659   0.0075485  11.3235732  )
        10           O1  tau(  10) = (   0.0116148   5.9584955  10.6183126  )
        11           O1  tau(  11) = (   1.3171120   1.5008813  12.6157184  )
        12           O1  tau(  12) = (   5.2946386   1.4924346  12.6071097  )
        13           Ti1 tau(  13) = (   6.5241923   2.9548932  12.6217359  )
        14           Ti1 tau(  14) = (   3.2094326   1.4975571  12.4685497  )
        15           O1  tau(  15) = (   6.5712017   0.0435206  14.6415704  )
        16           O1  tau(  16) = (   3.3105969   0.0188825  13.9167609  )
        17           O1  tau(  17) = (   4.5276945   1.5520673  16.0775932  )
        18           O1  tau(  18) = (   2.0451199   1.5488911  16.0433559  )
        19           Ti1 tau(  19) = (   3.3056363   3.0248959  15.6834923  )
        20           Ti1 tau(  20) = (   0.0598299   1.5678558  15.8702049  )
        21           O1  tau(  21) = (   3.2904802   0.0005063   4.7018136  )
        22           O1  tau(  22) = (   0.0261329   0.0581799  17.1997403  )
        23           O1  tau(  23) = (   1.3043587   1.4918075   6.0039043  )
        24           O1  tau(  24) = (   5.2767064   1.4903225   6.0039473  )
        25           Ti1 tau(  25) = (   0.0000382   5.9609847   6.0000000  )
        26           Ti1 tau(  26) = (   3.2902200   4.4714249   6.0002472  )
        27           O1  tau(  27) = (   0.0002396   2.9813036   7.9858123  )
        28           O1  tau(  28) = (   3.2902150   2.9813002   7.3038282  )
        29           O1  tau(  29) = (   4.5938453   4.4726049   9.2879030  )
        30           O1  tau(  30) = (   1.9864658   4.4711199   9.2879459  )
        31           Ti1 tau(  31) = (   3.2891106   5.8743827   9.1763621  )
        32           Ti1 tau(  32) = (   0.0006254   4.4649316   9.2693709  )
        33           O1  tau(  33) = (   3.2900467   2.9919642  11.3219399  )
        34           O1  tau(  34) = (   0.0092240   2.9805883  10.6323155  )
        35           O1  tau(  35) = (   1.3109590   4.4888342  12.6262493  )
        36           O1  tau(  36) = (   5.2962169   4.4808628  12.6191006  )
        37           Ti1 tau(  37) = (   6.5213093   5.9327278  12.5667326  )
        38           Ti1 tau(  38) = (   3.2063601   4.4772876  12.4706241  )
        39           O1  tau(  39) = (   6.5765807   2.9606619  14.6437028  )
        40           O1  tau(  40) = (   3.3047873   3.0036736  13.8926904  )
        41           O1  tau(  41) = (   4.5386289   4.5058657  16.0833063  )
        42           O1  tau(  42) = (   2.0584685   4.5123608  16.0729366  )
        43           Ti1 tau(  43) = (   3.3398093   0.0384087  15.7085799  )
        44           Ti1 tau(  44) = (   0.0478225   4.6849499  16.0879628  )
        45           O1  tau(  45) = (   3.2900926   2.9813045   4.7018136  )
        46           O1  tau(  46) = (   1.3039711   4.4726057   6.0039043  )
        47           O1  tau(  47) = (   5.2763189   4.4711207   6.0039473  )
        48           H1  tau(  48) = (   5.6109407   2.9912845  17.7881963  )
        49           N1  tau(  49) = (   6.5652763   3.0051276  17.4431066  )
        50           C1  tau(  50) = (   0.8863280   2.9891452  18.6126320  )
        51           H1  tau(  51) = (   1.3596840   3.9617220  18.7724638  )
        52           H1  tau(  52) = (   0.3415535   2.7344040  19.5171108  )
        53           H1  tau(  53) = (   1.6705027   2.2407838  18.4910999  )

     number of k points=    10  Fermi-Dirac smearing, width (Ry)=  0.0073
                       cart. coord. in units 2pi/alat
        k(    1) = (   0.0000000   0.0000000   0.0000000), wk =   0.1250000
        k(    2) = (   0.0000000   0.0419351   0.0000000), wk =   0.2500000
        k(    3) = (   0.0000000  -0.0838702   0.0000000), wk =   0.1250000
        k(    4) = (   0.0379955   0.0000049   0.0000000), wk =   0.2500000
        k(    5) = (   0.0379955   0.0419400   0.0000000), wk =   0.2500000
        k(    6) = (   0.0379955  -0.0838652   0.0000000), wk =   0.2500000
        k(    7) = (   0.0379955  -0.0419301   0.0000000), wk =   0.2500000
        k(    8) = (  -0.0759910  -0.0000099   0.0000000), wk =   0.1250000
        k(    9) = (  -0.0759910   0.0419252   0.0000000), wk =   0.2500000
        k(   10) = (  -0.0759910  -0.0838800   0.0000000), wk =   0.1250000

     Initial potential from superposition of free atoms

     starting charge  374.99916, renormalised to  391.00000

     negative rho (up, down):  1.779E-02 0.000E+00

     %%%%%%%%%%%%%%%%%%%%%%%%%%%%%%%%%%%%%%%%%%%%%%%%%%%%%%%%%%%%%%%%%%%%%%%%
     %                                                                      %
     % You are using vdW-DF, which was implemented by the Thonhauser group. %
     % Please cite the following two papers that made this development      %
     % possible and the two reviews that describe the various versions:     %
     %                                                                      %
     %   T. Thonhauser et al., PRL 115, 136402 (2015).                      %
     %   T. Thonhauser et al., PRB 76, 125112 (2007).                       %
     %   K. Berland et al., Rep. Prog. Phys. 78, 066501 (2015).             %
     %   D.C. Langreth et al., J. Phys.: Condens. Matter 21, 084203 (2009). %
     %                                                                      %
     %                                                                      %
     % If you are calculating the stress with vdW-DF, please also cite:     %
     %                                                                      %
     %   R. Sabatini et al., J. Phys.: Condens. Matter 24, 424209 (2012).   %
     %                                                                      %
     %%%%%%%%%%%%%%%%%%%%%%%%%%%%%%%%%%%%%%%%%%%%%%%%%%%%%%%%%%%%%%%%%%%%%%%%

     Adding external electric field

     Computed dipole along edir(3) :
        Dipole               -5.8084 Ry au,        -14.7635 Debye
        Dipole field         -0.0110 Ry au,

        Potential amp.        1.0161 Ry
        Total length         46.3494 bohr

     Starting wfcs are  296 atomic wfcs
  @ DRIVER MODE: Message from server: STATUS
  @ DRIVER MODE: Message from server: POSDATA
  @ DRIVER MODE: Reading and sharing cell
  @ DRIVER MODE: Reading and sharing positions
  @ DRIVER MODE: Received positions

     Self-consistent Calculation

     iteration #  1     ecut=    29.40 Ry     beta= 0.05
     Davidson diagonalization with overlap
     c_bands:  2 eigenvalues not converged
     c_bands:  1 eigenvalues not converged
     c_bands:  1 eigenvalues not converged
     c_bands:  2 eigenvalues not converged
     c_bands:  4 eigenvalues not converged
     c_bands:  2 eigenvalues not converged
     c_bands:  1 eigenvalues not converged
     c_bands:  1 eigenvalues not converged
     c_bands:  2 eigenvalues not converged
     ethr =  1.00E-05,  avg # of iterations = 19.5

[...]

     total energy              =   -2770.96559159 Ry
     estimated scf accuracy    <    1638.04413462 Ry

     iteration #  2     ecut=    29.40 Ry     beta= 0.05
     Davidson diagonalization with overlap
     ethr =  1.00E-02,  avg # of iterations = 18.2

[...]

     iteration # 53     ecut=    29.40 Ry     beta= 0.05
     Davidson diagonalization with overlap
     c_bands:  2 eigenvalues not converged
     ethr =  4.23E-10,  avg # of iterations = 16.4

[...]

     total energy              =   -2920.41986442 Ry
     estimated scf accuracy    <       0.00000009 Ry

     iteration # 64     ecut=    29.40 Ry     beta= 0.05
     Davidson diagonalization with overlap
     ethr =  2.18E-11,  avg # of iterations =  8.7

     negative rho (up, down):  1.826E-02 0.000E+00

     Adding external electric field

     Computed dipole along edir(3) :
        Dipole                0.6962 Ry au,          1.7697 Debye
        Dipole field          0.0013 Ry au,

        Potential amp.       -0.1218 Ry
        Total length         46.3494 bohr

     End of self-consistent calculation

          k = 0.0000 0.0000 0.0000 ( 18029 PWs)   bands (ev):

   -55.9814 -55.9730 -55.9473 -55.9369 -55.8849 -55.8241 -55.8196 -55.7865
   -55.7850 -55.7526 -55.7458 -55.7121 -55.5556 -55.2756 -54.9538 -54.9198
   -32.5331 -32.4629 -32.3340 -32.3209 -32.3003 -32.2858 -32.2746 -32.2369
   -32.2230 -32.2204 -32.1960 -32.1890 -32.1563 -32.1336 -32.1248 -32.1178
   -32.1161 -32.0848 -32.0645 -32.0386 -32.0308 -32.0265 -32.0107 -31.9897
   -31.9796 -31.9775 -31.9729 -31.9628 -31.9493 -31.9426 -31.9405 -31.9350
   -31.9228 -31.9168 -31.8991 -31.8934 -31.8584 -31.8203 -31.7246 -31.5500
   -31.5433 -31.4725 -31.3607 -31.2730 -31.2506 -31.1775 -31.0911 -30.9799
   -16.7425 -16.4590 -16.2797 -16.1366 -16.1037 -16.0186 -15.8180 -15.6928
   -15.6799 -15.5768 -15.5390 -15.5158 -15.5082 -15.4813 -15.4782 -15.4196
   -15.4163 -15.4039 -15.3915 -15.3354 -15.3114 -15.2719 -15.1774 -15.1536
   -15.1379 -15.1113 -15.0304 -15.0233 -14.5837 -14.1014 -13.4564 -13.3400
    -8.9468  -4.3797  -4.1133  -3.9364  -3.8975  -3.8839  -3.8355  -3.5839
    -3.5676  -3.3118  -3.1925  -3.1761  -3.1673  -3.1512  -3.1374  -3.1178
    -2.8807  -2.8102  -2.7965  -2.7742  -2.7670  -2.7639  -2.7520  -2.7476
    -2.7053  -2.6450  -2.5272  -2.5141  -2.4087  -2.3615  -2.3376  -2.2910
    -2.2472  -2.2407  -2.2283  -2.2111  -2.1965  -2.1776  -2.1598  -2.0254
    -1.9618  -1.8341  -1.7861  -1.7800  -1.5821  -1.5377  -1.4478  -1.4244
    -1.4080  -1.4005  -1.3683  -1.2882  -1.1963  -1.1397  -1.1265  -1.0735
    -0.9968  -0.9851  -0.8749  -0.8702  -0.8100  -0.7504  -0.7412  -0.7316
    -0.6866  -0.6154  -0.5406  -0.4659  -0.4163  -0.3950  -0.3679  -0.2892
    -0.2591  -0.1625  -0.1444  -0.0979  -0.0942  -0.0450  -0.0031   0.0067
     0.0132   0.0279   0.0455   0.1942   0.3012   0.3577   0.3908   0.4018
     0.5577   0.5936   0.6819   0.7693   0.9949   1.0681   1.1616   1.2610
     1.3235   1.6389   1.6842   3.1616   3.2405   3.2937   3.3020   3.4036
     3.4061   3.6114   3.6238   3.6342   3.7025

[...]

          k = 0.0380-0.0419 0.0000 ( 17876 PWs)   bands (ev):

[...]

          k =-0.0760-0.0000 0.0000 ( 17886 PWs)   bands (ev):

[...]

          k =-0.0760-0.0839 0.0000 ( 17948 PWs)   bands (ev):

   -55.9647 -55.9639 -55.9559 -55.9539 -55.8795 -55.8294 -55.8044 -55.8001
   -55.7702 -55.7684 -55.7296 -55.7284 -55.5546 -55.2765 -54.9368 -54.9367
   -32.3374 -32.3346 -32.2784 -32.2779 -32.2658 -32.2603 -32.2596 -32.2453
   -32.1831 -32.1820 -32.1756 -32.1718 -32.1485 -32.1202 -32.1018 -32.0977
   -32.0870 -32.0842 -32.0835 -32.0834 -32.0815 -32.0696 -32.0672 -32.0355
   -32.0249 -32.0190 -31.9946 -31.9853 -31.9670 -31.9665 -31.9626 -31.9614
   -31.9446 -31.9439 -31.9418 -31.9401 -31.8886 -31.8230 -31.7198 -31.6132
   -31.5454 -31.4979 -31.2633 -31.2632 -31.1736 -31.1734 -31.1343 -31.1343
   -16.1944 -16.1610 -15.9254 -15.9158 -15.9070 -15.8908 -15.7463 -15.6942
   -15.6859 -15.6791 -15.6546 -15.6310 -15.5798 -15.5493 -15.5157 -15.5089
   -15.5023 -15.4971 -15.4407 -15.4342 -15.4119 -15.4045 -15.2910 -15.2868
   -15.2855 -15.2095 -15.1450 -15.0119 -14.7537 -14.1225 -13.4419 -13.4418
    -8.9506  -4.3913  -3.4889  -3.4508  -3.2769  -3.1897  -3.1653  -3.1522
    -3.1310  -3.0510  -2.8919  -2.8773  -2.8589  -2.8458  -2.8057  -2.8006
    -2.7888  -2.7749  -2.7678  -2.7501  -2.7163  -2.6755  -2.6470  -2.6399
    -2.6310  -2.6065  -2.5942  -2.5681  -2.5622  -2.5294  -2.5210  -2.5026
    -2.4788  -2.2163  -2.1978  -2.1809  -2.1118  -2.1050  -2.0703  -2.0620
    -2.0429  -2.0295  -1.9776  -1.8767  -1.7132  -1.6803  -1.6681  -1.6514
    -1.5860  -1.5653  -1.4165  -1.3882  -1.3710  -1.3310  -1.2825  -1.2525
    -1.2157  -1.1763  -1.1389  -1.0783  -1.0704  -0.9912  -0.9410  -0.9404
    -0.9135  -0.8436  -0.7646  -0.7474  -0.7357  -0.6945  -0.6811  -0.5994
    -0.5767  -0.4784  -0.4656  -0.3970  -0.3636  -0.2976  -0.0962   0.0037
     0.0626   0.0863   0.1394   0.2367   0.2907   0.3044   0.3381   0.3431
     0.4028   0.4436   0.5580   0.5656   0.6340   0.7376   1.2715   1.4324
     1.4330   1.5040   1.5041   3.4235   3.4292   3.4786   3.5094   3.6612
     3.6656   3.6884   3.6895   3.8111   3.8288

     the Fermi energy is     3.1547 ev

!    total energy              =   -2920.41989137 Ry
     estimated scf accuracy    <       0.00000004 Ry
     smearing contrib. (-TS)   =      -0.02203258 Ry
     internal energy E=F+TS    =   -2920.39785879 Ry

     The total energy is F=E-TS. E is the sum of the following terms:
     one-electron contribution =  -24727.74211807 Ry
     hartree contribution      =   12448.53747980 Ry
     xc contribution           =    -480.87878781 Ry
     ewald contribution        =    9839.68465250 Ry
     electric field correction =       0.00091479 Ry

     convergence has been achieved in  64 iterations

     Forces acting on atoms (cartesian axes, Ry/au):

     atom    1 type  1   force =     0.00011676   -0.00017591    0.09685962
     atom    2 type  1   force =     0.00004802   -0.00047395   -0.17505635
     atom    3 type  2   force =     0.00012714    0.00000973   -0.02534352
     atom    4 type  2   force =    -0.00003511   -0.00127966    0.05234760
     atom    5 type  2   force =    -0.01221746   -0.00000853    0.00299329
     atom    6 type  2   force =     0.01365454    0.00058560    0.00232821
     atom    7 type  1   force =     0.00057107    0.00034169   -0.01303022
     atom    8 type  1   force =     0.00045820    0.00731070    0.03072027
     atom    9 type  2   force =     0.00055912    0.00003588   -0.00021297
     atom   10 type  2   force =    -0.00267777    0.00211226   -0.01737923
     atom   11 type  2   force =    -0.00015206    0.00007339   -0.00002530
     atom   12 type  2   force =     0.00046698    0.00033970    0.00018372
     atom   13 type  1   force =    -0.00009106   -0.00053953   -0.00019654
     atom   14 type  1   force =    -0.00042817    0.00003250    0.00080674
     atom   15 type  2   force =    -0.00000341   -0.00078210    0.00084542
     atom   16 type  2   force =     0.00025917    0.00062933   -0.00048769
     atom   17 type  2   force =     0.00065407    0.00008038    0.00061730
     atom   18 type  2   force =    -0.00011913   -0.00009617   -0.00000475
     atom   19 type  1   force =    -0.00001671    0.00045341   -0.00023296
     atom   20 type  1   force =    -0.00021757   -0.00060627    0.00001671
     atom   21 type  2   force =     0.00006165   -0.00002718    0.10311749
     atom   22 type  2   force =     0.00013675   -0.00088683    0.00102730
     atom   23 type  2   force =    -0.07163879   -0.00015286   -0.02781050
     atom   24 type  2   force =     0.07153557    0.00034418   -0.02786700
     atom   25 type  1   force =     0.00007868   -0.00013833    0.09658422
     atom   26 type  1   force =     0.00009380   -0.00019699   -0.17518249
     atom   27 type  2   force =     0.00011501   -0.00011349   -0.02440396
     atom   28 type  2   force =     0.00004495   -0.00103943    0.05226551
     atom   29 type  2   force =    -0.01241784    0.00063556    0.00278591
     atom   30 type  2   force =     0.01372515    0.00097980    0.00213163
     atom   31 type  1   force =     0.00045700    0.00315640   -0.01358835
     atom   32 type  1   force =     0.00031825   -0.00952499    0.03109219
     atom   33 type  2   force =    -0.00007132    0.00030914   -0.00060202
     atom   34 type  2   force =    -0.00206432    0.00182293   -0.02537644
     atom   35 type  2   force =    -0.00019154   -0.00029330    0.00037617
     atom   36 type  2   force =     0.00025950   -0.00078458    0.00040620
     atom   37 type  1   force =     0.00005237    0.00026388    0.00100789
     atom   38 type  1   force =    -0.00021027    0.00038890    0.00077405
     atom   39 type  2   force =    -0.00006499   -0.00016625   -0.00056688
     atom   40 type  2   force =     0.00042329    0.00007139    0.00057535
     atom   41 type  2   force =     0.00030617   -0.00024668   -0.00005066
     atom   42 type  2   force =    -0.00052053   -0.00038755   -0.00038095
     atom   43 type  1   force =    -0.00079285   -0.00019456    0.00041904
     atom   44 type  1   force =    -0.00032576   -0.00063959    0.00050061
     atom   45 type  2   force =     0.00004155   -0.00005015    0.10313509
     atom   46 type  2   force =    -0.07163031   -0.00007233   -0.02780595
     atom   47 type  2   force =     0.07155096    0.00034914   -0.02787698
     atom   48 type  3   force =    -0.00015964   -0.00044866    0.00001758
     atom   49 type  4   force =    -0.00040765   -0.00032558    0.00054261
     atom   50 type  5   force =     0.00497628    0.00068518   -0.00383878
     atom   51 type  3   force =    -0.00058983    0.00035253   -0.00010830
     atom   52 type  3   force =    -0.00469351   -0.00193693    0.00397822
     atom   53 type  3   force =     0.00064560    0.00022480   -0.00102714

     Total force =     0.368534     Total SCF correction =     0.000367
  @ DRIVER MODE: Message from server: STATUS
  @ DRIVER MODE: Message from server: GETFORCE
  @ DRIVER MODE: Returning v,forces,stress,ensemble

     Writing output data file ./calc.save/
  @ DRIVER MODE: Message from server: EXIT
  @ DRIVE MODE: Exiting

     General routines

     Parallel routines

   This run was terminated on:  18:32:55   2Aug2021

   JOB DONE.