     Program PWSCF v.6.7GPU starts on 18Oct2021 at 19: 3:17

     R & G space division:  proc/nbgrp/npool/nimage =       8
     Reading input from /storage/home/hcoda1/3/ntian30/research/carbon/CxH_vib/Thiel_calc/ads_slab/NH2NH3H_perslab/out_0016/pw.inp
Warning: card &CELL ignored
Warning: card   CELL_DYNAMICS='IPI', ignored
Warning: card / ignored

     Current dimensions of program PWSCF are:
     Max number of different atomic species (ntypx) = 10
     Max number of k-points (npk) =  40000
     Max angular momentum in pseudopotentials (lmaxx) =  3
     Presently no symmetry can be used with electric field

     Message from routine cell_base_init:
     DEPRECATED: use true lattice parameter, not A to a.u. conversion factor

     IMPORTANT: XC functional enforced from input :
     Exchange-correlation= BEEF-VDW
                           (   1   4  43  14   2   0   0)
     Any further DFT definition will be discarded
     Please, verify this is what you really want

  @ DRIVER MODE: Connecting to
 qe_1139763_3255138.sched-torque.pace.gatech.edunbxmwcgn_scratch
  using UNIX socket
  @ DRIVER MODE: Message from server: STATUS
  @ DRIVER MODE: Message from server: INIT
  @ DRIVER MODE: Receiving replica           0          -1
  @ DRIVER MODE: Receiving encoded integer          25
  @ DRIVER MODE:  SCF:  T  FORCE:  T  STRESS:  F  VC:  F  ENSEMBLE:  F
  @ DRIVER MODE:  SCF:  T  FORCE:  T  STRESS:  F  VC:  F  ENSEMBLE:  F

     Using Slab Decomposition

     bravais-lattice index     =            0
     lattice parameter (alat)  =       1.8897  a.u.
     unit-cell volume          =    9988.4706 (a.u.)^3
     number of atoms/cell      =           61
     number of atomic types    =            4
     number of electrons       =       442.00
     number of Kohn-Sham states=          231
     kinetic-energy cutoff     =      29.3995  Ry
     charge density cutoff     =     293.9946  Ry
     scf convergence threshold =      7.3E-08
     mixing beta               =       0.0500
     number of iterations used =            8  plain     mixing
     Exchange-correlation= BEEF-VDW
                           (   1   4  43  14   2   0   0)

     celldm(1)=   1.889726  celldm(2)=   0.000000  celldm(3)=   0.000000
     celldm(4)=   0.000000  celldm(5)=   0.000000  celldm(6)=   0.000000

     crystal axes: (cart. coord. in units of alat)
               a(1) = (   6.579727   0.000000   0.000000 )
               a(2) = (  -0.001163   8.942395   0.000000 )
               a(3) = (   0.000000   0.000000  25.155947 )

     reciprocal axes: (cart. coord. in units 2 pi/alat)
               b(1) = (  0.151982  0.000020  0.000000 )
               b(2) = (  0.000000  0.111827  0.000000 )
               b(3) = (  0.000000  0.000000  0.039752 )

     PseudoPot. # 1 for O  read from file:
     /storage/coda1/p-amedford6/0/shared/rich_project_chbe-medford/medford-share/data/pseudos_module/espresso/nninc/pbe/van/O.UPF
     MD5 check sum: 78c19812648e8988a0fe644b0f25305e
     Pseudo is Ultrasoft, Zval =  6.0
     Generated by new atomic code, or converted to UPF format
     Using radial grid of  737 points,  4 beta functions with:
                l(1) =   0
                l(2) =   0
                l(3) =   1
                l(4) =   1
     Q(r) pseudized with  8 coefficients,  rinner =    0.800   0.800   0.800

     PseudoPot. # 2 for Ti read from file:
     /storage/coda1/p-amedford6/0/shared/rich_project_chbe-medford/medford-share/data/pseudos_module/espresso/nninc/pbe/van/Ti.UPF
     MD5 check sum: 8e4df49b7f0d34bbd5052bf3f5ea0213
     Pseudo is Ultrasoft, Zval = 12.0
     Generated by new atomic code, or converted to UPF format
     Using radial grid of  851 points,  6 beta functions with:
                l(1) =   0
                l(2) =   0
                l(3) =   1
                l(4) =   1
                l(5) =   2
                l(6) =   2
     Q(r) pseudized with  8 coefficients,  rinner =    1.000   1.000   1.000
                                                       1.000   1.000

     PseudoPot. # 3 for N  read from file:
     /storage/coda1/p-amedford6/0/shared/rich_project_chbe-medford/medford-share/data/pseudos_module/espresso/nninc/pbe/van/N.UPF
     MD5 check sum: 90d10febe142ad51ac9d5be1deb811c4
     Pseudo is Ultrasoft, Zval =  5.0
     Generated by new atomic code, or converted to UPF format
     Using radial grid of  729 points,  4 beta functions with:
                l(1) =   0
                l(2) =   0
                l(3) =   1
                l(4) =   1
     Q(r) pseudized with  8 coefficients,  rinner =    0.800   0.800   0.800

     PseudoPot. # 4 for H  read from file:
     /storage/coda1/p-amedford6/0/shared/rich_project_chbe-medford/medford-share/data/pseudos_module/espresso/nninc/pbe/van/H.UPF
     MD5 check sum: b5ee9d7bfd3a09ee7748110bda690ff7
     Pseudo is Ultrasoft, Zval =  1.0
     Generated by new atomic code, or converted to UPF format
     Using radial grid of  615 points,  1 beta functions with:
                l(1) =   0
     Q(r) pseudized with  8 coefficients,  rinner =    0.800

     atomic species   valence    mass     pseudopotential
        O1             6.00    15.99900     O ( 1.00)
        Ti1           12.00    47.86700     Ti( 1.00)
        N1             5.00    14.00700     N ( 1.00)
        H1             1.00     1.00800     H ( 1.00)

     No symmetry found

   Cartesian axes

     site n.     atom                  positions (alat units)
         1           O1  tau(   1) = (   0.0007354   0.0005023  10.5931620  )
         2           O1  tau(   2) = (   3.2893251   8.9324977  13.8850595  )
         3           O1  tau(   3) = (   0.0000810   0.0519898  17.3357851  )
         4           O1  tau(   4) = (   0.0006271   0.0005054   7.9858123  )
         5           O1  tau(   5) = (   3.2891750   8.9291278  11.1853435  )
         6           O1  tau(   6) = (   0.0004222   0.0485762  14.6167438  )
         7           O1  tau(   7) = (   1.9868534   1.4903216   9.2879459  )
         8           O1  tau(   8) = (   5.2393499   1.5905449  12.5682489  )
         9           O1  tau(   9) = (   1.9991366   1.5492019  16.1124644  )
        10           Ti1 tau(  10) = (   0.0007404   1.4906270   9.2895810  )
        11           Ti1 tau(  11) = (   3.2902999   1.3249318  12.4520864  )
        12           Ti1 tau(  12) = (   0.0005939   1.3452645  15.7597600  )
        13           O1  tau(  13) = (   4.5942328   1.4918067   9.2879030  )
        14           O1  tau(  14) = (   1.3411764   1.5910169  12.5684512  )
        15           O1  tau(  15) = (   4.5798538   1.5480364  16.1129854  )
        16           Ti1 tau(  16) = (   3.2902859   2.9801868   9.2893338  )
        17           Ti1 tau(  17) = (   0.0006295   2.8174385  12.4372122  )
        18           Ti1 tau(  18) = (   3.2897038   2.9127836  15.6935398  )
        19           O1  tau(  19) = (   0.0003479   2.9813005  10.5931620  )
        20           O1  tau(  20) = (   3.2904107   2.9319293  13.8952334  )
        21           O1  tau(  21) = (   0.0002396   2.9813036   7.9858123  )
        22           O1  tau(  22) = (   3.2903884   2.9732875  11.2024877  )
        23           O1  tau(  23) = (   6.5791771   2.9400465  14.7470945  )
        24           O1  tau(  24) = (   1.9864658   4.4711199   9.2879459  )
        25           O1  tau(  25) = (   5.2507180   4.5586503  12.6053682  )
        26           O1  tau(  26) = (   1.9989508   4.4013585  16.0758979  )
        27           Ti1 tau(  27) = (   0.0003529   4.4714252   9.2895810  )
        28           Ti1 tau(  28) = (   3.2908498   4.3294621  12.5515864  )
        29           Ti1 tau(  29) = (   0.0012874   4.5361023  15.7587160  )
        30           O1  tau(  30) = (   4.5938453   4.4726049   9.2879030  )
        31           O1  tau(  31) = (   1.3295807   4.5581274  12.6051842  )
        32           O1  tau(  32) = (   4.5807093   4.4011557  16.0767203  )
        33           Ti1 tau(  33) = (   3.2898983   5.9609850   9.2893338  )
        34           Ti1 tau(  34) = (   0.0011720   5.8030845  12.4395124  )
        35           Ti1 tau(  35) = (   3.2913837   5.8399099  16.1904745  )
        36           O1  tau(  36) = (  -0.0000397   5.9620987  10.5931620  )
        37           O1  tau(  37) = (   3.2897076   5.9457256  13.9643012  )
        38           O1  tau(  38) = (   0.0001823   5.8979554  17.1998916  )
        39           O1  tau(  39) = (  -0.0001480   5.9621018   7.9858123  )
        40           O1  tau(  40) = (   3.2897623   5.9362706  11.2341171  )
        41           O1  tau(  41) = (   0.0004469   5.9800359  14.6665197  )
        42           O1  tau(  42) = (   1.9860782   7.4519181   9.2879459  )
        43           O1  tau(  43) = (   5.2507221   7.5245448  12.5933772  )
        44           O1  tau(  44) = (   1.9799843   7.5745874  16.0532815  )
        45           Ti1 tau(  45) = (  -0.0000347   7.4522234   9.2895810  )
        46           Ti1 tau(  46) = (   3.2894177   7.1911746  12.6495270  )
        47           Ti1 tau(  47) = (   0.0007314   7.2822180  16.1322395  )
        48           O1  tau(  48) = (   4.5934577   7.4534031   9.2879030  )
        49           O1  tau(  49) = (   1.3275845   7.5244469  12.5935105  )
        50           O1  tau(  50) = (   4.5990354   7.5728923  16.0522427  )
        51           Ti1 tau(  51) = (   3.2895107   8.9417832   9.2893338  )
        52           Ti1 tau(  52) = (  -0.0007012   8.7603021  12.4499776  )
        53           Ti1 tau(  53) = (   3.2901857   8.8509785  15.6953962  )
        54           N1  tau(  54) = (   3.2899770   5.9827455  18.1265562  )
        55           H1  tau(  55) = (   3.2886311   5.2071789  18.7771882  )
        56           H1  tau(  56) = (   3.2869209   6.8641504  18.6418389  )
        57           H1  tau(  57) = (   6.5771076   8.8877891  18.2917622  )
        58           N1  tau(  58) = (   6.5788838   3.2021548  17.9140464  )
        59           H1  tau(  59) = (   6.5785461   2.2502248  18.2648563  )
        60           H1  tau(  60) = (   5.7591345   3.6762813  18.2792932  )
        61           H1  tau(  61) = (   0.8178175   3.6764091  18.2810048  )

     number of k points=    10  Fermi-Dirac smearing, width (Ry)=  0.0073
                       cart. coord. in units 2pi/alat
        k(    1) = (   0.0000000   0.0000000   0.0000000), wk =   0.1250000
        k(    2) = (   0.0000000   0.0279567   0.0000000), wk =   0.2500000
        k(    3) = (   0.0000000  -0.0559134   0.0000000), wk =   0.1250000
        k(    4) = (   0.0379955   0.0000049   0.0000000), wk =   0.2500000
        k(    5) = (   0.0379955   0.0279617   0.0000000), wk =   0.2500000
        k(    6) = (   0.0379955  -0.0559085   0.0000000), wk =   0.2500000
        k(    7) = (   0.0379955  -0.0279518   0.0000000), wk =   0.2500000
        k(    8) = (  -0.0759910  -0.0000099   0.0000000), wk =   0.1250000
        k(    9) = (  -0.0759910   0.0279468   0.0000000), wk =   0.2500000
        k(   10) = (  -0.0759910  -0.0559233   0.0000000), wk =   0.1250000

     Initial potential from superposition of free atoms

     starting charge  423.99908, renormalised to  442.00000

     negative rho (up, down):  3.661E-02 0.000E+00

     %%%%%%%%%%%%%%%%%%%%%%%%%%%%%%%%%%%%%%%%%%%%%%%%%%%%%%%%%%%%%%%%%%%%%%%%
     %                                                                      %
     % You are using vdW-DF, which was implemented by the Thonhauser group. %
     % Please cite the following two papers that made this development      %
     % possible and the two reviews that describe the various versions:     %
     %                                                                      %
     %   T. Thonhauser et al., PRL 115, 136402 (2015).                      %
     %   T. Thonhauser et al., PRB 76, 125112 (2007).                       %
     %   K. Berland et al., Rep. Prog. Phys. 78, 066501 (2015).             %
     %   D.C. Langreth et al., J. Phys.: Condens. Matter 21, 084203 (2009). %
     %                                                                      %
     %                                                                      %
     % If you are calculating the stress with vdW-DF, please also cite:     %
     %                                                                      %
     %   R. Sabatini et al., J. Phys.: Condens. Matter 24, 424209 (2012).   %
     %                                                                      %
     %%%%%%%%%%%%%%%%%%%%%%%%%%%%%%%%%%%%%%%%%%%%%%%%%%%%%%%%%%%%%%%%%%%%%%%%

     Adding external electric field

     Computed dipole along edir(3) :
        Dipole               -6.2843 Ry au,        -15.9732 Debye
        Dipole field         -0.0079 Ry au,

        Potential amp.        0.7329 Ry
        Total length         46.3494 bohr

     Starting wfcs are  334 atomic wfcs
  @ DRIVER MODE: Message from server: STATUS
  @ DRIVER MODE: Message from server: POSDATA
  @ DRIVER MODE: Reading and sharing cell
  @ DRIVER MODE: Reading and sharing positions
  @ DRIVER MODE: Received positions

     Self-consistent Calculation

     iteration #  1     ecut=    29.40 Ry     beta= 0.05
     Davidson diagonalization with overlap
     c_bands:  2 eigenvalues not converged
     c_bands:  4 eigenvalues not converged
     c_bands:  3 eigenvalues not converged
     c_bands:  3 eigenvalues not converged
     c_bands:  4 eigenvalues not converged
     c_bands:  4 eigenvalues not converged
     c_bands:  2 eigenvalues not converged
     c_bands:  2 eigenvalues not converged
     ethr =  1.00E-05,  avg # of iterations = 21.4

[...]

     total energy              =   -3275.72217516 Ry
     estimated scf accuracy    <     264.28707550 Ry

     iteration #  2     ecut=    29.40 Ry     beta= 0.05
     Davidson diagonalization with overlap
     ethr =  1.00E-02,  avg # of iterations = 15.7

[...]

     iteration # 61     ecut=    29.40 Ry     beta= 0.05
     Davidson diagonalization with overlap
     ethr =  7.53E-11,  avg # of iterations = 14.3

[...]

     total energy              =   -3295.82439318 Ry
     estimated scf accuracy    <       0.00000011 Ry

     iteration # 62     ecut=    29.40 Ry     beta= 0.05
     Davidson diagonalization with overlap
     c_bands:  2 eigenvalues not converged
     ethr =  2.53E-11,  avg # of iterations =  9.2

     negative rho (up, down):  3.544E-02 0.000E+00

     Adding external electric field

     Computed dipole along edir(3) :
        Dipole                1.9326 Ry au,          4.9121 Debye
        Dipole field          0.0024 Ry au,

        Potential amp.       -0.2254 Ry
        Total length         46.3494 bohr

     End of self-consistent calculation

          k = 0.0000 0.0000 0.0000 ( 26871 PWs)   bands (ev):

   -57.4687 -57.4334 -57.4208 -57.3810 -57.3719 -57.3640 -57.3531 -57.3421
   -57.3214 -57.2831 -57.2764 -57.2398 -57.2183 -57.2018 -57.1819 -56.5423
   -56.5180 -56.5119 -33.9393 -33.8527 -33.8520 -33.8297 -33.8096 -33.7922
   -33.7744 -33.7705 -33.7668 -33.7536 -33.7281 -33.7072 -33.7021 -33.6874
   -33.6856 -33.6810 -33.6603 -33.6514 -33.6301 -33.6246 -33.5930 -33.5784
   -33.5609 -33.5565 -33.5490 -33.5481 -33.5445 -33.5369 -33.5248 -33.5215
   -33.5150 -33.5008 -33.4922 -33.4910 -33.4843 -33.4829 -33.4743 -33.4721
   -33.4642 -33.4534 -33.4416 -33.4247 -33.4088 -33.4023 -33.3877 -32.8609
   -32.8527 -32.8518 -32.8351 -32.8297 -32.7702 -32.7090 -32.7017 -32.5701
   -19.3434 -18.2727 -17.9734 -17.7758 -17.7259 -17.6924 -17.5768 -17.5483
   -17.4957 -17.4421 -17.4055 -17.3623 -17.2877 -17.2473 -17.2457 -17.2216
   -17.1674 -17.1436 -17.1356 -17.1254 -17.1235 -17.0988 -17.0494 -17.0457
   -16.9890 -16.9476 -16.9159 -16.9056 -16.8970 -16.8647 -16.8565 -16.8037
   -16.6052 -15.0081 -14.9890 -14.9492 -14.9457  -7.8649  -7.6273  -7.3902
    -6.4473  -5.5813  -5.4296  -5.3984  -5.2346  -4.9633  -4.9114  -4.8683
    -4.8219  -4.7844  -4.7459  -4.7228  -4.6938  -4.6625  -4.6107  -4.5800
    -4.5635  -4.5300  -4.5101  -4.4791  -4.4489  -4.4440  -4.4143  -4.3253
    -4.3163  -4.2925  -4.2749  -4.2388  -4.2211  -4.2184  -4.1691  -4.1579
    -4.0690  -3.9783  -3.8958  -3.8440  -3.8171  -3.7943  -3.7470  -3.7095
    -3.6791  -3.6359  -3.6150  -3.5469  -3.5183  -3.5088  -3.4328  -3.3976
    -3.3027  -3.2642  -3.2529  -3.2320  -3.1897  -3.1779  -3.0941  -3.0828
    -2.9728  -2.9546  -2.8641  -2.7912  -2.7416  -2.7138  -2.6758  -2.6142
    -2.5945  -2.5485  -2.5211  -2.4606  -2.4467  -2.3208  -2.2531  -2.2495
    -2.2292  -2.1910  -2.1616  -2.1473  -2.1251  -2.1222  -2.0438  -2.0349
    -1.9851  -1.9099  -1.8841  -1.8475  -1.8347  -1.7994  -1.7572  -1.6924
    -1.6869  -1.6514  -1.5636  -1.5026  -1.5016  -1.3554  -1.3493  -1.3159
    -1.2676  -1.2138  -1.1833  -0.7809  -0.6051  -0.4344  -0.3095  -0.2488
    -0.2475   0.0273   0.0323   0.1647   1.6137   1.7647   1.8253   1.9590
     1.9775   2.0367   2.1183   2.1404   2.2070   2.2348   2.2438

[...]

          k = 0.0380-0.0280 0.0000 ( 26873 PWs)   bands (ev):

[...]

          k =-0.0760-0.0000 0.0000 ( 26902 PWs)   bands (ev):

[...]

          k =-0.0760-0.0559 0.0000 ( 26868 PWs)   bands (ev):

   -57.4670 -57.4381 -57.4177 -57.3785 -57.3678 -57.3659 -57.3615 -57.3386
   -57.3210 -57.2828 -57.2768 -57.2361 -57.2250 -57.1988 -57.1819 -56.5370
   -56.5289 -56.5062 -33.9841 -33.9354 -33.8634 -33.8190 -33.8032 -33.7908
   -33.7842 -33.7763 -33.7659 -33.7444 -33.7154 -33.6969 -33.6596 -33.6575
   -33.6379 -33.6243 -33.6097 -33.5959 -33.5949 -33.5904 -33.5860 -33.5762
   -33.5725 -33.5656 -33.5636 -33.5508 -33.5428 -33.5282 -33.5222 -33.5204
   -33.5158 -33.5154 -33.5115 -33.5085 -33.5063 -33.4945 -33.4885 -33.4847
   -33.4818 -33.4744 -33.4472 -33.4412 -33.4355 -33.4235 -33.3995 -32.9483
   -32.8536 -32.8455 -32.8238 -32.7530 -32.7444 -32.6839 -32.6708 -32.6631
   -19.3368 -17.9700 -17.8313 -17.8256 -17.6483 -17.6032 -17.6003 -17.5305
   -17.4848 -17.4390 -17.4348 -17.4034 -17.3547 -17.3303 -17.3010 -17.2751
   -17.2595 -17.2243 -17.1830 -17.1820 -17.1483 -17.1151 -17.0885 -17.0463
   -17.0398 -16.9855 -16.9215 -16.8841 -16.8595 -16.8572 -16.8205 -16.7954
   -16.6384 -15.0060 -15.0017 -14.9896 -14.8858  -7.8729  -7.6451  -7.3793
    -6.4388  -5.2157  -5.1781  -5.1323  -5.0393  -5.0018  -4.9700  -4.8341
    -4.7738  -4.7320  -4.6868  -4.6444  -4.6366  -4.6224  -4.5666  -4.5493
    -4.5337  -4.4874  -4.4468  -4.4266  -4.4038  -4.4023  -4.3987  -4.3955
    -4.2629  -4.2515  -4.1991  -4.1785  -4.1564  -4.1335  -4.1306  -4.0768
    -4.0348  -3.9879  -3.9815  -3.9559  -3.8917  -3.8366  -3.7560  -3.6576
    -3.6472  -3.5904  -3.5794  -3.4874  -3.4822  -3.3891  -3.3250  -3.2812
    -3.2516  -3.2275  -3.1510  -3.1459  -3.1369  -3.0865  -3.0526  -3.0243
    -2.9759  -2.9656  -2.9209  -2.8181  -2.7824  -2.7244  -2.6971  -2.6937
    -2.6365  -2.6326  -2.5955  -2.5938  -2.5872  -2.5421  -2.4875  -2.4535
    -2.4362  -2.4050  -2.3161  -2.2918  -2.2391  -2.2313  -2.1657  -2.1494
    -2.1369  -2.0732  -2.0216  -1.9903  -1.9822  -1.9085  -1.8050  -1.7467
    -1.7248  -1.7034  -1.5976  -1.5488  -1.4933  -1.4504  -1.2682  -1.2560
    -1.1835  -1.1438  -1.0910  -1.0422  -0.8553  -0.4567  -0.4038  -0.1872
    -0.1719  -0.1344   0.0320   0.0377   1.7062   1.7178   1.8154   1.8567
     1.9186   1.9293   1.9736   1.9908   2.0007   2.0465   2.0525

     the Fermi energy is     1.6452 ev

!    total energy              =   -3295.82442405 Ry
     estimated scf accuracy    <       0.00000007 Ry
     smearing contrib. (-TS)   =      -0.03670587 Ry
     internal energy E=F+TS    =   -3295.78771819 Ry

     The total energy is F=E-TS. E is the sum of the following terms:
     one-electron contribution =  -34289.81516704 Ry
     hartree contribution      =   17213.89602913 Ry
     xc contribution           =    -543.76599022 Ry
     ewald contribution        =   14323.89271129 Ry
     electric field correction =       0.00469866 Ry

     convergence has been achieved in  62 iterations

     Forces acting on atoms (cartesian axes, Ry/au):

     atom    1 type  1   force =     0.00001432    0.00239792    0.05210969
     atom    2 type  1   force =    -0.00004454   -0.00061503   -0.00558565
     atom    3 type  1   force =     0.00003157   -0.00286545   -0.00286594
     atom    4 type  1   force =     0.00005401   -0.00036692    0.10762563
     atom    5 type  1   force =    -0.00002241    0.00170319    0.00528455
     atom    6 type  1   force =     0.00000830   -0.00049179    0.00057370
     atom    7 type  1   force =     0.06435867    0.00076458   -0.03002204
     atom    8 type  1   force =     0.00531970   -0.02658154    0.00245374
     atom    9 type  1   force =     0.00842142   -0.01289873   -0.00074836
     atom   10 type  2   force =    -0.00006575   -0.00536880   -0.18729943
     atom   11 type  2   force =     0.00012683    0.02016064   -0.00481022
     atom   12 type  2   force =    -0.00010683    0.01848806   -0.00059360
     atom   13 type  1   force =    -0.06446424    0.00029013   -0.02998136
     atom   14 type  1   force =    -0.00513684   -0.02678955    0.00248242
     atom   15 type  1   force =    -0.00836803   -0.01280429   -0.00073306
     atom   16 type  2   force =     0.00009666   -0.00104781    0.07213187
     atom   17 type  2   force =    -0.00026751    0.03302684    0.00617459
     atom   18 type  2   force =     0.00002608    0.00458130   -0.00760216
     atom   19 type  1   force =     0.00001529    0.00395508    0.05308956
     atom   20 type  1   force =    -0.00003964   -0.00055108   -0.00170645
     atom   21 type  1   force =     0.00005386    0.00130231    0.10847194
     atom   22 type  1   force =    -0.00002558   -0.00119146    0.00630057
     atom   23 type  1   force =     0.00002968   -0.00518713    0.00193273
     atom   24 type  1   force =     0.06587158    0.00139529   -0.02848242
     atom   25 type  1   force =     0.00546896   -0.02924612    0.00263794
     atom   26 type  1   force =     0.00973365   -0.00196078   -0.00019503
     atom   27 type  2   force =    -0.00007029   -0.00075974   -0.19125577
     atom   28 type  2   force =     0.00014811    0.02480223   -0.00470463
     atom   29 type  2   force =    -0.00009486   -0.00422255    0.00934290
     atom   30 type  1   force =    -0.06597736    0.00095738   -0.02845526
     atom   31 type  1   force =    -0.00531972   -0.02936703    0.00267722
     atom   32 type  1   force =    -0.00964696   -0.00196366   -0.00019211
     atom   33 type  2   force =     0.00013544    0.00070340    0.08051091
     atom   34 type  2   force =    -0.00029178    0.03537737    0.00620919
     atom   35 type  2   force =     0.00005030    0.01551569    0.00201167
     atom   36 type  1   force =     0.00006598    0.00027490    0.05320897
     atom   37 type  1   force =    -0.00003323    0.00176209   -0.00892513
     atom   38 type  1   force =     0.00001050    0.00137197   -0.00016176
     atom   39 type  1   force =     0.00005570   -0.00116877    0.10819517
     atom   40 type  1   force =    -0.00003390   -0.00138836    0.00603338
     atom   41 type  1   force =     0.00001845    0.00391033    0.00143188
     atom   42 type  1   force =     0.06613596   -0.00348757   -0.02908029
     atom   43 type  1   force =     0.00365795   -0.02410589    0.00086172
     atom   44 type  1   force =     0.01421985   -0.01859253    0.00310390
     atom   45 type  2   force =    -0.00009424    0.00311488   -0.18718132
     atom   46 type  2   force =     0.00013715    0.01624758    0.00222959
     atom   47 type  2   force =    -0.00007539    0.01856110   -0.00292372
     atom   48 type  1   force =    -0.06623537   -0.00392324   -0.02903656
     atom   49 type  1   force =    -0.00340850   -0.02429833    0.00087630
     atom   50 type  1   force =    -0.01421334   -0.01853749    0.00310860
     atom   51 type  2   force =     0.00012895   -0.00294467    0.07343914
     atom   52 type  2   force =    -0.00027575    0.03103693    0.00785966
     atom   53 type  2   force =     0.00000759    0.02028325    0.00042652
     atom   54 type  3   force =    -0.00003125    0.01116601    0.00260247
     atom   55 type  4   force =    -0.00000168    0.00045749    0.00142210
     atom   56 type  4   force =     0.00000281   -0.01250892   -0.00645617
     atom   57 type  4   force =    -0.00005583   -0.00019773   -0.00003557
     atom   58 type  3   force =    -0.00026370    0.00027545    0.00006813
     atom   59 type  4   force =     0.00000814    0.00024814    0.00047145
     atom   60 type  4   force =     0.00010729    0.00058525    0.00076884
     atom   61 type  4   force =     0.00014375    0.00071621    0.00090534

     Total force =     0.459746     Total SCF correction =     0.000585
  @ DRIVER MODE: Message from server: STATUS
  @ DRIVER MODE: Message from server: GETFORCE
  @ DRIVER MODE: Returning v,forces,stress,ensemble

     Writing output data file ./calc.save/
  @ DRIVER MODE: Message from server: EXIT
  @ DRIVE MODE: Exiting

     General routines

     Parallel routines

   This run was terminated on:  19:35:44  18Oct2021

   JOB DONE.