     Program PWSCF v.6.7GPU starts on 22Sep2021 at 17: 0:37

     R & G space division:  proc/nbgrp/npool/nimage =      10
     Reading input from /storage/home/hcoda1/3/ntian30/research/carbon/CxH_vib/H2O_calc/ads_slab/CH3NHO_a/out_0002/pw.inp
Warning: card &CELL ignored
Warning: card   CELL_DYNAMICS='IPI', ignored
Warning: card / ignored

     Current dimensions of program PWSCF are:
     Max number of different atomic species (ntypx) = 10
     Max number of k-points (npk) =  40000
     Max angular momentum in pseudopotentials (lmaxx) =  3
     Presently no symmetry can be used with electric field

     Message from routine cell_base_init:
     DEPRECATED: use true lattice parameter, not A to a.u. conversion factor

     IMPORTANT: XC functional enforced from input :
     Exchange-correlation= BEEF-VDW
                           (   1   4  43  14   2   0   0)
     Any further DFT definition will be discarded
     Please, verify this is what you really want

  @ DRIVER MODE: Connecting to
 qe_1139763_2937319.sched-torque.pace.gatech.eduu_whj3a0_scratch
  using UNIX socket
  @ DRIVER MODE: Message from server: STATUS
  @ DRIVER MODE: Message from server: INIT
  @ DRIVER MODE: Receiving replica           0          -1
  @ DRIVER MODE: Receiving encoded integer          25
  @ DRIVER MODE:  SCF:  T  FORCE:  T  STRESS:  F  VC:  F  ENSEMBLE:  F
  @ DRIVER MODE:  SCF:  T  FORCE:  T  STRESS:  F  VC:  F  ENSEMBLE:  F

     Using Slab Decomposition

     bravais-lattice index     =            0
     lattice parameter (alat)  =       1.8897  a.u.
     unit-cell volume          =    6658.9804 (a.u.)^3
     number of atoms/cell      =           54
     number of atomic types    =            5
     number of electrons       =       397.00
     number of Kohn-Sham states=          208
     kinetic-energy cutoff     =      29.3995  Ry
     charge density cutoff     =     293.9946  Ry
     scf convergence threshold =      7.3E-08
     mixing beta               =       0.0500
     number of iterations used =            8  plain     mixing
     Exchange-correlation= BEEF-VDW
                           (   1   4  43  14   2   0   0)

     celldm(1)=   1.889726  celldm(2)=   0.000000  celldm(3)=   0.000000
     celldm(4)=   0.000000  celldm(5)=   0.000000  celldm(6)=   0.000000

     crystal axes: (cart. coord. in units of alat)
               a(1) = (   6.579727   0.000000   0.000000 )
               a(2) = (  -0.000775   5.961596   0.000000 )
               a(3) = (   0.000000   0.000000  25.155947 )

     reciprocal axes: (cart. coord. in units 2 pi/alat)
               b(1) = (  0.151982  0.000020  0.000000 )
               b(2) = (  0.000000  0.167740  0.000000 )
               b(3) = (  0.000000  0.000000  0.039752 )

     PseudoPot. # 1 for Ti read from file:
     /storage/coda1/p-amedford6/0/shared/rich_project_chbe-medford/medford-share/data/pseudos_module/espresso/nninc/pbe/van/Ti.UPF
     MD5 check sum: 8e4df49b7f0d34bbd5052bf3f5ea0213
     Pseudo is Ultrasoft, Zval = 12.0
     Generated by new atomic code, or converted to UPF format
     Using radial grid of  851 points,  6 beta functions with:
                l(1) =   0
                l(2) =   0
                l(3) =   1
                l(4) =   1
                l(5) =   2
                l(6) =   2
     Q(r) pseudized with  8 coefficients,  rinner =    1.000   1.000   1.000
                                                       1.000   1.000

     PseudoPot. # 2 for O  read from file:
     /storage/coda1/p-amedford6/0/shared/rich_project_chbe-medford/medford-share/data/pseudos_module/espresso/nninc/pbe/van/O.UPF
     MD5 check sum: 78c19812648e8988a0fe644b0f25305e
     Pseudo is Ultrasoft, Zval =  6.0
     Generated by new atomic code, or converted to UPF format
     Using radial grid of  737 points,  4 beta functions with:
                l(1) =   0
                l(2) =   0
                l(3) =   1
                l(4) =   1
     Q(r) pseudized with  8 coefficients,  rinner =    0.800   0.800   0.800

     PseudoPot. # 3 for N  read from file:
     /storage/coda1/p-amedford6/0/shared/rich_project_chbe-medford/medford-share/data/pseudos_module/espresso/nninc/pbe/van/N.UPF
     MD5 check sum: 90d10febe142ad51ac9d5be1deb811c4
     Pseudo is Ultrasoft, Zval =  5.0
     Generated by new atomic code, or converted to UPF format
     Using radial grid of  729 points,  4 beta functions with:
                l(1) =   0
                l(2) =   0
                l(3) =   1
                l(4) =   1
     Q(r) pseudized with  8 coefficients,  rinner =    0.800   0.800   0.800

     PseudoPot. # 4 for C  read from file:
     /storage/coda1/p-amedford6/0/shared/rich_project_chbe-medford/medford-share/data/pseudos_module/espresso/nninc/pbe/van/C.UPF
     MD5 check sum: 1a69bf6b8db32088f5b2163dbdb77a27
     Pseudo is Ultrasoft, Zval =  4.0
     Generated by new atomic code, or converted to UPF format
     Using radial grid of  721 points,  4 beta functions with:
                l(1) =   0
                l(2) =   0
                l(3) =   1
                l(4) =   1
     Q(r) pseudized with  8 coefficients,  rinner =    0.800   0.800   0.800

     PseudoPot. # 5 for H  read from file:
     /storage/coda1/p-amedford6/0/shared/rich_project_chbe-medford/medford-share/data/pseudos_module/espresso/nninc/pbe/van/H.UPF
     MD5 check sum: b5ee9d7bfd3a09ee7748110bda690ff7
     Pseudo is Ultrasoft, Zval =  1.0
     Generated by new atomic code, or converted to UPF format
     Using radial grid of  615 points,  1 beta functions with:
                l(1) =   0
     Q(r) pseudized with  8 coefficients,  rinner =    0.800

     atomic species   valence    mass     pseudopotential
        Ti1           12.00    47.86700     Ti( 1.00)
        O1             6.00    15.99900     O ( 1.00)
        N1             5.00    14.00700     N ( 1.00)
        C1             4.00    12.01100     C ( 1.00)
        H1             1.00     1.00800     H ( 1.00)

     No symmetry found

   Cartesian axes

     site n.     atom                  positions (alat units)
         1           Ti1 tau(   1) = (   0.0004258   2.9801865   6.0000000  )
         2           Ti1 tau(   2) = (   3.2906075   1.4906267   6.0002472  )
         3           O1  tau(   3) = (   0.0006271   0.0005054   7.9858123  )
         4           O1  tau(   4) = (   3.2906025   0.0005020   7.3038282  )
         5           O1  tau(   5) = (   4.5942328   1.4918067   9.2879030  )
         6           O1  tau(   6) = (   1.9868534   1.4903216   9.2879459  )
         7           Ti1 tau(   7) = (   3.2907910   2.8959150   9.1758416  )
         8           Ti1 tau(   8) = (   0.0015273   1.4827037   9.2680791  )
         9           O1  tau(   9) = (   3.2880966   5.9442215  11.2779904  )
        10           O1  tau(  10) = (   0.0116148   5.9584955  10.6183126  )
        11           O1  tau(  11) = (   1.2901275   1.4920942  12.6240107  )
        12           O1  tau(  12) = (   5.2966278   1.4852543  12.6143030  )
        13           Ti1 tau(  13) = (   0.0031916   3.1007002  12.7073671  )
        14           Ti1 tau(  14) = (   3.2978183   1.3116672  12.6600973  )
        15           O1  tau(  15) = (   6.5743189   0.0224225  14.6379036  )
        16           O1  tau(  16) = (   3.2931419   0.0435670  13.8892854  )
        17           O1  tau(  17) = (   4.5409235   1.5821231  16.0748620  )
        18           O1  tau(  18) = (   2.0417342   1.5698890  16.0900686  )
        19           Ti1 tau(  19) = (   3.2746960   3.0378214  15.6558348  )
        20           Ti1 tau(  20) = (   6.4705883   1.5381531  15.9030332  )
        21           O1  tau(  21) = (   3.2904802   0.0005063   4.7018136  )
        22           O1  tau(  22) = (   6.5584422   0.0457650  17.1906971  )
        23           O1  tau(  23) = (   1.3043587   1.4918075   6.0039043  )
        24           O1  tau(  24) = (   5.2767064   1.4903225   6.0039473  )
        25           Ti1 tau(  25) = (   0.0000382   5.9609847   6.0000000  )
        26           Ti1 tau(  26) = (   3.2902200   4.4714249   6.0002472  )
        27           O1  tau(  27) = (   0.0002396   2.9813036   7.9858123  )
        28           O1  tau(  28) = (   3.2902150   2.9813002   7.3038282  )
        29           O1  tau(  29) = (   4.5938453   4.4726049   9.2879030  )
        30           O1  tau(  30) = (   1.9864658   4.4711199   9.2879459  )
        31           Ti1 tau(  31) = (   3.2891106   5.8743827   9.1763621  )
        32           Ti1 tau(  32) = (   0.0006254   4.4649316   9.2693709  )
        33           O1  tau(  33) = (   3.2918970   3.0256722  11.2465752  )
        34           O1  tau(  34) = (   0.0092240   2.9805883  10.6323155  )
        35           O1  tau(  35) = (   1.2932338   4.4650182  12.6342030  )
        36           O1  tau(  36) = (   5.2897350   4.4662865  12.6224893  )
        37           Ti1 tau(  37) = (   0.0112454   0.1207271  12.6557084  )
        38           Ti1 tau(  38) = (   3.2993242   4.4067673  12.4119285  )
        39           O1  tau(  39) = (   6.5542949   2.9732608  14.6543823  )
        40           O1  tau(  40) = (   3.2957262   2.9928748  13.8751945  )
        41           O1  tau(  41) = (   4.5169628   4.4726675  16.1294972  )
        42           O1  tau(  42) = (   2.0179035   4.4711894  16.0655614  )
        43           Ti1 tau(  43) = (   3.1791666   0.0518155  16.3463265  )
        44           Ti1 tau(  44) = (   6.5235282   4.6410908  16.0777984  )
        45           O1  tau(  45) = (   3.2900926   2.9813045   4.7018136  )
        46           O1  tau(  46) = (   1.3039711   4.4726057   6.0039043  )
        47           O1  tau(  47) = (   5.2763189   4.4711207   6.0039473  )
        48           N1  tau(  48) = (   0.0779940   2.9882472  17.3287890  )
        49           C1  tau(  49) = (   0.3445104   2.8919884  18.7043053  )
        50           H1  tau(  50) = (   0.5935414   3.8503421  19.1719745  )
        51           H1  tau(  51) = (   6.0379261   2.4644003  19.2136804  )
        52           H1  tau(  52) = (   1.1315070   2.1426081  18.8955932  )
        53           O1  tau(  53) = (   3.2362511   0.0690349  18.1809703  )
        54           H1  tau(  54) = (   3.8186072   5.4079590  18.6400750  )

     number of k points=    10  Fermi-Dirac smearing, width (Ry)=  0.0073
                       cart. coord. in units 2pi/alat
        k(    1) = (   0.0000000   0.0000000   0.0000000), wk =   0.1250000
        k(    2) = (   0.0000000   0.0419351   0.0000000), wk =   0.2500000
        k(    3) = (   0.0000000  -0.0838702   0.0000000), wk =   0.1250000
        k(    4) = (   0.0379955   0.0000049   0.0000000), wk =   0.2500000
        k(    5) = (   0.0379955   0.0419400   0.0000000), wk =   0.2500000
        k(    6) = (   0.0379955  -0.0838652   0.0000000), wk =   0.2500000
        k(    7) = (   0.0379955  -0.0419301   0.0000000), wk =   0.2500000
        k(    8) = (  -0.0759910  -0.0000099   0.0000000), wk =   0.1250000
        k(    9) = (  -0.0759910   0.0419252   0.0000000), wk =   0.2500000
        k(   10) = (  -0.0759910  -0.0838800   0.0000000), wk =   0.1250000

     Initial potential from superposition of free atoms

     starting charge  380.99916, renormalised to  397.00000

     negative rho (up, down):  1.676E-02 0.000E+00

     %%%%%%%%%%%%%%%%%%%%%%%%%%%%%%%%%%%%%%%%%%%%%%%%%%%%%%%%%%%%%%%%%%%%%%%%
     %                                                                      %
     % You are using vdW-DF, which was implemented by the Thonhauser group. %
     % Please cite the following two papers that made this development      %
     % possible and the two reviews that describe the various versions:     %
     %                                                                      %
     %   T. Thonhauser et al., PRL 115, 136402 (2015).                      %
     %   T. Thonhauser et al., PRB 76, 125112 (2007).                       %
     %   K. Berland et al., Rep. Prog. Phys. 78, 066501 (2015).             %
     %   D.C. Langreth et al., J. Phys.: Condens. Matter 21, 084203 (2009). %
     %                                                                      %
     %                                                                      %
     % If you are calculating the stress with vdW-DF, please also cite:     %
     %                                                                      %
     %   R. Sabatini et al., J. Phys.: Condens. Matter 24, 424209 (2012).   %
     %                                                                      %
     %%%%%%%%%%%%%%%%%%%%%%%%%%%%%%%%%%%%%%%%%%%%%%%%%%%%%%%%%%%%%%%%%%%%%%%%

     Adding external electric field

     Computed dipole along edir(3) :
        Dipole               -8.2921 Ry au,        -21.0764 Debye
        Dipole field         -0.0156 Ry au,

        Potential amp.        1.4506 Ry
        Total length         46.3494 bohr

     Starting wfcs are  300 atomic wfcs
  @ DRIVER MODE: Message from server: STATUS
  @ DRIVER MODE: Message from server: POSDATA
  @ DRIVER MODE: Reading and sharing cell
  @ DRIVER MODE: Reading and sharing positions
  @ DRIVER MODE: Received positions

     Self-consistent Calculation

     iteration #  1     ecut=    29.40 Ry     beta= 0.05
     Davidson diagonalization with overlap
     c_bands:  1 eigenvalues not converged
     c_bands:  1 eigenvalues not converged
     c_bands:  1 eigenvalues not converged
     c_bands:  3 eigenvalues not converged
     c_bands:  2 eigenvalues not converged
     c_bands:  1 eigenvalues not converged
     c_bands:  1 eigenvalues not converged
     ethr =  1.00E-05,  avg # of iterations = 19.2

[...]

     total energy              =   -2606.43384516 Ry
     estimated scf accuracy    <    3820.94880868 Ry

     iteration #  2     ecut=    29.40 Ry     beta= 0.05
     Davidson diagonalization with overlap
     ethr =  1.00E-02,  avg # of iterations = 24.0

[...]

     iteration # 63     ecut=    29.40 Ry     beta= 0.05
     Davidson diagonalization with overlap
     c_bands:  1 eigenvalues not converged
     ethr =  1.68E-06,  avg # of iterations =  7.8

[...]

     total energy              =   -2952.64746496 Ry
     estimated scf accuracy    <       0.00000015 Ry

     iteration # 99     ecut=    29.40 Ry     beta= 0.05
     Davidson diagonalization with overlap
     ethr =  3.68E-11,  avg # of iterations =  2.8

     negative rho (up, down):  1.695E-02 0.000E+00

     Adding external electric field

     Computed dipole along edir(3) :
        Dipole                0.3617 Ry au,          0.9194 Debye
        Dipole field          0.0007 Ry au,

        Potential amp.       -0.0633 Ry
        Total length         46.3494 bohr

     End of self-consistent calculation

          k = 0.0000 0.0000 0.0000 ( 18029 PWs)   bands (ev):

   -56.8744 -56.8408 -55.9451 -55.9096 -55.7346 -55.6699 -55.5490 -55.4262
   -55.3924 -55.3138 -55.3111 -55.2405 -55.2187 -55.1166 -55.0465 -54.9210
   -33.2931 -33.1447 -33.1167 -33.0541 -32.9639 -32.9202 -32.4263 -32.2099
   -32.1654 -32.1451 -32.0896 -32.0812 -32.0557 -31.9684 -31.9470 -31.9047
   -31.8906 -31.8725 -31.8321 -31.8041 -31.7951 -31.7934 -31.7803 -31.7733
   -31.7488 -31.7301 -31.6653 -31.6304 -31.5922 -31.5821 -31.5500 -31.5288
   -31.5162 -31.5081 -31.4745 -31.4656 -31.4386 -31.4303 -31.4082 -31.3938
   -31.3571 -31.3053 -31.2996 -31.2821 -31.2502 -31.1929 -31.1575 -31.1040
   -16.9774 -16.4637 -16.4157 -16.1908 -16.0683 -16.0631 -16.0173 -15.9565
   -15.7819 -15.7294 -15.6886 -15.6249 -15.4747 -15.3634 -15.2665 -15.0723
   -15.0368 -15.0046 -15.0033 -14.9884 -14.9583 -14.9461 -14.8708 -14.8192
   -14.7889 -14.7068 -14.7007 -14.5388 -14.3112 -14.2867 -13.9235 -13.8165
   -13.8128  -8.0306  -4.5532  -4.0911  -3.8843  -3.7092  -3.5595  -3.5001
    -3.4630  -3.3933  -3.3807  -3.2508  -3.2347  -3.2296  -3.2217  -3.1372
    -3.0745  -3.0142  -2.9254  -2.9099  -2.8196  -2.7691  -2.6099  -2.5759
    -2.4880  -2.4096  -2.4040  -2.3371  -2.3186  -2.2767  -2.2425  -2.2112
    -2.1811  -2.1374  -2.0833  -2.0723  -1.9793  -1.9726  -1.8891  -1.8744
    -1.8697  -1.7465  -1.7080  -1.6483  -1.5086  -1.4866  -1.4700  -1.4377
    -1.4004  -1.3394  -1.2360  -1.1773  -1.1482  -1.0939  -1.0250  -0.9685
    -0.9480  -0.8745  -0.8478  -0.7736  -0.7301  -0.7133  -0.6941  -0.6696
    -0.5308  -0.4485  -0.4143  -0.3614  -0.3462  -0.3073  -0.2825  -0.2285
    -0.1696  -0.1481  -0.0500  -0.0467   0.0886   0.1581   0.1603   0.2586
     0.3033   0.3091   0.3658   0.4351   0.4464   0.5104   0.5306   0.5886
     0.5952   0.6368   0.7209   0.7973   0.8408   0.8712   0.9108   0.9311
     1.0429   1.0686   1.1325   1.1887   1.5011   1.5707   2.1813   2.4200
     2.5919   2.8694   3.0644   3.3640   3.4061   3.4242   3.4243   3.7339

[...]

          k = 0.0380-0.0419 0.0000 ( 17876 PWs)   bands (ev):

[...]

          k =-0.0760-0.0000 0.0000 ( 17886 PWs)   bands (ev):

[...]

          k =-0.0760-0.0839 0.0000 ( 17948 PWs)   bands (ev):

   -56.8582 -56.8568 -55.9332 -55.9214 -55.7298 -55.6746 -55.5482 -55.4098
   -55.4087 -55.3144 -55.3066 -55.2447 -55.2172 -55.1151 -55.0480 -54.9224
   -33.1312 -33.1297 -33.1111 -33.1097 -33.0082 -33.0070 -32.2514 -32.2412
   -32.1277 -32.1236 -32.1156 -32.1146 -32.0281 -31.9875 -31.9616 -31.9479
   -31.9003 -31.8986 -31.8341 -31.7916 -31.7715 -31.7622 -31.7615 -31.6865
   -31.6362 -31.6300 -31.6286 -31.6051 -31.5940 -31.5900 -31.5893 -31.5839
   -31.5353 -31.5280 -31.5112 -31.4861 -31.4801 -31.4645 -31.4350 -31.4101
   -31.3932 -31.3600 -31.3073 -31.2939 -31.2614 -31.2560 -31.1599 -31.1418
   -16.4530 -16.3352 -16.3334 -16.2908 -16.2893 -16.0258 -16.0214 -15.7734
   -15.7444 -15.5697 -15.4569 -15.4348 -15.3931 -15.3525 -15.2764 -15.2251
   -15.2124 -15.1839 -15.1573 -15.0854 -15.0518 -14.9499 -14.9143 -14.8525
   -14.8187 -14.7444 -14.7041 -14.6754 -14.4825 -14.4196 -13.9211 -13.9205
   -13.8362  -8.0294  -4.0948  -3.4824  -3.4122  -3.4079  -3.3727  -3.3656
    -3.2950  -3.1610  -3.1578  -3.0490  -2.9574  -2.9303  -2.9007  -2.8467
    -2.8334  -2.7369  -2.6868  -2.6819  -2.6672  -2.6327  -2.6013  -2.5942
    -2.5369  -2.4112  -2.3668  -2.3293  -2.2895  -2.2219  -2.1901  -2.1818
    -2.1494  -2.1098  -2.0919  -2.0626  -2.0496  -2.0433  -2.0331  -1.9437
    -1.7986  -1.7725  -1.6786  -1.6750  -1.6657  -1.6256  -1.5959  -1.5820
    -1.5612  -1.5280  -1.4508  -1.4252  -1.3616  -1.2275  -1.2129  -1.1784
    -1.1245  -1.0223  -1.0071  -0.9113  -0.8934  -0.8829  -0.8199  -0.7967
    -0.7803  -0.7188  -0.6806  -0.5607  -0.4889  -0.4810  -0.4621  -0.4533
    -0.4034  -0.3552  -0.2829  -0.2785  -0.2618  -0.1539  -0.0580   0.0352
     0.0417   0.1109   0.1262   0.1808   0.3380   0.3491   0.3911   0.4521
     0.5679   0.6595   0.7141   0.8136   0.8457   0.9526   0.9721   0.9771
     0.9961   1.0051   1.0481   1.1036   1.1673   1.4834   1.9809   3.0127
     3.0159   3.0743   3.0798   3.3910   3.3932   3.5053   3.5102   3.8416

     the Fermi energy is     2.0787 ev

!    total energy              =   -2952.64746708 Ry
     estimated scf accuracy    <       0.00000005 Ry
     smearing contrib. (-TS)   =      -0.01069276 Ry
     internal energy E=F+TS    =   -2952.63677432 Ry

     The total energy is F=E-TS. E is the sum of the following terms:
     one-electron contribution =  -24061.23655749 Ry
     hartree contribution      =   12121.07799725 Ry
     xc contribution           =    -487.77828965 Ry
     ewald contribution        =    9475.29982866 Ry
     electric field correction =       0.00024692 Ry

     convergence has been achieved in  99 iterations

     Forces acting on atoms (cartesian axes, Ry/au):

     atom    1 type  1   force =     0.00006237   -0.00036830    0.12632337
     atom    2 type  1   force =    -0.00005280    0.00039322   -0.15476424
     atom    3 type  2   force =     0.00003571    0.00023134   -0.06864147
     atom    4 type  2   force =     0.00004287    0.00001313    0.01728104
     atom    5 type  2   force =    -0.00541212   -0.00183594   -0.01282625
     atom    6 type  2   force =     0.00699253   -0.00107599   -0.01372654
     atom    7 type  1   force =    -0.00030146   -0.00641830    0.05891311
     atom    8 type  1   force =     0.00058656    0.00675338    0.10092525
     atom    9 type  2   force =     0.00031945    0.00037455    0.00013488
     atom   10 type  2   force =    -0.00198286    0.00132513   -0.06330793
     atom   11 type  2   force =    -0.00016624   -0.00065575    0.00026024
     atom   12 type  2   force =    -0.00036389   -0.00042065    0.00007814
     atom   13 type  1   force =     0.00056619   -0.00074101    0.00020432
     atom   14 type  1   force =    -0.00004050   -0.00056644    0.00115948
     atom   15 type  2   force =     0.00012726    0.00005818    0.00047197
     atom   16 type  2   force =     0.00006291   -0.00019677   -0.00081949
     atom   17 type  2   force =    -0.00010191   -0.00038778   -0.00022551
     atom   18 type  2   force =    -0.00010399   -0.00078852   -0.00078690
     atom   19 type  1   force =     0.00115073    0.00040653   -0.00090083
     atom   20 type  1   force =    -0.00055579    0.00105406   -0.00064874
     atom   21 type  2   force =     0.00009703    0.00014938    0.09787322
     atom   22 type  2   force =    -0.00022881   -0.00005336   -0.00030123
     atom   23 type  2   force =    -0.08273362    0.00003289   -0.03314706
     atom   24 type  2   force =     0.08270022    0.00046481   -0.03321193
     atom   25 type  1   force =     0.00005320   -0.00039747    0.12668555
     atom   26 type  1   force =    -0.00004649   -0.00139596   -0.15491819
     atom   27 type  2   force =     0.00011871   -0.00036984   -0.06704280
     atom   28 type  2   force =     0.00007072    0.00176889    0.01249620
     atom   29 type  2   force =    -0.00383582    0.00476512   -0.01597161
     atom   30 type  2   force =     0.00536204    0.00500508   -0.01690015
     atom   31 type  1   force =    -0.00028833    0.00187792    0.04199319
     atom   32 type  1   force =     0.00074693   -0.00886941    0.10184893
     atom   33 type  2   force =    -0.00004628   -0.00036572   -0.00057586
     atom   34 type  2   force =    -0.00187973    0.00205627   -0.07564121
     atom   35 type  2   force =     0.00012834   -0.00012956   -0.00045143
     atom   36 type  2   force =    -0.00030270    0.00007875   -0.00016776
     atom   37 type  1   force =     0.00047410    0.00056564    0.00023364
     atom   38 type  1   force =    -0.00037274   -0.00073274   -0.00041928
     atom   39 type  2   force =    -0.00004871   -0.00050446    0.00071103
     atom   40 type  2   force =    -0.00008544   -0.00057133   -0.00039764
     atom   41 type  2   force =     0.00081606   -0.00054719   -0.00042761
     atom   42 type  2   force =    -0.00095380    0.00042507   -0.00030691
     atom   43 type  1   force =     0.00069464   -0.00065549   -0.00076563
     atom   44 type  1   force =    -0.00078943   -0.00082942   -0.00010310
     atom   45 type  2   force =     0.00008261   -0.00002529    0.09772142
     atom   46 type  2   force =    -0.08276785    0.00001720   -0.03315523
     atom   47 type  2   force =     0.08273292    0.00043147   -0.03320763
     atom   48 type  3   force =    -0.00326373   -0.00071956   -0.00301734
     atom   49 type  4   force =     0.00140024   -0.00033307    0.00089112
     atom   50 type  5   force =    -0.00012336   -0.00009783    0.00110593
     atom   51 type  5   force =     0.00032585    0.00002403   -0.00089264
     atom   52 type  5   force =    -0.00047210    0.00058086    0.00109493
     atom   53 type  2   force =     0.00036620    0.00026379   -0.00082799
     atom   54 type  5   force =     0.00120412    0.00093645    0.00009120

     Total force =     0.421142     Total SCF correction =     0.000604
  @ DRIVER MODE: Message from server: STATUS
  @ DRIVER MODE: Message from server: GETFORCE
  @ DRIVER MODE: Returning v,forces,stress,ensemble

     Writing output data file ./calc.save/
  @ DRIVER MODE: Message from server: EXIT
  @ DRIVE MODE: Exiting

     General routines

     Parallel routines

   This run was terminated on:  17:25: 1  22Sep2021

   JOB DONE.