     Program PWSCF v.6.7GPU starts on 22Sep2021 at 23:43: 3

     R & G space division:  proc/nbgrp/npool/nimage =      10
     Reading input from /storage/home/hcoda1/3/ntian30/research/carbon/CxH_vib/H2O_calc/ads_slab/CHNHNHH2O_b/out_0023/pw.inp
Warning: card &CELL ignored
Warning: card   CELL_DYNAMICS='IPI', ignored
Warning: card / ignored

     Current dimensions of program PWSCF are:
     Max number of different atomic species (ntypx) = 10
     Max number of k-points (npk) =  40000
     Max angular momentum in pseudopotentials (lmaxx) =  3
     Presently no symmetry can be used with electric field

     Message from routine cell_base_init:
     DEPRECATED: use true lattice parameter, not A to a.u. conversion factor

     IMPORTANT: XC functional enforced from input :
     Exchange-correlation= BEEF-VDW
                           (   1   4  43  14   2   0   0)
     Any further DFT definition will be discarded
     Please, verify this is what you really want

  @ DRIVER MODE: Connecting to
 qe_1139763_2937311.sched-torque.pace.gatech.edu4x0fluzk_scratch
  using UNIX socket
  @ DRIVER MODE: Message from server: STATUS
  @ DRIVER MODE: Message from server: INIT
  @ DRIVER MODE: Receiving replica           0          -1
  @ DRIVER MODE: Receiving encoded integer          25
  @ DRIVER MODE:  SCF:  T  FORCE:  T  STRESS:  F  VC:  F  ENSEMBLE:  F
  @ DRIVER MODE:  SCF:  T  FORCE:  T  STRESS:  F  VC:  F  ENSEMBLE:  F

     Using Slab Decomposition

     bravais-lattice index     =            0
     lattice parameter (alat)  =       1.8897  a.u.
     unit-cell volume          =    6658.9804 (a.u.)^3
     number of atoms/cell      =           56
     number of atomic types    =            5
     number of electrons       =       403.00
     number of Kohn-Sham states=          211
     kinetic-energy cutoff     =      29.3995  Ry
     charge density cutoff     =     293.9946  Ry
     scf convergence threshold =      7.3E-08
     mixing beta               =       0.0500
     number of iterations used =            8  plain     mixing
     Exchange-correlation= BEEF-VDW
                           (   1   4  43  14   2   0   0)

     celldm(1)=   1.889726  celldm(2)=   0.000000  celldm(3)=   0.000000
     celldm(4)=   0.000000  celldm(5)=   0.000000  celldm(6)=   0.000000

     crystal axes: (cart. coord. in units of alat)
               a(1) = (   6.579727   0.000000   0.000000 )
               a(2) = (  -0.000775   5.961596   0.000000 )
               a(3) = (   0.000000   0.000000  25.155947 )

     reciprocal axes: (cart. coord. in units 2 pi/alat)
               b(1) = (  0.151982  0.000020  0.000000 )
               b(2) = (  0.000000  0.167740  0.000000 )
               b(3) = (  0.000000  0.000000  0.039752 )

     PseudoPot. # 1 for Ti read from file:
     /storage/coda1/p-amedford6/0/shared/rich_project_chbe-medford/medford-share/data/pseudos_module/espresso/nninc/pbe/van/Ti.UPF
     MD5 check sum: 8e4df49b7f0d34bbd5052bf3f5ea0213
     Pseudo is Ultrasoft, Zval = 12.0
     Generated by new atomic code, or converted to UPF format
     Using radial grid of  851 points,  6 beta functions with:
                l(1) =   0
                l(2) =   0
                l(3) =   1
                l(4) =   1
                l(5) =   2
                l(6) =   2
     Q(r) pseudized with  8 coefficients,  rinner =    1.000   1.000   1.000
                                                       1.000   1.000

     PseudoPot. # 2 for O  read from file:
     /storage/coda1/p-amedford6/0/shared/rich_project_chbe-medford/medford-share/data/pseudos_module/espresso/nninc/pbe/van/O.UPF
     MD5 check sum: 78c19812648e8988a0fe644b0f25305e
     Pseudo is Ultrasoft, Zval =  6.0
     Generated by new atomic code, or converted to UPF format
     Using radial grid of  737 points,  4 beta functions with:
                l(1) =   0
                l(2) =   0
                l(3) =   1
                l(4) =   1
     Q(r) pseudized with  8 coefficients,  rinner =    0.800   0.800   0.800

     PseudoPot. # 3 for N  read from file:
     /storage/coda1/p-amedford6/0/shared/rich_project_chbe-medford/medford-share/data/pseudos_module/espresso/nninc/pbe/van/N.UPF
     MD5 check sum: 90d10febe142ad51ac9d5be1deb811c4
     Pseudo is Ultrasoft, Zval =  5.0
     Generated by new atomic code, or converted to UPF format
     Using radial grid of  729 points,  4 beta functions with:
                l(1) =   0
                l(2) =   0
                l(3) =   1
                l(4) =   1
     Q(r) pseudized with  8 coefficients,  rinner =    0.800   0.800   0.800

     PseudoPot. # 4 for C  read from file:
     /storage/coda1/p-amedford6/0/shared/rich_project_chbe-medford/medford-share/data/pseudos_module/espresso/nninc/pbe/van/C.UPF
     MD5 check sum: 1a69bf6b8db32088f5b2163dbdb77a27
     Pseudo is Ultrasoft, Zval =  4.0
     Generated by new atomic code, or converted to UPF format
     Using radial grid of  721 points,  4 beta functions with:
                l(1) =   0
                l(2) =   0
                l(3) =   1
                l(4) =   1
     Q(r) pseudized with  8 coefficients,  rinner =    0.800   0.800   0.800

     PseudoPot. # 5 for H  read from file:
     /storage/coda1/p-amedford6/0/shared/rich_project_chbe-medford/medford-share/data/pseudos_module/espresso/nninc/pbe/van/H.UPF
     MD5 check sum: b5ee9d7bfd3a09ee7748110bda690ff7
     Pseudo is Ultrasoft, Zval =  1.0
     Generated by new atomic code, or converted to UPF format
     Using radial grid of  615 points,  1 beta functions with:
                l(1) =   0
     Q(r) pseudized with  8 coefficients,  rinner =    0.800

     atomic species   valence    mass     pseudopotential
        Ti1           12.00    47.86700     Ti( 1.00)
        O1             6.00    15.99900     O ( 1.00)
        N1             5.00    14.00700     N ( 1.00)
        C1             4.00    12.01100     C ( 1.00)
        H1             1.00     1.00800     H ( 1.00)

     No symmetry found

   Cartesian axes

     site n.     atom                  positions (alat units)
         1           Ti1 tau(   1) = (   0.0004258   2.9801865   6.0000000  )
         2           Ti1 tau(   2) = (   3.2906075   1.4906267   6.0002472  )
         3           O1  tau(   3) = (   0.0006271   0.0005054   7.9858123  )
         4           O1  tau(   4) = (   3.2906025   0.0005020   7.3038282  )
         5           O1  tau(   5) = (   4.5942328   1.4918067   9.2879030  )
         6           O1  tau(   6) = (   1.9868534   1.4903216   9.2879459  )
         7           Ti1 tau(   7) = (   3.2907910   2.8959150   9.1758416  )
         8           Ti1 tau(   8) = (   0.0015273   1.4827037   9.2680791  )
         9           O1  tau(   9) = (   3.2780774   5.9605562  11.3537357  )
        10           O1  tau(  10) = (   0.0116148   5.9584955  10.6183126  )
        11           O1  tau(  11) = (   1.2922713   1.4781662  12.6511241  )
        12           O1  tau(  12) = (   5.2965393   1.5043564  12.6031353  )
        13           Ti1 tau(  13) = (   6.5273184   3.0207086  12.5807821  )
        14           Ti1 tau(  14) = (   3.2344070   1.4559942  12.5004267  )
        15           O1  tau(  15) = (   6.4759410   0.0295824  14.6525783  )
        16           O1  tau(  16) = (   3.3604338   0.0238249  13.9383540  )
        17           O1  tau(  17) = (   4.5324113   1.5808541  16.1066768  )
        18           O1  tau(  18) = (   1.9684897   1.4712893  15.8817925  )
        19           Ti1 tau(  19) = (   3.2566353   3.0739815  15.8599551  )
        20           Ti1 tau(  20) = (   6.5466614   1.5318677  15.7800735  )
        21           O1  tau(  21) = (   3.2904802   0.0005063   4.7018136  )
        22           O1  tau(  22) = (   6.5744325   0.0155309  17.2227980  )
        23           O1  tau(  23) = (   1.3043587   1.4918075   6.0039043  )
        24           O1  tau(  24) = (   5.2767064   1.4903225   6.0039473  )
        25           Ti1 tau(  25) = (   0.0000382   5.9609847   6.0000000  )
        26           Ti1 tau(  26) = (   3.2902200   4.4714249   6.0002472  )
        27           O1  tau(  27) = (   0.0002396   2.9813036   7.9858123  )
        28           O1  tau(  28) = (   3.2902150   2.9813002   7.3038282  )
        29           O1  tau(  29) = (   4.5938453   4.4726049   9.2879030  )
        30           O1  tau(  30) = (   1.9864658   4.4711199   9.2879459  )
        31           Ti1 tau(  31) = (   3.2891106   5.8743827   9.1763621  )
        32           Ti1 tau(  32) = (   0.0006254   4.4649316   9.2693709  )
        33           O1  tau(  33) = (   3.2727763   2.9788165  11.3438337  )
        34           O1  tau(  34) = (   0.0092240   2.9805883  10.6323155  )
        35           O1  tau(  35) = (   1.2865780   4.4896361  12.6556599  )
        36           O1  tau(  36) = (   5.2967437   4.4749066  12.6066920  )
        37           Ti1 tau(  37) = (   6.5467059   0.0356701  12.5108493  )
        38           Ti1 tau(  38) = (   3.2305653   4.4019604  12.5605372  )
        39           O1  tau(  39) = (   6.5199767   2.9846217  14.6905747  )
        40           O1  tau(  40) = (   3.2851694   3.0254550  13.9321539  )
        41           O1  tau(  41) = (   4.5310495   4.4602642  16.1636806  )
        42           O1  tau(  42) = (   1.9842988   4.5744318  15.9411167  )
        43           Ti1 tau(  43) = (   3.2691225   0.1036042  15.7405456  )
        44           Ti1 tau(  44) = (   6.5697781   4.6877429  16.0360384  )
        45           O1  tau(  45) = (   3.2900926   2.9813045   4.7018136  )
        46           O1  tau(  46) = (   1.3039711   4.4726057   6.0039043  )
        47           O1  tau(  47) = (   5.2763189   4.4711207   6.0039473  )
        48           N1  tau(  48) = (   1.2792381   2.8578196  18.3696018  )
        49           N1  tau(  49) = (   0.1888888   2.9646215  17.5057353  )
        50           C1  tau(  50) = (   2.5352320   2.9081513  18.0382144  )
        51           H1  tau(  51) = (   3.1442446   2.7411670  18.9217345  )
        52           H1  tau(  52) = (   1.0014291   2.6635404  19.3302151  )
        53           H1  tau(  53) = (   5.9397212   2.8571719  18.0851170  )
        54           O1  tau(  54) = (   3.2630597   0.0341043  18.2348460  )
        55           H1  tau(  55) = (   4.0455299   5.4198958  18.2485053  )
        56           H1  tau(  56) = (   2.4923979   5.4091459  18.3156537  )

     number of k points=    10  Fermi-Dirac smearing, width (Ry)=  0.0073
                       cart. coord. in units 2pi/alat
        k(    1) = (   0.0000000   0.0000000   0.0000000), wk =   0.1250000
        k(    2) = (   0.0000000   0.0419351   0.0000000), wk =   0.2500000
        k(    3) = (   0.0000000  -0.0838702   0.0000000), wk =   0.1250000
        k(    4) = (   0.0379955   0.0000049   0.0000000), wk =   0.2500000
        k(    5) = (   0.0379955   0.0419400   0.0000000), wk =   0.2500000
        k(    6) = (   0.0379955  -0.0838652   0.0000000), wk =   0.2500000
        k(    7) = (   0.0379955  -0.0419301   0.0000000), wk =   0.2500000
        k(    8) = (  -0.0759910  -0.0000099   0.0000000), wk =   0.1250000
        k(    9) = (  -0.0759910   0.0419252   0.0000000), wk =   0.2500000
        k(   10) = (  -0.0759910  -0.0838800   0.0000000), wk =   0.1250000

     Initial potential from superposition of free atoms

     starting charge  386.99914, renormalised to  403.00000

     negative rho (up, down):  1.739E-02 0.000E+00

     %%%%%%%%%%%%%%%%%%%%%%%%%%%%%%%%%%%%%%%%%%%%%%%%%%%%%%%%%%%%%%%%%%%%%%%%
     %                                                                      %
     % You are using vdW-DF, which was implemented by the Thonhauser group. %
     % Please cite the following two papers that made this development      %
     % possible and the two reviews that describe the various versions:     %
     %                                                                      %
     %   T. Thonhauser et al., PRL 115, 136402 (2015).                      %
     %   T. Thonhauser et al., PRB 76, 125112 (2007).                       %
     %   K. Berland et al., Rep. Prog. Phys. 78, 066501 (2015).             %
     %   D.C. Langreth et al., J. Phys.: Condens. Matter 21, 084203 (2009). %
     %                                                                      %
     %                                                                      %
     % If you are calculating the stress with vdW-DF, please also cite:     %
     %                                                                      %
     %   R. Sabatini et al., J. Phys.: Condens. Matter 24, 424209 (2012).   %
     %                                                                      %
     %%%%%%%%%%%%%%%%%%%%%%%%%%%%%%%%%%%%%%%%%%%%%%%%%%%%%%%%%%%%%%%%%%%%%%%%

     Adding external electric field

     Computed dipole along edir(3) :
        Dipole              -12.3455 Ry au,        -31.3791 Debye
        Dipole field         -0.0233 Ry au,

        Potential amp.        2.1597 Ry
        Total length         46.3494 bohr

     Starting wfcs are  305 atomic wfcs
  @ DRIVER MODE: Message from server: STATUS
  @ DRIVER MODE: Message from server: POSDATA
  @ DRIVER MODE: Reading and sharing cell
  @ DRIVER MODE: Reading and sharing positions
  @ DRIVER MODE: Received positions

     Self-consistent Calculation

     iteration #  1     ecut=    29.40 Ry     beta= 0.05
     Davidson diagonalization with overlap
     c_bands:  5 eigenvalues not converged
     c_bands:  3 eigenvalues not converged
     c_bands:  3 eigenvalues not converged
     c_bands:  1 eigenvalues not converged
     c_bands:  2 eigenvalues not converged
     c_bands:  2 eigenvalues not converged
     c_bands:  5 eigenvalues not converged
     c_bands:  2 eigenvalues not converged
     c_bands:  4 eigenvalues not converged
     ethr =  1.00E-05,  avg # of iterations = 29.3

[...]

     total energy              =   -2358.71053754 Ry
     estimated scf accuracy    <    6971.27499649 Ry

     iteration #  2     ecut=    29.40 Ry     beta= 0.05
     Davidson diagonalization with overlap
     ethr =  1.00E-02,  avg # of iterations = 28.3

[...]

     iteration # 60     ecut=    29.40 Ry     beta= 0.05
     Davidson diagonalization with overlap
     c_bands:  1 eigenvalues not converged
     c_bands:  1 eigenvalues not converged
     c_bands:  1 eigenvalues not converged
     ethr =  4.78E-11,  avg # of iterations = 15.1

[...]

     total energy              =   -2973.94000158 Ry
     estimated scf accuracy    <       0.00000008 Ry

     iteration # 61     ecut=    29.40 Ry     beta= 0.05
     Davidson diagonalization with overlap
     ethr =  2.05E-11,  avg # of iterations =  5.2

     negative rho (up, down):  1.726E-02 0.000E+00

     Adding external electric field

     Computed dipole along edir(3) :
        Dipole                1.4008 Ry au,          3.5604 Debye
        Dipole field          0.0026 Ry au,

        Potential amp.       -0.2450 Ry
        Total length         46.3494 bohr

     End of self-consistent calculation

          k = 0.0000 0.0000 0.0000 ( 18029 PWs)   bands (ev):

   -55.3183 -55.2843 -55.2091 -55.1850 -55.1662 -55.1546 -55.1394 -55.1174
   -55.1056 -55.1023 -55.0965 -55.0620 -54.9915 -54.8333 -54.2988 -54.2647
   -31.8025 -31.7301 -31.6557 -31.6490 -31.6392 -31.6102 -31.5862 -31.5635
   -31.5190 -31.5006 -31.4706 -31.4629 -31.4545 -31.4398 -31.4243 -31.4204
   -31.3972 -31.3792 -31.3755 -31.3639 -31.3339 -31.3321 -31.3279 -31.3248
   -31.3219 -31.3182 -31.3141 -31.2960 -31.2881 -31.2781 -31.2714 -31.2705
   -31.2603 -31.2588 -31.2510 -31.2473 -31.2396 -31.2140 -31.2091 -31.0896
   -31.0745 -31.0489 -30.7056 -30.6176 -30.5951 -30.5226 -30.4361 -30.3248
   -18.8813 -18.6527 -15.9769 -15.7931 -15.6121 -15.4728 -15.3910 -15.1594
   -15.1011 -15.0625 -14.9814 -14.9588 -14.8577 -14.8394 -14.8380 -14.8194
   -14.8165 -14.7613 -14.7464 -14.7416 -14.6933 -14.6864 -14.6612 -14.6456
   -14.5935 -14.5145 -14.5057 -14.4592 -14.4141 -14.3676 -14.0226 -13.4168
   -12.7996 -12.6831  -8.8090  -7.2867  -6.6206  -4.3588  -3.7911  -3.3606
    -3.2845  -3.2482  -3.2231  -3.0877  -2.9709  -2.8681  -2.7555  -2.6707
    -2.5837  -2.4792  -2.4229  -2.3772  -2.3168  -2.2567  -2.2304  -2.1447
    -2.1251  -2.1052  -2.0837  -2.0569  -2.0276  -1.9911  -1.8680  -1.8574
    -1.7752  -1.7192  -1.6809  -1.6624  -1.6386  -1.6324  -1.6006  -1.5798
    -1.5712  -1.5598  -1.5583  -1.5232  -1.3840  -1.3604  -1.3313  -1.3099
    -1.1626  -1.0250  -0.9363  -0.9334  -0.8242  -0.7593  -0.7561  -0.7175
    -0.7021  -0.6001  -0.5144  -0.4780  -0.4532  -0.3744  -0.3171  -0.2618
    -0.2101  -0.1749  -0.1079  -0.0841  -0.0674  -0.0505   0.0181   0.0810
     0.1420   0.2274   0.2707   0.2953   0.3862   0.4004   0.4236   0.4881
     0.5201   0.5652   0.6007   0.6298   0.6536   0.6837   0.7090   0.7521
     0.7908   0.9158   0.9339   0.9627   0.9836   1.1581   1.2075   1.3132
     1.3411   1.4411   1.4855   1.6640   1.7252   1.8044   1.9170   2.2953
     2.3411   3.7906   3.9019   3.9360   3.9611   4.0004   4.0516   4.2583
     4.3314   4.3725   4.4294

[...]

          k = 0.0380-0.0419 0.0000 ( 17876 PWs)   bands (ev):

[...]

          k =-0.0760-0.0000 0.0000 ( 17886 PWs)   bands (ev):

[...]

          k =-0.0760-0.0839 0.0000 ( 17948 PWs)   bands (ev):

   -55.3015 -55.3009 -55.1997 -55.1817 -55.1749 -55.1431 -55.1293 -55.1226
   -55.1218 -55.1059 -55.0833 -55.0753 -54.9898 -54.8350 -54.2820 -54.2814
   -31.6180 -31.6175 -31.5959 -31.5954 -31.5643 -31.5325 -31.5015 -31.4889
   -31.4818 -31.4665 -31.4480 -31.4422 -31.4388 -31.4293 -31.4243 -31.4229
   -31.4209 -31.4205 -31.4156 -31.3999 -31.3892 -31.3749 -31.3638 -31.3615
   -31.3568 -31.3524 -31.3433 -31.3307 -31.3248 -31.3234 -31.3081 -31.2989
   -31.2958 -31.2949 -31.2932 -31.2905 -31.2589 -31.2329 -31.2188 -31.1457
   -31.0920 -31.0775 -30.6081 -30.6076 -30.5186 -30.5182 -30.4797 -30.4791
   -18.8707 -18.6589 -15.3544 -15.3193 -15.2811 -15.2537 -15.2378 -15.1169
   -15.1033 -15.0679 -15.0260 -15.0129 -14.9828 -14.9540 -14.9051 -14.8967
   -14.8622 -14.8426 -14.8035 -14.7772 -14.7577 -14.7534 -14.7367 -14.7151
   -14.6714 -14.6497 -14.6371 -14.6328 -14.5811 -14.4870 -14.2080 -13.4395
   -12.7850 -12.7848  -8.8046  -7.2116  -6.6216  -4.5653  -3.5730  -2.8722
    -2.6694  -2.6299  -2.5784  -2.4872  -2.4400  -2.3182  -2.3117  -2.2890
    -2.2436  -2.2306  -2.1900  -2.1497  -2.1436  -2.1156  -2.1035  -2.0587
    -2.0475  -2.0447  -2.0302  -1.9967  -1.9908  -1.9703  -1.9464  -1.9430
    -1.9329  -1.9164  -1.8834  -1.8762  -1.8494  -1.8304  -1.6798  -1.6063
    -1.5621  -1.4846  -1.4614  -1.4447  -1.4257  -1.3907  -1.3705  -1.3452
    -1.3168  -1.1711  -1.0312  -0.9955  -0.9707  -0.8720  -0.8571  -0.8379
    -0.7903  -0.7493  -0.7141  -0.6558  -0.6460  -0.6008  -0.5797  -0.4594
    -0.4220  -0.3229  -0.2870  -0.2855  -0.2675  -0.2530  -0.2359  -0.2099
    -0.1604  -0.0890  -0.0736  -0.0249  -0.0010   0.0016   0.0147   0.1602
     0.2314   0.2516   0.3536   0.3840   0.5588   0.7229   0.7349   0.8025
     0.8656   0.9202   0.9547   0.9946   1.0051   1.0704   1.0954   1.2003
     1.2103   1.2588   1.2657   1.3422   1.3552   2.0889   2.0905   2.1609
     2.1612   4.1543   4.1697   4.1983   4.2615   4.3049   4.3165   4.3541
     4.3578   4.4612   4.4780

     the Fermi energy is     3.8087 ev

!    total energy              =   -2973.94005978 Ry
     estimated scf accuracy    <       0.00000006 Ry
     smearing contrib. (-TS)   =      -0.02072458 Ry
     internal energy E=F+TS    =   -2973.91933520 Ry

     The total energy is F=E-TS. E is the sum of the following terms:
     one-electron contribution =  -24339.53394685 Ry
     hartree contribution      =   12267.48561916 Ry
     xc contribution           =    -494.12345942 Ry
     ewald contribution        =    9592.24874899 Ry
     electric field correction =       0.00370291 Ry

     convergence has been achieved in  61 iterations

     Forces acting on atoms (cartesian axes, Ry/au):

     atom    1 type  1   force =     0.00003261   -0.00010862    0.09509195
     atom    2 type  1   force =     0.00017985   -0.00069608   -0.17562817
     atom    3 type  2   force =     0.00008884   -0.00004455   -0.02293235
     atom    4 type  2   force =     0.00001916   -0.00142344    0.05289606
     atom    5 type  2   force =    -0.01000835   -0.00031305    0.00380655
     atom    6 type  2   force =     0.01112969    0.00020416    0.00206290
     atom    7 type  1   force =    -0.00021808    0.00179327   -0.00589652
     atom    8 type  1   force =     0.00080702    0.01008858    0.01603013
     atom    9 type  2   force =    -0.00015734    0.00086667    0.00032542
     atom   10 type  2   force =    -0.00227277    0.00217837   -0.01801193
     atom   11 type  2   force =     0.00022384   -0.00003465    0.00007924
     atom   12 type  2   force =    -0.00033927   -0.00018661    0.00056253
     atom   13 type  1   force =    -0.00001907    0.00124830    0.00016360
     atom   14 type  1   force =    -0.00011755    0.00010689   -0.00000813
     atom   15 type  2   force =     0.00010949    0.00022847    0.00001303
     atom   16 type  2   force =    -0.00036591    0.00044204   -0.00021335
     atom   17 type  2   force =    -0.00014722   -0.00022054    0.00004224
     atom   18 type  2   force =    -0.00004982   -0.00005297    0.00037202
     atom   19 type  1   force =    -0.00070787    0.00037182   -0.00016908
     atom   20 type  1   force =    -0.00022707   -0.00014044    0.00007745
     atom   21 type  2   force =     0.00009420   -0.00008697    0.10317467
     atom   22 type  2   force =     0.00037021    0.00003065    0.00058767
     atom   23 type  2   force =    -0.07159262   -0.00016629   -0.02757113
     atom   24 type  2   force =     0.07155315    0.00024759   -0.02762080
     atom   25 type  1   force =     0.00023643   -0.00038099    0.09521351
     atom   26 type  1   force =    -0.00003313   -0.00020358   -0.17580292
     atom   27 type  2   force =     0.00012299   -0.00012415   -0.02196032
     atom   28 type  2   force =     0.00001377   -0.00140733    0.05322108
     atom   29 type  2   force =    -0.01035202   -0.00022714    0.00365202
     atom   30 type  2   force =     0.01138929    0.00042427    0.00191865
     atom   31 type  1   force =    -0.00030267    0.00267217   -0.00009893
     atom   32 type  1   force =     0.00067481   -0.01114869    0.01690855
     atom   33 type  2   force =     0.00037384   -0.00027632    0.00000176
     atom   34 type  2   force =    -0.00033928    0.00143853   -0.01894212
     atom   35 type  2   force =    -0.00002381   -0.00035231   -0.00016277
     atom   36 type  2   force =     0.00001235   -0.00024799    0.00044034
     atom   37 type  1   force =    -0.00004083   -0.00122921    0.00032683
     atom   38 type  1   force =    -0.00039841    0.00086517    0.00006899
     atom   39 type  2   force =     0.00009131    0.00007373    0.00012388
     atom   40 type  2   force =    -0.00050933   -0.00060310   -0.00010286
     atom   41 type  2   force =     0.00022082   -0.00013206    0.00034843
     atom   42 type  2   force =    -0.00021948   -0.00023300   -0.00027401
     atom   43 type  1   force =    -0.00031854   -0.00022605    0.00032826
     atom   44 type  1   force =     0.00009820   -0.00032342    0.00014212
     atom   45 type  2   force =     0.00009937   -0.00010201    0.10322022
     atom   46 type  2   force =    -0.07158390   -0.00017002   -0.02756133
     atom   47 type  2   force =     0.07158071    0.00024506   -0.02757119
     atom   48 type  3   force =     0.00088029   -0.00049938    0.00020225
     atom   49 type  3   force =     0.00017358    0.00017289    0.00003082
     atom   50 type  4   force =    -0.00510537    0.00111792   -0.00816609
     atom   51 type  5   force =     0.00468234   -0.00196457    0.00818949
     atom   52 type  5   force =    -0.00006046   -0.00113854   -0.00065697
     atom   53 type  5   force =     0.00018284   -0.00040048   -0.00059920
     atom   54 type  2   force =    -0.00004925    0.00107021    0.00000428
     atom   55 type  5   force =     0.00017131   -0.00022104   -0.00004366
     atom   56 type  5   force =    -0.00005288   -0.00080117    0.00036688

     Total force =     0.365443     Total SCF correction =     0.000674
  @ DRIVER MODE: Message from server: STATUS
  @ DRIVER MODE: Message from server: GETFORCE
  @ DRIVER MODE: Returning v,forces,stress,ensemble

     Writing output data file ./calc.save/
  @ DRIVER MODE: Message from server: EXIT
  @ DRIVE MODE: Exiting

     General routines

     Parallel routines

   This run was terminated on:   0: 1:26  23Sep2021

   JOB DONE.