     Program PWSCF v.6.7GPU starts on 15Sep2021 at 21: 1: 7

     R & G space division:  proc/nbgrp/npool/nimage =      10
     Reading input from /storage/home/hcoda1/3/ntian30/research/carbon/CxH_vib/H2O_calc/ads_slab/CH2OHH2O_a/out_0017/pw.inp
Warning: card &CELL ignored
Warning: card   CELL_DYNAMICS='IPI', ignored
Warning: card / ignored

     Current dimensions of program PWSCF are:
     Max number of different atomic species (ntypx) = 10
     Max number of k-points (npk) =  40000
     Max angular momentum in pseudopotentials (lmaxx) =  3
     Presently no symmetry can be used with electric field

     Message from routine cell_base_init:
     DEPRECATED: use true lattice parameter, not A to a.u. conversion factor

     IMPORTANT: XC functional enforced from input :
     Exchange-correlation= BEEF-VDW
                           (   1   4  43  14   2   0   0)
     Any further DFT definition will be discarded
     Please, verify this is what you really want

  @ DRIVER MODE: Connecting to
 qe_1139763_2852615.sched-torque.pace.gatech.edut00xo848_scratch
  using UNIX socket
  @ DRIVER MODE: Message from server: STATUS
  @ DRIVER MODE: Message from server: INIT
  @ DRIVER MODE: Receiving replica           0          -1
  @ DRIVER MODE: Receiving encoded integer          25
  @ DRIVER MODE:  SCF:  T  FORCE:  T  STRESS:  F  VC:  F  ENSEMBLE:  F
  @ DRIVER MODE:  SCF:  T  FORCE:  T  STRESS:  F  VC:  F  ENSEMBLE:  F

     Using Slab Decomposition

     bravais-lattice index     =            0
     lattice parameter (alat)  =       1.8897  a.u.
     unit-cell volume          =    6658.9804 (a.u.)^3
     number of atoms/cell      =           55
     number of atomic types    =            4
     number of electrons       =       399.00
     number of Kohn-Sham states=          209
     kinetic-energy cutoff     =      29.3995  Ry
     charge density cutoff     =     293.9946  Ry
     scf convergence threshold =      7.3E-08
     mixing beta               =       0.0500
     number of iterations used =            8  plain     mixing
     Exchange-correlation= BEEF-VDW
                           (   1   4  43  14   2   0   0)

     celldm(1)=   1.889726  celldm(2)=   0.000000  celldm(3)=   0.000000
     celldm(4)=   0.000000  celldm(5)=   0.000000  celldm(6)=   0.000000

     crystal axes: (cart. coord. in units of alat)
               a(1) = (   6.579727   0.000000   0.000000 )
               a(2) = (  -0.000775   5.961596   0.000000 )
               a(3) = (   0.000000   0.000000  25.155947 )

     reciprocal axes: (cart. coord. in units 2 pi/alat)
               b(1) = (  0.151982  0.000020  0.000000 )
               b(2) = (  0.000000  0.167740  0.000000 )
               b(3) = (  0.000000  0.000000  0.039752 )

     PseudoPot. # 1 for Ti read from file:
     /storage/coda1/p-amedford6/0/shared/rich_project_chbe-medford/medford-share/data/pseudos_module/espresso/nninc/pbe/van/Ti.UPF
     MD5 check sum: 8e4df49b7f0d34bbd5052bf3f5ea0213
     Pseudo is Ultrasoft, Zval = 12.0
     Generated by new atomic code, or converted to UPF format
     Using radial grid of  851 points,  6 beta functions with:
                l(1) =   0
                l(2) =   0
                l(3) =   1
                l(4) =   1
                l(5) =   2
                l(6) =   2
     Q(r) pseudized with  8 coefficients,  rinner =    1.000   1.000   1.000
                                                       1.000   1.000

     PseudoPot. # 2 for O  read from file:
     /storage/coda1/p-amedford6/0/shared/rich_project_chbe-medford/medford-share/data/pseudos_module/espresso/nninc/pbe/van/O.UPF
     MD5 check sum: 78c19812648e8988a0fe644b0f25305e
     Pseudo is Ultrasoft, Zval =  6.0
     Generated by new atomic code, or converted to UPF format
     Using radial grid of  737 points,  4 beta functions with:
                l(1) =   0
                l(2) =   0
                l(3) =   1
                l(4) =   1
     Q(r) pseudized with  8 coefficients,  rinner =    0.800   0.800   0.800

     PseudoPot. # 3 for C  read from file:
     /storage/coda1/p-amedford6/0/shared/rich_project_chbe-medford/medford-share/data/pseudos_module/espresso/nninc/pbe/van/C.UPF
     MD5 check sum: 1a69bf6b8db32088f5b2163dbdb77a27
     Pseudo is Ultrasoft, Zval =  4.0
     Generated by new atomic code, or converted to UPF format
     Using radial grid of  721 points,  4 beta functions with:
                l(1) =   0
                l(2) =   0
                l(3) =   1
                l(4) =   1
     Q(r) pseudized with  8 coefficients,  rinner =    0.800   0.800   0.800

     PseudoPot. # 4 for H  read from file:
     /storage/coda1/p-amedford6/0/shared/rich_project_chbe-medford/medford-share/data/pseudos_module/espresso/nninc/pbe/van/H.UPF
     MD5 check sum: b5ee9d7bfd3a09ee7748110bda690ff7
     Pseudo is Ultrasoft, Zval =  1.0
     Generated by new atomic code, or converted to UPF format
     Using radial grid of  615 points,  1 beta functions with:
                l(1) =   0
     Q(r) pseudized with  8 coefficients,  rinner =    0.800

     atomic species   valence    mass     pseudopotential
        Ti1           12.00    47.86700     Ti( 1.00)
        O1             6.00    15.99900     O ( 1.00)
        C1             4.00    12.01100     C ( 1.00)
        H1             1.00     1.00800     H ( 1.00)

     No symmetry found

   Cartesian axes

     site n.     atom                  positions (alat units)
         1           Ti1 tau(   1) = (   0.0004258   2.9801865   6.0000000  )
         2           Ti1 tau(   2) = (   3.2906075   1.4906267   6.0002472  )
         3           O1  tau(   3) = (   0.0006271   0.0005054   7.9858123  )
         4           O1  tau(   4) = (   3.2906025   0.0005020   7.3038282  )
         5           O1  tau(   5) = (   4.5942328   1.4918067   9.2879030  )
         6           O1  tau(   6) = (   1.9868534   1.4903216   9.2879459  )
         7           Ti1 tau(   7) = (   3.2434587   3.0186650   9.1693953  )
         8           Ti1 tau(   8) = (   6.5248695   1.5265067   9.2859949  )
         9           O1  tau(   9) = (   3.3238096   0.0077392  11.3399147  )
        10           O1  tau(  10) = (   0.0083103   0.0007143  10.5763085  )
        11           O1  tau(  11) = (   1.3076427   1.5153157  12.5877682  )
        12           O1  tau(  12) = (   5.3324098   1.4751673  12.6362968  )
        13           Ti1 tau(  13) = (   0.0822926   2.9518924  12.6100891  )
        14           Ti1 tau(  14) = (   3.3652580   1.6116561  12.6031695  )
        15           O1  tau(  15) = (   0.1623142   0.0003102  14.6136642  )
        16           O1  tau(  16) = (   3.2083997   0.0016335  13.9229753  )
        17           O1  tau(  17) = (   4.6427586   1.3635169  15.8692112  )
        18           O1  tau(  18) = (   2.0707938   1.5934636  16.1317492  )
        19           Ti1 tau(  19) = (   3.4055461   2.9583945  15.9219660  )
        20           Ti1 tau(  20) = (   0.0529163   1.3399360  15.9091509  )
        21           O1  tau(  21) = (   3.2904802   0.0005063   4.7018136  )
        22           O1  tau(  22) = (   0.1143047   5.9459637  17.1421970  )
        23           O1  tau(  23) = (   1.3043587   1.4918075   6.0039043  )
        24           O1  tau(  24) = (   5.2767064   1.4903225   6.0039473  )
        25           Ti1 tau(  25) = (   0.0000382   5.9609847   6.0000000  )
        26           Ti1 tau(  26) = (   3.2902200   4.4714249   6.0002472  )
        27           O1  tau(  27) = (   0.0002396   2.9813036   7.9858123  )
        28           O1  tau(  28) = (   3.2902150   2.9813002   7.3038282  )
        29           O1  tau(  29) = (   4.5938453   4.4726049   9.2879030  )
        30           O1  tau(  30) = (   1.9864658   4.4711199   9.2879459  )
        31           Ti1 tau(  31) = (   3.2519499   0.0415563   9.1803751  )
        32           Ti1 tau(  32) = (   6.5223785   4.4699269   9.2708698  )
        33           O1  tau(  33) = (   3.3249262   3.0006027  11.3427062  )
        34           O1  tau(  34) = (   6.5728067   2.9803724  10.5910131  )
        35           O1  tau(  35) = (   1.3048910   4.4590737  12.5876729  )
        36           O1  tau(  36) = (   5.3248012   4.5079456  12.6396186  )
        37           Ti1 tau(  37) = (   0.0305998   5.9348532  12.4502240  )
        38           Ti1 tau(  38) = (   3.3518916   4.5407868  12.4757475  )
        39           O1  tau(  39) = (   0.0741357   2.9755951  14.7167286  )
        40           O1  tau(  40) = (   3.3703583   2.9475192  13.9294239  )
        41           O1  tau(  41) = (   4.6408928   4.5782690  15.8216857  )
        42           O1  tau(  42) = (   2.0743197   4.3710070  16.0958311  )
        43           Ti1 tau(  43) = (   3.3271525   5.9323444  15.7323421  )
        44           Ti1 tau(  44) = (   0.0603002   4.5335970  15.7939964  )
        45           O1  tau(  45) = (   3.2900926   2.9813045   4.7018136  )
        46           O1  tau(  46) = (   1.3039711   4.4726057   6.0039043  )
        47           O1  tau(  47) = (   5.2763189   4.4711207   6.0039473  )
        48           C1  tau(  48) = (   4.5917920   3.0228413  17.9030398  )
        49           O1  tau(  49) = (   6.0625861   3.0006587  17.4562122  )
        50           H1  tau(  50) = (   0.0503952   3.1075262  18.2273115  )
        51           H1  tau(  51) = (   4.5265887   2.1706275  18.5876854  )
        52           H1  tau(  52) = (   4.4781653   3.9549082  18.4551422  )
        53           O1  tau(  53) = (   2.8659371   5.8926936  18.2031264  )
        54           H1  tau(  54) = (   3.0528466   0.8172038  18.5446680  )
        55           H1  tau(  55) = (   1.8959954   5.8777970  18.0521013  )

     number of k points=    10  Fermi-Dirac smearing, width (Ry)=  0.0073
                       cart. coord. in units 2pi/alat
        k(    1) = (   0.0000000   0.0000000   0.0000000), wk =   0.1250000
        k(    2) = (   0.0000000   0.0419351   0.0000000), wk =   0.2500000
        k(    3) = (   0.0000000  -0.0838702   0.0000000), wk =   0.1250000
        k(    4) = (   0.0379955   0.0000049   0.0000000), wk =   0.2500000
        k(    5) = (   0.0379955   0.0419400   0.0000000), wk =   0.2500000
        k(    6) = (   0.0379955  -0.0838652   0.0000000), wk =   0.2500000
        k(    7) = (   0.0379955  -0.0419301   0.0000000), wk =   0.2500000
        k(    8) = (  -0.0759910  -0.0000099   0.0000000), wk =   0.1250000
        k(    9) = (  -0.0759910   0.0419252   0.0000000), wk =   0.2500000
        k(   10) = (  -0.0759910  -0.0838800   0.0000000), wk =   0.1250000

     Initial potential from superposition of free atoms

     starting charge  382.99916, renormalised to  399.00000

     negative rho (up, down):  1.858E-02 0.000E+00

     %%%%%%%%%%%%%%%%%%%%%%%%%%%%%%%%%%%%%%%%%%%%%%%%%%%%%%%%%%%%%%%%%%%%%%%%
     %                                                                      %
     % You are using vdW-DF, which was implemented by the Thonhauser group. %
     % Please cite the following two papers that made this development      %
     % possible and the two reviews that describe the various versions:     %
     %                                                                      %
     %   T. Thonhauser et al., PRL 115, 136402 (2015).                      %
     %   T. Thonhauser et al., PRB 76, 125112 (2007).                       %
     %   K. Berland et al., Rep. Prog. Phys. 78, 066501 (2015).             %
     %   D.C. Langreth et al., J. Phys.: Condens. Matter 21, 084203 (2009). %
     %                                                                      %
     %                                                                      %
     % If you are calculating the stress with vdW-DF, please also cite:     %
     %                                                                      %
     %   R. Sabatini et al., J. Phys.: Condens. Matter 24, 424209 (2012).   %
     %                                                                      %
     %%%%%%%%%%%%%%%%%%%%%%%%%%%%%%%%%%%%%%%%%%%%%%%%%%%%%%%%%%%%%%%%%%%%%%%%

     Adding external electric field

     Computed dipole along edir(3) :
        Dipole               -9.7296 Ry au,        -24.7301 Debye
        Dipole field         -0.0184 Ry au,

        Potential amp.        1.7020 Ry
        Total length         46.3494 bohr

     Starting wfcs are  301 atomic wfcs
  @ DRIVER MODE: Message from server: STATUS
  @ DRIVER MODE: Message from server: POSDATA
  @ DRIVER MODE: Reading and sharing cell
  @ DRIVER MODE: Reading and sharing positions
  @ DRIVER MODE: Received positions

     Self-consistent Calculation

     iteration #  1     ecut=    29.40 Ry     beta= 0.05
     Davidson diagonalization with overlap
     c_bands:  1 eigenvalues not converged
     c_bands:  2 eigenvalues not converged
     c_bands:  3 eigenvalues not converged
     c_bands:  5 eigenvalues not converged
     c_bands:  3 eigenvalues not converged
     c_bands:  2 eigenvalues not converged
     c_bands:  3 eigenvalues not converged
     c_bands:  2 eigenvalues not converged
     ethr =  1.00E-05,  avg # of iterations = 19.8

[...]

     total energy              =   -2478.50382979 Ry
     estimated scf accuracy    <    5415.80695909 Ry

     iteration #  2     ecut=    29.40 Ry     beta= 0.05
     Davidson diagonalization with overlap
     ethr =  1.00E-02,  avg # of iterations = 25.0

[...]

     iteration # 55     ecut=    29.40 Ry     beta= 0.05
     Davidson diagonalization with overlap
     c_bands:  1 eigenvalues not converged
     ethr =  1.97E-11,  avg # of iterations = 11.0

[...]

     total energy              =   -2966.15806541 Ry
     estimated scf accuracy    <       0.00000014 Ry

     iteration # 56     ecut=    29.40 Ry     beta= 0.05
     Davidson diagonalization with overlap
     ethr =  1.97E-11,  avg # of iterations =  6.6

     negative rho (up, down):  1.797E-02 0.000E+00

     Adding external electric field

     Computed dipole along edir(3) :
        Dipole                1.0010 Ry au,          2.5442 Debye
        Dipole field          0.0019 Ry au,

        Potential amp.       -0.1751 Ry
        Total length         46.3494 bohr

     End of self-consistent calculation

          k = 0.0000 0.0000 0.0000 ( 18029 PWs)   bands (ev):

   -55.6911 -55.6547 -55.5836 -55.5752 -55.5187 -55.5165 -55.5108 -55.5078
   -55.4800 -55.4627 -55.4556 -55.4447 -55.4291 -55.3399 -54.6606 -54.6266
   -32.1812 -32.1672 -32.0569 -32.0274 -32.0050 -31.9784 -31.9575 -31.9458
   -31.9323 -31.8729 -31.8455 -31.8386 -31.8352 -31.8261 -31.7987 -31.7892
   -31.7856 -31.7663 -31.7613 -31.7503 -31.7390 -31.7337 -31.6999 -31.6945
   -31.6921 -31.6853 -31.6799 -31.6720 -31.6668 -31.6622 -31.6545 -31.6376
   -31.6338 -31.6315 -31.6260 -31.6230 -31.6146 -31.6140 -31.5886 -31.5658
   -31.5544 -31.4266 -31.0676 -30.9791 -30.9566 -30.8844 -30.7981 -30.6867
   -19.4333 -18.7447 -16.3765 -16.1798 -15.9750 -15.8613 -15.8416 -15.6604
   -15.5366 -15.3903 -15.3379 -15.3089 -15.2882 -15.2189 -15.2120 -15.1971
   -15.1619 -15.1571 -15.1206 -15.1009 -15.0948 -15.0670 -15.0156 -14.9940
   -14.9444 -14.8841 -14.8156 -14.7954 -14.7865 -14.7112 -14.6189 -13.1613
   -13.0447  -9.4574  -6.5086  -6.2955  -4.0782  -3.8447  -3.6885  -3.6457
    -3.6136  -3.5773  -3.4173  -3.3059  -3.1257  -3.0210  -2.9550  -2.9044
    -2.8675  -2.7903  -2.7486  -2.6243  -2.6010  -2.5510  -2.5184  -2.4822
    -2.4752  -2.4541  -2.4091  -2.3909  -2.3759  -2.2191  -2.2085  -2.1751
    -2.1102  -2.0789  -2.0517  -2.0147  -1.9931  -1.9659  -1.9476  -1.9013
    -1.8827  -1.8111  -1.8030  -1.7596  -1.6924  -1.6595  -1.3951  -1.3171
    -1.2972  -1.2585  -1.1950  -1.0981  -1.0943  -1.0879  -1.0874  -1.0306
    -1.0138  -0.8650  -0.8505  -0.8356  -0.7557  -0.6766  -0.5973  -0.5604
    -0.4960  -0.4457  -0.4132  -0.3854  -0.3594  -0.3034  -0.2356  -0.2126
    -0.1417  -0.0679  -0.0347   0.0177   0.0437   0.0885   0.1190   0.1950
     0.2339   0.2679   0.2957   0.3138   0.3239   0.3672   0.3872   0.4768
     0.5539   0.5820   0.5886   0.6628   0.7893   0.8719   0.9835   1.0751
     1.2974   1.3635   1.4150   1.5468   1.5544   1.9354   1.9859   3.4503
     3.5194   3.5788   3.5794   3.6141   3.6947   3.8977   3.9449   4.0022
     4.0358

[...]

          k = 0.0380-0.0419 0.0000 ( 17876 PWs)   bands (ev):

[...]

          k =-0.0760-0.0000 0.0000 ( 17886 PWs)   bands (ev):

[...]

          k =-0.0760-0.0839 0.0000 ( 17948 PWs)   bands (ev):

   -55.6794 -55.6663 -55.5782 -55.5705 -55.5230 -55.5153 -55.5129 -55.5045
   -55.4649 -55.4617 -55.4591 -55.4479 -55.4444 -55.3414 -54.6435 -54.6435
   -32.1001 -31.9886 -31.9778 -31.9759 -31.9538 -31.9031 -31.8766 -31.8555
   -31.8484 -31.8435 -31.8404 -31.8173 -31.8162 -31.8016 -31.8002 -31.7909
   -31.7899 -31.7815 -31.7800 -31.7769 -31.7740 -31.7644 -31.7428 -31.7374
   -31.7315 -31.7196 -31.7126 -31.7060 -31.7036 -31.6893 -31.6751 -31.6677
   -31.6669 -31.6643 -31.6624 -31.6560 -31.6546 -31.6526 -31.6506 -31.6480
   -31.6304 -31.4287 -30.9694 -30.9693 -30.8808 -30.8801 -30.8414 -30.8409
   -19.4270 -18.7436 -15.9944 -15.6555 -15.6426 -15.6375 -15.6067 -15.4852
   -15.4613 -15.4390 -15.3933 -15.3633 -15.3575 -15.3344 -15.2901 -15.2335
   -15.2143 -15.2066 -15.1969 -15.1445 -15.1302 -15.1193 -15.0736 -15.0330
   -15.0302 -15.0067 -14.9804 -14.9751 -14.9748 -14.9471 -14.8796 -13.1481
   -13.1450  -9.4633  -6.5092  -6.2754  -4.0353  -3.7310  -3.1626  -3.0424
    -2.8731  -2.8503  -2.8000  -2.7779  -2.7248  -2.6561  -2.6274  -2.6158
    -2.6142  -2.5804  -2.5176  -2.4837  -2.4797  -2.4405  -2.4222  -2.4144
    -2.3941  -2.3688  -2.3442  -2.3253  -2.3193  -2.2836  -2.2713  -2.2564
    -2.2504  -2.2388  -2.2202  -2.1795  -2.0717  -1.9500  -1.9161  -1.8806
    -1.8407  -1.7818  -1.7756  -1.7617  -1.7274  -1.7266  -1.7107  -1.6323
    -1.4681  -1.4052  -1.3447  -1.3227  -1.2494  -1.2369  -1.2212  -1.1773
    -1.1370  -1.0906  -1.0462  -1.0229  -0.9666  -0.9223  -0.7939  -0.7398
    -0.6553  -0.6502  -0.6276  -0.6126  -0.5585  -0.5338  -0.5087  -0.4642
    -0.4296  -0.3858  -0.3534  -0.3446  -0.3225  -0.2615  -0.1615  -0.1125
    -0.0502  -0.0441   0.0381   0.1678   0.3533   0.3836   0.4419   0.4928
     0.5823   0.6047   0.6536   0.6733   0.7308   0.7580   0.7993   0.8594
     0.9201   0.9483   1.5114   1.7269   1.7334   1.7966   1.8059   3.7414
     3.8293   3.9217   3.9358   3.9700   3.9823   3.9878   4.0176   4.0757
     4.1209

     the Fermi energy is     3.4477 ev

!    total energy              =   -2966.15813951 Ry
     estimated scf accuracy    <       0.00000003 Ry
     smearing contrib. (-TS)   =      -0.02139774 Ry
     internal energy E=F+TS    =   -2966.13674177 Ry

     The total energy is F=E-TS. E is the sum of the following terms:
     one-electron contribution =  -24756.18955504 Ry
     hartree contribution      =   12470.58550747 Ry
     xc contribution           =    -490.96645096 Ry
     ewald contribution        =    9810.43186597 Ry
     electric field correction =       0.00189079 Ry

     convergence has been achieved in  56 iterations

     Forces acting on atoms (cartesian axes, Ry/au):

     atom    1 type  1   force =     0.00074889   -0.00017657    0.09534657
     atom    2 type  1   force =     0.00024410   -0.00221039   -0.17567822
     atom    3 type  2   force =    -0.00066269   -0.00040827   -0.03008976
     atom    4 type  2   force =    -0.00084818    0.00063475    0.05233169
     atom    5 type  2   force =    -0.01386503   -0.00099916    0.00146043
     atom    6 type  2   force =     0.01582348    0.00241118    0.00318319
     atom    7 type  1   force =     0.00034285    0.00038134   -0.00028428
     atom    8 type  1   force =    -0.00037211    0.00140680    0.00065540
     atom    9 type  2   force =     0.00011191   -0.00002449    0.00024529
     atom   10 type  2   force =     0.00017503    0.00017394   -0.00058408
     atom   11 type  2   force =    -0.00023275    0.00024448    0.00018521
     atom   12 type  2   force =    -0.00037910    0.00008863    0.00007751
     atom   13 type  1   force =     0.00022462   -0.00018292   -0.00058689
     atom   14 type  1   force =    -0.00101445    0.00000454    0.00027922
     atom   15 type  2   force =     0.00006337   -0.00109704   -0.00013482
     atom   16 type  2   force =    -0.00001201   -0.00006575   -0.00020161
     atom   17 type  2   force =    -0.00040467   -0.00034018   -0.00016172
     atom   18 type  2   force =     0.00032339   -0.00027779    0.00009737
     atom   19 type  1   force =     0.00013647    0.00031031    0.00012441
     atom   20 type  1   force =     0.00015411    0.00091472    0.00022553
     atom   21 type  2   force =     0.00015021    0.00019864    0.10303269
     atom   22 type  2   force =     0.00016840   -0.00114850    0.00014981
     atom   23 type  2   force =    -0.07130148    0.00094134   -0.02830037
     atom   24 type  2   force =     0.07135800    0.00133761   -0.02833861
     atom   25 type  1   force =     0.00022808    0.00038224    0.10642730
     atom   26 type  1   force =     0.00000457    0.00253004   -0.17557594
     atom   27 type  2   force =    -0.00037710    0.00013253   -0.02786890
     atom   28 type  2   force =    -0.00096204    0.00076092    0.05163879
     atom   29 type  2   force =    -0.01301942   -0.00123182    0.00106706
     atom   30 type  2   force =     0.01547055    0.00037100    0.00294840
     atom   31 type  1   force =     0.00051933    0.00002043   -0.00002207
     atom   32 type  1   force =    -0.00042539   -0.00140965    0.00017498
     atom   33 type  2   force =    -0.00016468   -0.00031287    0.00021244
     atom   34 type  2   force =     0.00001038    0.00010562   -0.00015883
     atom   35 type  2   force =    -0.00061689   -0.00019267    0.00065607
     atom   36 type  2   force =     0.00002686   -0.00037270    0.00023585
     atom   37 type  1   force =     0.00059747    0.00029150    0.00054366
     atom   38 type  1   force =    -0.00092123    0.00015087    0.00046108
     atom   39 type  2   force =    -0.00014401    0.00065396    0.00018550
     atom   40 type  2   force =    -0.00003241   -0.00051499   -0.00065419
     atom   41 type  2   force =     0.00113184   -0.00003173   -0.00008298
     atom   42 type  2   force =    -0.00093714   -0.00019728    0.00018574
     atom   43 type  1   force =     0.00023291   -0.00098537    0.00001484
     atom   44 type  1   force =    -0.00044821    0.00029392   -0.00033649
     atom   45 type  2   force =     0.00012384    0.00015472    0.10329841
     atom   46 type  2   force =    -0.07122509   -0.00126139   -0.02829922
     atom   47 type  2   force =     0.07129705   -0.00086443   -0.02833357
     atom   48 type  3   force =    -0.00044173   -0.00005713    0.00031123
     atom   49 type  2   force =    -0.00812862   -0.00185392   -0.01352966
     atom   50 type  4   force =     0.00841172    0.00132615    0.01320569
     atom   51 type  4   force =    -0.00063579   -0.00011330    0.00013491
     atom   52 type  4   force =    -0.00031348   -0.00001138   -0.00035546
     atom   53 type  2   force =     0.00150465   -0.00039031    0.00076758
     atom   54 type  4   force =    -0.00025212    0.00039561    0.00010020
     atom   55 type  4   force =    -0.00144627    0.00011418   -0.00038635

     Total force =     0.368034     Total SCF correction =     0.000479
  @ DRIVER MODE: Message from server: STATUS
  @ DRIVER MODE: Message from server: GETFORCE
  @ DRIVER MODE: Returning v,forces,stress,ensemble

     Writing output data file ./calc.save/
  @ DRIVER MODE: Message from server: EXIT
  @ DRIVE MODE: Exiting

     General routines

     Parallel routines

   This run was terminated on:  21:16:54  15Sep2021

   JOB DONE.