     Program PWSCF v.6.7GPU starts on 23Aug2021 at 13:39:10

     R & G space division:  proc/nbgrp/npool/nimage =       6
     Reading input from /storage/home/hcoda1/3/ntian30/research/carbon/CH_vib/ads_slab/CHN2H_a/out_0002/pw.inp
Warning: card &CELL ignored
Warning: card   CELL_DYNAMICS='IPI', ignored
Warning: card / ignored

     Current dimensions of program PWSCF are:
     Max number of different atomic species (ntypx) = 10
     Max number of k-points (npk) =  40000
     Max angular momentum in pseudopotentials (lmaxx) =  3
     Presently no symmetry can be used with electric field

     Message from routine cell_base_init:
     DEPRECATED: use true lattice parameter, not A to a.u. conversion factor

     IMPORTANT: XC functional enforced from input :
     Exchange-correlation= BEEF-VDW
                           (   1   4  43  14   2   0   0)
     Any further DFT definition will be discarded
     Please, verify this is what you really want

  @ DRIVER MODE: Connecting to
 qe_1139763_2632792.sched-torque.pace.gatech.edux609bgv8_scratch
  using UNIX socket
  @ DRIVER MODE: Message from server: STATUS
  @ DRIVER MODE: Message from server: INIT
  @ DRIVER MODE: Receiving replica           0          -1
  @ DRIVER MODE: Receiving encoded integer          25
  @ DRIVER MODE:  SCF:  T  FORCE:  T  STRESS:  F  VC:  F  ENSEMBLE:  F
  @ DRIVER MODE:  SCF:  T  FORCE:  T  STRESS:  F  VC:  F  ENSEMBLE:  F

     Using Slab Decomposition

     bravais-lattice index     =            0
     lattice parameter (alat)  =       1.8897  a.u.
     unit-cell volume          =    6658.9804 (a.u.)^3
     number of atoms/cell      =           52
     number of atomic types    =            5
     number of electrons       =       394.00
     number of Kohn-Sham states=          207
     kinetic-energy cutoff     =      29.3995  Ry
     charge density cutoff     =     293.9946  Ry
     scf convergence threshold =      7.3E-08
     mixing beta               =       0.0500
     number of iterations used =            8  plain     mixing
     Exchange-correlation= BEEF-VDW
                           (   1   4  43  14   2   0   0)

     celldm(1)=   1.889726  celldm(2)=   0.000000  celldm(3)=   0.000000
     celldm(4)=   0.000000  celldm(5)=   0.000000  celldm(6)=   0.000000

     crystal axes: (cart. coord. in units of alat)
               a(1) = (   6.579727   0.000000   0.000000 )
               a(2) = (  -0.000775   5.961596   0.000000 )
               a(3) = (   0.000000   0.000000  25.155947 )

     reciprocal axes: (cart. coord. in units 2 pi/alat)
               b(1) = (  0.151982  0.000020  0.000000 )
               b(2) = (  0.000000  0.167740  0.000000 )
               b(3) = (  0.000000  0.000000  0.039752 )

     PseudoPot. # 1 for Ti read from file:
     /storage/coda1/p-amedford6/0/shared/rich_project_chbe-medford/medford-share/data/pseudos_module/espresso/nninc/pbe/van/Ti.UPF
     MD5 check sum: 8e4df49b7f0d34bbd5052bf3f5ea0213
     Pseudo is Ultrasoft, Zval = 12.0
     Generated by new atomic code, or converted to UPF format
     Using radial grid of  851 points,  6 beta functions with:
                l(1) =   0
                l(2) =   0
                l(3) =   1
                l(4) =   1
                l(5) =   2
                l(6) =   2
     Q(r) pseudized with  8 coefficients,  rinner =    1.000   1.000   1.000
                                                       1.000   1.000

     PseudoPot. # 2 for O  read from file:
     /storage/coda1/p-amedford6/0/shared/rich_project_chbe-medford/medford-share/data/pseudos_module/espresso/nninc/pbe/van/O.UPF
     MD5 check sum: 78c19812648e8988a0fe644b0f25305e
     Pseudo is Ultrasoft, Zval =  6.0
     Generated by new atomic code, or converted to UPF format
     Using radial grid of  737 points,  4 beta functions with:
                l(1) =   0
                l(2) =   0
                l(3) =   1
                l(4) =   1
     Q(r) pseudized with  8 coefficients,  rinner =    0.800   0.800   0.800

     PseudoPot. # 3 for N  read from file:
     /storage/coda1/p-amedford6/0/shared/rich_project_chbe-medford/medford-share/data/pseudos_module/espresso/nninc/pbe/van/N.UPF
     MD5 check sum: 90d10febe142ad51ac9d5be1deb811c4
     Pseudo is Ultrasoft, Zval =  5.0
     Generated by new atomic code, or converted to UPF format
     Using radial grid of  729 points,  4 beta functions with:
                l(1) =   0
                l(2) =   0
                l(3) =   1
                l(4) =   1
     Q(r) pseudized with  8 coefficients,  rinner =    0.800   0.800   0.800

     PseudoPot. # 4 for C  read from file:
     /storage/coda1/p-amedford6/0/shared/rich_project_chbe-medford/medford-share/data/pseudos_module/espresso/nninc/pbe/van/C.UPF
     MD5 check sum: 1a69bf6b8db32088f5b2163dbdb77a27
     Pseudo is Ultrasoft, Zval =  4.0
     Generated by new atomic code, or converted to UPF format
     Using radial grid of  721 points,  4 beta functions with:
                l(1) =   0
                l(2) =   0
                l(3) =   1
                l(4) =   1
     Q(r) pseudized with  8 coefficients,  rinner =    0.800   0.800   0.800

     PseudoPot. # 5 for H  read from file:
     /storage/coda1/p-amedford6/0/shared/rich_project_chbe-medford/medford-share/data/pseudos_module/espresso/nninc/pbe/van/H.UPF
     MD5 check sum: b5ee9d7bfd3a09ee7748110bda690ff7
     Pseudo is Ultrasoft, Zval =  1.0
     Generated by new atomic code, or converted to UPF format
     Using radial grid of  615 points,  1 beta functions with:
                l(1) =   0
     Q(r) pseudized with  8 coefficients,  rinner =    0.800

     atomic species   valence    mass     pseudopotential
        Ti1           12.00    47.86700     Ti( 1.00)
        O1             6.00    15.99900     O ( 1.00)
        N1             5.00    14.00700     N ( 1.00)
        C1             4.00    12.01100     C ( 1.00)
        H1             1.00     1.00800     H ( 1.00)

     No symmetry found

   Cartesian axes

     site n.     atom                  positions (alat units)
         1           Ti1 tau(   1) = (   0.0004258   2.9801865   6.0000000  )
         2           Ti1 tau(   2) = (   3.2906075   1.4906267   6.0002472  )
         3           O1  tau(   3) = (   0.0006271   0.0005054   7.9858123  )
         4           O1  tau(   4) = (   3.2906025   0.0005020   7.3038282  )
         5           O1  tau(   5) = (   4.5942328   1.4918067   9.2879030  )
         6           O1  tau(   6) = (   1.9868534   1.4903216   9.2879459  )
         7           Ti1 tau(   7) = (   3.2907910   2.8959150   9.1758416  )
         8           Ti1 tau(   8) = (   0.0015273   1.4827037   9.2680791  )
         9           O1  tau(   9) = (   3.3079035   5.9465650  11.3667630  )
        10           O1  tau(  10) = (   0.0116148   5.9584955  10.6183126  )
        11           O1  tau(  11) = (   1.3159687   1.4802111  12.6598234  )
        12           O1  tau(  12) = (   5.3141237   1.4785834  12.6569702  )
        13           Ti1 tau(  13) = (   0.0356438   2.9569522  12.5500042  )
        14           Ti1 tau(  14) = (   3.3321116   1.4682926  12.5176941  )
        15           O1  tau(  15) = (   0.0287262   5.9365737  14.6848071  )
        16           O1  tau(  16) = (   3.3260766   5.9477468  13.9918032  )
        17           O1  tau(  17) = (   4.5788076   1.5006004  16.1778977  )
        18           O1  tau(  18) = (   2.0653823   1.4932191  16.1519216  )
        19           Ti1 tau(  19) = (   3.3252840   2.9629899  15.7366588  )
        20           Ti1 tau(  20) = (   0.0567170   1.3280226  15.9864722  )
        21           O1  tau(  21) = (   3.2904802   0.0005063   4.7018136  )
        22           O1  tau(  22) = (   0.0395201   5.9563027  17.2132275  )
        23           O1  tau(  23) = (   1.3043587   1.4918075   6.0039043  )
        24           O1  tau(  24) = (   5.2767064   1.4903225   6.0039473  )
        25           Ti1 tau(  25) = (   0.0000382   5.9609847   6.0000000  )
        26           Ti1 tau(  26) = (   3.2902200   4.4714249   6.0002472  )
        27           O1  tau(  27) = (   0.0002396   2.9813036   7.9858123  )
        28           O1  tau(  28) = (   3.2902150   2.9813002   7.3038282  )
        29           O1  tau(  29) = (   4.5938453   4.4726049   9.2879030  )
        30           O1  tau(  30) = (   1.9864658   4.4711199   9.2879459  )
        31           Ti1 tau(  31) = (   3.2891106   5.8743827   9.1763621  )
        32           Ti1 tau(  32) = (   0.0006254   4.4649316   9.2693709  )
        33           O1  tau(  33) = (   3.3109971   2.9638951  11.3609806  )
        34           O1  tau(  34) = (   0.0092240   2.9805883  10.6323155  )
        35           O1  tau(  35) = (   1.3172493   4.4579999  12.6547637  )
        36           O1  tau(  36) = (   5.3123203   4.4599931  12.6537913  )
        37           Ti1 tau(  37) = (   0.0349292   5.9384232  12.5038109  )
        38           Ti1 tau(  38) = (   3.3308216   4.4462378  12.5132791  )
        39           O1  tau(  39) = (   0.0262156   2.9786664  14.8481040  )
        40           O1  tau(  40) = (   3.3240488   2.9673873  13.9486158  )
        41           O1  tau(  41) = (   4.5778164   4.4375445  16.1741249  )
        42           O1  tau(  42) = (   2.0647505   4.4412733  16.1578575  )
        43           Ti1 tau(  43) = (   3.3314326   5.9455663  15.7867969  )
        44           Ti1 tau(  44) = (   0.0345939   4.5236910  15.9072353  )
        45           O1  tau(  45) = (   3.2900926   2.9813045   4.7018136  )
        46           O1  tau(  46) = (   1.3039711   4.4726057   6.0039043  )
        47           O1  tau(  47) = (   5.2763189   4.4711207   6.0039473  )
        48           N1  tau(  48) = (   0.8943530   3.1395628  18.6524426  )
        49           C1  tau(  49) = (   1.8908588   3.1194352  19.2834450  )
        50           H1  tau(  50) = (   2.4245030   3.8971110  19.8100181  )
        51           N1  tau(  51) = (   6.5588057   2.9807634  17.7841789  )
        52           H1  tau(  52) = (   5.6432114   2.8891999  18.2270943  )

     number of k points=    10  Fermi-Dirac smearing, width (Ry)=  0.0073
                       cart. coord. in units 2pi/alat
        k(    1) = (   0.0000000   0.0000000   0.0000000), wk =   0.1250000
        k(    2) = (   0.0000000   0.0419351   0.0000000), wk =   0.2500000
        k(    3) = (   0.0000000  -0.0838702   0.0000000), wk =   0.1250000
        k(    4) = (   0.0379955   0.0000049   0.0000000), wk =   0.2500000
        k(    5) = (   0.0379955   0.0419400   0.0000000), wk =   0.2500000
        k(    6) = (   0.0379955  -0.0838652   0.0000000), wk =   0.2500000
        k(    7) = (   0.0379955  -0.0419301   0.0000000), wk =   0.2500000
        k(    8) = (  -0.0759910  -0.0000099   0.0000000), wk =   0.1250000
        k(    9) = (  -0.0759910   0.0419252   0.0000000), wk =   0.2500000
        k(   10) = (  -0.0759910  -0.0838800   0.0000000), wk =   0.1250000

     Initial potential from superposition of free atoms

     starting charge  377.99917, renormalised to  394.00000

     negative rho (up, down):  1.653E-02 0.000E+00

     %%%%%%%%%%%%%%%%%%%%%%%%%%%%%%%%%%%%%%%%%%%%%%%%%%%%%%%%%%%%%%%%%%%%%%%%
     %                                                                      %
     % You are using vdW-DF, which was implemented by the Thonhauser group. %
     % Please cite the following two papers that made this development      %
     % possible and the two reviews that describe the various versions:     %
     %                                                                      %
     %   T. Thonhauser et al., PRL 115, 136402 (2015).                      %
     %   T. Thonhauser et al., PRB 76, 125112 (2007).                       %
     %   K. Berland et al., Rep. Prog. Phys. 78, 066501 (2015).             %
     %   D.C. Langreth et al., J. Phys.: Condens. Matter 21, 084203 (2009). %
     %                                                                      %
     %                                                                      %
     % If you are calculating the stress with vdW-DF, please also cite:     %
     %                                                                      %
     %   R. Sabatini et al., J. Phys.: Condens. Matter 24, 424209 (2012).   %
     %                                                                      %
     %%%%%%%%%%%%%%%%%%%%%%%%%%%%%%%%%%%%%%%%%%%%%%%%%%%%%%%%%%%%%%%%%%%%%%%%

     Adding external electric field

     Computed dipole along edir(3) :
        Dipole               -8.4995 Ry au,        -21.6035 Debye
        Dipole field         -0.0160 Ry au,

        Potential amp.        1.4869 Ry
        Total length         46.3494 bohr

     Starting wfcs are  298 atomic wfcs
  @ DRIVER MODE: Message from server: STATUS
  @ DRIVER MODE: Message from server: POSDATA
  @ DRIVER MODE: Reading and sharing cell
  @ DRIVER MODE: Reading and sharing positions
  @ DRIVER MODE: Received positions

     Self-consistent Calculation

     iteration #  1     ecut=    29.40 Ry     beta= 0.05
     Davidson diagonalization with overlap
     c_bands:  1 eigenvalues not converged
     c_bands:  1 eigenvalues not converged
     c_bands:  2 eigenvalues not converged
     c_bands:  2 eigenvalues not converged
     c_bands:  2 eigenvalues not converged
     c_bands:  1 eigenvalues not converged
     ethr =  1.00E-05,  avg # of iterations = 19.0

[...]

     total energy              =   -2624.26169527 Ry
     estimated scf accuracy    <    3488.39717010 Ry

[...]

     iteration #  3     ecut=    29.40 Ry     beta= 0.05
     Davidson diagonalization with overlap
     ethr =  1.00E-02,  avg # of iterations = 15.1

[...]

     iteration # 79     ecut=    29.40 Ry     beta= 0.05
     Davidson diagonalization with overlap
     c_bands:  2 eigenvalues not converged
     ethr =  1.34E-10,  avg # of iterations = 14.3

[...]

     total energy              =   -2937.80824984 Ry
     estimated scf accuracy    <       0.00000020 Ry

     iteration # 82     ecut=    29.40 Ry     beta= 0.05
     Davidson diagonalization with overlap
     ethr =  5.00E-11,  avg # of iterations =  8.2

     negative rho (up, down):  1.627E-02 0.000E+00

     Adding external electric field

     Computed dipole along edir(3) :
        Dipole                1.3048 Ry au,          3.3165 Debye
        Dipole field          0.0025 Ry au,

        Potential amp.       -0.2283 Ry
        Total length         46.3494 bohr

     End of self-consistent calculation

          k = 0.0000 0.0000 0.0000 ( 18029 PWs)   bands (ev):

   -55.4279 -55.3919 -55.3917 -55.3576 -55.3214 -55.3054 -55.2627 -55.2407
   -55.2367 -55.2261 -55.2183 -55.2062 -55.1849 -55.1587 -54.4100 -54.3760
   -31.9969 -31.8822 -31.8217 -31.7913 -31.7475 -31.7397 -31.7300 -31.7212
   -31.6813 -31.6747 -31.6371 -31.6362 -31.6293 -31.6016 -31.5823 -31.5641
   -31.5600 -31.5536 -31.5451 -31.5394 -31.5047 -31.5037 -31.4943 -31.4856
   -31.4711 -31.4488 -31.4430 -31.4413 -31.4365 -31.4324 -31.4293 -31.4150
   -31.4071 -31.4009 -31.3950 -31.3899 -31.3692 -31.3553 -31.3537 -31.3476
   -31.3270 -31.2656 -30.8190 -30.7260 -30.7039 -30.6354 -30.5486 -30.4378
   -20.1756 -16.2429 -15.9709 -15.8284 -15.7033 -15.6185 -15.4918 -15.4606
   -15.3919 -15.3339 -15.2203 -15.1448 -15.0781 -15.0760 -15.0589 -15.0308
   -14.9796 -14.9632 -14.9607 -14.9184 -14.9162 -14.8742 -14.8547 -14.8207
   -14.8030 -14.7839 -14.7680 -14.6442 -14.5746 -14.5159 -14.1542 -12.9128
   -12.7955  -8.8061  -7.1808  -5.4118  -4.7129  -3.5879  -3.4278  -3.3417
    -3.3246  -3.3240  -3.1562  -3.0285  -2.8008  -2.7678  -2.6893  -2.6350
    -2.6169  -2.5955  -2.4180  -2.3935  -2.3334  -2.3072  -2.2687  -2.2384
    -2.2135  -2.1993  -2.1862  -2.1675  -2.1542  -1.9931  -1.8945  -1.8632
    -1.8278  -1.8138  -1.7542  -1.7217  -1.7157  -1.7134  -1.7044  -1.6613
    -1.6426  -1.5937  -1.4939  -1.4852  -1.4465  -1.3176  -1.2948  -1.1466
    -1.0607  -0.9761  -0.9688  -0.9020  -0.8982  -0.8632  -0.8119  -0.7880
    -0.7634  -0.6300  -0.5611  -0.5128  -0.4882  -0.4427  -0.3972  -0.3624
    -0.2690  -0.2037  -0.1961  -0.1842  -0.0195  -0.0062   0.0416   0.0912
     0.1147   0.1647   0.1882   0.2593   0.2931   0.3385   0.3687   0.4657
     0.5054   0.5256   0.5394   0.5591   0.5714   0.6318   0.6987   0.7172
     0.7654   0.8230   0.9334   1.1308   1.1930   1.2058   1.5222   1.5563
     1.6125   1.7977   2.1875   2.2352   3.6721   3.7436   3.8074   3.8225
     3.8312   3.9078   4.0825   4.1553   4.1710   4.1776   4.1889

[...]

          k = 0.0380-0.0419 0.0000 ( 17876 PWs)   bands (ev):

[...]

          k =-0.0760-0.0000 0.0000 ( 17886 PWs)   bands (ev):

[...]

          k =-0.0760-0.0839 0.0000 ( 17948 PWs)   bands (ev):

   -55.4110 -55.4086 -55.3746 -55.3745 -55.3181 -55.2968 -55.2712 -55.2323
   -55.2293 -55.2243 -55.2219 -55.2021 -55.2015 -55.1629 -54.3931 -54.3928
   -31.8019 -31.7990 -31.7401 -31.7207 -31.6975 -31.6972 -31.6857 -31.6668
   -31.6666 -31.6383 -31.6291 -31.6238 -31.6207 -31.5802 -31.5583 -31.5551
   -31.5550 -31.5473 -31.5468 -31.5361 -31.5236 -31.5140 -31.5038 -31.4998
   -31.4955 -31.4942 -31.4940 -31.4888 -31.4656 -31.4575 -31.4570 -31.4547
   -31.4381 -31.4357 -31.4352 -31.4262 -31.4249 -31.4201 -31.3823 -31.3815
   -31.3770 -31.3570 -30.7167 -30.7164 -30.6317 -30.6313 -30.5921 -30.5919
   -20.1744 -15.6979 -15.6782 -15.6192 -15.4392 -15.4125 -15.4022 -15.3955
   -15.3840 -15.2262 -15.2103 -15.1911 -15.1729 -15.1305 -15.1274 -15.1128
   -15.1029 -15.0016 -14.9994 -14.9973 -14.9959 -14.9334 -14.9255 -14.9117
   -14.8772 -14.8741 -14.8449 -14.7751 -14.7722 -14.6393 -14.4748 -12.8971
   -12.8970  -8.7912  -7.2005  -5.4104  -4.6973  -2.9535  -2.8831  -2.8397
    -2.6303  -2.6075  -2.5928  -2.5108  -2.4608  -2.3988  -2.3915  -2.3854
    -2.3257  -2.2909  -2.2772  -2.2586  -2.2505  -2.2341  -2.2117  -2.2010
    -2.1557  -2.1433  -2.1337  -2.0996  -2.0866  -2.0675  -2.0530  -2.0327
    -2.0088  -2.0034  -1.9853  -1.8233  -1.7738  -1.7271  -1.6856  -1.6664
    -1.6199  -1.6124  -1.5184  -1.4839  -1.4554  -1.4279  -1.4196  -1.2300
    -1.2126  -1.1595  -1.1551  -1.1319  -0.9766  -0.9553  -0.9402  -0.9226
    -0.8771  -0.7957  -0.7897  -0.7506  -0.6464  -0.6139  -0.6096  -0.5568
    -0.4382  -0.4139  -0.3915  -0.3854  -0.3793  -0.2906  -0.2717  -0.2654
    -0.2293  -0.1943  -0.1443  -0.1373  -0.0848   0.0980   0.1415   0.2081
     0.2872   0.4565   0.4950   0.5219   0.5636   0.6245   0.6979   0.7151
     0.7786   0.8725   0.8872   0.9168   0.9895   1.0425   1.0504   1.0747
     1.9705   1.9713   2.0551   2.0553   3.8432   3.8538   3.9161   3.9536
     4.0018   4.0914   4.1911   4.2075   4.2512   4.2520   4.3320

     the Fermi energy is     3.7261 ev

!    total energy              =   -2937.80825623 Ry
     estimated scf accuracy    <       0.00000006 Ry
     smearing contrib. (-TS)   =      -0.03814734 Ry
     internal energy E=F+TS    =   -2937.77010889 Ry

     The total energy is F=E-TS. E is the sum of the following terms:
     one-electron contribution =  -24092.43727708 Ry
     hartree contribution      =   12136.36319565 Ry
     xc contribution           =    -484.39005795 Ry
     ewald contribution        =    9502.69081756 Ry
     electric field correction =       0.00321293 Ry

     convergence has been achieved in  82 iterations

     Forces acting on atoms (cartesian axes, Ry/au):

     atom    1 type  1   force =     0.00007176   -0.00011357    0.09405777
     atom    2 type  1   force =    -0.00016921   -0.00024090   -0.17762219
     atom    3 type  2   force =     0.00011322   -0.00020401   -0.02137869
     atom    4 type  2   force =     0.00002475   -0.00184264    0.05754072
     atom    5 type  2   force =    -0.01068659   -0.00139258    0.00633026
     atom    6 type  2   force =     0.01275332   -0.00074517    0.00661354
     atom    7 type  1   force =     0.00010922    0.00197659   -0.01404437
     atom    8 type  1   force =    -0.00047900    0.00580970    0.00396375
     atom    9 type  2   force =     0.00036276    0.00022517   -0.00009447
     atom   10 type  2   force =    -0.00023802    0.00022134   -0.00510694
     atom   11 type  2   force =     0.00006210   -0.00013952   -0.00044698
     atom   12 type  2   force =    -0.00029982    0.00002137    0.00008575
     atom   13 type  1   force =    -0.00025619    0.00001377   -0.00028028
     atom   14 type  1   force =    -0.00008579    0.00014190   -0.00019964
     atom   15 type  2   force =    -0.00048256   -0.00035371   -0.00019444
     atom   16 type  2   force =    -0.00018428    0.00019037    0.00006820
     atom   17 type  2   force =    -0.00004371   -0.00015036   -0.00004654
     atom   18 type  2   force =    -0.00030228   -0.00012729   -0.00038904
     atom   19 type  1   force =    -0.00012897    0.00014960   -0.00056620
     atom   20 type  1   force =    -0.00033781    0.00020671    0.00110152
     atom   21 type  2   force =     0.00001783    0.00001969    0.10380036
     atom   22 type  2   force =     0.00007692    0.00011311   -0.00007424
     atom   23 type  2   force =    -0.07063123   -0.00007211   -0.02703144
     atom   24 type  2   force =     0.07052924    0.00037264   -0.02708651
     atom   25 type  1   force =     0.00001175   -0.00008979    0.09369072
     atom   26 type  1   force =    -0.00012841   -0.00015237   -0.17769627
     atom   27 type  2   force =     0.00013674   -0.00024173   -0.02037148
     atom   28 type  2   force =     0.00006679   -0.00154767    0.05702030
     atom   29 type  2   force =    -0.01102936   -0.00053832    0.00635619
     atom   30 type  2   force =     0.01295234   -0.00027425    0.00664833
     atom   31 type  1   force =     0.00030074    0.00519891   -0.01482550
     atom   32 type  1   force =    -0.00039806   -0.00655807    0.00412400
     atom   33 type  2   force =     0.00015984    0.00008483   -0.00031867
     atom   34 type  2   force =     0.00036098   -0.00102684   -0.00202128
     atom   35 type  2   force =    -0.00030016    0.00013747   -0.00021192
     atom   36 type  2   force =    -0.00004579   -0.00001174    0.00011523
     atom   37 type  1   force =    -0.00007430    0.00023681   -0.00014999
     atom   38 type  1   force =     0.00007093    0.00025802    0.00018902
     atom   39 type  2   force =    -0.00007092    0.00023255    0.00003292
     atom   40 type  2   force =    -0.00030167    0.00009690   -0.00016769
     atom   41 type  2   force =    -0.00030301   -0.00006635    0.00011493
     atom   42 type  2   force =    -0.00013762    0.00015614   -0.00011093
     atom   43 type  1   force =    -0.00012244    0.00010505   -0.00027500
     atom   44 type  1   force =    -0.00012724   -0.00081486    0.00045587
     atom   45 type  2   force =     0.00001160   -0.00000078    0.10377954
     atom   46 type  2   force =    -0.07064811   -0.00004728   -0.02704784
     atom   47 type  2   force =     0.07052617    0.00039536   -0.02708341
     atom   48 type  3   force =    -0.03711560   -0.00373902   -0.02366375
     atom   49 type  4   force =     0.02265566    0.00235883    0.01523425
     atom   50 type  5   force =     0.00142426   -0.00071557    0.00010306
     atom   51 type  3   force =     0.01071279    0.00172909    0.00510332
     atom   52 type  5   force =     0.00161644    0.00075459    0.00197616

     Total force =     0.369840     Total SCF correction =     0.000594
  @ DRIVER MODE: Message from server: STATUS
  @ DRIVER MODE: Message from server: GETFORCE
  @ DRIVER MODE: Returning v,forces,stress,ensemble

     Writing output data file ./calc.save/
  @ DRIVER MODE: Message from server: EXIT
  @ DRIVE MODE: Exiting

     General routines

     Parallel routines

   This run was terminated on:  14:14:44  23Aug2021

   JOB DONE.