     Program PWSCF v.6.7GPU starts on  3Aug2021 at  9: 3:20

     R & G space division:  proc/nbgrp/npool/nimage =      16
     Reading input from /storage/home/hcoda1/3/ntian30/research/carbon/02Aug_spin_polarized/ads_slab/CH3NN_a/02Aug_spin_polarized.log/pw.inp
Warning: card &CELL ignored
Warning: card   CELL_DYNAMICS='IPI', ignored
Warning: card / ignored

     Current dimensions of program PWSCF are:
     Max number of different atomic species (ntypx) = 10
     Max number of k-points (npk) =  40000
     Max angular momentum in pseudopotentials (lmaxx) =  3
     Presently no symmetry can be used with electric field

     Message from routine cell_base_init:
     DEPRECATED: use true lattice parameter, not A to a.u. conversion factor

     IMPORTANT: XC functional enforced from input :
     Exchange-correlation= BEEF-VDW
                           (   1   4  43  14   2   0   0)
     Any further DFT definition will be discarded
     Please, verify this is what you really want

  @ DRIVER MODE: Connecting to
 qe_1139763_2490180.sched-torque.pace.gatech.eduqsrmbfm__scratch
  using UNIX socket
  @ DRIVER MODE: Message from server: STATUS
  @ DRIVER MODE: Message from server: INIT
  @ DRIVER MODE: Receiving replica           0          -1
  @ DRIVER MODE: Receiving encoded integer          25
  @ DRIVER MODE:  SCF:  T  FORCE:  T  STRESS:  F  VC:  F  ENSEMBLE:  F
  @ DRIVER MODE:  SCF:  T  FORCE:  T  STRESS:  F  VC:  F  ENSEMBLE:  F

     Using Slab Decomposition

     bravais-lattice index     =            0
     lattice parameter (alat)  =       1.8897  a.u.
     unit-cell volume          =    6658.9804 (a.u.)^3
     number of atoms/cell      =           53
     number of atomic types    =            5
     number of electrons       =       395.00
     number of Kohn-Sham states=          207
     kinetic-energy cutoff     =      29.3995  Ry
     charge density cutoff     =     293.9946  Ry
     scf convergence threshold =      7.3E-08
     mixing beta               =       0.0500
     number of iterations used =            8  plain     mixing
     Exchange-correlation= BEEF-VDW
                           (   1   4  43  14   2   0   0)

     celldm(1)=   1.889726  celldm(2)=   0.000000  celldm(3)=   0.000000
     celldm(4)=   0.000000  celldm(5)=   0.000000  celldm(6)=   0.000000

     crystal axes: (cart. coord. in units of alat)
               a(1) = (   6.579727   0.000000   0.000000 )
               a(2) = (  -0.000775   5.961596   0.000000 )
               a(3) = (   0.000000   0.000000  25.155947 )

     reciprocal axes: (cart. coord. in units 2 pi/alat)
               b(1) = (  0.151982  0.000020  0.000000 )
               b(2) = (  0.000000  0.167740  0.000000 )
               b(3) = (  0.000000  0.000000  0.039752 )

     PseudoPot. # 1 for Ti read from file:
     /storage/coda1/p-amedford6/0/shared/rich_project_chbe-medford/medford-share/data/pseudos_module/espresso/nninc/pbe/van/Ti.UPF
     MD5 check sum: 8e4df49b7f0d34bbd5052bf3f5ea0213
     Pseudo is Ultrasoft, Zval = 12.0
     Generated by new atomic code, or converted to UPF format
     Using radial grid of  851 points,  6 beta functions with:
                l(1) =   0
                l(2) =   0
                l(3) =   1
                l(4) =   1
                l(5) =   2
                l(6) =   2
     Q(r) pseudized with  8 coefficients,  rinner =    1.000   1.000   1.000
                                                       1.000   1.000

     PseudoPot. # 2 for O  read from file:
     /storage/coda1/p-amedford6/0/shared/rich_project_chbe-medford/medford-share/data/pseudos_module/espresso/nninc/pbe/van/O.UPF
     MD5 check sum: 78c19812648e8988a0fe644b0f25305e
     Pseudo is Ultrasoft, Zval =  6.0
     Generated by new atomic code, or converted to UPF format
     Using radial grid of  737 points,  4 beta functions with:
                l(1) =   0
                l(2) =   0
                l(3) =   1
                l(4) =   1
     Q(r) pseudized with  8 coefficients,  rinner =    0.800   0.800   0.800

     PseudoPot. # 3 for N  read from file:
     /storage/coda1/p-amedford6/0/shared/rich_project_chbe-medford/medford-share/data/pseudos_module/espresso/nninc/pbe/van/N.UPF
     MD5 check sum: 90d10febe142ad51ac9d5be1deb811c4
     Pseudo is Ultrasoft, Zval =  5.0
     Generated by new atomic code, or converted to UPF format
     Using radial grid of  729 points,  4 beta functions with:
                l(1) =   0
                l(2) =   0
                l(3) =   1
                l(4) =   1
     Q(r) pseudized with  8 coefficients,  rinner =    0.800   0.800   0.800

     PseudoPot. # 4 for C  read from file:
     /storage/coda1/p-amedford6/0/shared/rich_project_chbe-medford/medford-share/data/pseudos_module/espresso/nninc/pbe/van/C.UPF
     MD5 check sum: 1a69bf6b8db32088f5b2163dbdb77a27
     Pseudo is Ultrasoft, Zval =  4.0
     Generated by new atomic code, or converted to UPF format
     Using radial grid of  721 points,  4 beta functions with:
                l(1) =   0
                l(2) =   0
                l(3) =   1
                l(4) =   1
     Q(r) pseudized with  8 coefficients,  rinner =    0.800   0.800   0.800

     PseudoPot. # 5 for H  read from file:
     /storage/coda1/p-amedford6/0/shared/rich_project_chbe-medford/medford-share/data/pseudos_module/espresso/nninc/pbe/van/H.UPF
     MD5 check sum: b5ee9d7bfd3a09ee7748110bda690ff7
     Pseudo is Ultrasoft, Zval =  1.0
     Generated by new atomic code, or converted to UPF format
     Using radial grid of  615 points,  1 beta functions with:
                l(1) =   0
     Q(r) pseudized with  8 coefficients,  rinner =    0.800

     atomic species   valence    mass     pseudopotential
        Ti1           12.00    47.86700     Ti( 1.00)
        O1             6.00    15.99900     O ( 1.00)
        N1             5.00    14.00700     N ( 1.00)
        C1             4.00    12.01100     C ( 1.00)
        H1             1.00     1.00800     H ( 1.00)

     Starting magnetic structure
     atomic species   magnetization
        Ti1          0.000
        O1           0.000
        N1           0.120
        C1           0.150
        H1           0.000

     No symmetry found

   Cartesian axes

     site n.     atom                  positions (alat units)
         1           Ti1 tau(   1) = (   0.0004258   2.9801865   6.0000000  )
         2           Ti1 tau(   2) = (   3.2906075   1.4906267   6.0002472  )
         3           O1  tau(   3) = (   0.0006271   0.0005054   7.9858123  )
         4           O1  tau(   4) = (   3.2906025   0.0005020   7.3038282  )
         5           O1  tau(   5) = (   4.5942328   1.4918067   9.2879030  )
         6           O1  tau(   6) = (   1.9868534   1.4903216   9.2879459  )
         7           Ti1 tau(   7) = (   3.2907910   2.8959150   9.1758416  )
         8           Ti1 tau(   8) = (   0.0015273   1.4827037   9.2680791  )
         9           O1  tau(   9) = (   3.2935944   5.9504131  11.3331737  )
        10           O1  tau(  10) = (   0.0116148   5.9584955  10.6183126  )
        11           O1  tau(  11) = (   1.3139784   1.4900993  12.6222913  )
        12           O1  tau(  12) = (   5.2991156   1.4868386  12.6236412  )
        13           Ti1 tau(  13) = (   6.5257823   2.9641578  12.6501544  )
        14           Ti1 tau(  14) = (   3.2087869   1.4768241  12.4812772  )
        15           O1  tau(  15) = (   0.0069532   0.0155221  14.6013729  )
        16           O1  tau(  16) = (   3.2989757   5.9447163  13.9218705  )
        17           O1  tau(  17) = (   4.5399408   1.4684032  16.0509043  )
        18           O1  tau(  18) = (   2.0534050   1.4785924  16.0487376  )
        19           Ti1 tau(  19) = (   3.3071538   2.9600697  15.7031993  )
        20           Ti1 tau(  20) = (   0.0179100   1.3679571  15.8029155  )
        21           O1  tau(  21) = (   3.2904802   0.0005063   4.7018136  )
        22           O1  tau(  22) = (   0.0297737   0.0076327  17.1327444  )
        23           O1  tau(  23) = (   1.3043587   1.4918075   6.0039043  )
        24           O1  tau(  24) = (   5.2767064   1.4903225   6.0039473  )
        25           Ti1 tau(  25) = (   0.0000382   5.9609847   6.0000000  )
        26           Ti1 tau(  26) = (   3.2902200   4.4714249   6.0002472  )
        27           O1  tau(  27) = (   0.0002396   2.9813036   7.9858123  )
        28           O1  tau(  28) = (   3.2902150   2.9813002   7.3038282  )
        29           O1  tau(  29) = (   4.5938453   4.4726049   9.2879030  )
        30           O1  tau(  30) = (   1.9864658   4.4711199   9.2879459  )
        31           Ti1 tau(  31) = (   3.2891106   5.8743827   9.1763621  )
        32           Ti1 tau(  32) = (   0.0006254   4.4649316   9.2693709  )
        33           O1  tau(  33) = (   3.2925666   2.9731923  11.3325550  )
        34           O1  tau(  34) = (   0.0092240   2.9805883  10.6323155  )
        35           O1  tau(  35) = (   1.3076969   4.4692784  12.6256357  )
        36           O1  tau(  36) = (   5.2992390   4.4652990  12.6273021  )
        37           Ti1 tau(  37) = (   6.5214685   5.9362284  12.5385417  )
        38           Ti1 tau(  38) = (   3.2054519   4.4560432  12.4842663  )
        39           O1  tau(  39) = (   0.0022752   2.9713357  14.7092999  )
        40           O1  tau(  40) = (   3.3007181   2.9764241  13.9083417  )
        41           O1  tau(  41) = (   4.5485645   4.4411382  16.0917119  )
        42           O1  tau(  42) = (   2.0537992   4.4371030  16.0853891  )
        43           Ti1 tau(  43) = (   3.2976414   5.9412218  15.7196561  )
        44           Ti1 tau(  44) = (   0.0123595   4.4653852  16.1631357  )
        45           O1  tau(  45) = (   3.2900926   2.9813045   4.7018136  )
        46           O1  tau(  46) = (   1.3039711   4.4726057   6.0039043  )
        47           O1  tau(  47) = (   5.2763189   4.4711207   6.0039473  )
        48           N1  tau(  48) = (   0.6591532   2.9890904  22.3781942  )
        49           C1  tau(  49) = (   6.5648715   3.0365617  17.8347222  )
        50           H1  tau(  50) = (   6.0219261   3.7962297  18.4082231  )
        51           H1  tau(  51) = (   6.0207922   2.1139738  18.0322221  )
        52           H1  tau(  52) = (   0.9815245   2.9432023  18.2699478  )
        53           N1  tau(  53) = (   6.1995506   3.0156182  22.7499213  )

     number of k points=    10  Fermi-Dirac smearing, width (Ry)=  0.0073
                       cart. coord. in units 2pi/alat
        k(    1) = (   0.0000000   0.0000000   0.0000000), wk =   0.0625000
        k(    2) = (   0.0000000   0.0419351   0.0000000), wk =   0.1250000
        k(    3) = (   0.0000000  -0.0838702   0.0000000), wk =   0.0625000
        k(    4) = (   0.0379955   0.0000049   0.0000000), wk =   0.1250000
        k(    5) = (   0.0379955   0.0419400   0.0000000), wk =   0.1250000
        k(    6) = (   0.0379955  -0.0838652   0.0000000), wk =   0.1250000
        k(    7) = (   0.0379955  -0.0419301   0.0000000), wk =   0.1250000
        k(    8) = (  -0.0759910  -0.0000099   0.0000000), wk =   0.0625000
[...]
     atom  17 (R=0.738)  charge=  5.0080  magn= -0.0001
     atom  18 (R=0.738)  charge=  5.0069  magn= -0.0001
     atom  19 (R=0.738)  charge=  8.0509  magn=  0.0003
     atom  20 (R=0.738)  charge=  8.0428  magn=  0.0001
     atom  21 (R=0.738)  charge=  4.9006  magn= -0.0004
     atom  22 (R=0.738)  charge=  4.9946  magn=  0.0000
     atom  23 (R=0.738)  charge=  5.0120  magn= -0.0006
     atom  24 (R=0.738)  charge=  5.0121  magn= -0.0006
     atom  25 (R=0.738)  charge=  8.0448  magn=  0.0051
     atom  26 (R=0.738)  charge=  8.0280  magn=  0.0003
     atom  27 (R=0.738)  charge=  5.0159  magn= -0.0004
     atom  28 (R=0.738)  charge=  5.0533  magn= -0.0001
     atom  29 (R=0.738)  charge=  5.0216  magn= -0.0000
     atom  30 (R=0.738)  charge=  5.0224  magn= -0.0000
     atom  31 (R=0.738)  charge=  8.0261  magn=  0.0003
     atom  32 (R=0.738)  charge=  8.0174  magn=  0.0013
     atom  33 (R=0.738)  charge=  5.0351  magn= -0.0001
     atom  34 (R=0.738)  charge=  4.9904  magn= -0.0001
     atom  35 (R=0.738)  charge=  5.0223  magn= -0.0001
     atom  36 (R=0.738)  charge=  5.0227  magn= -0.0001
     atom  37 (R=0.738)  charge=  8.0188  magn=  0.0004
     atom  38 (R=0.738)  charge=  8.0307  magn=  0.0003
     atom  39 (R=0.738)  charge=  4.9972  magn= -0.0000
     atom  40 (R=0.738)  charge=  5.0391  magn= -0.0001
     atom  41 (R=0.738)  charge=  5.0071  magn= -0.0001
     atom  42 (R=0.738)  charge=  5.0080  magn= -0.0001
     atom  43 (R=0.738)  charge=  8.0508  magn=  0.0004
     atom  44 (R=0.738)  charge=  8.0367  magn= -0.0001
     atom  45 (R=0.738)  charge=  4.9006  magn= -0.0003
     atom  46 (R=0.738)  charge=  5.0120  magn= -0.0006
     atom  47 (R=0.738)  charge=  5.0121  magn= -0.0006
     atom  48 (R=0.455)  charge=  1.6217  magn= -0.0001
     atom  49 (R=0.449)  charge=  0.8512  magn=  0.0001
     atom  50 (R=0.449)  charge=  0.4946  magn= -0.0000
     atom  51 (R=0.449)  charge=  0.5003  magn= -0.0000
     atom  52 (R=0.449)  charge=  0.5005  magn= -0.0000
     atom  53 (R=0.455)  charge=  1.6235  magn=  0.0001

     End of self-consistent calculation

 ------ SPIN UP ------------

          k = 0.0000 0.0000 0.0000 ( 18029 PWs)   bands (ev):

   -56.0244 -56.0090 -55.9903 -55.9731 -55.9025 -55.8782 -55.8569 -55.8348
   -55.8266 -55.7927 -55.7922 -55.7584 -55.5766 -55.4519 -54.9971 -54.9630
   -32.5644 -32.5036 -32.3734 -32.3559 -32.3278 -32.3250 -32.3177 -32.2824
   -32.2657 -32.2384 -32.2323 -32.2199 -32.1899 -32.1772 -32.1610 -32.1491
   -32.1335 -32.1256 -32.1080 -32.0822 -32.0819 -32.0790 -32.0391 -32.0312
   -32.0281 -32.0230 -32.0143 -32.0099 -31.9944 -31.9923 -31.9869 -31.9670
   -31.9665 -31.9605 -31.9448 -31.9300 -31.9038 -31.8609 -31.7899 -31.7347
   -31.6681 -31.5564 -31.4039 -31.3157 -31.2932 -31.2207 -31.1342 -31.0231
   -20.6295 -16.7656 -16.4945 -16.2713 -16.1728 -16.1470 -16.0300 -15.8621
   -15.7377 -15.6935 -15.5934 -15.5782 -15.5546 -15.5244 -15.5121 -15.5025
   -15.4674 -15.4602 -15.4425 -15.4306 -15.3799 -15.3621 -15.3523 -15.2408
   -15.1951 -15.1534 -15.1373 -15.0737 -15.0250 -14.6384 -13.4986 -13.3822
    -9.0859  -5.7966  -4.1379  -3.9776  -3.9255  -3.8814  -3.8508  -3.7563
    -3.7530  -3.6348  -3.5707  -3.2641  -3.2068  -3.1906  -3.1728  -3.1448
    -2.9852  -2.9191  -2.8545  -2.8319  -2.8262  -2.7975  -2.7894  -2.7758
    -2.7392  -2.7001  -2.6773  -2.6314  -2.5784  -2.5039  -2.5010  -2.4354
    -2.4127  -2.3338  -2.3141  -2.2890  -2.2606  -2.2467  -2.2373  -2.2161
    -2.1984  -2.1780  -1.9896  -1.9600  -1.8929  -1.8079  -1.8028  -1.6263
    -1.5263  -1.4970  -1.4722  -1.4454  -1.4109  -1.3955  -1.3181  -1.2071
    -1.1747  -1.1366  -1.0746  -1.0243  -0.9929  -0.8931  -0.8698  -0.7810
    -0.7796  -0.7553  -0.7011  -0.6086  -0.5045  -0.4745  -0.4570  -0.4099
    -0.3746  -0.3112  -0.2941  -0.2328  -0.1675  -0.1563  -0.0811  -0.0544
    -0.0497  -0.0253  -0.0142   0.0304   0.0447   0.1659   0.1889   0.2745
     0.3189   0.4147   0.5357   0.6400   0.6769   0.7363   0.9514   1.0258
     1.1252   1.1671   1.2179   1.5973   1.6427   3.1176   3.1974   3.2497
     3.2582   3.3516   3.3649   3.5649   3.5942   3.6241   3.6631

[...]

          k =-0.0760-0.0000 0.0000 ( 17886 PWs)   bands (ev):

[...]

 ------ SPIN DOWN ----------

[...]

          k = 0.0380-0.0419 0.0000 ( 17876 PWs)   bands (ev):

[...]

          k =-0.0760-0.0839 0.0000 ( 17948 PWs)   bands (ev):

   -55.9986 -55.9972 -55.9905 -55.9895 -55.8933 -55.8690 -55.8635 -55.8421
   -55.8082 -55.8060 -55.7766 -55.7730 -55.5744 -55.4540 -54.9794 -54.9791
   -32.3676 -32.3664 -32.3154 -32.3145 -32.2930 -32.2919 -32.2820 -32.2735
   -32.2263 -32.2115 -32.2090 -32.2042 -32.1676 -32.1511 -32.1484 -32.1376
   -32.1290 -32.1199 -32.1172 -32.1156 -32.1143 -32.1108 -32.0928 -32.0857
   -32.0609 -32.0584 -32.0538 -32.0289 -32.0091 -32.0076 -32.0061 -32.0044
   -31.9906 -31.9886 -31.9852 -31.9802 -31.9401 -31.8457 -31.7916 -31.7376
   -31.7086 -31.6069 -31.3052 -31.3051 -31.2162 -31.2160 -31.1767 -31.1767
   -20.6294 -16.2006 -16.1800 -15.9770 -15.9341 -15.9286 -15.9237 -15.8202
   -15.7168 -15.7148 -15.7131 -15.6426 -15.6178 -15.6067 -15.5578 -15.5548
   -15.5439 -15.5323 -15.5271 -15.4809 -15.4736 -15.4564 -15.4476 -15.3822
   -15.3355 -15.3309 -15.3092 -15.1201 -14.9992 -14.9214 -13.4851 -13.4847
    -9.0979  -5.7999  -3.7600  -3.7557  -3.4918  -3.4675  -3.2352  -3.1794
    -3.1670  -3.0932  -2.9507  -2.9150  -2.9087  -2.8962  -2.8625  -2.8508
    -2.8352  -2.8269  -2.8163  -2.7896  -2.7656  -2.7325  -2.7267  -2.7031
    -2.6880  -2.6704  -2.6463  -2.6369  -2.6182  -2.5927  -2.5797  -2.5582
    -2.5483  -2.5230  -2.4869  -2.3519  -2.2530  -2.2160  -2.1559  -2.1482
    -2.1264  -2.0948  -2.0809  -2.0636  -2.0594  -2.0051  -1.8469  -1.7398
    -1.7241  -1.6871  -1.6384  -1.6180  -1.5639  -1.4293  -1.4024  -1.3760
    -1.3137  -1.3016  -1.2550  -1.2326  -1.2195  -1.1386  -1.1214  -1.0604
    -0.9988  -0.9798  -0.9761  -0.9195  -0.8599  -0.7893  -0.7791  -0.7365
    -0.6990  -0.6481  -0.6291  -0.5945  -0.5254  -0.4891  -0.3694  -0.3204
    -0.0911  -0.0386   0.0275   0.0740   0.1323   0.1797   0.1838   0.2986
     0.3009   0.3157   0.4144   0.4195   0.5079   0.5252   0.5482   0.7380
     1.2655   1.3889   1.3898   1.4616   1.4621   3.3956   3.4138   3.4430
     3.4850   3.6235   3.6328   3.6505   3.6520   3.7779   3.8014

     the Fermi energy is     3.1159 ev

!    total energy              =   -2939.19648458 Ry
     estimated scf accuracy    <       0.00000007 Ry
     smearing contrib. (-TS)   =      -0.02186265 Ry
     internal energy E=F+TS    =   -2939.17462193 Ry

     The total energy is F=E-TS. E is the sum of the following terms:
     one-electron contribution =  -23189.49423935 Ry
     hartree contribution      =   11680.02997675 Ry
     xc contribution           =    -484.90613194 Ry
     ewald contribution        =    9055.19546271 Ry
     electric field correction =       0.00030990 Ry

     total magnetization       =     0.02 Bohr mag/cell
     absolute magnetization    =     0.03 Bohr mag/cell

     convergence has been achieved in  67 iterations

     Forces acting on atoms (cartesian axes, Ry/au):

     atom    1 type  1   force =    -0.00000539   -0.00018253    0.09687650
     atom    2 type  1   force =    -0.00000691   -0.00054410   -0.17527766
     atom    3 type  2   force =     0.00009766   -0.00001323   -0.02518892
     atom    4 type  2   force =    -0.00003079   -0.00141478    0.05283069
     atom    5 type  2   force =    -0.01240778   -0.00103375    0.00323819
     atom    6 type  2   force =     0.01389529   -0.00053189    0.00284202
     atom    7 type  1   force =     0.00060071    0.00045547   -0.01142773
     atom    8 type  1   force =     0.00026685    0.01542750    0.02920475
     atom    9 type  2   force =    -0.00019560    0.00078743    0.00004409
     atom   10 type  2   force =    -0.00283854    0.00140882   -0.01827899
     atom   11 type  2   force =     0.00081732    0.00002020   -0.00002682
     atom   12 type  2   force =    -0.00061985   -0.00016559   -0.00011147
     atom   13 type  1   force =     0.00057470   -0.00031440    0.00001622
     atom   14 type  1   force =    -0.00039574    0.00030003   -0.00004508
     atom   15 type  2   force =     0.00016054   -0.00013724    0.00071492
     atom   16 type  2   force =    -0.00014950    0.00008253    0.00046742
     atom   17 type  2   force =     0.00026729   -0.00061036   -0.00019660
     atom   18 type  2   force =    -0.00003187   -0.00063873    0.00008466
     atom   19 type  1   force =    -0.00008240   -0.00145556   -0.00028743
     atom   20 type  1   force =     0.00006296    0.00027307   -0.00002525
     atom   21 type  2   force =     0.00002159    0.00005958    0.10328037
     atom   22 type  2   force =    -0.00021128    0.00042139   -0.00003545
     atom   23 type  2   force =    -0.07155777   -0.00009700   -0.02771375
     atom   24 type  2   force =     0.07142624    0.00039519   -0.02777370
     atom   25 type  1   force =     0.00006524   -0.00025205    0.09668266
     atom   26 type  1   force =     0.00002661   -0.00014544   -0.17544213
     atom   27 type  2   force =     0.00013126   -0.00012061   -0.02392090
     atom   28 type  2   force =    -0.00000643   -0.00118755    0.05301448
     atom   29 type  2   force =    -0.01259897    0.00056413    0.00299819
     atom   30 type  2   force =     0.01395085    0.00102122    0.00262728
     atom   31 type  1   force =     0.00051574    0.00339514   -0.01251548
     atom   32 type  1   force =     0.00029567   -0.01699697    0.02989303
     atom   33 type  2   force =    -0.00024723   -0.00052678   -0.00051795
     atom   34 type  2   force =    -0.00265667    0.00031030   -0.02244104
     atom   35 type  2   force =    -0.00005105   -0.00015895    0.00001546
     atom   36 type  2   force =     0.00001153   -0.00001327    0.00004903
     atom   37 type  1   force =     0.00026686   -0.00038319   -0.00056788
     atom   38 type  1   force =    -0.00022680    0.00040107    0.00023478
     atom   39 type  2   force =     0.00002625   -0.00039170    0.00032126
     atom   40 type  2   force =     0.00032537   -0.00051063   -0.00001559
     atom   41 type  2   force =    -0.00036712    0.00013916    0.00003362
     atom   42 type  2   force =     0.00051289    0.00030942   -0.00009372
     atom   43 type  1   force =    -0.00022690    0.00069052    0.00003561
     atom   44 type  1   force =     0.00029930   -0.00051398   -0.00015797
     atom   45 type  2   force =     0.00002066    0.00002648    0.10327184
     atom   46 type  2   force =    -0.07155063   -0.00000361   -0.02770512
     atom   47 type  2   force =     0.07139684    0.00040146   -0.02776457
     atom   48 type  3   force =    -0.00088199    0.00017029   -0.00038504
     atom   49 type  4   force =     0.00141290   -0.00037883   -0.00120839
     atom   50 type  5   force =    -0.00052462    0.00117161    0.00026664
     atom   51 type  5   force =    -0.00007153   -0.00046080    0.00041232
     atom   52 type  5   force =    -0.00022694    0.00071231    0.00004731
     atom   53 type  3   force =     0.00072117    0.00023920   -0.00037869

     Total force =     0.368890     Total SCF correction =     0.000518
  @ DRIVER MODE: Message from server: STATUS
  @ DRIVER MODE: Message from server: GETFORCE
  @ DRIVER MODE: Returning v,forces,stress,ensemble

     Writing output data file ./calc.save/
  @ DRIVER MODE: Message from server: STATUS
  @ DRIVER MODE: Message from server: INIT
  @ DRIVER MODE: Receiving replica           0           0
  @ DRIVER MODE: Receiving encoded integer           2
  @ DRIVER MODE:  SCF:  T  FORCE:  T  STRESS:  F  VC:  F  ENSEMBLE:  F
  @ DRIVER MODE:  SCF:  F  FORCE:  F  STRESS:  F  VC:  F  ENSEMBLE:  T
  @ DRIVER MODE: Message from server: STATUS
  @ DRIVER MODE: Message from server: POSDATA
  @ DRIVER MODE: Reading and sharing positions
  @ DRIVER MODE: Received positions
     NEW-OLD atomic charge density approx. for the potential

[...]

     Adding external electric field

     Computed dipole along edir(3) :
        Dipole                0.4052 Ry au,          1.0300 Debye
        Dipole field          0.0008 Ry au,

        Potential amp.       -0.0709 Ry
        Total length         46.3494 bohr

     Generating pointlists ...
  @ DRIVER MODE: BEEF-vdw

[...]

     negative rho (up, down):  6.121E-03 6.121E-03

     negative rho (up, down):  6.121E-03 6.121E-03
 BEEFens 2000 ensemble energies
             -0.348081712084439E+02
             -0.201775422391067E+01
             -0.716874410490554E+01
              0.241568924187976E+02
             -0.119687402419819E+02
             -0.924025891834825E+01
             -0.241300252464045E+02
             -0.505083568019461E+02
             -0.215434368326159E+02
             -0.227160412845118E+02
             -0.210728942133194E+02
              0.423842382880235E+01
              0.199197872045839E+01
             -0.104598545355438E+01
              0.172620226650275E+01
              0.266155298540359E+02
             -0.102563230920603E+02
             -0.724393303947127E+01
              0.118273722516556E+02
             -0.621554603783216E+02
              0.311511159597663E+02
             -0.133963528218463E+02
             -0.242328128428297E+01
             -0.561679363808362E+01
             -0.987495900086230E+00
             -0.214849364124825E+01
              0.482282526401340E+02
             -0.150609666486715E+02
             -0.401168767421711E+01
             -0.304944765958465E+02
              0.394479758807402E+02
             -0.436766915342665E+01
             -0.214618820669263E+02
              0.112570665879468E+02
             -0.206244997851275E+01
              0.130826671025947E+02
             -0.560463445190067E+00
              0.273351907121589E+01
              0.190211949347176E+02
             -0.548696686329412E+02
              0.305700423587166E+02
              0.814073377766857E+01
             -0.627684495876363E+01
             -0.175258450155747E+02
              0.694055280989110E+01
             -0.109566730287826E+02
              0.250128194684959E+02
              0.199770715792378E+02
             -0.128898559652343E+02
             -0.164621229441029E+02
             -0.173942406473861E+02
             -0.208807021559868E+02
              0.106100609381536E+02
             -0.271855544173376E+02
              0.831160597441772E+01
              0.347232412123494E+02
              0.400393757400199E+02
              0.186575512684707E+02
              0.833311875735293E+01
              0.173938842504161E+02
[...]
             -0.409751139654626E+02
              0.279254096707012E+01
             -0.145491144343299E+01
             -0.569483144653572E+01
              0.569406463509381E-01
             -0.364932930681733E+02
             -0.706069489824345E+01
              0.495181469059393E+01
              0.743557693056967E+01
              0.273268569187196E+02
             -0.238779670405229E+02
              0.311890910546318E+02
             -0.223211827662574E+02
              0.143328171573422E+02
              0.225973955373925E+02

 BEEF-vdW xc energy contributions
           1 :   -410.781271687740
           2 :    357.728496255925
           3 :   -272.315593236245
           4 :    183.294117734754
           5 :   -113.424842669148
           6 :    71.6821443839498
           7 :   -54.2863012744338
           8 :    51.1277480949445
           9 :   -52.7414792473435
          10 :    53.9171670069863
          11 :   -53.4712566816376
          12 :    51.9392234733710
          13 :   -49.7053763968574
          14 :    46.5065850706630
          15 :   -42.0202115543814
          16 :    36.4795057676989
          17 :   -30.8088697546314
          18 :    26.1824102782884
          19 :   -23.4380576499654
          20 :    22.7040763708183
          21 :   -23.4866333462580
          22 :    25.0208512019749
          23 :   -26.6151578695718
          24 :    27.7363569374338
          25 :   -27.9999447232998
          26 :    27.1889155200587
          27 :   -25.3184394183967
          28 :    22.6475332445477
          29 :   -19.6637163221617
          30 :    16.9805705374789
          31 :   -48.3225228908490
          32 :   -32.7918639777803
  @ DRIVER MODE: Message from server: STATUS
  @ DRIVER MODE: Message from server: GETFORCE
  @ DRIVER MODE: Returning v,forces,stress,ensemble
  @ DRIVE MODE: Returning Ensemble Energies

     Writing output data file ./calc.save/
  @ DRIVER MODE: Message from server: EXIT
  @ DRIVE MODE: Exiting

     General routines

     Parallel routines

   This run was terminated on:   9:33:48   3Aug2021

   JOB DONE.