     Program PWSCF v.6.7GPU starts on 17Jul2021 at  1:23:45

     R & G space division:  proc/nbgrp/npool/nimage =      16
     Reading input from /storage/home/hcoda1/3/ntian30/research/carbon/15Jul_vib/ads_slab/CH3NNHHH_a/out_0040/pw.inp
Warning: card &CELL ignored
Warning: card   CELL_DYNAMICS='IPI', ignored
Warning: card / ignored

     Current dimensions of program PWSCF are:
     Max number of different atomic species (ntypx) = 10
     Max number of k-points (npk) =  40000
     Max angular momentum in pseudopotentials (lmaxx) =  3
     Presently no symmetry can be used with electric field

     Message from routine cell_base_init:
     DEPRECATED: use true lattice parameter, not A to a.u. conversion factor

     IMPORTANT: XC functional enforced from input :
     Exchange-correlation= BEEF-VDW
                           (   1   4  43  14   2   0   0)
     Any further DFT definition will be discarded
     Please, verify this is what you really want

  @ DRIVER MODE: Connecting to
 qe_1139763_2351652.sched-torque.pace.gatech.edu6u2pu0rk_scratch
  using UNIX socket
  @ DRIVER MODE: Message from server: STATUS
  @ DRIVER MODE: Message from server: INIT
  @ DRIVER MODE: Receiving replica           0          -1
  @ DRIVER MODE: Receiving encoded integer          25
  @ DRIVER MODE:  SCF:  T  FORCE:  T  STRESS:  F  VC:  F  ENSEMBLE:  F
  @ DRIVER MODE:  SCF:  T  FORCE:  T  STRESS:  F  VC:  F  ENSEMBLE:  F

     Using Slab Decomposition

     bravais-lattice index     =            0
     lattice parameter (alat)  =       1.8897  a.u.
     unit-cell volume          =    6658.9804 (a.u.)^3
     number of atoms/cell      =           56
     number of atomic types    =            5
     number of electrons       =       398.00
     number of Kohn-Sham states=          209
     kinetic-energy cutoff     =      29.3995  Ry
     charge density cutoff     =     293.9946  Ry
     scf convergence threshold =      7.3E-08
     mixing beta               =       0.0500
     number of iterations used =            8  plain     mixing
     Exchange-correlation= BEEF-VDW
                           (   1   4  43  14   2   0   0)

     celldm(1)=   1.889726  celldm(2)=   0.000000  celldm(3)=   0.000000
     celldm(4)=   0.000000  celldm(5)=   0.000000  celldm(6)=   0.000000

     crystal axes: (cart. coord. in units of alat)
               a(1) = (   6.579727   0.000000   0.000000 )
               a(2) = (  -0.000775   5.961596   0.000000 )
               a(3) = (   0.000000   0.000000  25.155947 )

     reciprocal axes: (cart. coord. in units 2 pi/alat)
               b(1) = (  0.151982  0.000020  0.000000 )
               b(2) = (  0.000000  0.167740  0.000000 )
               b(3) = (  0.000000  0.000000  0.039752 )

     PseudoPot. # 1 for Ti read from file:
     /storage/coda1/p-amedford6/0/shared/rich_project_chbe-medford/medford-share/data/pseudos_module/espresso/nninc/pbe/van/Ti.UPF
     MD5 check sum: 8e4df49b7f0d34bbd5052bf3f5ea0213
     Pseudo is Ultrasoft, Zval = 12.0
     Generated by new atomic code, or converted to UPF format
     Using radial grid of  851 points,  6 beta functions with:
                l(1) =   0
                l(2) =   0
                l(3) =   1
                l(4) =   1
                l(5) =   2
                l(6) =   2
     Q(r) pseudized with  8 coefficients,  rinner =    1.000   1.000   1.000
                                                       1.000   1.000

     PseudoPot. # 2 for O  read from file:
     /storage/coda1/p-amedford6/0/shared/rich_project_chbe-medford/medford-share/data/pseudos_module/espresso/nninc/pbe/van/O.UPF
     MD5 check sum: 78c19812648e8988a0fe644b0f25305e
     Pseudo is Ultrasoft, Zval =  6.0
     Generated by new atomic code, or converted to UPF format
     Using radial grid of  737 points,  4 beta functions with:
                l(1) =   0
                l(2) =   0
                l(3) =   1
                l(4) =   1
     Q(r) pseudized with  8 coefficients,  rinner =    0.800   0.800   0.800

     PseudoPot. # 3 for N  read from file:
     /storage/coda1/p-amedford6/0/shared/rich_project_chbe-medford/medford-share/data/pseudos_module/espresso/nninc/pbe/van/N.UPF
     MD5 check sum: 90d10febe142ad51ac9d5be1deb811c4
     Pseudo is Ultrasoft, Zval =  5.0
     Generated by new atomic code, or converted to UPF format
     Using radial grid of  729 points,  4 beta functions with:
                l(1) =   0
                l(2) =   0
                l(3) =   1
                l(4) =   1
     Q(r) pseudized with  8 coefficients,  rinner =    0.800   0.800   0.800

     PseudoPot. # 4 for C  read from file:
     /storage/coda1/p-amedford6/0/shared/rich_project_chbe-medford/medford-share/data/pseudos_module/espresso/nninc/pbe/van/C.UPF
     MD5 check sum: 1a69bf6b8db32088f5b2163dbdb77a27
     Pseudo is Ultrasoft, Zval =  4.0
     Generated by new atomic code, or converted to UPF format
     Using radial grid of  721 points,  4 beta functions with:
                l(1) =   0
                l(2) =   0
                l(3) =   1
                l(4) =   1
     Q(r) pseudized with  8 coefficients,  rinner =    0.800   0.800   0.800

     PseudoPot. # 5 for H  read from file:
     /storage/coda1/p-amedford6/0/shared/rich_project_chbe-medford/medford-share/data/pseudos_module/espresso/nninc/pbe/van/H.UPF
     MD5 check sum: b5ee9d7bfd3a09ee7748110bda690ff7
     Pseudo is Ultrasoft, Zval =  1.0
     Generated by new atomic code, or converted to UPF format
     Using radial grid of  615 points,  1 beta functions with:
                l(1) =   0
     Q(r) pseudized with  8 coefficients,  rinner =    0.800

     atomic species   valence    mass     pseudopotential
        Ti1           12.00    47.86700     Ti( 1.00)
        O1             6.00    15.99900     O ( 1.00)
        N1             5.00    14.00700     N ( 1.00)
        C1             4.00    12.01100     C ( 1.00)
        H1             1.00     1.00800     H ( 1.00)

     Starting magnetic structure
     atomic species   magnetization
        Ti1          0.000
        O1           0.000
        N1           0.000
        C1           0.025
        H1           0.000

     No symmetry found

   Cartesian axes

     site n.     atom                  positions (alat units)
         1           Ti1 tau(   1) = (   0.0004258   2.9801865   6.0000000  )
         2           Ti1 tau(   2) = (   3.2906075   1.4906267   6.0002472  )
         3           O1  tau(   3) = (   0.0006271   0.0005054   7.9858123  )
         4           O1  tau(   4) = (   3.2906025   0.0005020   7.3038282  )
         5           O1  tau(   5) = (   4.5942328   1.4918067   9.2879030  )
         6           O1  tau(   6) = (   1.9868534   1.4903216   9.2879459  )
         7           Ti1 tau(   7) = (   3.2907910   2.8959150   9.1758416  )
         8           Ti1 tau(   8) = (   0.0015273   1.4827037   9.2680791  )
         9           O1  tau(   9) = (   3.2969863   5.9453513  11.3493076  )
        10           O1  tau(  10) = (   0.0116148   5.9584955  10.6183126  )
        11           O1  tau(  11) = (   1.3059050   1.4736943  12.6642453  )
        12           O1  tau(  12) = (   5.3003793   1.4775083  12.6459419  )
        13           Ti1 tau(  13) = (   0.0167275   2.9625105  12.5508078  )
        14           Ti1 tau(  14) = (   3.3131340   1.4712512  12.4909780  )
        15           O1  tau(  15) = (   6.5517612   5.9325698  14.7566896  )
        16           O1  tau(  16) = (   3.3302114   5.9429442  13.9823395  )
        17           O1  tau(  17) = (   4.5243935   1.5056208  16.2316672  )
        18           O1  tau(  18) = (   2.0170937   1.4633510  16.1378485  )
        19           Ti1 tau(  19) = (   3.2500237   2.9242626  15.6920970  )
        20           Ti1 tau(  20) = (   6.5441017   1.2779805  16.1516014  )
        21           O1  tau(  21) = (   3.2904802   0.0005063   4.7018136  )
        22           O1  tau(  22) = (   6.5540411   5.9581837  17.3465722  )
        23           O1  tau(  23) = (   1.3043587   1.4918075   6.0039043  )
        24           O1  tau(  24) = (   5.2767064   1.4903225   6.0039473  )
        25           Ti1 tau(  25) = (   0.0000382   5.9609847   6.0000000  )
        26           Ti1 tau(  26) = (   3.2902200   4.4714249   6.0002472  )
        27           O1  tau(  27) = (   0.0002396   2.9813036   7.9858123  )
        28           O1  tau(  28) = (   3.2902150   2.9813002   7.3038282  )
        29           O1  tau(  29) = (   4.5938453   4.4726049   9.2879030  )
        30           O1  tau(  30) = (   1.9864658   4.4711199   9.2879459  )
        31           Ti1 tau(  31) = (   3.2891106   5.8743827   9.1763621  )
        32           Ti1 tau(  32) = (   0.0006254   4.4649316   9.2693709  )
        33           O1  tau(  33) = (   3.2962403   2.9651072  11.3429128  )
        34           O1  tau(  34) = (   0.0092240   2.9805883  10.6323155  )
        35           O1  tau(  35) = (   1.3076126   4.4641214  12.6643835  )
        36           O1  tau(  36) = (   5.2981430   4.4591552  12.6429889  )
        37           Ti1 tau(  37) = (   0.0194730   5.9489450  12.5196332  )
        38           Ti1 tau(  38) = (   3.3150505   4.4522436  12.4946186  )
        39           O1  tau(  39) = (   6.5702761   2.9869041  14.8038460  )
        40           O1  tau(  40) = (   3.3119818   2.9576719  13.9204832  )
        41           O1  tau(  41) = (   4.5223198   4.3950437  16.2490866  )
        42           O1  tau(  42) = (   2.0356696   4.4339808  16.1311045  )
        43           Ti1 tau(  43) = (   3.3057863   5.9493229  15.7677403  )
        44           Ti1 tau(  44) = (   0.0958844   4.4293496  15.8701971  )
        45           O1  tau(  45) = (   3.2900926   2.9813045   4.7018136  )
        46           O1  tau(  46) = (   1.3039711   4.4726057   6.0039043  )
        47           O1  tau(  47) = (   5.2763189   4.4711207   6.0039473  )
        48           N1  tau(  48) = (   0.0620580   3.0375546  17.6897758  )
        49           C1  tau(  49) = (   1.1116374   2.9693208  18.6984743  )
        50           H1  tau(  50) = (   1.2951007   3.9532040  19.1583453  )
        51           H1  tau(  51) = (   0.8627774   2.2426413  19.4871689  )
        52           H1  tau(  52) = (   2.0263963   2.6228967  18.2308865  )
        53           N1  tau(  53) = (   5.4279256   3.3744730  18.4033390  )
        54           H1  tau(  54) = (   5.6103604   4.1299394  19.0852601  )
        55           H1  tau(  55) = (   4.7934260   3.8076565  17.6395878  )
        56           H1  tau(  56) = (   5.0090149   2.5598412  18.8678436  )

     number of k points=    10  Fermi-Dirac smearing, width (Ry)=  0.0073
                       cart. coord. in units 2pi/alat
        k(    1) = (   0.0000000   0.0000000   0.0000000), wk =   0.0625000
        k(    2) = (   0.0000000   0.0419351   0.0000000), wk =   0.1250000
        k(    3) = (   0.0000000  -0.0838702   0.0000000), wk =   0.0625000
        k(    4) = (   0.0379955   0.0000049   0.0000000), wk =   0.1250000
        k(    5) = (   0.0379955   0.0419400   0.0000000), wk =   0.1250000
[...]
     % possible and the two reviews that describe the various versions:     %
     %                                                                      %
     %   T. Thonhauser et al., PRL 115, 136402 (2015).                      %
     %   T. Thonhauser et al., PRB 76, 125112 (2007).                       %
     %   K. Berland et al., Rep. Prog. Phys. 78, 066501 (2015).             %
     %   D.C. Langreth et al., J. Phys.: Condens. Matter 21, 084203 (2009). %
     %                                                                      %
     %                                                                      %
     % If you are calculating the stress with vdW-DF, please also cite:     %
     %                                                                      %
     %   R. Sabatini et al., J. Phys.: Condens. Matter 24, 424209 (2012).   %
     %                                                                      %
     %%%%%%%%%%%%%%%%%%%%%%%%%%%%%%%%%%%%%%%%%%%%%%%%%%%%%%%%%%%%%%%%%%%%%%%%

     Adding external electric field

     Computed dipole along edir(3) :
        Dipole              -10.5729 Ry au,        -26.8736 Debye
        Dipole field         -0.0200 Ry au,

        Potential amp.        1.8496 Ry
        Total length         46.3494 bohr

[...]

     Starting wfcs are  302 atomic wfcs
  @ DRIVER MODE: Message from server: STATUS
  @ DRIVER MODE: Message from server: POSDATA
  @ DRIVER MODE: Reading and sharing cell
  @ DRIVER MODE: Reading and sharing positions
  @ DRIVER MODE: Received positions

     Self-consistent Calculation

     iteration #  1     ecut=    29.40 Ry     beta= 0.05
     Davidson diagonalization with overlap
     c_bands:  4 eigenvalues not converged
     c_bands:  3 eigenvalues not converged
     c_bands:  1 eigenvalues not converged
     c_bands:  4 eigenvalues not converged
     c_bands:  5 eigenvalues not converged
     c_bands:  5 eigenvalues not converged
     c_bands:  1 eigenvalues not converged
     c_bands:  5 eigenvalues not converged
     c_bands:  3 eigenvalues not converged
     c_bands:  4 eigenvalues not converged
     c_bands:  2 eigenvalues not converged
     c_bands:  1 eigenvalues not converged
     c_bands:  4 eigenvalues not converged
     c_bands:  5 eigenvalues not converged
     c_bands:  4 eigenvalues not converged
     c_bands:  5 eigenvalues not converged
     c_bands:  3 eigenvalues not converged
     ethr =  1.00E-05,  avg # of iterations = 20.0

[...]

     total energy              =   -2443.29618859 Ry
     estimated scf accuracy    <    5586.06132661 Ry

     total magnetization       =     0.00 Bohr mag/cell
     absolute magnetization    =     0.01 Bohr mag/cell

     iteration #  2     ecut=    29.40 Ry     beta= 0.05
     Davidson diagonalization with overlap
     ethr =  1.00E-02,  avg # of iterations = 24.6

[...]

     iteration #137     ecut=    29.40 Ry     beta= 0.05
     Davidson diagonalization with overlap
     ethr =  2.43E-11,  avg # of iterations =  8.8

[...]

     total energy              =   -2942.82547602 Ry
     estimated scf accuracy    <       0.00000009 Ry

[...]

     iteration #140     ecut=    29.40 Ry     beta= 0.05
     Davidson diagonalization with overlap
     c_bands:  1 eigenvalues not converged
     c_bands:  1 eigenvalues not converged
     c_bands:  1 eigenvalues not converged
     c_bands:  1 eigenvalues not converged
     ethr =  2.18E-11,  avg # of iterations = 15.7

     negative rho (up, down):  7.274E-03 7.271E-03

[...]

     Adding external electric field

     Computed dipole along edir(3) :
        Dipole                1.6168 Ry au,          4.1096 Debye
        Dipole field          0.0031 Ry au,

        Potential amp.       -0.2828 Ry
        Total length         46.3494 bohr

     Magnetic moment per site  (integrated on atomic sphere of radius R)
     atom   1 (R=0.723)  charge=  7.9140  magn= -0.0045
     atom   2 (R=0.723)  charge=  7.8963  magn= -0.0002
     atom   3 (R=0.633)  charge=  4.2080  magn=  0.0006
     atom   4 (R=0.633)  charge=  4.2373  magn=  0.0001
     atom   5 (R=0.633)  charge=  4.2137  magn=  0.0002
     atom   6 (R=0.633)  charge=  4.2139  magn=  0.0002
     atom   7 (R=0.723)  charge=  7.8964  magn= -0.0004
     atom   8 (R=0.723)  charge=  7.8945  magn= -0.0040
     atom   9 (R=0.633)  charge=  4.2238  magn=  0.0000
     atom  10 (R=0.633)  charge=  4.2125  magn=  0.0003
     atom  11 (R=0.633)  charge=  4.2093  magn=  0.0001
     atom  12 (R=0.633)  charge=  4.2111  magn=  0.0001
     atom  13 (R=0.723)  charge=  7.8927  magn= -0.0009
     atom  14 (R=0.723)  charge=  7.9040  magn= -0.0002
     atom  15 (R=0.633)  charge=  4.2098  magn=  0.0001
     atom  16 (R=0.633)  charge=  4.2161  magn= -0.0001
     atom  17 (R=0.633)  charge=  4.2035  magn= -0.0001
     atom  18 (R=0.633)  charge=  4.2034  magn= -0.0001
     atom  19 (R=0.723)  charge=  7.9504  magn=  0.0020
     atom  20 (R=0.723)  charge=  7.9298  magn=  0.0004
     atom  21 (R=0.633)  charge=  4.1284  magn=  0.0001
     atom  22 (R=0.633)  charge=  4.1765  magn= -0.0001
     atom  23 (R=0.633)  charge=  4.2073  magn=  0.0004
     atom  24 (R=0.633)  charge=  4.2074  magn=  0.0004
     atom  25 (R=0.723)  charge=  7.9141  magn= -0.0045
     atom  26 (R=0.723)  charge=  7.8964  magn= -0.0002
     atom  27 (R=0.633)  charge=  4.2076  magn=  0.0006
     atom  28 (R=0.633)  charge=  4.2375  magn=  0.0001
     atom  29 (R=0.633)  charge=  4.2143  magn=  0.0002
     atom  30 (R=0.633)  charge=  4.2144  magn=  0.0002
     atom  31 (R=0.723)  charge=  7.8969  magn= -0.0004
     atom  32 (R=0.723)  charge=  7.8947  magn= -0.0040
     atom  33 (R=0.633)  charge=  4.2222  magn=  0.0000
     atom  34 (R=0.633)  charge=  4.2053  magn=  0.0003
     atom  35 (R=0.633)  charge=  4.2090  magn=  0.0001
     atom  36 (R=0.633)  charge=  4.2115  magn=  0.0001
     atom  37 (R=0.723)  charge=  7.8964  magn= -0.0009
     atom  38 (R=0.723)  charge=  7.9034  magn= -0.0002
     atom  39 (R=0.633)  charge=  4.1926  magn=  0.0000
     atom  40 (R=0.633)  charge=  4.2343  magn= -0.0001
     atom  41 (R=0.633)  charge=  4.2025  magn= -0.0001
     atom  42 (R=0.633)  charge=  4.2135  magn= -0.0001
     atom  43 (R=0.723)  charge=  7.9399  magn=  0.0025
     atom  44 (R=0.723)  charge=  7.9262  magn=  0.0002
     atom  45 (R=0.633)  charge=  4.1284  magn=  0.0001
     atom  46 (R=0.633)  charge=  4.2073  magn=  0.0004
     atom  47 (R=0.633)  charge=  4.2074  magn=  0.0004
     atom  48 (R=0.424)  charge=  1.3369  magn= -0.0000
     atom  49 (R=0.447)  charge=  0.8385  magn=  0.0000
     atom  50 (R=0.424)  charge=  0.4490  magn= -0.0000
     atom  51 (R=0.424)  charge=  0.4503  magn= -0.0000
     atom  52 (R=0.424)  charge=  0.4556  magn= -0.0000
     atom  53 (R=0.424)  charge=  1.3748  magn=  0.0000
     atom  54 (R=0.424)  charge=  0.4465  magn= -0.0000
     atom  55 (R=0.424)  charge=  0.3993  magn= -0.0000
     atom  56 (R=0.424)  charge=  0.4523  magn= -0.0000

     End of self-consistent calculation

 ------ SPIN UP ------------

          k = 0.0000 0.0000 0.0000 ( 18029 PWs)   bands (ev):

   -55.1352 -55.0986 -55.0929 -55.0588 -55.0172 -55.0042 -54.9791 -54.9364
   -54.9207 -54.9172 -54.9015 -54.8876 -54.8578 -54.7872 -54.1090 -54.0749
   -31.7152 -31.5847 -31.5038 -31.4727 -31.4271 -31.4255 -31.4232 -31.3955
   -31.3918 -31.3819 -31.3603 -31.3446 -31.3370 -31.3127 -31.2951 -31.2697
   -31.2523 -31.2451 -31.2380 -31.2358 -31.2062 -31.2011 -31.1944 -31.1680
   -31.1490 -31.1463 -31.1396 -31.1329 -31.1303 -31.1208 -31.1170 -31.1137
   -31.0944 -31.0865 -31.0826 -31.0523 -31.0492 -31.0414 -31.0296 -31.0295
   -31.0185 -30.9765 -30.5174 -30.4253 -30.4031 -30.3338 -30.2471 -30.1362
   -18.9176 -15.9996 -15.7450 -15.6096 -15.3749 -15.3229 -15.2663 -15.0607
   -15.0575 -14.9863 -14.9713 -14.9224 -14.9027 -14.8353 -14.7509 -14.7313
   -14.6623 -14.6605 -14.6309 -14.6208 -14.6186 -14.5560 -14.5465 -14.5167
   -14.5038 -14.4787 -14.3603 -14.2760 -14.2175 -13.9687 -13.5861 -12.6118
   -12.4947  -9.7379  -7.7139  -7.1866  -5.4558  -3.8163  -3.3369  -3.2741
    -3.1629  -3.1330  -3.0560  -3.0264  -2.8414  -2.8210  -2.4791  -2.4437
    -2.3933  -2.3752  -2.3545  -2.3364  -2.1692  -2.1428  -2.0699  -2.0370
    -2.0184  -1.9777  -1.9610  -1.9505  -1.9170  -1.9119  -1.9024  -1.6952
    -1.6386  -1.5435  -1.5213  -1.4998  -1.4622  -1.4268  -1.4173  -1.4142
    -1.4086  -1.3951  -1.3828  -1.3022  -1.2453  -1.1631  -1.1543  -1.1186
    -1.0145  -0.9689  -0.7670  -0.7529  -0.7071  -0.6649  -0.6021  -0.5818
    -0.5141  -0.4835  -0.4648  -0.3432  -0.3144  -0.2748  -0.2466  -0.1789
    -0.1489  -0.1031  -0.0202   0.0522   0.0878   0.1060   0.1651   0.2951
     0.3064   0.3356   0.3968   0.4606   0.5010   0.5211   0.5395   0.5763
     0.6265   0.7522   0.7967   0.8167   0.8209   0.8547   0.8773   0.9286
     0.9531   1.0137   1.0192   1.1368   1.2062   1.4335   1.4679   1.4935
     1.8259   1.8492   1.9134   2.0995   2.4874   2.5348   3.9728   4.0312
     4.0846   4.1077   4.1247   4.2129   4.2449   4.4322   4.4597   4.4648
     4.4673

[...]

          k =-0.0760-0.0000 0.0000 ( 17886 PWs)   bands (ev):

[...]

 ------ SPIN DOWN ----------

[...]

          k = 0.0380-0.0419 0.0000 ( 17876 PWs)   bands (ev):

[...]

          k =-0.0760-0.0839 0.0000 ( 17948 PWs)   bands (ev):

   -55.1203 -55.1144 -55.0837 -55.0837 -55.0082 -54.9973 -54.9912 -54.9212
   -54.9178 -54.9173 -54.9129 -54.9115 -54.8538 -54.7904 -54.0923 -54.0921
   -31.5191 -31.5161 -31.4386 -31.4169 -31.4032 -31.4031 -31.3768 -31.3766
   -31.3469 -31.3408 -31.3378 -31.3375 -31.3044 -31.2664 -31.2624 -31.2578
   -31.2565 -31.2526 -31.2523 -31.2462 -31.2116 -31.2110 -31.2090 -31.2046
   -31.2036 -31.2035 -31.1840 -31.1830 -31.1558 -31.1512 -31.1358 -31.1318
   -31.1308 -31.1302 -31.1278 -31.1180 -31.0956 -31.0943 -31.0906 -31.0662
   -31.0409 -31.0231 -30.4162 -30.4161 -30.3302 -30.3300 -30.2908 -30.2908
   -18.9127 -15.5065 -15.3968 -15.2891 -15.2235 -15.1809 -15.1292 -15.1118
   -15.1010 -15.0563 -15.0266 -14.9576 -14.8928 -14.8398 -14.8388 -14.8044
   -14.7259 -14.7120 -14.7048 -14.6944 -14.6376 -14.6309 -14.5994 -14.5784
   -14.5753 -14.5457 -14.4718 -14.4694 -14.3837 -14.1782 -13.6221 -12.5962
   -12.5960  -9.7062  -7.7116  -7.1318  -5.4591  -3.8381  -3.4292  -2.7551
    -2.6441  -2.4341  -2.4077  -2.3477  -2.3282  -2.2446  -2.1822  -2.1604
    -2.1368  -2.1028  -2.0998  -2.0761  -2.0540  -2.0003  -1.9718  -1.9600
    -1.9542  -1.9393  -1.9266  -1.9066  -1.8501  -1.8400  -1.8326  -1.7900
    -1.7790  -1.7473  -1.7411  -1.7022  -1.6854  -1.6106  -1.5169  -1.4924
    -1.4334  -1.3327  -1.3179  -1.3122  -1.2197  -1.2108  -1.1814  -1.1504
    -1.0959  -0.9966  -0.9418  -0.8651  -0.8618  -0.8326  -0.7448  -0.6814
    -0.6479  -0.6381  -0.5994  -0.5417  -0.5194  -0.4848  -0.4021  -0.3606
    -0.3337  -0.2997  -0.2048  -0.1431  -0.1201  -0.0882  -0.0848   0.0042
     0.0373   0.0741   0.0949   0.1331   0.1599   0.2244   0.2465   0.3569
     0.4249   0.4568   0.5761   0.6000   0.6636   0.7960   0.8677   0.9082
     0.9602   1.0186   1.0462   1.1771   1.1843   1.2028   1.3029   1.3432
     1.3501   1.3631   2.2723   2.2734   2.3548   2.3550   4.1024   4.1886
     4.2305   4.2679   4.3754   4.4835   4.5020   4.5454   4.5459   4.6252
     4.6428

     the Fermi energy is     4.0214 ev

!    total energy              =   -2942.82547617 Ry
     estimated scf accuracy    <       0.00000007 Ry
     smearing contrib. (-TS)   =      -0.03684365 Ry
     internal energy E=F+TS    =   -2942.78863253 Ry

     The total energy is F=E-TS. E is the sum of the following terms:
     one-electron contribution =  -23972.15949289 Ry
     hartree contribution      =   12081.64556824 Ry
     xc contribution           =    -487.76722149 Ry
     ewald contribution        =    9435.48758038 Ry
     electric field correction =       0.00493324 Ry

     total magnetization       =    -0.02 Bohr mag/cell
     absolute magnetization    =     0.05 Bohr mag/cell

     convergence has been achieved in 140 iterations

     Forces acting on atoms (cartesian axes, Ry/au):

     atom    1 type  1   force =     0.00015046   -0.00022240    0.09432171
     atom    2 type  1   force =    -0.00009482   -0.00033142   -0.17738410
     atom    3 type  2   force =     0.00005669   -0.00016515   -0.02136572
     atom    4 type  2   force =    -0.00001506   -0.00172664    0.05658482
     atom    5 type  2   force =    -0.01055094   -0.00127677    0.00623692
     atom    6 type  2   force =     0.01221848   -0.00074190    0.00570967
     atom    7 type  1   force =    -0.00032718    0.00171865   -0.01618065
     atom    8 type  1   force =    -0.00011284    0.00438170    0.00561115
     atom    9 type  2   force =     0.00001013   -0.00004459   -0.00005063
     atom   10 type  2   force =    -0.00074242   -0.00022225   -0.00044679
     atom   11 type  2   force =     0.00034548    0.00012543   -0.00019194
     atom   12 type  2   force =    -0.00051716    0.00000336   -0.00012784
     atom   13 type  1   force =     0.00004215   -0.00035533    0.00013234
     atom   14 type  1   force =     0.00055672    0.00011995   -0.00032008
     atom   15 type  2   force =    -0.00039932    0.00027247   -0.00016832
     atom   16 type  2   force =    -0.00033163    0.00019818   -0.00005125
     atom   17 type  2   force =    -0.00017636    0.00008015    0.00042599
     atom   18 type  2   force =     0.00008589    0.00033209   -0.00008722
     atom   19 type  1   force =     0.00017974    0.00007906    0.00005821
     atom   20 type  1   force =     0.00009378    0.00055542   -0.00054239
     atom   21 type  2   force =     0.00003689    0.00004154    0.10362425
     atom   22 type  2   force =    -0.00005691   -0.00085361   -0.00021770
     atom   23 type  2   force =    -0.07081418   -0.00010369   -0.02717363
     atom   24 type  2   force =     0.07067912    0.00034103   -0.02720473
     atom   25 type  1   force =    -0.00009640   -0.00019539    0.09374430
     atom   26 type  1   force =    -0.00015125   -0.00032129   -0.17730978
     atom   27 type  2   force =     0.00008778   -0.00035293   -0.02046711
     atom   28 type  2   force =     0.00003078   -0.00144118    0.05589175
     atom   29 type  2   force =    -0.01091277   -0.00073695    0.00608746
     atom   30 type  2   force =     0.01246450   -0.00029139    0.00556544
     atom   31 type  1   force =    -0.00017581    0.00462278   -0.01720861
     atom   32 type  1   force =    -0.00004000   -0.00479584    0.00558873
     atom   33 type  2   force =     0.00005639    0.00012298    0.00026705
     atom   34 type  2   force =     0.00005903   -0.00085360   -0.00297718
     atom   35 type  2   force =     0.00023554    0.00002998    0.00007743
     atom   36 type  2   force =    -0.00042969    0.00015472   -0.00006941
     atom   37 type  1   force =    -0.00012860   -0.00010511   -0.00018479
     atom   38 type  1   force =     0.00043243   -0.00028834    0.00037741
     atom   39 type  2   force =    -0.00045164    0.00008630    0.00074219
     atom   40 type  2   force =    -0.00011832    0.00018315   -0.00021438
     atom   41 type  2   force =     0.00005467    0.00038471    0.00011218
     atom   42 type  2   force =    -0.00006673    0.00021994   -0.00004998
     atom   43 type  1   force =    -0.00041395    0.00054325   -0.00007295
     atom   44 type  1   force =    -0.00019373    0.00028033   -0.00021823
     atom   45 type  2   force =     0.00002585    0.00001020    0.10362707
     atom   46 type  2   force =    -0.07081703   -0.00003781   -0.02717817
     atom   47 type  2   force =     0.07068204    0.00038214   -0.02718324
     atom   48 type  3   force =    -0.00006581   -0.00059818    0.00066551
     atom   49 type  4   force =    -0.00029752    0.00001341   -0.00059384
     atom   50 type  5   force =    -0.00001066    0.00003704    0.00003555
     atom   51 type  5   force =    -0.00025301   -0.00025864    0.00000771
     atom   52 type  5   force =    -0.00033096   -0.00001160    0.00011956
     atom   53 type  3   force =     0.00235887    0.00882143    0.00625659
     atom   54 type  5   force =    -0.00171555   -0.00831173   -0.00621816
     atom   55 type  5   force =    -0.00008028   -0.00033643   -0.00095356
     atom   56 type  5   force =    -0.00005492    0.00083880    0.00054141

     Total force =     0.365878     Total SCF correction =     0.000602
  @ DRIVER MODE: Message from server: STATUS
  @ DRIVER MODE: Message from server: GETFORCE
  @ DRIVER MODE: Returning v,forces,stress,ensemble

     Writing output data file ./calc.save/
  @ DRIVER MODE: Message from server: EXIT
  @ DRIVE MODE: Exiting

     General routines

     Parallel routines

   This run was terminated on:   2:15:41  17Jul2021

   JOB DONE.