     Program PWSCF v.6.7GPU starts on 24Aug2021 at  2:44:30

     R & G space division:  proc/nbgrp/npool/nimage =       6
     Reading input from /storage/home/hcoda1/3/ntian30/research/carbon/CH2_vib/ads_slab/CH2N2H_a/out_0027/pw.inp
Warning: card &CELL ignored
Warning: card   CELL_DYNAMICS='IPI', ignored
Warning: card / ignored

     Current dimensions of program PWSCF are:
     Max number of different atomic species (ntypx) = 10
     Max number of k-points (npk) =  40000
     Max angular momentum in pseudopotentials (lmaxx) =  3
     Presently no symmetry can be used with electric field

     Message from routine cell_base_init:
     DEPRECATED: use true lattice parameter, not A to a.u. conversion factor

     IMPORTANT: XC functional enforced from input :
     Exchange-correlation= BEEF-VDW
                           (   1   4  43  14   2   0   0)
     Any further DFT definition will be discarded
     Please, verify this is what you really want

  @ DRIVER MODE: Connecting to
 qe_1139763_2632802.sched-torque.pace.gatech.edu3zjwkrwl_scratch
  using UNIX socket
  @ DRIVER MODE: Message from server: STATUS
  @ DRIVER MODE: Message from server: INIT
  @ DRIVER MODE: Receiving replica           0          -1
  @ DRIVER MODE: Receiving encoded integer          25
  @ DRIVER MODE:  SCF:  T  FORCE:  T  STRESS:  F  VC:  F  ENSEMBLE:  F
  @ DRIVER MODE:  SCF:  T  FORCE:  T  STRESS:  F  VC:  F  ENSEMBLE:  F

     Using Slab Decomposition

     bravais-lattice index     =            0
     lattice parameter (alat)  =       1.8897  a.u.
     unit-cell volume          =    6658.9804 (a.u.)^3
     number of atoms/cell      =           53
     number of atomic types    =            5
     number of electrons       =       395.00
     number of Kohn-Sham states=          207
     kinetic-energy cutoff     =      29.3995  Ry
     charge density cutoff     =     293.9946  Ry
     scf convergence threshold =      7.3E-08
     mixing beta               =       0.0500
     number of iterations used =            8  plain     mixing
     Exchange-correlation= BEEF-VDW
                           (   1   4  43  14   2   0   0)

     celldm(1)=   1.889726  celldm(2)=   0.000000  celldm(3)=   0.000000
     celldm(4)=   0.000000  celldm(5)=   0.000000  celldm(6)=   0.000000

     crystal axes: (cart. coord. in units of alat)
               a(1) = (   6.579727   0.000000   0.000000 )
               a(2) = (  -0.000775   5.961596   0.000000 )
               a(3) = (   0.000000   0.000000  25.155947 )

     reciprocal axes: (cart. coord. in units 2 pi/alat)
               b(1) = (  0.151982  0.000020  0.000000 )
               b(2) = (  0.000000  0.167740  0.000000 )
               b(3) = (  0.000000  0.000000  0.039752 )

     PseudoPot. # 1 for Ti read from file:
     /storage/coda1/p-amedford6/0/shared/rich_project_chbe-medford/medford-share/data/pseudos_module/espresso/nninc/pbe/van/Ti.UPF
     MD5 check sum: 8e4df49b7f0d34bbd5052bf3f5ea0213
     Pseudo is Ultrasoft, Zval = 12.0
     Generated by new atomic code, or converted to UPF format
     Using radial grid of  851 points,  6 beta functions with:
                l(1) =   0
                l(2) =   0
                l(3) =   1
                l(4) =   1
                l(5) =   2
                l(6) =   2
     Q(r) pseudized with  8 coefficients,  rinner =    1.000   1.000   1.000
                                                       1.000   1.000

     PseudoPot. # 2 for O  read from file:
     /storage/coda1/p-amedford6/0/shared/rich_project_chbe-medford/medford-share/data/pseudos_module/espresso/nninc/pbe/van/O.UPF
     MD5 check sum: 78c19812648e8988a0fe644b0f25305e
     Pseudo is Ultrasoft, Zval =  6.0
     Generated by new atomic code, or converted to UPF format
     Using radial grid of  737 points,  4 beta functions with:
                l(1) =   0
                l(2) =   0
                l(3) =   1
                l(4) =   1
     Q(r) pseudized with  8 coefficients,  rinner =    0.800   0.800   0.800

     PseudoPot. # 3 for N  read from file:
     /storage/coda1/p-amedford6/0/shared/rich_project_chbe-medford/medford-share/data/pseudos_module/espresso/nninc/pbe/van/N.UPF
     MD5 check sum: 90d10febe142ad51ac9d5be1deb811c4
     Pseudo is Ultrasoft, Zval =  5.0
     Generated by new atomic code, or converted to UPF format
     Using radial grid of  729 points,  4 beta functions with:
                l(1) =   0
                l(2) =   0
                l(3) =   1
                l(4) =   1
     Q(r) pseudized with  8 coefficients,  rinner =    0.800   0.800   0.800

     PseudoPot. # 4 for C  read from file:
     /storage/coda1/p-amedford6/0/shared/rich_project_chbe-medford/medford-share/data/pseudos_module/espresso/nninc/pbe/van/C.UPF
     MD5 check sum: 1a69bf6b8db32088f5b2163dbdb77a27
     Pseudo is Ultrasoft, Zval =  4.0
     Generated by new atomic code, or converted to UPF format
     Using radial grid of  721 points,  4 beta functions with:
                l(1) =   0
                l(2) =   0
                l(3) =   1
                l(4) =   1
     Q(r) pseudized with  8 coefficients,  rinner =    0.800   0.800   0.800

     PseudoPot. # 5 for H  read from file:
     /storage/coda1/p-amedford6/0/shared/rich_project_chbe-medford/medford-share/data/pseudos_module/espresso/nninc/pbe/van/H.UPF
     MD5 check sum: b5ee9d7bfd3a09ee7748110bda690ff7
     Pseudo is Ultrasoft, Zval =  1.0
     Generated by new atomic code, or converted to UPF format
     Using radial grid of  615 points,  1 beta functions with:
                l(1) =   0
     Q(r) pseudized with  8 coefficients,  rinner =    0.800

     atomic species   valence    mass     pseudopotential
        Ti1           12.00    47.86700     Ti( 1.00)
        O1             6.00    15.99900     O ( 1.00)
        N1             5.00    14.00700     N ( 1.00)
        C1             4.00    12.01100     C ( 1.00)
        H1             1.00     1.00800     H ( 1.00)

     No symmetry found

   Cartesian axes

     site n.     atom                  positions (alat units)
         1           Ti1 tau(   1) = (   0.0004258   2.9801865   6.0000000  )
         2           Ti1 tau(   2) = (   3.2906075   1.4906267   6.0002472  )
         3           O1  tau(   3) = (   0.0006271   0.0005054   7.9858123  )
         4           O1  tau(   4) = (   3.2906025   0.0005020   7.3038282  )
         5           O1  tau(   5) = (   4.5942328   1.4918067   9.2879030  )
         6           O1  tau(   6) = (   1.9868534   1.4903216   9.2879459  )
         7           Ti1 tau(   7) = (   3.2907910   2.8959150   9.1758416  )
         8           Ti1 tau(   8) = (   0.0015273   1.4827037   9.2680791  )
         9           O1  tau(   9) = (   3.3007851   0.0027079  11.3193151  )
        10           O1  tau(  10) = (   0.0116148   5.9584955  10.6183126  )
        11           O1  tau(  11) = (   1.3147357   1.5019762  12.6210215  )
        12           O1  tau(  12) = (   5.3120411   1.4917641  12.6342566  )
        13           Ti1 tau(  13) = (   6.5359925   2.9538565  12.6086018  )
        14           Ti1 tau(  14) = (   3.2189980   1.4905645  12.4770757  )
        15           O1  tau(  15) = (   0.0426301   5.9606301  14.6312846  )
        16           O1  tau(  16) = (   3.3149351   0.0098317  13.8848037  )
        17           O1  tau(  17) = (   4.5523768   1.5206755  16.0744300  )
        18           O1  tau(  18) = (   2.0715852   1.4807026  15.9918588  )
        19           Ti1 tau(  19) = (   3.2935730   2.9941335  15.6827836  )
        20           Ti1 tau(  20) = (   0.0200723   1.3023755  15.9747514  )
        21           O1  tau(  21) = (   3.2904802   0.0005063   4.7018136  )
        22           O1  tau(  22) = (   6.5179923   0.0002674  17.1556216  )
        23           O1  tau(  23) = (   1.3043587   1.4918075   6.0039043  )
        24           O1  tau(  24) = (   5.2767064   1.4903225   6.0039473  )
        25           Ti1 tau(  25) = (   0.0000382   5.9609847   6.0000000  )
        26           Ti1 tau(  26) = (   3.2902200   4.4714249   6.0002472  )
        27           O1  tau(  27) = (   0.0002396   2.9813036   7.9858123  )
        28           O1  tau(  28) = (   3.2902150   2.9813002   7.3038282  )
        29           O1  tau(  29) = (   4.5938453   4.4726049   9.2879030  )
        30           O1  tau(  30) = (   1.9864658   4.4711199   9.2879459  )
        31           Ti1 tau(  31) = (   3.2891106   5.8743827   9.1763621  )
        32           Ti1 tau(  32) = (   0.0006254   4.4649316   9.2693709  )
        33           O1  tau(  33) = (   3.3053585   2.9833221  11.3185053  )
        34           O1  tau(  34) = (   0.0092240   2.9805883  10.6323155  )
        35           O1  tau(  35) = (   1.3157767   4.4721532  12.6203727  )
        36           O1  tau(  36) = (   5.3104355   4.4689601  12.6331991  )
        37           Ti1 tau(  37) = (   6.5385524   5.9338372  12.5465384  )
        38           Ti1 tau(  38) = (   3.2200853   4.4710709  12.4725482  )
        39           O1  tau(  39) = (   0.0068575   2.9964749  14.7765288  )
        40           O1  tau(  40) = (   3.3021705   2.9848394  13.8818356  )
        41           O1  tau(  41) = (   4.5334443   4.4765196  15.9883447  )
        42           O1  tau(  42) = (   2.0816803   4.4801587  16.0471567  )
        43           Ti1 tau(  43) = (   3.3155128   0.0116264  15.6901768  )
        44           Ti1 tau(  44) = (   6.5575601   4.4671909  15.9479714  )
        45           O1  tau(  45) = (   3.2900926   2.9813045   4.7018136  )
        46           O1  tau(  46) = (   1.3039711   4.4726057   6.0039043  )
        47           O1  tau(  47) = (   5.2763189   4.4711207   6.0039473  )
        48           N1  tau(  48) = (   0.4270260   2.3853988  17.9668900  )
        49           C1  tau(  49) = (   0.9469377   1.9340014  19.0583692  )
        50           H1  tau(  50) = (   1.0789317   2.5769861  19.9249762  )
        51           H1  tau(  51) = (   1.2326487   0.8959138  19.0941702  )
        52           N1  tau(  52) = (   0.0025679   3.6132397  17.7996529  )
        53           H1  tau(  53) = (   0.1020252   4.2324666  18.6151602  )

     number of k points=    10  Fermi-Dirac smearing, width (Ry)=  0.0073
                       cart. coord. in units 2pi/alat
        k(    1) = (   0.0000000   0.0000000   0.0000000), wk =   0.1250000
        k(    2) = (   0.0000000   0.0419351   0.0000000), wk =   0.2500000
        k(    3) = (   0.0000000  -0.0838702   0.0000000), wk =   0.1250000
        k(    4) = (   0.0379955   0.0000049   0.0000000), wk =   0.2500000
        k(    5) = (   0.0379955   0.0419400   0.0000000), wk =   0.2500000
        k(    6) = (   0.0379955  -0.0838652   0.0000000), wk =   0.2500000
        k(    7) = (   0.0379955  -0.0419301   0.0000000), wk =   0.2500000
        k(    8) = (  -0.0759910  -0.0000099   0.0000000), wk =   0.1250000
        k(    9) = (  -0.0759910   0.0419252   0.0000000), wk =   0.2500000
        k(   10) = (  -0.0759910  -0.0838800   0.0000000), wk =   0.1250000

     Initial potential from superposition of free atoms

     starting charge  378.99916, renormalised to  395.00000

     negative rho (up, down):  1.649E-02 0.000E+00

     %%%%%%%%%%%%%%%%%%%%%%%%%%%%%%%%%%%%%%%%%%%%%%%%%%%%%%%%%%%%%%%%%%%%%%%%
     %                                                                      %
     % You are using vdW-DF, which was implemented by the Thonhauser group. %
     % Please cite the following two papers that made this development      %
     % possible and the two reviews that describe the various versions:     %
     %                                                                      %
     %   T. Thonhauser et al., PRL 115, 136402 (2015).                      %
     %   T. Thonhauser et al., PRB 76, 125112 (2007).                       %
     %   K. Berland et al., Rep. Prog. Phys. 78, 066501 (2015).             %
     %   D.C. Langreth et al., J. Phys.: Condens. Matter 21, 084203 (2009). %
     %                                                                      %
     %                                                                      %
     % If you are calculating the stress with vdW-DF, please also cite:     %
     %                                                                      %
     %   R. Sabatini et al., J. Phys.: Condens. Matter 24, 424209 (2012).   %
     %                                                                      %
     %%%%%%%%%%%%%%%%%%%%%%%%%%%%%%%%%%%%%%%%%%%%%%%%%%%%%%%%%%%%%%%%%%%%%%%%

     Adding external electric field

     Computed dipole along edir(3) :
        Dipole               -8.3970 Ry au,        -21.3430 Debye
        Dipole field         -0.0158 Ry au,

        Potential amp.        1.4689 Ry
        Total length         46.3494 bohr

     Starting wfcs are  299 atomic wfcs
  @ DRIVER MODE: Message from server: STATUS
  @ DRIVER MODE: Message from server: POSDATA
  @ DRIVER MODE: Reading and sharing cell
  @ DRIVER MODE: Reading and sharing positions
  @ DRIVER MODE: Received positions

     Self-consistent Calculation

     iteration #  1     ecut=    29.40 Ry     beta= 0.05
     Davidson diagonalization with overlap
     c_bands:  2 eigenvalues not converged
     c_bands:  1 eigenvalues not converged
     c_bands:  2 eigenvalues not converged
     c_bands:  3 eigenvalues not converged
     c_bands:  3 eigenvalues not converged
     c_bands:  2 eigenvalues not converged
     c_bands:  1 eigenvalues not converged
     ethr =  1.00E-05,  avg # of iterations = 19.3

[...]

     total energy              =   -2613.93474863 Ry
     estimated scf accuracy    <    3601.37838588 Ry

[...]

     iteration #  3     ecut=    29.40 Ry     beta= 0.05
     Davidson diagonalization with overlap
     ethr =  1.00E-02,  avg # of iterations = 14.2

[...]

     iteration # 42     ecut=    29.40 Ry     beta= 0.05
     Davidson diagonalization with overlap
     c_bands:  1 eigenvalues not converged
     ethr =  3.12E-07,  avg # of iterations = 13.4

[...]

     total energy              =   -2939.13518294 Ry
     estimated scf accuracy    <       0.00000010 Ry

     iteration # 63     ecut=    29.40 Ry     beta= 0.05
     Davidson diagonalization with overlap
     ethr =  2.42E-11,  avg # of iterations =  5.3

     negative rho (up, down):  1.680E-02 0.000E+00

     Adding external electric field

     Computed dipole along edir(3) :
        Dipole                0.7777 Ry au,          1.9767 Debye
        Dipole field          0.0015 Ry au,

        Potential amp.       -0.1360 Ry
        Total length         46.3494 bohr

     End of self-consistent calculation

          k = 0.0000 0.0000 0.0000 ( 18029 PWs)   bands (ev):

   -55.8588 -55.8576 -55.8247 -55.8216 -55.7520 -55.7089 -55.6711 -55.6695
   -55.6362 -55.6355 -55.6308 -55.5971 -55.1970 -55.1510 -54.8345 -54.8005
   -32.4117 -32.3417 -32.2477 -32.1694 -32.1554 -32.1509 -32.1372 -32.1226
   -32.1018 -32.0886 -32.0358 -32.0177 -32.0111 -32.0094 -31.9992 -31.9958
   -31.9636 -31.9517 -31.9457 -31.9431 -31.9161 -31.9137 -31.8979 -31.8957
   -31.8650 -31.8607 -31.8585 -31.8574 -31.8323 -31.8172 -31.8097 -31.7995
   -31.7880 -31.7853 -31.7776 -31.7442 -31.7377 -31.4610 -31.4244 -31.3963
   -31.3439 -31.3094 -31.2414 -31.1537 -31.1313 -31.0584 -30.9719 -30.8606
   -18.0068 -16.6182 -16.3380 -16.0829 -16.0076 -16.0036 -15.8700 -15.7071
   -15.5944 -15.5274 -15.4472 -15.4174 -15.3953 -15.3599 -15.3536 -15.3158
   -15.3068 -15.2814 -15.2779 -15.2157 -15.2122 -15.2049 -15.1950 -15.1109
   -15.0532 -15.0017 -14.9940 -14.9206 -14.8868 -14.3586 -13.3364 -13.2200
   -12.1483  -7.8652  -5.3649  -4.5407  -3.9949  -3.8356  -3.7658  -3.7314
    -3.6546  -3.4951  -3.4163  -3.1386  -3.0900  -3.0302  -3.0205  -2.9840
    -2.9535  -2.7895  -2.7110  -2.6836  -2.6679  -2.6453  -2.6302  -2.6183
    -2.6047  -2.5829  -2.5038  -2.4207  -2.3766  -2.3002  -2.2862  -2.2521
    -2.1710  -2.1707  -2.1292  -2.1102  -2.0925  -2.0759  -2.0672  -2.0523
    -1.9099  -1.8522  -1.8416  -1.6603  -1.6419  -1.5940  -1.4685  -1.4617
    -1.3446  -1.3295  -1.2893  -1.2516  -1.1785  -1.1572  -1.0457  -1.0044
    -0.9431  -0.8947  -0.8808  -0.8049  -0.7399  -0.7004  -0.6866  -0.6235
    -0.6165  -0.6037  -0.4707  -0.3912  -0.3391  -0.2830  -0.2608  -0.2052
    -0.1650  -0.1220  -0.0327  -0.0075   0.0044   0.0627   0.0842   0.1097
     0.1211   0.1408   0.1709   0.2253   0.3436   0.3758   0.4530   0.4663
     0.5241   0.6603   0.7983   0.8664   0.9180   1.0350   1.1189   1.1883
     1.2615   1.3807   1.7585   1.8040   2.1528   3.2610   3.3628   3.3958
     3.4067   3.5098   3.6582   3.7201   3.7352   3.7766   3.8103

[...]

          k = 0.0380-0.0419 0.0000 ( 17876 PWs)   bands (ev):

[...]

          k =-0.0760-0.0000 0.0000 ( 17886 PWs)   bands (ev):

[...]

          k =-0.0760-0.0839 0.0000 ( 17948 PWs)   bands (ev):

   -55.8419 -55.8414 -55.8401 -55.8389 -55.7434 -55.7174 -55.6545 -55.6527
   -55.6527 -55.6518 -55.6146 -55.6134 -55.1892 -55.1588 -54.8176 -54.8173
   -32.2139 -32.2123 -32.1572 -32.1568 -32.1365 -32.1361 -32.1024 -32.0995
   -32.0904 -32.0737 -32.0080 -32.0054 -31.9999 -31.9981 -31.9761 -31.9685
   -31.9616 -31.9611 -31.9560 -31.9548 -31.9529 -31.9412 -31.9355 -31.9286
   -31.9166 -31.9116 -31.8668 -31.8564 -31.8546 -31.8538 -31.8455 -31.8448
   -31.8316 -31.8309 -31.8304 -31.8291 -31.6906 -31.4565 -31.4228 -31.4185
   -31.3997 -31.3456 -31.1441 -31.1439 -31.0543 -31.0540 -31.0152 -31.0151
   -17.9943 -16.0333 -16.0305 -15.8228 -15.7838 -15.7647 -15.7588 -15.6691
   -15.5834 -15.5498 -15.5468 -15.4604 -15.4335 -15.4175 -15.4015 -15.3961
   -15.3870 -15.3576 -15.3224 -15.3149 -15.3008 -15.2952 -15.2835 -15.2264
   -15.1751 -15.1708 -15.1486 -15.0763 -14.8377 -14.6971 -13.3219 -13.3217
   -12.1106  -7.8058  -5.4098  -4.6009  -3.3278  -3.3183  -3.0726  -3.0390
    -3.0284  -3.0122  -2.9573  -2.7959  -2.7835  -2.7638  -2.7565  -2.7115
    -2.6880  -2.6677  -2.6481  -2.6428  -2.6142  -2.5878  -2.5727  -2.5356
    -2.5289  -2.5199  -2.4883  -2.4775  -2.4309  -2.4256  -2.4049  -2.3777
    -2.3680  -2.3335  -2.1915  -2.1138  -2.0859  -2.0005  -1.9936  -1.9531
    -1.9301  -1.9095  -1.8969  -1.8749  -1.8368  -1.7006  -1.6179  -1.5565
    -1.5479  -1.4634  -1.4355  -1.3735  -1.2845  -1.2584  -1.2378  -1.1663
    -1.0906  -1.0524  -1.0001  -0.9879  -0.9203  -0.9115  -0.8535  -0.8171
    -0.8152  -0.7351  -0.7060  -0.6620  -0.6243  -0.6075  -0.5843  -0.5580
    -0.5423  -0.5199  -0.4442  -0.3590  -0.3075  -0.2466  -0.1542  -0.0245
     0.0959   0.2087   0.2304   0.2738   0.3297   0.3647   0.4551   0.4589
     0.5203   0.5453   0.5875   0.6656   0.6757   0.7002   0.8113   0.8615
     1.5528   1.5532   1.6239   1.6240   2.0943   3.5838   3.6126   3.6318
     3.6632   3.7929   3.7988   3.8093   3.8101   3.9450   3.9487

     the Fermi energy is     3.2708 ev

!    total energy              =   -2939.13521944 Ry
     estimated scf accuracy    <       0.00000007 Ry
     smearing contrib. (-TS)   =      -0.02099081 Ry
     internal energy E=F+TS    =   -2939.11422863 Ry

     The total energy is F=E-TS. E is the sum of the following terms:
     one-electron contribution =  -24492.34931681 Ry
     hartree contribution      =   12334.05788422 Ry
     xc contribution           =    -485.37500962 Ry
     ewald contribution        =    9704.55107225 Ry
     electric field correction =       0.00114133 Ry

     convergence has been achieved in  63 iterations

     Forces acting on atoms (cartesian axes, Ry/au):

     atom    1 type  1   force =     0.00008069   -0.00024327    0.09634595
     atom    2 type  1   force =     0.00004986   -0.00057622   -0.17514641
     atom    3 type  2   force =     0.00015149   -0.00013311   -0.02408634
     atom    4 type  2   force =    -0.00000408   -0.00125087    0.05222532
     atom    5 type  2   force =    -0.01056470   -0.00047394    0.00250919
     atom    6 type  2   force =     0.01238140    0.00022561    0.00288309
     atom    7 type  1   force =     0.00098387    0.00026026   -0.01174933
     atom    8 type  1   force =    -0.00013259    0.00774460    0.02263223
     atom    9 type  2   force =    -0.00019814   -0.00015489   -0.00027043
     atom   10 type  2   force =    -0.00261917    0.00115469   -0.01268544
     atom   11 type  2   force =     0.00006791   -0.00012159    0.00005062
     atom   12 type  2   force =     0.00010077    0.00018579   -0.00039073
     atom   13 type  1   force =     0.00044411   -0.00035209    0.00020808
     atom   14 type  1   force =     0.00015438    0.00032368   -0.00014961
     atom   15 type  2   force =    -0.00019503   -0.00003566    0.00004205
     atom   16 type  2   force =     0.00011048   -0.00023306    0.00036335
     atom   17 type  2   force =     0.00047869   -0.00004915    0.00030242
     atom   18 type  2   force =     0.00066088   -0.00015623    0.00017890
     atom   19 type  1   force =    -0.00118459   -0.00022154    0.00031046
     atom   20 type  1   force =     0.00031900    0.00000351   -0.00043380
     atom   21 type  2   force =     0.00004826    0.00000246    0.10311441
     atom   22 type  2   force =     0.00015035   -0.00176622    0.00010070
     atom   23 type  2   force =    -0.07163762   -0.00015449   -0.02766427
     atom   24 type  2   force =     0.07157798    0.00034548   -0.02773022
     atom   25 type  1   force =     0.00015587   -0.00023405    0.09587197
     atom   26 type  1   force =     0.00009886   -0.00040124   -0.17542130
     atom   27 type  2   force =     0.00017648   -0.00021574   -0.02291582
     atom   28 type  2   force =     0.00006411   -0.00101510    0.05218369
     atom   29 type  2   force =    -0.01086504    0.00048205    0.00243155
     atom   30 type  2   force =     0.01255967    0.00064396    0.00277850
     atom   31 type  1   force =     0.00087066    0.00348951   -0.01292472
     atom   32 type  1   force =     0.00002656   -0.00926054    0.02306155
     atom   33 type  2   force =    -0.00048479    0.00013444    0.00023211
     atom   34 type  2   force =    -0.00302602    0.00022719   -0.01290277
     atom   35 type  2   force =     0.00008531    0.00008781   -0.00008361
     atom   36 type  2   force =     0.00011253    0.00033334   -0.00039609
     atom   37 type  1   force =     0.00033463    0.00037173    0.00008190
     atom   38 type  1   force =     0.00002681   -0.00043134    0.00015053
     atom   39 type  2   force =     0.00015950    0.00047723    0.00047976
     atom   40 type  2   force =     0.00035581    0.00014780   -0.00037882
     atom   41 type  2   force =     0.00064807    0.00000508    0.00042973
     atom   42 type  2   force =     0.00062251   -0.00004923    0.00071413
     atom   43 type  1   force =    -0.00156148   -0.00015092   -0.00022041
     atom   44 type  1   force =     0.00055979   -0.00062288   -0.00047967
     atom   45 type  2   force =     0.00005915   -0.00004132    0.10308510
     atom   46 type  2   force =    -0.07166169   -0.00007326   -0.02768428
     atom   47 type  2   force =     0.07160252    0.00032555   -0.02774973
     atom   48 type  3   force =     0.00315495   -0.01276394    0.00140313
     atom   49 type  4   force =     0.00041436   -0.00211178    0.00100267
     atom   50 type  5   force =    -0.00116983    0.00083776    0.00050675
     atom   51 type  5   force =     0.00054474   -0.00038272    0.00025582
     atom   52 type  3   force =    -0.00412928    0.02135027    0.00068926
     atom   53 type  5   force =    -0.00095897   -0.00548341   -0.00516110

     Total force =     0.366717     Total SCF correction =     0.000296
  @ DRIVER MODE: Message from server: STATUS
  @ DRIVER MODE: Message from server: GETFORCE
  @ DRIVER MODE: Returning v,forces,stress,ensemble

     Writing output data file ./calc.save/
  @ DRIVER MODE: Message from server: EXIT
  @ DRIVE MODE: Exiting

     General routines

     Parallel routines

   This run was terminated on:   3:11:25  24Aug2021

   JOB DONE.