     Program PWSCF v.6.7GPU starts on 17Jul2021 at  4: 7:46

     R & G space division:  proc/nbgrp/npool/nimage =      16
     Reading input from /storage/home/hcoda1/3/ntian30/research/carbon/15Jul_vib/ads_slab/CH3NNHHH_a/out_0043/pw.inp
Warning: card &CELL ignored
Warning: card   CELL_DYNAMICS='IPI', ignored
Warning: card / ignored

     Current dimensions of program PWSCF are:
     Max number of different atomic species (ntypx) = 10
     Max number of k-points (npk) =  40000
     Max angular momentum in pseudopotentials (lmaxx) =  3
     Presently no symmetry can be used with electric field

     Message from routine cell_base_init:
     DEPRECATED: use true lattice parameter, not A to a.u. conversion factor

     IMPORTANT: XC functional enforced from input :
     Exchange-correlation= BEEF-VDW
                           (   1   4  43  14   2   0   0)
     Any further DFT definition will be discarded
     Please, verify this is what you really want

  @ DRIVER MODE: Connecting to
 qe_1139763_2351652.sched-torque.pace.gatech.eduu0d_o8k3_scratch
  using UNIX socket
  @ DRIVER MODE: Message from server: STATUS
  @ DRIVER MODE: Message from server: INIT
  @ DRIVER MODE: Receiving replica           0          -1
  @ DRIVER MODE: Receiving encoded integer          25
  @ DRIVER MODE:  SCF:  T  FORCE:  T  STRESS:  F  VC:  F  ENSEMBLE:  F
  @ DRIVER MODE:  SCF:  T  FORCE:  T  STRESS:  F  VC:  F  ENSEMBLE:  F

     Using Slab Decomposition

     bravais-lattice index     =            0
     lattice parameter (alat)  =       1.8897  a.u.
     unit-cell volume          =    6658.9804 (a.u.)^3
     number of atoms/cell      =           56
     number of atomic types    =            5
     number of electrons       =       398.00
     number of Kohn-Sham states=          209
     kinetic-energy cutoff     =      29.3995  Ry
     charge density cutoff     =     293.9946  Ry
     scf convergence threshold =      7.3E-08
     mixing beta               =       0.0500
     number of iterations used =            8  plain     mixing
     Exchange-correlation= BEEF-VDW
                           (   1   4  43  14   2   0   0)

     celldm(1)=   1.889726  celldm(2)=   0.000000  celldm(3)=   0.000000
     celldm(4)=   0.000000  celldm(5)=   0.000000  celldm(6)=   0.000000

     crystal axes: (cart. coord. in units of alat)
               a(1) = (   6.579727   0.000000   0.000000 )
               a(2) = (  -0.000775   5.961596   0.000000 )
               a(3) = (   0.000000   0.000000  25.155947 )

     reciprocal axes: (cart. coord. in units 2 pi/alat)
               b(1) = (  0.151982  0.000020  0.000000 )
               b(2) = (  0.000000  0.167740  0.000000 )
               b(3) = (  0.000000  0.000000  0.039752 )

     PseudoPot. # 1 for Ti read from file:
     /storage/coda1/p-amedford6/0/shared/rich_project_chbe-medford/medford-share/data/pseudos_module/espresso/nninc/pbe/van/Ti.UPF
     MD5 check sum: 8e4df49b7f0d34bbd5052bf3f5ea0213
     Pseudo is Ultrasoft, Zval = 12.0
     Generated by new atomic code, or converted to UPF format
     Using radial grid of  851 points,  6 beta functions with:
                l(1) =   0
                l(2) =   0
                l(3) =   1
                l(4) =   1
                l(5) =   2
                l(6) =   2
     Q(r) pseudized with  8 coefficients,  rinner =    1.000   1.000   1.000
                                                       1.000   1.000

     PseudoPot. # 2 for O  read from file:
     /storage/coda1/p-amedford6/0/shared/rich_project_chbe-medford/medford-share/data/pseudos_module/espresso/nninc/pbe/van/O.UPF
     MD5 check sum: 78c19812648e8988a0fe644b0f25305e
     Pseudo is Ultrasoft, Zval =  6.0
     Generated by new atomic code, or converted to UPF format
     Using radial grid of  737 points,  4 beta functions with:
                l(1) =   0
                l(2) =   0
                l(3) =   1
                l(4) =   1
     Q(r) pseudized with  8 coefficients,  rinner =    0.800   0.800   0.800

     PseudoPot. # 3 for N  read from file:
     /storage/coda1/p-amedford6/0/shared/rich_project_chbe-medford/medford-share/data/pseudos_module/espresso/nninc/pbe/van/N.UPF
     MD5 check sum: 90d10febe142ad51ac9d5be1deb811c4
     Pseudo is Ultrasoft, Zval =  5.0
     Generated by new atomic code, or converted to UPF format
     Using radial grid of  729 points,  4 beta functions with:
                l(1) =   0
                l(2) =   0
                l(3) =   1
                l(4) =   1
     Q(r) pseudized with  8 coefficients,  rinner =    0.800   0.800   0.800

     PseudoPot. # 4 for C  read from file:
     /storage/coda1/p-amedford6/0/shared/rich_project_chbe-medford/medford-share/data/pseudos_module/espresso/nninc/pbe/van/C.UPF
     MD5 check sum: 1a69bf6b8db32088f5b2163dbdb77a27
     Pseudo is Ultrasoft, Zval =  4.0
     Generated by new atomic code, or converted to UPF format
     Using radial grid of  721 points,  4 beta functions with:
                l(1) =   0
                l(2) =   0
                l(3) =   1
                l(4) =   1
     Q(r) pseudized with  8 coefficients,  rinner =    0.800   0.800   0.800

     PseudoPot. # 5 for H  read from file:
     /storage/coda1/p-amedford6/0/shared/rich_project_chbe-medford/medford-share/data/pseudos_module/espresso/nninc/pbe/van/H.UPF
     MD5 check sum: b5ee9d7bfd3a09ee7748110bda690ff7
     Pseudo is Ultrasoft, Zval =  1.0
     Generated by new atomic code, or converted to UPF format
     Using radial grid of  615 points,  1 beta functions with:
                l(1) =   0
     Q(r) pseudized with  8 coefficients,  rinner =    0.800

     atomic species   valence    mass     pseudopotential
        Ti1           12.00    47.86700     Ti( 1.00)
        O1             6.00    15.99900     O ( 1.00)
        N1             5.00    14.00700     N ( 1.00)
        C1             4.00    12.01100     C ( 1.00)
        H1             1.00     1.00800     H ( 1.00)

     Starting magnetic structure
     atomic species   magnetization
        Ti1          0.000
        O1           0.000
        N1           0.000
        C1           0.025
        H1           0.000

     No symmetry found

   Cartesian axes

     site n.     atom                  positions (alat units)
         1           Ti1 tau(   1) = (   0.0004258   2.9801865   6.0000000  )
         2           Ti1 tau(   2) = (   3.2906075   1.4906267   6.0002472  )
         3           O1  tau(   3) = (   0.0006271   0.0005054   7.9858123  )
         4           O1  tau(   4) = (   3.2906025   0.0005020   7.3038282  )
         5           O1  tau(   5) = (   4.5942328   1.4918067   9.2879030  )
         6           O1  tau(   6) = (   1.9868534   1.4903216   9.2879459  )
         7           Ti1 tau(   7) = (   3.2907910   2.8959150   9.1758416  )
         8           Ti1 tau(   8) = (   0.0015273   1.4827037   9.2680791  )
         9           O1  tau(   9) = (   3.2969863   5.9453513  11.3493076  )
        10           O1  tau(  10) = (   0.0116148   5.9584955  10.6183126  )
        11           O1  tau(  11) = (   1.3059050   1.4736943  12.6642453  )
        12           O1  tau(  12) = (   5.3003793   1.4775083  12.6459419  )
        13           Ti1 tau(  13) = (   0.0167275   2.9625105  12.5508078  )
        14           Ti1 tau(  14) = (   3.3131340   1.4712512  12.4909780  )
        15           O1  tau(  15) = (   6.5517612   5.9325698  14.7566896  )
        16           O1  tau(  16) = (   3.3302114   5.9429442  13.9823395  )
        17           O1  tau(  17) = (   4.5243935   1.5056208  16.2316672  )
        18           O1  tau(  18) = (   2.0170937   1.4633510  16.1378485  )
        19           Ti1 tau(  19) = (   3.2500237   2.9242626  15.6920970  )
        20           Ti1 tau(  20) = (   6.5441017   1.2779805  16.1516014  )
        21           O1  tau(  21) = (   3.2904802   0.0005063   4.7018136  )
        22           O1  tau(  22) = (   6.5540411   5.9581837  17.3465722  )
        23           O1  tau(  23) = (   1.3043587   1.4918075   6.0039043  )
        24           O1  tau(  24) = (   5.2767064   1.4903225   6.0039473  )
        25           Ti1 tau(  25) = (   0.0000382   5.9609847   6.0000000  )
        26           Ti1 tau(  26) = (   3.2902200   4.4714249   6.0002472  )
        27           O1  tau(  27) = (   0.0002396   2.9813036   7.9858123  )
        28           O1  tau(  28) = (   3.2902150   2.9813002   7.3038282  )
        29           O1  tau(  29) = (   4.5938453   4.4726049   9.2879030  )
        30           O1  tau(  30) = (   1.9864658   4.4711199   9.2879459  )
        31           Ti1 tau(  31) = (   3.2891106   5.8743827   9.1763621  )
        32           Ti1 tau(  32) = (   0.0006254   4.4649316   9.2693709  )
        33           O1  tau(  33) = (   3.2962403   2.9651072  11.3429128  )
        34           O1  tau(  34) = (   0.0092240   2.9805883  10.6323155  )
        35           O1  tau(  35) = (   1.3076126   4.4641214  12.6643835  )
        36           O1  tau(  36) = (   5.2981430   4.4591552  12.6429889  )
        37           Ti1 tau(  37) = (   0.0194730   5.9489450  12.5196332  )
        38           Ti1 tau(  38) = (   3.3150505   4.4522436  12.4946186  )
        39           O1  tau(  39) = (   6.5702761   2.9869041  14.8038460  )
        40           O1  tau(  40) = (   3.3119818   2.9576719  13.9204832  )
        41           O1  tau(  41) = (   4.5223198   4.3950437  16.2490866  )
        42           O1  tau(  42) = (   2.0356696   4.4339808  16.1311045  )
        43           Ti1 tau(  43) = (   3.3057863   5.9493229  15.7677403  )
        44           Ti1 tau(  44) = (   0.0958844   4.4293496  15.8701971  )
        45           O1  tau(  45) = (   3.2900926   2.9813045   4.7018136  )
        46           O1  tau(  46) = (   1.3039711   4.4726057   6.0039043  )
        47           O1  tau(  47) = (   5.2763189   4.4711207   6.0039473  )
        48           N1  tau(  48) = (   0.0620580   3.0375546  17.6897758  )
        49           C1  tau(  49) = (   1.1116374   2.9693208  18.6984743  )
        50           H1  tau(  50) = (   1.2951007   3.9532040  19.1583453  )
        51           H1  tau(  51) = (   0.8627774   2.2426413  19.4871689  )
        52           H1  tau(  52) = (   2.0263963   2.6228967  18.2308865  )
        53           N1  tau(  53) = (   5.4279256   3.3744730  18.4033390  )
        54           H1  tau(  54) = (   5.6103604   4.1199394  19.0852601  )
        55           H1  tau(  55) = (   4.7834260   3.8076565  17.6395878  )
        56           H1  tau(  56) = (   5.0090149   2.5598412  18.8678436  )

     number of k points=    10  Fermi-Dirac smearing, width (Ry)=  0.0073
                       cart. coord. in units 2pi/alat
        k(    1) = (   0.0000000   0.0000000   0.0000000), wk =   0.0625000
        k(    2) = (   0.0000000   0.0419351   0.0000000), wk =   0.1250000
        k(    3) = (   0.0000000  -0.0838702   0.0000000), wk =   0.0625000
        k(    4) = (   0.0379955   0.0000049   0.0000000), wk =   0.1250000
        k(    5) = (   0.0379955   0.0419400   0.0000000), wk =   0.1250000
[...]
     %   D.C. Langreth et al., J. Phys.: Condens. Matter 21, 084203 (2009). %
     %                                                                      %
     %                                                                      %
     % If you are calculating the stress with vdW-DF, please also cite:     %
     %                                                                      %
     %   R. Sabatini et al., J. Phys.: Condens. Matter 24, 424209 (2012).   %
     %                                                                      %
     %%%%%%%%%%%%%%%%%%%%%%%%%%%%%%%%%%%%%%%%%%%%%%%%%%%%%%%%%%%%%%%%%%%%%%%%

     Adding external electric field

     Computed dipole along edir(3) :
        Dipole              -10.5729 Ry au,        -26.8736 Debye
        Dipole field         -0.0200 Ry au,

        Potential amp.        1.8496 Ry
        Total length         46.3494 bohr

[...]

     Starting wfcs are  302 atomic wfcs
  @ DRIVER MODE: Message from server: STATUS
  @ DRIVER MODE: Message from server: POSDATA
  @ DRIVER MODE: Reading and sharing cell
  @ DRIVER MODE: Reading and sharing positions
  @ DRIVER MODE: Received positions

     Self-consistent Calculation

     iteration #  1     ecut=    29.40 Ry     beta= 0.05
     Davidson diagonalization with overlap
     c_bands:  4 eigenvalues not converged
     c_bands:  3 eigenvalues not converged
     c_bands:  1 eigenvalues not converged
     c_bands:  4 eigenvalues not converged
     c_bands:  5 eigenvalues not converged
     c_bands:  5 eigenvalues not converged
     c_bands:  1 eigenvalues not converged
     c_bands:  5 eigenvalues not converged
     c_bands:  3 eigenvalues not converged
     c_bands:  3 eigenvalues not converged
     c_bands:  2 eigenvalues not converged
     c_bands:  1 eigenvalues not converged
     c_bands:  4 eigenvalues not converged
     c_bands:  5 eigenvalues not converged
     c_bands:  4 eigenvalues not converged
     c_bands:  5 eigenvalues not converged
     c_bands:  3 eigenvalues not converged
     ethr =  1.00E-05,  avg # of iterations = 20.0

[...]

     total energy              =   -2443.28977142 Ry
     estimated scf accuracy    <    5586.05038574 Ry

     total magnetization       =     0.00 Bohr mag/cell
     absolute magnetization    =     0.01 Bohr mag/cell

     iteration #  2     ecut=    29.40 Ry     beta= 0.05
     Davidson diagonalization with overlap
     ethr =  1.00E-02,  avg # of iterations = 24.8

[...]

     iteration # 99     ecut=    29.40 Ry     beta= 0.05
     Davidson diagonalization with overlap
     c_bands:  2 eigenvalues not converged
     c_bands:  1 eigenvalues not converged
     c_bands:  1 eigenvalues not converged
     c_bands:  1 eigenvalues not converged
     c_bands:  2 eigenvalues not converged
     c_bands:  3 eigenvalues not converged
     c_bands:  1 eigenvalues not converged
     c_bands:  1 eigenvalues not converged
     c_bands:  2 eigenvalues not converged
     c_bands:  1 eigenvalues not converged
     c_bands:  1 eigenvalues not converged
     c_bands:  2 eigenvalues not converged
     ethr =  2.72E-11,  avg # of iterations = 17.9

[...]

     total energy              =   -2942.82550380 Ry
     estimated scf accuracy    <       0.00000016 Ry

[...]

     iteration #100     ecut=    29.40 Ry     beta= 0.05
     Davidson diagonalization with overlap
     ethr =  2.72E-11,  avg # of iterations = 14.8

     negative rho (up, down):  7.305E-03 7.297E-03

[...]

     Adding external electric field

     Computed dipole along edir(3) :
        Dipole                1.6190 Ry au,          4.1151 Debye
        Dipole field          0.0031 Ry au,

        Potential amp.       -0.2832 Ry
        Total length         46.3494 bohr

     Magnetic moment per site  (integrated on atomic sphere of radius R)
     atom   1 (R=0.723)  charge=  7.9140  magn= -0.0005
     atom   2 (R=0.723)  charge=  7.8963  magn= -0.0000
     atom   3 (R=0.632)  charge=  4.2019  magn=  0.0000
     atom   4 (R=0.632)  charge=  4.2312  magn= -0.0000
     atom   5 (R=0.632)  charge=  4.2077  magn= -0.0000
     atom   6 (R=0.632)  charge=  4.2078  magn= -0.0000
     atom   7 (R=0.723)  charge=  7.8964  magn= -0.0000
     atom   8 (R=0.723)  charge=  7.8945  magn= -0.0001
     atom   9 (R=0.632)  charge=  4.2176  magn= -0.0001
     atom  10 (R=0.632)  charge=  4.2065  magn=  0.0000
     atom  11 (R=0.632)  charge=  4.2033  magn= -0.0000
     atom  12 (R=0.632)  charge=  4.2050  magn= -0.0000
     atom  13 (R=0.723)  charge=  7.8926  magn=  0.0001
     atom  14 (R=0.723)  charge=  7.9040  magn=  0.0004
     atom  15 (R=0.632)  charge=  4.2038  magn=  0.0000
     atom  16 (R=0.632)  charge=  4.2101  magn= -0.0001
     atom  17 (R=0.632)  charge=  4.1975  magn= -0.0001
     atom  18 (R=0.632)  charge=  4.1973  magn= -0.0001
     atom  19 (R=0.723)  charge=  7.9505  magn=  0.0013
     atom  20 (R=0.723)  charge=  7.9298  magn=  0.0002
     atom  21 (R=0.632)  charge=  4.1226  magn=  0.0000
     atom  22 (R=0.632)  charge=  4.1705  magn= -0.0000
     atom  23 (R=0.632)  charge=  4.2013  magn=  0.0001
     atom  24 (R=0.632)  charge=  4.2014  magn=  0.0001
     atom  25 (R=0.723)  charge=  7.9141  magn= -0.0004
     atom  26 (R=0.723)  charge=  7.8963  magn= -0.0001
     atom  27 (R=0.632)  charge=  4.2015  magn=  0.0000
     atom  28 (R=0.632)  charge=  4.2314  magn= -0.0000
     atom  29 (R=0.632)  charge=  4.2082  magn= -0.0000
     atom  30 (R=0.632)  charge=  4.2083  magn= -0.0000
     atom  31 (R=0.723)  charge=  7.8969  magn= -0.0000
     atom  32 (R=0.723)  charge=  7.8947  magn= -0.0001
     atom  33 (R=0.632)  charge=  4.2161  magn= -0.0001
     atom  34 (R=0.632)  charge=  4.1992  magn=  0.0000
     atom  35 (R=0.632)  charge=  4.2030  magn= -0.0000
     atom  36 (R=0.632)  charge=  4.2054  magn= -0.0000
     atom  37 (R=0.723)  charge=  7.8964  magn=  0.0001
     atom  38 (R=0.723)  charge=  7.9034  magn=  0.0004
     atom  39 (R=0.632)  charge=  4.1866  magn=  0.0000
     atom  40 (R=0.632)  charge=  4.2281  magn= -0.0001
     atom  41 (R=0.632)  charge=  4.1964  magn= -0.0001
     atom  42 (R=0.632)  charge=  4.2074  magn= -0.0001
     atom  43 (R=0.723)  charge=  7.9400  magn=  0.0016
     atom  44 (R=0.723)  charge=  7.9261  magn=  0.0001
     atom  45 (R=0.632)  charge=  4.1226  magn=  0.0001
     atom  46 (R=0.632)  charge=  4.2013  magn=  0.0001
     atom  47 (R=0.632)  charge=  4.2014  magn=  0.0001
     atom  48 (R=0.423)  charge=  1.3355  magn=  0.0000
     atom  49 (R=0.447)  charge=  0.8385  magn= -0.0000
     atom  50 (R=0.423)  charge=  0.4486  magn=  0.0000
     atom  51 (R=0.423)  charge=  0.4499  magn=  0.0000
     atom  52 (R=0.423)  charge=  0.4552  magn=  0.0000
     atom  53 (R=0.423)  charge=  1.3741  magn= -0.0000
     atom  54 (R=0.423)  charge=  0.4520  magn= -0.0000
     atom  55 (R=0.423)  charge=  0.3947  magn=  0.0000
     atom  56 (R=0.423)  charge=  0.4522  magn= -0.0000

     End of self-consistent calculation

 ------ SPIN UP ------------

          k = 0.0000 0.0000 0.0000 ( 18029 PWs)   bands (ev):

   -55.1351 -55.0985 -55.0960 -55.0618 -55.0173 -55.0027 -54.9792 -54.9363
   -54.9238 -54.9163 -54.9011 -54.8908 -54.8568 -54.7855 -54.1080 -54.0740
   -31.7148 -31.5857 -31.5036 -31.4722 -31.4270 -31.4261 -31.4245 -31.3946
   -31.3909 -31.3856 -31.3600 -31.3447 -31.3406 -31.3126 -31.2947 -31.2698
   -31.2529 -31.2486 -31.2385 -31.2345 -31.2072 -31.2014 -31.1944 -31.1675
   -31.1527 -31.1464 -31.1392 -31.1328 -31.1316 -31.1206 -31.1188 -31.1132
   -31.0951 -31.0863 -31.0817 -31.0541 -31.0515 -31.0402 -31.0325 -31.0280
   -31.0169 -30.9752 -30.5164 -30.4244 -30.4022 -30.3329 -30.2462 -30.1352
   -18.9166 -15.9994 -15.7460 -15.6095 -15.3743 -15.3222 -15.2657 -15.0642
   -15.0567 -14.9864 -14.9706 -14.9217 -14.9018 -14.8346 -14.7502 -14.7311
   -14.6615 -14.6596 -14.6301 -14.6198 -14.6178 -14.5552 -14.5456 -14.5158
   -14.5030 -14.4778 -14.3596 -14.2752 -14.2167 -13.9666 -13.5897 -12.6109
   -12.4938  -9.7436  -7.7034  -7.1822  -5.4569  -3.8160  -3.3364  -3.2790
    -3.1629  -3.1325  -3.0557  -3.0260  -2.8413  -2.8208  -2.4788  -2.4429
    -2.3928  -2.3750  -2.3540  -2.3359  -2.1692  -2.1426  -2.0693  -2.0366
    -2.0184  -1.9772  -1.9604  -1.9501  -1.9166  -1.9115  -1.9016  -1.6946
    -1.6382  -1.5430  -1.5207  -1.4993  -1.4617  -1.4264  -1.4170  -1.4138
    -1.4080  -1.3947  -1.3827  -1.3017  -1.2430  -1.1626  -1.1540  -1.1179
    -1.0138  -0.9680  -0.7673  -0.7525  -0.7065  -0.6643  -0.6014  -0.5810
    -0.5137  -0.4827  -0.4641  -0.3425  -0.3140  -0.2743  -0.2461  -0.1785
    -0.1480  -0.1025  -0.0191   0.0521   0.0883   0.1068   0.1648   0.2942
     0.3067   0.3360   0.3975   0.4613   0.5010   0.5218   0.5402   0.5773
     0.6273   0.7529   0.7972   0.8174   0.8216   0.8555   0.8783   0.9294
     0.9535   1.0143   1.0200   1.1377   1.2070   1.4359   1.4699   1.4944
     1.8267   1.8501   1.9143   2.1003   2.4883   2.5355   3.9699   4.0302
     4.0856   4.1043   4.1231   4.2118   4.2501   4.4324   4.4597   4.4639
     4.4666

[...]

          k =-0.0760-0.0000 0.0000 ( 17886 PWs)   bands (ev):

[...]

 ------ SPIN DOWN ----------

[...]

          k = 0.0380-0.0419 0.0000 ( 17876 PWs)   bands (ev):

[...]

          k =-0.0760-0.0839 0.0000 ( 17948 PWs)   bands (ev):

   -55.1188 -55.1130 -55.0797 -55.0797 -55.0066 -54.9969 -54.9897 -54.9202
   -54.9178 -54.9161 -54.9085 -54.9071 -54.8530 -54.7891 -54.0911 -54.0910
   -31.5179 -31.5150 -31.4377 -31.4163 -31.4014 -31.4013 -31.3720 -31.3718
   -31.3456 -31.3394 -31.3366 -31.3363 -31.3033 -31.2662 -31.2608 -31.2564
   -31.2553 -31.2513 -31.2494 -31.2431 -31.2111 -31.2083 -31.2058 -31.2030
   -31.1991 -31.1990 -31.1831 -31.1823 -31.1547 -31.1500 -31.1346 -31.1306
   -31.1283 -31.1277 -31.1268 -31.1179 -31.0940 -31.0894 -31.0868 -31.0650
   -31.0397 -31.0221 -30.4151 -30.4150 -30.3291 -30.3290 -30.2897 -30.2897
   -18.9117 -15.5071 -15.3972 -15.2921 -15.2235 -15.1804 -15.1302 -15.1115
   -15.1006 -15.0561 -15.0269 -14.9573 -14.8925 -14.8393 -14.8383 -14.8040
   -14.7254 -14.7116 -14.7044 -14.6940 -14.6372 -14.6305 -14.5990 -14.5781
   -14.5750 -14.5452 -14.4713 -14.4689 -14.3829 -14.1754 -13.6256 -12.5953
   -12.5951  -9.7127  -7.6990  -7.1284  -5.4601  -3.8382  -3.4354  -2.7548
    -2.6436  -2.4331  -2.4074  -2.3471  -2.3270  -2.2436  -2.1825  -2.1596
    -2.1365  -2.1024  -2.0993  -2.0761  -2.0534  -1.9998  -1.9712  -1.9593
    -1.9534  -1.9387  -1.9259  -1.9061  -1.8494  -1.8393  -1.8319  -1.7894
    -1.7783  -1.7466  -1.7405  -1.7015  -1.6848  -1.6102  -1.5161  -1.4921
    -1.4336  -1.3318  -1.3172  -1.3115  -1.2197  -1.2102  -1.1807  -1.1497
    -1.0953  -0.9968  -0.9416  -0.8644  -0.8611  -0.8322  -0.7447  -0.6809
    -0.6472  -0.6384  -0.5981  -0.5409  -0.5186  -0.4843  -0.4020  -0.3603
    -0.3331  -0.2989  -0.2046  -0.1428  -0.1194  -0.0877  -0.0842   0.0046
     0.0380   0.0747   0.0956   0.1338   0.1605   0.2241   0.2472   0.3573
     0.4262   0.4570   0.5754   0.6004   0.6642   0.7966   0.8682   0.9091
     0.9613   1.0195   1.0468   1.1776   1.1848   1.2070   1.3033   1.3437
     1.3506   1.3635   2.2732   2.2743   2.3557   2.3559   4.1023   4.1890
     4.2321   4.2695   4.3761   4.4862   4.5046   4.5475   4.5480   4.6237
     4.6458

     the Fermi energy is     4.0221 ev

!    total energy              =   -2942.82550517 Ry
     estimated scf accuracy    <       0.00000007 Ry
     smearing contrib. (-TS)   =      -0.03683624 Ry
     internal energy E=F+TS    =   -2942.78866893 Ry

     The total energy is F=E-TS. E is the sum of the following terms:
     one-electron contribution =  -23972.18890048 Ry
     hartree contribution      =   12081.67068689 Ry
     xc contribution           =    -487.76950614 Ry
     ewald contribution        =    9435.49410440 Ry
     electric field correction =       0.00494641 Ry

     total magnetization       =     0.00 Bohr mag/cell
     absolute magnetization    =     0.01 Bohr mag/cell

     convergence has been achieved in 100 iterations

     Forces acting on atoms (cartesian axes, Ry/au):

     atom    1 type  1   force =     0.00015068   -0.00022461    0.09431798
     atom    2 type  1   force =    -0.00009544   -0.00033103   -0.17739395
     atom    3 type  2   force =     0.00005549   -0.00016596   -0.02137352
     atom    4 type  2   force =    -0.00001537   -0.00172426    0.05657199
     atom    5 type  2   force =    -0.01054527   -0.00127878    0.00623892
     atom    6 type  2   force =     0.01221225   -0.00074514    0.00571055
     atom    7 type  1   force =    -0.00032937    0.00172511   -0.01618059
     atom    8 type  1   force =    -0.00011284    0.00439015    0.00560970
     atom    9 type  2   force =     0.00001016   -0.00004566   -0.00005450
     atom   10 type  2   force =    -0.00074330   -0.00022157   -0.00043702
     atom   11 type  2   force =     0.00034866    0.00012516   -0.00018231
     atom   12 type  2   force =    -0.00052038    0.00000280   -0.00012142
     atom   13 type  1   force =     0.00004270   -0.00035412    0.00013775
     atom   14 type  1   force =     0.00055862    0.00011219   -0.00034497
     atom   15 type  2   force =    -0.00043679    0.00020450   -0.00022151
     atom   16 type  2   force =    -0.00031585    0.00017670    0.00001450
     atom   17 type  2   force =    -0.00020570    0.00009816    0.00043075
     atom   18 type  2   force =     0.00013236    0.00034162   -0.00007668
     atom   19 type  1   force =    -0.00005261   -0.00024245   -0.00025212
     atom   20 type  1   force =     0.00009170    0.00056966   -0.00032409
     atom   21 type  2   force =     0.00003653    0.00004226    0.10359769
     atom   22 type  2   force =    -0.00002011   -0.00075633   -0.00036112
     atom   23 type  2   force =    -0.07081703   -0.00009951   -0.02718680
     atom   24 type  2   force =     0.07067998    0.00034029   -0.02721602
     atom   25 type  1   force =    -0.00009568   -0.00019527    0.09373615
     atom   26 type  1   force =    -0.00015325   -0.00032265   -0.17732477
     atom   27 type  2   force =     0.00008677   -0.00035192   -0.02047655
     atom   28 type  2   force =     0.00003113   -0.00144137    0.05588097
     atom   29 type  2   force =    -0.01090731   -0.00073823    0.00608891
     atom   30 type  2   force =     0.01245728   -0.00029391    0.00556745
     atom   31 type  1   force =    -0.00017499    0.00462707   -0.01720815
     atom   32 type  1   force =    -0.00003898   -0.00480598    0.00558994
     atom   33 type  2   force =     0.00005565    0.00012623    0.00026542
     atom   34 type  2   force =     0.00005749   -0.00085247   -0.00296430
     atom   35 type  2   force =     0.00023507    0.00003134    0.00008577
     atom   36 type  2   force =    -0.00043186    0.00015720   -0.00005522
     atom   37 type  1   force =    -0.00012655   -0.00010613   -0.00017930
     atom   38 type  1   force =     0.00042683   -0.00027933    0.00034671
     atom   39 type  2   force =    -0.00047181    0.00012718    0.00069804
     atom   40 type  2   force =    -0.00011120    0.00020018   -0.00013546
     atom   41 type  2   force =    -0.00016706    0.00005283    0.00083693
     atom   42 type  2   force =    -0.00001685    0.00020353    0.00000860
     atom   43 type  1   force =    -0.00060927    0.00084656   -0.00019258
     atom   44 type  1   force =    -0.00015122    0.00021656    0.00005763
     atom   45 type  2   force =     0.00002575    0.00001073    0.10360417
     atom   46 type  2   force =    -0.07081924   -0.00003586   -0.02718387
     atom   47 type  2   force =     0.07068509    0.00037992   -0.02719040
     atom   48 type  3   force =    -0.00079233   -0.00041085   -0.00021545
     atom   49 type  4   force =    -0.00047862    0.00024108   -0.00047727
     atom   50 type  5   force =     0.00004729    0.00002567    0.00006161
     atom   51 type  5   force =    -0.00023788   -0.00029810    0.00001401
     atom   52 type  5   force =    -0.00037430   -0.00002202    0.00008537
     atom   53 type  3   force =    -0.00373664    0.00190108   -0.00119538
     atom   54 type  5   force =     0.00007501    0.00005443   -0.00038167
     atom   55 type  5   force =     0.00535642   -0.00096883    0.00111464
     atom   56 type  5   force =     0.00024620   -0.00001781    0.00023485

     Total force =     0.365623     Total SCF correction =     0.000626
  @ DRIVER MODE: Message from server: STATUS
  @ DRIVER MODE: Message from server: GETFORCE
  @ DRIVER MODE: Returning v,forces,stress,ensemble

     Writing output data file ./calc.save/
  @ DRIVER MODE: Message from server: EXIT
  @ DRIVE MODE: Exiting

     General routines

     Parallel routines

   This run was terminated on:   4:51:58  17Jul2021

   JOB DONE.