     Program PWSCF v.6.7GPU starts on 23Sep2021 at 20: 0:58

     R & G space division:  proc/nbgrp/npool/nimage =       8
     Reading input from /storage/home/hcoda1/3/ntian30/research/carbon/CxH_vib/H2O_calc/ads_slab/CH3NNHHHHO_a/out_0023/pw.inp
Warning: card &CELL ignored
Warning: card   CELL_DYNAMICS='IPI', ignored
Warning: card / ignored

     Current dimensions of program PWSCF are:
     Max number of different atomic species (ntypx) = 10
     Max number of k-points (npk) =  40000
     Max angular momentum in pseudopotentials (lmaxx) =  3
     Presently no symmetry can be used with electric field

     Message from routine cell_base_init:
     DEPRECATED: use true lattice parameter, not A to a.u. conversion factor

     IMPORTANT: XC functional enforced from input :
     Exchange-correlation= BEEF-VDW
                           (   1   4  43  14   2   0   0)
     Any further DFT definition will be discarded
     Please, verify this is what you really want

  @ DRIVER MODE: Connecting to
 qe_1139763_2947308.sched-torque.pace.gatech.edu07uqi6s__scratch
  using UNIX socket
  @ DRIVER MODE: Message from server: STATUS
  @ DRIVER MODE: Message from server: INIT
  @ DRIVER MODE: Receiving replica           0          -1
  @ DRIVER MODE: Receiving encoded integer          25
  @ DRIVER MODE:  SCF:  T  FORCE:  T  STRESS:  F  VC:  F  ENSEMBLE:  F
  @ DRIVER MODE:  SCF:  T  FORCE:  T  STRESS:  F  VC:  F  ENSEMBLE:  F

     Using Slab Decomposition

     bravais-lattice index     =            0
     lattice parameter (alat)  =       1.8897  a.u.
     unit-cell volume          =    6658.9804 (a.u.)^3
     number of atoms/cell      =           58
     number of atomic types    =            5
     number of electrons       =       405.00
     number of Kohn-Sham states=          212
     kinetic-energy cutoff     =      29.3995  Ry
     charge density cutoff     =     293.9946  Ry
     scf convergence threshold =      7.3E-08
     mixing beta               =       0.0500
     number of iterations used =            8  plain     mixing
     Exchange-correlation= BEEF-VDW
                           (   1   4  43  14   2   0   0)

     celldm(1)=   1.889726  celldm(2)=   0.000000  celldm(3)=   0.000000
     celldm(4)=   0.000000  celldm(5)=   0.000000  celldm(6)=   0.000000

     crystal axes: (cart. coord. in units of alat)
               a(1) = (   6.579727   0.000000   0.000000 )
               a(2) = (  -0.000775   5.961596   0.000000 )
               a(3) = (   0.000000   0.000000  25.155947 )

     reciprocal axes: (cart. coord. in units 2 pi/alat)
               b(1) = (  0.151982  0.000020  0.000000 )
               b(2) = (  0.000000  0.167740  0.000000 )
               b(3) = (  0.000000  0.000000  0.039752 )

     PseudoPot. # 1 for Ti read from file:
     /storage/coda1/p-amedford6/0/shared/rich_project_chbe-medford/medford-share/data/pseudos_module/espresso/nninc/pbe/van/Ti.UPF
     MD5 check sum: 8e4df49b7f0d34bbd5052bf3f5ea0213
     Pseudo is Ultrasoft, Zval = 12.0
     Generated by new atomic code, or converted to UPF format
     Using radial grid of  851 points,  6 beta functions with:
                l(1) =   0
                l(2) =   0
                l(3) =   1
                l(4) =   1
                l(5) =   2
                l(6) =   2
     Q(r) pseudized with  8 coefficients,  rinner =    1.000   1.000   1.000
                                                       1.000   1.000

     PseudoPot. # 2 for O  read from file:
     /storage/coda1/p-amedford6/0/shared/rich_project_chbe-medford/medford-share/data/pseudos_module/espresso/nninc/pbe/van/O.UPF
     MD5 check sum: 78c19812648e8988a0fe644b0f25305e
     Pseudo is Ultrasoft, Zval =  6.0
     Generated by new atomic code, or converted to UPF format
     Using radial grid of  737 points,  4 beta functions with:
                l(1) =   0
                l(2) =   0
                l(3) =   1
                l(4) =   1
     Q(r) pseudized with  8 coefficients,  rinner =    0.800   0.800   0.800

     PseudoPot. # 3 for N  read from file:
     /storage/coda1/p-amedford6/0/shared/rich_project_chbe-medford/medford-share/data/pseudos_module/espresso/nninc/pbe/van/N.UPF
     MD5 check sum: 90d10febe142ad51ac9d5be1deb811c4
     Pseudo is Ultrasoft, Zval =  5.0
     Generated by new atomic code, or converted to UPF format
     Using radial grid of  729 points,  4 beta functions with:
                l(1) =   0
                l(2) =   0
                l(3) =   1
                l(4) =   1
     Q(r) pseudized with  8 coefficients,  rinner =    0.800   0.800   0.800

     PseudoPot. # 4 for C  read from file:
     /storage/coda1/p-amedford6/0/shared/rich_project_chbe-medford/medford-share/data/pseudos_module/espresso/nninc/pbe/van/C.UPF
     MD5 check sum: 1a69bf6b8db32088f5b2163dbdb77a27
     Pseudo is Ultrasoft, Zval =  4.0
     Generated by new atomic code, or converted to UPF format
     Using radial grid of  721 points,  4 beta functions with:
                l(1) =   0
                l(2) =   0
                l(3) =   1
                l(4) =   1
     Q(r) pseudized with  8 coefficients,  rinner =    0.800   0.800   0.800

     PseudoPot. # 5 for H  read from file:
     /storage/coda1/p-amedford6/0/shared/rich_project_chbe-medford/medford-share/data/pseudos_module/espresso/nninc/pbe/van/H.UPF
     MD5 check sum: b5ee9d7bfd3a09ee7748110bda690ff7
     Pseudo is Ultrasoft, Zval =  1.0
     Generated by new atomic code, or converted to UPF format
     Using radial grid of  615 points,  1 beta functions with:
                l(1) =   0
     Q(r) pseudized with  8 coefficients,  rinner =    0.800

     atomic species   valence    mass     pseudopotential
        Ti1           12.00    47.86700     Ti( 1.00)
        O1             6.00    15.99900     O ( 1.00)
        N1             5.00    14.00700     N ( 1.00)
        C1             4.00    12.01100     C ( 1.00)
        H1             1.00     1.00800     H ( 1.00)

     No symmetry found

   Cartesian axes

     site n.     atom                  positions (alat units)
         1           Ti1 tau(   1) = (   0.0004258   2.9801865   6.0000000  )
         2           Ti1 tau(   2) = (   3.2906075   1.4906267   6.0002472  )
         3           O1  tau(   3) = (   0.0006271   0.0005054   7.9858123  )
         4           O1  tau(   4) = (   3.2906025   0.0005020   7.3038282  )
         5           O1  tau(   5) = (   4.5942328   1.4918067   9.2879030  )
         6           O1  tau(   6) = (   1.9868534   1.4903216   9.2879459  )
         7           Ti1 tau(   7) = (   3.2907910   2.8959150   9.1758416  )
         8           Ti1 tau(   8) = (   0.0015273   1.4827037   9.2680791  )
         9           O1  tau(   9) = (   3.3066316   0.0080679  11.3583267  )
        10           O1  tau(  10) = (   0.0116148   5.9584955  10.6183126  )
        11           O1  tau(  11) = (   1.3000076   1.5005770  12.6434233  )
        12           O1  tau(  12) = (   5.3281586   1.4930334  12.6431679  )
        13           Ti1 tau(  13) = (   0.0126194   3.0144704  12.5166071  )
        14           Ti1 tau(  14) = (   3.3185830   1.5708444  12.4374219  )
        15           O1  tau(  15) = (   0.0449490   0.0685618  14.6579901  )
        16           O1  tau(  16) = (   3.3164028   5.8986079  13.9921319  )
        17           O1  tau(  17) = (   4.5763498   1.4919541  16.1892649  )
        18           O1  tau(  18) = (   2.0390356   1.5007807  16.1677599  )
        19           Ti1 tau(  19) = (   3.3152479   2.9236451  15.6986563  )
        20           Ti1 tau(  20) = (   0.0808212   1.4292116  16.0039943  )
        21           O1  tau(  21) = (   3.2904802   0.0005063   4.7018136  )
        22           O1  tau(  22) = (   0.0303022   5.8046116  17.1736243  )
        23           O1  tau(  23) = (   1.3043587   1.4918075   6.0039043  )
        24           O1  tau(  24) = (   5.2767064   1.4903225   6.0039473  )
        25           Ti1 tau(  25) = (   0.0000382   5.9609847   6.0000000  )
        26           Ti1 tau(  26) = (   3.2902200   4.4714249   6.0002472  )
        27           O1  tau(  27) = (   0.0002396   2.9813036   7.9858123  )
        28           O1  tau(  28) = (   3.2902150   2.9813002   7.3038282  )
        29           O1  tau(  29) = (   4.5938453   4.4726049   9.2879030  )
        30           O1  tau(  30) = (   1.9864658   4.4711199   9.2879459  )
        31           Ti1 tau(  31) = (   3.2891106   5.8743827   9.1763621  )
        32           Ti1 tau(  32) = (   0.0006254   4.4649316   9.2693709  )
        33           O1  tau(  33) = (   3.3101163   2.9547251  11.3177968  )
        34           O1  tau(  34) = (   0.0092240   2.9805883  10.6323155  )
        35           O1  tau(  35) = (   1.2917786   4.4638488  12.6831265  )
        36           O1  tau(  36) = (   5.3332004   4.4701953  12.6833355  )
        37           Ti1 tau(  37) = (   0.0360484   0.0435164  12.5022323  )
        38           Ti1 tau(  38) = (   3.3166134   4.6596848  12.7231989  )
        39           O1  tau(  39) = (   6.5734590   2.9070644  14.8960501  )
        40           O1  tau(  40) = (   3.3256711   2.9499323  13.9293234  )
        41           O1  tau(  41) = (   4.5718193   4.3849529  16.1598725  )
        42           O1  tau(  42) = (   2.0293811   4.3548050  16.0908550  )
        43           Ti1 tau(  43) = (   3.3839698   5.9011270  16.3477160  )
        44           Ti1 tau(  44) = (   0.0762916   4.6312412  15.8077656  )
        45           O1  tau(  45) = (   3.2900926   2.9813045   4.7018136  )
        46           O1  tau(  46) = (   1.3039711   4.4726057   6.0039043  )
        47           O1  tau(  47) = (   5.2763189   4.4711207   6.0039473  )
        48           N1  tau(  48) = (   1.0338470   3.0145746  18.8549854  )
        49           N1  tau(  49) = (   6.4614719   2.5758313  18.0922931  )
        50           C1  tau(  50) = (   0.6385090   3.7489381  20.0602371  )
        51           H1  tau(  51) = (   6.5128770   4.5633600  19.8365500  )
        52           H1  tau(  52) = (   0.1876125   3.0656416  20.7809517  )
        53           H1  tau(  53) = (   1.5398112   4.1767214  20.4987412  )
        54           H1  tau(  54) = (   5.7034478   3.2665398  18.1448723  )
        55           H1  tau(  55) = (   6.1095767   1.7263867  18.5341855  )
        56           H1  tau(  56) = (   1.5400177   3.6533120  18.2466354  )
        57           O1  tau(  57) = (   3.2295176   5.8880611  18.1942677  )
        58           H1  tau(  58) = (   2.6769533   0.6239085  18.5854980  )

     number of k points=    10  Fermi-Dirac smearing, width (Ry)=  0.0073
                       cart. coord. in units 2pi/alat
        k(    1) = (   0.0000000   0.0000000   0.0000000), wk =   0.1250000
        k(    2) = (   0.0000000   0.0419351   0.0000000), wk =   0.2500000
        k(    3) = (   0.0000000  -0.0838702   0.0000000), wk =   0.1250000
        k(    4) = (   0.0379955   0.0000049   0.0000000), wk =   0.2500000
        k(    5) = (   0.0379955   0.0419400   0.0000000), wk =   0.2500000
        k(    6) = (   0.0379955  -0.0838652   0.0000000), wk =   0.2500000
        k(    7) = (   0.0379955  -0.0419301   0.0000000), wk =   0.2500000
        k(    8) = (  -0.0759910  -0.0000099   0.0000000), wk =   0.1250000
        k(    9) = (  -0.0759910   0.0419252   0.0000000), wk =   0.2500000
        k(   10) = (  -0.0759910  -0.0838800   0.0000000), wk =   0.1250000

     Initial potential from superposition of free atoms

     starting charge  388.99913, renormalised to  405.00000

     negative rho (up, down):  1.325E-02 0.000E+00

     %%%%%%%%%%%%%%%%%%%%%%%%%%%%%%%%%%%%%%%%%%%%%%%%%%%%%%%%%%%%%%%%%%%%%%%%
     %                                                                      %
     % You are using vdW-DF, which was implemented by the Thonhauser group. %
     % Please cite the following two papers that made this development      %
     % possible and the two reviews that describe the various versions:     %
     %                                                                      %
     %   T. Thonhauser et al., PRL 115, 136402 (2015).                      %
     %   T. Thonhauser et al., PRB 76, 125112 (2007).                       %
     %   K. Berland et al., Rep. Prog. Phys. 78, 066501 (2015).             %
     %   D.C. Langreth et al., J. Phys.: Condens. Matter 21, 084203 (2009). %
     %                                                                      %
     %                                                                      %
     % If you are calculating the stress with vdW-DF, please also cite:     %
     %                                                                      %
     %   R. Sabatini et al., J. Phys.: Condens. Matter 24, 424209 (2012).   %
     %                                                                      %
     %%%%%%%%%%%%%%%%%%%%%%%%%%%%%%%%%%%%%%%%%%%%%%%%%%%%%%%%%%%%%%%%%%%%%%%%

     Adding external electric field

     Computed dipole along edir(3) :
        Dipole              -14.7644 Ry au,        -37.5273 Debye
        Dipole field         -0.0279 Ry au,

        Potential amp.        2.5828 Ry
        Total length         46.3494 bohr

     Starting wfcs are  307 atomic wfcs
  @ DRIVER MODE: Message from server: STATUS
  @ DRIVER MODE: Message from server: POSDATA
  @ DRIVER MODE: Reading and sharing cell
  @ DRIVER MODE: Reading and sharing positions
  @ DRIVER MODE: Received positions

     Self-consistent Calculation

     iteration #  1     ecut=    29.40 Ry     beta= 0.05
     Davidson diagonalization with overlap
     c_bands:  3 eigenvalues not converged
     c_bands:  4 eigenvalues not converged
     c_bands:  2 eigenvalues not converged
     c_bands:  3 eigenvalues not converged
     c_bands:  3 eigenvalues not converged
     c_bands:  3 eigenvalues not converged
     ethr =  1.00E-05,  avg # of iterations = 23.2

[...]

     total energy              =   -2204.23879053 Ry
     estimated scf accuracy    <    8785.86834430 Ry

     iteration #  2     ecut=    29.40 Ry     beta= 0.05
     Davidson diagonalization with overlap
     ethr =  1.00E-02,  avg # of iterations = 30.7

[...]

     iteration # 49     ecut=    29.40 Ry     beta= 0.05
     Davidson diagonalization with overlap
     c_bands:  1 eigenvalues not converged
     c_bands:  1 eigenvalues not converged
     ethr =  3.85E-07,  avg # of iterations = 17.8

[...]

     total energy              =   -2976.49825302 Ry
     estimated scf accuracy    <       0.00000017 Ry

     iteration # 78     ecut=    29.40 Ry     beta= 0.05
     Davidson diagonalization with overlap
     ethr =  4.28E-11,  avg # of iterations =  2.2

     negative rho (up, down):  1.443E-02 0.000E+00

     Adding external electric field

     Computed dipole along edir(3) :
        Dipole                0.9933 Ry au,          2.5246 Debye
        Dipole field          0.0019 Ry au,

        Potential amp.       -0.1738 Ry
        Total length         46.3494 bohr

     End of self-consistent calculation

          k = 0.0000 0.0000 0.0000 ( 18029 PWs)   bands (ev):

   -55.5818 -55.4982 -55.4642 -55.3635 -55.3421 -55.3261 -55.3123 -55.3056
   -55.2923 -55.2626 -55.2189 -55.0969 -55.0861 -55.0090 -54.4673 -54.4333
   -31.9828 -31.9182 -31.8772 -31.8297 -31.8281 -31.8091 -31.7986 -31.7891
   -31.7491 -31.7442 -31.7261 -31.6508 -31.6271 -31.6066 -31.6048 -31.6027
   -31.5970 -31.5851 -31.5827 -31.5558 -31.5496 -31.5244 -31.5235 -31.5119
   -31.4968 -31.4855 -31.4779 -31.4609 -31.4562 -31.4534 -31.4437 -31.4377
   -31.4340 -31.4146 -31.3727 -31.3709 -31.3006 -31.2934 -31.2794 -31.2586
   -31.2218 -31.2144 -30.8729 -30.7875 -30.7650 -30.6906 -30.6043 -30.4924
   -17.5815 -16.4002 -16.1390 -15.9765 -15.7607 -15.6753 -15.6468 -15.4542
   -15.3489 -15.2959 -15.1099 -15.0637 -15.0329 -15.0218 -15.0064 -14.9837
   -14.9639 -14.9257 -14.9173 -14.9070 -14.9014 -14.8629 -14.8404 -14.7899
   -14.7673 -14.7046 -14.6324 -14.5647 -14.5173 -14.2566 -14.2386 -12.9684
   -12.9657 -12.8494  -9.4558  -6.1536  -5.2023  -4.6250  -3.9618  -3.5037
    -3.4029  -3.3871  -3.3329  -3.2686  -3.1774  -2.9953  -2.8866  -2.8340
    -2.7320  -2.6247  -2.5699  -2.5066  -2.4798  -2.4300  -2.3969  -2.3851
    -2.3785  -2.2821  -2.2737  -2.2465  -2.2112  -2.1551  -2.1394  -2.0616
    -2.0252  -2.0168  -1.8924  -1.8796  -1.8139  -1.8096  -1.8033  -1.7696
    -1.7485  -1.7337  -1.7046  -1.6209  -1.5679  -1.4976  -1.4748  -1.4449
    -1.1858  -1.0936  -1.0561  -1.0284  -0.9304  -0.9145  -0.9011  -0.8973
    -0.8832  -0.8338  -0.7876  -0.7031  -0.5937  -0.5737  -0.5646  -0.5196
    -0.4544  -0.3724  -0.2993  -0.2697  -0.2324  -0.2191  -0.1531  -0.0756
    -0.0596  -0.0473   0.0615   0.0758   0.1582   0.2168   0.2308   0.2756
     0.3165   0.3492   0.4059   0.4424   0.4728   0.4786   0.5119   0.5564
     0.6122   0.6426   0.6705   0.7527   0.8083   0.8537   0.8814   1.0531
     1.0835   1.1429   1.1791   1.2663   1.5090   1.5593   1.5986   1.7537
     2.1255   2.1707   3.5865   3.7376   3.7528   3.8223   3.8474   3.9384
     4.0758   4.1435   4.2753   4.2843

[...]

          k = 0.0380-0.0419 0.0000 ( 17876 PWs)   bands (ev):

[...]

          k =-0.0760-0.0000 0.0000 ( 17886 PWs)   bands (ev):

[...]

          k =-0.0760-0.0839 0.0000 ( 17948 PWs)   bands (ev):

   -55.5810 -55.4813 -55.4810 -55.3622 -55.3290 -55.3186 -55.3129 -55.3092
   -55.3087 -55.2546 -55.2268 -55.0937 -55.0872 -55.0120 -54.4504 -54.4500
   -31.8655 -31.8077 -31.8028 -31.7982 -31.7980 -31.7836 -31.7747 -31.7744
   -31.7056 -31.6495 -31.6414 -31.6340 -31.6292 -31.6161 -31.6012 -31.6012
   -31.5988 -31.5986 -31.5842 -31.5740 -31.5663 -31.5578 -31.5368 -31.5186
   -31.5159 -31.5118 -31.5045 -31.5016 -31.4894 -31.4819 -31.4795 -31.4735
   -31.4684 -31.4497 -31.4440 -31.3670 -31.3553 -31.3410 -31.3025 -31.2975
   -31.2639 -31.2178 -30.7778 -30.7776 -30.6861 -30.6856 -30.6476 -30.6473
   -17.5754 -16.3861 -15.7474 -15.5692 -15.4729 -15.4664 -15.3356 -15.2699
   -15.2610 -15.2266 -15.2079 -15.1930 -15.1600 -15.1426 -15.1031 -15.0501
   -15.0168 -14.9941 -14.9826 -14.9455 -14.9330 -14.9111 -14.9037 -14.8950
   -14.8367 -14.8046 -14.7955 -14.7649 -14.5694 -14.5477 -14.3712 -12.9699
   -12.9514 -12.9512  -9.4533  -6.1390  -5.2040  -4.6350  -3.9579  -3.1807
    -2.9215  -2.7781  -2.7019  -2.5679  -2.5580  -2.5002  -2.4921  -2.4475
    -2.4389  -2.3979  -2.3438  -2.3278  -2.2847  -2.2798  -2.2490  -2.2365
    -2.2258  -2.2167  -2.1917  -2.1720  -2.1630  -2.1224  -2.1178  -2.1021
    -2.0824  -2.0659  -2.0383  -2.0273  -1.9872  -1.9478  -1.8825  -1.8087
    -1.7230  -1.6401  -1.6296  -1.6187  -1.5724  -1.5659  -1.5192  -1.5078
    -1.4605  -1.4091  -1.2950  -1.1722  -1.1322  -1.1057  -1.0737  -1.0416
    -0.9870  -0.9641  -0.9291  -0.8808  -0.8490  -0.7252  -0.7142  -0.6488
    -0.5645  -0.5311  -0.4551  -0.4419  -0.4273  -0.4111  -0.3894  -0.3727
    -0.3432  -0.3272  -0.2227  -0.1988  -0.1955  -0.1729  -0.1222  -0.0193
     0.0547   0.1375   0.2403   0.2901   0.3178   0.3514   0.4514   0.5696
     0.5947   0.6578   0.6899   0.7327   0.7999   0.8206   0.8685   0.9533
     1.0070   1.0394   1.0657   1.0707   1.1255   1.1599   1.9223   1.9308
     1.9909   1.9912   3.8001   4.0764   4.1020   4.1180   4.1553   4.1594
     4.1813   4.1958   4.2613   4.2764

     the Fermi energy is     3.6235 ev

!    total energy              =   -2976.49826222 Ry
     estimated scf accuracy    <       0.00000006 Ry
     smearing contrib. (-TS)   =      -0.01952955 Ry
     internal energy E=F+TS    =   -2976.47873266 Ry

     The total energy is F=E-TS. E is the sum of the following terms:
     one-electron contribution =  -23034.89317759 Ry
     hartree contribution      =   11613.80825941 Ry
     xc contribution           =    -495.70825452 Ry
     ewald contribution        =    8940.31257826 Ry
     electric field correction =       0.00186178 Ry

     convergence has been achieved in  78 iterations

     Forces acting on atoms (cartesian axes, Ry/au):

     atom    1 type  1   force =     0.00000729   -0.00022408    0.09404732
     atom    2 type  1   force =    -0.00015983    0.00025662   -0.17515315
     atom    3 type  2   force =     0.00007422   -0.00016303   -0.02114978
     atom    4 type  2   force =     0.00000331   -0.00104173    0.05355833
     atom    5 type  2   force =    -0.00455160   -0.00322180    0.00115097
     atom    6 type  2   force =     0.00660878   -0.00242137    0.00161431
     atom    7 type  1   force =     0.00037374    0.00456369    0.01037426
     atom    8 type  1   force =    -0.00056151    0.00198975    0.00313272
     atom    9 type  2   force =     0.00010423   -0.00050022   -0.00047184
     atom   10 type  2   force =    -0.00030961   -0.00004374   -0.01128874
     atom   11 type  2   force =    -0.00023470    0.00046268    0.00004460
     atom   12 type  2   force =    -0.00026965    0.00067779    0.00008244
     atom   13 type  1   force =     0.00061416   -0.00064037    0.00022057
     atom   14 type  1   force =    -0.00035532    0.00016073    0.00018100
     atom   15 type  2   force =    -0.00017435    0.00009739    0.00052681
     atom   16 type  2   force =     0.00004737   -0.00002448    0.00041406
     atom   17 type  2   force =    -0.00036588    0.00023353    0.00007614
     atom   18 type  2   force =     0.00002883    0.00008530    0.00022210
     atom   19 type  1   force =    -0.00009908    0.00053173   -0.00027201
     atom   20 type  1   force =     0.00000228   -0.00010644   -0.00011946
     atom   21 type  2   force =     0.00002830   -0.00001160    0.10311482
     atom   22 type  2   force =    -0.00007263   -0.00017476   -0.00036043
     atom   23 type  2   force =    -0.07212695   -0.00020810   -0.02725246
     atom   24 type  2   force =     0.07203104    0.00023461   -0.02733027
     atom   25 type  1   force =     0.00006998   -0.00034960    0.09402277
     atom   26 type  1   force =    -0.00000421   -0.00128524   -0.17518913
     atom   27 type  2   force =     0.00015230   -0.00021121   -0.01992944
     atom   28 type  2   force =     0.00008617   -0.00111057    0.04907801
     atom   29 type  2   force =    -0.00668680    0.00152984    0.00212681
     atom   30 type  2   force =     0.00855458    0.00170847    0.00249599
     atom   31 type  1   force =     0.00050041   -0.00019995    0.00053790
     atom   32 type  1   force =    -0.00020203   -0.00144991    0.00352345
     atom   33 type  2   force =    -0.00007844   -0.00001169   -0.00000482
     atom   34 type  2   force =    -0.00088891    0.00246522   -0.01149837
     atom   35 type  2   force =     0.00003306   -0.00043360    0.00048536
     atom   36 type  2   force =    -0.00053162   -0.00041165    0.00034051
     atom   37 type  1   force =     0.00037394    0.00028797    0.00001139
     atom   38 type  1   force =    -0.00038173    0.00022062    0.00029506
     atom   39 type  2   force =    -0.00050928    0.00041994    0.00047178
     atom   40 type  2   force =    -0.00002026   -0.00007605   -0.00005002
     atom   41 type  2   force =    -0.00037198   -0.00027394    0.00025800
     atom   42 type  2   force =    -0.00023011   -0.00025120   -0.00025086
     atom   43 type  1   force =    -0.00003673   -0.00036659    0.00072177
     atom   44 type  1   force =    -0.00017011    0.00014819    0.00011230
     atom   45 type  2   force =     0.00002119   -0.00001664    0.10297663
     atom   46 type  2   force =    -0.07213544   -0.00008524   -0.02724867
     atom   47 type  2   force =     0.07198752    0.00035129   -0.02729176
     atom   48 type  3   force =     0.00131641   -0.00164521   -0.00044056
     atom   49 type  3   force =    -0.00048177    0.00010939    0.00021769
     atom   50 type  4   force =    -0.00113027    0.00136734   -0.00217237
     atom   51 type  5   force =     0.00101053   -0.00120391    0.00260338
     atom   52 type  5   force =    -0.00060428   -0.00027601   -0.00014014
     atom   53 type  5   force =    -0.00004632   -0.00016984   -0.00007018
     atom   54 type  5   force =     0.00010588    0.00026583   -0.00052268
     atom   55 type  5   force =    -0.00018097    0.00033253    0.00040689
     atom   56 type  5   force =     0.00030037    0.00019361   -0.00032653
     atom   57 type  2   force =    -0.00021358    0.00051139   -0.00072126
     atom   58 type  5   force =    -0.00024996   -0.00059567   -0.00019119

     Total force =     0.361727     Total SCF correction =     0.000574
  @ DRIVER MODE: Message from server: STATUS
  @ DRIVER MODE: Message from server: GETFORCE
  @ DRIVER MODE: Returning v,forces,stress,ensemble

     Writing output data file ./calc.save/
  @ DRIVER MODE: Message from server: EXIT
  @ DRIVE MODE: Exiting

     General routines

     Parallel routines

   This run was terminated on:  20:28: 6  23Sep2021

   JOB DONE.