     Program PWSCF v.6.7GPU starts on 14Sep2021 at 17:31:24

     R & G space division:  proc/nbgrp/npool/nimage =      10
     Reading input from /storage/home/hcoda1/3/ntian30/research/carbon/CxH_vib/CH_calc/ads_slab/CHON2_d/out_0012/pw.inp
Warning: card &CELL ignored
Warning: card   CELL_DYNAMICS='IPI', ignored
Warning: card / ignored

     Current dimensions of program PWSCF are:
     Max number of different atomic species (ntypx) = 10
     Max number of k-points (npk) =  40000
     Max angular momentum in pseudopotentials (lmaxx) =  3
     Presently no symmetry can be used with electric field

     Message from routine cell_base_init:
     DEPRECATED: use true lattice parameter, not A to a.u. conversion factor

     IMPORTANT: XC functional enforced from input :
     Exchange-correlation= BEEF-VDW
                           (   1   4  43  14   2   0   0)
     Any further DFT definition will be discarded
     Please, verify this is what you really want

  @ DRIVER MODE: Connecting to
 qe_1139763_2840438.sched-torque.pace.gatech.edub5sgn2v0_scratch
  using UNIX socket
  @ DRIVER MODE: Message from server: STATUS
  @ DRIVER MODE: Message from server: INIT
  @ DRIVER MODE: Receiving replica           0          -1
  @ DRIVER MODE: Receiving encoded integer          25
  @ DRIVER MODE:  SCF:  T  FORCE:  T  STRESS:  F  VC:  F  ENSEMBLE:  F
  @ DRIVER MODE:  SCF:  T  FORCE:  T  STRESS:  F  VC:  F  ENSEMBLE:  F

     Using Slab Decomposition

     bravais-lattice index     =            0
     lattice parameter (alat)  =       1.8897  a.u.
     unit-cell volume          =    6658.9804 (a.u.)^3
     number of atoms/cell      =           52
     number of atomic types    =            5
     number of electrons       =       399.00
     number of Kohn-Sham states=          209
     kinetic-energy cutoff     =      29.3995  Ry
     charge density cutoff     =     293.9946  Ry
     scf convergence threshold =      7.3E-08
     mixing beta               =       0.0500
     number of iterations used =            8  plain     mixing
     Exchange-correlation= BEEF-VDW
                           (   1   4  43  14   2   0   0)

     celldm(1)=   1.889726  celldm(2)=   0.000000  celldm(3)=   0.000000
     celldm(4)=   0.000000  celldm(5)=   0.000000  celldm(6)=   0.000000

     crystal axes: (cart. coord. in units of alat)
               a(1) = (   6.579727   0.000000   0.000000 )
               a(2) = (  -0.000775   5.961596   0.000000 )
               a(3) = (   0.000000   0.000000  25.155947 )

     reciprocal axes: (cart. coord. in units 2 pi/alat)
               b(1) = (  0.151982  0.000020  0.000000 )
               b(2) = (  0.000000  0.167740  0.000000 )
               b(3) = (  0.000000  0.000000  0.039752 )

     PseudoPot. # 1 for O  read from file:
     /storage/coda1/p-amedford6/0/shared/rich_project_chbe-medford/medford-share/data/pseudos_module/espresso/nninc/pbe/van/O.UPF
     MD5 check sum: 78c19812648e8988a0fe644b0f25305e
     Pseudo is Ultrasoft, Zval =  6.0
     Generated by new atomic code, or converted to UPF format
     Using radial grid of  737 points,  4 beta functions with:
                l(1) =   0
                l(2) =   0
                l(3) =   1
                l(4) =   1
     Q(r) pseudized with  8 coefficients,  rinner =    0.800   0.800   0.800

     PseudoPot. # 2 for Ti read from file:
     /storage/coda1/p-amedford6/0/shared/rich_project_chbe-medford/medford-share/data/pseudos_module/espresso/nninc/pbe/van/Ti.UPF
     MD5 check sum: 8e4df49b7f0d34bbd5052bf3f5ea0213
     Pseudo is Ultrasoft, Zval = 12.0
     Generated by new atomic code, or converted to UPF format
     Using radial grid of  851 points,  6 beta functions with:
                l(1) =   0
                l(2) =   0
                l(3) =   1
                l(4) =   1
                l(5) =   2
                l(6) =   2
     Q(r) pseudized with  8 coefficients,  rinner =    1.000   1.000   1.000
                                                       1.000   1.000

     PseudoPot. # 3 for C  read from file:
     /storage/coda1/p-amedford6/0/shared/rich_project_chbe-medford/medford-share/data/pseudos_module/espresso/nninc/pbe/van/C.UPF
     MD5 check sum: 1a69bf6b8db32088f5b2163dbdb77a27
     Pseudo is Ultrasoft, Zval =  4.0
     Generated by new atomic code, or converted to UPF format
     Using radial grid of  721 points,  4 beta functions with:
                l(1) =   0
                l(2) =   0
                l(3) =   1
                l(4) =   1
     Q(r) pseudized with  8 coefficients,  rinner =    0.800   0.800   0.800

     PseudoPot. # 4 for H  read from file:
     /storage/coda1/p-amedford6/0/shared/rich_project_chbe-medford/medford-share/data/pseudos_module/espresso/nninc/pbe/van/H.UPF
     MD5 check sum: b5ee9d7bfd3a09ee7748110bda690ff7
     Pseudo is Ultrasoft, Zval =  1.0
     Generated by new atomic code, or converted to UPF format
     Using radial grid of  615 points,  1 beta functions with:
                l(1) =   0
     Q(r) pseudized with  8 coefficients,  rinner =    0.800

     PseudoPot. # 5 for N  read from file:
     /storage/coda1/p-amedford6/0/shared/rich_project_chbe-medford/medford-share/data/pseudos_module/espresso/nninc/pbe/van/N.UPF
     MD5 check sum: 90d10febe142ad51ac9d5be1deb811c4
     Pseudo is Ultrasoft, Zval =  5.0
     Generated by new atomic code, or converted to UPF format
     Using radial grid of  729 points,  4 beta functions with:
                l(1) =   0
                l(2) =   0
                l(3) =   1
                l(4) =   1
     Q(r) pseudized with  8 coefficients,  rinner =    0.800   0.800   0.800

     atomic species   valence    mass     pseudopotential
        O1             6.00    15.99900     O ( 1.00)
        Ti1           12.00    47.86700     Ti( 1.00)
        C1             4.00    12.01100     C ( 1.00)
        H1             1.00     1.00800     H ( 1.00)
        N1             5.00    14.00700     N ( 1.00)

     No symmetry found

   Cartesian axes

     site n.     atom                  positions (alat units)
         1           O1  tau(   1) = (   3.2904802   0.0005063   4.7018136  )
         2           O1  tau(   2) = (   3.2900926   2.9813045   4.7018136  )
         3           Ti1 tau(   3) = (   0.0004258   2.9801865   6.0000000  )
         4           Ti1 tau(   4) = (   0.0000382   5.9609847   6.0000000  )
         5           Ti1 tau(   5) = (   3.2906075   1.4906267   6.0002472  )
         6           Ti1 tau(   6) = (   3.2902200   4.4714249   6.0002472  )
         7           O1  tau(   7) = (   1.3043587   1.4918075   6.0039043  )
         8           O1  tau(   8) = (   1.3039711   4.4726057   6.0039043  )
         9           O1  tau(   9) = (   5.2767064   1.4903225   6.0039473  )
        10           O1  tau(  10) = (   5.2763189   4.4711207   6.0039473  )
        11           O1  tau(  11) = (   3.2906025   0.0005020   7.3038282  )
        12           O1  tau(  12) = (   3.2902150   2.9813002   7.3038282  )
        13           O1  tau(  13) = (   0.0006271   0.0005054   7.9858123  )
        14           O1  tau(  14) = (   0.0002396   2.9813036   7.9858123  )
        15           Ti1 tau(  15) = (   3.2818399   0.0632074   9.1536190  )
        16           Ti1 tau(  16) = (   3.2594741   3.0397892   9.1577678  )
        17           Ti1 tau(  17) = (   6.5510804   4.5344316   9.2678866  )
        18           O1  tau(  18) = (   4.5942328   1.4918067   9.2879030  )
        19           O1  tau(  19) = (   4.5938453   4.4726049   9.2879030  )
        20           O1  tau(  20) = (   1.9868534   1.4903216   9.2879459  )
        21           O1  tau(  21) = (   1.9864658   4.4711199   9.2879459  )
        22           Ti1 tau(  22) = (   6.5572888   1.6134915   9.3644180  )
        23           O1  tau(  23) = (   0.0036999   2.9964159  10.5720758  )
        24           O1  tau(  24) = (   0.0032988   0.0129995  10.6087427  )
        25           O1  tau(  25) = (   3.3025789   3.0011443  11.3496891  )
        26           O1  tau(  26) = (   3.3069272   0.0203573  11.3499924  )
        27           Ti1 tau(  27) = (   3.3485197   1.5170776  12.4945998  )
        28           Ti1 tau(  28) = (   0.0476823   0.0282983  12.5166062  )
        29           Ti1 tau(  29) = (   3.3474104   4.4962924  12.4903914  )
        30           O1  tau(  30) = (   1.2998870   1.5091839  12.6411902  )
        31           O1  tau(  31) = (   5.2998363   1.5142331  12.6477699  )
        32           O1  tau(  32) = (   1.2995728   4.4957929  12.6443136  )
        33           O1  tau(  33) = (   5.3001588   4.4888893  12.6515721  )
        34           Ti1 tau(  34) = (   0.0405098   3.0100001  12.8178096  )
        35           O1  tau(  35) = (   3.3017622   3.0020563  13.9311684  )
        36           O1  tau(  36) = (   3.3043745   0.0240830  13.9418183  )
        37           O1  tau(  37) = (   0.0425158   3.0055145  14.7122960  )
        38           O1  tau(  38) = (   0.0212564   0.0294349  14.7090242  )
        39           Ti1 tau(  39) = (   3.3143756   3.0090542  15.7253892  )
        40           Ti1 tau(  40) = (   3.3278308   0.0282705  15.7347533  )
        41           Ti1 tau(  41) = (   0.0474550   4.6028283  15.9859659  )
        42           O1  tau(  42) = (   4.5544755   4.4960427  16.0754871  )
        43           O1  tau(  43) = (   2.0560418   4.4875074  16.0954883  )
        44           O1  tau(  44) = (   4.5513302   1.5206081  16.0934294  )
        45           O1  tau(  45) = (   2.0557237   1.5274495  16.1011513  )
        46           Ti1 tau(  46) = (   0.0476892   1.4302431  16.0559646  )
        47           O1  tau(  47) = (   0.0145416   0.0172736  17.2235231  )
        48           O1  tau(  48) = (   6.5187403   2.9994048  17.3870116  )
        49           C1  tau(  49) = (   5.9068627   3.1321688  18.5944627  )
        50           H1  tau(  50) = (   5.7866629   4.0998533  19.0461414  )
        51           N1  tau(  51) = (   5.4444810   2.0886009  19.2066540  )
        52           N1  tau(  52) = (   5.0309896   1.1542324  19.7398597  )

     number of k points=    10  Fermi-Dirac smearing, width (Ry)=  0.0073
                       cart. coord. in units 2pi/alat
        k(    1) = (   0.0000000   0.0000000   0.0000000), wk =   0.1250000
        k(    2) = (   0.0000000   0.0419351   0.0000000), wk =   0.2500000
        k(    3) = (   0.0000000  -0.0838702   0.0000000), wk =   0.1250000
        k(    4) = (   0.0379955   0.0000049   0.0000000), wk =   0.2500000
        k(    5) = (   0.0379955   0.0419400   0.0000000), wk =   0.2500000
        k(    6) = (   0.0379955  -0.0838652   0.0000000), wk =   0.2500000
        k(    7) = (   0.0379955  -0.0419301   0.0000000), wk =   0.2500000
        k(    8) = (  -0.0759910  -0.0000099   0.0000000), wk =   0.1250000
        k(    9) = (  -0.0759910   0.0419252   0.0000000), wk =   0.2500000
        k(   10) = (  -0.0759910  -0.0838800   0.0000000), wk =   0.1250000

     Initial potential from superposition of free atoms

     starting charge  382.99918, renormalised to  399.00000

     negative rho (up, down):  1.729E-02 0.000E+00

     %%%%%%%%%%%%%%%%%%%%%%%%%%%%%%%%%%%%%%%%%%%%%%%%%%%%%%%%%%%%%%%%%%%%%%%%
     %                                                                      %
     % You are using vdW-DF, which was implemented by the Thonhauser group. %
     % Please cite the following two papers that made this development      %
     % possible and the two reviews that describe the various versions:     %
     %                                                                      %
     %   T. Thonhauser et al., PRL 115, 136402 (2015).                      %
     %   T. Thonhauser et al., PRB 76, 125112 (2007).                       %
     %   K. Berland et al., Rep. Prog. Phys. 78, 066501 (2015).             %
     %   D.C. Langreth et al., J. Phys.: Condens. Matter 21, 084203 (2009). %
     %                                                                      %
     %                                                                      %
     % If you are calculating the stress with vdW-DF, please also cite:     %
     %                                                                      %
     %   R. Sabatini et al., J. Phys.: Condens. Matter 24, 424209 (2012).   %
     %                                                                      %
     %%%%%%%%%%%%%%%%%%%%%%%%%%%%%%%%%%%%%%%%%%%%%%%%%%%%%%%%%%%%%%%%%%%%%%%%

     Adding external electric field

     Computed dipole along edir(3) :
        Dipole              -10.9288 Ry au,        -27.7781 Debye
        Dipole field         -0.0206 Ry au,

        Potential amp.        1.9118 Ry
        Total length         46.3494 bohr

     Starting wfcs are  301 atomic wfcs
  @ DRIVER MODE: Message from server: STATUS
  @ DRIVER MODE: Message from server: POSDATA
  @ DRIVER MODE: Reading and sharing cell
  @ DRIVER MODE: Reading and sharing positions
  @ DRIVER MODE: Received positions

     Self-consistent Calculation

     iteration #  1     ecut=    29.40 Ry     beta= 0.05
     Davidson diagonalization with overlap
     c_bands:  1 eigenvalues not converged
     c_bands:  3 eigenvalues not converged
     c_bands:  1 eigenvalues not converged
     c_bands:  3 eigenvalues not converged
     c_bands:  3 eigenvalues not converged
     c_bands:  2 eigenvalues not converged
     c_bands:  2 eigenvalues not converged
     c_bands:  3 eigenvalues not converged
     c_bands:  3 eigenvalues not converged
     ethr =  1.00E-05,  avg # of iterations = 19.6

[...]

     total energy              =   -2496.06910397 Ry
     estimated scf accuracy    <    5312.13451790 Ry

     iteration #  2     ecut=    29.40 Ry     beta= 0.05
     Davidson diagonalization with overlap
     ethr =  1.00E-02,  avg # of iterations = 23.0

[...]

     iteration # 39     ecut=    29.40 Ry     beta= 0.05
     Davidson diagonalization with overlap
     c_bands:  1 eigenvalues not converged
     ethr =  2.56E-08,  avg # of iterations = 13.1

[...]

     total energy              =   -2969.03714776 Ry
     estimated scf accuracy    <       0.00000010 Ry

     iteration # 52     ecut=    29.40 Ry     beta= 0.05
     Davidson diagonalization with overlap
     ethr =  2.63E-11,  avg # of iterations = 10.7

     negative rho (up, down):  1.695E-02 0.000E+00

     Adding external electric field

     Computed dipole along edir(3) :
        Dipole                0.4407 Ry au,          1.1201 Debye
        Dipole field          0.0008 Ry au,

        Potential amp.       -0.0771 Ry
        Total length         46.3494 bohr

     End of self-consistent calculation

          k = 0.0000 0.0000 0.0000 ( 18029 PWs)   bands (ev):

   -55.9435 -55.9298 -55.9066 -55.8936 -55.8317 -55.8105 -55.7871 -55.7707
   -55.7666 -55.7201 -55.7191 -55.6996 -55.6657 -55.5965 -54.9578 -54.9237
   -32.4941 -32.4121 -32.3290 -32.2998 -32.2672 -32.2435 -32.2362 -32.2142
   -32.1801 -32.1712 -32.1527 -32.1466 -32.1418 -32.1105 -32.1035 -32.0743
   -32.0732 -32.0690 -32.0652 -32.0342 -32.0287 -32.0087 -32.0082 -31.9918
   -31.9852 -31.9685 -31.9526 -31.9466 -31.9371 -31.9347 -31.9298 -31.9234
   -31.9230 -31.9172 -31.8801 -31.8779 -31.8496 -31.8448 -31.8196 -31.8057
   -31.7869 -31.7839 -31.3676 -31.2705 -31.2482 -31.1843 -31.0983 -30.9870
   -20.5023 -18.5619 -16.6885 -16.3980 -16.2479 -16.1056 -16.0709 -15.9533
   -15.7850 -15.6633 -15.6289 -15.5636 -15.5142 -15.5098 -15.4934 -15.4807
   -15.4668 -15.4559 -15.4368 -15.3795 -15.3722 -15.3484 -15.3283 -15.2906
   -15.2279 -15.1530 -15.1042 -15.0637 -15.0158 -14.9501 -14.9314 -13.4931
   -13.4584 -13.3402  -6.9385  -5.8558  -4.5932  -4.0425  -3.8730  -3.8687
    -3.8346  -3.7549  -3.6058  -3.5112  -3.4979  -3.3016  -3.1910  -3.1223
    -3.0938  -3.0792  -3.0708  -2.8846  -2.8712  -2.8170  -2.7713  -2.7591
    -2.7564  -2.7283  -2.7121  -2.6872  -2.6622  -2.6548  -2.5979  -2.4823
    -2.3610  -2.3480  -2.3282  -2.2460  -2.2362  -2.2228  -2.2194  -2.1947
    -2.1670  -2.1557  -2.1453  -2.0592  -1.9777  -1.8887  -1.8488  -1.7669
    -1.7295  -1.6436  -1.4572  -1.4114  -1.3600  -1.3469  -1.3306  -1.2949
    -1.2607  -1.2107  -1.1641  -1.1390  -1.0623  -0.9643  -0.9455  -0.8569
    -0.7992  -0.7549  -0.6885  -0.6698  -0.6605  -0.6380  -0.5219  -0.4232
    -0.4105  -0.3850  -0.2847  -0.2356  -0.2249  -0.1728  -0.1588  -0.1222
    -0.0736  -0.0145   0.0145   0.0201   0.0534   0.0626   0.1054   0.2240
     0.2467   0.2519   0.3372   0.3651   0.5276   0.5683   0.6997   0.7880
     0.9697   1.0667   1.1316   1.2374   1.6551   1.7144   2.5850   3.2419
     3.2716   3.3037   3.3414   3.3962   3.5042   3.6506   3.6802   3.6991
     3.7233

[...]

          k = 0.0380-0.0419 0.0000 ( 17876 PWs)   bands (ev):

[...]

          k =-0.0760-0.0000 0.0000 ( 17886 PWs)   bands (ev):

[...]

          k =-0.0760-0.0839 0.0000 ( 17948 PWs)   bands (ev):

   -55.9322 -55.9178 -55.9129 -55.9103 -55.8248 -55.8003 -55.7940 -55.7806
   -55.7595 -55.7263 -55.7173 -55.6849 -55.6805 -55.5989 -54.9413 -54.9401
   -32.2974 -32.2944 -32.2360 -32.2311 -32.2247 -32.2206 -32.2017 -32.2000
   -32.1938 -32.1571 -32.1331 -32.1280 -32.1261 -32.0836 -32.0730 -32.0704
   -32.0621 -32.0581 -32.0548 -32.0487 -32.0415 -32.0254 -32.0215 -32.0124
   -32.0088 -32.0025 -32.0022 -32.0007 -31.9836 -31.9548 -31.9440 -31.9430
   -31.9369 -31.9361 -31.9360 -31.9163 -31.9091 -31.9000 -31.8912 -31.8806
   -31.8274 -31.7930 -31.2615 -31.2601 -31.1811 -31.1801 -31.1418 -31.1408
   -20.5009 -18.5471 -16.1197 -16.1012 -15.9066 -15.8617 -15.8559 -15.8024
   -15.7280 -15.7093 -15.6649 -15.6615 -15.6069 -15.5950 -15.5877 -15.5360
   -15.4950 -15.4658 -15.4567 -15.4510 -15.3954 -15.3914 -15.3906 -15.3362
   -15.3207 -15.3064 -15.2770 -15.2728 -15.2051 -15.1804 -15.1047 -13.5012
   -13.4426 -13.4403  -6.9106  -5.8622  -4.5921  -3.5833  -3.4100  -3.3873
    -3.2840  -3.1462  -3.0800  -3.0778  -2.9952  -2.9209  -2.8833  -2.8723
    -2.8396  -2.7907  -2.7834  -2.7782  -2.7629  -2.7500  -2.7279  -2.7130
    -2.6822  -2.6625  -2.6283  -2.6026  -2.5854  -2.5688  -2.5605  -2.5234
    -2.5042  -2.4916  -2.4816  -2.4759  -2.4086  -2.2475  -2.1967  -2.1152
    -2.0899  -2.0822  -2.0357  -2.0214  -2.0081  -1.9957  -1.9794  -1.8718
    -1.7723  -1.6885  -1.6795  -1.6631  -1.6426  -1.6043  -1.4872  -1.4572
    -1.3827  -1.3628  -1.3474  -1.2466  -1.2233  -1.1580  -1.1509  -1.0708
    -1.0257  -1.0135  -0.9515  -0.9113  -0.8967  -0.8385  -0.8133  -0.7470
    -0.6936  -0.6739  -0.6095  -0.5834  -0.5663  -0.5136  -0.4718  -0.4562
    -0.3877  -0.2979  -0.2464  -0.0616   0.0662   0.0846   0.1016   0.1750
     0.2555   0.2947   0.3177   0.3516   0.4383   0.4973   0.5714   0.5887
     0.6119   0.6772   1.4264   1.4280   1.5174   1.5282   2.5051   3.4513
     3.4728   3.4969   3.5479   3.7010   3.7055   3.7235   3.7332   3.8221
     3.8626

     the Fermi energy is     3.2107 ev

!    total energy              =   -2969.03725147 Ry
     estimated scf accuracy    <       0.00000006 Ry
     smearing contrib. (-TS)   =      -0.02335580 Ry
     internal energy E=F+TS    =   -2969.01389567 Ry

     The total energy is F=E-TS. E is the sum of the following terms:
     one-electron contribution =  -23802.34485592 Ry
     hartree contribution      =   11989.57779476 Ry
     xc contribution           =    -490.84875844 Ry
     ewald contribution        =    9334.60155745 Ry
     electric field correction =       0.00036649 Ry

     convergence has been achieved in  52 iterations

     Forces acting on atoms (cartesian axes, Ry/au):

     atom    1 type  1   force =     0.00009312    0.00006534    0.10420413
     atom    2 type  1   force =     0.00010810    0.00003154    0.10424179
     atom    3 type  2   force =     0.00027531   -0.00169880    0.10528034
     atom    4 type  2   force =     0.00011938    0.00146851    0.11699896
     atom    5 type  2   force =     0.00012656    0.00057376   -0.18004167
     atom    6 type  2   force =    -0.00003557   -0.00013488   -0.18011238
     atom    7 type  1   force =    -0.06884967    0.00078658   -0.02953436
     atom    8 type  1   force =    -0.06851190   -0.00143787   -0.02956864
     atom    9 type  1   force =     0.06894648    0.00107487   -0.02958704
     atom   10 type  1   force =     0.06850379   -0.00091222   -0.02964824
     atom   11 type  1   force =    -0.00025278    0.00067548    0.04561575
     atom   12 type  1   force =    -0.00061799    0.00092422    0.04727597
     atom   13 type  1   force =    -0.00011771   -0.00650350   -0.03344924
     atom   14 type  1   force =    -0.00030509    0.00406830   -0.02750333
     atom   15 type  2   force =    -0.00008147   -0.00038807   -0.00000277
     atom   16 type  2   force =    -0.00016819   -0.00040697    0.00005382
     atom   17 type  2   force =    -0.00017865    0.00001929   -0.00010729
     atom   18 type  1   force =    -0.01863647   -0.00141980    0.00430752
     atom   19 type  1   force =    -0.01733150    0.00092895    0.00347481
     atom   20 type  1   force =     0.01934160    0.00093782    0.00436406
     atom   21 type  1   force =     0.01780693    0.00242286    0.00370041
     atom   22 type  2   force =    -0.00020672   -0.00008290   -0.00015227
     atom   23 type  1   force =    -0.00013626    0.00001376    0.00013604
     atom   24 type  1   force =     0.00016607   -0.00001350    0.00020639
     atom   25 type  1   force =     0.00000494    0.00010912   -0.00010199
     atom   26 type  1   force =    -0.00012787   -0.00014826   -0.00008366
     atom   27 type  2   force =     0.00004837    0.00000114   -0.00009024
     atom   28 type  2   force =    -0.00023463    0.00007992   -0.00019161
     atom   29 type  2   force =    -0.00000810    0.00005241   -0.00008922
     atom   30 type  1   force =    -0.00026998   -0.00017371   -0.00017159
     atom   31 type  1   force =     0.00036661   -0.00023471   -0.00019523
     atom   32 type  1   force =    -0.00005522   -0.00017756    0.00015731
     atom   33 type  1   force =    -0.00004869   -0.00005319   -0.00009072
     atom   34 type  2   force =    -0.00005008    0.00017891    0.00007623
     atom   35 type  1   force =     0.00009013   -0.00022085   -0.00022494
     atom   36 type  1   force =     0.00005499    0.00002887   -0.00010039
     atom   37 type  1   force =    -0.00005704    0.00008134   -0.00015412
     atom   38 type  1   force =    -0.00012542    0.00032408   -0.00024989
     atom   39 type  2   force =     0.00003261    0.00010534    0.00037553
     atom   40 type  2   force =     0.00006043   -0.00028573    0.00011863
     atom   41 type  2   force =    -0.00031637   -0.00104533    0.00103109
     atom   42 type  1   force =    -0.00008037    0.00020191   -0.00001144
     atom   43 type  1   force =    -0.00011283    0.00032611   -0.00030989
     atom   44 type  1   force =    -0.00040900   -0.00007120   -0.00017125
     atom   45 type  1   force =     0.00001834    0.00003189    0.00007834
     atom   46 type  2   force =    -0.00002082    0.00019218    0.00132511
     atom   47 type  1   force =    -0.00003457    0.00012691   -0.00045448
     atom   48 type  1   force =    -0.00343963    0.00139189    0.00764849
     atom   49 type  3   force =     0.00783074   -0.00181495   -0.01681211
     atom   50 type  4   force =    -0.00044969    0.00475910    0.00329088
     atom   51 type  5   force =    -0.00424203   -0.00441042    0.00589473
     atom   52 type  5   force =     0.00151780   -0.00034802   -0.00064634

     Total force =     0.376754     Total SCF correction =     0.000735
  @ DRIVER MODE: Message from server: STATUS
  @ DRIVER MODE: Message from server: GETFORCE
  @ DRIVER MODE: Returning v,forces,stress,ensemble

     Writing output data file ./calc.save/
  @ DRIVER MODE: Message from server: EXIT
  @ DRIVE MODE: Exiting

     General routines

     Parallel routines

   This run was terminated on:  17:46:38  14Sep2021

   JOB DONE.