     Program PWSCF v.6.7GPU starts on  2Aug2021 at 22:44:56

     R & G space division:  proc/nbgrp/npool/nimage =      16
     Reading input from /storage/home/hcoda1/3/ntian30/research/carbon/02Aug_vib_paired/ads_slab/CH3NNH3_a/out_0038/pw.inp
Warning: card &CELL ignored
Warning: card   CELL_DYNAMICS='IPI', ignored
Warning: card / ignored

     Current dimensions of program PWSCF are:
     Max number of different atomic species (ntypx) = 10
     Max number of k-points (npk) =  40000
     Max angular momentum in pseudopotentials (lmaxx) =  3
     Presently no symmetry can be used with electric field

     Message from routine cell_base_init:
     DEPRECATED: use true lattice parameter, not A to a.u. conversion factor

     IMPORTANT: XC functional enforced from input :
     Exchange-correlation= BEEF-VDW
                           (   1   4  43  14   2   0   0)
     Any further DFT definition will be discarded
     Please, verify this is what you really want

  @ DRIVER MODE: Connecting to
 qe_1139763_2482544.sched-torque.pace.gatech.eduogamqvte_scratch
  using UNIX socket
  @ DRIVER MODE: Message from server: STATUS
  @ DRIVER MODE: Message from server: INIT
  @ DRIVER MODE: Receiving replica           0          -1
  @ DRIVER MODE: Receiving encoded integer          25
  @ DRIVER MODE:  SCF:  T  FORCE:  T  STRESS:  F  VC:  F  ENSEMBLE:  F
  @ DRIVER MODE:  SCF:  T  FORCE:  T  STRESS:  F  VC:  F  ENSEMBLE:  F

     Using Slab Decomposition

     bravais-lattice index     =            0
     lattice parameter (alat)  =       1.8897  a.u.
     unit-cell volume          =    6658.9804 (a.u.)^3
     number of atoms/cell      =           56
     number of atomic types    =            5
     number of electrons       =       398.00
     number of Kohn-Sham states=          209
     kinetic-energy cutoff     =      29.3995  Ry
     charge density cutoff     =     293.9946  Ry
     scf convergence threshold =      7.3E-08
     mixing beta               =       0.0500
     number of iterations used =            8  plain     mixing
     Exchange-correlation= BEEF-VDW
                           (   1   4  43  14   2   0   0)

     celldm(1)=   1.889726  celldm(2)=   0.000000  celldm(3)=   0.000000
     celldm(4)=   0.000000  celldm(5)=   0.000000  celldm(6)=   0.000000

     crystal axes: (cart. coord. in units of alat)
               a(1) = (   6.579727   0.000000   0.000000 )
               a(2) = (  -0.000775   5.961596   0.000000 )
               a(3) = (   0.000000   0.000000  25.155947 )

     reciprocal axes: (cart. coord. in units 2 pi/alat)
               b(1) = (  0.151982  0.000020  0.000000 )
               b(2) = (  0.000000  0.167740  0.000000 )
               b(3) = (  0.000000  0.000000  0.039752 )

     PseudoPot. # 1 for Ti read from file:
     /storage/coda1/p-amedford6/0/shared/rich_project_chbe-medford/medford-share/data/pseudos_module/espresso/nninc/pbe/van/Ti.UPF
     MD5 check sum: 8e4df49b7f0d34bbd5052bf3f5ea0213
     Pseudo is Ultrasoft, Zval = 12.0
     Generated by new atomic code, or converted to UPF format
     Using radial grid of  851 points,  6 beta functions with:
                l(1) =   0
                l(2) =   0
                l(3) =   1
                l(4) =   1
                l(5) =   2
                l(6) =   2
     Q(r) pseudized with  8 coefficients,  rinner =    1.000   1.000   1.000
                                                       1.000   1.000

     PseudoPot. # 2 for O  read from file:
     /storage/coda1/p-amedford6/0/shared/rich_project_chbe-medford/medford-share/data/pseudos_module/espresso/nninc/pbe/van/O.UPF
     MD5 check sum: 78c19812648e8988a0fe644b0f25305e
     Pseudo is Ultrasoft, Zval =  6.0
     Generated by new atomic code, or converted to UPF format
     Using radial grid of  737 points,  4 beta functions with:
                l(1) =   0
                l(2) =   0
                l(3) =   1
                l(4) =   1
     Q(r) pseudized with  8 coefficients,  rinner =    0.800   0.800   0.800

     PseudoPot. # 3 for N  read from file:
     /storage/coda1/p-amedford6/0/shared/rich_project_chbe-medford/medford-share/data/pseudos_module/espresso/nninc/pbe/van/N.UPF
     MD5 check sum: 90d10febe142ad51ac9d5be1deb811c4
     Pseudo is Ultrasoft, Zval =  5.0
     Generated by new atomic code, or converted to UPF format
     Using radial grid of  729 points,  4 beta functions with:
                l(1) =   0
                l(2) =   0
                l(3) =   1
                l(4) =   1
     Q(r) pseudized with  8 coefficients,  rinner =    0.800   0.800   0.800

     PseudoPot. # 4 for C  read from file:
     /storage/coda1/p-amedford6/0/shared/rich_project_chbe-medford/medford-share/data/pseudos_module/espresso/nninc/pbe/van/C.UPF
     MD5 check sum: 1a69bf6b8db32088f5b2163dbdb77a27
     Pseudo is Ultrasoft, Zval =  4.0
     Generated by new atomic code, or converted to UPF format
     Using radial grid of  721 points,  4 beta functions with:
                l(1) =   0
                l(2) =   0
                l(3) =   1
                l(4) =   1
     Q(r) pseudized with  8 coefficients,  rinner =    0.800   0.800   0.800

     PseudoPot. # 5 for H  read from file:
     /storage/coda1/p-amedford6/0/shared/rich_project_chbe-medford/medford-share/data/pseudos_module/espresso/nninc/pbe/van/H.UPF
     MD5 check sum: b5ee9d7bfd3a09ee7748110bda690ff7
     Pseudo is Ultrasoft, Zval =  1.0
     Generated by new atomic code, or converted to UPF format
     Using radial grid of  615 points,  1 beta functions with:
                l(1) =   0
     Q(r) pseudized with  8 coefficients,  rinner =    0.800

     atomic species   valence    mass     pseudopotential
        Ti1           12.00    47.86700     Ti( 1.00)
        O1             6.00    15.99900     O ( 1.00)
        N1             5.00    14.00700     N ( 1.00)
        C1             4.00    12.01100     C ( 1.00)
        H1             1.00     1.00800     H ( 1.00)

     No symmetry found

   Cartesian axes

     site n.     atom                  positions (alat units)
         1           Ti1 tau(   1) = (   0.0004258   2.9801865   6.0000000  )
         2           Ti1 tau(   2) = (   3.2906075   1.4906267   6.0002472  )
         3           O1  tau(   3) = (   0.0006271   0.0005054   7.9858123  )
         4           O1  tau(   4) = (   3.2906025   0.0005020   7.3038282  )
         5           O1  tau(   5) = (   4.5942328   1.4918067   9.2879030  )
         6           O1  tau(   6) = (   1.9868534   1.4903216   9.2879459  )
         7           Ti1 tau(   7) = (   3.2907910   2.8959150   9.1758416  )
         8           Ti1 tau(   8) = (   0.0015273   1.4827037   9.2680791  )
         9           O1  tau(   9) = (   3.2727297   5.9424138  11.2974721  )
        10           O1  tau(  10) = (   0.0116148   5.9584955  10.6183126  )
        11           O1  tau(  11) = (   1.3027692   1.4721713  12.6242268  )
        12           O1  tau(  12) = (   5.2784376   1.4723552  12.6258992  )
        13           Ti1 tau(  13) = (   6.4570204   2.9507206  12.7630554  )
        14           Ti1 tau(  14) = (   3.1467966   1.4649636  12.4688949  )
        15           O1  tau(  15) = (   6.5600513   5.9133837  14.5918744  )
        16           O1  tau(  16) = (   3.2766225   5.9390981  13.8789110  )
        17           O1  tau(  17) = (   4.4915826   1.4834571  16.0540230  )
        18           O1  tau(  18) = (   2.0416982   1.4849982  16.0411193  )
        19           Ti1 tau(  19) = (   3.2679172   2.9642910  15.6858091  )
        20           Ti1 tau(  20) = (   6.5495220   1.5641796  16.1095294  )
        21           O1  tau(  21) = (   3.2904802   0.0005063   4.7018136  )
        22           O1  tau(  22) = (   6.5606002   0.0080969  17.2010096  )
        23           O1  tau(  23) = (   1.3043587   1.4918075   6.0039043  )
        24           O1  tau(  24) = (   5.2767064   1.4903225   6.0039473  )
        25           Ti1 tau(  25) = (   0.0000382   5.9609847   6.0000000  )
        26           Ti1 tau(  26) = (   3.2902200   4.4714249   6.0002472  )
        27           O1  tau(  27) = (   0.0002396   2.9813036   7.9858123  )
        28           O1  tau(  28) = (   3.2902150   2.9813002   7.3038282  )
        29           O1  tau(  29) = (   4.5938453   4.4726049   9.2879030  )
        30           O1  tau(  30) = (   1.9864658   4.4711199   9.2879459  )
        31           Ti1 tau(  31) = (   3.2891106   5.8743827   9.1763621  )
        32           Ti1 tau(  32) = (   0.0006254   4.4649316   9.2693709  )
        33           O1  tau(  33) = (   3.2718307   2.9587034  11.2961003  )
        34           O1  tau(  34) = (   0.0092240   2.9805883  10.6323155  )
        35           O1  tau(  35) = (   1.3028232   4.4416136  12.6207192  )
        36           O1  tau(  36) = (   5.2777600   4.4366566  12.6238879  )
        37           Ti1 tau(  37) = (   6.4830488   5.9304874  12.7660964  )
        38           Ti1 tau(  38) = (   3.1463657   4.4448748  12.4639736  )
        39           O1  tau(  39) = (   6.5417323   2.9404903  14.6589984  )
        40           O1  tau(  40) = (   3.2789452   2.9619718  13.8791424  )
        41           O1  tau(  41) = (   4.4971312   4.4676043  16.0556370  )
        42           O1  tau(  42) = (   2.0400509   4.4648231  16.0515753  )
        43           Ti1 tau(  43) = (   3.2598176   5.9476019  15.6881950  )
        44           Ti1 tau(  44) = (   6.5485469   4.5424454  16.1156095  )
        45           O1  tau(  45) = (   3.2900926   2.9813045   4.7018136  )
        46           O1  tau(  46) = (   1.3039711   4.4726057   6.0039043  )
        47           O1  tau(  47) = (   5.2763189   4.4711207   6.0039473  )
        48           N1  tau(  48) = (   0.0016189   2.9795595  17.3279962  )
        49           C1  tau(  49) = (   0.1681806   3.0735589  18.7581663  )
        50           H1  tau(  50) = (   6.0068595   3.7517258  19.1994632  )
        51           H1  tau(  51) = (   0.0766375   2.0971904  19.2409400  )
        52           H1  tau(  52) = (   1.1565538   3.4901639  19.0026035  )
        53           N1  tau(  53) = (   4.7601180   1.8141088  21.6614004  )
        54           H1  tau(  54) = (   4.4766586   2.7830198  21.5980365  )
        55           H1  tau(  55) = (   4.1231612   1.2775871  21.0809158  )
        56           H1  tau(  56) = (   4.6015807   1.5257772  22.6208530  )

     number of k points=    10  Fermi-Dirac smearing, width (Ry)=  0.0073
                       cart. coord. in units 2pi/alat
        k(    1) = (   0.0000000   0.0000000   0.0000000), wk =   0.1250000
        k(    2) = (   0.0000000   0.0419351   0.0000000), wk =   0.2500000
        k(    3) = (   0.0000000  -0.0838702   0.0000000), wk =   0.1250000
        k(    4) = (   0.0379955   0.0000049   0.0000000), wk =   0.2500000
        k(    5) = (   0.0379955   0.0419400   0.0000000), wk =   0.2500000
        k(    6) = (   0.0379955  -0.0838652   0.0000000), wk =   0.2500000
        k(    7) = (   0.0379955  -0.0419301   0.0000000), wk =   0.2500000
        k(    8) = (  -0.0759910  -0.0000099   0.0000000), wk =   0.1250000
        k(    9) = (  -0.0759910   0.0419252   0.0000000), wk =   0.2500000
        k(   10) = (  -0.0759910  -0.0838800   0.0000000), wk =   0.1250000

     Initial potential from superposition of free atoms

     starting charge  381.99914, renormalised to  398.00000

     negative rho (up, down):  9.481E-03 0.000E+00

     %%%%%%%%%%%%%%%%%%%%%%%%%%%%%%%%%%%%%%%%%%%%%%%%%%%%%%%%%%%%%%%%%%%%%%%%
     %                                                                      %
     % You are using vdW-DF, which was implemented by the Thonhauser group. %
     % Please cite the following two papers that made this development      %
     % possible and the two reviews that describe the various versions:     %
     %                                                                      %
     %   T. Thonhauser et al., PRL 115, 136402 (2015).                      %
     %   T. Thonhauser et al., PRB 76, 125112 (2007).                       %
     %   K. Berland et al., Rep. Prog. Phys. 78, 066501 (2015).             %
     %   D.C. Langreth et al., J. Phys.: Condens. Matter 21, 084203 (2009). %
     %                                                                      %
     %                                                                      %
     % If you are calculating the stress with vdW-DF, please also cite:     %
     %                                                                      %
     %   R. Sabatini et al., J. Phys.: Condens. Matter 24, 424209 (2012).   %
     %                                                                      %
     %%%%%%%%%%%%%%%%%%%%%%%%%%%%%%%%%%%%%%%%%%%%%%%%%%%%%%%%%%%%%%%%%%%%%%%%

     Adding external electric field

     Computed dipole along edir(3) :
        Dipole              -11.3717 Ry au,        -28.9040 Debye
        Dipole field         -0.0215 Ry au,

        Potential amp.        1.9893 Ry
        Total length         46.3494 bohr

     Starting wfcs are  302 atomic wfcs
  @ DRIVER MODE: Message from server: STATUS
  @ DRIVER MODE: Message from server: POSDATA
  @ DRIVER MODE: Reading and sharing cell
  @ DRIVER MODE: Reading and sharing positions
  @ DRIVER MODE: Received positions

     Self-consistent Calculation

     iteration #  1     ecut=    29.40 Ry     beta= 0.05
     Davidson diagonalization with overlap
     c_bands:  1 eigenvalues not converged
     c_bands:  1 eigenvalues not converged
     c_bands:  2 eigenvalues not converged
     c_bands:  1 eigenvalues not converged
     c_bands:  1 eigenvalues not converged
     c_bands:  1 eigenvalues not converged
     c_bands:  1 eigenvalues not converged
     c_bands:  2 eigenvalues not converged
     c_bands:  2 eigenvalues not converged
     ethr =  1.00E-05,  avg # of iterations = 19.6

[...]

     total energy              =   -2520.79681773 Ry
     estimated scf accuracy    <    4705.92730650 Ry

     iteration #  2     ecut=    29.40 Ry     beta= 0.05
     Davidson diagonalization with overlap
     ethr =  1.00E-02,  avg # of iterations = 21.8

[...]

     iteration # 64     ecut=    29.40 Ry     beta= 0.05
     Davidson diagonalization with overlap
     c_bands:  1 eigenvalues not converged
     ethr =  1.10E-06,  avg # of iterations =  8.2

[...]

     total energy              =   -2942.90676837 Ry
     estimated scf accuracy    <       0.00000010 Ry

     iteration # 84     ecut=    29.40 Ry     beta= 0.05
     Davidson diagonalization with overlap
     ethr =  2.39E-11,  avg # of iterations =  4.7

     negative rho (up, down):  1.096E-02 0.000E+00

     Adding external electric field

     Computed dipole along edir(3) :
        Dipole                0.4520 Ry au,          1.1489 Debye
        Dipole field          0.0009 Ry au,

        Potential amp.       -0.0791 Ry
        Total length         46.3494 bohr

     End of self-consistent calculation

          k = 0.0000 0.0000 0.0000 ( 18029 PWs)   bands (ev):

   -56.6141 -56.5805 -55.7334 -55.7248 -55.6980 -55.6925 -55.5875 -55.5518
   -55.3708 -55.3355 -55.2786 -55.2723 -55.2447 -55.1703 -54.7335 -54.6203
   -33.0420 -32.8887 -32.8605 -32.7903 -32.6992 -32.6680 -32.2080 -32.1973
   -32.1305 -32.0198 -31.9748 -31.9466 -31.9326 -31.9079 -31.8752 -31.8726
   -31.8684 -31.8619 -31.8388 -31.8355 -31.8240 -31.7958 -31.7705 -31.7569
   -31.7437 -31.7237 -31.7159 -31.6926 -31.6710 -31.6171 -31.6023 -31.5930
   -31.5145 -31.5096 -31.4896 -31.4478 -31.4375 -31.4061 -31.3991 -31.3748
   -31.3535 -31.2952 -31.2350 -30.9745 -30.9619 -30.8797 -30.8402 -30.7493
   -16.7782 -16.3438 -16.1140 -15.9767 -15.9090 -15.8549 -15.8093 -15.6883
   -15.6154 -15.6090 -15.5687 -15.5381 -15.4676 -15.3268 -15.2287 -15.1751
   -15.1308 -15.0098 -14.9498 -14.9170 -14.9123 -14.8780 -14.8584 -14.6623
   -14.6379 -14.5353 -14.5255 -14.3998 -14.1775 -13.7773 -13.7240 -13.6672
   -12.7978  -7.4941  -4.3439  -3.8390  -3.8018  -3.7952  -3.6015  -3.5145
    -3.4070  -3.3942  -3.3131  -3.1950  -3.1489  -3.1012  -2.9853  -2.9852
    -2.8358  -2.7958  -2.7899  -2.7859  -2.7409  -2.6775  -2.6618  -2.6228
    -2.6176  -2.6081  -2.4573  -2.3572  -2.2899  -2.2685  -2.2580  -2.2223
    -2.1442  -2.1241  -2.1094  -2.1057  -2.0052  -1.8567  -1.8549  -1.8238
    -1.7804  -1.7787  -1.7408  -1.7260  -1.5906  -1.5168  -1.4140  -1.3967
    -1.3583  -1.2941  -1.2877  -1.1897  -1.1152  -1.0528  -1.0272  -0.9182
    -0.8757  -0.8532  -0.7635  -0.7015  -0.6618  -0.6443  -0.6274  -0.5237
    -0.5037  -0.4926  -0.4078  -0.3960  -0.3388  -0.2574  -0.2378  -0.2316
    -0.1434  -0.1382  -0.0460  -0.0042   0.0376   0.0826   0.1784   0.1967
     0.2996   0.3352   0.3565   0.4762   0.4893   0.5521   0.6194   0.6870
     0.7182   0.7427   0.7721   0.7938   0.8670   0.9819   0.9868   1.0885
     1.1279   1.2957   1.3346   1.3910   1.6225   1.6492   2.3193   2.6605
     2.8205   3.1190   3.3099   3.4210   3.6359   3.6510   3.6563   3.8339
     3.8799

[...]

          k = 0.0380-0.0419 0.0000 ( 17876 PWs)   bands (ev):

[...]

          k =-0.0760-0.0000 0.0000 ( 17886 PWs)   bands (ev):

[...]

          k =-0.0760-0.0839 0.0000 ( 17948 PWs)   bands (ev):

   -56.5974 -56.5971 -55.7173 -55.7122 -55.7097 -55.7091 -55.5722 -55.5668
   -55.3560 -55.3502 -55.2693 -55.2617 -55.2616 -55.1733 -54.7306 -54.6230
   -32.8745 -32.8743 -32.8589 -32.8587 -32.7433 -32.7431 -32.0376 -32.0351
   -32.0216 -32.0155 -31.9653 -31.9642 -31.9219 -31.9205 -31.9192 -31.9181
   -31.9072 -31.9046 -31.9032 -31.9009 -31.8244 -31.8199 -31.7736 -31.7682
   -31.7074 -31.6999 -31.6390 -31.6322 -31.6060 -31.6059 -31.5988 -31.5550
   -31.5528 -31.5250 -31.4899 -31.4872 -31.4871 -31.4481 -31.4480 -31.4430
   -31.4161 -31.3769 -31.1137 -30.9944 -30.9616 -30.9298 -30.8427 -30.8080
   -16.1264 -16.1244 -16.0923 -16.0920 -15.8222 -15.8185 -15.7743 -15.7725
   -15.5999 -15.5940 -15.3873 -15.3771 -15.3712 -15.3671 -15.2430 -15.2341
   -15.1707 -15.1599 -15.0707 -15.0673 -15.0043 -14.9982 -14.9603 -14.9405
   -14.6239 -14.6164 -14.4887 -14.4801 -14.3275 -13.7707 -13.7707 -13.7232
   -12.8143  -7.4841  -3.8172  -3.7944  -3.2261  -3.2255  -3.1599  -3.1586
    -3.0377  -3.0329  -2.9565  -2.9560  -2.8565  -2.8523  -2.7566  -2.7128
    -2.7106  -2.7079  -2.6950  -2.6526  -2.5569  -2.5566  -2.5419  -2.5267
    -2.4713  -2.4692  -2.4546  -2.3820  -2.3685  -2.3326  -2.2933  -2.1868
    -2.1731  -2.1566  -2.1308  -2.0707  -2.0561  -2.0447  -1.9971  -1.9727
    -1.8949  -1.8283  -1.7870  -1.6672  -1.6637  -1.6538  -1.6417  -1.4867
    -1.4509  -1.4196  -1.4100  -1.4039  -1.3594  -1.2616  -1.2536  -1.1190
    -1.1164  -1.0466  -0.9648  -0.9416  -0.9195  -0.7852  -0.7448  -0.7040
    -0.6989  -0.6739  -0.6482  -0.6286  -0.6010  -0.4494  -0.4302  -0.3959
    -0.3651  -0.3570  -0.3158  -0.2475  -0.1678  -0.0870  -0.0858  -0.0194
     0.0328   0.0947   0.1826   0.1950   0.1990   0.4818   0.5620   0.6492
     0.7283   0.7921   0.8580   0.8827   0.9431   0.9822   1.1222   1.1250
     1.1437   1.1441   1.2042   1.2126   1.3734   1.6455   2.2059   3.2336
     3.2339   3.3010   3.3015   3.6252   3.6307   3.7397   3.7488   3.8589
     3.8646

     the Fermi energy is     2.4986 ev

!    total energy              =   -2942.90677394 Ry
     estimated scf accuracy    <       0.00000006 Ry
     smearing contrib. (-TS)   =      -0.00477599 Ry
     internal energy E=F+TS    =   -2942.90199795 Ry

     The total energy is F=E-TS. E is the sum of the following terms:
     one-electron contribution =  -23225.51620096 Ry
     hartree contribution      =   11703.03738653 Ry
     xc contribution           =    -487.47103710 Ry
     ewald contribution        =    9067.04746803 Ry
     electric field correction =       0.00038554 Ry

     convergence has been achieved in  84 iterations

     Forces acting on atoms (cartesian axes, Ry/au):

     atom    1 type  1   force =     0.00000666   -0.00043840    0.12431107
     atom    2 type  1   force =    -0.00005697   -0.00054389   -0.16063963
     atom    3 type  2   force =     0.00016486   -0.00030001   -0.06836329
     atom    4 type  2   force =    -0.00005103   -0.00038593    0.02752820
     atom    5 type  2   force =    -0.01677709    0.00112748   -0.00832473
     atom    6 type  2   force =     0.01782918    0.00162747   -0.01021606
     atom    7 type  1   force =     0.00040017   -0.00408463    0.02183047
     atom    8 type  1   force =     0.00020011   -0.00219283    0.11169585
     atom    9 type  2   force =     0.00010169    0.00018718   -0.00030305
     atom   10 type  2   force =    -0.00319727    0.00010925   -0.07305658
     atom   11 type  2   force =    -0.00034787    0.00033096   -0.00007510
     atom   12 type  2   force =     0.00014698    0.00045140   -0.00003267
     atom   13 type  1   force =     0.00013348   -0.00024639   -0.00002132
     atom   14 type  1   force =    -0.00016661    0.00003969   -0.00032978
     atom   15 type  2   force =    -0.00004714   -0.00024445    0.00019013
     atom   16 type  2   force =     0.00032787    0.00076741    0.00001215
     atom   17 type  2   force =     0.00020810    0.00031174   -0.00029922
     atom   18 type  2   force =    -0.00021373    0.00021701    0.00010282
     atom   19 type  1   force =     0.00049580   -0.00009501   -0.00024313
     atom   20 type  1   force =     0.00026013   -0.00037468   -0.00050759
     atom   21 type  2   force =     0.00010203    0.00008266    0.09969749
     atom   22 type  2   force =     0.00007731    0.00094767    0.00047619
     atom   23 type  2   force =    -0.07916305    0.00008875   -0.03243374
     atom   24 type  2   force =     0.07907067    0.00051529   -0.03242797
     atom   25 type  1   force =     0.00003055   -0.00041058    0.12383551
     atom   26 type  1   force =    -0.00003855   -0.00041987   -0.16076198
     atom   27 type  2   force =     0.00028801   -0.00046754   -0.06735581
     atom   28 type  2   force =    -0.00005388   -0.00020316    0.02726117
     atom   29 type  2   force =    -0.01730696    0.00074095   -0.00825076
     atom   30 type  2   force =     0.01827589    0.00113861   -0.01008689
     atom   31 type  1   force =     0.00033883   -0.00100083    0.02129619
     atom   32 type  1   force =     0.00021441   -0.00027750    0.11224988
     atom   33 type  2   force =     0.00011922    0.00051218   -0.00006933
     atom   34 type  2   force =    -0.00294363   -0.00065471   -0.07291406
     atom   35 type  2   force =    -0.00025223    0.00027222   -0.00009955
     atom   36 type  2   force =     0.00010364    0.00013782   -0.00003423
     atom   37 type  1   force =     0.00013939   -0.00015301    0.00023449
     atom   38 type  1   force =     0.00006097    0.00005347    0.00030553
     atom   39 type  2   force =     0.00021242    0.00037524   -0.00014828
     atom   40 type  2   force =     0.00009980    0.00034494    0.00014798
     atom   41 type  2   force =    -0.00014543    0.00033031    0.00015239
     atom   42 type  2   force =    -0.00004214    0.00059522   -0.00002983
     atom   43 type  1   force =     0.00059491    0.00052265    0.00046808
     atom   44 type  1   force =     0.00014771    0.00032665   -0.00041870
     atom   45 type  2   force =     0.00010555    0.00005001    0.09972273
     atom   46 type  2   force =    -0.07917098    0.00012606   -0.03243551
     atom   47 type  2   force =     0.07907484    0.00056044   -0.03242404
     atom   48 type  3   force =     0.00041945    0.00030025   -0.00024879
     atom   49 type  4   force =     0.00074665   -0.00037979    0.00176124
     atom   50 type  5   force =     0.00055087   -0.00034412   -0.00037219
     atom   51 type  5   force =    -0.00021207    0.00034152   -0.00011783
     atom   52 type  5   force =    -0.00072808   -0.00060074    0.00024332
     atom   53 type  3   force =     0.00279787   -0.00537216    0.00127996
     atom   54 type  5   force =    -0.00196346    0.00463176   -0.00160954
     atom   55 type  5   force =     0.00013240    0.00139147    0.00024022
     atom   56 type  5   force =    -0.00110022   -0.00036548   -0.00039187

     Total force =     0.425028     Total SCF correction =     0.000495
  @ DRIVER MODE: Message from server: STATUS
  @ DRIVER MODE: Message from server: GETFORCE
  @ DRIVER MODE: Returning v,forces,stress,ensemble

     Writing output data file ./calc.save/
  @ DRIVER MODE: Message from server: EXIT
  @ DRIVE MODE: Exiting

     General routines

     Parallel routines

   This run was terminated on:  23: 1:55   2Aug2021

   JOB DONE.