     Program PWSCF v.6.7GPU starts on 15Sep2021 at 19:25: 1

     R & G space division:  proc/nbgrp/npool/nimage =      10
     Reading input from /storage/home/hcoda1/3/ntian30/research/carbon/CxH_vib/H2O_calc/ads_slab/CH2OH2O_a/out_0011/pw.inp
Warning: card &CELL ignored
Warning: card   CELL_DYNAMICS='IPI', ignored
Warning: card / ignored

     Current dimensions of program PWSCF are:
     Max number of different atomic species (ntypx) = 10
     Max number of k-points (npk) =  40000
     Max angular momentum in pseudopotentials (lmaxx) =  3
     Presently no symmetry can be used with electric field

     Message from routine cell_base_init:
     DEPRECATED: use true lattice parameter, not A to a.u. conversion factor

     IMPORTANT: XC functional enforced from input :
     Exchange-correlation= BEEF-VDW
                           (   1   4  43  14   2   0   0)
     Any further DFT definition will be discarded
     Please, verify this is what you really want

  @ DRIVER MODE: Connecting to
 qe_1139763_2852613.sched-torque.pace.gatech.edunagle9tc_scratch
  using UNIX socket
  @ DRIVER MODE: Message from server: STATUS
  @ DRIVER MODE: Message from server: INIT
  @ DRIVER MODE: Receiving replica           0          -1
  @ DRIVER MODE: Receiving encoded integer          25
  @ DRIVER MODE:  SCF:  T  FORCE:  T  STRESS:  F  VC:  F  ENSEMBLE:  F
  @ DRIVER MODE:  SCF:  T  FORCE:  T  STRESS:  F  VC:  F  ENSEMBLE:  F

     Using Slab Decomposition

     bravais-lattice index     =            0
     lattice parameter (alat)  =       1.8897  a.u.
     unit-cell volume          =    6658.9804 (a.u.)^3
     number of atoms/cell      =           54
     number of atomic types    =            4
     number of electrons       =       398.00
     number of Kohn-Sham states=          209
     kinetic-energy cutoff     =      29.3995  Ry
     charge density cutoff     =     293.9946  Ry
     scf convergence threshold =      7.3E-08
     mixing beta               =       0.0500
     number of iterations used =            8  plain     mixing
     Exchange-correlation= BEEF-VDW
                           (   1   4  43  14   2   0   0)

     celldm(1)=   1.889726  celldm(2)=   0.000000  celldm(3)=   0.000000
     celldm(4)=   0.000000  celldm(5)=   0.000000  celldm(6)=   0.000000

     crystal axes: (cart. coord. in units of alat)
               a(1) = (   6.579727   0.000000   0.000000 )
               a(2) = (  -0.000775   5.961596   0.000000 )
               a(3) = (   0.000000   0.000000  25.155947 )

     reciprocal axes: (cart. coord. in units 2 pi/alat)
               b(1) = (  0.151982  0.000020  0.000000 )
               b(2) = (  0.000000  0.167740  0.000000 )
               b(3) = (  0.000000  0.000000  0.039752 )

     PseudoPot. # 1 for O  read from file:
     /storage/coda1/p-amedford6/0/shared/rich_project_chbe-medford/medford-share/data/pseudos_module/espresso/nninc/pbe/van/O.UPF
     MD5 check sum: 78c19812648e8988a0fe644b0f25305e
     Pseudo is Ultrasoft, Zval =  6.0
     Generated by new atomic code, or converted to UPF format
     Using radial grid of  737 points,  4 beta functions with:
                l(1) =   0
                l(2) =   0
                l(3) =   1
                l(4) =   1
     Q(r) pseudized with  8 coefficients,  rinner =    0.800   0.800   0.800

     PseudoPot. # 2 for Ti read from file:
     /storage/coda1/p-amedford6/0/shared/rich_project_chbe-medford/medford-share/data/pseudos_module/espresso/nninc/pbe/van/Ti.UPF
     MD5 check sum: 8e4df49b7f0d34bbd5052bf3f5ea0213
     Pseudo is Ultrasoft, Zval = 12.0
     Generated by new atomic code, or converted to UPF format
     Using radial grid of  851 points,  6 beta functions with:
                l(1) =   0
                l(2) =   0
                l(3) =   1
                l(4) =   1
                l(5) =   2
                l(6) =   2
     Q(r) pseudized with  8 coefficients,  rinner =    1.000   1.000   1.000
                                                       1.000   1.000

     PseudoPot. # 3 for C  read from file:
     /storage/coda1/p-amedford6/0/shared/rich_project_chbe-medford/medford-share/data/pseudos_module/espresso/nninc/pbe/van/C.UPF
     MD5 check sum: 1a69bf6b8db32088f5b2163dbdb77a27
     Pseudo is Ultrasoft, Zval =  4.0
     Generated by new atomic code, or converted to UPF format
     Using radial grid of  721 points,  4 beta functions with:
                l(1) =   0
                l(2) =   0
                l(3) =   1
                l(4) =   1
     Q(r) pseudized with  8 coefficients,  rinner =    0.800   0.800   0.800

     PseudoPot. # 4 for H  read from file:
     /storage/coda1/p-amedford6/0/shared/rich_project_chbe-medford/medford-share/data/pseudos_module/espresso/nninc/pbe/van/H.UPF
     MD5 check sum: b5ee9d7bfd3a09ee7748110bda690ff7
     Pseudo is Ultrasoft, Zval =  1.0
     Generated by new atomic code, or converted to UPF format
     Using radial grid of  615 points,  1 beta functions with:
                l(1) =   0
     Q(r) pseudized with  8 coefficients,  rinner =    0.800

     atomic species   valence    mass     pseudopotential
        O1             6.00    15.99900     O ( 1.00)
        Ti1           12.00    47.86700     Ti( 1.00)
        C1             4.00    12.01100     C ( 1.00)
        H1             1.00     1.00800     H ( 1.00)

     No symmetry found

   Cartesian axes

     site n.     atom                  positions (alat units)
         1           O1  tau(   1) = (   3.2904802   0.0005063   4.7018136  )
         2           O1  tau(   2) = (   3.2900926   2.9813045   4.7018136  )
         3           Ti1 tau(   3) = (   0.0004258   2.9801865   6.0000000  )
         4           Ti1 tau(   4) = (   0.0000382   5.9609847   6.0000000  )
         5           Ti1 tau(   5) = (   3.2906075   1.4906267   6.0002472  )
         6           Ti1 tau(   6) = (   3.2902200   4.4714249   6.0002472  )
         7           O1  tau(   7) = (   1.3043587   1.4918075   6.0039043  )
         8           O1  tau(   8) = (   1.3039711   4.4726057   6.0039043  )
         9           O1  tau(   9) = (   5.2767064   1.4903225   6.0039473  )
        10           O1  tau(  10) = (   5.2763189   4.4711207   6.0039473  )
        11           O1  tau(  11) = (   3.2906025   0.0005020   7.3038282  )
        12           O1  tau(  12) = (   3.2902150   2.9813002   7.3038282  )
        13           O1  tau(  13) = (   0.0006271   0.0005054   7.9858123  )
        14           O1  tau(  14) = (   0.0002396   2.9813036   7.9858123  )
        15           Ti1 tau(  15) = (   3.3036605   0.0548493   9.1550340  )
        16           Ti1 tau(  16) = (   3.3179312   3.0323762   9.1622521  )
        17           Ti1 tau(  17) = (   0.0293130   4.5303424   9.2586280  )
        18           Ti1 tau(  18) = (   0.0255512   1.6071936   9.3606264  )
        19           O1  tau(  19) = (   4.5942328   1.4918067   9.2879030  )
        20           O1  tau(  20) = (   4.5938453   4.4726049   9.2879030  )
        21           O1  tau(  21) = (   1.9868534   1.4903216   9.2879459  )
        22           O1  tau(  22) = (   1.9864658   4.4711199   9.2879459  )
        23           O1  tau(  23) = (   0.0067149   0.0090568  10.6008527  )
        24           O1  tau(  24) = (   0.0066098   2.9904127  10.5810825  )
        25           O1  tau(  25) = (   3.3023248   2.9935247  11.3558429  )
        26           O1  tau(  26) = (   3.3019398   0.0103095  11.3581380  )
        27           Ti1 tau(  27) = (   0.0322082   0.0188897  12.5014682  )
        28           Ti1 tau(  28) = (   3.3323403   4.4947089  12.5096490  )
        29           Ti1 tau(  29) = (   3.3327227   1.5059056  12.5040540  )
        30           Ti1 tau(  30) = (   0.0321551   3.0004163  12.7750784  )
        31           O1  tau(  31) = (   1.2963378   4.4834263  12.6382484  )
        32           O1  tau(  32) = (   1.2968596   1.4996660  12.6342602  )
        33           O1  tau(  33) = (   5.3004736   4.4821179  12.6410582  )
        34           O1  tau(  34) = (   5.3007909   1.4998706  12.6367838  )
        35           O1  tau(  35) = (   3.3017874   2.9879694  13.9086975  )
        36           O1  tau(  36) = (   3.3040514   0.0100701  13.9766235  )
        37           O1  tau(  37) = (   0.0177811   0.0165449  14.6846256  )
        38           O1  tau(  38) = (   0.0218693   2.9952767  14.7100221  )
        39           Ti1 tau(  39) = (   3.3083447   2.9915206  15.7010863  )
        40           Ti1 tau(  40) = (   3.3165693   0.0114089  15.8055842  )
        41           Ti1 tau(  41) = (   0.0300915   4.5703342  15.9344200  )
        42           Ti1 tau(  42) = (   0.0294271   1.3911826  15.9958598  )
        43           O1  tau(  43) = (   4.5666857   4.4545776  16.0545193  )
        44           O1  tau(  44) = (   4.5654216   1.5273373  16.0688375  )
        45           O1  tau(  45) = (   2.0398213   1.5345912  16.0698912  )
        46           O1  tau(  46) = (   2.0372649   4.4468515  16.0554978  )
        47           O1  tau(  47) = (   0.0160947   0.0056016  17.2166677  )
        48           O1  tau(  48) = (   6.5639191   3.0028441  17.4181802  )
        49           C1  tau(  49) = (   6.3909186   3.0704891  18.6802598  )
        50           H1  tau(  50) = (   6.3116585   4.0479728  19.1570877  )
        51           H1  tau(  51) = (   6.3127454   2.1532251  19.2664540  )
        52           O1  tau(  52) = (   3.2659488   5.9319982  18.2141537  )
        53           H1  tau(  53) = (   4.0486762   5.9278262  18.7801078  )
        54           H1  tau(  54) = (   2.4667005   5.9275743  18.7583984  )

     number of k points=    10  Fermi-Dirac smearing, width (Ry)=  0.0073
                       cart. coord. in units 2pi/alat
        k(    1) = (   0.0000000   0.0000000   0.0000000), wk =   0.1250000
        k(    2) = (   0.0000000   0.0419351   0.0000000), wk =   0.2500000
        k(    3) = (   0.0000000  -0.0838702   0.0000000), wk =   0.1250000
        k(    4) = (   0.0379955   0.0000049   0.0000000), wk =   0.2500000
        k(    5) = (   0.0379955   0.0419400   0.0000000), wk =   0.2500000
        k(    6) = (   0.0379955  -0.0838652   0.0000000), wk =   0.2500000
        k(    7) = (   0.0379955  -0.0419301   0.0000000), wk =   0.2500000
        k(    8) = (  -0.0759910  -0.0000099   0.0000000), wk =   0.1250000
        k(    9) = (  -0.0759910   0.0419252   0.0000000), wk =   0.2500000
        k(   10) = (  -0.0759910  -0.0838800   0.0000000), wk =   0.1250000

     Initial potential from superposition of free atoms

     starting charge  381.99917, renormalised to  398.00000

     negative rho (up, down):  1.686E-02 0.000E+00

     %%%%%%%%%%%%%%%%%%%%%%%%%%%%%%%%%%%%%%%%%%%%%%%%%%%%%%%%%%%%%%%%%%%%%%%%
     %                                                                      %
     % You are using vdW-DF, which was implemented by the Thonhauser group. %
     % Please cite the following two papers that made this development      %
     % possible and the two reviews that describe the various versions:     %
     %                                                                      %
     %   T. Thonhauser et al., PRL 115, 136402 (2015).                      %
     %   T. Thonhauser et al., PRB 76, 125112 (2007).                       %
     %   K. Berland et al., Rep. Prog. Phys. 78, 066501 (2015).             %
     %   D.C. Langreth et al., J. Phys.: Condens. Matter 21, 084203 (2009). %
     %                                                                      %
     %                                                                      %
     % If you are calculating the stress with vdW-DF, please also cite:     %
     %                                                                      %
     %   R. Sabatini et al., J. Phys.: Condens. Matter 24, 424209 (2012).   %
     %                                                                      %
     %%%%%%%%%%%%%%%%%%%%%%%%%%%%%%%%%%%%%%%%%%%%%%%%%%%%%%%%%%%%%%%%%%%%%%%%

     Adding external electric field

     Computed dipole along edir(3) :
        Dipole               -9.6341 Ry au,        -24.4874 Debye
        Dipole field         -0.0182 Ry au,

        Potential amp.        1.6853 Ry
        Total length         46.3494 bohr

     Starting wfcs are  300 atomic wfcs
  @ DRIVER MODE: Message from server: STATUS
  @ DRIVER MODE: Message from server: POSDATA
  @ DRIVER MODE: Reading and sharing cell
  @ DRIVER MODE: Reading and sharing positions
  @ DRIVER MODE: Received positions

     Self-consistent Calculation

     iteration #  1     ecut=    29.40 Ry     beta= 0.05
     Davidson diagonalization with overlap
     c_bands:  1 eigenvalues not converged
     c_bands:  3 eigenvalues not converged
     c_bands:  2 eigenvalues not converged
     c_bands:  2 eigenvalues not converged
     c_bands:  2 eigenvalues not converged
     c_bands:  1 eigenvalues not converged
     c_bands:  2 eigenvalues not converged
     c_bands:  1 eigenvalues not converged
     c_bands:  2 eigenvalues not converged
     ethr =  1.00E-05,  avg # of iterations = 19.6

[...]

     total energy              =   -2526.87484065 Ry
     estimated scf accuracy    <    4873.07254334 Ry

     iteration #  2     ecut=    29.40 Ry     beta= 0.05
     Davidson diagonalization with overlap
     ethr =  1.00E-02,  avg # of iterations = 27.4

[...]

     iteration # 71     ecut=    29.40 Ry     beta= 0.05
     Davidson diagonalization with overlap
     c_bands:  1 eigenvalues not converged
     c_bands:  1 eigenvalues not converged
     ethr =  5.46E-11,  avg # of iterations = 16.0

[...]

     total energy              =   -2964.99512168 Ry
     estimated scf accuracy    <       0.00000033 Ry

     iteration # 72     ecut=    29.40 Ry     beta= 0.05
     Davidson diagonalization with overlap
     ethr =  5.46E-11,  avg # of iterations = 10.3

     negative rho (up, down):  1.527E-02 0.000E+00

     Adding external electric field

     Computed dipole along edir(3) :
        Dipole                1.2310 Ry au,          3.1289 Debye
        Dipole field          0.0023 Ry au,

        Potential amp.       -0.2153 Ry
        Total length         46.3494 bohr

     End of self-consistent calculation

          k = 0.0000 0.0000 0.0000 ( 18029 PWs)   bands (ev):

   -55.5313 -55.4945 -55.4936 -55.4575 -55.4558 -55.4102 -55.3737 -55.3067
   -55.2940 -55.2734 -55.2606 -55.2524 -55.2122 -55.2013 -54.5426 -54.5085
   -32.0493 -32.0017 -31.8880 -31.8485 -31.8445 -31.8255 -31.8051 -31.7971
   -31.7730 -31.7612 -31.7287 -31.7174 -31.6901 -31.6790 -31.6750 -31.6427
   -31.6384 -31.6313 -31.6265 -31.6236 -31.5948 -31.5899 -31.5817 -31.5776
   -31.5529 -31.5459 -31.5427 -31.5222 -31.5151 -31.5134 -31.4681 -31.4677
   -31.4441 -31.4387 -31.4265 -31.4197 -31.4156 -31.3999 -31.3888 -31.3882
   -31.3836 -31.3703 -30.9521 -30.8559 -30.8336 -30.7687 -30.6826 -30.5715
   -19.5219 -19.1431 -16.2476 -15.9849 -15.8164 -15.7018 -15.6549 -15.4526
   -15.3602 -15.2814 -15.2179 -15.1384 -15.1210 -15.0845 -15.0570 -15.0513
   -15.0500 -15.0023 -14.9889 -14.9496 -14.9371 -14.9359 -14.9168 -14.8983
   -14.8162 -14.7183 -14.6719 -14.6524 -14.5958 -14.5369 -14.5278 -13.0433
   -12.9252  -9.0134  -7.1569  -5.2613  -5.2505  -3.7780  -3.5696  -3.4504
    -3.4160  -3.3869  -3.3125  -3.2143  -3.1260  -3.0301  -2.7918  -2.7024
    -2.6683  -2.6132  -2.6018  -2.5048  -2.4598  -2.3545  -2.3450  -2.3415
    -2.3241  -2.3000  -2.2685  -2.2257  -2.2028  -2.1870  -2.0608  -2.0587
    -1.9227  -1.9138  -1.8908  -1.8352  -1.8328  -1.7892  -1.7786  -1.7758
    -1.7590  -1.7113  -1.6995  -1.5881  -1.5121  -1.4488  -1.3638  -1.2238
    -1.1632  -1.1003  -1.0411  -1.0020  -0.9393  -0.9354  -0.8810  -0.8413
    -0.7833  -0.7743  -0.7655  -0.6688  -0.5739  -0.5484  -0.5199  -0.4383
    -0.3653  -0.2739  -0.2582  -0.2536  -0.2511  -0.2307  -0.1013  -0.0094
     0.0470   0.0517   0.1498   0.1828   0.2150   0.2314   0.2635   0.2833
     0.3395   0.4126   0.4242   0.4402   0.4663   0.5125   0.5179   0.6301
     0.7048   0.7063   0.7446   0.7773   0.9494   0.9873   1.1151   1.2203
     1.3887   1.4818   1.5532   1.6547   2.0678   2.1254   3.6416   3.6836
     3.6985   3.7392   3.7904   3.8198   3.8841   4.0842   4.1003   4.1101
     4.1494

[...]

          k = 0.0380-0.0419 0.0000 ( 17876 PWs)   bands (ev):

[...]

          k =-0.0760-0.0000 0.0000 ( 17886 PWs)   bands (ev):

[...]

          k =-0.0760-0.0839 0.0000 ( 17948 PWs)   bands (ev):

   -55.5199 -55.5058 -55.4768 -55.4740 -55.4543 -55.4000 -55.3839 -55.3032
   -55.2788 -55.2763 -55.2679 -55.2539 -55.2175 -55.2041 -54.5261 -54.5249
   -31.8600 -31.8452 -31.8257 -31.8130 -31.8102 -31.7907 -31.7671 -31.7514
   -31.7353 -31.7309 -31.7304 -31.7221 -31.6888 -31.6560 -31.6484 -31.6446
   -31.6354 -31.6326 -31.6307 -31.6269 -31.6211 -31.6023 -31.6014 -31.6006
   -31.5955 -31.5806 -31.5612 -31.5467 -31.5330 -31.5302 -31.5232 -31.5060
   -31.4885 -31.4841 -31.4802 -31.4756 -31.4610 -31.4408 -31.4359 -31.4284
   -31.3980 -31.3936 -30.8469 -30.8455 -30.7655 -30.7646 -30.7261 -30.7251
   -19.5137 -19.1426 -15.6991 -15.5892 -15.5567 -15.4081 -15.4039 -15.3540
   -15.3454 -15.3105 -15.2295 -15.2260 -15.1763 -15.1600 -15.1244 -15.1008
   -15.0888 -15.0407 -15.0384 -15.0213 -14.9965 -14.9769 -14.9604 -14.9328
   -14.9104 -14.9036 -14.8636 -14.8553 -14.7908 -14.7441 -14.7151 -13.0276
   -13.0255  -9.0144  -7.1544  -5.2377  -5.2289  -3.7362  -3.2391  -2.9830
    -2.7960  -2.7802  -2.6474  -2.6125  -2.5941  -2.5042  -2.4715  -2.4372
    -2.3746  -2.3629  -2.3565  -2.3349  -2.3321  -2.3161  -2.2981  -2.2606
    -2.2487  -2.2202  -2.1876  -2.1726  -2.1525  -2.1430  -2.1135  -2.0950
    -2.0834  -2.0779  -2.0180  -1.9961  -1.9158  -1.8378  -1.7565  -1.7060
    -1.6740  -1.6703  -1.6333  -1.5950  -1.5870  -1.5718  -1.4260  -1.3823
    -1.2545  -1.2424  -1.2215  -1.1479  -1.1338  -1.1062  -1.0914  -1.0296
    -0.9387  -0.9349  -0.9149  -0.8854  -0.7950  -0.7289  -0.6862  -0.6492
    -0.6066  -0.5768  -0.5028  -0.4876  -0.4771  -0.4151  -0.3773  -0.2893
    -0.2754  -0.2563  -0.2050  -0.1764  -0.1463  -0.0732  -0.0555  -0.0333
     0.0463   0.1066   0.1206   0.3306   0.4940   0.5214   0.5379   0.6238
     0.6683   0.7795   0.7982   0.8081   0.8540   0.8995   0.9878   1.0139
     1.0157   1.0930   1.8421   1.8428   1.9302   1.9408   3.5743   3.8868
     3.9501   3.9733   3.9999   4.1153   4.1180   4.1372   4.1458   4.2882
     4.3058

     the Fermi energy is     3.6202 ev

!    total energy              =   -2964.99514731 Ry
     estimated scf accuracy    <       0.00000006 Ry
     smearing contrib. (-TS)   =      -0.03119438 Ry
     internal energy E=F+TS    =   -2964.96395292 Ry

     The total energy is F=E-TS. E is the sum of the following terms:
     one-electron contribution =  -24344.72280955 Ry
     hartree contribution      =   12265.47572494 Ry
     xc contribution           =    -490.11001897 Ry
     ewald contribution        =    9604.39029090 Ry
     electric field correction =       0.00285976 Ry

     convergence has been achieved in  72 iterations

     Forces acting on atoms (cartesian axes, Ry/au):

     atom    1 type  1   force =    -0.00009684    0.00006751    0.10409472
     atom    2 type  1   force =    -0.00009061    0.00006208    0.10409938
     atom    3 type  2   force =    -0.00029376   -0.00188395    0.10331491
     atom    4 type  2   force =    -0.00015377    0.00151578    0.11463385
     atom    5 type  2   force =    -0.00038712    0.00124668   -0.17935062
     atom    6 type  2   force =    -0.00016821   -0.00076343   -0.17972837
     atom    7 type  1   force =    -0.06939862    0.00065622   -0.02930589
     atom    8 type  1   force =    -0.06894924   -0.00122819   -0.02935207
     atom    9 type  1   force =     0.06904612    0.00115034   -0.02936868
     atom   10 type  1   force =     0.06867914   -0.00080994   -0.02942900
     atom   11 type  1   force =     0.00041956    0.00056964    0.04681228
     atom   12 type  1   force =     0.00063277    0.00080666    0.04851834
     atom   13 type  1   force =     0.00026826   -0.00568696   -0.03325807
     atom   14 type  1   force =     0.00033391    0.00339806   -0.02639563
     atom   15 type  2   force =    -0.00010342   -0.00002298    0.00040850
     atom   16 type  2   force =     0.00001877    0.00002373    0.00052313
     atom   17 type  2   force =    -0.00002445    0.00012667    0.00044841
     atom   18 type  2   force =    -0.00006092   -0.00033969    0.00008850
     atom   19 type  1   force =    -0.01807682   -0.00015442    0.00403368
     atom   20 type  1   force =    -0.01685227    0.00147182    0.00328031
     atom   21 type  1   force =     0.01934607   -0.00136520    0.00448246
     atom   22 type  1   force =     0.01791319    0.00115915    0.00355426
     atom   23 type  1   force =     0.00001919    0.00003334   -0.00012386
     atom   24 type  1   force =    -0.00005254    0.00000064   -0.00005179
     atom   25 type  1   force =    -0.00004805    0.00000706   -0.00058965
     atom   26 type  1   force =    -0.00023043    0.00014878   -0.00065672
     atom   27 type  2   force =     0.00003579    0.00014038   -0.00055642
     atom   28 type  2   force =     0.00022799    0.00001652   -0.00018806
     atom   29 type  2   force =     0.00022273    0.00000721   -0.00030246
     atom   30 type  2   force =    -0.00010083    0.00019068   -0.00005223
     atom   31 type  1   force =    -0.00064410   -0.00025435    0.00057027
     atom   32 type  1   force =    -0.00055503    0.00033840    0.00059943
     atom   33 type  1   force =     0.00040863   -0.00015168    0.00038805
     atom   34 type  1   force =     0.00033023    0.00020325    0.00041555
     atom   35 type  1   force =    -0.00014752    0.00001353    0.00039048
     atom   36 type  1   force =    -0.00008724    0.00001066   -0.00002164
     atom   37 type  1   force =    -0.00036207    0.00000679    0.00010625
     atom   38 type  1   force =    -0.00050479    0.00026011    0.00042644
     atom   39 type  2   force =    -0.00019939   -0.00009684    0.00081836
     atom   40 type  2   force =     0.00004034    0.00021025   -0.00173408
     atom   41 type  2   force =    -0.00026250    0.00007360   -0.00239061
     atom   42 type  2   force =    -0.00023360   -0.00003816   -0.00226052
     atom   43 type  1   force =     0.00029651    0.00002874    0.00061688
     atom   44 type  1   force =     0.00023479    0.00011270    0.00041253
     atom   45 type  1   force =    -0.00066113   -0.00007868    0.00027814
     atom   46 type  1   force =    -0.00071276    0.00025474    0.00043048
     atom   47 type  1   force =    -0.00004557   -0.00022548    0.00061672
     atom   48 type  1   force =     0.00176672   -0.00054223   -0.01435774
     atom   49 type  3   force =    -0.00284482   -0.00053731    0.02463940
     atom   50 type  4   force =     0.00088679   -0.00447765   -0.00286686
     atom   51 type  4   force =     0.00084344    0.00370170   -0.00476832
     atom   52 type  1   force =     0.00047856    0.00064776   -0.00047906
     atom   53 type  4   force =     0.00037581    0.00000151    0.00023355
     atom   54 type  4   force =    -0.00047691   -0.00000554   -0.00164689

     Total force =     0.375705     Total SCF correction =     0.000507
  @ DRIVER MODE: Message from server: STATUS
  @ DRIVER MODE: Message from server: GETFORCE
  @ DRIVER MODE: Returning v,forces,stress,ensemble

     Writing output data file ./calc.save/
  @ DRIVER MODE: Message from server: EXIT
  @ DRIVE MODE: Exiting

     General routines

     Parallel routines

   This run was terminated on:  19:45: 2  15Sep2021

   JOB DONE.