     Program PWSCF v.6.7GPU starts on 22Sep2021 at 22:35: 2

     R & G space division:  proc/nbgrp/npool/nimage =      10
     Reading input from /storage/home/hcoda1/3/ntian30/research/carbon/CxH_vib/H2O_calc/ads_slab/CH3NHHH2O_a/out_0021/pw.inp
Warning: card &CELL ignored
Warning: card   CELL_DYNAMICS='IPI', ignored
Warning: card / ignored

     Current dimensions of program PWSCF are:
     Max number of different atomic species (ntypx) = 10
     Max number of k-points (npk) =  40000
     Max angular momentum in pseudopotentials (lmaxx) =  3
     Presently no symmetry can be used with electric field

     Message from routine cell_base_init:
     DEPRECATED: use true lattice parameter, not A to a.u. conversion factor

     IMPORTANT: XC functional enforced from input :
     Exchange-correlation= BEEF-VDW
                           (   1   4  43  14   2   0   0)
     Any further DFT definition will be discarded
     Please, verify this is what you really want

  @ DRIVER MODE: Connecting to
 qe_1139763_2937309.sched-torque.pace.gatech.eduud6hm4y__scratch
  using UNIX socket
  @ DRIVER MODE: Message from server: STATUS
  @ DRIVER MODE: Message from server: INIT
  @ DRIVER MODE: Receiving replica           0          -1
  @ DRIVER MODE: Receiving encoded integer          25
  @ DRIVER MODE:  SCF:  T  FORCE:  T  STRESS:  F  VC:  F  ENSEMBLE:  F
  @ DRIVER MODE:  SCF:  T  FORCE:  T  STRESS:  F  VC:  F  ENSEMBLE:  F

     Using Slab Decomposition

     bravais-lattice index     =            0
     lattice parameter (alat)  =       1.8897  a.u.
     unit-cell volume          =    6658.9804 (a.u.)^3
     number of atoms/cell      =           57
     number of atomic types    =            5
     number of electrons       =       400.00
     number of Kohn-Sham states=          210
     kinetic-energy cutoff     =      29.3995  Ry
     charge density cutoff     =     293.9946  Ry
     scf convergence threshold =      7.3E-08
     mixing beta               =       0.0500
     number of iterations used =            8  plain     mixing
     Exchange-correlation= BEEF-VDW
                           (   1   4  43  14   2   0   0)

     celldm(1)=   1.889726  celldm(2)=   0.000000  celldm(3)=   0.000000
     celldm(4)=   0.000000  celldm(5)=   0.000000  celldm(6)=   0.000000

     crystal axes: (cart. coord. in units of alat)
               a(1) = (   6.579727   0.000000   0.000000 )
               a(2) = (  -0.000775   5.961596   0.000000 )
               a(3) = (   0.000000   0.000000  25.155947 )

     reciprocal axes: (cart. coord. in units 2 pi/alat)
               b(1) = (  0.151982  0.000020  0.000000 )
               b(2) = (  0.000000  0.167740  0.000000 )
               b(3) = (  0.000000  0.000000  0.039752 )

     PseudoPot. # 1 for Ti read from file:
     /storage/coda1/p-amedford6/0/shared/rich_project_chbe-medford/medford-share/data/pseudos_module/espresso/nninc/pbe/van/Ti.UPF
     MD5 check sum: 8e4df49b7f0d34bbd5052bf3f5ea0213
     Pseudo is Ultrasoft, Zval = 12.0
     Generated by new atomic code, or converted to UPF format
     Using radial grid of  851 points,  6 beta functions with:
                l(1) =   0
                l(2) =   0
                l(3) =   1
                l(4) =   1
                l(5) =   2
                l(6) =   2
     Q(r) pseudized with  8 coefficients,  rinner =    1.000   1.000   1.000
                                                       1.000   1.000

     PseudoPot. # 2 for O  read from file:
     /storage/coda1/p-amedford6/0/shared/rich_project_chbe-medford/medford-share/data/pseudos_module/espresso/nninc/pbe/van/O.UPF
     MD5 check sum: 78c19812648e8988a0fe644b0f25305e
     Pseudo is Ultrasoft, Zval =  6.0
     Generated by new atomic code, or converted to UPF format
     Using radial grid of  737 points,  4 beta functions with:
                l(1) =   0
                l(2) =   0
                l(3) =   1
                l(4) =   1
     Q(r) pseudized with  8 coefficients,  rinner =    0.800   0.800   0.800

     PseudoPot. # 3 for N  read from file:
     /storage/coda1/p-amedford6/0/shared/rich_project_chbe-medford/medford-share/data/pseudos_module/espresso/nninc/pbe/van/N.UPF
     MD5 check sum: 90d10febe142ad51ac9d5be1deb811c4
     Pseudo is Ultrasoft, Zval =  5.0
     Generated by new atomic code, or converted to UPF format
     Using radial grid of  729 points,  4 beta functions with:
                l(1) =   0
                l(2) =   0
                l(3) =   1
                l(4) =   1
     Q(r) pseudized with  8 coefficients,  rinner =    0.800   0.800   0.800

     PseudoPot. # 4 for C  read from file:
     /storage/coda1/p-amedford6/0/shared/rich_project_chbe-medford/medford-share/data/pseudos_module/espresso/nninc/pbe/van/C.UPF
     MD5 check sum: 1a69bf6b8db32088f5b2163dbdb77a27
     Pseudo is Ultrasoft, Zval =  4.0
     Generated by new atomic code, or converted to UPF format
     Using radial grid of  721 points,  4 beta functions with:
                l(1) =   0
                l(2) =   0
                l(3) =   1
                l(4) =   1
     Q(r) pseudized with  8 coefficients,  rinner =    0.800   0.800   0.800

     PseudoPot. # 5 for H  read from file:
     /storage/coda1/p-amedford6/0/shared/rich_project_chbe-medford/medford-share/data/pseudos_module/espresso/nninc/pbe/van/H.UPF
     MD5 check sum: b5ee9d7bfd3a09ee7748110bda690ff7
     Pseudo is Ultrasoft, Zval =  1.0
     Generated by new atomic code, or converted to UPF format
     Using radial grid of  615 points,  1 beta functions with:
                l(1) =   0
     Q(r) pseudized with  8 coefficients,  rinner =    0.800

     atomic species   valence    mass     pseudopotential
        Ti1           12.00    47.86700     Ti( 1.00)
        O1             6.00    15.99900     O ( 1.00)
        N1             5.00    14.00700     N ( 1.00)
        C1             4.00    12.01100     C ( 1.00)
        H1             1.00     1.00800     H ( 1.00)

     No symmetry found

   Cartesian axes

     site n.     atom                  positions (alat units)
         1           Ti1 tau(   1) = (   0.0004258   2.9801865   6.0000000  )
         2           Ti1 tau(   2) = (   3.2906075   1.4906267   6.0002472  )
         3           O1  tau(   3) = (   0.0006271   0.0005054   7.9858123  )
         4           O1  tau(   4) = (   3.2906025   0.0005020   7.3038282  )
         5           O1  tau(   5) = (   4.5942328   1.4918067   9.2879030  )
         6           O1  tau(   6) = (   1.9868534   1.4903216   9.2879459  )
         7           Ti1 tau(   7) = (   3.2907910   2.8959150   9.1758416  )
         8           Ti1 tau(   8) = (   0.0015273   1.4827037   9.2680791  )
         9           O1  tau(   9) = (   3.2912042   0.0294118  11.3810798  )
        10           O1  tau(  10) = (   0.0116148   5.9584955  10.6183126  )
        11           O1  tau(  11) = (   1.2906363   1.5151137  12.6946382  )
        12           O1  tau(  12) = (   5.2977377   1.5118052  12.6897239  )
        13           Ti1 tau(  13) = (   0.0154927   3.0055723  12.5114375  )
        14           Ti1 tau(  14) = (   3.3120461   1.5076926  12.5412499  )
        15           O1  tau(  15) = (   0.0087391   5.9056098  14.6936070  )
        16           O1  tau(  16) = (   3.3000944   0.0090435  14.0218108  )
        17           O1  tau(  17) = (   4.5606481   1.5918460  16.0876707  )
        18           O1  tau(  18) = (   2.0070218   1.5857768  16.0794533  )
        19           Ti1 tau(  19) = (   3.2835068   3.0412122  15.7371975  )
        20           Ti1 tau(  20) = (   0.0166266   1.3536260  15.8406240  )
        21           O1  tau(  21) = (   3.2904802   0.0005063   4.7018136  )
        22           O1  tau(  22) = (   6.5628702   0.1917167  17.2472498  )
        23           O1  tau(  23) = (   1.3043587   1.4918075   6.0039043  )
        24           O1  tau(  24) = (   5.2767064   1.4903225   6.0039473  )
        25           Ti1 tau(  25) = (   0.0000382   5.9609847   6.0000000  )
        26           Ti1 tau(  26) = (   3.2902200   4.4714249   6.0002472  )
        27           O1  tau(  27) = (   0.0002396   2.9813036   7.9858123  )
        28           O1  tau(  28) = (   3.2902150   2.9813002   7.3038282  )
        29           O1  tau(  29) = (   4.5938453   4.4726049   9.2879030  )
        30           O1  tau(  30) = (   1.9864658   4.4711199   9.2879459  )
        31           Ti1 tau(  31) = (   3.2891106   5.8743827   9.1763621  )
        32           Ti1 tau(  32) = (   0.0006254   4.4649316   9.2693709  )
        33           O1  tau(  33) = (   3.2975917   2.9887808  11.3748511  )
        34           O1  tau(  34) = (   0.0092240   2.9805883  10.6323155  )
        35           O1  tau(  35) = (   1.2927870   4.4849180  12.6503915  )
        36           O1  tau(  36) = (   5.2959677   4.4879952  12.6460094  )
        37           Ti1 tau(  37) = (   0.0189062   0.0134437  12.4995343  )
        38           Ti1 tau(  38) = (   3.3131396   4.4925875  12.5257625  )
        39           O1  tau(  39) = (   6.5658147   3.0796170  14.9398047  )
        40           O1  tau(  40) = (   3.2912769   3.0351834  13.9531456  )
        41           O1  tau(  41) = (   4.5372935   4.5058929  16.2491503  )
        42           O1  tau(  42) = (   2.0060561   4.4992570  16.2466123  )
        43           Ti1 tau(  43) = (   3.3106529   0.0781036  15.8389635  )
        44           Ti1 tau(  44) = (   0.0259428   4.5566345  16.0434284  )
        45           O1  tau(  45) = (   3.2900926   2.9813045   4.7018136  )
        46           O1  tau(  46) = (   1.3039711   4.4726057   6.0039043  )
        47           O1  tau(  47) = (   5.2763189   4.4711207   6.0039473  )
        48           N1  tau(  48) = (   6.3514164   3.3085518  18.1544664  )
        49           C1  tau(  49) = (   0.8695967   3.1501053  19.1301808  )
        50           H1  tau(  50) = (   1.3785670   4.1052268  19.2416751  )
        51           H1  tau(  51) = (   0.5086663   2.8289580  20.1145987  )
        52           H1  tau(  52) = (   1.5779067   2.4119510  18.7640910  )
        53           H1  tau(  53) = (   5.7211048   4.0382881  18.4729098  )
        54           H1  tau(  54) = (   5.7931489   2.4557210  18.1309407  )
        55           O1  tau(  55) = (   3.2817172   0.3149129  18.3340421  )
        56           H1  tau(  56) = (   4.0380937   5.6864266  18.4726034  )
        57           H1  tau(  57) = (   2.4816286   5.7371253  18.4434621  )

     number of k points=    10  Fermi-Dirac smearing, width (Ry)=  0.0073
                       cart. coord. in units 2pi/alat
        k(    1) = (   0.0000000   0.0000000   0.0000000), wk =   0.1250000
        k(    2) = (   0.0000000   0.0419351   0.0000000), wk =   0.2500000
        k(    3) = (   0.0000000  -0.0838702   0.0000000), wk =   0.1250000
        k(    4) = (   0.0379955   0.0000049   0.0000000), wk =   0.2500000
        k(    5) = (   0.0379955   0.0419400   0.0000000), wk =   0.2500000
        k(    6) = (   0.0379955  -0.0838652   0.0000000), wk =   0.2500000
        k(    7) = (   0.0379955  -0.0419301   0.0000000), wk =   0.2500000
        k(    8) = (  -0.0759910  -0.0000099   0.0000000), wk =   0.1250000
        k(    9) = (  -0.0759910   0.0419252   0.0000000), wk =   0.2500000
        k(   10) = (  -0.0759910  -0.0838800   0.0000000), wk =   0.1250000

     Initial potential from superposition of free atoms

     starting charge  383.99913, renormalised to  400.00000

     negative rho (up, down):  1.554E-02 0.000E+00

     %%%%%%%%%%%%%%%%%%%%%%%%%%%%%%%%%%%%%%%%%%%%%%%%%%%%%%%%%%%%%%%%%%%%%%%%
     %                                                                      %
     % You are using vdW-DF, which was implemented by the Thonhauser group. %
     % Please cite the following two papers that made this development      %
     % possible and the two reviews that describe the various versions:     %
     %                                                                      %
     %   T. Thonhauser et al., PRL 115, 136402 (2015).                      %
     %   T. Thonhauser et al., PRB 76, 125112 (2007).                       %
     %   K. Berland et al., Rep. Prog. Phys. 78, 066501 (2015).             %
     %   D.C. Langreth et al., J. Phys.: Condens. Matter 21, 084203 (2009). %
     %                                                                      %
     %                                                                      %
     % If you are calculating the stress with vdW-DF, please also cite:     %
     %                                                                      %
     %   R. Sabatini et al., J. Phys.: Condens. Matter 24, 424209 (2012).   %
     %                                                                      %
     %%%%%%%%%%%%%%%%%%%%%%%%%%%%%%%%%%%%%%%%%%%%%%%%%%%%%%%%%%%%%%%%%%%%%%%%

     Adding external electric field

     Computed dipole along edir(3) :
        Dipole              -12.0858 Ry au,        -30.7189 Debye
        Dipole field         -0.0228 Ry au,

        Potential amp.        2.1142 Ry
        Total length         46.3494 bohr

     Starting wfcs are  303 atomic wfcs
  @ DRIVER MODE: Message from server: STATUS
  @ DRIVER MODE: Message from server: POSDATA
  @ DRIVER MODE: Reading and sharing cell
  @ DRIVER MODE: Reading and sharing positions
  @ DRIVER MODE: Received positions

     Self-consistent Calculation

     iteration #  1     ecut=    29.40 Ry     beta= 0.05
     Davidson diagonalization with overlap
     c_bands:  2 eigenvalues not converged
     c_bands:  2 eigenvalues not converged
     c_bands:  3 eigenvalues not converged
     c_bands:  4 eigenvalues not converged
     c_bands:  2 eigenvalues not converged
     c_bands:  1 eigenvalues not converged
     c_bands:  4 eigenvalues not converged
     c_bands:  4 eigenvalues not converged
     c_bands:  5 eigenvalues not converged
     ethr =  1.00E-05,  avg # of iterations = 22.0

[...]

     total energy              =   -2384.81575305 Ry
     estimated scf accuracy    <    6450.64518446 Ry

     iteration #  2     ecut=    29.40 Ry     beta= 0.05
     Davidson diagonalization with overlap
     ethr =  1.00E-02,  avg # of iterations = 26.4

[...]

     iteration # 83     ecut=    29.40 Ry     beta= 0.05
     Davidson diagonalization with overlap
     c_bands:  1 eigenvalues not converged
     c_bands:  2 eigenvalues not converged
     c_bands:  4 eigenvalues not converged
     c_bands:  1 eigenvalues not converged
     c_bands:  1 eigenvalues not converged
     ethr =  7.40E-11,  avg # of iterations = 18.8

[...]

     total energy              =   -2956.45486495 Ry
     estimated scf accuracy    <       0.00000013 Ry

     iteration # 85     ecut=    29.40 Ry     beta= 0.05
     Davidson diagonalization with overlap
     ethr =  3.14E-11,  avg # of iterations = 10.7

     negative rho (up, down):  1.588E-02 0.000E+00

     Adding external electric field

     Computed dipole along edir(3) :
        Dipole                1.4025 Ry au,          3.5648 Debye
        Dipole field          0.0026 Ry au,

        Potential amp.       -0.2453 Ry
        Total length         46.3494 bohr

     End of self-consistent calculation

          k = 0.0000 0.0000 0.0000 ( 18029 PWs)   bands (ev):

   -55.2162 -55.1790 -55.1737 -55.1476 -55.1396 -55.1188 -55.0973 -55.0623
   -55.0422 -55.0075 -55.0042 -54.9950 -54.9706 -54.9350 -54.2036 -54.1696
   -31.7796 -31.6898 -31.6663 -31.5860 -31.5311 -31.5257 -31.5173 -31.5097
   -31.4625 -31.4388 -31.4272 -31.4183 -31.4138 -31.4120 -31.3881 -31.3849
   -31.3626 -31.3613 -31.3541 -31.3388 -31.3263 -31.3181 -31.3027 -31.2936
   -31.2877 -31.2747 -31.2724 -31.2435 -31.2309 -31.2282 -31.2230 -31.2029
   -31.1999 -31.1924 -31.1884 -31.1713 -31.1554 -31.1410 -31.1333 -31.1322
   -31.1153 -31.1129 -30.6131 -30.5187 -30.4967 -30.4294 -30.3426 -30.2318
   -19.2353 -16.1558 -16.0249 -15.7763 -15.6345 -15.5400 -15.4201 -15.3045
   -15.2399 -15.1260 -15.0678 -14.9326 -14.9172 -14.9051 -14.8805 -14.8472
   -14.8087 -14.7610 -14.7597 -14.7359 -14.7157 -14.7068 -14.6651 -14.6577
   -14.6180 -14.5969 -14.5955 -14.4602 -14.3791 -14.3090 -14.1233 -12.7063
   -12.5888 -10.2686  -7.0294  -6.2734  -4.8209  -3.9382  -3.4025  -3.3431
    -3.2380  -3.1488  -3.1265  -3.1140  -2.9767  -2.8851  -2.7473  -2.6675
    -2.6347  -2.4985  -2.4250  -2.4139  -2.3811  -2.2660  -2.2137  -2.1870
    -2.1542  -2.0829  -2.0346  -2.0241  -2.0061  -1.9753  -1.9602  -1.9261
    -1.8724  -1.7875  -1.7564  -1.6533  -1.6154  -1.5859  -1.5759  -1.5513
    -1.5342  -1.5097  -1.5035  -1.4426  -1.4392  -1.4095  -1.3631  -1.2485
    -1.0859  -1.0224  -0.9510  -0.8584  -0.8104  -0.7967  -0.7271  -0.7169
    -0.7035  -0.6001  -0.5656  -0.5543  -0.4573  -0.4258  -0.3872  -0.3148
    -0.2434  -0.2154  -0.2024  -0.0869  -0.0219  -0.0039   0.0157   0.0228
     0.1127   0.1857   0.2335   0.2850   0.3259   0.3331   0.3989   0.4310
     0.4988   0.5507   0.5687   0.6558   0.7008   0.7133   0.7197   0.7528
     0.7647   0.8266   0.8628   0.8872   0.9738   1.0890   1.2414   1.3829
     1.3907   1.7238   1.7246   1.8190   2.0029   2.3954   2.4436   3.8768
     3.9496   4.0087   4.0220   4.0275   4.1127   4.3592   4.3813   4.3871
     4.3972   4.4258

[...]

          k = 0.0380-0.0419 0.0000 ( 17876 PWs)   bands (ev):

[...]

          k =-0.0760-0.0000 0.0000 ( 17886 PWs)   bands (ev):

[...]

          k =-0.0760-0.0839 0.0000 ( 17948 PWs)   bands (ev):

   -55.2026 -55.1924 -55.1567 -55.1564 -55.1459 -55.1165 -55.0831 -55.0765
   -55.0277 -55.0216 -54.9972 -54.9876 -54.9873 -54.9365 -54.1868 -54.1863
   -31.6084 -31.5884 -31.5796 -31.4815 -31.4813 -31.4771 -31.4696 -31.4478
   -31.4476 -31.4279 -31.4200 -31.4133 -31.4060 -31.3915 -31.3740 -31.3593
   -31.3564 -31.3541 -31.3521 -31.3501 -31.3427 -31.3401 -31.3230 -31.3169
   -31.2966 -31.2959 -31.2773 -31.2765 -31.2762 -31.2739 -31.2688 -31.2608
   -31.2532 -31.2405 -31.2347 -31.2201 -31.2174 -31.1993 -31.1726 -31.1681
   -31.1675 -31.1466 -30.5095 -30.5091 -30.4257 -30.4254 -30.3862 -30.3859
   -19.2344 -16.1097 -15.5986 -15.4846 -15.3588 -15.2490 -15.2282 -15.1817
   -15.1329 -15.0825 -15.0305 -15.0021 -14.9813 -14.9724 -14.9295 -14.9193
   -14.9001 -14.8345 -14.8190 -14.8079 -14.7840 -14.7368 -14.7284 -14.7208
   -14.7168 -14.6711 -14.6670 -14.6189 -14.5755 -14.5716 -14.3918 -12.6904
   -12.6902 -10.2703  -7.0559  -6.2064  -4.8213  -3.9542  -3.2413  -2.9837
    -2.7501  -2.6981  -2.6098  -2.4662  -2.4223  -2.3774  -2.3464  -2.2848
    -2.2342  -2.2191  -2.2073  -2.1310  -2.1041  -2.0960  -2.0632  -2.0515
    -2.0414  -2.0033  -1.9825  -1.9572  -1.9488  -1.9381  -1.9355  -1.9260
    -1.8676  -1.8553  -1.8447  -1.8410  -1.7823  -1.7707  -1.7561  -1.7418
    -1.5974  -1.5791  -1.4283  -1.4249  -1.4027  -1.3500  -1.3384  -1.2977
    -1.2546  -1.2451  -1.2185  -0.9743  -0.9652  -0.9620  -0.9299  -0.8967
    -0.8588  -0.7971  -0.7681  -0.6983  -0.6901  -0.5740  -0.5579  -0.4422
    -0.4341  -0.4216  -0.3379  -0.2897  -0.2412  -0.2021  -0.1854  -0.1750
    -0.1581  -0.1216  -0.1193  -0.0220   0.0140   0.0449   0.0582   0.0978
     0.2747   0.3033   0.3190   0.4631   0.4706   0.6301   0.6810   0.7091
     0.7996   0.8598   0.8943   0.9381   1.0739   1.0871   1.1050   1.1595
     1.1826   1.2318   1.2450   2.1752   2.1765   2.2636   2.2636   4.0220
     4.1313   4.1404   4.1982   4.3095   4.3183   4.3919   4.4230   4.4606
     4.4645   4.5283

     the Fermi energy is     3.9391 ev

!    total energy              =   -2956.45487649 Ry
     estimated scf accuracy    <       0.00000005 Ry
     smearing contrib. (-TS)   =      -0.03684986 Ry
     internal energy E=F+TS    =   -2956.41802664 Ry

     The total energy is F=E-TS. E is the sum of the following terms:
     one-electron contribution =  -23693.57934660 Ry
     hartree contribution      =   11942.28439941 Ry
     xc contribution           =    -490.61112283 Ry
     ewald contribution        =    9285.48433141 Ry
     electric field correction =       0.00371197 Ry

     convergence has been achieved in  85 iterations

     Forces acting on atoms (cartesian axes, Ry/au):

     atom    1 type  1   force =    -0.00000241   -0.00025790    0.09335212
     atom    2 type  1   force =    -0.00007161   -0.00035324   -0.17814374
     atom    3 type  2   force =     0.00004492   -0.00029567   -0.02035167
     atom    4 type  2   force =    -0.00003522   -0.00184805    0.05913329
     atom    5 type  2   force =    -0.01020671   -0.00060830    0.00751551
     atom    6 type  2   force =     0.01173285    0.00022087    0.00684490
     atom    7 type  1   force =    -0.00030749    0.00187204   -0.01239472
     atom    8 type  1   force =     0.00016407    0.00082562   -0.00449484
     atom    9 type  2   force =     0.00038491   -0.00015662   -0.00080703
     atom   10 type  2   force =    -0.00141694    0.00416130   -0.00107143
     atom   11 type  2   force =    -0.00086155   -0.00030346    0.00020087
     atom   12 type  2   force =     0.00087293   -0.00005708    0.00006113
     atom   13 type  1   force =    -0.00012322   -0.00021948    0.00010562
     atom   14 type  1   force =    -0.00005037   -0.00010483    0.00005385
     atom   15 type  2   force =    -0.00066959   -0.00003307   -0.00006884
     atom   16 type  2   force =    -0.00010831    0.00022627   -0.00040613
     atom   17 type  2   force =     0.00029958   -0.00072333   -0.00001023
     atom   18 type  2   force =     0.00079513   -0.00065106   -0.00028832
     atom   19 type  1   force =    -0.00080263    0.00013376    0.00147319
     atom   20 type  1   force =     0.00077892   -0.00074097    0.00039450
     atom   21 type  2   force =     0.00002008   -0.00010867    0.10398635
     atom   22 type  2   force =     0.00008892   -0.00063547    0.00035015
     atom   23 type  2   force =    -0.07042335   -0.00020727   -0.02691986
     atom   24 type  2   force =     0.07025894    0.00023278   -0.02697290
     atom   25 type  1   force =    -0.00004971   -0.00022136    0.09287921
     atom   26 type  1   force =    -0.00020357   -0.00053275   -0.17841054
     atom   27 type  2   force =     0.00007080   -0.00014822   -0.01932837
     atom   28 type  2   force =     0.00005478   -0.00157648    0.05814159
     atom   29 type  2   force =    -0.01091785   -0.00007281    0.00843632
     atom   30 type  2   force =     0.01232306    0.00011641    0.00772133
     atom   31 type  1   force =    -0.00029487    0.00667982   -0.01506344
     atom   32 type  1   force =     0.00011174   -0.00072305   -0.00469521
     atom   33 type  2   force =    -0.00022043    0.00035565   -0.00052409
     atom   34 type  2   force =    -0.00111141   -0.00024691   -0.00039082
     atom   35 type  2   force =    -0.00018492   -0.00011866   -0.00014964
     atom   36 type  2   force =     0.00026395   -0.00036204   -0.00024916
     atom   37 type  1   force =     0.00023869   -0.00018059    0.00021276
     atom   38 type  1   force =    -0.00011163    0.00068106    0.00064371
     atom   39 type  2   force =     0.00013183   -0.00112088    0.00101769
     atom   40 type  2   force =     0.00026295    0.00100041   -0.00062407
     atom   41 type  2   force =    -0.00019967    0.00020464   -0.00027109
     atom   42 type  2   force =     0.00117979    0.00019940   -0.00046403
     atom   43 type  1   force =    -0.00114420    0.00005550    0.00034493
     atom   44 type  1   force =     0.00035527   -0.00118027    0.00105551
     atom   45 type  2   force =     0.00001364   -0.00011695    0.10396132
     atom   46 type  2   force =    -0.07038141   -0.00012784   -0.02688401
     atom   47 type  2   force =     0.07023527    0.00028389   -0.02695207
     atom   48 type  3   force =     0.00078876    0.00011475   -0.00042427
     atom   49 type  4   force =    -0.00094983   -0.00276845    0.00227973
     atom   50 type  5   force =    -0.00058004   -0.00103727    0.00109214
     atom   51 type  5   force =     0.00097685    0.00201244   -0.00322073
     atom   52 type  5   force =     0.00024939    0.00037297   -0.00119603
     atom   53 type  5   force =     0.00001819    0.00012108   -0.00059578
     atom   54 type  5   force =     0.00007697   -0.00016351   -0.00070458
     atom   55 type  2   force =     0.00033756   -0.00083310    0.00058668
     atom   56 type  5   force =    -0.00074934   -0.00017195    0.00016093
     atom   57 type  5   force =    -0.00095246   -0.00086312    0.00007232

     Total force =     0.366312     Total SCF correction =     0.000384
  @ DRIVER MODE: Message from server: STATUS
  @ DRIVER MODE: Message from server: GETFORCE
  @ DRIVER MODE: Returning v,forces,stress,ensemble

     Writing output data file ./calc.save/
  @ DRIVER MODE: Message from server: EXIT
  @ DRIVE MODE: Exiting

     General routines

     Parallel routines

   This run was terminated on:  22:58:25  22Sep2021

   JOB DONE.