     Program PWSCF v.6.7GPU starts on 16Jul2021 at  4:24:59

     R & G space division:  proc/nbgrp/npool/nimage =      16
     Reading input from /storage/home/hcoda1/3/ntian30/research/carbon/15Jul_vib/ads_slab/CH3N2H_a/out_0016/pw.inp
Warning: card &CELL ignored
Warning: card   CELL_DYNAMICS='IPI', ignored
Warning: card / ignored

     Current dimensions of program PWSCF are:
     Max number of different atomic species (ntypx) = 10
     Max number of k-points (npk) =  40000
     Max angular momentum in pseudopotentials (lmaxx) =  3
     Presently no symmetry can be used with electric field

     Message from routine cell_base_init:
     DEPRECATED: use true lattice parameter, not A to a.u. conversion factor

     IMPORTANT: XC functional enforced from input :
     Exchange-correlation= BEEF-VDW
                           (   1   4  43  14   2   0   0)
     Any further DFT definition will be discarded
     Please, verify this is what you really want

  @ DRIVER MODE: Connecting to
 qe_1139763_2351646.sched-torque.pace.gatech.eduty_me7zr_scratch
  using UNIX socket
  @ DRIVER MODE: Message from server: STATUS
  @ DRIVER MODE: Message from server: INIT
  @ DRIVER MODE: Receiving replica           0          -1
  @ DRIVER MODE: Receiving encoded integer          25
  @ DRIVER MODE:  SCF:  T  FORCE:  T  STRESS:  F  VC:  F  ENSEMBLE:  F
  @ DRIVER MODE:  SCF:  T  FORCE:  T  STRESS:  F  VC:  F  ENSEMBLE:  F

     Using Slab Decomposition

     bravais-lattice index     =            0
     lattice parameter (alat)  =       1.8897  a.u.
     unit-cell volume          =    6658.9804 (a.u.)^3
     number of atoms/cell      =           54
     number of atomic types    =            5
     number of electrons       =       396.00
     number of Kohn-Sham states=          208
     kinetic-energy cutoff     =      29.3995  Ry
     charge density cutoff     =     293.9946  Ry
     scf convergence threshold =      7.3E-08
     mixing beta               =       0.0500
     number of iterations used =            8  plain     mixing
     Exchange-correlation= BEEF-VDW
                           (   1   4  43  14   2   0   0)

     celldm(1)=   1.889726  celldm(2)=   0.000000  celldm(3)=   0.000000
     celldm(4)=   0.000000  celldm(5)=   0.000000  celldm(6)=   0.000000

     crystal axes: (cart. coord. in units of alat)
               a(1) = (   6.579727   0.000000   0.000000 )
               a(2) = (  -0.000775   5.961596   0.000000 )
               a(3) = (   0.000000   0.000000  25.155947 )

     reciprocal axes: (cart. coord. in units 2 pi/alat)
               b(1) = (  0.151982  0.000020  0.000000 )
               b(2) = (  0.000000  0.167740  0.000000 )
               b(3) = (  0.000000  0.000000  0.039752 )

     PseudoPot. # 1 for Ti read from file:
     /storage/coda1/p-amedford6/0/shared/rich_project_chbe-medford/medford-share/data/pseudos_module/espresso/nninc/pbe/van/Ti.UPF
     MD5 check sum: 8e4df49b7f0d34bbd5052bf3f5ea0213
     Pseudo is Ultrasoft, Zval = 12.0
     Generated by new atomic code, or converted to UPF format
     Using radial grid of  851 points,  6 beta functions with:
                l(1) =   0
                l(2) =   0
                l(3) =   1
                l(4) =   1
                l(5) =   2
                l(6) =   2
     Q(r) pseudized with  8 coefficients,  rinner =    1.000   1.000   1.000
                                                       1.000   1.000

     PseudoPot. # 2 for O  read from file:
     /storage/coda1/p-amedford6/0/shared/rich_project_chbe-medford/medford-share/data/pseudos_module/espresso/nninc/pbe/van/O.UPF
     MD5 check sum: 78c19812648e8988a0fe644b0f25305e
     Pseudo is Ultrasoft, Zval =  6.0
     Generated by new atomic code, or converted to UPF format
     Using radial grid of  737 points,  4 beta functions with:
                l(1) =   0
                l(2) =   0
                l(3) =   1
                l(4) =   1
     Q(r) pseudized with  8 coefficients,  rinner =    0.800   0.800   0.800

     PseudoPot. # 3 for N  read from file:
     /storage/coda1/p-amedford6/0/shared/rich_project_chbe-medford/medford-share/data/pseudos_module/espresso/nninc/pbe/van/N.UPF
     MD5 check sum: 90d10febe142ad51ac9d5be1deb811c4
     Pseudo is Ultrasoft, Zval =  5.0
     Generated by new atomic code, or converted to UPF format
     Using radial grid of  729 points,  4 beta functions with:
                l(1) =   0
                l(2) =   0
                l(3) =   1
                l(4) =   1
     Q(r) pseudized with  8 coefficients,  rinner =    0.800   0.800   0.800

     PseudoPot. # 4 for C  read from file:
     /storage/coda1/p-amedford6/0/shared/rich_project_chbe-medford/medford-share/data/pseudos_module/espresso/nninc/pbe/van/C.UPF
     MD5 check sum: 1a69bf6b8db32088f5b2163dbdb77a27
     Pseudo is Ultrasoft, Zval =  4.0
     Generated by new atomic code, or converted to UPF format
     Using radial grid of  721 points,  4 beta functions with:
                l(1) =   0
                l(2) =   0
                l(3) =   1
                l(4) =   1
     Q(r) pseudized with  8 coefficients,  rinner =    0.800   0.800   0.800

     PseudoPot. # 5 for H  read from file:
     /storage/coda1/p-amedford6/0/shared/rich_project_chbe-medford/medford-share/data/pseudos_module/espresso/nninc/pbe/van/H.UPF
     MD5 check sum: b5ee9d7bfd3a09ee7748110bda690ff7
     Pseudo is Ultrasoft, Zval =  1.0
     Generated by new atomic code, or converted to UPF format
     Using radial grid of  615 points,  1 beta functions with:
                l(1) =   0
     Q(r) pseudized with  8 coefficients,  rinner =    0.800

     atomic species   valence    mass     pseudopotential
        Ti1           12.00    47.86700     Ti( 1.00)
        O1             6.00    15.99900     O ( 1.00)
        N1             5.00    14.00700     N ( 1.00)
        C1             4.00    12.01100     C ( 1.00)
        H1             1.00     1.00800     H ( 1.00)

     Starting magnetic structure
     atomic species   magnetization
        Ti1          0.000
        O1           0.000
        N1           0.000
        C1           0.025
        H1           0.000

     No symmetry found

   Cartesian axes

     site n.     atom                  positions (alat units)
         1           Ti1 tau(   1) = (   0.0004258   2.9801865   6.0000000  )
         2           Ti1 tau(   2) = (   3.2906075   1.4906267   6.0002472  )
         3           O1  tau(   3) = (   0.0006271   0.0005054   7.9858123  )
         4           O1  tau(   4) = (   3.2906025   0.0005020   7.3038282  )
         5           O1  tau(   5) = (   4.5942328   1.4918067   9.2879030  )
         6           O1  tau(   6) = (   1.9868534   1.4903216   9.2879459  )
         7           Ti1 tau(   7) = (   3.2907910   2.8959150   9.1758416  )
         8           Ti1 tau(   8) = (   0.0015273   1.4827037   9.2680791  )
         9           O1  tau(   9) = (   3.3106937   0.0084137  11.2927479  )
        10           O1  tau(  10) = (   0.0116148   5.9584955  10.6183126  )
        11           O1  tau(  11) = (   1.3255326   1.5151957  12.5859258  )
        12           O1  tau(  12) = (   5.3246634   1.4871208  12.6441624  )
        13           Ti1 tau(  13) = (   6.5358624   2.9940264  12.7507449  )
        14           Ti1 tau(  14) = (   3.1828407   1.5032771  12.4528579  )
        15           O1  tau(  15) = (   0.1336207   0.0073438  14.6266748  )
        16           O1  tau(  16) = (   3.2550344   0.0288700  13.8306396  )
        17           O1  tau(  17) = (   4.6334483   1.5013943  15.9792279  )
        18           O1  tau(  18) = (   2.1409664   1.5470880  15.9954950  )
        19           Ti1 tau(  19) = (   3.4798582   3.0305884  15.6593850  )
        20           Ti1 tau(  20) = (   0.1386493   1.3724552  15.8613965  )
        21           O1  tau(  21) = (   3.2904802   0.0005063   4.7018136  )
        22           O1  tau(  22) = (   0.1429122   0.0333940  17.1908172  )
        23           O1  tau(  23) = (   1.3043587   1.4918075   6.0039043  )
        24           O1  tau(  24) = (   5.2767064   1.4903225   6.0039473  )
        25           Ti1 tau(  25) = (   0.0000382   5.9609847   6.0000000  )
        26           Ti1 tau(  26) = (   3.2902200   4.4714249   6.0002472  )
        27           O1  tau(  27) = (   0.0002396   2.9813036   7.9858123  )
        28           O1  tau(  28) = (   3.2902150   2.9813002   7.3038282  )
        29           O1  tau(  29) = (   4.5938453   4.4726049   9.2879030  )
        30           O1  tau(  30) = (   1.9864658   4.4711199   9.2879459  )
        31           Ti1 tau(  31) = (   3.2891106   5.8743827   9.1763621  )
        32           Ti1 tau(  32) = (   0.0006254   4.4649316   9.2693709  )
        33           O1  tau(  33) = (   3.3137399   2.9960163  11.2943833  )
        34           O1  tau(  34) = (   0.0092240   2.9805883  10.6323155  )
        35           O1  tau(  35) = (   1.3234708   4.4688006  12.5930975  )
        36           O1  tau(  36) = (   5.3222282   4.4932535  12.6449723  )
        37           Ti1 tau(  37) = (   6.5041614   0.0053836  12.5833808  )
        38           Ti1 tau(  38) = (   3.1843229   4.4812189  12.4522442  )
        39           O1  tau(  39) = (   0.0584892   2.9792810  14.6723703  )
        40           O1  tau(  40) = (   3.3232524   2.9928384  13.8523860  )
        41           O1  tau(  41) = (   4.6237859   4.5837569  15.7472905  )
        42           O1  tau(  42) = (   2.1882403   4.4693611  16.1038286  )
        43           Ti1 tau(  43) = (   3.3015484   0.0242660  15.6383815  )
        44           Ti1 tau(  44) = (   0.0181797   4.4930750  16.1931172  )
        45           O1  tau(  45) = (   3.2900926   2.9813045   4.7018136  )
        46           O1  tau(  46) = (   1.3039711   4.4726057   6.0039043  )
        47           O1  tau(  47) = (   5.2763189   4.4711207   6.0039473  )
        48           N1  tau(  48) = (   0.2677213   2.8760844  17.5655548  )
        49           C1  tau(  49) = (   1.2271684   2.7639891  18.6598760  )
        50           H1  tau(  50) = (   1.2930054   3.7206696  19.2072709  )
        51           H1  tau(  51) = (   0.8976878   1.9730418  19.3402421  )
        52           H1  tau(  52) = (   2.2102292   2.4972526  18.2850250  )
        53           N1  tau(  53) = (   5.6732178   3.4927010  17.8452151  )
        54           H1  tau(  54) = (   5.7345573   4.0058295  18.7343860  )

     number of k points=    10  Fermi-Dirac smearing, width (Ry)=  0.0073
                       cart. coord. in units 2pi/alat
        k(    1) = (   0.0000000   0.0000000   0.0000000), wk =   0.0625000
        k(    2) = (   0.0000000   0.0419351   0.0000000), wk =   0.1250000
        k(    3) = (   0.0000000  -0.0838702   0.0000000), wk =   0.0625000
        k(    4) = (   0.0379955   0.0000049   0.0000000), wk =   0.1250000
        k(    5) = (   0.0379955   0.0419400   0.0000000), wk =   0.1250000
        k(    6) = (   0.0379955  -0.0838652   0.0000000), wk =   0.1250000
        k(    7) = (   0.0379955  -0.0419301   0.0000000), wk =   0.1250000
[...]
     %                                                                      %
     % You are using vdW-DF, which was implemented by the Thonhauser group. %
     % Please cite the following two papers that made this development      %
     % possible and the two reviews that describe the various versions:     %
     %                                                                      %
     %   T. Thonhauser et al., PRL 115, 136402 (2015).                      %
     %   T. Thonhauser et al., PRB 76, 125112 (2007).                       %
     %   K. Berland et al., Rep. Prog. Phys. 78, 066501 (2015).             %
     %   D.C. Langreth et al., J. Phys.: Condens. Matter 21, 084203 (2009). %
     %                                                                      %
     %                                                                      %
     % If you are calculating the stress with vdW-DF, please also cite:     %
     %                                                                      %
     %   R. Sabatini et al., J. Phys.: Condens. Matter 24, 424209 (2012).   %
     %                                                                      %
     %%%%%%%%%%%%%%%%%%%%%%%%%%%%%%%%%%%%%%%%%%%%%%%%%%%%%%%%%%%%%%%%%%%%%%%%

     Adding external electric field

     Computed dipole along edir(3) :
        Dipole               -8.2222 Ry au,        -20.8988 Debye
        Dipole field         -0.0155 Ry au,

        Potential amp.        1.4384 Ry
        Total length         46.3494 bohr

[...]

     Starting wfcs are  300 atomic wfcs
  @ DRIVER MODE: Message from server: STATUS
  @ DRIVER MODE: Message from server: POSDATA
  @ DRIVER MODE: Reading and sharing cell
  @ DRIVER MODE: Reading and sharing positions
  @ DRIVER MODE: Received positions

     Self-consistent Calculation

     iteration #  1     ecut=    29.40 Ry     beta= 0.05
     Davidson diagonalization with overlap
     c_bands:  1 eigenvalues not converged
     c_bands:  1 eigenvalues not converged
     c_bands:  1 eigenvalues not converged
     c_bands:  1 eigenvalues not converged
     c_bands:  2 eigenvalues not converged
     c_bands:  1 eigenvalues not converged
     c_bands:  4 eigenvalues not converged
     c_bands:  2 eigenvalues not converged
     c_bands:  1 eigenvalues not converged
     c_bands:  1 eigenvalues not converged
     c_bands:  1 eigenvalues not converged
     c_bands:  1 eigenvalues not converged
     c_bands:  1 eigenvalues not converged
     c_bands:  1 eigenvalues not converged
     c_bands:  2 eigenvalues not converged
     c_bands:  1 eigenvalues not converged
     c_bands:  4 eigenvalues not converged
     c_bands:  2 eigenvalues not converged
     c_bands:  1 eigenvalues not converged
     c_bands:  1 eigenvalues not converged
     ethr =  1.00E-05,  avg # of iterations = 20.0

[...]

     total energy              =   -2607.56994759 Ry
     estimated scf accuracy    <    3675.63758658 Ry

     total magnetization       =     0.00 Bohr mag/cell
     absolute magnetization    =     0.03 Bohr mag/cell

[...]

     iteration #  3     ecut=    29.40 Ry     beta= 0.05
     Davidson diagonalization with overlap
     ethr =  1.00E-02,  avg # of iterations = 13.7

[...]

     iteration # 59     ecut=    29.40 Ry     beta= 0.05
     Davidson diagonalization with overlap
     c_bands:  1 eigenvalues not converged
     ethr =  2.89E-09,  avg # of iterations =  8.0

[...]

     total energy              =   -2940.35266773 Ry
     estimated scf accuracy    <       0.00000008 Ry

[...]

     iteration # 86     ecut=    29.40 Ry     beta= 0.05
     Davidson diagonalization with overlap
     ethr =  2.00E-11,  avg # of iterations =  8.0

     negative rho (up, down):  8.754E-03 8.754E-03

[...]

     Adding external electric field

     Computed dipole along edir(3) :
        Dipole                0.7364 Ry au,          1.8717 Debye
        Dipole field          0.0014 Ry au,

        Potential amp.       -0.1288 Ry
        Total length         46.3494 bohr

     Magnetic moment per site  (integrated on atomic sphere of radius R)
     atom   1 (R=0.746)  charge=  8.1023  magn=  0.0078
     atom   2 (R=0.746)  charge=  8.0882  magn=  0.0004
     atom   3 (R=0.746)  charge=  5.0689  magn= -0.0005
     atom   4 (R=0.746)  charge=  5.1050  magn= -0.0001
     atom   5 (R=0.746)  charge=  5.0706  magn= -0.0001
     atom   6 (R=0.746)  charge=  5.0718  magn= -0.0001
     atom   7 (R=0.746)  charge=  8.0835  magn=  0.0002
     atom   8 (R=0.746)  charge=  8.0700  magn=  0.0012
     atom   9 (R=0.746)  charge=  5.0893  magn= -0.0000
     atom  10 (R=0.746)  charge=  5.0576  magn= -0.0001
     atom  11 (R=0.746)  charge=  5.0764  magn= -0.0001
     atom  12 (R=0.746)  charge=  5.0718  magn= -0.0001
     atom  13 (R=0.746)  charge=  8.0706  magn=  0.0002
     atom  14 (R=0.746)  charge=  8.0890  magn=  0.0001
     atom  15 (R=0.746)  charge=  5.0553  magn= -0.0000
     atom  16 (R=0.746)  charge=  5.0986  magn= -0.0000
     atom  17 (R=0.746)  charge=  5.0495  magn= -0.0000
     atom  18 (R=0.746)  charge=  5.0673  magn= -0.0000
     atom  19 (R=0.746)  charge=  8.1078  magn=  0.0000
     atom  20 (R=0.746)  charge=  8.0960  magn=  0.0000
     atom  21 (R=0.746)  charge=  4.9490  magn= -0.0004
     atom  22 (R=0.746)  charge=  5.0409  magn=  0.0000
     atom  23 (R=0.746)  charge=  5.0611  magn= -0.0010
     atom  24 (R=0.746)  charge=  5.0612  magn= -0.0011
     atom  25 (R=0.746)  charge=  8.1022  magn=  0.0077
     atom  26 (R=0.746)  charge=  8.0882  magn=  0.0004
     atom  27 (R=0.746)  charge=  5.0670  magn= -0.0005
     atom  28 (R=0.746)  charge=  5.1052  magn= -0.0001
     atom  29 (R=0.746)  charge=  5.0714  magn= -0.0001
     atom  30 (R=0.746)  charge=  5.0726  magn= -0.0001
     atom  31 (R=0.746)  charge=  8.0844  magn=  0.0002
     atom  32 (R=0.746)  charge=  8.0704  magn=  0.0012
     atom  33 (R=0.746)  charge=  5.0889  magn= -0.0000
     atom  34 (R=0.746)  charge=  5.0200  magn= -0.0001
     atom  35 (R=0.746)  charge=  5.0760  magn= -0.0001
     atom  36 (R=0.746)  charge=  5.0724  magn= -0.0001
     atom  37 (R=0.746)  charge=  8.0776  magn=  0.0002
     atom  38 (R=0.746)  charge=  8.0890  magn=  0.0001
     atom  39 (R=0.746)  charge=  5.0527  magn= -0.0000
     atom  40 (R=0.746)  charge=  5.0891  magn= -0.0000
     atom  41 (R=0.746)  charge=  5.0851  magn=  0.0000
     atom  42 (R=0.746)  charge=  5.0438  magn= -0.0000
     atom  43 (R=0.746)  charge=  8.1144  magn=  0.0000
     atom  44 (R=0.746)  charge=  8.1352  magn= -0.0001
     atom  45 (R=0.746)  charge=  4.9490  magn= -0.0004
     atom  46 (R=0.746)  charge=  5.0611  magn= -0.0011
     atom  47 (R=0.746)  charge=  5.0612  magn= -0.0011
     atom  48 (R=0.424)  charge=  1.3499  magn= -0.0000
     atom  49 (R=0.448)  charge=  0.8407  magn=  0.0000
     atom  50 (R=0.424)  charge=  0.4453  magn= -0.0000
     atom  51 (R=0.424)  charge=  0.4491  magn= -0.0000
     atom  52 (R=0.424)  charge=  0.4559  magn= -0.0000
     atom  53 (R=0.424)  charge=  1.3504  magn= -0.0000
     atom  54 (R=0.424)  charge=  0.4592  magn= -0.0000

     End of self-consistent calculation

 ------ SPIN UP ------------

          k = 0.0000 0.0000 0.0000 ( 18029 PWs)   bands (ev):

   -56.0309 -55.9969 -55.8049 -55.7661 -55.7266 -55.6921 -55.6644 -55.6400
   -55.6301 -55.6053 -55.5765 -55.4968 -55.2419 -54.9203 -54.8863 -54.7895
   -32.4933 -32.3469 -32.3255 -32.3016 -32.1941 -32.1870 -32.1668 -32.1293
   -32.1162 -32.0996 -32.0932 -32.0458 -32.0222 -31.9825 -31.9768 -31.9737
   -31.9430 -31.9315 -31.9206 -31.8976 -31.8877 -31.8700 -31.8652 -31.8598
   -31.8402 -31.8382 -31.8302 -31.8257 -31.8209 -31.8024 -31.7948 -31.7940
   -31.7768 -31.7525 -31.6930 -31.6657 -31.6173 -31.4684 -31.4653 -31.3234
   -31.2445 -31.2215 -31.2068 -31.1409 -31.0549 -30.9938 -30.9434 -30.9137
   -17.3091 -16.5595 -16.3684 -16.0785 -15.9278 -15.9084 -15.7890 -15.6917
   -15.6140 -15.5136 -15.4615 -15.4066 -15.3939 -15.3693 -15.3106 -15.2886
   -15.2473 -15.2297 -15.1873 -15.1766 -15.1307 -15.1076 -15.0860 -15.0521
   -14.9869 -14.9166 -14.9039 -14.7477 -14.6082 -14.4557 -13.4201 -13.3052
   -11.5450  -8.3255  -5.0060  -4.0110  -3.9462  -3.8766  -3.8306  -3.7745
    -3.6933  -3.4423  -3.4185  -3.3582  -3.0713  -3.0237  -2.9998  -2.9952
    -2.8974  -2.7583  -2.7271  -2.6673  -2.6613  -2.6406  -2.6211  -2.6039
    -2.5468  -2.4911  -2.4742  -2.4319  -2.2989  -2.2718  -2.2679  -2.2459
    -2.1760  -2.1666  -2.1023  -2.0847  -2.0620  -2.0435  -2.0065  -1.8736
    -1.8400  -1.7751  -1.6927  -1.6047  -1.5248  -1.4886  -1.3993  -1.3871
    -1.3393  -1.2612  -1.2547  -1.1782  -1.1462  -1.0698  -1.0450  -1.0070
    -0.8986  -0.8710  -0.8132  -0.7550  -0.7105  -0.6974  -0.6563  -0.6318
    -0.6265  -0.6114  -0.5988  -0.4043  -0.3740  -0.2318  -0.1859  -0.1615
    -0.1207  -0.0977  -0.0395  -0.0160  -0.0106   0.0296   0.0473   0.0898
     0.1458   0.1606   0.1865   0.2801   0.3124   0.3672   0.4935   0.5072
     0.5950   0.6621   0.7682   0.7810   0.8325   0.9636   1.0597   1.0816
     1.1031   1.3084   1.4130   1.6674   1.7095   3.0246   3.1653   3.2559
     3.3726   3.4938   3.5695   3.6029   3.7828   3.8204   3.8612   3.9299

[...]

          k =-0.0760-0.0000 0.0000 ( 17886 PWs)   bands (ev):

[...]

 ------ SPIN DOWN ----------

[...]

          k = 0.0380-0.0419 0.0000 ( 17876 PWs)   bands (ev):

[...]

          k =-0.0760-0.0839 0.0000 ( 17948 PWs)   bands (ev):

   -56.0000 -55.9979 -55.7926 -55.7778 -55.7107 -55.7032 -55.6485 -55.6451
   -55.6262 -55.6182 -55.5726 -55.5006 -55.2412 -54.9024 -54.9022 -54.7902
   -32.3029 -32.3017 -32.2952 -32.2932 -32.1542 -32.1421 -32.1211 -32.1189
   -32.0506 -32.0379 -32.0276 -32.0227 -32.0162 -32.0138 -31.9706 -31.9651
   -31.9560 -31.9439 -31.9136 -31.9020 -31.8898 -31.8855 -31.8814 -31.8800
   -31.8761 -31.8718 -31.8557 -31.8503 -31.8445 -31.8408 -31.8357 -31.8171
   -31.7980 -31.7946 -31.7654 -31.7069 -31.6075 -31.4707 -31.4646 -31.2570
   -31.2332 -31.2331 -31.1361 -31.1359 -31.0970 -31.0969 -31.0060 -30.9180
   -17.2900 -15.9768 -15.9484 -15.8415 -15.8222 -15.7333 -15.7201 -15.6056
   -15.5978 -15.5846 -15.5184 -15.4731 -15.4625 -15.3796 -15.3529 -15.3414
   -15.3169 -15.3071 -15.3006 -15.2897 -15.2773 -15.1976 -15.1923 -15.1899
   -15.1146 -15.0920 -14.9060 -14.8626 -14.6648 -14.6192 -13.4087 -13.4083
   -11.5484  -8.3053  -5.0121  -3.9115  -3.8239  -3.2788  -3.2427  -3.0270
    -3.0011  -2.9807  -2.9514  -2.7666  -2.7527  -2.7465  -2.7291  -2.7162
    -2.6790  -2.6599  -2.6470  -2.5811  -2.5715  -2.5511  -2.5462  -2.5360
    -2.5175  -2.5021  -2.4942  -2.4749  -2.4601  -2.4154  -2.3610  -2.3385
    -2.2884  -2.1942  -2.0882  -2.0439  -2.0302  -2.0221  -1.9990  -1.9898
    -1.9493  -1.9366  -1.8508  -1.6660  -1.6187  -1.5578  -1.5518  -1.5411
    -1.4848  -1.4284  -1.3869  -1.3100  -1.2447  -1.1919  -1.1633  -1.1393
    -1.1038  -1.0375  -0.9716  -0.9522  -0.9395  -0.9107  -0.9075  -0.8885
    -0.8106  -0.7270  -0.6863  -0.6560  -0.6334  -0.6195  -0.6040  -0.5808
    -0.4741  -0.4058  -0.3579  -0.3123  -0.2701  -0.2281  -0.1096  -0.0947
     0.0999   0.1658   0.1909   0.2697   0.3664   0.3915   0.4017   0.4670
     0.5421   0.6048   0.6395   0.6940   0.7092   0.7305   0.7975   1.0131
     1.0681   1.4766   1.4782   1.5271   1.5281   2.9882   3.6726   3.6820
     3.6851   3.6962   3.7146   3.7371   3.7906   3.8243   3.9271   3.9675

     the Fermi energy is     3.1346 ev

!    total energy              =   -2940.35267145 Ry
     estimated scf accuracy    <       0.00000005 Ry
     smearing contrib. (-TS)   =      -0.01868155 Ry
     internal energy E=F+TS    =   -2940.33398990 Ry

     The total energy is F=E-TS. E is the sum of the following terms:
     one-electron contribution =  -24661.61778938 Ry
     hartree contribution      =   12419.94041451 Ry
     xc contribution           =    -486.04547461 Ry
     ewald contribution        =    9787.38783622 Ry
     electric field correction =       0.00102336 Ry

     total magnetization       =     0.02 Bohr mag/cell
     absolute magnetization    =     0.04 Bohr mag/cell

     convergence has been achieved in  86 iterations

     Forces acting on atoms (cartesian axes, Ry/au):

     atom    1 type  1   force =     0.00023536   -0.00036934    0.10153194
     atom    2 type  1   force =     0.00001743   -0.00086116   -0.17140865
     atom    3 type  2   force =     0.00029110    0.00021767   -0.03324517
     atom    4 type  2   force =     0.00003294   -0.00078867    0.04481989
     atom    5 type  2   force =    -0.01194772   -0.00021093   -0.00232304
     atom    6 type  2   force =     0.01438094    0.00038257   -0.00112443
     atom    7 type  1   force =     0.00140302   -0.00131046   -0.00429678
     atom    8 type  1   force =    -0.00077089    0.02219457    0.05620118
     atom    9 type  2   force =     0.00002676   -0.00032702    0.00046500
     atom   10 type  2   force =    -0.00266573    0.00207216   -0.02594364
     atom   11 type  2   force =     0.00003211    0.00024718   -0.00005921
     atom   12 type  2   force =     0.00009664    0.00073657    0.00001726
     atom   13 type  1   force =    -0.00003619    0.00014181    0.00024455
     atom   14 type  1   force =     0.00028233    0.00030346   -0.00000000
     atom   15 type  2   force =     0.00018838   -0.00021191    0.00000241
     atom   16 type  2   force =    -0.00002403   -0.00013429    0.00076852
     atom   17 type  2   force =    -0.00012183   -0.00078582    0.00002572
     atom   18 type  2   force =     0.00050972   -0.00071779    0.00029353
     atom   19 type  1   force =    -0.00010551   -0.00048512    0.00021071
     atom   20 type  1   force =    -0.00000453    0.00010026   -0.00018720
     atom   21 type  2   force =     0.00006465   -0.00001100    0.10210419
     atom   22 type  2   force =    -0.00000100   -0.00028581    0.00033562
     atom   23 type  2   force =    -0.07329030   -0.00016004   -0.02888786
     atom   24 type  2   force =     0.07324227    0.00033436   -0.02893534
     atom   25 type  1   force =    -0.00027156   -0.00029900    0.10196514
     atom   26 type  1   force =     0.00003542   -0.00020317   -0.17140844
     atom   27 type  2   force =     0.00036574   -0.00022912   -0.03195917
     atom   28 type  2   force =     0.00009340   -0.00057334    0.04543767
     atom   29 type  2   force =    -0.01209464    0.00213084   -0.00287956
     atom   30 type  2   force =     0.01440675    0.00229162   -0.00162238
     atom   31 type  1   force =     0.00158344    0.00092748   -0.00560329
     atom   32 type  1   force =    -0.00059633   -0.02476010    0.05723533
     atom   33 type  2   force =     0.00015027    0.00035923    0.00062866
     atom   34 type  2   force =    -0.00420761    0.00211992   -0.04832867
     atom   35 type  2   force =     0.00062237   -0.00058702    0.00000926
     atom   36 type  2   force =    -0.00039709   -0.00075000    0.00013597
     atom   37 type  1   force =     0.00006089    0.00061790   -0.00003636
     atom   38 type  1   force =     0.00003693   -0.00011899   -0.00013241
     atom   39 type  2   force =     0.00019111   -0.00003508   -0.00068003
     atom   40 type  2   force =    -0.00008530   -0.00003468   -0.00033580
     atom   41 type  2   force =     0.00004200    0.00048867   -0.00006374
     atom   42 type  2   force =     0.00002202    0.00036992    0.00069642
     atom   43 type  1   force =    -0.00024205   -0.00011826    0.00016139
     atom   44 type  1   force =    -0.00000312    0.00007791    0.00024120
     atom   45 type  2   force =     0.00004605   -0.00004861    0.10216378
     atom   46 type  2   force =    -0.07329945   -0.00009267   -0.02885795
     atom   47 type  2   force =     0.07325099    0.00028203   -0.02889566
     atom   48 type  3   force =    -0.00038146    0.00047357    0.00064808
     atom   49 type  4   force =    -0.00006983    0.00804601    0.00360414
     atom   50 type  5   force =    -0.00038964   -0.00940861   -0.00420976
     atom   51 type  5   force =    -0.00052798    0.00024244    0.00094506
     atom   52 type  5   force =    -0.00015835   -0.00024199    0.00023526
     atom   53 type  3   force =    -0.00004205   -0.00059731    0.00067499
     atom   54 type  5   force =     0.00002319   -0.00040085   -0.00037831

     Total force =     0.378039     Total SCF correction =     0.000227
  @ DRIVER MODE: Message from server: STATUS
  @ DRIVER MODE: Message from server: GETFORCE
  @ DRIVER MODE: Returning v,forces,stress,ensemble

     Writing output data file ./calc.save/
  @ DRIVER MODE: Message from server: EXIT
  @ DRIVE MODE: Exiting

     General routines

     Parallel routines

   This run was terminated on:   4:59:25  16Jul2021

   JOB DONE.