     Program PWSCF v.6.7GPU starts on  9Sep2021 at 10:22:20

     R & G space division:  proc/nbgrp/npool/nimage =      10
     Reading input from /storage/home/hcoda1/3/ntian30/research/carbon/CxH_vib/CH3_calc/ads_slab/CH3N2H_a/out_0041/pw.inp
Warning: card &CELL ignored
Warning: card   CELL_DYNAMICS='IPI', ignored
Warning: card / ignored

     Current dimensions of program PWSCF are:
     Max number of different atomic species (ntypx) = 10
     Max number of k-points (npk) =  40000
     Max angular momentum in pseudopotentials (lmaxx) =  3
     Presently no symmetry can be used with electric field

     Message from routine cell_base_init:
     DEPRECATED: use true lattice parameter, not A to a.u. conversion factor

     IMPORTANT: XC functional enforced from input :
     Exchange-correlation= BEEF-VDW
                           (   1   4  43  14   2   0   0)
     Any further DFT definition will be discarded
     Please, verify this is what you really want

  @ DRIVER MODE: Connecting to
 qe_1139763_2767396.sched-torque.pace.gatech.edu3n4aiywn_scratch
  using UNIX socket
  @ DRIVER MODE: Message from server: STATUS
  @ DRIVER MODE: Message from server: INIT
  @ DRIVER MODE: Receiving replica           0          -1
  @ DRIVER MODE: Receiving encoded integer          25
  @ DRIVER MODE:  SCF:  T  FORCE:  T  STRESS:  F  VC:  F  ENSEMBLE:  F
  @ DRIVER MODE:  SCF:  T  FORCE:  T  STRESS:  F  VC:  F  ENSEMBLE:  F

     Using Slab Decomposition

     bravais-lattice index     =            0
     lattice parameter (alat)  =       1.8897  a.u.
     unit-cell volume          =    6658.9804 (a.u.)^3
     number of atoms/cell      =           54
     number of atomic types    =            5
     number of electrons       =       396.00
     number of Kohn-Sham states=          208
     kinetic-energy cutoff     =      29.3995  Ry
     charge density cutoff     =     293.9946  Ry
     scf convergence threshold =      7.3E-08
     mixing beta               =       0.0500
     number of iterations used =            8  plain     mixing
     Exchange-correlation= BEEF-VDW
                           (   1   4  43  14   2   0   0)

     celldm(1)=   1.889726  celldm(2)=   0.000000  celldm(3)=   0.000000
     celldm(4)=   0.000000  celldm(5)=   0.000000  celldm(6)=   0.000000

     crystal axes: (cart. coord. in units of alat)
               a(1) = (   6.579727   0.000000   0.000000 )
               a(2) = (  -0.000775   5.961596   0.000000 )
               a(3) = (   0.000000   0.000000  25.155947 )

     reciprocal axes: (cart. coord. in units 2 pi/alat)
               b(1) = (  0.151982  0.000020  0.000000 )
               b(2) = (  0.000000  0.167740  0.000000 )
               b(3) = (  0.000000  0.000000  0.039752 )

     PseudoPot. # 1 for Ti read from file:
     /storage/coda1/p-amedford6/0/shared/rich_project_chbe-medford/medford-share/data/pseudos_module/espresso/nninc/pbe/van/Ti.UPF
     MD5 check sum: 8e4df49b7f0d34bbd5052bf3f5ea0213
     Pseudo is Ultrasoft, Zval = 12.0
     Generated by new atomic code, or converted to UPF format
     Using radial grid of  851 points,  6 beta functions with:
                l(1) =   0
                l(2) =   0
                l(3) =   1
                l(4) =   1
                l(5) =   2
                l(6) =   2
     Q(r) pseudized with  8 coefficients,  rinner =    1.000   1.000   1.000
                                                       1.000   1.000

     PseudoPot. # 2 for O  read from file:
     /storage/coda1/p-amedford6/0/shared/rich_project_chbe-medford/medford-share/data/pseudos_module/espresso/nninc/pbe/van/O.UPF
     MD5 check sum: 78c19812648e8988a0fe644b0f25305e
     Pseudo is Ultrasoft, Zval =  6.0
     Generated by new atomic code, or converted to UPF format
     Using radial grid of  737 points,  4 beta functions with:
                l(1) =   0
                l(2) =   0
                l(3) =   1
                l(4) =   1
     Q(r) pseudized with  8 coefficients,  rinner =    0.800   0.800   0.800

     PseudoPot. # 3 for N  read from file:
     /storage/coda1/p-amedford6/0/shared/rich_project_chbe-medford/medford-share/data/pseudos_module/espresso/nninc/pbe/van/N.UPF
     MD5 check sum: 90d10febe142ad51ac9d5be1deb811c4
     Pseudo is Ultrasoft, Zval =  5.0
     Generated by new atomic code, or converted to UPF format
     Using radial grid of  729 points,  4 beta functions with:
                l(1) =   0
                l(2) =   0
                l(3) =   1
                l(4) =   1
     Q(r) pseudized with  8 coefficients,  rinner =    0.800   0.800   0.800

     PseudoPot. # 4 for C  read from file:
     /storage/coda1/p-amedford6/0/shared/rich_project_chbe-medford/medford-share/data/pseudos_module/espresso/nninc/pbe/van/C.UPF
     MD5 check sum: 1a69bf6b8db32088f5b2163dbdb77a27
     Pseudo is Ultrasoft, Zval =  4.0
     Generated by new atomic code, or converted to UPF format
     Using radial grid of  721 points,  4 beta functions with:
                l(1) =   0
                l(2) =   0
                l(3) =   1
                l(4) =   1
     Q(r) pseudized with  8 coefficients,  rinner =    0.800   0.800   0.800

     PseudoPot. # 5 for H  read from file:
     /storage/coda1/p-amedford6/0/shared/rich_project_chbe-medford/medford-share/data/pseudos_module/espresso/nninc/pbe/van/H.UPF
     MD5 check sum: b5ee9d7bfd3a09ee7748110bda690ff7
     Pseudo is Ultrasoft, Zval =  1.0
     Generated by new atomic code, or converted to UPF format
     Using radial grid of  615 points,  1 beta functions with:
                l(1) =   0
     Q(r) pseudized with  8 coefficients,  rinner =    0.800

     atomic species   valence    mass     pseudopotential
        Ti1           12.00    47.86700     Ti( 1.00)
        O1             6.00    15.99900     O ( 1.00)
        N1             5.00    14.00700     N ( 1.00)
        C1             4.00    12.01100     C ( 1.00)
        H1             1.00     1.00800     H ( 1.00)

     No symmetry found

   Cartesian axes

     site n.     atom                  positions (alat units)
         1           Ti1 tau(   1) = (   0.0004258   2.9801865   6.0000000  )
         2           Ti1 tau(   2) = (   3.2906075   1.4906267   6.0002472  )
         3           O1  tau(   3) = (   0.0006271   0.0005054   7.9858123  )
         4           O1  tau(   4) = (   3.2906025   0.0005020   7.3038282  )
         5           O1  tau(   5) = (   4.5942328   1.4918067   9.2879030  )
         6           O1  tau(   6) = (   1.9868534   1.4903216   9.2879459  )
         7           Ti1 tau(   7) = (   3.2907910   2.8959150   9.1758416  )
         8           Ti1 tau(   8) = (   0.0015273   1.4827037   9.2680791  )
         9           O1  tau(   9) = (   3.2896288   0.0042867  11.3205077  )
        10           O1  tau(  10) = (   0.0116148   5.9584955  10.6183126  )
        11           O1  tau(  11) = (   1.2848067   1.4985890  12.6232755  )
        12           O1  tau(  12) = (   5.2688617   1.4893877  12.6055203  )
        13           Ti1 tau(  13) = (   0.0799559   3.0171279  12.6206390  )
        14           Ti1 tau(  14) = (   3.4009582   1.4891986  12.4726338  )
        15           O1  tau(  15) = (   6.5707323   0.0080309  14.6263129  )
        16           O1  tau(  16) = (   3.2902489   0.0120312  13.8979102  )
        17           O1  tau(  17) = (   4.5126121   1.5346005  16.0500440  )
        18           O1  tau(  18) = (   2.0453867   1.5362785  16.0447169  )
        19           Ti1 tau(  19) = (   3.2767562   3.0203775  15.6892921  )
        20           Ti1 tau(  20) = (   6.5596632   1.5778499  15.8310978  )
        21           O1  tau(  21) = (   3.2904802   0.0005063   4.7018136  )
        22           O1  tau(  22) = (   6.5709656   0.0671247  17.2345223  )
        23           O1  tau(  23) = (   1.3043587   1.4918075   6.0039043  )
        24           O1  tau(  24) = (   5.2767064   1.4903225   6.0039473  )
        25           Ti1 tau(  25) = (   0.0000382   5.9609847   6.0000000  )
        26           Ti1 tau(  26) = (   3.2902200   4.4714249   6.0002472  )
        27           O1  tau(  27) = (   0.0002396   2.9813036   7.9858123  )
        28           O1  tau(  28) = (   3.2902150   2.9813002   7.3038282  )
        29           O1  tau(  29) = (   4.5938453   4.4726049   9.2879030  )
        30           O1  tau(  30) = (   1.9864658   4.4711199   9.2879459  )
        31           Ti1 tau(  31) = (   3.2891106   5.8743827   9.1763621  )
        32           Ti1 tau(  32) = (   0.0006254   4.4649316   9.2693709  )
        33           O1  tau(  33) = (   3.2919429   2.9835650  11.3172650  )
        34           O1  tau(  34) = (   0.0092240   2.9805883  10.6323155  )
        35           O1  tau(  35) = (   1.2842535   4.4799506  12.6241420  )
        36           O1  tau(  36) = (   5.2755836   4.4732255  12.6042992  )
        37           Ti1 tau(  37) = (   0.0783641   0.0295629  12.6394962  )
        38           Ti1 tau(  38) = (   3.4022659   4.4693352  12.4708195  )
        39           O1  tau(  39) = (   6.5693815   2.9799975  14.6326336  )
        40           O1  tau(  40) = (   3.2899495   3.0014797  13.8849495  )
        41           O1  tau(  41) = (   4.5062741   4.5069571  16.0893315  )
        42           O1  tau(  42) = (   2.0480812   4.5060041  16.0753496  )
        43           Ti1 tau(  43) = (   3.2742444   0.0367023  15.7020416  )
        44           Ti1 tau(  44) = (   6.5658628   4.6518251  16.1481936  )
        45           O1  tau(  45) = (   3.2900926   2.9813045   4.7018136  )
        46           O1  tau(  46) = (   1.3039711   4.4726057   6.0039043  )
        47           O1  tau(  47) = (   5.2763189   4.4711207   6.0039473  )
        48           N1  tau(  48) = (   6.5201982   2.6597193  18.5868863  )
        49           N1  tau(  49) = (   6.5663212   2.9659568  17.3251533  )
        50           C1  tau(  50) = (   0.1092964   3.6297355  19.6533281  )
        51           H1  tau(  51) = (   6.1365678   4.5355971  19.4091500  )
        52           H1  tau(  52) = (   6.3142024   3.1981282  20.5813133  )
        53           H1  tau(  53) = (   1.1661384   3.8973747  19.7839464  )
        54           H1  tau(  54) = (   6.5756389   1.6632157  18.7947554  )

     number of k points=    10  Fermi-Dirac smearing, width (Ry)=  0.0073
                       cart. coord. in units 2pi/alat
        k(    1) = (   0.0000000   0.0000000   0.0000000), wk =   0.1250000
        k(    2) = (   0.0000000   0.0419351   0.0000000), wk =   0.2500000
        k(    3) = (   0.0000000  -0.0838702   0.0000000), wk =   0.1250000
        k(    4) = (   0.0379955   0.0000049   0.0000000), wk =   0.2500000
        k(    5) = (   0.0379955   0.0419400   0.0000000), wk =   0.2500000
        k(    6) = (   0.0379955  -0.0838652   0.0000000), wk =   0.2500000
        k(    7) = (   0.0379955  -0.0419301   0.0000000), wk =   0.2500000
        k(    8) = (  -0.0759910  -0.0000099   0.0000000), wk =   0.1250000
        k(    9) = (  -0.0759910   0.0419252   0.0000000), wk =   0.2500000
        k(   10) = (  -0.0759910  -0.0838800   0.0000000), wk =   0.1250000

     Initial potential from superposition of free atoms

     starting charge  379.99915, renormalised to  396.00000

     negative rho (up, down):  1.474E-02 0.000E+00

     %%%%%%%%%%%%%%%%%%%%%%%%%%%%%%%%%%%%%%%%%%%%%%%%%%%%%%%%%%%%%%%%%%%%%%%%
     %                                                                      %
     % You are using vdW-DF, which was implemented by the Thonhauser group. %
     % Please cite the following two papers that made this development      %
     % possible and the two reviews that describe the various versions:     %
     %                                                                      %
     %   T. Thonhauser et al., PRL 115, 136402 (2015).                      %
     %   T. Thonhauser et al., PRB 76, 125112 (2007).                       %
     %   K. Berland et al., Rep. Prog. Phys. 78, 066501 (2015).             %
     %   D.C. Langreth et al., J. Phys.: Condens. Matter 21, 084203 (2009). %
     %                                                                      %
     %                                                                      %
     % If you are calculating the stress with vdW-DF, please also cite:     %
     %                                                                      %
     %   R. Sabatini et al., J. Phys.: Condens. Matter 24, 424209 (2012).   %
     %                                                                      %
     %%%%%%%%%%%%%%%%%%%%%%%%%%%%%%%%%%%%%%%%%%%%%%%%%%%%%%%%%%%%%%%%%%%%%%%%

     Adding external electric field

     Computed dipole along edir(3) :
        Dipole               -9.2696 Ry au,        -23.5610 Debye
        Dipole field         -0.0175 Ry au,

        Potential amp.        1.6216 Ry
        Total length         46.3494 bohr

     Starting wfcs are  300 atomic wfcs
  @ DRIVER MODE: Message from server: STATUS
  @ DRIVER MODE: Message from server: POSDATA
  @ DRIVER MODE: Reading and sharing cell
  @ DRIVER MODE: Reading and sharing positions
  @ DRIVER MODE: Received positions

     Self-consistent Calculation

     iteration #  1     ecut=    29.40 Ry     beta= 0.05
     Davidson diagonalization with overlap
     c_bands:  1 eigenvalues not converged
     c_bands:  1 eigenvalues not converged
     c_bands:  1 eigenvalues not converged
     ethr =  1.00E-05,  avg # of iterations = 17.9

[...]

     total energy              =   -2585.22594129 Ry
     estimated scf accuracy    <    3947.65324537 Ry

     iteration #  2     ecut=    29.40 Ry     beta= 0.05
     Davidson diagonalization with overlap
     ethr =  1.00E-02,  avg # of iterations = 22.4

[...]

     iteration # 70     ecut=    29.40 Ry     beta= 0.05
     Davidson diagonalization with overlap
     c_bands:  1 eigenvalues not converged
     ethr =  4.27E-07,  avg # of iterations = 11.1

[...]

     total energy              =   -2940.39767248 Ry
     estimated scf accuracy    <       0.00000010 Ry

     iteration # 92     ecut=    29.40 Ry     beta= 0.05
     Davidson diagonalization with overlap
     ethr =  2.48E-11,  avg # of iterations =  7.2

     negative rho (up, down):  1.568E-02 0.000E+00

     Adding external electric field

     Computed dipole along edir(3) :
        Dipole                1.1305 Ry au,          2.8736 Debye
        Dipole field          0.0021 Ry au,

        Potential amp.       -0.1978 Ry
        Total length         46.3494 bohr

     End of self-consistent calculation

          k = 0.0000 0.0000 0.0000 ( 18029 PWs)   bands (ev):

   -55.6432 -55.6092 -55.5513 -55.5136 -55.4072 -55.3849 -55.3734 -55.3497
   -55.3426 -55.3356 -55.3159 -55.2660 -54.7251 -54.5850 -54.5573 -54.5510
   -32.1176 -32.0948 -31.9375 -31.9244 -31.8945 -31.8638 -31.8458 -31.8392
   -31.7964 -31.7799 -31.7791 -31.7399 -31.7310 -31.7132 -31.7018 -31.6921
   -31.6818 -31.6729 -31.6398 -31.6281 -31.6057 -31.5856 -31.5782 -31.5642
   -31.5510 -31.5447 -31.5379 -31.5362 -31.5306 -31.5134 -31.5042 -31.5028
   -31.4988 -31.4619 -31.4476 -31.3801 -31.2232 -30.9907 -30.9481 -30.9336
   -30.9060 -30.8949 -30.8833 -30.8076 -30.7656 -30.7365 -30.7213 -30.6102
   -18.0079 -16.2775 -16.0497 -15.7723 -15.6716 -15.6480 -15.5272 -15.3947
   -15.2942 -15.1993 -15.1587 -15.1046 -15.1002 -15.0707 -15.0403 -15.0045
   -14.9769 -14.9373 -14.9195 -14.8998 -14.8746 -14.8656 -14.7549 -14.7412
   -14.7170 -14.6255 -14.6152 -14.5424 -14.5163 -14.0881 -13.0872 -12.9715
   -12.0167  -8.9365  -5.7367  -4.4583  -4.1538  -3.6604  -3.5344  -3.5043
    -3.4029  -3.2282  -3.1382  -3.0782  -2.9527  -2.7644  -2.7296  -2.7198
    -2.6997  -2.6420  -2.4438  -2.4181  -2.3869  -2.3471  -2.3371  -2.3350
    -2.3208  -2.2591  -2.1928  -2.1280  -2.0297  -2.0249  -1.9684  -1.9552
    -1.9377  -1.9030  -1.8597  -1.8203  -1.7989  -1.7567  -1.7381  -1.7316
    -1.6902  -1.6081  -1.5054  -1.3484  -1.3315  -1.3010  -1.2531  -1.1972
    -1.0325  -1.0173  -0.9798  -0.9737  -0.9418  -0.8663  -0.7997  -0.7140
    -0.6783  -0.6010  -0.5852  -0.5565  -0.4823  -0.3966  -0.3738  -0.3589
    -0.3512  -0.3357  -0.2777  -0.1633  -0.0680  -0.0388   0.0831   0.0877
     0.1229   0.1673   0.1836   0.2653   0.3018   0.3157   0.3671   0.3676
     0.3792   0.4229   0.4459   0.5084   0.5643   0.6485   0.7215   0.7871
     0.8239   0.9404   1.0114   1.0768   1.1081   1.2376   1.3678   1.3751
     1.4367   1.6321   1.6347   2.0052   2.0495   3.5280   3.5493   3.6420
     3.6855   3.7832   3.8222   3.9666   4.0216   4.0591   4.1744   4.2043

[...]

          k = 0.0380-0.0419 0.0000 ( 17876 PWs)   bands (ev):

[...]

          k =-0.0760-0.0000 0.0000 ( 17886 PWs)   bands (ev):

[...]

          k =-0.0760-0.0839 0.0000 ( 17948 PWs)   bands (ev):

   -55.6263 -55.6260 -55.5382 -55.5264 -55.3903 -55.3900 -55.3759 -55.3515
   -55.3342 -55.3315 -55.3309 -55.2706 -54.7235 -54.5680 -54.5679 -54.5587
   -31.9331 -31.9330 -31.9227 -31.9227 -31.9026 -31.8932 -31.7958 -31.7860
   -31.7623 -31.7495 -31.7471 -31.7466 -31.7022 -31.6993 -31.6870 -31.6836
   -31.6749 -31.6712 -31.6707 -31.6454 -31.6011 -31.5991 -31.5860 -31.5830
   -31.5787 -31.5771 -31.5755 -31.5651 -31.5626 -31.5570 -31.5491 -31.5462
   -31.5392 -31.5288 -31.5026 -31.4683 -31.1324 -30.9693 -30.9345 -30.9215
   -30.8962 -30.8960 -30.8037 -30.8035 -30.7844 -30.7669 -30.7645 -30.7645
   -18.0022 -15.7005 -15.6892 -15.5100 -15.5048 -15.4444 -15.4382 -15.2853
   -15.2843 -15.2660 -15.2578 -15.1345 -15.1307 -15.0993 -15.0956 -15.0533
   -15.0447 -15.0265 -15.0181 -15.0165 -15.0099 -14.9834 -14.9324 -14.8984
   -14.8929 -14.7156 -14.7149 -14.5944 -14.5617 -14.2239 -13.0735 -13.0734
   -12.0176  -8.9460  -5.7284  -4.3973  -4.1566  -2.9903  -2.9783  -2.9702
    -2.7049  -2.6998  -2.6753  -2.6647  -2.4597  -2.4470  -2.4258  -2.4201
    -2.3928  -2.3870  -2.3722  -2.3650  -2.2820  -2.2715  -2.2602  -2.2362
    -2.2333  -2.2280  -2.2117  -2.2042  -2.1943  -2.1607  -2.1254  -2.0959
    -2.0615  -2.0390  -1.9196  -1.8091  -1.7315  -1.7247  -1.6941  -1.6882
    -1.6822  -1.6758  -1.6429  -1.5385  -1.4833  -1.4278  -1.2907  -1.2649
    -1.2481  -1.2018  -1.1135  -1.0330  -0.9695  -0.9526  -0.9050  -0.8618
    -0.8369  -0.7526  -0.7286  -0.7209  -0.6534  -0.6207  -0.5763  -0.5702
    -0.5568  -0.4902  -0.4420  -0.3925  -0.3690  -0.3383  -0.2931  -0.2725
    -0.2095  -0.1580  -0.1101  -0.1046  -0.0563  -0.0481   0.0171   0.1663
     0.2160   0.4697   0.4842   0.5147   0.6390   0.7107   0.7161   0.7441
     0.7756   0.8271   0.8390   0.9726   0.9842   0.9866   1.1524   1.1767
     1.2653   1.8051   1.8053   1.8685   1.8689   3.4307   3.9205   3.9379
     3.9630   3.9781   4.0494   4.0504   4.0587   4.0661   4.2440   4.2656

     the Fermi energy is     3.5052 ev

!    total energy              =   -2940.39768508 Ry
     estimated scf accuracy    <       0.00000005 Ry
     smearing contrib. (-TS)   =      -0.02302806 Ry
     internal energy E=F+TS    =   -2940.37465702 Ry

     The total energy is F=E-TS. E is the sum of the following terms:
     one-electron contribution =  -24109.82744778 Ry
     hartree contribution      =   12146.14248103 Ry
     xc contribution           =    -486.04767377 Ry
     ewald contribution        =    9509.35557148 Ry
     electric field correction =       0.00241202 Ry

     convergence has been achieved in  92 iterations

     Forces acting on atoms (cartesian axes, Ry/au):

     atom    1 type  1   force =     0.00015702   -0.00011879    0.09935290
     atom    2 type  1   force =    -0.00012539   -0.00047283   -0.17358431
     atom    3 type  2   force =    -0.00005015    0.00000073   -0.02878595
     atom    4 type  2   force =     0.00007495   -0.00125290    0.04998211
     atom    5 type  2   force =    -0.01305369    0.00057599    0.00121471
     atom    6 type  2   force =     0.01460317    0.00138389   -0.00011157
     atom    7 type  1   force =    -0.00144359   -0.00060098   -0.00836926
     atom    8 type  1   force =     0.00088310   -0.00412587    0.04513063
     atom    9 type  2   force =    -0.00003076   -0.00066003   -0.00025737
     atom   10 type  2   force =    -0.00129089    0.00227737   -0.02840781
     atom   11 type  2   force =     0.00019084    0.00061434   -0.00003280
     atom   12 type  2   force =     0.00026029    0.00041139    0.00011214
     atom   13 type  1   force =     0.00036355    0.00021647   -0.00059739
     atom   14 type  1   force =     0.00003030    0.00047667    0.00031649
     atom   15 type  2   force =     0.00033938   -0.00009097   -0.00009009
     atom   16 type  2   force =    -0.00040827   -0.00023410   -0.00016537
     atom   17 type  2   force =    -0.00099701    0.00014148   -0.00050311
     atom   18 type  2   force =     0.00087888    0.00019708    0.00026054
     atom   19 type  1   force =     0.00022057   -0.00006565   -0.00003651
     atom   20 type  1   force =    -0.00048190   -0.00067180    0.00004236
     atom   21 type  2   force =     0.00009231   -0.00007427    0.10276966
     atom   22 type  2   force =     0.00010729    0.00027668    0.00033374
     atom   23 type  2   force =    -0.07212907   -0.00015898   -0.02832621
     atom   24 type  2   force =     0.07212476    0.00029721   -0.02832211
     atom   25 type  1   force =     0.00012323   -0.00020327    0.09867075
     atom   26 type  1   force =    -0.00010702   -0.00046246   -0.17379255
     atom   27 type  2   force =     0.00001324   -0.00002441   -0.02807010
     atom   28 type  2   force =     0.00011533   -0.00099855    0.04943788
     atom   29 type  2   force =    -0.01337379    0.00005417    0.00127653
     atom   30 type  2   force =     0.01483249    0.00041803   -0.00007069
     atom   31 type  1   force =    -0.00139852    0.00250637   -0.00865555
     atom   32 type  1   force =     0.00106149    0.00238366    0.04546133
     atom   33 type  2   force =    -0.00012940    0.00104614    0.00056100
     atom   34 type  2   force =    -0.00071625    0.00120193   -0.03115082
     atom   35 type  2   force =     0.00068609   -0.00051287   -0.00017733
     atom   36 type  2   force =    -0.00162384   -0.00011057    0.00006767
     atom   37 type  1   force =    -0.00019021   -0.00152745    0.00020079
     atom   38 type  1   force =     0.00077646   -0.00004485    0.00051227
     atom   39 type  2   force =     0.00032702    0.00018658   -0.00056281
     atom   40 type  2   force =    -0.00040265    0.00033202   -0.00002676
     atom   41 type  2   force =     0.00044259   -0.00058934    0.00004040
     atom   42 type  2   force =    -0.00043026   -0.00071402    0.00053169
     atom   43 type  1   force =     0.00035605   -0.00032855   -0.00062258
     atom   44 type  1   force =    -0.00034495   -0.00086734   -0.00029749
     atom   45 type  2   force =     0.00011232   -0.00006545    0.10279737
     atom   46 type  2   force =    -0.07215057   -0.00009633   -0.02832304
     atom   47 type  2   force =     0.07213404    0.00034422   -0.02830317
     atom   48 type  3   force =    -0.00022971    0.00153923   -0.00343774
     atom   49 type  3   force =    -0.00008995    0.00106414   -0.00128941
     atom   50 type  4   force =     0.00121407   -0.00055206    0.00113794
     atom   51 type  5   force =    -0.00024521   -0.00061306   -0.00000274
     atom   52 type  5   force =     0.00034825    0.00017092   -0.00038586
     atom   53 type  5   force =    -0.00107593    0.00047573   -0.00093608
     atom   54 type  5   force =    -0.00035014   -0.00235470    0.00348368

     Total force =     0.372252     Total SCF correction =     0.000381
  @ DRIVER MODE: Message from server: STATUS
  @ DRIVER MODE: Message from server: GETFORCE
  @ DRIVER MODE: Returning v,forces,stress,ensemble

     Writing output data file ./calc.save/
  @ DRIVER MODE: Message from server: EXIT
  @ DRIVE MODE: Exiting

     General routines

     Parallel routines

   This run was terminated on:  10:44:31   9Sep2021

   JOB DONE.