     Program PWSCF v.6.7GPU starts on 16Sep2021 at 17:19:32

     R & G space division:  proc/nbgrp/npool/nimage =      10
     Reading input from /storage/home/hcoda1/3/ntian30/research/carbon/CxH_vib/H2O_calc/ads_slab/CH3NNH3H2O_a/out_0072/pw.inp
Warning: card &CELL ignored
Warning: card   CELL_DYNAMICS='IPI', ignored
Warning: card / ignored

     Current dimensions of program PWSCF are:
     Max number of different atomic species (ntypx) = 10
     Max number of k-points (npk) =  40000
     Max angular momentum in pseudopotentials (lmaxx) =  3
     Presently no symmetry can be used with electric field

     Message from routine cell_base_init:
     DEPRECATED: use true lattice parameter, not A to a.u. conversion factor

     IMPORTANT: XC functional enforced from input :
     Exchange-correlation= BEEF-VDW
                           (   1   4  43  14   2   0   0)
     Any further DFT definition will be discarded
     Please, verify this is what you really want

  @ DRIVER MODE: Connecting to
 qe_1139763_2852621.sched-torque.pace.gatech.edutd3guo3q_scratch
  using UNIX socket
  @ DRIVER MODE: Message from server: STATUS
  @ DRIVER MODE: Message from server: INIT
  @ DRIVER MODE: Receiving replica           0          -1
  @ DRIVER MODE: Receiving encoded integer          25
  @ DRIVER MODE:  SCF:  T  FORCE:  T  STRESS:  F  VC:  F  ENSEMBLE:  F
  @ DRIVER MODE:  SCF:  T  FORCE:  T  STRESS:  F  VC:  F  ENSEMBLE:  F

     Using Slab Decomposition

     bravais-lattice index     =            0
     lattice parameter (alat)  =       1.8897  a.u.
     unit-cell volume          =    6658.9804 (a.u.)^3
     number of atoms/cell      =           59
     number of atomic types    =            5
     number of electrons       =       406.00
     number of Kohn-Sham states=          213
     kinetic-energy cutoff     =      29.3995  Ry
     charge density cutoff     =     293.9946  Ry
     scf convergence threshold =      7.3E-08
     mixing beta               =       0.0500
     number of iterations used =            8  plain     mixing
     Exchange-correlation= BEEF-VDW
                           (   1   4  43  14   2   0   0)

     celldm(1)=   1.889726  celldm(2)=   0.000000  celldm(3)=   0.000000
     celldm(4)=   0.000000  celldm(5)=   0.000000  celldm(6)=   0.000000

     crystal axes: (cart. coord. in units of alat)
               a(1) = (   6.579727   0.000000   0.000000 )
               a(2) = (  -0.000775   5.961596   0.000000 )
               a(3) = (   0.000000   0.000000  25.155947 )

     reciprocal axes: (cart. coord. in units 2 pi/alat)
               b(1) = (  0.151982  0.000020  0.000000 )
               b(2) = (  0.000000  0.167740  0.000000 )
               b(3) = (  0.000000  0.000000  0.039752 )

     PseudoPot. # 1 for Ti read from file:
     /storage/coda1/p-amedford6/0/shared/rich_project_chbe-medford/medford-share/data/pseudos_module/espresso/nninc/pbe/van/Ti.UPF
     MD5 check sum: 8e4df49b7f0d34bbd5052bf3f5ea0213
     Pseudo is Ultrasoft, Zval = 12.0
     Generated by new atomic code, or converted to UPF format
     Using radial grid of  851 points,  6 beta functions with:
                l(1) =   0
                l(2) =   0
                l(3) =   1
                l(4) =   1
                l(5) =   2
                l(6) =   2
     Q(r) pseudized with  8 coefficients,  rinner =    1.000   1.000   1.000
                                                       1.000   1.000

     PseudoPot. # 2 for O  read from file:
     /storage/coda1/p-amedford6/0/shared/rich_project_chbe-medford/medford-share/data/pseudos_module/espresso/nninc/pbe/van/O.UPF
     MD5 check sum: 78c19812648e8988a0fe644b0f25305e
     Pseudo is Ultrasoft, Zval =  6.0
     Generated by new atomic code, or converted to UPF format
     Using radial grid of  737 points,  4 beta functions with:
                l(1) =   0
                l(2) =   0
                l(3) =   1
                l(4) =   1
     Q(r) pseudized with  8 coefficients,  rinner =    0.800   0.800   0.800

     PseudoPot. # 3 for N  read from file:
     /storage/coda1/p-amedford6/0/shared/rich_project_chbe-medford/medford-share/data/pseudos_module/espresso/nninc/pbe/van/N.UPF
     MD5 check sum: 90d10febe142ad51ac9d5be1deb811c4
     Pseudo is Ultrasoft, Zval =  5.0
     Generated by new atomic code, or converted to UPF format
     Using radial grid of  729 points,  4 beta functions with:
                l(1) =   0
                l(2) =   0
                l(3) =   1
                l(4) =   1
     Q(r) pseudized with  8 coefficients,  rinner =    0.800   0.800   0.800

     PseudoPot. # 4 for C  read from file:
     /storage/coda1/p-amedford6/0/shared/rich_project_chbe-medford/medford-share/data/pseudos_module/espresso/nninc/pbe/van/C.UPF
     MD5 check sum: 1a69bf6b8db32088f5b2163dbdb77a27
     Pseudo is Ultrasoft, Zval =  4.0
     Generated by new atomic code, or converted to UPF format
     Using radial grid of  721 points,  4 beta functions with:
                l(1) =   0
                l(2) =   0
                l(3) =   1
                l(4) =   1
     Q(r) pseudized with  8 coefficients,  rinner =    0.800   0.800   0.800

     PseudoPot. # 5 for H  read from file:
     /storage/coda1/p-amedford6/0/shared/rich_project_chbe-medford/medford-share/data/pseudos_module/espresso/nninc/pbe/van/H.UPF
     MD5 check sum: b5ee9d7bfd3a09ee7748110bda690ff7
     Pseudo is Ultrasoft, Zval =  1.0
     Generated by new atomic code, or converted to UPF format
     Using radial grid of  615 points,  1 beta functions with:
                l(1) =   0
     Q(r) pseudized with  8 coefficients,  rinner =    0.800

     atomic species   valence    mass     pseudopotential
        Ti1           12.00    47.86700     Ti( 1.00)
        O1             6.00    15.99900     O ( 1.00)
        N1             5.00    14.00700     N ( 1.00)
        C1             4.00    12.01100     C ( 1.00)
        H1             1.00     1.00800     H ( 1.00)

     No symmetry found

   Cartesian axes

     site n.     atom                  positions (alat units)
         1           Ti1 tau(   1) = (   0.0004258   2.9801865   6.0000000  )
         2           Ti1 tau(   2) = (   3.2906075   1.4906267   6.0002472  )
         3           O1  tau(   3) = (   0.0006271   0.0005054   7.9858123  )
         4           O1  tau(   4) = (   3.2906025   0.0005020   7.3038282  )
         5           O1  tau(   5) = (   4.5942328   1.4918067   9.2879030  )
         6           O1  tau(   6) = (   1.9868534   1.4903216   9.2879459  )
         7           Ti1 tau(   7) = (   3.2907910   2.8959150   9.1758416  )
         8           Ti1 tau(   8) = (   0.0015273   1.4827037   9.2680791  )
         9           O1  tau(   9) = (   3.2954490   0.0159868  11.2922163  )
        10           O1  tau(  10) = (   0.0116148   5.9584955  10.6183126  )
        11           O1  tau(  11) = (   1.3242731   1.5050266  12.6143764  )
        12           O1  tau(  12) = (   5.3073597   1.5103589  12.6267567  )
        13           Ti1 tau(  13) = (   6.4831477   3.0011104  12.7364612  )
        14           Ti1 tau(  14) = (   3.1751638   1.4975352  12.4748964  )
        15           O1  tau(  15) = (   0.0212859   5.9607631  14.5987152  )
        16           O1  tau(  16) = (   3.3058086   0.0238703  13.8910224  )
        17           O1  tau(  17) = (   4.5539421   1.5574750  15.9960573  )
        18           O1  tau(  18) = (   2.0731809   1.5597727  15.9888445  )
        19           Ti1 tau(  19) = (   3.3176354   3.0289328  15.6523405  )
        20           Ti1 tau(  20) = (   0.0198791   1.6227889  16.0606591  )
        21           O1  tau(  21) = (   3.2904802   0.0005063   4.7018136  )
        22           O1  tau(  22) = (   0.0290054   0.0533443  17.2129705  )
        23           O1  tau(  23) = (   1.3043587   1.4918075   6.0039043  )
        24           O1  tau(  24) = (   5.2767064   1.4903225   6.0039473  )
        25           Ti1 tau(  25) = (   0.0000382   5.9609847   6.0000000  )
        26           Ti1 tau(  26) = (   3.2902200   4.4714249   6.0002472  )
        27           O1  tau(  27) = (   0.0002396   2.9813036   7.9858123  )
        28           O1  tau(  28) = (   3.2902150   2.9813002   7.3038282  )
        29           O1  tau(  29) = (   4.5938453   4.4726049   9.2879030  )
        30           O1  tau(  30) = (   1.9864658   4.4711199   9.2879459  )
        31           Ti1 tau(  31) = (   3.2891106   5.8743827   9.1763621  )
        32           Ti1 tau(  32) = (   0.0006254   4.4649316   9.2693709  )
        33           O1  tau(  33) = (   3.2918316   2.9938763  11.2915017  )
        34           O1  tau(  34) = (   0.0092240   2.9805883  10.6323155  )
        35           O1  tau(  35) = (   1.3226278   4.4784642  12.6110361  )
        36           O1  tau(  36) = (   5.3078083   4.4770455  12.6250823  )
        37           Ti1 tau(  37) = (   6.5141033   0.0190828  12.7620745  )
        38           Ti1 tau(  38) = (   3.1722404   4.4939287  12.4712879  )
        39           O1  tau(  39) = (   0.0035410   2.9850241  14.6487316  )
        40           O1  tau(  40) = (   3.3118331   3.0109266  13.8519036  )
        41           O1  tau(  41) = (   4.5522870   4.5059159  16.0259181  )
        42           O1  tau(  42) = (   2.0778134   4.5048723  16.0185459  )
        43           Ti1 tau(  43) = (   3.3116469   0.0596163  15.7453941  )
        44           Ti1 tau(  44) = (   0.0183239   4.5967015  16.1059876  )
        45           O1  tau(  45) = (   3.2900926   2.9813045   4.7018136  )
        46           O1  tau(  46) = (   1.3039711   4.4726057   6.0039043  )
        47           O1  tau(  47) = (   5.2763189   4.4711207   6.0039473  )
        48           N1  tau(  48) = (   0.0600715   3.0265251  17.3188267  )
        49           N1  tau(  49) = (   6.2826239   2.5295367  22.6224490  )
        50           C1  tau(  50) = (   0.2859397   3.0149959  18.7399364  )
        51           H1  tau(  51) = (   0.1411154   4.0060466  19.1894648  )
        52           H1  tau(  52) = (   6.1913215   2.3105648  19.2421896  )
        53           H1  tau(  53) = (   1.3125146   2.6868920  18.9691123  )
        54           H1  tau(  54) = (   6.1000088   3.2491606  23.3142794  )
        55           H1  tau(  55) = (   0.1456284   1.7586669  23.1118534  )
        56           H1  tau(  56) = (   0.3974265   2.9048463  21.9856970  )
        57           O1  tau(  57) = (   3.2908421   0.1144680  18.1630233  )
        58           H1  tau(  58) = (   4.0679411   5.5688996  18.4486002  )
        59           H1  tau(  59) = (   2.5060966   5.5711546  18.4427789  )

     number of k points=    10  Fermi-Dirac smearing, width (Ry)=  0.0073
                       cart. coord. in units 2pi/alat
        k(    1) = (   0.0000000   0.0000000   0.0000000), wk =   0.1250000
        k(    2) = (   0.0000000   0.0419351   0.0000000), wk =   0.2500000
        k(    3) = (   0.0000000  -0.0838702   0.0000000), wk =   0.1250000
        k(    4) = (   0.0379955   0.0000049   0.0000000), wk =   0.2500000
        k(    5) = (   0.0379955   0.0419400   0.0000000), wk =   0.2500000
        k(    6) = (   0.0379955  -0.0838652   0.0000000), wk =   0.2500000
        k(    7) = (   0.0379955  -0.0419301   0.0000000), wk =   0.2500000
        k(    8) = (  -0.0759910  -0.0000099   0.0000000), wk =   0.1250000
        k(    9) = (  -0.0759910   0.0419252   0.0000000), wk =   0.2500000
        k(   10) = (  -0.0759910  -0.0838800   0.0000000), wk =   0.1250000

     Initial potential from superposition of free atoms

     starting charge  389.99912, renormalised to  406.00000

     negative rho (up, down):  6.915E-03 0.000E+00

     %%%%%%%%%%%%%%%%%%%%%%%%%%%%%%%%%%%%%%%%%%%%%%%%%%%%%%%%%%%%%%%%%%%%%%%%
     %                                                                      %
     % You are using vdW-DF, which was implemented by the Thonhauser group. %
     % Please cite the following two papers that made this development      %
     % possible and the two reviews that describe the various versions:     %
     %                                                                      %
     %   T. Thonhauser et al., PRL 115, 136402 (2015).                      %
     %   T. Thonhauser et al., PRB 76, 125112 (2007).                       %
     %   K. Berland et al., Rep. Prog. Phys. 78, 066501 (2015).             %
     %   D.C. Langreth et al., J. Phys.: Condens. Matter 21, 084203 (2009). %
     %                                                                      %
     %                                                                      %
     % If you are calculating the stress with vdW-DF, please also cite:     %
     %                                                                      %
     %   R. Sabatini et al., J. Phys.: Condens. Matter 24, 424209 (2012).   %
     %                                                                      %
     %%%%%%%%%%%%%%%%%%%%%%%%%%%%%%%%%%%%%%%%%%%%%%%%%%%%%%%%%%%%%%%%%%%%%%%%

     Adding external electric field

     Computed dipole along edir(3) :
        Dipole              -16.2344 Ry au,        -41.2636 Debye
        Dipole field         -0.0306 Ry au,

        Potential amp.        2.8400 Ry
        Total length         46.3494 bohr

     Starting wfcs are  308 atomic wfcs
  @ DRIVER MODE: Message from server: STATUS
  @ DRIVER MODE: Message from server: POSDATA
  @ DRIVER MODE: Reading and sharing cell
  @ DRIVER MODE: Reading and sharing positions
  @ DRIVER MODE: Received positions

     Self-consistent Calculation

     iteration #  1     ecut=    29.40 Ry     beta= 0.05
     Davidson diagonalization with overlap
     c_bands:  2 eigenvalues not converged
     c_bands:  3 eigenvalues not converged
     c_bands:  5 eigenvalues not converged
     c_bands:  3 eigenvalues not converged
     c_bands:  3 eigenvalues not converged
     c_bands:  3 eigenvalues not converged
     c_bands:  1 eigenvalues not converged
     c_bands:  5 eigenvalues not converged
     c_bands:  3 eigenvalues not converged
     ethr =  1.00E-05,  avg # of iterations = 21.5

[...]

     total energy              =   -2253.09137705 Ry
     estimated scf accuracy    <    8267.02337103 Ry

     iteration #  2     ecut=    29.40 Ry     beta= 0.05
     Davidson diagonalization with overlap
     ethr =  1.00E-02,  avg # of iterations = 25.5

[...]

     iteration # 64     ecut=    29.40 Ry     beta= 0.05
     Davidson diagonalization with overlap
     c_bands:  1 eigenvalues not converged
     ethr =  8.73E-07,  avg # of iterations = 13.6

[...]

     total energy              =   -2977.74438443 Ry
     estimated scf accuracy    <       0.00000020 Ry

     iteration # 89     ecut=    29.40 Ry     beta= 0.05
     Davidson diagonalization with overlap
     ethr =  2.98E-11,  avg # of iterations =  5.0

     negative rho (up, down):  8.779E-03 0.000E+00

     Adding external electric field

     Computed dipole along edir(3) :
        Dipole                0.7678 Ry au,          1.9515 Debye
        Dipole field          0.0014 Ry au,

        Potential amp.       -0.1343 Ry
        Total length         46.3494 bohr

     End of self-consistent calculation

          k = 0.0000 0.0000 0.0000 ( 18029 PWs)   bands (ev):

   -56.2599 -56.2263 -55.3769 -55.3429 -55.3346 -55.2997 -55.1515 -55.1163
   -55.0293 -54.9095 -54.8911 -54.8889 -54.8756 -54.8047 -54.3884 -54.3392
   -32.6866 -32.5342 -32.5060 -32.4362 -32.3453 -32.3128 -31.8447 -31.8169
   -31.6869 -31.6427 -31.5939 -31.5760 -31.5458 -31.5367 -31.5076 -31.5026
   -31.4841 -31.4777 -31.4548 -31.4411 -31.4275 -31.3785 -31.3680 -31.3293
   -31.3168 -31.3005 -31.2910 -31.2778 -31.2534 -31.2525 -31.2490 -31.2248
   -31.1299 -31.1195 -31.0788 -31.0689 -31.0409 -31.0364 -31.0274 -31.0089
   -30.9782 -30.9255 -30.9032 -30.6320 -30.6096 -30.5791 -30.5583 -30.4494
   -18.4332 -16.4155 -15.9493 -15.7058 -15.6164 -15.5332 -15.4944 -15.4504
   -15.2976 -15.2309 -15.2082 -15.2077 -15.1369 -14.9887 -14.9418 -14.8438
   -14.7498 -14.6150 -14.5980 -14.5650 -14.5466 -14.5139 -14.5068 -14.4546
   -14.2920 -14.2562 -14.2083 -14.1444 -14.0599 -14.0442 -13.8344 -13.4079
   -13.2982 -12.6427  -7.4498  -6.2114  -4.1104  -4.0898  -3.9829  -3.4490
    -3.1799  -3.1520  -3.0237  -3.0189  -2.9734  -2.8357  -2.8284  -2.7525
    -2.7284  -2.6965  -2.6149  -2.5839  -2.5346  -2.4435  -2.4308  -2.4108
    -2.3978  -2.3820  -2.2599  -2.2188  -2.1663  -2.0625  -1.9544  -1.9112
    -1.8843  -1.8405  -1.8023  -1.7553  -1.7429  -1.7281  -1.7218  -1.6106
    -1.4963  -1.4631  -1.4483  -1.4025  -1.3834  -1.3752  -1.3531  -1.2681
    -1.1576  -1.0648  -0.9975  -0.9848  -0.9181  -0.9103  -0.8508  -0.7344
    -0.6742  -0.6696  -0.6539  -0.5504  -0.5236  -0.4521  -0.3889  -0.3314
    -0.2767  -0.2139  -0.1638  -0.1413  -0.1284  -0.0291   0.0422   0.0656
     0.1167   0.1264   0.1347   0.1558   0.2522   0.2882   0.3622   0.4067
     0.4429   0.4874   0.5701   0.6204   0.6879   0.7379   0.7606   0.8228
     0.8757   0.9312   1.0267   1.0695   1.0806   1.0889   1.1121   1.1725
     1.1863   1.2627   1.3457   1.3606   1.4336   1.5017   1.6622   1.7013
     1.9509   2.0229   2.6490   3.0173   3.1786   3.4738   3.6637   3.8012
     3.9965   4.0069   4.0140   4.2406   4.2639

[...]

          k = 0.0380-0.0419 0.0000 ( 17876 PWs)   bands (ev):

[...]

          k =-0.0760-0.0000 0.0000 ( 17886 PWs)   bands (ev):

[...]

          k =-0.0760-0.0839 0.0000 ( 17948 PWs)   bands (ev):

   -56.2433 -56.2428 -55.3619 -55.3575 -55.3221 -55.3124 -55.1349 -55.1328
   -55.0270 -54.8926 -54.8924 -54.8910 -54.8874 -54.8082 -54.3812 -54.3463
   -32.5201 -32.5197 -32.5036 -32.5034 -32.3894 -32.3890 -31.6683 -31.6625
   -31.6527 -31.6452 -31.5688 -31.5538 -31.5519 -31.5476 -31.5413 -31.5398
   -31.5340 -31.5253 -31.4930 -31.4766 -31.3805 -31.3784 -31.3449 -31.3390
   -31.3195 -31.2833 -31.2450 -31.2379 -31.2378 -31.2364 -31.2125 -31.1898
   -31.1476 -31.1174 -31.1172 -31.1136 -31.0900 -31.0782 -31.0781 -31.0633
   -31.0464 -31.0110 -30.7637 -30.7014 -30.6074 -30.5833 -30.5662 -30.5201
   -18.4324 -15.7661 -15.7641 -15.7290 -15.7283 -15.4613 -15.4580 -15.3645
   -15.3592 -15.2245 -15.1077 -15.0063 -14.9934 -14.9579 -14.9307 -14.8187
   -14.7980 -14.7887 -14.7785 -14.6666 -14.6465 -14.6014 -14.5904 -14.5735
   -14.5634 -14.2701 -14.2569 -14.1540 -14.1302 -14.0435 -13.9875 -13.4018
   -13.4018 -12.6613  -7.4435  -6.2039  -4.1204  -4.0916  -2.8646  -2.8555
    -2.8267  -2.8010  -2.8001  -2.7438  -2.6357  -2.5970  -2.5944  -2.5934
    -2.5149  -2.4445  -2.4365  -2.3653  -2.3322  -2.3128  -2.2549  -2.2444
    -2.1787  -2.1525  -2.1443  -2.1277  -2.1042  -2.1029  -2.0066  -1.9439
    -1.8921  -1.8886  -1.8210  -1.8025  -1.7388  -1.7186  -1.7072  -1.6754
    -1.6337  -1.6104  -1.5797  -1.5451  -1.5041  -1.4443  -1.2779  -1.2690
    -1.2594  -1.2379  -1.1124  -1.1050  -1.0748  -1.0448  -1.0390  -0.9647
    -0.9148  -0.8803  -0.8215  -0.7392  -0.7167  -0.6150  -0.5638  -0.5176
    -0.4615  -0.3553  -0.3378  -0.3271  -0.3175  -0.2875  -0.2213  -0.1923
    -0.1764  -0.0557  -0.0362   0.0173   0.0379   0.0936   0.1204   0.1856
     0.2118   0.2835   0.2952   0.3344   0.4086   0.4896   0.5239   0.5718
     0.5765   0.8528   0.9265   1.0550   1.0616   1.1247   1.1834   1.2548
     1.3143   1.3470   1.3736   1.4965   1.5008   1.5100   1.5105   1.5820
     1.5871   1.9287   2.5261   3.5932   3.5935   3.6600   3.6607   3.9814
     3.9877   4.0946   4.1049   4.2659   4.2810

     the Fermi energy is     2.8451 ev

!    total energy              =   -2977.74439699 Ry
     estimated scf accuracy    <       0.00000006 Ry
     smearing contrib. (-TS)   =      -0.00445202 Ry
     internal energy E=F+TS    =   -2977.73994497 Ry

     The total energy is F=E-TS. E is the sum of the following terms:
     one-electron contribution =  -22875.48381550 Ry
     hartree contribution      =   11535.47880821 Ry
     xc contribution           =    -496.32425512 Ry
     ewald contribution        =    8858.58820499 Ry
     electric field correction =       0.00111244 Ry

     convergence has been achieved in  89 iterations

     Forces acting on atoms (cartesian axes, Ry/au):

     atom    1 type  1   force =    -0.00003573   -0.00046114    0.12451864
     atom    2 type  1   force =    -0.00008553   -0.00048493   -0.15981596
     atom    3 type  2   force =     0.00019131   -0.00024224   -0.06793408
     atom    4 type  2   force =    -0.00000741   -0.00011452    0.02619576
     atom    5 type  2   force =    -0.01447865    0.00181683   -0.00990776
     atom    6 type  2   force =     0.01625750    0.00224127   -0.01025419
     atom    7 type  1   force =     0.00071346   -0.00388241    0.02890178
     atom    8 type  1   force =    -0.00034950   -0.00439872    0.10954016
     atom    9 type  2   force =     0.00023916   -0.00028837   -0.00052567
     atom   10 type  2   force =    -0.00231399    0.00256708   -0.07333995
     atom   11 type  2   force =    -0.00002367   -0.00033576   -0.00000006
     atom   12 type  2   force =    -0.00016243   -0.00082688    0.00002545
     atom   13 type  1   force =     0.00107146   -0.00041443    0.00014329
     atom   14 type  1   force =    -0.00064217    0.00065495   -0.00007756
     atom   15 type  2   force =    -0.00029450   -0.00039117   -0.00074365
     atom   16 type  2   force =    -0.00001059   -0.00010170    0.00068473
     atom   17 type  2   force =     0.00016206   -0.00096500   -0.00014481
     atom   18 type  2   force =     0.00050315   -0.00049679    0.00011176
     atom   19 type  1   force =    -0.00123298    0.00000598   -0.00094802
     atom   20 type  1   force =     0.00085231   -0.00018444   -0.00046336
     atom   21 type  2   force =     0.00004509   -0.00003677    0.09942651
     atom   22 type  2   force =    -0.00002713   -0.00021774   -0.00039151
     atom   23 type  2   force =    -0.07967190   -0.00005870   -0.03249284
     atom   24 type  2   force =     0.07951508    0.00038037   -0.03254089
     atom   25 type  1   force =    -0.00000732   -0.00057206    0.12417989
     atom   26 type  1   force =    -0.00008835   -0.00062359   -0.15995979
     atom   27 type  2   force =     0.00029967   -0.00036472   -0.06698636
     atom   28 type  2   force =    -0.00002018    0.00015001    0.02511499
     atom   29 type  2   force =    -0.01509880    0.00192622   -0.00984534
     atom   30 type  2   force =     0.01677327    0.00242620   -0.01016078
     atom   31 type  1   force =     0.00074290   -0.00075822    0.02407588
     atom   32 type  1   force =    -0.00027933    0.00204692    0.11015692
     atom   33 type  2   force =     0.00007804    0.00029252    0.00057226
     atom   34 type  2   force =    -0.00193661    0.00199697   -0.07165391
     atom   35 type  2   force =    -0.00001939    0.00034435   -0.00000734
     atom   36 type  2   force =    -0.00054368    0.00061338   -0.00004902
     atom   37 type  1   force =     0.00120403    0.00043954    0.00031870
     atom   38 type  1   force =    -0.00054269   -0.00089233   -0.00020336
     atom   39 type  2   force =    -0.00028673   -0.00014950    0.00088920
     atom   40 type  2   force =     0.00018589   -0.00013686    0.00021250
     atom   41 type  2   force =     0.00106227    0.00017625    0.00017171
     atom   42 type  2   force =    -0.00049831   -0.00030850    0.00040542
     atom   43 type  1   force =    -0.00183763   -0.00017060   -0.00019930
     atom   44 type  1   force =     0.00101396   -0.00007840   -0.00038736
     atom   45 type  2   force =     0.00001882   -0.00004889    0.09938749
     atom   46 type  2   force =    -0.07968758    0.00000421   -0.03250539
     atom   47 type  2   force =     0.07953857    0.00043927   -0.03253038
     atom   48 type  3   force =    -0.00087930   -0.00077752   -0.00036261
     atom   49 type  3   force =    -0.00032869   -0.00048059    0.00132774
     atom   50 type  4   force =    -0.00025087   -0.00012039   -0.00002390
     atom   51 type  5   force =    -0.00021955    0.00040449    0.00029209
     atom   52 type  5   force =    -0.00007178   -0.00053913    0.00074207
     atom   53 type  5   force =     0.00053246   -0.00014900    0.00021100
     atom   54 type  5   force =     0.00006416   -0.00022645   -0.00058684
     atom   55 type  5   force =     0.00003408    0.00030842   -0.00028843
     atom   56 type  5   force =     0.00028977    0.00036475   -0.00182911
     atom   57 type  2   force =    -0.00266690   -0.00365462    0.00178774
     atom   58 type  5   force =     0.00005296    0.00113601   -0.00006046
     atom   59 type  5   force =     0.00315842    0.00321711   -0.00217369

     Total force =     0.423582     Total SCF correction =     0.000623
  @ DRIVER MODE: Message from server: STATUS
  @ DRIVER MODE: Message from server: GETFORCE
  @ DRIVER MODE: Returning v,forces,stress,ensemble

     Writing output data file ./calc.save/
  @ DRIVER MODE: Message from server: EXIT
  @ DRIVE MODE: Exiting

     General routines

     Parallel routines

   This run was terminated on:  17:42:47  16Sep2021

   JOB DONE.