     Program PWSCF v.6.7GPU starts on 15Sep2021 at 22:51:21

     R & G space division:  proc/nbgrp/npool/nimage =      10
     Reading input from /storage/home/hcoda1/3/ntian30/research/carbon/CxH_vib/H2O_calc/ads_slab/CH3NHNHH2O_a/out_0022/pw.inp
Warning: card &CELL ignored
Warning: card   CELL_DYNAMICS='IPI', ignored
Warning: card / ignored

     Current dimensions of program PWSCF are:
     Max number of different atomic species (ntypx) = 10
     Max number of k-points (npk) =  40000
     Max angular momentum in pseudopotentials (lmaxx) =  3
     Presently no symmetry can be used with electric field

     Message from routine cell_base_init:
     DEPRECATED: use true lattice parameter, not A to a.u. conversion factor

     IMPORTANT: XC functional enforced from input :
     Exchange-correlation= BEEF-VDW
                           (   1   4  43  14   2   0   0)
     Any further DFT definition will be discarded
     Please, verify this is what you really want

  @ DRIVER MODE: Connecting to
 qe_1139763_2852620.sched-torque.pace.gatech.eduzr54ijdo_scratch
  using UNIX socket
  @ DRIVER MODE: Message from server: STATUS
  @ DRIVER MODE: Message from server: INIT
  @ DRIVER MODE: Receiving replica           0          -1
  @ DRIVER MODE: Receiving encoded integer          25
  @ DRIVER MODE:  SCF:  T  FORCE:  T  STRESS:  F  VC:  F  ENSEMBLE:  F
  @ DRIVER MODE:  SCF:  T  FORCE:  T  STRESS:  F  VC:  F  ENSEMBLE:  F

     Using Slab Decomposition

     bravais-lattice index     =            0
     lattice parameter (alat)  =       1.8897  a.u.
     unit-cell volume          =    6658.9804 (a.u.)^3
     number of atoms/cell      =           58
     number of atomic types    =            5
     number of electrons       =       405.00
     number of Kohn-Sham states=          212
     kinetic-energy cutoff     =      29.3995  Ry
     charge density cutoff     =     293.9946  Ry
     scf convergence threshold =      7.3E-08
     mixing beta               =       0.0500
     number of iterations used =            8  plain     mixing
     Exchange-correlation= BEEF-VDW
                           (   1   4  43  14   2   0   0)

     celldm(1)=   1.889726  celldm(2)=   0.000000  celldm(3)=   0.000000
     celldm(4)=   0.000000  celldm(5)=   0.000000  celldm(6)=   0.000000

     crystal axes: (cart. coord. in units of alat)
               a(1) = (   6.579727   0.000000   0.000000 )
               a(2) = (  -0.000775   5.961596   0.000000 )
               a(3) = (   0.000000   0.000000  25.155947 )

     reciprocal axes: (cart. coord. in units 2 pi/alat)
               b(1) = (  0.151982  0.000020  0.000000 )
               b(2) = (  0.000000  0.167740  0.000000 )
               b(3) = (  0.000000  0.000000  0.039752 )

     PseudoPot. # 1 for Ti read from file:
     /storage/coda1/p-amedford6/0/shared/rich_project_chbe-medford/medford-share/data/pseudos_module/espresso/nninc/pbe/van/Ti.UPF
     MD5 check sum: 8e4df49b7f0d34bbd5052bf3f5ea0213
     Pseudo is Ultrasoft, Zval = 12.0
     Generated by new atomic code, or converted to UPF format
     Using radial grid of  851 points,  6 beta functions with:
                l(1) =   0
                l(2) =   0
                l(3) =   1
                l(4) =   1
                l(5) =   2
                l(6) =   2
     Q(r) pseudized with  8 coefficients,  rinner =    1.000   1.000   1.000
                                                       1.000   1.000

     PseudoPot. # 2 for O  read from file:
     /storage/coda1/p-amedford6/0/shared/rich_project_chbe-medford/medford-share/data/pseudos_module/espresso/nninc/pbe/van/O.UPF
     MD5 check sum: 78c19812648e8988a0fe644b0f25305e
     Pseudo is Ultrasoft, Zval =  6.0
     Generated by new atomic code, or converted to UPF format
     Using radial grid of  737 points,  4 beta functions with:
                l(1) =   0
                l(2) =   0
                l(3) =   1
                l(4) =   1
     Q(r) pseudized with  8 coefficients,  rinner =    0.800   0.800   0.800

     PseudoPot. # 3 for N  read from file:
     /storage/coda1/p-amedford6/0/shared/rich_project_chbe-medford/medford-share/data/pseudos_module/espresso/nninc/pbe/van/N.UPF
     MD5 check sum: 90d10febe142ad51ac9d5be1deb811c4
     Pseudo is Ultrasoft, Zval =  5.0
     Generated by new atomic code, or converted to UPF format
     Using radial grid of  729 points,  4 beta functions with:
                l(1) =   0
                l(2) =   0
                l(3) =   1
                l(4) =   1
     Q(r) pseudized with  8 coefficients,  rinner =    0.800   0.800   0.800

     PseudoPot. # 4 for C  read from file:
     /storage/coda1/p-amedford6/0/shared/rich_project_chbe-medford/medford-share/data/pseudos_module/espresso/nninc/pbe/van/C.UPF
     MD5 check sum: 1a69bf6b8db32088f5b2163dbdb77a27
     Pseudo is Ultrasoft, Zval =  4.0
     Generated by new atomic code, or converted to UPF format
     Using radial grid of  721 points,  4 beta functions with:
                l(1) =   0
                l(2) =   0
                l(3) =   1
                l(4) =   1
     Q(r) pseudized with  8 coefficients,  rinner =    0.800   0.800   0.800

     PseudoPot. # 5 for H  read from file:
     /storage/coda1/p-amedford6/0/shared/rich_project_chbe-medford/medford-share/data/pseudos_module/espresso/nninc/pbe/van/H.UPF
     MD5 check sum: b5ee9d7bfd3a09ee7748110bda690ff7
     Pseudo is Ultrasoft, Zval =  1.0
     Generated by new atomic code, or converted to UPF format
     Using radial grid of  615 points,  1 beta functions with:
                l(1) =   0
     Q(r) pseudized with  8 coefficients,  rinner =    0.800

     atomic species   valence    mass     pseudopotential
        Ti1           12.00    47.86700     Ti( 1.00)
        O1             6.00    15.99900     O ( 1.00)
        N1             5.00    14.00700     N ( 1.00)
        C1             4.00    12.01100     C ( 1.00)
        H1             1.00     1.00800     H ( 1.00)

     No symmetry found

   Cartesian axes

     site n.     atom                  positions (alat units)
         1           Ti1 tau(   1) = (   0.0004258   2.9801865   6.0000000  )
         2           Ti1 tau(   2) = (   3.2906075   1.4906267   6.0002472  )
         3           O1  tau(   3) = (   0.0006271   0.0005054   7.9858123  )
         4           O1  tau(   4) = (   3.2906025   0.0005020   7.3038282  )
         5           O1  tau(   5) = (   4.5942328   1.4918067   9.2879030  )
         6           O1  tau(   6) = (   1.9868534   1.4903216   9.2879459  )
         7           Ti1 tau(   7) = (   3.2907910   2.8959150   9.1758416  )
         8           Ti1 tau(   8) = (   0.0015273   1.4827037   9.2680791  )
         9           O1  tau(   9) = (   3.2925356   5.9605122  11.3387169  )
        10           O1  tau(  10) = (   0.0116148   5.9584955  10.6183126  )
        11           O1  tau(  11) = (   1.2897729   1.4809555  12.6268520  )
        12           O1  tau(  12) = (   5.2791511   1.4810064  12.6173870  )
        13           Ti1 tau(  13) = (   0.0595640   3.0140846  12.5912772  )
        14           Ti1 tau(  14) = (   3.3761946   1.4800080  12.4968112  )
        15           O1  tau(  15) = (   6.5629824   0.0009262  14.6613707  )
        16           O1  tau(  16) = (   3.3123588   5.9604043  13.9421911  )
        17           O1  tau(  17) = (   4.5376415   1.5680301  16.0260299  )
        18           O1  tau(  18) = (   2.0142527   1.4857506  15.9764776  )
        19           Ti1 tau(  19) = (   3.2467940   3.0138708  15.6952036  )
        20           Ti1 tau(  20) = (   6.5376764   1.5432071  15.7832198  )
        21           O1  tau(  21) = (   3.2904802   0.0005063   4.7018136  )
        22           O1  tau(  22) = (   6.4898080   0.0110182  17.2547379  )
        23           O1  tau(  23) = (   1.3043587   1.4918075   6.0039043  )
        24           O1  tau(  24) = (   5.2767064   1.4903225   6.0039473  )
        25           Ti1 tau(  25) = (   0.0000382   5.9609847   6.0000000  )
        26           Ti1 tau(  26) = (   3.2902200   4.4714249   6.0002472  )
        27           O1  tau(  27) = (   0.0002396   2.9813036   7.9858123  )
        28           O1  tau(  28) = (   3.2902150   2.9813002   7.3038282  )
        29           O1  tau(  29) = (   4.5938453   4.4726049   9.2879030  )
        30           O1  tau(  30) = (   1.9864658   4.4711199   9.2879459  )
        31           Ti1 tau(  31) = (   3.2891106   5.8743827   9.1763621  )
        32           Ti1 tau(  32) = (   0.0006254   4.4649316   9.2693709  )
        33           O1  tau(  33) = (   3.2967638   2.9790471  11.3409087  )
        34           O1  tau(  34) = (   0.0092240   2.9805883  10.6323155  )
        35           O1  tau(  35) = (   1.2869154   4.4778632  12.6304858  )
        36           O1  tau(  36) = (   5.2845859   4.4648683  12.6187650  )
        37           Ti1 tau(  37) = (   0.0627082   0.0241251  12.5486904  )
        38           Ti1 tau(  38) = (   3.3788516   4.4738568  12.4976958  )
        39           O1  tau(  39) = (   6.5772583   2.9562949  14.6416036  )
        40           O1  tau(  40) = (   3.2725681   2.9944745  13.9013672  )
        41           O1  tau(  41) = (   4.5452577   4.4055011  16.0651929  )
        42           O1  tau(  42) = (   2.0228361   4.5129635  16.0417754  )
        43           Ti1 tau(  43) = (   3.2583029   0.0391736  15.7773877  )
        44           Ti1 tau(  44) = (   6.5476622   4.6515957  16.1089089  )
        45           O1  tau(  45) = (   3.2900926   2.9813045   4.7018136  )
        46           O1  tau(  46) = (   1.3039711   4.4726057   6.0039043  )
        47           O1  tau(  47) = (   5.2763189   4.4711207   6.0039473  )
        48           N1  tau(  48) = (   1.2275869   2.8250850  18.3327965  )
        49           N1  tau(  49) = (   0.1007212   2.9268546  17.4424539  )
        50           C1  tau(  50) = (   0.9834745   3.5098297  19.5973225  )
        51           H1  tau(  51) = (   0.0800711   3.1583545  20.1177682  )
        52           H1  tau(  52) = (   1.8428167   3.3484677  20.2521386  )
        53           H1  tau(  53) = (   0.8645268   4.5787652  19.4145101  )
        54           H1  tau(  54) = (   1.4038961   1.8348574  18.5000659  )
        55           H1  tau(  55) = (   5.8167727   2.7947134  17.9807349  )
        56           O1  tau(  56) = (   3.6251350   0.0523402  18.1652986  )
        57           H1  tau(  57) = (   4.6063402   0.0342754  18.1216558  )
        58           H1  tau(  58) = (   3.3562690   5.1322054  18.4688733  )

     number of k points=    10  Fermi-Dirac smearing, width (Ry)=  0.0073
                       cart. coord. in units 2pi/alat
        k(    1) = (   0.0000000   0.0000000   0.0000000), wk =   0.1250000
        k(    2) = (   0.0000000   0.0419351   0.0000000), wk =   0.2500000
        k(    3) = (   0.0000000  -0.0838702   0.0000000), wk =   0.1250000
        k(    4) = (   0.0379955   0.0000049   0.0000000), wk =   0.2500000
        k(    5) = (   0.0379955   0.0419400   0.0000000), wk =   0.2500000
        k(    6) = (   0.0379955  -0.0838652   0.0000000), wk =   0.2500000
        k(    7) = (   0.0379955  -0.0419301   0.0000000), wk =   0.2500000
        k(    8) = (  -0.0759910  -0.0000099   0.0000000), wk =   0.1250000
        k(    9) = (  -0.0759910   0.0419252   0.0000000), wk =   0.2500000
        k(   10) = (  -0.0759910  -0.0838800   0.0000000), wk =   0.1250000

     Initial potential from superposition of free atoms

     starting charge  388.99913, renormalised to  405.00000

     negative rho (up, down):  1.445E-02 0.000E+00

     %%%%%%%%%%%%%%%%%%%%%%%%%%%%%%%%%%%%%%%%%%%%%%%%%%%%%%%%%%%%%%%%%%%%%%%%
     %                                                                      %
     % You are using vdW-DF, which was implemented by the Thonhauser group. %
     % Please cite the following two papers that made this development      %
     % possible and the two reviews that describe the various versions:     %
     %                                                                      %
     %   T. Thonhauser et al., PRL 115, 136402 (2015).                      %
     %   T. Thonhauser et al., PRB 76, 125112 (2007).                       %
     %   K. Berland et al., Rep. Prog. Phys. 78, 066501 (2015).             %
     %   D.C. Langreth et al., J. Phys.: Condens. Matter 21, 084203 (2009). %
     %                                                                      %
     %                                                                      %
     % If you are calculating the stress with vdW-DF, please also cite:     %
     %                                                                      %
     %   R. Sabatini et al., J. Phys.: Condens. Matter 24, 424209 (2012).   %
     %                                                                      %
     %%%%%%%%%%%%%%%%%%%%%%%%%%%%%%%%%%%%%%%%%%%%%%%%%%%%%%%%%%%%%%%%%%%%%%%%

     Adding external electric field

     Computed dipole along edir(3) :
        Dipole              -14.1501 Ry au,        -35.9660 Debye
        Dipole field         -0.0267 Ry au,

        Potential amp.        2.4753 Ry
        Total length         46.3494 bohr

     Starting wfcs are  307 atomic wfcs
  @ DRIVER MODE: Message from server: STATUS
  @ DRIVER MODE: Message from server: POSDATA
  @ DRIVER MODE: Reading and sharing cell
  @ DRIVER MODE: Reading and sharing positions
  @ DRIVER MODE: Received positions

     Self-consistent Calculation

     iteration #  1     ecut=    29.40 Ry     beta= 0.05
     Davidson diagonalization with overlap
     c_bands:  4 eigenvalues not converged
     c_bands:  1 eigenvalues not converged
     c_bands:  1 eigenvalues not converged
     c_bands:  3 eigenvalues not converged
     c_bands:  2 eigenvalues not converged
     ethr =  1.00E-05,  avg # of iterations = 29.4

[...]

     total energy              =   -2232.55967997 Ry
     estimated scf accuracy    <    8442.89566283 Ry

     iteration #  2     ecut=    29.40 Ry     beta= 0.05
     Davidson diagonalization with overlap
     ethr =  1.00E-02,  avg # of iterations = 29.9

[...]

     iteration # 63     ecut=    29.40 Ry     beta= 0.05
     Davidson diagonalization with overlap
     c_bands:  1 eigenvalues not converged
     ethr =  1.48E-08,  avg # of iterations = 13.8

[...]

     total energy              =   -2976.50555389 Ry
     estimated scf accuracy    <       0.00000009 Ry

     iteration # 75     ecut=    29.40 Ry     beta= 0.05
     Davidson diagonalization with overlap
     ethr =  2.23E-11,  avg # of iterations = 10.7

     negative rho (up, down):  1.504E-02 0.000E+00

     Adding external electric field

     Computed dipole along edir(3) :
        Dipole                0.9857 Ry au,          2.5053 Debye
        Dipole field          0.0019 Ry au,

        Potential amp.       -0.1724 Ry
        Total length         46.3494 bohr

     End of self-consistent calculation

          k = 0.0000 0.0000 0.0000 ( 18029 PWs)   bands (ev):

   -55.5104 -55.4800 -55.4764 -55.4466 -55.4439 -55.3587 -55.3279 -55.3259
   -55.3236 -55.2940 -55.2926 -55.2589 -55.0503 -54.8857 -54.4930 -54.4590
   -32.0243 -31.9942 -31.8826 -31.8599 -31.8260 -31.8029 -31.7845 -31.7828
   -31.7549 -31.7116 -31.7001 -31.6803 -31.6772 -31.6626 -31.6570 -31.6352
   -31.6160 -31.6106 -31.6095 -31.5773 -31.5675 -31.5586 -31.5325 -31.5207
   -31.5180 -31.5161 -31.5132 -31.5074 -31.4921 -31.4841 -31.4809 -31.4714
   -31.4689 -31.4575 -31.4460 -31.4369 -31.4049 -31.3061 -31.2607 -31.1491
   -31.1406 -31.0764 -30.9002 -30.8115 -30.7891 -30.7170 -30.6305 -30.5194
   -18.7233 -16.5583 -16.2205 -15.9832 -15.7612 -15.6677 -15.6254 -15.4285
   -15.3342 -15.2495 -15.1293 -15.0782 -15.0523 -15.0447 -15.0311 -15.0058
   -14.9716 -14.9655 -14.9622 -14.9381 -14.9187 -14.8674 -14.8613 -14.8545
   -14.7612 -14.6973 -14.6623 -14.6490 -14.6395 -14.5738 -14.2018 -12.9951
   -12.8786 -11.6406  -8.8769  -6.4613  -5.1538  -4.2861  -3.7053  -3.5953
    -3.4669  -3.4190  -3.3714  -3.3438  -3.1507  -3.0941  -2.9425  -2.7711
    -2.6976  -2.6593  -2.6260  -2.5866  -2.5544  -2.4336  -2.4085  -2.3350
    -2.3192  -2.3083  -2.2757  -2.2660  -2.2511  -2.2296  -2.1569  -2.1482
    -2.0623  -1.9512  -1.9004  -1.8855  -1.8668  -1.8256  -1.7882  -1.7748
    -1.7615  -1.7432  -1.7301  -1.6923  -1.5767  -1.5261  -1.4473  -1.3669
    -1.2958  -1.2080  -1.1316  -1.1036  -1.0361  -1.0107  -0.9505  -0.9262
    -0.9124  -0.9057  -0.7884  -0.6803  -0.6622  -0.5925  -0.5315  -0.4549
    -0.4113  -0.3855  -0.3163  -0.2829  -0.2722  -0.2586  -0.2325  -0.2176
    -0.1616  -0.0142   0.0630   0.0814   0.1401   0.1808   0.2323   0.2576
     0.2853   0.3332   0.3647   0.4047   0.4544   0.4581   0.4701   0.4943
     0.5084   0.6676   0.7228   0.7557   0.7815   0.8303   0.9426   0.9856
     1.1393   1.2073   1.2721   1.4556   1.5295   1.6102   1.7211   2.0654
     2.1009   2.1467   3.6154   3.7076   3.7487   3.7700   3.8570   3.8595
     4.0703   4.1152   4.1232   4.1911

[...]

          k = 0.0380-0.0419 0.0000 ( 17876 PWs)   bands (ev):

[...]

          k =-0.0760-0.0000 0.0000 ( 17886 PWs)   bands (ev):

[...]

          k =-0.0760-0.0839 0.0000 ( 17948 PWs)   bands (ev):

   -55.4937 -55.4930 -55.4641 -55.4596 -55.4440 -55.3445 -55.3379 -55.3283
   -55.3110 -55.3104 -55.2769 -55.2748 -55.0487 -54.8871 -54.4760 -54.4759
   -31.8377 -31.8210 -31.8097 -31.8091 -31.7887 -31.7879 -31.7480 -31.7406
   -31.7325 -31.7046 -31.6936 -31.6744 -31.6588 -31.6570 -31.6318 -31.6295
   -31.6272 -31.6252 -31.6171 -31.6161 -31.6137 -31.6124 -31.6119 -31.5604
   -31.5520 -31.5456 -31.5376 -31.5268 -31.5127 -31.5116 -31.5071 -31.5027
   -31.4924 -31.4898 -31.4848 -31.4828 -31.4115 -31.3089 -31.2561 -31.2105
   -31.1516 -31.1041 -30.8019 -30.8018 -30.7131 -30.7129 -30.6738 -30.6738
   -18.7219 -16.5349 -15.6574 -15.5863 -15.4704 -15.4414 -15.3817 -15.3316
   -15.3141 -15.2449 -15.2088 -15.1963 -15.1444 -15.1419 -15.0940 -15.0701
   -15.0433 -15.0396 -15.0244 -14.9818 -14.9710 -14.9558 -14.9516 -14.9482
   -14.8708 -14.8351 -14.8310 -14.8262 -14.7569 -14.6232 -14.3509 -12.9804
   -12.9803 -11.6476  -8.8858  -6.4571  -5.1572  -4.2810  -3.6493  -3.0825
    -2.9427  -2.7850  -2.7195  -2.6388  -2.6379  -2.5954  -2.4681  -2.4454
    -2.4063  -2.3794  -2.3482  -2.3390  -2.3297  -2.3229  -2.3134  -2.3003
    -2.2872  -2.2478  -2.2018  -2.1863  -2.1779  -2.1732  -2.1584  -2.1458
    -2.1295  -2.1270  -2.0911  -2.0620  -2.0349  -1.9990  -1.9454  -1.7448
    -1.7173  -1.6961  -1.6697  -1.6566  -1.6448  -1.6117  -1.5733  -1.5630
    -1.4908  -1.4028  -1.3146  -1.2366  -1.2034  -1.1906  -1.1213  -1.0358
    -0.9946  -0.9555  -0.9182  -0.8585  -0.7995  -0.7612  -0.7241  -0.6425
    -0.6243  -0.6142  -0.5527  -0.5363  -0.4762  -0.4679  -0.3900  -0.3482
    -0.3117  -0.2648  -0.2372  -0.2315  -0.2126  -0.1782  -0.1702  -0.1165
     0.0000   0.0088   0.0282   0.1332   0.2217   0.4609   0.5177   0.5501
     0.6304   0.6930   0.7543   0.7755   0.7973   0.8011   0.8371   0.8978
     1.0117   1.0216   1.0602   1.1484   1.1740   1.8927   1.8936   1.9665
     1.9667   2.0682   3.9274   3.9538   3.9796   4.0154   4.1159   4.1332
     4.1556   4.1576   4.2712   4.2917

     the Fermi energy is     3.6205 ev

!    total energy              =   -2976.50557004 Ry
     estimated scf accuracy    <       0.00000006 Ry
     smearing contrib. (-TS)   =      -0.02132622 Ry
     internal energy E=F+TS    =   -2976.48424382 Ry

     The total energy is F=E-TS. E is the sum of the following terms:
     one-electron contribution =  -23892.27521867 Ry
     hartree contribution      =   12042.66488650 Ry
     xc contribution           =    -495.75650977 Ry
     ewald contribution        =    9368.88076470 Ry
     electric field correction =       0.00183341 Ry

     convergence has been achieved in  75 iterations

     Forces acting on atoms (cartesian axes, Ry/au):

     atom    1 type  1   force =     0.00015358   -0.00028134    0.09585772
     atom    2 type  1   force =    -0.00022491   -0.00062980   -0.17571031
     atom    3 type  2   force =     0.00006389   -0.00014768   -0.02382581
     atom    4 type  2   force =     0.00006520   -0.00154486    0.05351192
     atom    5 type  2   force =    -0.01127078   -0.00076046    0.00356472
     atom    6 type  2   force =     0.01297279    0.00005836    0.00268750
     atom    7 type  1   force =    -0.00096823    0.00065420   -0.00792148
     atom    8 type  1   force =     0.00042677    0.00624140    0.02300367
     atom    9 type  2   force =    -0.00005506   -0.00031328   -0.00095242
     atom   10 type  2   force =    -0.00136434    0.00127942   -0.01513972
     atom   11 type  2   force =    -0.00031096    0.00024572   -0.00024207
     atom   12 type  2   force =    -0.00021121    0.00022651   -0.00034331
     atom   13 type  1   force =     0.00074066   -0.00046230    0.00027395
     atom   14 type  1   force =    -0.00018998    0.00042414    0.00151413
     atom   15 type  2   force =     0.00001124   -0.00003016    0.00031094
     atom   16 type  2   force =     0.00026069    0.00005384    0.00012087
     atom   17 type  2   force =     0.00064393   -0.00023896    0.00034101
     atom   18 type  2   force =     0.00013612   -0.00043516    0.00044117
     atom   19 type  1   force =    -0.00124668    0.00021049    0.00056885
     atom   20 type  1   force =     0.00074808   -0.00004267   -0.00006851
     atom   21 type  2   force =     0.00008730   -0.00009066    0.10325612
     atom   22 type  2   force =    -0.00072181   -0.00046922   -0.00065061
     atom   23 type  2   force =    -0.07142918   -0.00018864   -0.02769242
     atom   24 type  2   force =     0.07139921    0.00027147   -0.02769612
     atom   25 type  1   force =     0.00003059   -0.00031278    0.09557295
     atom   26 type  1   force =    -0.00017769   -0.00031127   -0.17598320
     atom   27 type  2   force =     0.00009865   -0.00012077   -0.02293014
     atom   28 type  2   force =     0.00011609   -0.00127449    0.05316273
     atom   29 type  2   force =    -0.01151868    0.00015264    0.00362323
     atom   30 type  2   force =     0.01317071    0.00046463    0.00271518
     atom   31 type  1   force =    -0.00101019    0.00373412   -0.01103218
     atom   32 type  1   force =     0.00051153   -0.00741194    0.02340557
     atom   33 type  2   force =    -0.00023909    0.00031438   -0.00032082
     atom   34 type  2   force =    -0.00033193    0.00024684   -0.02186240
     atom   35 type  2   force =     0.00010484    0.00029957   -0.00038182
     atom   36 type  2   force =    -0.00037260    0.00030193   -0.00030323
     atom   37 type  1   force =     0.00040112    0.00057500   -0.00026322
     atom   38 type  1   force =    -0.00022794   -0.00042505    0.00134348
     atom   39 type  2   force =    -0.00007093   -0.00030255    0.00037367
     atom   40 type  2   force =     0.00032145    0.00008906   -0.00083424
     atom   41 type  2   force =     0.00116375    0.00050776    0.00012867
     atom   42 type  2   force =    -0.00067880    0.00029017    0.00002195
     atom   43 type  1   force =    -0.00095551   -0.00107326   -0.00013626
     atom   44 type  1   force =     0.00078006    0.00052447   -0.00016248
     atom   45 type  2   force =     0.00008839   -0.00010110    0.10325655
     atom   46 type  2   force =    -0.07144046   -0.00013515   -0.02767567
     atom   47 type  2   force =     0.07144144    0.00029764   -0.02770488
     atom   48 type  3   force =    -0.00093732   -0.00107017    0.00019491
     atom   49 type  3   force =    -0.00075801    0.00039067   -0.00058695
     atom   50 type  4   force =     0.00235667    0.00319421   -0.00128531
     atom   51 type  5   force =    -0.00255231   -0.00226670    0.00141294
     atom   52 type  5   force =    -0.00064878   -0.00031305    0.00012921
     atom   53 type  5   force =     0.00137449   -0.00000885   -0.00014624
     atom   54 type  5   force =     0.00008462    0.00006052    0.00004824
     atom   55 type  5   force =     0.00022106   -0.00010755    0.00044738
     atom   56 type  2   force =    -0.00078024   -0.00003932   -0.00003063
     atom   57 type  5   force =     0.00076364   -0.00004814   -0.00002262
     atom   58 type  5   force =    -0.00004492   -0.00015182    0.00061581

     Total force =     0.366794     Total SCF correction =     0.000555
  @ DRIVER MODE: Message from server: STATUS
  @ DRIVER MODE: Message from server: GETFORCE
  @ DRIVER MODE: Returning v,forces,stress,ensemble

     Writing output data file ./calc.save/
  @ DRIVER MODE: Message from server: EXIT
  @ DRIVE MODE: Exiting

     General routines

     Parallel routines

   This run was terminated on:  23:12:24  15Sep2021

   JOB DONE.