     Program PWSCF v.6.7GPU starts on 15Sep2021 at 19:15: 8

     R & G space division:  proc/nbgrp/npool/nimage =      10
     Reading input from /storage/home/hcoda1/3/ntian30/research/carbon/CxH_vib/H2O_calc/ads_slab/CHOH2O_a/out_0012/pw.inp
Warning: card &CELL ignored
Warning: card   CELL_DYNAMICS='IPI', ignored
Warning: card / ignored

     Current dimensions of program PWSCF are:
     Max number of different atomic species (ntypx) = 10
     Max number of k-points (npk) =  40000
     Max angular momentum in pseudopotentials (lmaxx) =  3
     Presently no symmetry can be used with electric field

     Message from routine cell_base_init:
     DEPRECATED: use true lattice parameter, not A to a.u. conversion factor

     IMPORTANT: XC functional enforced from input :
     Exchange-correlation= BEEF-VDW
                           (   1   4  43  14   2   0   0)
     Any further DFT definition will be discarded
     Please, verify this is what you really want

  @ DRIVER MODE: Connecting to
 qe_1139763_2852631.sched-torque.pace.gatech.edukjy_z2_b_scratch
  using UNIX socket
  @ DRIVER MODE: Message from server: STATUS
  @ DRIVER MODE: Message from server: INIT
  @ DRIVER MODE: Receiving replica           0          -1
  @ DRIVER MODE: Receiving encoded integer          25
  @ DRIVER MODE:  SCF:  T  FORCE:  T  STRESS:  F  VC:  F  ENSEMBLE:  F
  @ DRIVER MODE:  SCF:  T  FORCE:  T  STRESS:  F  VC:  F  ENSEMBLE:  F

     Using Slab Decomposition

     bravais-lattice index     =            0
     lattice parameter (alat)  =       1.8897  a.u.
     unit-cell volume          =    6658.9804 (a.u.)^3
     number of atoms/cell      =           53
     number of atomic types    =            4
     number of electrons       =       397.00
     number of Kohn-Sham states=          208
     kinetic-energy cutoff     =      29.3995  Ry
     charge density cutoff     =     293.9946  Ry
     scf convergence threshold =      7.3E-08
     mixing beta               =       0.0500
     number of iterations used =            8  plain     mixing
     Exchange-correlation= BEEF-VDW
                           (   1   4  43  14   2   0   0)

     celldm(1)=   1.889726  celldm(2)=   0.000000  celldm(3)=   0.000000
     celldm(4)=   0.000000  celldm(5)=   0.000000  celldm(6)=   0.000000

     crystal axes: (cart. coord. in units of alat)
               a(1) = (   6.579727   0.000000   0.000000 )
               a(2) = (  -0.000775   5.961596   0.000000 )
               a(3) = (   0.000000   0.000000  25.155947 )

     reciprocal axes: (cart. coord. in units 2 pi/alat)
               b(1) = (  0.151982  0.000020  0.000000 )
               b(2) = (  0.000000  0.167740  0.000000 )
               b(3) = (  0.000000  0.000000  0.039752 )

     PseudoPot. # 1 for O  read from file:
     /storage/coda1/p-amedford6/0/shared/rich_project_chbe-medford/medford-share/data/pseudos_module/espresso/nninc/pbe/van/O.UPF
     MD5 check sum: 78c19812648e8988a0fe644b0f25305e
     Pseudo is Ultrasoft, Zval =  6.0
     Generated by new atomic code, or converted to UPF format
     Using radial grid of  737 points,  4 beta functions with:
                l(1) =   0
                l(2) =   0
                l(3) =   1
                l(4) =   1
     Q(r) pseudized with  8 coefficients,  rinner =    0.800   0.800   0.800

     PseudoPot. # 2 for Ti read from file:
     /storage/coda1/p-amedford6/0/shared/rich_project_chbe-medford/medford-share/data/pseudos_module/espresso/nninc/pbe/van/Ti.UPF
     MD5 check sum: 8e4df49b7f0d34bbd5052bf3f5ea0213
     Pseudo is Ultrasoft, Zval = 12.0
     Generated by new atomic code, or converted to UPF format
     Using radial grid of  851 points,  6 beta functions with:
                l(1) =   0
                l(2) =   0
                l(3) =   1
                l(4) =   1
                l(5) =   2
                l(6) =   2
     Q(r) pseudized with  8 coefficients,  rinner =    1.000   1.000   1.000
                                                       1.000   1.000

     PseudoPot. # 3 for C  read from file:
     /storage/coda1/p-amedford6/0/shared/rich_project_chbe-medford/medford-share/data/pseudos_module/espresso/nninc/pbe/van/C.UPF
     MD5 check sum: 1a69bf6b8db32088f5b2163dbdb77a27
     Pseudo is Ultrasoft, Zval =  4.0
     Generated by new atomic code, or converted to UPF format
     Using radial grid of  721 points,  4 beta functions with:
                l(1) =   0
                l(2) =   0
                l(3) =   1
                l(4) =   1
     Q(r) pseudized with  8 coefficients,  rinner =    0.800   0.800   0.800

     PseudoPot. # 4 for H  read from file:
     /storage/coda1/p-amedford6/0/shared/rich_project_chbe-medford/medford-share/data/pseudos_module/espresso/nninc/pbe/van/H.UPF
     MD5 check sum: b5ee9d7bfd3a09ee7748110bda690ff7
     Pseudo is Ultrasoft, Zval =  1.0
     Generated by new atomic code, or converted to UPF format
     Using radial grid of  615 points,  1 beta functions with:
                l(1) =   0
     Q(r) pseudized with  8 coefficients,  rinner =    0.800

     atomic species   valence    mass     pseudopotential
        O1             6.00    15.99900     O ( 1.00)
        Ti1           12.00    47.86700     Ti( 1.00)
        C1             4.00    12.01100     C ( 1.00)
        H1             1.00     1.00800     H ( 1.00)

     No symmetry found

   Cartesian axes

     site n.     atom                  positions (alat units)
         1           O1  tau(   1) = (   3.2904802   0.0005063   4.7018136  )
         2           O1  tau(   2) = (   3.2900926   2.9813045   4.7018136  )
         3           Ti1 tau(   3) = (   0.0004258   2.9801865   6.0000000  )
         4           Ti1 tau(   4) = (   0.0000382   5.9609847   6.0000000  )
         5           Ti1 tau(   5) = (   3.2906075   1.4906267   6.0002472  )
         6           Ti1 tau(   6) = (   3.2902200   4.4714249   6.0002472  )
         7           O1  tau(   7) = (   1.3043587   1.4918075   6.0039043  )
         8           O1  tau(   8) = (   1.3039711   4.4726057   6.0039043  )
         9           O1  tau(   9) = (   5.2767064   1.4903225   6.0039473  )
        10           O1  tau(  10) = (   5.2763189   4.4711207   6.0039473  )
        11           O1  tau(  11) = (   3.2906025   0.0005020   7.3038282  )
        12           O1  tau(  12) = (   3.2902150   2.9813002   7.3038282  )
        13           O1  tau(  13) = (   0.0006271   0.0005054   7.9858123  )
        14           O1  tau(  14) = (   0.0002396   2.9813036   7.9858123  )
        15           Ti1 tau(  15) = (   3.2898052   0.0549011   9.1556235  )
        16           Ti1 tau(  16) = (   3.3203827   3.0319468   9.1649589  )
        17           Ti1 tau(  17) = (   0.0233352   4.5284096   9.2575609  )
        18           Ti1 tau(  18) = (   0.0173867   1.6076536   9.3607995  )
        19           O1  tau(  19) = (   4.5942328   1.4918067   9.2879030  )
        20           O1  tau(  20) = (   4.5938453   4.4726049   9.2879030  )
        21           O1  tau(  21) = (   1.9868534   1.4903216   9.2879459  )
        22           O1  tau(  22) = (   1.9864658   4.4711199   9.2879459  )
        23           O1  tau(  23) = (   0.0034721   0.0125384  10.6021848  )
        24           O1  tau(  24) = (   0.0020335   2.9928551  10.5785608  )
        25           O1  tau(  25) = (   3.2937812   2.9995440  11.3622203  )
        26           O1  tau(  26) = (   3.2898347   0.0201518  11.3605052  )
        27           Ti1 tau(  27) = (   0.0300534   0.0302837  12.4945235  )
        28           Ti1 tau(  28) = (   3.3347356   4.5017157  12.5123549  )
        29           Ti1 tau(  29) = (   3.3349302   1.5071924  12.5110355  )
        30           Ti1 tau(  30) = (   0.0295963   3.0145660  12.7881340  )
        31           O1  tau(  31) = (   1.2797855   4.4923438  12.6426172  )
        32           O1  tau(  32) = (   1.2799313   1.5104473  12.6443552  )
        33           O1  tau(  33) = (   5.2866386   4.4922094  12.6434695  )
        34           O1  tau(  34) = (   5.2866683   1.5083124  12.6439979  )
        35           O1  tau(  35) = (   3.2814828   3.0070543  13.9178409  )
        36           O1  tau(  36) = (   3.2867003   0.0227894  13.9786966  )
        37           O1  tau(  37) = (   0.0021618   0.0175046  14.6784646  )
        38           O1  tau(  38) = (   0.0002945   3.0143855  14.7103493  )
        39           Ti1 tau(  39) = (   3.2869621   3.0144872  15.7052805  )
        40           Ti1 tau(  40) = (   3.3044863   0.0423327  15.8215216  )
        41           Ti1 tau(  41) = (   0.0135451   4.5796903  15.9522020  )
        42           Ti1 tau(  42) = (   0.0105102   1.3838334  15.9764479  )
        43           O1  tau(  43) = (   4.5519026   4.4709862  16.0573678  )
        44           O1  tau(  44) = (   4.5564327   1.5473262  16.0430495  )
        45           O1  tau(  45) = (   2.0152543   1.5518810  16.0555283  )
        46           O1  tau(  46) = (   2.0123771   4.4621050  16.0713562  )
        47           O1  tau(  47) = (   0.0008539   0.0298781  17.1953024  )
        48           O1  tau(  48) = (   6.5358978   3.0350243  17.4695059  )
        49           C1  tau(  49) = (   6.3916590   3.0774531  18.7459330  )
        50           H1  tau(  50) = (   6.4332689   2.0249999  19.1325638  )
        51           O1  tau(  51) = (   3.2941481   0.0813851  18.1811625  )
        52           H1  tau(  52) = (   4.0521942   5.5777154  18.5714528  )
        53           H1  tau(  53) = (   2.4879692   5.6555715  18.5615442  )

     number of k points=    10  Fermi-Dirac smearing, width (Ry)=  0.0073
                       cart. coord. in units 2pi/alat
        k(    1) = (   0.0000000   0.0000000   0.0000000), wk =   0.1250000
        k(    2) = (   0.0000000   0.0419351   0.0000000), wk =   0.2500000
        k(    3) = (   0.0000000  -0.0838702   0.0000000), wk =   0.1250000
        k(    4) = (   0.0379955   0.0000049   0.0000000), wk =   0.2500000
        k(    5) = (   0.0379955   0.0419400   0.0000000), wk =   0.2500000
        k(    6) = (   0.0379955  -0.0838652   0.0000000), wk =   0.2500000
        k(    7) = (   0.0379955  -0.0419301   0.0000000), wk =   0.2500000
        k(    8) = (  -0.0759910  -0.0000099   0.0000000), wk =   0.1250000
        k(    9) = (  -0.0759910   0.0419252   0.0000000), wk =   0.2500000
        k(   10) = (  -0.0759910  -0.0838800   0.0000000), wk =   0.1250000

     Initial potential from superposition of free atoms

     starting charge  380.99918, renormalised to  397.00000

     negative rho (up, down):  1.750E-02 0.000E+00

     %%%%%%%%%%%%%%%%%%%%%%%%%%%%%%%%%%%%%%%%%%%%%%%%%%%%%%%%%%%%%%%%%%%%%%%%
     %                                                                      %
     % You are using vdW-DF, which was implemented by the Thonhauser group. %
     % Please cite the following two papers that made this development      %
     % possible and the two reviews that describe the various versions:     %
     %                                                                      %
     %   T. Thonhauser et al., PRL 115, 136402 (2015).                      %
     %   T. Thonhauser et al., PRB 76, 125112 (2007).                       %
     %   K. Berland et al., Rep. Prog. Phys. 78, 066501 (2015).             %
     %   D.C. Langreth et al., J. Phys.: Condens. Matter 21, 084203 (2009). %
     %                                                                      %
     %                                                                      %
     % If you are calculating the stress with vdW-DF, please also cite:     %
     %                                                                      %
     %   R. Sabatini et al., J. Phys.: Condens. Matter 24, 424209 (2012).   %
     %                                                                      %
     %%%%%%%%%%%%%%%%%%%%%%%%%%%%%%%%%%%%%%%%%%%%%%%%%%%%%%%%%%%%%%%%%%%%%%%%

     Adding external electric field

     Computed dipole along edir(3) :
        Dipole               -8.9522 Ry au,        -22.7543 Debye
        Dipole field         -0.0169 Ry au,

        Potential amp.        1.5661 Ry
        Total length         46.3494 bohr

     Starting wfcs are  299 atomic wfcs
  @ DRIVER MODE: Message from server: STATUS
  @ DRIVER MODE: Message from server: POSDATA
  @ DRIVER MODE: Reading and sharing cell
  @ DRIVER MODE: Reading and sharing positions
  @ DRIVER MODE: Received positions

     Self-consistent Calculation

     iteration #  1     ecut=    29.40 Ry     beta= 0.05
     Davidson diagonalization with overlap
     c_bands:  1 eigenvalues not converged
     c_bands:  1 eigenvalues not converged
     c_bands:  1 eigenvalues not converged
     c_bands:  2 eigenvalues not converged
     ethr =  1.00E-05,  avg # of iterations = 19.1

[...]

     total energy              =   -2583.16383888 Ry
     estimated scf accuracy    <    4234.08612521 Ry

     iteration #  2     ecut=    29.40 Ry     beta= 0.05
     Davidson diagonalization with overlap
     ethr =  1.00E-02,  avg # of iterations = 23.9

[...]

     iteration # 96     ecut=    29.40 Ry     beta= 0.05
     Davidson diagonalization with overlap
     c_bands:  1 eigenvalues not converged
     ethr =  4.19E-11,  avg # of iterations = 12.4

[...]

     total energy              =   -2963.67518647 Ry
     estimated scf accuracy    <       0.00000012 Ry

     iteration # 97     ecut=    29.40 Ry     beta= 0.05
     Davidson diagonalization with overlap
     ethr =  3.08E-11,  avg # of iterations =  5.4

     negative rho (up, down):  1.623E-02 0.000E+00

     Adding external electric field

     Computed dipole along edir(3) :
        Dipole                0.4551 Ry au,          1.1567 Debye
        Dipole field          0.0009 Ry au,

        Potential amp.       -0.0796 Ry
        Total length         46.3494 bohr

     End of self-consistent calculation

          k = 0.0000 0.0000 0.0000 ( 18029 PWs)   bands (ev):

   -56.0202 -55.9838 -55.9834 -55.9613 -55.9477 -55.9031 -55.8693 -55.8330
   -55.8033 -55.7972 -55.7873 -55.7586 -55.7537 -55.6937 -55.0293 -54.9952
   -32.5368 -32.4909 -32.4095 -32.3799 -32.3698 -32.3161 -32.2967 -32.2849
   -32.2658 -32.2530 -32.2143 -32.2068 -32.1965 -32.1787 -32.1763 -32.1660
   -32.1388 -32.1260 -32.1128 -32.1121 -32.0911 -32.0834 -32.0780 -32.0717
   -32.0557 -32.0476 -32.0463 -32.0348 -32.0185 -32.0085 -32.0049 -31.9898
   -31.9694 -31.9639 -31.9629 -31.9587 -31.9318 -31.9141 -31.9012 -31.8928
   -31.8801 -31.8762 -31.4388 -31.3429 -31.3205 -31.2553 -31.1691 -31.0581
   -19.2873 -19.1127 -16.7397 -16.4787 -16.3162 -16.2004 -16.1520 -15.9356
   -15.8507 -15.7995 -15.7111 -15.6373 -15.6097 -15.5898 -15.5576 -15.5452
   -15.5387 -15.5131 -15.4652 -15.4480 -15.4267 -15.4213 -15.4099 -15.3902
   -15.3094 -15.2320 -15.1729 -15.1417 -15.0679 -15.0298 -14.9874 -13.5303
   -13.4124  -7.8785  -6.9192  -4.6001  -4.0979  -3.9529  -3.9339  -3.9074
    -3.8361  -3.6584  -3.6211  -3.4752  -3.3112  -3.2781  -3.1872  -3.1545
    -3.1233  -3.0458  -3.0409  -2.9798  -2.8514  -2.8408  -2.8311  -2.8123
    -2.8007  -2.7558  -2.7315  -2.6953  -2.6595  -2.5791  -2.5052  -2.4741
    -2.4221  -2.4124  -2.3778  -2.3238  -2.3145  -2.2897  -2.2774  -2.2529
    -2.2013  -2.1872  -2.1719  -2.0693  -1.9855  -1.8726  -1.7117  -1.6845
    -1.6766  -1.5562  -1.5113  -1.4490  -1.4252  -1.4233  -1.3741  -1.3246
    -1.2769  -1.2593  -1.1537  -1.0400  -1.0047  -0.9468  -0.9200  -0.7950
    -0.7466  -0.7414  -0.7302  -0.7183  -0.6965  -0.6242  -0.5153  -0.4416
    -0.4325  -0.3431  -0.3180  -0.3078  -0.2484  -0.2392  -0.2178  -0.1634
    -0.1159  -0.0724  -0.0549  -0.0261   0.0118   0.0162   0.1477   0.1983
     0.2266   0.2457   0.2838   0.4554   0.4969   0.6263   0.7337   0.9022
     0.9946   1.0600   1.1690   1.5802   1.6375   2.8203   3.1574   3.2023
     3.2159   3.2305   3.2921   3.3953   3.5411   3.6104   3.6248   3.6605

[...]

          k = 0.0380-0.0419 0.0000 ( 17876 PWs)   bands (ev):

[...]

          k =-0.0760-0.0000 0.0000 ( 17886 PWs)   bands (ev):

[...]

          k =-0.0760-0.0839 0.0000 ( 17948 PWs)   bands (ev):

   -56.0089 -55.9946 -55.9668 -55.9645 -55.9593 -55.8907 -55.8816 -55.8287
   -55.8000 -55.7990 -55.7724 -55.7689 -55.7627 -55.6964 -55.0128 -55.0116
   -32.3517 -32.3310 -32.3221 -32.3150 -32.3025 -32.2993 -32.2796 -32.2517
   -32.2432 -32.2326 -32.2229 -32.2165 -32.1748 -32.1638 -32.1561 -32.1466
   -32.1332 -32.1292 -32.1241 -32.1226 -32.1186 -32.1157 -32.0989 -32.0950
   -32.0944 -32.0883 -32.0824 -32.0523 -32.0366 -32.0315 -32.0225 -32.0216
   -32.0144 -32.0016 -31.9886 -31.9838 -31.9787 -31.9784 -31.9680 -31.9521
   -31.9206 -31.8900 -31.3339 -31.3325 -31.2522 -31.2512 -31.2127 -31.2117
   -19.2781 -19.1122 -16.1920 -16.0836 -16.0767 -15.9017 -15.8877 -15.8643
   -15.8222 -15.8112 -15.7193 -15.7166 -15.6730 -15.6584 -15.6323 -15.5979
   -15.5936 -15.5345 -15.5333 -15.5286 -15.4735 -15.4684 -15.4468 -15.4317
   -15.4071 -15.3994 -15.3548 -15.3434 -15.2800 -15.2043 -15.1981 -13.5149
   -13.5126  -7.8792  -6.9125  -4.5408  -3.7227  -3.4742  -3.3243  -3.2376
    -3.2311  -3.1376  -3.1107  -3.0738  -3.0218  -2.9832  -2.9353  -2.8731
    -2.8525  -2.8482  -2.8363  -2.8318  -2.8130  -2.8046  -2.7644  -2.7421
    -2.7089  -2.6812  -2.6638  -2.6405  -2.6347  -2.6083  -2.5815  -2.5748
    -2.5682  -2.5566  -2.4879  -2.4380  -2.3349  -2.3060  -2.2484  -2.2135
    -2.1555  -2.1454  -2.1257  -2.0837  -2.0749  -2.0604  -1.8826  -1.8541
    -1.7519  -1.7426  -1.7227  -1.6941  -1.5996  -1.5347  -1.4945  -1.4810
    -1.4292  -1.4088  -1.3335  -1.2746  -1.2117  -1.1778  -1.1095  -1.0781
    -1.0620  -0.9852  -0.9764  -0.9385  -0.9145  -0.8946  -0.7776  -0.7713
    -0.7348  -0.7000  -0.6691  -0.6125  -0.5674  -0.5505  -0.5119  -0.4598
    -0.3838  -0.3623  -0.1754   0.0053   0.0133   0.0431   0.1326   0.1736
     0.2901   0.3259   0.3308   0.3634   0.4042   0.4969   0.5194   0.5268
     0.6008   1.3549   1.3558   1.4424   1.4534   2.6898   3.3501   3.4068
     3.4718   3.5066   3.6113   3.6284   3.6431   3.6543   3.6926   3.7912

     the Fermi energy is     3.1305 ev

!    total energy              =   -2963.67518826 Ry
     estimated scf accuracy    <       0.00000004 Ry
     smearing contrib. (-TS)   =      -0.02552789 Ry
     internal energy E=F+TS    =   -2963.64966037 Ry

     The total energy is F=E-TS. E is the sum of the following terms:
     one-electron contribution =  -24420.67267757 Ry
     hartree contribution      =   12297.71013456 Ry
     xc contribution           =    -489.17822300 Ry
     ewald contribution        =    9648.49071479 Ry
     electric field correction =       0.00039085 Ry

     convergence has been achieved in  97 iterations

     Forces acting on atoms (cartesian axes, Ry/au):

     atom    1 type  1   force =    -0.00006185    0.00006731    0.10403063
     atom    2 type  1   force =    -0.00005408    0.00005377    0.10405697
     atom    3 type  2   force =    -0.00018163   -0.00196007    0.10275528
     atom    4 type  2   force =    -0.00007811    0.00161439    0.11465872
     atom    5 type  2   force =    -0.00026075    0.00155974   -0.17904326
     atom    6 type  2   force =    -0.00014396   -0.00104745   -0.17941288
     atom    7 type  1   force =    -0.06953574    0.00066346   -0.02928455
     atom    8 type  1   force =    -0.06908021   -0.00122685   -0.02933020
     atom    9 type  1   force =     0.06921303    0.00119132   -0.02934289
     atom   10 type  1   force =     0.06883842   -0.00085991   -0.02941367
     atom   11 type  1   force =     0.00005821    0.00064162    0.04737231
     atom   12 type  1   force =     0.00063825    0.00090294    0.04973944
     atom   13 type  1   force =     0.00021778   -0.00563658   -0.03308251
     atom   14 type  1   force =     0.00028225    0.00397806   -0.02649146
     atom   15 type  2   force =    -0.00015807   -0.00003393   -0.00071054
     atom   16 type  2   force =    -0.00019764   -0.00005590   -0.00075629
     atom   17 type  2   force =     0.00009104   -0.00093483   -0.00006643
     atom   18 type  2   force =     0.00011886    0.00112169   -0.00007623
     atom   19 type  1   force =    -0.01879844   -0.00005840    0.00452198
     atom   20 type  1   force =    -0.01689724    0.00164819    0.00397756
     atom   21 type  1   force =     0.01837703   -0.00109563    0.00450496
     atom   22 type  1   force =     0.01748964    0.00197609    0.00383532
     atom   23 type  1   force =     0.00017918    0.00005651   -0.00076438
     atom   24 type  1   force =     0.00011280   -0.00023605   -0.00032549
     atom   25 type  1   force =    -0.00031540    0.00016498   -0.00071691
     atom   26 type  1   force =    -0.00020059   -0.00004567   -0.00089170
     atom   27 type  2   force =    -0.00019759    0.00045732    0.00045998
     atom   28 type  2   force =     0.00027254    0.00064902    0.00090021
     atom   29 type  2   force =     0.00028532   -0.00010875    0.00108150
     atom   30 type  2   force =    -0.00019130   -0.00022886    0.00042860
     atom   31 type  1   force =     0.00025478   -0.00006159   -0.00039506
     atom   32 type  1   force =     0.00003676    0.00011008   -0.00012965
     atom   33 type  1   force =    -0.00011637   -0.00016591   -0.00076197
     atom   34 type  1   force =     0.00003324    0.00011494   -0.00045967
     atom   35 type  1   force =     0.00010459   -0.00003527   -0.00130480
     atom   36 type  1   force =     0.00012705   -0.00053858    0.00020088
     atom   37 type  1   force =    -0.00020666    0.00015045   -0.00028588
     atom   38 type  1   force =     0.00016390   -0.00001209   -0.00114602
     atom   39 type  2   force =    -0.00008825   -0.00046381    0.00115786
     atom   40 type  2   force =     0.00006977   -0.00074290    0.00027964
     atom   41 type  2   force =     0.00016003   -0.00182504    0.00183636
     atom   42 type  2   force =     0.00000289    0.00139182    0.00194989
     atom   43 type  1   force =    -0.00115963   -0.00028673   -0.00012873
     atom   44 type  1   force =    -0.00050506   -0.00034291   -0.00016459
     atom   45 type  1   force =     0.00040409   -0.00047808   -0.00003911
     atom   46 type  1   force =     0.00102008   -0.00001491   -0.00019553
     atom   47 type  1   force =    -0.00029439    0.00040392   -0.00036599
     atom   48 type  1   force =    -0.00149907    0.00120886    0.01403288
     atom   49 type  3   force =     0.00165271    0.00171057   -0.01769202
     atom   50 type  4   force =    -0.00050084   -0.00165961    0.00042949
     atom   51 type  1   force =    -0.00014953   -0.00008726   -0.00118955
     atom   52 type  4   force =     0.00091981   -0.00118106    0.00120636
     atom   53 type  4   force =    -0.00025165   -0.00041241    0.00055111

     Total force =     0.375075     Total SCF correction =     0.000372
  @ DRIVER MODE: Message from server: STATUS
  @ DRIVER MODE: Message from server: GETFORCE
  @ DRIVER MODE: Returning v,forces,stress,ensemble

     Writing output data file ./calc.save/
  @ DRIVER MODE: Message from server: EXIT
  @ DRIVE MODE: Exiting

     General routines

     Parallel routines

   This run was terminated on:  19:38:55  15Sep2021

   JOB DONE.