     Program PWSCF v.6.7GPU starts on 11Sep2021 at  3:24:47

     R & G space division:  proc/nbgrp/npool/nimage =      10
     Reading input from /storage/home/hcoda1/3/ntian30/research/carbon/CxH_vib/CH2_calc/ads_slab/CH2NHNH_b/out_0027/pw.inp
Warning: card &CELL ignored
Warning: card   CELL_DYNAMICS='IPI', ignored
Warning: card / ignored

     Current dimensions of program PWSCF are:
     Max number of different atomic species (ntypx) = 10
     Max number of k-points (npk) =  40000
     Max angular momentum in pseudopotentials (lmaxx) =  3
     Presently no symmetry can be used with electric field

     Message from routine cell_base_init:
     DEPRECATED: use true lattice parameter, not A to a.u. conversion factor

     IMPORTANT: XC functional enforced from input :
     Exchange-correlation= BEEF-VDW
                           (   1   4  43  14   2   0   0)
     Any further DFT definition will be discarded
     Please, verify this is what you really want

  @ DRIVER MODE: Connecting to
 qe_1139763_2792040.sched-torque.pace.gatech.edunyq3qu2m_scratch
  using UNIX socket
  @ DRIVER MODE: Message from server: STATUS
  @ DRIVER MODE: Message from server: INIT
  @ DRIVER MODE: Receiving replica           0          -1
  @ DRIVER MODE: Receiving encoded integer          25
  @ DRIVER MODE:  SCF:  T  FORCE:  T  STRESS:  F  VC:  F  ENSEMBLE:  F
  @ DRIVER MODE:  SCF:  T  FORCE:  T  STRESS:  F  VC:  F  ENSEMBLE:  F

     Using Slab Decomposition

     bravais-lattice index     =            0
     lattice parameter (alat)  =       1.8897  a.u.
     unit-cell volume          =    6658.9804 (a.u.)^3
     number of atoms/cell      =           54
     number of atomic types    =            5
     number of electrons       =       396.00
     number of Kohn-Sham states=          208
     kinetic-energy cutoff     =      29.3995  Ry
     charge density cutoff     =     293.9946  Ry
     scf convergence threshold =      7.3E-08
     mixing beta               =       0.0500
     number of iterations used =            8  plain     mixing
     Exchange-correlation= BEEF-VDW
                           (   1   4  43  14   2   0   0)

     celldm(1)=   1.889726  celldm(2)=   0.000000  celldm(3)=   0.000000
     celldm(4)=   0.000000  celldm(5)=   0.000000  celldm(6)=   0.000000

     crystal axes: (cart. coord. in units of alat)
               a(1) = (   6.579727   0.000000   0.000000 )
               a(2) = (  -0.000775   5.961596   0.000000 )
               a(3) = (   0.000000   0.000000  25.155947 )

     reciprocal axes: (cart. coord. in units 2 pi/alat)
               b(1) = (  0.151982  0.000020  0.000000 )
               b(2) = (  0.000000  0.167740  0.000000 )
               b(3) = (  0.000000  0.000000  0.039752 )

     PseudoPot. # 1 for Ti read from file:
     /storage/coda1/p-amedford6/0/shared/rich_project_chbe-medford/medford-share/data/pseudos_module/espresso/nninc/pbe/van/Ti.UPF
     MD5 check sum: 8e4df49b7f0d34bbd5052bf3f5ea0213
     Pseudo is Ultrasoft, Zval = 12.0
     Generated by new atomic code, or converted to UPF format
     Using radial grid of  851 points,  6 beta functions with:
                l(1) =   0
                l(2) =   0
                l(3) =   1
                l(4) =   1
                l(5) =   2
                l(6) =   2
     Q(r) pseudized with  8 coefficients,  rinner =    1.000   1.000   1.000
                                                       1.000   1.000

     PseudoPot. # 2 for O  read from file:
     /storage/coda1/p-amedford6/0/shared/rich_project_chbe-medford/medford-share/data/pseudos_module/espresso/nninc/pbe/van/O.UPF
     MD5 check sum: 78c19812648e8988a0fe644b0f25305e
     Pseudo is Ultrasoft, Zval =  6.0
     Generated by new atomic code, or converted to UPF format
     Using radial grid of  737 points,  4 beta functions with:
                l(1) =   0
                l(2) =   0
                l(3) =   1
                l(4) =   1
     Q(r) pseudized with  8 coefficients,  rinner =    0.800   0.800   0.800

     PseudoPot. # 3 for N  read from file:
     /storage/coda1/p-amedford6/0/shared/rich_project_chbe-medford/medford-share/data/pseudos_module/espresso/nninc/pbe/van/N.UPF
     MD5 check sum: 90d10febe142ad51ac9d5be1deb811c4
     Pseudo is Ultrasoft, Zval =  5.0
     Generated by new atomic code, or converted to UPF format
     Using radial grid of  729 points,  4 beta functions with:
                l(1) =   0
                l(2) =   0
                l(3) =   1
                l(4) =   1
     Q(r) pseudized with  8 coefficients,  rinner =    0.800   0.800   0.800

     PseudoPot. # 4 for C  read from file:
     /storage/coda1/p-amedford6/0/shared/rich_project_chbe-medford/medford-share/data/pseudos_module/espresso/nninc/pbe/van/C.UPF
     MD5 check sum: 1a69bf6b8db32088f5b2163dbdb77a27
     Pseudo is Ultrasoft, Zval =  4.0
     Generated by new atomic code, or converted to UPF format
     Using radial grid of  721 points,  4 beta functions with:
                l(1) =   0
                l(2) =   0
                l(3) =   1
                l(4) =   1
     Q(r) pseudized with  8 coefficients,  rinner =    0.800   0.800   0.800

     PseudoPot. # 5 for H  read from file:
     /storage/coda1/p-amedford6/0/shared/rich_project_chbe-medford/medford-share/data/pseudos_module/espresso/nninc/pbe/van/H.UPF
     MD5 check sum: b5ee9d7bfd3a09ee7748110bda690ff7
     Pseudo is Ultrasoft, Zval =  1.0
     Generated by new atomic code, or converted to UPF format
     Using radial grid of  615 points,  1 beta functions with:
                l(1) =   0
     Q(r) pseudized with  8 coefficients,  rinner =    0.800

     atomic species   valence    mass     pseudopotential
        Ti1           12.00    47.86700     Ti( 1.00)
        O1             6.00    15.99900     O ( 1.00)
        N1             5.00    14.00700     N ( 1.00)
        C1             4.00    12.01100     C ( 1.00)
        H1             1.00     1.00800     H ( 1.00)

     No symmetry found

   Cartesian axes

     site n.     atom                  positions (alat units)
         1           Ti1 tau(   1) = (   0.0004258   2.9801865   6.0000000  )
         2           Ti1 tau(   2) = (   3.2906075   1.4906267   6.0002472  )
         3           O1  tau(   3) = (   0.0006271   0.0005054   7.9858123  )
         4           O1  tau(   4) = (   3.2906025   0.0005020   7.3038282  )
         5           O1  tau(   5) = (   4.5942328   1.4918067   9.2879030  )
         6           O1  tau(   6) = (   1.9868534   1.4903216   9.2879459  )
         7           Ti1 tau(   7) = (   3.2907910   2.8959150   9.1758416  )
         8           Ti1 tau(   8) = (   0.0015273   1.4827037   9.2680791  )
         9           O1  tau(   9) = (   3.3006942   5.9534781  11.3553798  )
        10           O1  tau(  10) = (   0.0116148   5.9584955  10.6183126  )
        11           O1  tau(  11) = (   1.3049435   1.4862809  12.6371303  )
        12           O1  tau(  12) = (   5.2939446   1.4839232  12.6419886  )
        13           Ti1 tau(  13) = (   0.0297220   2.9630369  12.5573518  )
        14           Ti1 tau(  14) = (   3.3261824   1.4838644  12.4981318  )
        15           O1  tau(  15) = (   0.0289408   0.0313188  14.6920809  )
        16           O1  tau(  16) = (   3.2926898   0.0103323  13.9875539  )
        17           O1  tau(  17) = (   4.5688264   1.5151599  16.1499861  )
        18           O1  tau(  18) = (   2.0666082   1.5432664  16.2461230  )
        19           Ti1 tau(  19) = (   3.3290317   3.0025141  15.7092439  )
        20           Ti1 tau(  20) = (   6.5420716   1.4859973  15.9011789  )
        21           O1  tau(  21) = (   3.2904802   0.0005063   4.7018136  )
        22           O1  tau(  22) = (   0.0300787   5.9197746  17.2397460  )
        23           O1  tau(  23) = (   1.3043587   1.4918075   6.0039043  )
        24           O1  tau(  24) = (   5.2767064   1.4903225   6.0039473  )
        25           Ti1 tau(  25) = (   0.0000382   5.9609847   6.0000000  )
        26           Ti1 tau(  26) = (   3.2902200   4.4714249   6.0002472  )
        27           O1  tau(  27) = (   0.0002396   2.9813036   7.9858123  )
        28           O1  tau(  28) = (   3.2902150   2.9813002   7.3038282  )
        29           O1  tau(  29) = (   4.5938453   4.4726049   9.2879030  )
        30           O1  tau(  30) = (   1.9864658   4.4711199   9.2879459  )
        31           Ti1 tau(  31) = (   3.2891106   5.8743827   9.1763621  )
        32           Ti1 tau(  32) = (   0.0006254   4.4649316   9.2693709  )
        33           O1  tau(  33) = (   3.3021489   2.9801797  11.3479352  )
        34           O1  tau(  34) = (   0.0092240   2.9805883  10.6323155  )
        35           O1  tau(  35) = (   1.3026635   4.4666190  12.6547599  )
        36           O1  tau(  36) = (   5.2965037   4.4700493  12.6603964  )
        37           Ti1 tau(  37) = (   0.0280624   5.9437424  12.5124334  )
        38           Ti1 tau(  38) = (   3.3252324   4.4624078  12.5019987  )
        39           O1  tau(  39) = (   0.0181394   2.9416354  14.7876853  )
        40           O1  tau(  40) = (   3.2997337   2.9731399  13.9284607  )
        41           O1  tau(  41) = (   4.5639665   4.4616582  16.1522005  )
        42           O1  tau(  42) = (   2.0594857   4.4554260  16.1407723  )
        43           Ti1 tau(  43) = (   3.2991394   0.0041700  15.7772358  )
        44           Ti1 tau(  44) = (   0.0501841   4.6507117  16.0116611  )
        45           O1  tau(  45) = (   3.2900926   2.9813045   4.7018136  )
        46           O1  tau(  46) = (   1.3039711   4.4726057   6.0039043  )
        47           O1  tau(  47) = (   5.2763189   4.4711207   6.0039473  )
        48           N1  tau(  48) = (   1.0195810   2.7978639  18.4834737  )
        49           N1  tau(  49) = (   6.5530482   2.9315443  17.6565599  )
        50           C1  tau(  50) = (   1.1739936   3.1992704  19.7158448  )
        51           H1  tau(  51) = (   2.1028141   2.9667422  20.2081369  )
        52           H1  tau(  52) = (   0.3908697   3.7496525  20.2009034  )
        53           H1  tau(  53) = (   1.7673082   2.2798185  17.9998463  )
        54           H1  tau(  54) = (   5.7337981   3.2184162  18.1887256  )

     number of k points=    10  Fermi-Dirac smearing, width (Ry)=  0.0073
                       cart. coord. in units 2pi/alat
        k(    1) = (   0.0000000   0.0000000   0.0000000), wk =   0.1250000
        k(    2) = (   0.0000000   0.0419351   0.0000000), wk =   0.2500000
        k(    3) = (   0.0000000  -0.0838702   0.0000000), wk =   0.1250000
        k(    4) = (   0.0379955   0.0000049   0.0000000), wk =   0.2500000
        k(    5) = (   0.0379955   0.0419400   0.0000000), wk =   0.2500000
        k(    6) = (   0.0379955  -0.0838652   0.0000000), wk =   0.2500000
        k(    7) = (   0.0379955  -0.0419301   0.0000000), wk =   0.2500000
        k(    8) = (  -0.0759910  -0.0000099   0.0000000), wk =   0.1250000
        k(    9) = (  -0.0759910   0.0419252   0.0000000), wk =   0.2500000
        k(   10) = (  -0.0759910  -0.0838800   0.0000000), wk =   0.1250000

     Initial potential from superposition of free atoms

     starting charge  379.99915, renormalised to  396.00000

     negative rho (up, down):  1.484E-02 0.000E+00

     %%%%%%%%%%%%%%%%%%%%%%%%%%%%%%%%%%%%%%%%%%%%%%%%%%%%%%%%%%%%%%%%%%%%%%%%
     %                                                                      %
     % You are using vdW-DF, which was implemented by the Thonhauser group. %
     % Please cite the following two papers that made this development      %
     % possible and the two reviews that describe the various versions:     %
     %                                                                      %
     %   T. Thonhauser et al., PRL 115, 136402 (2015).                      %
     %   T. Thonhauser et al., PRB 76, 125112 (2007).                       %
     %   K. Berland et al., Rep. Prog. Phys. 78, 066501 (2015).             %
     %   D.C. Langreth et al., J. Phys.: Condens. Matter 21, 084203 (2009). %
     %                                                                      %
     %                                                                      %
     % If you are calculating the stress with vdW-DF, please also cite:     %
     %                                                                      %
     %   R. Sabatini et al., J. Phys.: Condens. Matter 24, 424209 (2012).   %
     %                                                                      %
     %%%%%%%%%%%%%%%%%%%%%%%%%%%%%%%%%%%%%%%%%%%%%%%%%%%%%%%%%%%%%%%%%%%%%%%%

     Adding external electric field

     Computed dipole along edir(3) :
        Dipole               -9.8032 Ry au,        -24.9172 Debye
        Dipole field         -0.0185 Ry au,

        Potential amp.        1.7149 Ry
        Total length         46.3494 bohr

     Starting wfcs are  300 atomic wfcs
  @ DRIVER MODE: Message from server: STATUS
  @ DRIVER MODE: Message from server: POSDATA
  @ DRIVER MODE: Reading and sharing cell
  @ DRIVER MODE: Reading and sharing positions
  @ DRIVER MODE: Received positions

     Self-consistent Calculation

     iteration #  1     ecut=    29.40 Ry     beta= 0.05
     Davidson diagonalization with overlap
     c_bands:  1 eigenvalues not converged
     c_bands:  2 eigenvalues not converged
     c_bands:  1 eigenvalues not converged
     c_bands:  1 eigenvalues not converged
     c_bands:  2 eigenvalues not converged
     c_bands:  1 eigenvalues not converged
     c_bands:  1 eigenvalues not converged
     c_bands:  1 eigenvalues not converged
     c_bands:  3 eigenvalues not converged
     ethr =  1.00E-05,  avg # of iterations = 19.6

[...]

     total energy              =   -2537.53387079 Ry
     estimated scf accuracy    <    4492.61586105 Ry

     iteration #  2     ecut=    29.40 Ry     beta= 0.05
     Davidson diagonalization with overlap
     ethr =  1.00E-02,  avg # of iterations = 24.9

[...]

     iteration # 58     ecut=    29.40 Ry     beta= 0.05
     Davidson diagonalization with overlap
     c_bands:  1 eigenvalues not converged
     ethr =  4.03E-11,  avg # of iterations = 12.4

[...]

     total energy              =   -2940.35788394 Ry
     estimated scf accuracy    <       0.00000024 Ry

     iteration # 59     ecut=    29.40 Ry     beta= 0.05
     Davidson diagonalization with overlap
     ethr =  4.03E-11,  avg # of iterations =  9.5

     negative rho (up, down):  1.443E-02 0.000E+00

     Adding external electric field

     Computed dipole along edir(3) :
        Dipole                1.4637 Ry au,          3.7205 Debye
        Dipole field          0.0028 Ry au,

        Potential amp.       -0.2561 Ry
        Total length         46.3494 bohr

     End of self-consistent calculation

          k = 0.0000 0.0000 0.0000 ( 18029 PWs)   bands (ev):

   -55.2597 -55.2253 -55.2232 -55.1912 -55.1555 -55.1321 -55.0907 -55.0666
   -55.0634 -55.0529 -55.0508 -55.0283 -55.0179 -54.9122 -54.2372 -54.2031
   -31.8332 -31.7149 -31.6199 -31.5919 -31.5872 -31.5718 -31.5533 -31.5524
   -31.5181 -31.5153 -31.4717 -31.4699 -31.4681 -31.4361 -31.4160 -31.3962
   -31.3911 -31.3779 -31.3707 -31.3654 -31.3364 -31.3151 -31.3137 -31.3090
   -31.2941 -31.2859 -31.2822 -31.2658 -31.2618 -31.2582 -31.2469 -31.2366
   -31.2336 -31.2218 -31.2133 -31.1932 -31.1842 -31.1821 -31.1780 -31.1585
   -31.1366 -31.0957 -30.6457 -30.5537 -30.5315 -30.4623 -30.3756 -30.2646
   -19.5503 -16.0896 -15.8116 -15.6852 -15.5069 -15.4462 -15.3533 -15.2043
   -15.1541 -15.0389 -15.0049 -14.9977 -14.9697 -14.9308 -14.8603 -14.7883
   -14.7880 -14.7862 -14.7432 -14.7429 -14.6973 -14.6812 -14.6788 -14.6432
   -14.6291 -14.5832 -14.4730 -14.4000 -14.3435 -14.0276 -13.8859 -12.7399
   -12.6228 -10.2569  -7.0509  -6.6740  -4.2729  -4.1003  -3.4370  -3.2610
    -3.2438  -3.1739  -3.1543  -2.9821  -2.9063  -2.7418  -2.6096  -2.5220
    -2.4801  -2.4594  -2.4550  -2.2775  -2.2260  -2.1760  -2.1539  -2.1403
    -2.1093  -2.0723  -2.0566  -2.0221  -2.0139  -1.9992  -1.8238  -1.7437
    -1.7047  -1.6801  -1.6417  -1.5803  -1.5707  -1.5443  -1.5358  -1.5320
    -1.5069  -1.4771  -1.4603  -1.4196  -1.2861  -1.2430  -1.2079  -1.1207
    -1.0343  -0.8855  -0.8089  -0.8050  -0.7712  -0.7251  -0.6870  -0.6422
    -0.6350  -0.6005  -0.4576  -0.4134  -0.3487  -0.3229  -0.2824  -0.2351
    -0.2204  -0.0820  -0.0382  -0.0328  -0.0079   0.1161   0.1571   0.2132
     0.2423   0.3045   0.3509   0.4156   0.4293   0.4535   0.4983   0.5210
     0.6319   0.6833   0.6974   0.7064   0.7348   0.7996   0.8542   0.8770
     0.8999   0.9156   1.0847   1.1237   1.2028   1.3547   1.3681   1.6972
     1.7360   1.7853   1.9716   2.3595   2.4068   3.8450   3.9147   3.9744
     3.9931   3.9979   4.0797   4.1986   4.3178   4.3383   4.3435   4.3468

[...]

          k = 0.0380-0.0419 0.0000 ( 17876 PWs)   bands (ev):

[...]

          k =-0.0760-0.0000 0.0000 ( 17886 PWs)   bands (ev):

[...]

          k =-0.0760-0.0839 0.0000 ( 17948 PWs)   bands (ev):

   -55.2439 -55.2388 -55.2083 -55.2080 -55.1525 -55.1231 -55.0997 -55.0646
   -55.0558 -55.0470 -55.0436 -55.0353 -55.0343 -54.9140 -54.2201 -54.2200
   -31.6387 -31.6337 -31.5674 -31.5301 -31.5299 -31.5275 -31.5012 -31.5009
   -31.5005 -31.4675 -31.4655 -31.4577 -31.4549 -31.4140 -31.3856 -31.3818
   -31.3782 -31.3782 -31.3721 -31.3623 -31.3592 -31.3439 -31.3294 -31.3277
   -31.3273 -31.3247 -31.3234 -31.2955 -31.2939 -31.2812 -31.2805 -31.2770
   -31.2613 -31.2578 -31.2575 -31.2547 -31.2543 -31.2241 -31.2147 -31.2141
   -31.1716 -31.1414 -30.5442 -30.5441 -30.4584 -30.4582 -30.4190 -30.4190
   -19.5483 -15.5625 -15.4736 -15.4124 -15.2807 -15.2571 -15.2235 -15.2178
   -15.1498 -15.1160 -15.0557 -15.0223 -14.9832 -14.9628 -14.9604 -14.9393
   -14.8331 -14.8295 -14.8249 -14.8142 -14.7595 -14.7540 -14.7256 -14.7047
   -14.7013 -14.6476 -14.5990 -14.5966 -14.5107 -14.2668 -13.8977 -12.7245
   -12.7243 -10.2601  -7.0440  -6.6699  -4.2552  -4.0925  -2.8370  -2.7355
    -2.6501  -2.5738  -2.4897  -2.4466  -2.4240  -2.2919  -2.2490  -2.2382
    -2.2233  -2.2074  -2.1605  -2.1340  -2.1160  -2.1021  -2.0854  -2.0803
    -2.0628  -2.0427  -2.0293  -1.9688  -1.9587  -1.9422  -1.9163  -1.8957
    -1.8726  -1.8519  -1.8269  -1.8155  -1.7053  -1.6290  -1.5907  -1.5165
    -1.4633  -1.4422  -1.4348  -1.3443  -1.3094  -1.2997  -1.2845  -1.2145
    -1.0982  -1.0448  -0.9856  -0.9834  -0.9576  -0.8189  -0.8036  -0.7509
    -0.7307  -0.7117  -0.6726  -0.6338  -0.6029  -0.5187  -0.4732  -0.4428
    -0.4084  -0.2892  -0.2553  -0.2297  -0.2162  -0.2108  -0.0940  -0.0843
    -0.0582  -0.0293   0.0127   0.0360   0.0964   0.1055   0.2440   0.3180
     0.3932   0.4757   0.5741   0.6294   0.7048   0.7713   0.7755   0.8733
     0.9330   1.0084   1.0183   1.0542   1.0598   1.1786   1.2212   1.2265
     1.2640   2.1441   2.1451   2.2268   2.2269   4.0189   4.0303   4.1058
     4.1369   4.1692   4.2337   4.3586   4.3793   4.4199   4.4213   4.5046

     the Fermi energy is     3.8944 ev

!    total energy              =   -2940.35793122 Ry
     estimated scf accuracy    <       0.00000004 Ry
     smearing contrib. (-TS)   =      -0.03839009 Ry
     internal energy E=F+TS    =   -2940.31954113 Ry

     The total energy is F=E-TS. E is the sum of the following terms:
     one-electron contribution =  -23947.45701651 Ry
     hartree contribution      =   12066.34516084 Ry
     xc contribution           =    -486.10894656 Ry
     ewald contribution        =    9426.89721781 Ry
     electric field correction =       0.00404329 Ry

     convergence has been achieved in  59 iterations

     Forces acting on atoms (cartesian axes, Ry/au):

     atom    1 type  1   force =     0.00001351   -0.00025349    0.09434963
     atom    2 type  1   force =    -0.00015718   -0.00034523   -0.17719971
     atom    3 type  2   force =     0.00003981   -0.00013965   -0.02176744
     atom    4 type  2   force =    -0.00000405   -0.00173290    0.05671735
     atom    5 type  2   force =    -0.01091535   -0.00112349    0.00622271
     atom    6 type  2   force =     0.01268212   -0.00045942    0.00595777
     atom    7 type  1   force =    -0.00028926    0.00190802   -0.01477862
     atom    8 type  1   force =    -0.00006702    0.00586064    0.00723144
     atom    9 type  2   force =    -0.00014932   -0.00025959   -0.00000773
     atom   10 type  2   force =    -0.00136050    0.00013232   -0.00582406
     atom   11 type  2   force =    -0.00013076    0.00006266   -0.00006507
     atom   12 type  2   force =     0.00015815    0.00003450    0.00018666
     atom   13 type  1   force =     0.00010290    0.00011083    0.00018858
     atom   14 type  1   force =    -0.00004907    0.00002278    0.00022252
     atom   15 type  2   force =    -0.00027230    0.00021178   -0.00006257
     atom   16 type  2   force =     0.00001525    0.00023486   -0.00016576
     atom   17 type  2   force =     0.00027925    0.00019665    0.00006676
     atom   18 type  2   force =     0.00022602   -0.00023904    0.00020106
     atom   19 type  1   force =    -0.00042936   -0.00011106   -0.00009903
     atom   20 type  1   force =    -0.00044693   -0.00002668    0.00008613
     atom   21 type  2   force =    -0.00000773   -0.00003909    0.10370015
     atom   22 type  2   force =     0.00023179    0.00027485    0.00006947
     atom   23 type  2   force =    -0.07083973   -0.00012847   -0.02715615
     atom   24 type  2   force =     0.07068867    0.00030337   -0.02723662
     atom   25 type  1   force =     0.00002113   -0.00021015    0.09407505
     atom   26 type  1   force =    -0.00024780   -0.00047158   -0.17717290
     atom   27 type  2   force =     0.00009226   -0.00029630   -0.02083895
     atom   28 type  2   force =     0.00002822   -0.00141610    0.05608947
     atom   29 type  2   force =    -0.01103433   -0.00016998    0.00583675
     atom   30 type  2   force =     0.01269462    0.00014480    0.00559341
     atom   31 type  1   force =    -0.00017336    0.00466398   -0.01582796
     atom   32 type  1   force =    -0.00003227   -0.00694870    0.00710916
     atom   33 type  2   force =     0.00010482    0.00047851   -0.00009211
     atom   34 type  2   force =    -0.00097202    0.00063690   -0.00548551
     atom   35 type  2   force =     0.00058089    0.00025516   -0.00011924
     atom   36 type  2   force =    -0.00067985    0.00026816   -0.00020731
     atom   37 type  1   force =     0.00012101   -0.00020937    0.00005826
     atom   38 type  1   force =     0.00001899   -0.00020104   -0.00009424
     atom   39 type  2   force =     0.00077212   -0.00026390   -0.00006178
     atom   40 type  2   force =     0.00016939    0.00057037    0.00004156
     atom   41 type  2   force =    -0.00021989   -0.00043535    0.00032809
     atom   42 type  2   force =     0.00034093    0.00012641   -0.00014293
     atom   43 type  1   force =    -0.00003520    0.00010267   -0.00000531
     atom   44 type  1   force =    -0.00012736    0.00046796    0.00023093
     atom   45 type  2   force =    -0.00000463   -0.00006126    0.10368207
     atom   46 type  2   force =    -0.07084575   -0.00008387   -0.02713070
     atom   47 type  2   force =     0.07067864    0.00035517   -0.02719425
     atom   48 type  3   force =     0.00110693   -0.00042033    0.00145791
     atom   49 type  3   force =    -0.00069185    0.00007500   -0.00047905
     atom   50 type  4   force =     0.00388940   -0.00441515   -0.00279143
     atom   51 type  5   force =    -0.00048748   -0.00008687   -0.00029933
     atom   52 type  5   force =    -0.00470984    0.00335840    0.00276459
     atom   53 type  5   force =     0.00057772   -0.00036274    0.00054429
     atom   54 type  5   force =    -0.00025435    0.00005403   -0.00070598

     Total force =     0.365858     Total SCF correction =     0.000382
  @ DRIVER MODE: Message from server: STATUS
  @ DRIVER MODE: Message from server: GETFORCE
  @ DRIVER MODE: Returning v,forces,stress,ensemble

     Writing output data file ./calc.save/
  @ DRIVER MODE: Message from server: EXIT
  @ DRIVE MODE: Exiting

     General routines

     Parallel routines

   This run was terminated on:   3:41:17  11Sep2021

   JOB DONE.