     Program PWSCF v.6.7GPU starts on 14Sep2021 at 15: 0:24

     R & G space division:  proc/nbgrp/npool/nimage =      10
     Reading input from /storage/home/hcoda1/3/ntian30/research/carbon/CxH_vib/CH_calc/ads_slab/CHOHN2_a/out_0004/pw.inp
Warning: card &CELL ignored
Warning: card   CELL_DYNAMICS='IPI', ignored
Warning: card / ignored

     Current dimensions of program PWSCF are:
     Max number of different atomic species (ntypx) = 10
     Max number of k-points (npk) =  40000
     Max angular momentum in pseudopotentials (lmaxx) =  3
     Presently no symmetry can be used with electric field

     Message from routine cell_base_init:
     DEPRECATED: use true lattice parameter, not A to a.u. conversion factor

     IMPORTANT: XC functional enforced from input :
     Exchange-correlation= BEEF-VDW
                           (   1   4  43  14   2   0   0)
     Any further DFT definition will be discarded
     Please, verify this is what you really want

  @ DRIVER MODE: Connecting to
 qe_1139763_2840439.sched-torque.pace.gatech.edu8t80jx0u_scratch
  using UNIX socket
  @ DRIVER MODE: Message from server: STATUS
  @ DRIVER MODE: Message from server: INIT
  @ DRIVER MODE: Receiving replica           0          -1
  @ DRIVER MODE: Receiving encoded integer          25
  @ DRIVER MODE:  SCF:  T  FORCE:  T  STRESS:  F  VC:  F  ENSEMBLE:  F
  @ DRIVER MODE:  SCF:  T  FORCE:  T  STRESS:  F  VC:  F  ENSEMBLE:  F

     Using Slab Decomposition

     bravais-lattice index     =            0
     lattice parameter (alat)  =       1.8897  a.u.
     unit-cell volume          =    6658.9804 (a.u.)^3
     number of atoms/cell      =           53
     number of atomic types    =            5
     number of electrons       =       400.00
     number of Kohn-Sham states=          210
     kinetic-energy cutoff     =      29.3995  Ry
     charge density cutoff     =     293.9946  Ry
     scf convergence threshold =      7.3E-08
     mixing beta               =       0.0500
     number of iterations used =            8  plain     mixing
     Exchange-correlation= BEEF-VDW
                           (   1   4  43  14   2   0   0)

     celldm(1)=   1.889726  celldm(2)=   0.000000  celldm(3)=   0.000000
     celldm(4)=   0.000000  celldm(5)=   0.000000  celldm(6)=   0.000000

     crystal axes: (cart. coord. in units of alat)
               a(1) = (   6.579727   0.000000   0.000000 )
               a(2) = (  -0.000775   5.961596   0.000000 )
               a(3) = (   0.000000   0.000000  25.155947 )

     reciprocal axes: (cart. coord. in units 2 pi/alat)
               b(1) = (  0.151982  0.000020  0.000000 )
               b(2) = (  0.000000  0.167740  0.000000 )
               b(3) = (  0.000000  0.000000  0.039752 )

     PseudoPot. # 1 for C  read from file:
     /storage/coda1/p-amedford6/0/shared/rich_project_chbe-medford/medford-share/data/pseudos_module/espresso/nninc/pbe/van/C.UPF
     MD5 check sum: 1a69bf6b8db32088f5b2163dbdb77a27
     Pseudo is Ultrasoft, Zval =  4.0
     Generated by new atomic code, or converted to UPF format
     Using radial grid of  721 points,  4 beta functions with:
                l(1) =   0
                l(2) =   0
                l(3) =   1
                l(4) =   1
     Q(r) pseudized with  8 coefficients,  rinner =    0.800   0.800   0.800

     PseudoPot. # 2 for H  read from file:
     /storage/coda1/p-amedford6/0/shared/rich_project_chbe-medford/medford-share/data/pseudos_module/espresso/nninc/pbe/van/H.UPF
     MD5 check sum: b5ee9d7bfd3a09ee7748110bda690ff7
     Pseudo is Ultrasoft, Zval =  1.0
     Generated by new atomic code, or converted to UPF format
     Using radial grid of  615 points,  1 beta functions with:
                l(1) =   0
     Q(r) pseudized with  8 coefficients,  rinner =    0.800

     PseudoPot. # 3 for O  read from file:
     /storage/coda1/p-amedford6/0/shared/rich_project_chbe-medford/medford-share/data/pseudos_module/espresso/nninc/pbe/van/O.UPF
     MD5 check sum: 78c19812648e8988a0fe644b0f25305e
     Pseudo is Ultrasoft, Zval =  6.0
     Generated by new atomic code, or converted to UPF format
     Using radial grid of  737 points,  4 beta functions with:
                l(1) =   0
                l(2) =   0
                l(3) =   1
                l(4) =   1
     Q(r) pseudized with  8 coefficients,  rinner =    0.800   0.800   0.800

     PseudoPot. # 4 for Ti read from file:
     /storage/coda1/p-amedford6/0/shared/rich_project_chbe-medford/medford-share/data/pseudos_module/espresso/nninc/pbe/van/Ti.UPF
     MD5 check sum: 8e4df49b7f0d34bbd5052bf3f5ea0213
     Pseudo is Ultrasoft, Zval = 12.0
     Generated by new atomic code, or converted to UPF format
     Using radial grid of  851 points,  6 beta functions with:
                l(1) =   0
                l(2) =   0
                l(3) =   1
                l(4) =   1
                l(5) =   2
                l(6) =   2
     Q(r) pseudized with  8 coefficients,  rinner =    1.000   1.000   1.000
                                                       1.000   1.000

     PseudoPot. # 5 for N  read from file:
     /storage/coda1/p-amedford6/0/shared/rich_project_chbe-medford/medford-share/data/pseudos_module/espresso/nninc/pbe/van/N.UPF
     MD5 check sum: 90d10febe142ad51ac9d5be1deb811c4
     Pseudo is Ultrasoft, Zval =  5.0
     Generated by new atomic code, or converted to UPF format
     Using radial grid of  729 points,  4 beta functions with:
                l(1) =   0
                l(2) =   0
                l(3) =   1
                l(4) =   1
     Q(r) pseudized with  8 coefficients,  rinner =    0.800   0.800   0.800

     atomic species   valence    mass     pseudopotential
        C1             4.00    12.01100     C ( 1.00)
        H1             1.00     1.00800     H ( 1.00)
        O1             6.00    15.99900     O ( 1.00)
        Ti1           12.00    47.86700     Ti( 1.00)
        N1             5.00    14.00700     N ( 1.00)

     No symmetry found

   Cartesian axes

     site n.     atom                  positions (alat units)
         1           C1  tau(   1) = (   5.6818245   3.0934261  18.8613826  )
         2           H1  tau(   2) = (   0.9295697   3.0331078  18.1055300  )
         3           H1  tau(   3) = (   5.3049293   4.0639705  19.1352297  )
         4           O1  tau(   4) = (   3.2904802   0.0005063   4.7018136  )
         5           O1  tau(   5) = (   3.2900926   2.9813045   4.7018136  )
         6           O1  tau(   6) = (   1.3043587   1.4918075   6.0039043  )
         7           O1  tau(   7) = (   1.3039711   4.4726057   6.0039043  )
         8           O1  tau(   8) = (   5.2767064   1.4903225   6.0039473  )
         9           O1  tau(   9) = (   5.2763189   4.4711207   6.0039473  )
        10           O1  tau(  10) = (   3.2906025   0.0005020   7.3038282  )
        11           O1  tau(  11) = (   3.2902150   2.9813002   7.3038282  )
        12           O1  tau(  12) = (   0.0006271   0.0005054   7.9858123  )
        13           O1  tau(  13) = (   0.0002396   2.9813036   7.9858123  )
        14           O1  tau(  14) = (   4.5942328   1.4918067   9.2879030  )
        15           O1  tau(  15) = (   4.5938453   4.4726049   9.2879030  )
        16           O1  tau(  16) = (   1.9868534   1.4903216   9.2879459  )
        17           O1  tau(  17) = (   1.9864658   4.4711199   9.2879459  )
        18           O1  tau(  18) = (   6.5737290   0.0025997  10.6073112  )
        19           O1  tau(  19) = (   6.5745157   2.9846488  10.6292520  )
        20           O1  tau(  20) = (   3.2733922   2.9888808  11.3669225  )
        21           O1  tau(  21) = (   3.2734535   0.0083669  11.3733985  )
        22           O1  tau(  22) = (   1.2686495   4.4776606  12.6533150  )
        23           O1  tau(  23) = (   1.2691242   1.4995788  12.6525255  )
        24           O1  tau(  24) = (   5.2697113   4.4789153  12.6558726  )
        25           O1  tau(  25) = (   5.2698035   1.4991558  12.6558074  )
        26           O1  tau(  26) = (   3.2614338   2.9920807  13.9552461  )
        27           O1  tau(  27) = (   3.2541646   0.0113981  14.0020514  )
        28           O1  tau(  28) = (   6.5688946   0.0096870  14.6775192  )
        29           O1  tau(  29) = (   6.5667413   2.9928499  14.8718366  )
        30           O1  tau(  30) = (   4.5340645   4.4751187  16.1466513  )
        31           O1  tau(  31) = (   4.5349815   1.5188077  16.1513287  )
        32           O1  tau(  32) = (   2.0116004   1.5352794  16.1924295  )
        33           O1  tau(  33) = (   2.0125852   4.4566501  16.1924965  )
        34           O1  tau(  34) = (   6.5583959   0.0051910  17.1951124  )
        35           O1  tau(  35) = (   0.0128280   2.9917589  17.7791131  )
        36           Ti1 tau(  36) = (   0.0004258   2.9801865   6.0000000  )
        37           Ti1 tau(  37) = (   0.0000382   5.9609847   6.0000000  )
        38           Ti1 tau(  38) = (   3.2906075   1.4906267   6.0002472  )
        39           Ti1 tau(  39) = (   3.2902200   4.4714249   6.0002472  )
        40           Ti1 tau(  40) = (   3.3204229   0.0006979   9.1540291  )
        41           Ti1 tau(  41) = (   3.3226256   2.9815539   9.1563990  )
        42           Ti1 tau(  42) = (   0.0414996   4.4578595   9.2720048  )
        43           Ti1 tau(  43) = (   0.0419130   1.4910583   9.2667342  )
        44           Ti1 tau(  44) = (   6.5463313   0.0151476  12.4833176  )
        45           Ti1 tau(  45) = (   3.2510826   4.4792010  12.5152252  )
        46           Ti1 tau(  46) = (   3.2519543   1.5009035  12.5151888  )
        47           Ti1 tau(  47) = (   6.5510796   2.9946678  12.5453677  )
        48           Ti1 tau(  48) = (   3.2768179   3.0083465  15.7429562  )
        49           Ti1 tau(  49) = (   3.2517467   0.0179395  15.7976682  )
        50           Ti1 tau(  50) = (   6.5407926   4.5826425  15.9111250  )
        51           Ti1 tau(  51) = (   6.5448107   1.3670631  15.9596882  )
        52           N1  tau(  52) = (   4.6962475   1.0170953  19.6889386  )
        53           N1  tau(  53) = (   5.1479752   2.0001232  19.2934520  )

     number of k points=    10  Fermi-Dirac smearing, width (Ry)=  0.0073
                       cart. coord. in units 2pi/alat
        k(    1) = (   0.0000000   0.0000000   0.0000000), wk =   0.1250000
        k(    2) = (   0.0000000   0.0419351   0.0000000), wk =   0.2500000
        k(    3) = (   0.0000000  -0.0838702   0.0000000), wk =   0.1250000
        k(    4) = (   0.0379955   0.0000049   0.0000000), wk =   0.2500000
        k(    5) = (   0.0379955   0.0419400   0.0000000), wk =   0.2500000
        k(    6) = (   0.0379955  -0.0838652   0.0000000), wk =   0.2500000
        k(    7) = (   0.0379955  -0.0419301   0.0000000), wk =   0.2500000
        k(    8) = (  -0.0759910  -0.0000099   0.0000000), wk =   0.1250000
        k(    9) = (  -0.0759910   0.0419252   0.0000000), wk =   0.2500000
        k(   10) = (  -0.0759910  -0.0838800   0.0000000), wk =   0.1250000

     Initial potential from superposition of free atoms

     starting charge  383.99917, renormalised to  400.00000

     negative rho (up, down):  1.647E-02 0.000E+00

     %%%%%%%%%%%%%%%%%%%%%%%%%%%%%%%%%%%%%%%%%%%%%%%%%%%%%%%%%%%%%%%%%%%%%%%%
     %                                                                      %
     % You are using vdW-DF, which was implemented by the Thonhauser group. %
     % Please cite the following two papers that made this development      %
     % possible and the two reviews that describe the various versions:     %
     %                                                                      %
     %   T. Thonhauser et al., PRL 115, 136402 (2015).                      %
     %   T. Thonhauser et al., PRB 76, 125112 (2007).                       %
     %   K. Berland et al., Rep. Prog. Phys. 78, 066501 (2015).             %
     %   D.C. Langreth et al., J. Phys.: Condens. Matter 21, 084203 (2009). %
     %                                                                      %
     %                                                                      %
     % If you are calculating the stress with vdW-DF, please also cite:     %
     %                                                                      %
     %   R. Sabatini et al., J. Phys.: Condens. Matter 24, 424209 (2012).   %
     %                                                                      %
     %%%%%%%%%%%%%%%%%%%%%%%%%%%%%%%%%%%%%%%%%%%%%%%%%%%%%%%%%%%%%%%%%%%%%%%%

     Adding external electric field

     Computed dipole along edir(3) :
        Dipole              -12.5100 Ry au,        -31.7972 Debye
        Dipole field         -0.0236 Ry au,

        Potential amp.        2.1884 Ry
        Total length         46.3494 bohr

     Starting wfcs are  302 atomic wfcs
  @ DRIVER MODE: Message from server: STATUS
  @ DRIVER MODE: Message from server: POSDATA
  @ DRIVER MODE: Reading and sharing cell
  @ DRIVER MODE: Reading and sharing positions
  @ DRIVER MODE: Received positions

     Self-consistent Calculation

     iteration #  1     ecut=    29.40 Ry     beta= 0.05
     Davidson diagonalization with overlap
     c_bands:  3 eigenvalues not converged
     c_bands:  1 eigenvalues not converged
     c_bands:  4 eigenvalues not converged
     c_bands:  3 eigenvalues not converged
     c_bands:  5 eigenvalues not converged
     c_bands:  5 eigenvalues not converged
     c_bands:  2 eigenvalues not converged
     c_bands:  1 eigenvalues not converged
     ethr =  1.00E-05,  avg # of iterations = 20.9

[...]

     total energy              =   -2397.09996147 Ry
     estimated scf accuracy    <    6493.74855930 Ry

     iteration #  2     ecut=    29.40 Ry     beta= 0.05
     Davidson diagonalization with overlap
     ethr =  1.00E-02,  avg # of iterations = 23.6

[...]

     iteration # 76     ecut=    29.40 Ry     beta= 0.05
     Davidson diagonalization with overlap
     c_bands:  1 eigenvalues not converged
     ethr =  2.31E-10,  avg # of iterations = 15.1

[...]

     total energy              =   -2970.16554948 Ry
     estimated scf accuracy    <       0.00000008 Ry

     iteration # 81     ecut=    29.40 Ry     beta= 0.05
     Davidson diagonalization with overlap
     ethr =  1.91E-11,  avg # of iterations =  5.1

     negative rho (up, down):  1.635E-02 0.000E+00

     Adding external electric field

     Computed dipole along edir(3) :
        Dipole                0.8234 Ry au,          2.0928 Debye
        Dipole field          0.0016 Ry au,

        Potential amp.       -0.1440 Ry
        Total length         46.3494 bohr

     End of self-consistent calculation

          k = 0.0000 0.0000 0.0000 ( 18029 PWs)   bands (ev):

   -55.5645 -55.5341 -55.5284 -55.4998 -55.4607 -55.4543 -55.4417 -55.4078
   -55.4024 -55.3882 -55.3682 -55.3603 -55.3474 -55.3135 -54.6272 -54.5931
   -32.1346 -32.0660 -32.0295 -31.9382 -31.8849 -31.8778 -31.8739 -31.8569
   -31.8225 -31.8130 -31.7768 -31.7756 -31.7688 -31.7491 -31.7402 -31.7181
   -31.7153 -31.6995 -31.6910 -31.6882 -31.6864 -31.6796 -31.6592 -31.6504
   -31.6495 -31.6311 -31.6299 -31.6038 -31.5924 -31.5914 -31.5758 -31.5534
   -31.5531 -31.5512 -31.5428 -31.5319 -31.5284 -31.5013 -31.4916 -31.4825
   -31.4711 -31.4580 -31.0395 -30.9364 -30.9148 -30.8557 -30.7694 -30.6583
   -21.0971 -20.2998 -16.3895 -16.1335 -15.9865 -15.8878 -15.7821 -15.6462
   -15.6098 -15.5033 -15.3735 -15.2906 -15.2378 -15.2258 -15.2118 -15.2010
   -15.1831 -15.1809 -15.1215 -15.0919 -15.0671 -15.0528 -15.0447 -15.0094
   -14.9540 -14.9473 -14.9299 -14.7936 -14.7256 -14.6660 -14.3625 -14.2536
   -13.1278 -13.0083  -8.5293  -6.8010  -5.6621  -4.5328  -4.0273  -3.7462
    -3.7175  -3.5721  -3.4973  -3.4792  -3.4277  -3.3090  -3.1569  -2.9957
    -2.9113  -2.8481  -2.8200  -2.7698  -2.7306  -2.6999  -2.5252  -2.5125
    -2.4817  -2.4561  -2.4385  -2.4325  -2.4021  -2.3347  -2.3144  -2.3054
    -2.2809  -2.1480  -2.1302  -2.0335  -1.9904  -1.9617  -1.9028  -1.8883
    -1.8834  -1.8532  -1.8326  -1.8189  -1.8146  -1.7751  -1.5914  -1.5900
    -1.4714  -1.4278  -1.3453  -1.2962  -1.1243  -1.1224  -1.0680  -1.0495
    -1.0097  -0.9697  -0.9653  -0.9227  -0.8076  -0.7214  -0.6742  -0.6036
    -0.5651  -0.5004  -0.4654  -0.3617  -0.3528  -0.3385  -0.3220  -0.2023
    -0.1351  -0.0951  -0.0633  -0.0183  -0.0056   0.0940   0.1121   0.1942
     0.1984   0.2581   0.2602   0.3619   0.3825   0.3833   0.4081   0.4277
     0.5149   0.5867   0.5914   0.6063   0.7758   0.9657   0.9934   1.0364
     1.2861   1.3886   1.3989   1.5350   1.5579   1.9859   2.0413   3.5313
     3.5995   3.6388   3.6562   3.6712   3.7384   3.9940   4.0209   4.0392
     4.0544   4.0630

[...]

          k = 0.0380-0.0419 0.0000 ( 17876 PWs)   bands (ev):

[...]

          k =-0.0760-0.0000 0.0000 ( 17886 PWs)   bands (ev):

[...]

          k =-0.0760-0.0839 0.0000 ( 17948 PWs)   bands (ev):

   -55.5466 -55.5461 -55.5188 -55.5150 -55.4573 -55.4467 -55.4352 -55.4153
   -55.3950 -55.3862 -55.3841 -55.3632 -55.3314 -55.3295 -54.6101 -54.6100
   -31.9869 -31.9383 -31.9369 -31.8574 -31.8463 -31.8427 -31.8238 -31.8117
   -31.8041 -31.7837 -31.7675 -31.7650 -31.7601 -31.7206 -31.7181 -31.7076
   -31.7029 -31.7018 -31.6925 -31.6873 -31.6863 -31.6856 -31.6727 -31.6504
   -31.6476 -31.6467 -31.6444 -31.6416 -31.6377 -31.6355 -31.6330 -31.6080
   -31.6066 -31.5936 -31.5846 -31.5841 -31.5730 -31.5567 -31.5552 -31.5445
   -31.5176 -31.5147 -30.9274 -30.9273 -30.8522 -30.8521 -30.8126 -30.8126
   -21.0950 -20.2994 -15.9429 -15.8052 -15.7454 -15.5684 -15.5606 -15.5536
   -15.5283 -15.3937 -15.3812 -15.3558 -15.3283 -15.3156 -15.2995 -15.2900
   -15.2615 -15.1571 -15.1554 -15.1464 -15.1440 -15.0820 -15.0787 -15.0640
   -15.0475 -15.0076 -15.0071 -14.9940 -14.9900 -14.8251 -14.7258 -14.2611
   -13.1096 -13.1088  -8.5192  -6.8050  -5.6694  -4.5131  -3.9982  -3.6483
    -3.0826  -3.0392  -3.0073  -2.7824  -2.7670  -2.7280  -2.6937  -2.6363
    -2.5620  -2.5511  -2.5469  -2.4794  -2.4714  -2.4605  -2.4564  -2.4450
    -2.3933  -2.3895  -2.3537  -2.3445  -2.2981  -2.2723  -2.2611  -2.2368
    -2.2266  -2.2263  -2.2050  -2.1884  -2.1736  -2.1678  -2.0596  -2.0064
    -1.9228  -1.8950  -1.8064  -1.7907  -1.7759  -1.6986  -1.6629  -1.6401
    -1.5789  -1.5745  -1.5032  -1.3816  -1.3622  -1.3548  -1.2846  -1.2259
    -1.1943  -1.1517  -1.1014  -1.0460  -1.0299  -0.9450  -0.8925  -0.8740
    -0.7677  -0.7558  -0.7032  -0.5945  -0.5607  -0.5589  -0.5542  -0.5422
    -0.4658  -0.4479  -0.3991  -0.3583  -0.3094  -0.2845  -0.2643  -0.0642
    -0.0507   0.0193   0.1211   0.1593   0.3345   0.3479   0.3848   0.4573
     0.5041   0.5145   0.5970   0.7072   0.7128   0.7493   0.8227   0.8616
     0.8700   0.9084   1.4876   1.7506   1.7513   1.8549   1.8581   3.6828
     3.7689   3.7854   3.8157   3.8637   3.9547   4.0399   4.0572   4.0842
     4.0925   4.1692

     the Fermi energy is     3.5872 ev

!    total energy              =   -2970.16555592 Ry
     estimated scf accuracy    <       0.00000003 Ry
     smearing contrib. (-TS)   =      -0.03780474 Ry
     internal energy E=F+TS    =   -2970.12775117 Ry

     The total energy is F=E-TS. E is the sum of the following terms:
     one-electron contribution =  -23546.55440683 Ry
     hartree contribution      =   11865.03374507 Ry
     xc contribution           =    -491.70517230 Ry
     ewald contribution        =    9203.09680347 Ry
     electric field correction =       0.00127941 Ry

     convergence has been achieved in  81 iterations

     Forces acting on atoms (cartesian axes, Ry/au):

     atom    1 type  1   force =     0.00048005    0.00003503    0.00075173
     atom    2 type  2   force =     0.00065926   -0.00028319    0.00025672
     atom    3 type  2   force =     0.00005296   -0.00033901   -0.00023030
     atom    4 type  3   force =     0.00006367   -0.00000823    0.10504516
     atom    5 type  3   force =     0.00004479    0.00001675    0.10504935
     atom    6 type  3   force =    -0.06776977   -0.00001983   -0.02683426
     atom    7 type  3   force =    -0.06780045   -0.00059563   -0.02686961
     atom    8 type  3   force =     0.06764801    0.00042946   -0.02689420
     atom    9 type  3   force =     0.06767493   -0.00016146   -0.02692716
     atom   10 type  3   force =     0.00072210    0.00002245    0.05053162
     atom   11 type  3   force =     0.00077564    0.00000404    0.05060370
     atom   12 type  3   force =     0.00061142   -0.00003266   -0.02310519
     atom   13 type  3   force =     0.00057478   -0.00017873   -0.02183542
     atom   14 type  3   force =    -0.01559126   -0.00018260    0.00500386
     atom   15 type  3   force =    -0.01565402    0.00008237    0.00497773
     atom   16 type  3   force =     0.01436601    0.00025431    0.00478103
     atom   17 type  3   force =     0.01444012    0.00059315    0.00479370
     atom   18 type  3   force =    -0.00007081    0.00000925   -0.00007625
     atom   19 type  3   force =    -0.00013506   -0.00000261   -0.00020449
     atom   20 type  3   force =    -0.00012067    0.00007939   -0.00008678
     atom   21 type  3   force =     0.00004486   -0.00004493    0.00010302
     atom   22 type  3   force =     0.00025975    0.00027006    0.00004261
     atom   23 type  3   force =     0.00001252    0.00004983    0.00004846
     atom   24 type  3   force =    -0.00017418    0.00013712    0.00022181
     atom   25 type  3   force =     0.00007250   -0.00011987    0.00007630
     atom   26 type  3   force =     0.00023231    0.00066609    0.00002768
     atom   27 type  3   force =    -0.00009315   -0.00007413   -0.00012062
     atom   28 type  3   force =    -0.00007742    0.00006297   -0.00003982
     atom   29 type  3   force =     0.00031214    0.00036489    0.00021261
     atom   30 type  3   force =     0.00070036    0.00042129   -0.00000669
     atom   31 type  3   force =    -0.00028134    0.00040824   -0.00019059
     atom   32 type  3   force =     0.00056308    0.00019649   -0.00017013
     atom   33 type  3   force =    -0.00058971    0.00040604    0.00010487
     atom   34 type  3   force =     0.00000146   -0.00059973    0.00006545
     atom   35 type  3   force =    -0.00087782    0.00015269   -0.00094333
     atom   36 type  4   force =    -0.00021792    0.00011009    0.09293901
     atom   37 type  4   force =    -0.00014893   -0.00012615    0.09675943
     atom   38 type  4   force =    -0.00010467    0.00036205   -0.18354554
     atom   39 type  4   force =    -0.00004557   -0.00058882   -0.18368039
     atom   40 type  4   force =     0.00000588    0.00002323    0.00016573
     atom   41 type  4   force =     0.00018713   -0.00000287    0.00006934
     atom   42 type  4   force =    -0.00036810    0.00011084   -0.00012295
     atom   43 type  4   force =    -0.00024408    0.00030663    0.00015017
     atom   44 type  4   force =     0.00018312    0.00018481    0.00033184
     atom   45 type  4   force =    -0.00007421   -0.00001006    0.00009282
     atom   46 type  4   force =    -0.00010023    0.00010045    0.00039931
     atom   47 type  4   force =    -0.00008781   -0.00017156   -0.00016222
     atom   48 type  4   force =    -0.00008094   -0.00744592   -0.00029217
     atom   49 type  4   force =    -0.00010780    0.00472927    0.00007435
     atom   50 type  4   force =     0.00004516   -0.00012523   -0.00036368
     atom   51 type  4   force =     0.00006380   -0.00021316   -0.00033212
     atom   52 type  5   force =    -0.00097991   -0.00049025   -0.00089679
     atom   53 type  5   force =     0.00099805    0.00122736    0.00025128

     Total force =     0.368715     Total SCF correction =     0.000401
  @ DRIVER MODE: Message from server: STATUS
  @ DRIVER MODE: Message from server: GETFORCE
  @ DRIVER MODE: Returning v,forces,stress,ensemble

     Writing output data file ./calc.save/
  @ DRIVER MODE: Message from server: EXIT
  @ DRIVE MODE: Exiting

     General routines

     Parallel routines

   This run was terminated on:  15:22:39  14Sep2021

   JOB DONE.