     Program PWSCF v.6.7GPU starts on 23Sep2021 at  8: 9:54

     R & G space division:  proc/nbgrp/npool/nimage =       8
     Reading input from /storage/home/hcoda1/3/ntian30/research/carbon/CxH_vib/H2O_calc/ads_slab/CH3N2HHO_a/out_0025/pw.inp
Warning: card &CELL ignored
Warning: card   CELL_DYNAMICS='IPI', ignored
Warning: card / ignored

     Current dimensions of program PWSCF are:
     Max number of different atomic species (ntypx) = 10
     Max number of k-points (npk) =  40000
     Max angular momentum in pseudopotentials (lmaxx) =  3
     Presently no symmetry can be used with electric field

     Message from routine cell_base_init:
     DEPRECATED: use true lattice parameter, not A to a.u. conversion factor

     IMPORTANT: XC functional enforced from input :
     Exchange-correlation= BEEF-VDW
                           (   1   4  43  14   2   0   0)
     Any further DFT definition will be discarded
     Please, verify this is what you really want

  @ DRIVER MODE: Connecting to
 qe_1139763_2941009.sched-torque.pace.gatech.edufc3y3nhs_scratch
  using UNIX socket
  @ DRIVER MODE: Message from server: STATUS
  @ DRIVER MODE: Message from server: INIT
  @ DRIVER MODE: Receiving replica           0          -1
  @ DRIVER MODE: Receiving encoded integer          25
  @ DRIVER MODE:  SCF:  T  FORCE:  T  STRESS:  F  VC:  F  ENSEMBLE:  F
  @ DRIVER MODE:  SCF:  T  FORCE:  T  STRESS:  F  VC:  F  ENSEMBLE:  F

     Using Slab Decomposition

     bravais-lattice index     =            0
     lattice parameter (alat)  =       1.8897  a.u.
     unit-cell volume          =    6658.9804 (a.u.)^3
     number of atoms/cell      =           56
     number of atomic types    =            5
     number of electrons       =       403.00
     number of Kohn-Sham states=          211
     kinetic-energy cutoff     =      29.3995  Ry
     charge density cutoff     =     293.9946  Ry
     scf convergence threshold =      7.3E-08
     mixing beta               =       0.0500
     number of iterations used =            8  plain     mixing
     Exchange-correlation= BEEF-VDW
                           (   1   4  43  14   2   0   0)

     celldm(1)=   1.889726  celldm(2)=   0.000000  celldm(3)=   0.000000
     celldm(4)=   0.000000  celldm(5)=   0.000000  celldm(6)=   0.000000

     crystal axes: (cart. coord. in units of alat)
               a(1) = (   6.579727   0.000000   0.000000 )
               a(2) = (  -0.000775   5.961596   0.000000 )
               a(3) = (   0.000000   0.000000  25.155947 )

     reciprocal axes: (cart. coord. in units 2 pi/alat)
               b(1) = (  0.151982  0.000020  0.000000 )
               b(2) = (  0.000000  0.167740  0.000000 )
               b(3) = (  0.000000  0.000000  0.039752 )

     PseudoPot. # 1 for Ti read from file:
     /storage/coda1/p-amedford6/0/shared/rich_project_chbe-medford/medford-share/data/pseudos_module/espresso/nninc/pbe/van/Ti.UPF
     MD5 check sum: 8e4df49b7f0d34bbd5052bf3f5ea0213
     Pseudo is Ultrasoft, Zval = 12.0
     Generated by new atomic code, or converted to UPF format
     Using radial grid of  851 points,  6 beta functions with:
                l(1) =   0
                l(2) =   0
                l(3) =   1
                l(4) =   1
                l(5) =   2
                l(6) =   2
     Q(r) pseudized with  8 coefficients,  rinner =    1.000   1.000   1.000
                                                       1.000   1.000

     PseudoPot. # 2 for O  read from file:
     /storage/coda1/p-amedford6/0/shared/rich_project_chbe-medford/medford-share/data/pseudos_module/espresso/nninc/pbe/van/O.UPF
     MD5 check sum: 78c19812648e8988a0fe644b0f25305e
     Pseudo is Ultrasoft, Zval =  6.0
     Generated by new atomic code, or converted to UPF format
     Using radial grid of  737 points,  4 beta functions with:
                l(1) =   0
                l(2) =   0
                l(3) =   1
                l(4) =   1
     Q(r) pseudized with  8 coefficients,  rinner =    0.800   0.800   0.800

     PseudoPot. # 3 for N  read from file:
     /storage/coda1/p-amedford6/0/shared/rich_project_chbe-medford/medford-share/data/pseudos_module/espresso/nninc/pbe/van/N.UPF
     MD5 check sum: 90d10febe142ad51ac9d5be1deb811c4
     Pseudo is Ultrasoft, Zval =  5.0
     Generated by new atomic code, or converted to UPF format
     Using radial grid of  729 points,  4 beta functions with:
                l(1) =   0
                l(2) =   0
                l(3) =   1
                l(4) =   1
     Q(r) pseudized with  8 coefficients,  rinner =    0.800   0.800   0.800

     PseudoPot. # 4 for C  read from file:
     /storage/coda1/p-amedford6/0/shared/rich_project_chbe-medford/medford-share/data/pseudos_module/espresso/nninc/pbe/van/C.UPF
     MD5 check sum: 1a69bf6b8db32088f5b2163dbdb77a27
     Pseudo is Ultrasoft, Zval =  4.0
     Generated by new atomic code, or converted to UPF format
     Using radial grid of  721 points,  4 beta functions with:
                l(1) =   0
                l(2) =   0
                l(3) =   1
                l(4) =   1
     Q(r) pseudized with  8 coefficients,  rinner =    0.800   0.800   0.800

     PseudoPot. # 5 for H  read from file:
     /storage/coda1/p-amedford6/0/shared/rich_project_chbe-medford/medford-share/data/pseudos_module/espresso/nninc/pbe/van/H.UPF
     MD5 check sum: b5ee9d7bfd3a09ee7748110bda690ff7
     Pseudo is Ultrasoft, Zval =  1.0
     Generated by new atomic code, or converted to UPF format
     Using radial grid of  615 points,  1 beta functions with:
                l(1) =   0
     Q(r) pseudized with  8 coefficients,  rinner =    0.800

     atomic species   valence    mass     pseudopotential
        Ti1           12.00    47.86700     Ti( 1.00)
        O1             6.00    15.99900     O ( 1.00)
        N1             5.00    14.00700     N ( 1.00)
        C1             4.00    12.01100     C ( 1.00)
        H1             1.00     1.00800     H ( 1.00)

     No symmetry found

   Cartesian axes

     site n.     atom                  positions (alat units)
         1           Ti1 tau(   1) = (   0.0004258   2.9801865   6.0000000  )
         2           Ti1 tau(   2) = (   3.2906075   1.4906267   6.0002472  )
         3           O1  tau(   3) = (   0.0006271   0.0005054   7.9858123  )
         4           O1  tau(   4) = (   3.2906025   0.0005020   7.3038282  )
         5           O1  tau(   5) = (   4.5942328   1.4918067   9.2879030  )
         6           O1  tau(   6) = (   1.9868534   1.4903216   9.2879459  )
         7           Ti1 tau(   7) = (   3.2907910   2.8959150   9.1758416  )
         8           Ti1 tau(   8) = (   0.0015273   1.4827037   9.2680791  )
         9           O1  tau(   9) = (   3.2827749   5.9542966  11.3123607  )
        10           O1  tau(  10) = (   0.0116148   5.9584955  10.6183126  )
        11           O1  tau(  11) = (   1.2790800   1.4852124  12.6463597  )
        12           O1  tau(  12) = (   5.2943908   1.4901875  12.6352807  )
        13           Ti1 tau(  13) = (   6.5507123   3.1127926  12.6266869  )
        14           Ti1 tau(  14) = (   3.2873181   1.3120036  12.6863921  )
        15           O1  tau(  15) = (   6.5656690   0.0172326  14.6855350  )
        16           O1  tau(  16) = (   3.2842416   0.0515509  13.9244022  )
        17           O1  tau(  17) = (   4.5437539   1.5966601  16.0680646  )
        18           O1  tau(  18) = (   2.0303991   1.5956099  16.0781401  )
        19           Ti1 tau(  19) = (   3.2961159   3.0594788  15.6697774  )
        20           Ti1 tau(  20) = (   6.5318457   1.5630605  15.7780207  )
        21           O1  tau(  21) = (   3.2904802   0.0005063   4.7018136  )
        22           O1  tau(  22) = (   6.5726385   0.0820865  17.2550913  )
        23           O1  tau(  23) = (   1.3043587   1.4918075   6.0039043  )
        24           O1  tau(  24) = (   5.2767064   1.4903225   6.0039473  )
        25           Ti1 tau(  25) = (   0.0000382   5.9609847   6.0000000  )
        26           Ti1 tau(  26) = (   3.2902200   4.4714249   6.0002472  )
        27           O1  tau(  27) = (   0.0002396   2.9813036   7.9858123  )
        28           O1  tau(  28) = (   3.2902150   2.9813002   7.3038282  )
        29           O1  tau(  29) = (   4.5938453   4.4726049   9.2879030  )
        30           O1  tau(  30) = (   1.9864658   4.4711199   9.2879459  )
        31           Ti1 tau(  31) = (   3.2891106   5.8743827   9.1763621  )
        32           Ti1 tau(  32) = (   0.0006254   4.4649316   9.2693709  )
        33           O1  tau(  33) = (   3.2807365   3.0201584  11.2787527  )
        34           O1  tau(  34) = (   0.0092240   2.9805883  10.6323155  )
        35           O1  tau(  35) = (   1.2751182   4.4744369  12.6357194  )
        36           O1  tau(  36) = (   5.2842299   4.4734050  12.6250694  )
        37           Ti1 tau(  37) = (   0.0094520   0.1224552  12.5707632  )
        38           Ti1 tau(  38) = (   3.2670701   4.4034752  12.4162930  )
        39           O1  tau(  39) = (   6.5622168   3.0106679  14.6773207  )
        40           O1  tau(  40) = (   3.2891587   3.0115246  13.8909557  )
        41           O1  tau(  41) = (   4.5321968   4.4927823  16.1577793  )
        42           O1  tau(  42) = (   2.0250423   4.4919485  16.1304878  )
        43           Ti1 tau(  43) = (   3.2250977   0.0853664  16.3312049  )
        44           Ti1 tau(  44) = (   6.5532039   4.7053171  16.1332850  )
        45           O1  tau(  45) = (   3.2900926   2.9813045   4.7018136  )
        46           O1  tau(  46) = (   1.3039711   4.4726057   6.0039043  )
        47           O1  tau(  47) = (   5.2763189   4.4711207   6.0039473  )
        48           N1  tau(  48) = (   0.0650423   2.5931692  18.6004617  )
        49           N1  tau(  49) = (   0.0051179   2.9528117  17.3995676  )
        50           C1  tau(  50) = (   0.1360749   3.5155665  19.7334966  )
        51           H1  tau(  51) = (   6.1082608   4.3937080  19.5213757  )
        52           H1  tau(  52) = (   6.3528389   3.0028702  20.6266755  )
        53           H1  tau(  53) = (   1.1699357   3.8405576  19.8861820  )
        54           H1  tau(  54) = (   0.1060244   1.5775976  18.7788705  )
        55           O1  tau(  55) = (   3.2396048   0.1449850  18.2004881  )
        56           H1  tau(  56) = (   3.4111690   5.2654565  18.6466900  )

     number of k points=    10  Fermi-Dirac smearing, width (Ry)=  0.0073
                       cart. coord. in units 2pi/alat
        k(    1) = (   0.0000000   0.0000000   0.0000000), wk =   0.1250000
        k(    2) = (   0.0000000   0.0419351   0.0000000), wk =   0.2500000
        k(    3) = (   0.0000000  -0.0838702   0.0000000), wk =   0.1250000
        k(    4) = (   0.0379955   0.0000049   0.0000000), wk =   0.2500000
        k(    5) = (   0.0379955   0.0419400   0.0000000), wk =   0.2500000
        k(    6) = (   0.0379955  -0.0838652   0.0000000), wk =   0.2500000
        k(    7) = (   0.0379955  -0.0419301   0.0000000), wk =   0.2500000
        k(    8) = (  -0.0759910  -0.0000099   0.0000000), wk =   0.1250000
        k(    9) = (  -0.0759910   0.0419252   0.0000000), wk =   0.2500000
        k(   10) = (  -0.0759910  -0.0838800   0.0000000), wk =   0.1250000

     Initial potential from superposition of free atoms

     starting charge  386.99914, renormalised to  403.00000

     negative rho (up, down):  1.429E-02 0.000E+00

     %%%%%%%%%%%%%%%%%%%%%%%%%%%%%%%%%%%%%%%%%%%%%%%%%%%%%%%%%%%%%%%%%%%%%%%%
     %                                                                      %
     % You are using vdW-DF, which was implemented by the Thonhauser group. %
     % Please cite the following two papers that made this development      %
     % possible and the two reviews that describe the various versions:     %
     %                                                                      %
     %   T. Thonhauser et al., PRL 115, 136402 (2015).                      %
     %   T. Thonhauser et al., PRB 76, 125112 (2007).                       %
     %   K. Berland et al., Rep. Prog. Phys. 78, 066501 (2015).             %
     %   D.C. Langreth et al., J. Phys.: Condens. Matter 21, 084203 (2009). %
     %                                                                      %
     %                                                                      %
     % If you are calculating the stress with vdW-DF, please also cite:     %
     %                                                                      %
     %   R. Sabatini et al., J. Phys.: Condens. Matter 24, 424209 (2012).   %
     %                                                                      %
     %%%%%%%%%%%%%%%%%%%%%%%%%%%%%%%%%%%%%%%%%%%%%%%%%%%%%%%%%%%%%%%%%%%%%%%%

     Adding external electric field

     Computed dipole along edir(3) :
        Dipole              -12.7219 Ry au,        -32.3358 Debye
        Dipole field         -0.0240 Ry au,

        Potential amp.        2.2255 Ry
        Total length         46.3494 bohr

     Starting wfcs are  305 atomic wfcs
  @ DRIVER MODE: Message from server: STATUS
  @ DRIVER MODE: Message from server: POSDATA
  @ DRIVER MODE: Reading and sharing cell
  @ DRIVER MODE: Reading and sharing positions
  @ DRIVER MODE: Received positions

     Self-consistent Calculation

     iteration #  1     ecut=    29.40 Ry     beta= 0.05
     Davidson diagonalization with overlap
     c_bands:  5 eigenvalues not converged
     c_bands:  4 eigenvalues not converged
     c_bands:  3 eigenvalues not converged
     c_bands:  4 eigenvalues not converged
     c_bands:  5 eigenvalues not converged
     c_bands:  4 eigenvalues not converged
     c_bands:  1 eigenvalues not converged
     c_bands:  4 eigenvalues not converged
     ethr =  1.00E-05,  avg # of iterations = 25.4

[...]

     total energy              =   -2361.23206454 Ry
     estimated scf accuracy    <    6935.99368831 Ry

     iteration #  2     ecut=    29.40 Ry     beta= 0.05
     Davidson diagonalization with overlap
     ethr =  1.00E-02,  avg # of iterations = 24.3

[...]

     iteration # 59     ecut=    29.40 Ry     beta= 0.05
     Davidson diagonalization with overlap
     c_bands:  1 eigenvalues not converged
     ethr =  2.14E-08,  avg # of iterations =  3.1

[...]

     total energy              =   -2973.99527593 Ry
     estimated scf accuracy    <       0.00000021 Ry

     iteration # 78     ecut=    29.40 Ry     beta= 0.05
     Davidson diagonalization with overlap
     ethr =  2.65E-11,  avg # of iterations =  6.2

     negative rho (up, down):  1.501E-02 0.000E+00

     Adding external electric field

     Computed dipole along edir(3) :
        Dipole                1.1925 Ry au,          3.0310 Debye
        Dipole field          0.0023 Ry au,

        Potential amp.       -0.2086 Ry
        Total length         46.3494 bohr

     End of self-consistent calculation

          k = 0.0000 0.0000 0.0000 ( 18029 PWs)   bands (ev):

   -55.7011 -55.6672 -55.3867 -55.3527 -55.2779 -55.1700 -55.1149 -55.0371
   -54.9910 -54.9589 -54.8305 -54.7365 -54.6957 -54.6249 -54.5283 -54.4943
   -32.1610 -31.9954 -31.9715 -31.8623 -31.8562 -31.7845 -31.7629 -31.6522
   -31.6072 -31.6049 -31.5939 -31.5401 -31.5376 -31.5184 -31.4973 -31.4927
   -31.4890 -31.3956 -31.3872 -31.3712 -31.3357 -31.3166 -31.3061 -31.2952
   -31.2753 -31.2715 -31.2380 -31.2003 -31.1767 -31.1752 -31.1657 -31.1477
   -31.0974 -31.0305 -30.9919 -30.9527 -30.9507 -30.9276 -30.9209 -30.9067
   -30.8960 -30.8579 -30.8388 -30.8351 -30.8346 -30.7458 -30.6607 -30.5488
   -19.0755 -16.2310 -16.0576 -15.7662 -15.5954 -15.3883 -15.3597 -15.2645
   -15.1617 -15.1448 -15.0411 -14.9761 -14.8913 -14.8222 -14.8028 -14.7541
   -14.7243 -14.6964 -14.6817 -14.6723 -14.6340 -14.6021 -14.5852 -14.5095
   -14.4644 -14.4461 -14.4187 -14.3538 -14.2577 -13.9920 -13.9290 -13.0260
   -12.9126 -12.5737  -9.3425  -6.2020  -4.7746  -4.7279  -3.7781  -3.5366
    -3.4240  -3.3310  -3.1226  -3.0732  -2.8945  -2.7743  -2.7539  -2.5336
    -2.5059  -2.3941  -2.3791  -2.3362  -2.3262  -2.2921  -2.2256  -2.1973
    -2.1254  -2.0652  -2.0382  -2.0044  -1.9515  -1.8967  -1.8913  -1.8774
    -1.8201  -1.7526  -1.7240  -1.7148  -1.6709  -1.6074  -1.5987  -1.5823
    -1.5633  -1.5420  -1.3987  -1.2926  -1.2316  -1.1931  -1.1436  -1.0868
    -1.0342  -1.0207  -0.9203  -0.8405  -0.7990  -0.6818  -0.6539  -0.6135
    -0.5290  -0.5046  -0.4620  -0.4429  -0.4015  -0.3944  -0.2895  -0.2720
    -0.2379  -0.1951  -0.0760  -0.0282  -0.0200   0.0614   0.1206   0.2008
     0.2422   0.2578   0.2824   0.3683   0.3961   0.4135   0.4215   0.4939
     0.5128   0.5616   0.6152   0.6978   0.7103   0.7502   0.7846   0.7976
     0.9274   0.9357   1.0253   1.0494   1.0603   1.1247   1.2189   1.2786
     1.3903   1.4042   1.4969   1.4970   1.5175   1.7160   1.8904   2.0492
     2.0895   3.5002   3.6195   3.6816   3.7193   3.9301   3.9417   4.2044
     4.2799   4.2829   4.3729

[...]

          k = 0.0380-0.0419 0.0000 ( 17876 PWs)   bands (ev):

[...]

          k =-0.0760-0.0000 0.0000 ( 17886 PWs)   bands (ev):

[...]

          k =-0.0760-0.0839 0.0000 ( 17948 PWs)   bands (ev):

   -55.6843 -55.6839 -55.3723 -55.3670 -55.2773 -55.1642 -55.1207 -55.0293
   -54.9985 -54.9594 -54.8284 -54.7342 -54.6976 -54.6271 -54.5117 -54.5107
   -31.9813 -31.9809 -31.9766 -31.9765 -31.8079 -31.8074 -31.6905 -31.6849
   -31.5705 -31.5664 -31.5649 -31.5587 -31.5542 -31.4935 -31.4833 -31.4682
   -31.4352 -31.3861 -31.3844 -31.3618 -31.3468 -31.3467 -31.3346 -31.3345
   -31.2582 -31.2445 -31.2378 -31.2336 -31.2060 -31.1947 -31.1655 -31.1563
   -31.0895 -31.0402 -31.0357 -30.9923 -30.9591 -30.9543 -30.9532 -30.9116
   -30.8735 -30.8478 -30.8471 -30.8380 -30.7422 -30.7409 -30.7038 -30.7029
   -19.0722 -16.2239 -15.4723 -15.4620 -15.3180 -15.3086 -15.2309 -15.1414
   -15.1232 -15.0944 -15.0457 -15.0235 -14.9422 -14.8859 -14.8665 -14.8410
   -14.8223 -14.8081 -14.7503 -14.7472 -14.7317 -14.7182 -14.6521 -14.6137
   -14.5834 -14.5770 -14.4687 -14.3893 -14.3049 -14.1561 -14.0657 -13.0156
   -13.0150 -12.5741  -9.3491  -6.1946  -4.7681  -4.7248  -3.7716  -3.3949
    -2.6509  -2.6077  -2.5169  -2.4390  -2.4357  -2.3846  -2.3839  -2.3023
    -2.2498  -2.1918  -2.1677  -2.1595  -2.1590  -2.1278  -2.1188  -2.0644
    -2.0595  -2.0419  -2.0390  -1.9826  -1.9577  -1.9434  -1.8916  -1.8363
    -1.7856  -1.7491  -1.7273  -1.6872  -1.6680  -1.6651  -1.5803  -1.5665
    -1.5383  -1.5107  -1.4659  -1.4356  -1.3804  -1.3586  -1.3022  -1.1748
    -1.1033  -1.0178  -0.9124  -0.8910  -0.8581  -0.8248  -0.8122  -0.7896
    -0.7568  -0.6414  -0.6310  -0.5815  -0.5495  -0.5214  -0.5042  -0.4763
    -0.4537  -0.3525  -0.3104  -0.2810  -0.2409  -0.2069  -0.1787  -0.1455
    -0.0941  -0.0548  -0.0449  -0.0136   0.0203   0.0347   0.1879   0.2674
     0.4003   0.4286   0.5186   0.5653   0.5973   0.6266   0.6552   0.7741
     0.8216   0.8441   0.8807   0.9023   1.0009   1.0977   1.1181   1.1862
     1.2208   1.3259   1.3568   1.4445   1.4958   1.8789   1.8867   1.9077
     1.9083   3.3778   4.0453   4.0482   4.0598   4.0731   4.2383   4.2411
     4.3418   4.3659   4.5036

     the Fermi energy is     3.4567 ev

!    total energy              =   -2973.99528905 Ry
     estimated scf accuracy    <       0.00000007 Ry
     smearing contrib. (-TS)   =      -0.01689209 Ry
     internal energy E=F+TS    =   -2973.97839695 Ry

     The total energy is F=E-TS. E is the sum of the following terms:
     one-electron contribution =  -23437.81663177 Ry
     hartree contribution      =   11816.35245756 Ry
     xc contribution           =    -493.95372835 Ry
     ewald contribution        =    9141.43682208 Ry
     electric field correction =       0.00268353 Ry

     convergence has been achieved in  78 iterations

     Forces acting on atoms (cartesian axes, Ry/au):

     atom    1 type  1   force =     0.00012050   -0.00023830    0.10268235
     atom    2 type  1   force =    -0.00011679    0.00009385   -0.16808633
     atom    3 type  2   force =    -0.00000864    0.00045595   -0.03240739
     atom    4 type  2   force =     0.00002728   -0.00097482    0.04010976
     atom    5 type  2   force =    -0.00542658   -0.00191409   -0.00433564
     atom    6 type  2   force =     0.00666093   -0.00135894   -0.00593549
     atom    7 type  1   force =    -0.00053738   -0.00531665    0.03005213
     atom    8 type  1   force =     0.00069791    0.00861166    0.04851061
     atom    9 type  2   force =     0.00012361   -0.00131243   -0.00107210
     atom   10 type  2   force =    -0.00253532    0.00301403   -0.03415653
     atom   11 type  2   force =    -0.00038121   -0.00008551   -0.00024725
     atom   12 type  2   force =     0.00048049   -0.00036774   -0.00012896
     atom   13 type  1   force =     0.00023032   -0.00162948    0.00018640
     atom   14 type  1   force =     0.00017436   -0.00077111    0.00069282
     atom   15 type  2   force =     0.00008798    0.00004171   -0.00030437
     atom   16 type  2   force =    -0.00013035    0.00003126    0.00173365
     atom   17 type  2   force =    -0.00102705   -0.00058133    0.00038871
     atom   18 type  2   force =     0.00064499   -0.00109499    0.00051940
     atom   19 type  1   force =     0.00060469   -0.00097870   -0.00071653
     atom   20 type  1   force =    -0.00077301   -0.00039100   -0.00020461
     atom   21 type  2   force =     0.00004987    0.00012194    0.10114100
     atom   22 type  2   force =    -0.00010199    0.00054783    0.00034796
     atom   23 type  2   force =    -0.07543683   -0.00012202   -0.02930063
     atom   24 type  2   force =     0.07534895    0.00029921   -0.02931782
     atom   25 type  1   force =     0.00013779   -0.00022870    0.10281815
     atom   26 type  1   force =    -0.00004112   -0.00130818   -0.16849706
     atom   27 type  2   force =     0.00011853    0.00017289   -0.03117743
     atom   28 type  2   force =    -0.00000933    0.00072037    0.03582800
     atom   29 type  2   force =    -0.00425421    0.00378419   -0.00626714
     atom   30 type  2   force =     0.00527749    0.00442227   -0.00779213
     atom   31 type  1   force =    -0.00054186    0.00495435    0.01593530
     atom   32 type  1   force =     0.00077132   -0.01041618    0.04920305
     atom   33 type  2   force =     0.00002702   -0.00090405   -0.00138624
     atom   34 type  2   force =    -0.00240565    0.00222155   -0.04432621
     atom   35 type  2   force =     0.00055777    0.00020126   -0.00015377
     atom   36 type  2   force =    -0.00018687    0.00023326   -0.00008259
     atom   37 type  1   force =     0.00026875    0.00038512   -0.00046432
     atom   38 type  1   force =     0.00041733    0.00139081    0.00104505
     atom   39 type  2   force =     0.00036380    0.00046365    0.00008538
     atom   40 type  2   force =     0.00005846    0.00015125    0.00045682
     atom   41 type  2   force =    -0.00092186   -0.00023870    0.00010692
     atom   42 type  2   force =     0.00043444    0.00024488    0.00032386
     atom   43 type  1   force =     0.00028012    0.00025984   -0.00147368
     atom   44 type  1   force =    -0.00065886   -0.00017639   -0.00089151
     atom   45 type  2   force =     0.00007054   -0.00002247    0.10096286
     atom   46 type  2   force =    -0.07549291   -0.00005147   -0.02931761
     atom   47 type  2   force =     0.07540630    0.00038178   -0.02931290
     atom   48 type  3   force =    -0.00067050   -0.00001743    0.00063914
     atom   49 type  3   force =     0.00037631   -0.00065035   -0.00130563
     atom   50 type  4   force =    -0.00164495   -0.00026410    0.00320957
     atom   51 type  5   force =     0.00041192   -0.00051108   -0.00192863
     atom   52 type  5   force =     0.00265150    0.00118161   -0.00330968
     atom   53 type  5   force =    -0.00043727   -0.00107472   -0.00006672
     atom   54 type  5   force =    -0.00004520   -0.00063630   -0.00134522
     atom   55 type  2   force =    -0.00034371    0.00040340   -0.00099302
     atom   56 type  5   force =     0.00124823   -0.00115264   -0.00067373

     Total force =     0.372838     Total SCF correction =     0.000793
  @ DRIVER MODE: Message from server: STATUS
  @ DRIVER MODE: Message from server: GETFORCE
  @ DRIVER MODE: Returning v,forces,stress,ensemble

     Writing output data file ./calc.save/
  @ DRIVER MODE: Message from server: EXIT
  @ DRIVE MODE: Exiting

     General routines

     Parallel routines

   This run was terminated on:   8:35:33  23Sep2021

   JOB DONE.