     Program PWSCF v.6.7GPU starts on 28Sep2021 at 10:47:42

     R & G space division:  proc/nbgrp/npool/nimage =       8
     Reading input from /storage/home/hcoda1/3/ntian30/research/carbon/CxH_vib/H2O_calc/ads_slab/CHNHNH2HO_b/out_0001/pw.inp
Warning: card &CELL ignored
Warning: card   CELL_DYNAMICS='IPI', ignored
Warning: card / ignored

     Current dimensions of program PWSCF are:
     Max number of different atomic species (ntypx) = 10
     Max number of k-points (npk) =  40000
     Max angular momentum in pseudopotentials (lmaxx) =  3
     Presently no symmetry can be used with electric field

     Message from routine cell_base_init:
     DEPRECATED: use true lattice parameter, not A to a.u. conversion factor

     IMPORTANT: XC functional enforced from input :
     Exchange-correlation= BEEF-VDW
                           (   1   4  43  14   2   0   0)
     Any further DFT definition will be discarded
     Please, verify this is what you really want

  @ DRIVER MODE: Connecting to
 qe_1139763_3009830.sched-torque.pace.gatech.edud5qfit3i_scratch
  using UNIX socket
  @ DRIVER MODE: Message from server: STATUS
  @ DRIVER MODE: Message from server: INIT
  @ DRIVER MODE: Receiving replica           0          -1
  @ DRIVER MODE: Receiving encoded integer          25
  @ DRIVER MODE:  SCF:  T  FORCE:  T  STRESS:  F  VC:  F  ENSEMBLE:  F
  @ DRIVER MODE:  SCF:  T  FORCE:  T  STRESS:  F  VC:  F  ENSEMBLE:  F

     Using Slab Decomposition

     bravais-lattice index     =            0
     lattice parameter (alat)  =       1.8897  a.u.
     unit-cell volume          =    6658.9804 (a.u.)^3
     number of atoms/cell      =           56
     number of atomic types    =            5
     number of electrons       =       403.00
     number of Kohn-Sham states=          211
     kinetic-energy cutoff     =      29.3995  Ry
     charge density cutoff     =     293.9946  Ry
     scf convergence threshold =      7.3E-08
     mixing beta               =       0.0500
     number of iterations used =            8  plain     mixing
     Exchange-correlation= BEEF-VDW
                           (   1   4  43  14   2   0   0)

     celldm(1)=   1.889726  celldm(2)=   0.000000  celldm(3)=   0.000000
     celldm(4)=   0.000000  celldm(5)=   0.000000  celldm(6)=   0.000000

     crystal axes: (cart. coord. in units of alat)
               a(1) = (   6.579727   0.000000   0.000000 )
               a(2) = (  -0.000775   5.961596   0.000000 )
               a(3) = (   0.000000   0.000000  25.155947 )

     reciprocal axes: (cart. coord. in units 2 pi/alat)
               b(1) = (  0.151982  0.000020  0.000000 )
               b(2) = (  0.000000  0.167740  0.000000 )
               b(3) = (  0.000000  0.000000  0.039752 )

     PseudoPot. # 1 for Ti read from file:
     /storage/coda1/p-amedford6/0/shared/rich_project_chbe-medford/medford-share/data/pseudos_module/espresso/nninc/pbe/van/Ti.UPF
     MD5 check sum: 8e4df49b7f0d34bbd5052bf3f5ea0213
     Pseudo is Ultrasoft, Zval = 12.0
     Generated by new atomic code, or converted to UPF format
     Using radial grid of  851 points,  6 beta functions with:
                l(1) =   0
                l(2) =   0
                l(3) =   1
                l(4) =   1
                l(5) =   2
                l(6) =   2
     Q(r) pseudized with  8 coefficients,  rinner =    1.000   1.000   1.000
                                                       1.000   1.000

     PseudoPot. # 2 for O  read from file:
     /storage/coda1/p-amedford6/0/shared/rich_project_chbe-medford/medford-share/data/pseudos_module/espresso/nninc/pbe/van/O.UPF
     MD5 check sum: 78c19812648e8988a0fe644b0f25305e
     Pseudo is Ultrasoft, Zval =  6.0
     Generated by new atomic code, or converted to UPF format
     Using radial grid of  737 points,  4 beta functions with:
                l(1) =   0
                l(2) =   0
                l(3) =   1
                l(4) =   1
     Q(r) pseudized with  8 coefficients,  rinner =    0.800   0.800   0.800

     PseudoPot. # 3 for N  read from file:
     /storage/coda1/p-amedford6/0/shared/rich_project_chbe-medford/medford-share/data/pseudos_module/espresso/nninc/pbe/van/N.UPF
     MD5 check sum: 90d10febe142ad51ac9d5be1deb811c4
     Pseudo is Ultrasoft, Zval =  5.0
     Generated by new atomic code, or converted to UPF format
     Using radial grid of  729 points,  4 beta functions with:
                l(1) =   0
                l(2) =   0
                l(3) =   1
                l(4) =   1
     Q(r) pseudized with  8 coefficients,  rinner =    0.800   0.800   0.800

     PseudoPot. # 4 for C  read from file:
     /storage/coda1/p-amedford6/0/shared/rich_project_chbe-medford/medford-share/data/pseudos_module/espresso/nninc/pbe/van/C.UPF
     MD5 check sum: 1a69bf6b8db32088f5b2163dbdb77a27
     Pseudo is Ultrasoft, Zval =  4.0
     Generated by new atomic code, or converted to UPF format
     Using radial grid of  721 points,  4 beta functions with:
                l(1) =   0
                l(2) =   0
                l(3) =   1
                l(4) =   1
     Q(r) pseudized with  8 coefficients,  rinner =    0.800   0.800   0.800

     PseudoPot. # 5 for H  read from file:
     /storage/coda1/p-amedford6/0/shared/rich_project_chbe-medford/medford-share/data/pseudos_module/espresso/nninc/pbe/van/H.UPF
     MD5 check sum: b5ee9d7bfd3a09ee7748110bda690ff7
     Pseudo is Ultrasoft, Zval =  1.0
     Generated by new atomic code, or converted to UPF format
     Using radial grid of  615 points,  1 beta functions with:
                l(1) =   0
     Q(r) pseudized with  8 coefficients,  rinner =    0.800

     atomic species   valence    mass     pseudopotential
        Ti1           12.00    47.86700     Ti( 1.00)
        O1             6.00    15.99900     O ( 1.00)
        N1             5.00    14.00700     N ( 1.00)
        C1             4.00    12.01100     C ( 1.00)
        H1             1.00     1.00800     H ( 1.00)

     No symmetry found

   Cartesian axes

     site n.     atom                  positions (alat units)
         1           Ti1 tau(   1) = (   0.0004258   2.9801865   6.0000000  )
         2           Ti1 tau(   2) = (   3.2906075   1.4906267   6.0002472  )
         3           O1  tau(   3) = (   0.0006271   0.0005054   7.9858123  )
         4           O1  tau(   4) = (   3.2906025   0.0005020   7.3038282  )
         5           O1  tau(   5) = (   4.5942328   1.4918067   9.2879030  )
         6           O1  tau(   6) = (   1.9868534   1.4903216   9.2879459  )
         7           Ti1 tau(   7) = (   3.2907910   2.8959150   9.1758416  )
         8           Ti1 tau(   8) = (   0.0015273   1.4827037   9.2680791  )
         9           O1  tau(   9) = (   3.2982983   0.0405180  11.3424948  )
        10           O1  tau(  10) = (   0.0116148   5.9584955  10.6183126  )
        11           O1  tau(  11) = (   1.2753745   1.5072422  12.7016807  )
        12           O1  tau(  12) = (   5.3195175   1.5181342  12.6954276  )
        13           Ti1 tau(  13) = (   0.0019584   2.9687762  12.4995492  )
        14           Ti1 tau(  14) = (   3.3051642   1.5697923  12.4614731  )
        15           O1  tau(  15) = (   6.5474216   5.8614089  14.6874354  )
        16           O1  tau(  16) = (   3.3077571   5.9224049  13.9445013  )
        17           O1  tau(  17) = (   4.5645563   1.5748115  16.1270233  )
        18           O1  tau(  18) = (   2.0342606   1.5395256  16.0843959  )
        19           Ti1 tau(  19) = (   3.2752269   2.9899004  15.7194909  )
        20           Ti1 tau(  20) = (   6.5310352   1.3332667  15.7916221  )
        21           O1  tau(  21) = (   3.2904802   0.0005063   4.7018136  )
        22           O1  tau(  22) = (   0.0193913   0.2006272  17.2172921  )
        23           O1  tau(  23) = (   1.3043587   1.4918075   6.0039043  )
        24           O1  tau(  24) = (   5.2767064   1.4903225   6.0039473  )
        25           Ti1 tau(  25) = (   0.0000382   5.9609847   6.0000000  )
        26           Ti1 tau(  26) = (   3.2902200   4.4714249   6.0002472  )
        27           O1  tau(  27) = (   0.0002396   2.9813036   7.9858123  )
        28           O1  tau(  28) = (   3.2902150   2.9813002   7.3038282  )
        29           O1  tau(  29) = (   4.5938453   4.4726049   9.2879030  )
        30           O1  tau(  30) = (   1.9864658   4.4711199   9.2879459  )
        31           Ti1 tau(  31) = (   3.2891106   5.8743827   9.1763621  )
        32           Ti1 tau(  32) = (   0.0006254   4.4649316   9.2693709  )
        33           O1  tau(  33) = (   3.2939295   2.9453814  11.3217152  )
        34           O1  tau(  34) = (   0.0092240   2.9805883  10.6323155  )
        35           O1  tau(  35) = (   1.2781447   4.4822909  12.6561401  )
        36           O1  tau(  36) = (   5.3212068   4.4743896  12.6463055  )
        37           Ti1 tau(  37) = (   0.0302233   5.9315785  12.5023592  )
        38           Ti1 tau(  38) = (   3.3112215   4.6713144  12.7097751  )
        39           O1  tau(  39) = (   0.0192075   3.0624537  14.9697097  )
        40           O1  tau(  40) = (   3.2993887   3.0147307  13.9488589  )
        41           O1  tau(  41) = (   4.5718800   4.4489939  16.2708329  )
        42           O1  tau(  42) = (   2.0246426   4.4466800  16.2581844  )
        43           Ti1 tau(  43) = (   3.2612680   0.0306108  16.4716933  )
        44           Ti1 tau(  44) = (   6.5506247   4.5497786  16.0606151  )
        45           O1  tau(  45) = (   3.2900926   2.9813045   4.7018136  )
        46           O1  tau(  46) = (   1.3039711   4.4726057   6.0039043  )
        47           O1  tau(  47) = (   5.2763189   4.4711207   6.0039473  )
        48           N1  tau(  48) = (   0.9881237   2.4704741  18.7333368  )
        49           N1  tau(  49) = (   6.5532285   3.4232418  18.2716252  )
        50           C1  tau(  50) = (   2.1690532   2.7243113  19.1879583  )
        51           H1  tau(  51) = (   2.3212509   3.8010200  19.3435938  )
        52           H1  tau(  52) = (   0.7222050   1.5235952  18.4365492  )
        53           H1  tau(  53) = (   0.1086806   4.2950834  18.7847415  )
        54           H1  tau(  54) = (   5.6367167   3.0457734  18.5222562  )
        55           O1  tau(  55) = (   3.2473456   0.1866190  18.2687603  )
        56           H1  tau(  56) = (   3.0571027   1.0491837  18.7494863  )

     number of k points=    10  Fermi-Dirac smearing, width (Ry)=  0.0073
                       cart. coord. in units 2pi/alat
        k(    1) = (   0.0000000   0.0000000   0.0000000), wk =   0.1250000
        k(    2) = (   0.0000000   0.0419351   0.0000000), wk =   0.2500000
        k(    3) = (   0.0000000  -0.0838702   0.0000000), wk =   0.1250000
        k(    4) = (   0.0379955   0.0000049   0.0000000), wk =   0.2500000
        k(    5) = (   0.0379955   0.0419400   0.0000000), wk =   0.2500000
        k(    6) = (   0.0379955  -0.0838652   0.0000000), wk =   0.2500000
        k(    7) = (   0.0379955  -0.0419301   0.0000000), wk =   0.2500000
        k(    8) = (  -0.0759910  -0.0000099   0.0000000), wk =   0.1250000
        k(    9) = (  -0.0759910   0.0419252   0.0000000), wk =   0.2500000
        k(   10) = (  -0.0759910  -0.0838800   0.0000000), wk =   0.1250000

     Initial potential from superposition of free atoms

     starting charge  386.99914, renormalised to  403.00000

     negative rho (up, down):  1.628E-02 0.000E+00

     %%%%%%%%%%%%%%%%%%%%%%%%%%%%%%%%%%%%%%%%%%%%%%%%%%%%%%%%%%%%%%%%%%%%%%%%
     %                                                                      %
     % You are using vdW-DF, which was implemented by the Thonhauser group. %
     % Please cite the following two papers that made this development      %
     % possible and the two reviews that describe the various versions:     %
     %                                                                      %
     %   T. Thonhauser et al., PRL 115, 136402 (2015).                      %
     %   T. Thonhauser et al., PRB 76, 125112 (2007).                       %
     %   K. Berland et al., Rep. Prog. Phys. 78, 066501 (2015).             %
     %   D.C. Langreth et al., J. Phys.: Condens. Matter 21, 084203 (2009). %
     %                                                                      %
     %                                                                      %
     % If you are calculating the stress with vdW-DF, please also cite:     %
     %                                                                      %
     %   R. Sabatini et al., J. Phys.: Condens. Matter 24, 424209 (2012).   %
     %                                                                      %
     %%%%%%%%%%%%%%%%%%%%%%%%%%%%%%%%%%%%%%%%%%%%%%%%%%%%%%%%%%%%%%%%%%%%%%%%

     Adding external electric field

     Computed dipole along edir(3) :
        Dipole              -13.0968 Ry au,        -33.2887 Debye
        Dipole field         -0.0247 Ry au,

        Potential amp.        2.2911 Ry
        Total length         46.3494 bohr

     Starting wfcs are  305 atomic wfcs
  @ DRIVER MODE: Message from server: STATUS
  @ DRIVER MODE: Message from server: POSDATA
  @ DRIVER MODE: Reading and sharing cell
  @ DRIVER MODE: Reading and sharing positions
  @ DRIVER MODE: Received positions

     Self-consistent Calculation

     iteration #  1     ecut=    29.40 Ry     beta= 0.05
     Davidson diagonalization with overlap
     c_bands:  5 eigenvalues not converged
     c_bands:  2 eigenvalues not converged
     c_bands:  1 eigenvalues not converged
     c_bands:  1 eigenvalues not converged
     c_bands:  5 eigenvalues not converged
     c_bands:  4 eigenvalues not converged
     c_bands:  1 eigenvalues not converged
     ethr =  1.00E-05,  avg # of iterations = 27.3

[...]

     total energy              =   -2288.91855658 Ry
     estimated scf accuracy    <    7753.55209166 Ry

     iteration #  2     ecut=    29.40 Ry     beta= 0.05
     Davidson diagonalization with overlap
     ethr =  1.00E-02,  avg # of iterations = 26.8

[...]

     iteration # 50     ecut=    29.40 Ry     beta= 0.05
     Davidson diagonalization with overlap
     c_bands:  2 eigenvalues not converged
     ethr =  1.13E-06,  avg # of iterations = 15.3

[...]

     total energy              =   -2973.89786664 Ry
     estimated scf accuracy    <       0.00000012 Ry

     iteration # 72     ecut=    29.40 Ry     beta= 0.05
     Davidson diagonalization with overlap
     ethr =  2.87E-11,  avg # of iterations =  6.4

     negative rho (up, down):  1.611E-02 0.000E+00

     Adding external electric field

     Computed dipole along edir(3) :
        Dipole                0.8501 Ry au,          2.1608 Debye
        Dipole field          0.0016 Ry au,

        Potential amp.       -0.1487 Ry
        Total length         46.3494 bohr

     End of self-consistent calculation

          k = 0.0000 0.0000 0.0000 ( 18029 PWs)   bands (ev):

   -55.6411 -55.6401 -55.6060 -55.5703 -55.4900 -55.4679 -55.4475 -55.4441
   -55.4340 -55.3914 -55.3491 -55.2913 -55.2126 -55.0671 -54.6032 -54.5691
   -32.1245 -32.0980 -31.9767 -31.9727 -31.9712 -31.9307 -31.9034 -31.8860
   -31.8792 -31.8628 -31.8442 -31.8339 -31.7927 -31.7628 -31.7489 -31.7465
   -31.7418 -31.7279 -31.7073 -31.7029 -31.6977 -31.6718 -31.6661 -31.6532
   -31.6415 -31.6405 -31.6186 -31.6101 -31.5951 -31.5910 -31.5855 -31.5739
   -31.5629 -31.5462 -31.5028 -31.4951 -31.4919 -31.4764 -31.4126 -31.3267
   -31.2928 -31.2847 -31.0083 -30.9239 -30.9013 -30.8262 -30.7399 -30.6278
   -18.7312 -16.3055 -16.2514 -16.1120 -15.8895 -15.8025 -15.7710 -15.6103
   -15.4839 -15.4421 -15.3185 -15.1722 -15.1419 -15.1342 -15.1273 -15.1187
   -15.1016 -15.0741 -15.0609 -15.0562 -15.0426 -14.9783 -14.9595 -14.9304
   -14.8494 -14.7984 -14.7709 -14.7006 -14.6575 -14.5541 -14.4758 -14.2726
   -13.1010 -12.9848  -9.5814  -6.9392  -5.8817  -4.3008  -4.0891  -3.8396
    -3.6264  -3.5387  -3.5151  -3.4068  -3.3149  -3.0862  -3.0635  -2.9928
    -2.8422  -2.7493  -2.6642  -2.6373  -2.5962  -2.5425  -2.5286  -2.4858
    -2.4199  -2.3883  -2.3468  -2.3348  -2.2855  -2.2776  -2.2310  -2.1536
    -2.1471  -2.0415  -1.9735  -1.9685  -1.9541  -1.9456  -1.8957  -1.8806
    -1.8730  -1.8024  -1.7473  -1.7128  -1.6466  -1.6209  -1.5495  -1.3039
    -1.2265  -1.2130  -1.1509  -1.0705  -1.0393  -1.0249  -1.0149  -0.9880
    -0.9620  -0.8729  -0.8466  -0.7062  -0.7008  -0.6581  -0.6267  -0.6014
    -0.4948  -0.4322  -0.4087  -0.3630  -0.3422  -0.2965  -0.2400  -0.2206
    -0.1417  -0.0965  -0.0178  -0.0148   0.0097   0.0809   0.1407   0.1743
     0.1920   0.2904   0.3054   0.3344   0.3407   0.3637   0.3898   0.4829
     0.5007   0.5432   0.5655   0.7069   0.7174   0.7696   0.9134   0.9438
     1.0455   1.1439   1.3713   1.3848   1.4240   1.4513   1.6202   1.9890
     2.0338   3.4395   3.5987   3.6118   3.7086   3.7221   3.7986   3.9338
     4.0286   4.1001   4.1338

[...]

          k = 0.0380-0.0419 0.0000 ( 17876 PWs)   bands (ev):

[...]

          k =-0.0760-0.0000 0.0000 ( 17886 PWs)   bands (ev):

[...]

          k =-0.0760-0.0839 0.0000 ( 17948 PWs)   bands (ev):

   -55.6402 -55.6231 -55.6229 -55.5691 -55.4818 -55.4533 -55.4514 -55.4489
   -55.4482 -55.3830 -55.3575 -55.2924 -55.2107 -55.0689 -54.5862 -54.5860
   -32.0231 -31.9399 -31.9397 -31.9305 -31.9163 -31.9160 -31.9044 -31.8432
   -31.8186 -31.8111 -31.8004 -31.7849 -31.7795 -31.7633 -31.7612 -31.7430
   -31.7429 -31.7332 -31.7318 -31.7204 -31.7199 -31.7055 -31.6950 -31.6881
   -31.6523 -31.6484 -31.6472 -31.6416 -31.6267 -31.6241 -31.6163 -31.6039
   -31.5874 -31.5816 -31.5706 -31.5675 -31.4966 -31.4678 -31.4161 -31.4079
   -31.3314 -31.2881 -30.9141 -30.9141 -30.8215 -30.8210 -30.7832 -30.7830
   -18.7251 -16.2537 -15.9419 -15.6363 -15.6350 -15.6153 -15.4567 -15.4227
   -15.3909 -15.3612 -15.3103 -15.3048 -15.2797 -15.2447 -15.2307 -15.1783
   -15.1540 -15.1371 -15.1186 -15.0995 -15.0800 -15.0515 -15.0407 -15.0393
   -14.9595 -14.9505 -14.9361 -14.9283 -14.8504 -14.6387 -14.4478 -14.4300
   -13.0867 -13.0867  -9.5685  -6.9332  -5.8455  -4.4825  -3.9447  -3.7692
    -3.0688  -2.8706  -2.8407  -2.7135  -2.6806  -2.6574  -2.5927  -2.5519
    -2.5503  -2.4739  -2.4606  -2.4160  -2.4116  -2.3670  -2.3642  -2.3368
    -2.3278  -2.3144  -2.3049  -2.2980  -2.2491  -2.2229  -2.2199  -2.2074
    -2.1842  -2.1697  -2.1460  -2.1285  -2.0697  -1.9944  -1.8821  -1.8596
    -1.8003  -1.7657  -1.7513  -1.7320  -1.7101  -1.6819  -1.6638  -1.5641
    -1.4835  -1.4218  -1.3186  -1.2329  -1.2134  -1.1603  -1.1528  -1.1099
    -1.0873  -1.0673  -1.0309  -0.9618  -0.8520  -0.8407  -0.7717  -0.6862
    -0.6384  -0.5791  -0.5770  -0.5710  -0.5551  -0.5301  -0.5113  -0.4589
    -0.4500  -0.3651  -0.3408  -0.3343  -0.3166  -0.2818  -0.1525  -0.1118
    -0.0640   0.1354   0.1425   0.1706   0.2783   0.3689   0.4346   0.4444
     0.5025   0.5493   0.5838   0.6233   0.6788   0.7026   0.7693   0.8783
     0.8846   0.9034   0.9454   1.0065   1.2460   1.7892   1.7960   1.8541
     1.8544   3.6536   3.8470   3.9636   3.9688   3.9840   4.0252   4.0345
     4.0479   4.1083   4.1163

     the Fermi energy is     3.4801 ev

!    total energy              =   -2973.89788518 Ry
     estimated scf accuracy    <       0.00000006 Ry
     smearing contrib. (-TS)   =      -0.01933558 Ry
     internal energy E=F+TS    =   -2973.87854961 Ry

     The total energy is F=E-TS. E is the sum of the following terms:
     one-electron contribution =  -23221.54677734 Ry
     hartree contribution      =   11705.17234411 Ry
     xc contribution           =    -493.95216540 Ry
     ewald contribution        =    9036.44668515 Ry
     electric field correction =       0.00136388 Ry

     convergence has been achieved in  72 iterations

     Forces acting on atoms (cartesian axes, Ry/au):

     atom    1 type  1   force =     0.00006945   -0.00019951    0.09417975
     atom    2 type  1   force =    -0.00015556    0.00002365   -0.17481879
     atom    3 type  2   force =     0.00003173   -0.00050274   -0.02069657
     atom    4 type  2   force =     0.00004518   -0.00070801    0.05227968
     atom    5 type  2   force =    -0.00298640   -0.00197082    0.00013150
     atom    6 type  2   force =     0.00462566   -0.00150494   -0.00032425
     atom    7 type  1   force =    -0.00019618    0.00280795    0.01408294
     atom    8 type  1   force =    -0.00010957   -0.00121708   -0.00058294
     atom    9 type  2   force =     0.00005435   -0.00009880   -0.00010514
     atom   10 type  2   force =    -0.00139708    0.00346990   -0.00731692
     atom   11 type  2   force =    -0.00018607    0.00025278    0.00021500
     atom   12 type  2   force =     0.00038065    0.00039330    0.00062265
     atom   13 type  1   force =    -0.00042780    0.00057928   -0.00029521
     atom   14 type  1   force =     0.00000147   -0.00008465    0.00069637
     atom   15 type  2   force =     0.00039479    0.00084873    0.00063972
     atom   16 type  2   force =    -0.00008930   -0.00076828    0.00093723
     atom   17 type  2   force =     0.00063182   -0.00022054   -0.00013058
     atom   18 type  2   force =     0.00023636   -0.00006190   -0.00025994
     atom   19 type  1   force =    -0.00003956   -0.00003825   -0.00047662
     atom   20 type  1   force =    -0.00025086   -0.00038600   -0.00055787
     atom   21 type  2   force =     0.00006824   -0.00000173    0.10298854
     atom   22 type  2   force =     0.00031985    0.00003094   -0.00022777
     atom   23 type  2   force =    -0.07234077   -0.00018091   -0.02723585
     atom   24 type  2   force =     0.07228682    0.00026309   -0.02728588
     atom   25 type  1   force =     0.00007260   -0.00030491    0.09362813
     atom   26 type  1   force =    -0.00006861   -0.00116678   -0.17492917
     atom   27 type  2   force =     0.00017496   -0.00002378   -0.01956798
     atom   28 type  2   force =     0.00003322   -0.00104162    0.04856069
     atom   29 type  2   force =    -0.00593550    0.00105728    0.00312855
     atom   30 type  2   force =     0.00742098    0.00157155    0.00262978
     atom   31 type  1   force =     0.00004420    0.00142069    0.00267964
     atom   32 type  1   force =     0.00006426    0.00068308   -0.00038183
     atom   33 type  2   force =    -0.00016697   -0.00011462   -0.00051861
     atom   34 type  2   force =    -0.00061293   -0.00196917   -0.01093362
     atom   35 type  2   force =     0.00023393   -0.00040681   -0.00013351
     atom   36 type  2   force =    -0.00002922   -0.00026214   -0.00019883
     atom   37 type  1   force =    -0.00026199   -0.00039696   -0.00051982
     atom   38 type  1   force =     0.00025536    0.00023028    0.00034649
     atom   39 type  2   force =    -0.00036593   -0.00122740   -0.00027484
     atom   40 type  2   force =    -0.00012690    0.00035815    0.00079860
     atom   41 type  2   force =    -0.00070770    0.00005121    0.00033525
     atom   42 type  2   force =     0.00021110   -0.00058898   -0.00000455
     atom   43 type  1   force =    -0.00035220    0.00071058    0.00038517
     atom   44 type  1   force =     0.00010951   -0.00085654   -0.00038998
     atom   45 type  2   force =     0.00006839    0.00005504    0.10283001
     atom   46 type  2   force =    -0.07229320   -0.00006052   -0.02718974
     atom   47 type  2   force =     0.07220603    0.00038612   -0.02722115
     atom   48 type  3   force =     0.02044399    0.00692939    0.00784090
     atom   49 type  3   force =    -0.00301064   -0.00069184    0.00080699
     atom   50 type  4   force =    -0.01398253   -0.00430157   -0.00490521
     atom   51 type  5   force =    -0.00122994   -0.00080843   -0.00001915
     atom   52 type  5   force =    -0.00264425   -0.00102416   -0.00072250
     atom   53 type  5   force =     0.00021312   -0.00035037   -0.00070681
     atom   54 type  5   force =    -0.00046595    0.00177124   -0.00024222
     atom   55 type  2   force =     0.00047572    0.00008411   -0.00086991
     atom   56 type  5   force =    -0.00074013   -0.00043758   -0.00069984

     Total force =     0.362094     Total SCF correction =     0.000552
  @ DRIVER MODE: Message from server: STATUS
  @ DRIVER MODE: Message from server: GETFORCE
  @ DRIVER MODE: Returning v,forces,stress,ensemble

     Writing output data file ./calc.save/
  @ DRIVER MODE: Message from server: EXIT
  @ DRIVE MODE: Exiting

     General routines

     Parallel routines

   This run was terminated on:  11:13: 5  28Sep2021

   JOB DONE.