     Program PWSCF v.6.7GPU starts on  8Sep2021 at 22:12: 9

     R & G space division:  proc/nbgrp/npool/nimage =      10
     Reading input from /storage/home/hcoda1/3/ntian30/research/carbon/CxH_vib/CH_calc/ads_slab/CHO_a/out_0001/pw.inp
Warning: card &CELL ignored
Warning: card   CELL_DYNAMICS='IPI', ignored
Warning: card / ignored

     Current dimensions of program PWSCF are:
     Max number of different atomic species (ntypx) = 10
     Max number of k-points (npk) =  40000
     Max angular momentum in pseudopotentials (lmaxx) =  3
     Presently no symmetry can be used with electric field

     Message from routine cell_base_init:
     DEPRECATED: use true lattice parameter, not A to a.u. conversion factor

     IMPORTANT: XC functional enforced from input :
     Exchange-correlation= BEEF-VDW
                           (   1   4  43  14   2   0   0)
     Any further DFT definition will be discarded
     Please, verify this is what you really want

  @ DRIVER MODE: Connecting to
 qe_1139763_2767379.sched-torque.pace.gatech.edukx6r8vov_scratch
  using UNIX socket
  @ DRIVER MODE: Message from server: STATUS
  @ DRIVER MODE: Message from server: INIT
  @ DRIVER MODE: Receiving replica           0          -1
  @ DRIVER MODE: Receiving encoded integer          25
  @ DRIVER MODE:  SCF:  T  FORCE:  T  STRESS:  F  VC:  F  ENSEMBLE:  F
  @ DRIVER MODE:  SCF:  T  FORCE:  T  STRESS:  F  VC:  F  ENSEMBLE:  F

     Using Slab Decomposition

     bravais-lattice index     =            0
     lattice parameter (alat)  =       1.8897  a.u.
     unit-cell volume          =    6658.9804 (a.u.)^3
     number of atoms/cell      =           50
     number of atomic types    =            4
     number of electrons       =       389.00
     number of Kohn-Sham states=          204
     kinetic-energy cutoff     =      29.3995  Ry
     charge density cutoff     =     293.9946  Ry
     scf convergence threshold =      7.3E-08
     mixing beta               =       0.0500
     number of iterations used =            8  plain     mixing
     Exchange-correlation= BEEF-VDW
                           (   1   4  43  14   2   0   0)

     celldm(1)=   1.889726  celldm(2)=   0.000000  celldm(3)=   0.000000
     celldm(4)=   0.000000  celldm(5)=   0.000000  celldm(6)=   0.000000

     crystal axes: (cart. coord. in units of alat)
               a(1) = (   6.579727   0.000000   0.000000 )
               a(2) = (  -0.000775   5.961596   0.000000 )
               a(3) = (   0.000000   0.000000  25.155947 )

     reciprocal axes: (cart. coord. in units 2 pi/alat)
               b(1) = (  0.151982  0.000020  0.000000 )
               b(2) = (  0.000000  0.167740  0.000000 )
               b(3) = (  0.000000  0.000000  0.039752 )

     PseudoPot. # 1 for O  read from file:
     /storage/coda1/p-amedford6/0/shared/rich_project_chbe-medford/medford-share/data/pseudos_module/espresso/nninc/pbe/van/O.UPF
     MD5 check sum: 78c19812648e8988a0fe644b0f25305e
     Pseudo is Ultrasoft, Zval =  6.0
     Generated by new atomic code, or converted to UPF format
     Using radial grid of  737 points,  4 beta functions with:
                l(1) =   0
                l(2) =   0
                l(3) =   1
                l(4) =   1
     Q(r) pseudized with  8 coefficients,  rinner =    0.800   0.800   0.800

     PseudoPot. # 2 for Ti read from file:
     /storage/coda1/p-amedford6/0/shared/rich_project_chbe-medford/medford-share/data/pseudos_module/espresso/nninc/pbe/van/Ti.UPF
     MD5 check sum: 8e4df49b7f0d34bbd5052bf3f5ea0213
     Pseudo is Ultrasoft, Zval = 12.0
     Generated by new atomic code, or converted to UPF format
     Using radial grid of  851 points,  6 beta functions with:
                l(1) =   0
                l(2) =   0
                l(3) =   1
                l(4) =   1
                l(5) =   2
                l(6) =   2
     Q(r) pseudized with  8 coefficients,  rinner =    1.000   1.000   1.000
                                                       1.000   1.000

     PseudoPot. # 3 for C  read from file:
     /storage/coda1/p-amedford6/0/shared/rich_project_chbe-medford/medford-share/data/pseudos_module/espresso/nninc/pbe/van/C.UPF
     MD5 check sum: 1a69bf6b8db32088f5b2163dbdb77a27
     Pseudo is Ultrasoft, Zval =  4.0
     Generated by new atomic code, or converted to UPF format
     Using radial grid of  721 points,  4 beta functions with:
                l(1) =   0
                l(2) =   0
                l(3) =   1
                l(4) =   1
     Q(r) pseudized with  8 coefficients,  rinner =    0.800   0.800   0.800

     PseudoPot. # 4 for H  read from file:
     /storage/coda1/p-amedford6/0/shared/rich_project_chbe-medford/medford-share/data/pseudos_module/espresso/nninc/pbe/van/H.UPF
     MD5 check sum: b5ee9d7bfd3a09ee7748110bda690ff7
     Pseudo is Ultrasoft, Zval =  1.0
     Generated by new atomic code, or converted to UPF format
     Using radial grid of  615 points,  1 beta functions with:
                l(1) =   0
     Q(r) pseudized with  8 coefficients,  rinner =    0.800

     atomic species   valence    mass     pseudopotential
        O1             6.00    15.99900     O ( 1.00)
        Ti1           12.00    47.86700     Ti( 1.00)
        C1             4.00    12.01100     C ( 1.00)
        H1             1.00     1.00800     H ( 1.00)

     No symmetry found

   Cartesian axes

     site n.     atom                  positions (alat units)
         1           O1  tau(   1) = (   3.2904802   0.0005063   4.7018136  )
         2           O1  tau(   2) = (   3.2900926   2.9813045   4.7018136  )
         3           Ti1 tau(   3) = (   0.0004258   2.9801865   6.0000000  )
         4           Ti1 tau(   4) = (   0.0000382   5.9609847   6.0000000  )
         5           Ti1 tau(   5) = (   3.2906075   1.4906267   6.0002472  )
         6           Ti1 tau(   6) = (   3.2902200   4.4714249   6.0002472  )
         7           O1  tau(   7) = (   1.3043587   1.4918075   6.0039043  )
         8           O1  tau(   8) = (   1.3039711   4.4726057   6.0039043  )
         9           O1  tau(   9) = (   5.2767064   1.4903225   6.0039473  )
        10           O1  tau(  10) = (   5.2763189   4.4711207   6.0039473  )
        11           O1  tau(  11) = (   3.2906025   0.0005020   7.3038282  )
        12           O1  tau(  12) = (   3.2902150   2.9813002   7.3038282  )
        13           O1  tau(  13) = (   0.0006271   0.0005054   7.9858123  )
        14           O1  tau(  14) = (   0.0002396   2.9813036   7.9858123  )
        15           Ti1 tau(  15) = (   3.2969808   0.0564913   9.1534998  )
        16           Ti1 tau(  16) = (   3.3141337   3.0327768   9.1571505  )
        17           Ti1 tau(  17) = (   0.0233175   4.5369896   9.2585411  )
        18           Ti1 tau(  18) = (   0.0198836   1.6172415   9.3624336  )
        19           O1  tau(  19) = (   4.5942328   1.4918067   9.2879030  )
        20           O1  tau(  20) = (   4.5938453   4.4726049   9.2879030  )
        21           O1  tau(  21) = (   1.9868534   1.4903216   9.2879459  )
        22           O1  tau(  22) = (   1.9864658   4.4711199   9.2879459  )
        23           O1  tau(  23) = (   0.0063158   0.0123177  10.6034754  )
        24           O1  tau(  24) = (   0.0044132   2.9941235  10.5786081  )
        25           O1  tau(  25) = (   3.2970120   2.9984392  11.3520126  )
        26           O1  tau(  26) = (   3.2962737   0.0176366  11.3543537  )
        27           Ti1 tau(  27) = (   0.0302790   0.0280999  12.4961607  )
        28           Ti1 tau(  28) = (   3.3312859   4.4933669  12.4927350  )
        29           Ti1 tau(  29) = (   3.3314798   1.5140231  12.4973429  )
        30           Ti1 tau(  30) = (   0.0296678   3.0111287  12.7911082  )
        31           O1  tau(  31) = (   1.2935131   4.4896988  12.6418387  )
        32           O1  tau(  32) = (   1.2923886   1.5080263  12.6414434  )
        33           O1  tau(  33) = (   5.2919490   4.4892252  12.6414299  )
        34           O1  tau(  34) = (   5.2935099   1.5067266  12.6404615  )
        35           O1  tau(  35) = (   3.2972132   2.9952276  13.9333167  )
        36           O1  tau(  36) = (   3.2969292   0.0217920  13.9560627  )
        37           O1  tau(  37) = (   0.0109375   0.0110981  14.6876342  )
        38           O1  tau(  38) = (   0.0109565   3.0062585  14.7134293  )
        39           Ti1 tau(  39) = (   3.3068652   2.9980133  15.7272348  )
        40           Ti1 tau(  40) = (   3.3088638   0.0192678  15.7517854  )
        41           Ti1 tau(  41) = (   0.0288418   4.5446802  15.9499200  )
        42           Ti1 tau(  42) = (   0.0223207   1.3431340  16.0223868  )
        43           O1  tau(  43) = (   4.5495857   4.4747881  16.0802101  )
        44           O1  tau(  44) = (   4.5538725   1.5135375  16.1032510  )
        45           O1  tau(  45) = (   2.0418931   1.5171625  16.1093315  )
        46           O1  tau(  46) = (   2.0408760   4.4691196  16.0910022  )
        47           O1  tau(  47) = (   0.0096378   0.0051088  17.2033978  )
        48           O1  tau(  48) = (   6.5396506   3.0476207  17.4767105  )
        49           C1  tau(  49) = (   6.4067813   3.0303407  18.7370298  )
        50           H1  tau(  50) = (   6.4030715   1.9712591  19.1029599  )

     number of k points=    10  Fermi-Dirac smearing, width (Ry)=  0.0073
                       cart. coord. in units 2pi/alat
        k(    1) = (   0.0000000   0.0000000   0.0000000), wk =   0.1250000
        k(    2) = (   0.0000000   0.0419351   0.0000000), wk =   0.2500000
        k(    3) = (   0.0000000  -0.0838702   0.0000000), wk =   0.1250000
        k(    4) = (   0.0379955   0.0000049   0.0000000), wk =   0.2500000
        k(    5) = (   0.0379955   0.0419400   0.0000000), wk =   0.2500000
        k(    6) = (   0.0379955  -0.0838652   0.0000000), wk =   0.2500000
        k(    7) = (   0.0379955  -0.0419301   0.0000000), wk =   0.2500000
        k(    8) = (  -0.0759910  -0.0000099   0.0000000), wk =   0.1250000
        k(    9) = (  -0.0759910   0.0419252   0.0000000), wk =   0.2500000
        k(   10) = (  -0.0759910  -0.0838800   0.0000000), wk =   0.1250000

     Initial potential from superposition of free atoms

     starting charge  372.99920, renormalised to  389.00000

     negative rho (up, down):  1.926E-02 0.000E+00

     %%%%%%%%%%%%%%%%%%%%%%%%%%%%%%%%%%%%%%%%%%%%%%%%%%%%%%%%%%%%%%%%%%%%%%%%
     %                                                                      %
     % You are using vdW-DF, which was implemented by the Thonhauser group. %
     % Please cite the following two papers that made this development      %
     % possible and the two reviews that describe the various versions:     %
     %                                                                      %
     %   T. Thonhauser et al., PRL 115, 136402 (2015).                      %
     %   T. Thonhauser et al., PRB 76, 125112 (2007).                       %
     %   K. Berland et al., Rep. Prog. Phys. 78, 066501 (2015).             %
     %   D.C. Langreth et al., J. Phys.: Condens. Matter 21, 084203 (2009). %
     %                                                                      %
     %                                                                      %
     % If you are calculating the stress with vdW-DF, please also cite:     %
     %                                                                      %
     %   R. Sabatini et al., J. Phys.: Condens. Matter 24, 424209 (2012).   %
     %                                                                      %
     %%%%%%%%%%%%%%%%%%%%%%%%%%%%%%%%%%%%%%%%%%%%%%%%%%%%%%%%%%%%%%%%%%%%%%%%

     Adding external electric field

     Computed dipole along edir(3) :
        Dipole               -4.4813 Ry au,        -11.3903 Debye
        Dipole field         -0.0085 Ry au,

        Potential amp.        0.7839 Ry
        Total length         46.3494 bohr

     Starting wfcs are  293 atomic wfcs
  @ DRIVER MODE: Message from server: STATUS
  @ DRIVER MODE: Message from server: POSDATA
  @ DRIVER MODE: Reading and sharing cell
  @ DRIVER MODE: Reading and sharing positions
  @ DRIVER MODE: Received positions

     Self-consistent Calculation

     iteration #  1     ecut=    29.40 Ry     beta= 0.05
     Davidson diagonalization with overlap
     c_bands:  1 eigenvalues not converged
     c_bands:  5 eigenvalues not converged
     c_bands:  5 eigenvalues not converged
     c_bands:  3 eigenvalues not converged
     c_bands:  2 eigenvalues not converged
     c_bands:  1 eigenvalues not converged
     c_bands:  3 eigenvalues not converged
     c_bands:  3 eigenvalues not converged
     c_bands:  3 eigenvalues not converged
     c_bands:  1 eigenvalues not converged
     ethr =  1.00E-05,  avg # of iterations = 22.0

[...]

     total energy              =   -2877.64853575 Ry
     estimated scf accuracy    <     587.89538781 Ry

     iteration #  2     ecut=    29.40 Ry     beta= 0.05
     Davidson diagonalization with overlap
     ethr =  1.00E-02,  avg # of iterations = 14.2

[...]

     iteration # 63     ecut=    29.40 Ry     beta= 0.05
     Davidson diagonalization with overlap
     ethr =  5.28E-11,  avg # of iterations = 15.3

[...]

     total energy              =   -2928.82042671 Ry
     estimated scf accuracy    <       0.00000032 Ry

     iteration # 64     ecut=    29.40 Ry     beta= 0.05
     Davidson diagonalization with overlap
     c_bands:  1 eigenvalues not converged
     ethr =  5.28E-11,  avg # of iterations = 14.7

     negative rho (up, down):  1.792E-02 0.000E+00

     Adding external electric field

     Computed dipole along edir(3) :
        Dipole                0.1865 Ry au,          0.4740 Debye
        Dipole field          0.0004 Ry au,

        Potential amp.       -0.0326 Ry
        Total length         46.3494 bohr

     End of self-consistent calculation

          k = 0.0000 0.0000 0.0000 ( 18029 PWs)   bands (ev):

   -56.3025 -56.2897 -56.2659 -56.2534 -56.2013 -56.1894 -56.1566 -56.1360
   -56.1233 -56.0876 -56.0737 -56.0400 -55.9927 -55.9710 -55.3291 -55.2950
   -32.8563 -32.7745 -32.6804 -32.6642 -32.6436 -32.6117 -32.5984 -32.5802
   -32.5524 -32.5361 -32.5350 -32.5076 -32.5050 -32.4710 -32.4613 -32.4515
   -32.4356 -32.4243 -32.4235 -32.3963 -32.3760 -32.3681 -32.3659 -32.3561
   -32.3416 -32.3324 -32.3295 -32.3272 -32.3098 -32.3045 -32.2990 -32.2954
   -32.2574 -32.2470 -32.2258 -32.2175 -32.2084 -32.1947 -32.1786 -32.1616
   -32.1606 -32.1586 -31.7393 -31.6412 -31.6190 -31.5559 -31.4698 -31.3587
   -19.9114 -17.0621 -16.7768 -16.6254 -16.4948 -16.4472 -16.3151 -16.1734
   -16.0852 -16.0068 -15.9573 -15.9178 -15.8876 -15.8768 -15.8571 -15.8378
   -15.8353 -15.8249 -15.7545 -15.7509 -15.7171 -15.7007 -15.6978 -15.6008
   -15.5396 -15.4774 -15.4323 -15.3583 -15.3218 -15.2525 -13.8300 -13.7116
    -8.2730  -5.0667  -4.4104  -4.2409  -4.2107  -4.2034  -4.1301  -3.9119
    -3.8589  -3.6532  -3.6073  -3.4888  -3.4641  -3.4532  -3.4155  -3.3607
    -3.2713  -3.1437  -3.1413  -3.1306  -3.1242  -3.1109  -3.0754  -3.0522
    -3.0452  -3.0096  -2.9265  -2.8290  -2.8242  -2.7258  -2.6986  -2.6819
    -2.6232  -2.6124  -2.5801  -2.5608  -2.5492  -2.5276  -2.4833  -2.4621
    -2.3808  -2.2794  -2.1586  -2.1030  -2.0208  -1.9850  -1.8544  -1.7973
    -1.7409  -1.7155  -1.6676  -1.6390  -1.6002  -1.5693  -1.5356  -1.4612
    -1.3423  -1.3410  -1.2420  -1.1670  -1.1351  -1.1081  -1.0537  -1.0393
    -1.0312  -0.9297  -0.7958  -0.7871  -0.7785  -0.6889  -0.6454  -0.6276
    -0.5450  -0.5389  -0.5034  -0.4805  -0.4545  -0.3753  -0.3664  -0.3186
    -0.3028  -0.2753  -0.1619  -0.1120  -0.1000  -0.0588  -0.0164   0.1709
     0.1835   0.3255   0.4029   0.5964   0.6952   0.7500   0.8641   1.2833
     1.3415   2.6251   2.8719   2.8989   2.9296   2.9673   3.0108   3.1213
     3.2299   3.3111   3.3273   3.3595

[...]

          k = 0.0380-0.0419 0.0000 ( 17876 PWs)   bands (ev):

[...]

          k =-0.0760-0.0000 0.0000 ( 17886 PWs)   bands (ev):

[...]

          k =-0.0760-0.0839 0.0000 ( 17948 PWs)   bands (ev):

   -56.2909 -56.2773 -56.2725 -56.2704 -56.1963 -56.1756 -56.1703 -56.1407
   -56.1211 -56.0845 -56.0592 -56.0548 -55.9949 -55.9735 -55.3126 -55.3113
   -32.6603 -32.6568 -32.5982 -32.5972 -32.5848 -32.5831 -32.5806 -32.5626
   -32.5561 -32.5085 -32.5071 -32.4985 -32.4929 -32.4662 -32.4382 -32.4340
   -32.4208 -32.4187 -32.4154 -32.4069 -32.4066 -32.3948 -32.3832 -32.3807
   -32.3795 -32.3749 -32.3692 -32.3487 -32.3397 -32.3256 -32.3124 -32.3122
   -32.3115 -32.2875 -32.2679 -32.2673 -32.2638 -32.2536 -32.2164 -32.2118
   -32.2020 -32.1677 -31.6324 -31.6309 -31.5527 -31.5517 -31.5135 -31.5124
   -19.9037 -16.4898 -16.4592 -16.3542 -16.2327 -16.2199 -16.1889 -16.1468
   -16.0910 -16.0392 -16.0338 -15.9845 -15.9629 -15.9609 -15.9208 -15.8859
   -15.8370 -15.8290 -15.8226 -15.8188 -15.7674 -15.7627 -15.7226 -15.6968
   -15.6887 -15.6503 -15.6485 -15.5698 -15.4959 -15.4569 -13.8140 -13.8116
    -8.2729  -5.0183  -3.7810  -3.7399  -3.6514  -3.6076  -3.4502  -3.4403
    -3.3956  -3.3324  -3.2755  -3.2216  -3.1951  -3.1690  -3.1527  -3.1372
    -3.1275  -3.1165  -3.1064  -3.0521  -3.0459  -3.0106  -2.9902  -2.9568
    -2.9429  -2.9358  -2.9300  -2.8920  -2.8770  -2.8659  -2.8598  -2.8501
    -2.7552  -2.6674  -2.6280  -2.5622  -2.5105  -2.4551  -2.4384  -2.4199
    -2.3838  -2.3681  -2.3518  -2.2143  -2.1843  -2.0493  -2.0379  -2.0183
    -1.9988  -1.9124  -1.8760  -1.7689  -1.7513  -1.7456  -1.6568  -1.6232
    -1.5623  -1.5463  -1.4710  -1.4288  -1.4057  -1.3301  -1.2786  -1.2664
    -1.2156  -1.1965  -1.1101  -1.0692  -1.0639  -1.0467  -0.9904  -0.9614
    -0.8814  -0.8642  -0.8440  -0.7520  -0.6881  -0.6629  -0.4785  -0.3163
    -0.3076  -0.2698  -0.1795  -0.1268  -0.0825  -0.0320  -0.0293   0.0511
     0.1047   0.1976   0.2152   0.2211   0.2959   1.0537   1.0550   1.1463
     1.1573   2.5380   3.0475   3.0922   3.1177   3.1854   3.3137   3.3386
     3.3521   3.3611   3.3752   3.4842

     the Fermi energy is     2.8480 ev

!    total energy              =   -2928.82045235 Ry
     estimated scf accuracy    <       0.00000007 Ry
     smearing contrib. (-TS)   =      -0.02922991 Ry
     internal energy E=F+TS    =   -2928.79122244 Ry

     The total energy is F=E-TS. E is the sum of the following terms:
     one-electron contribution =  -24718.07947043 Ry
     hartree contribution      =   12438.97242164 Ry
     xc contribution           =    -480.34374514 Ry
     ewald contribution        =    9830.65950585 Ry
     electric field correction =       0.00006564 Ry

     convergence has been achieved in  64 iterations

     Forces acting on atoms (cartesian axes, Ry/au):

     atom    1 type  1   force =    -0.00009110    0.00005752    0.10422627
     atom    2 type  1   force =    -0.00008861    0.00006467    0.10431982
     atom    3 type  2   force =    -0.00023530   -0.00191381    0.10278019
     atom    4 type  2   force =    -0.00012683    0.00161415    0.11443020
     atom    5 type  2   force =    -0.00028139    0.00044424   -0.18037453
     atom    6 type  2   force =    -0.00018778   -0.00002019   -0.18074636
     atom    7 type  1   force =    -0.06892206    0.00069322   -0.02916623
     atom    8 type  1   force =    -0.06847535   -0.00126417   -0.02921694
     atom    9 type  1   force =     0.06855677    0.00119542   -0.02922895
     atom   10 type  1   force =     0.06819235   -0.00088246   -0.02930082
     atom   11 type  1   force =     0.00017966    0.00061686    0.04601982
     atom   12 type  1   force =     0.00045234    0.00080798    0.04736471
     atom   13 type  1   force =     0.00022523   -0.00580898   -0.03324377
     atom   14 type  1   force =     0.00032639    0.00433784   -0.02636822
     atom   15 type  2   force =     0.00025709   -0.00054576   -0.00008320
     atom   16 type  2   force =     0.00041844    0.00040114    0.00029755
     atom   17 type  2   force =    -0.00027827   -0.00073625   -0.00079223
     atom   18 type  2   force =    -0.00040968   -0.00094147   -0.00125657
     atom   19 type  1   force =    -0.01836873    0.00018786    0.00432893
     atom   20 type  1   force =    -0.01688461    0.00156682    0.00359910
     atom   21 type  1   force =     0.01896254   -0.00059781    0.00445745
     atom   22 type  1   force =     0.01762258    0.00156153    0.00358817
     atom   23 type  1   force =     0.00001746    0.00013863   -0.00073876
     atom   24 type  1   force =     0.00005237    0.00027277    0.00100128
     atom   25 type  1   force =     0.00000111   -0.00009137   -0.00000313
     atom   26 type  1   force =    -0.00006990   -0.00024376   -0.00053664
     atom   27 type  2   force =    -0.00007769    0.00037619    0.00132060
     atom   28 type  2   force =    -0.00006282   -0.00029132    0.00067805
     atom   29 type  2   force =     0.00005631    0.00018147    0.00040266
     atom   30 type  2   force =    -0.00000704   -0.00033260    0.00112152
     atom   31 type  1   force =    -0.00004701   -0.00043165    0.00005074
     atom   32 type  1   force =     0.00000572    0.00016968    0.00015177
     atom   33 type  1   force =     0.00017830   -0.00040780   -0.00006801
     atom   34 type  1   force =     0.00006955    0.00011885    0.00005058
     atom   35 type  1   force =    -0.00019238   -0.00013074   -0.00022277
     atom   36 type  1   force =    -0.00020594   -0.00063949    0.00081505
     atom   37 type  1   force =    -0.00000259   -0.00072968    0.00112337
     atom   38 type  1   force =    -0.00010369    0.00028314   -0.00077287
     atom   39 type  2   force =     0.00018531   -0.00024979    0.00015585
     atom   40 type  2   force =     0.00041817   -0.00040849   -0.00047499
     atom   41 type  2   force =    -0.00037062    0.00044342    0.00008465
     atom   42 type  2   force =    -0.00007366    0.00028749   -0.00074814
     atom   43 type  1   force =     0.00058695   -0.00001648    0.00006528
     atom   44 type  1   force =    -0.00066068   -0.00010232   -0.00062344
     atom   45 type  1   force =    -0.00048580    0.00030100   -0.00002496
     atom   46 type  1   force =    -0.00161374   -0.00015349    0.00051016
     atom   47 type  1   force =    -0.00004661   -0.00023503    0.00035725
     atom   48 type  1   force =     0.00095214    0.00082254   -0.00080937
     atom   49 type  3   force =     0.00067895   -0.00004517    0.00082260
     atom   50 type  4   force =    -0.00002585    0.00027563    0.00067730

     Total force =     0.374738     Total SCF correction =     0.000652
  @ DRIVER MODE: Message from server: STATUS
  @ DRIVER MODE: Message from server: GETFORCE
  @ DRIVER MODE: Returning v,forces,stress,ensemble

     Writing output data file ./calc.save/
  @ DRIVER MODE: Message from server: EXIT
  @ DRIVE MODE: Exiting

     General routines

     Parallel routines

   This run was terminated on:  22:27:45   8Sep2021

   JOB DONE.