     Program PWSCF v.6.7GPU starts on 25Sep2021 at 22:54: 6

     R & G space division:  proc/nbgrp/npool/nimage =       8
     Reading input from /storage/home/hcoda1/3/ntian30/research/carbon/CxH_vib/H2O_calc/ads_slab/CH3ON2H2O_a/out_0017/pw.inp
Warning: card &CELL ignored
Warning: card   CELL_DYNAMICS='IPI', ignored
Warning: card / ignored

     Current dimensions of program PWSCF are:
     Max number of different atomic species (ntypx) = 10
     Max number of k-points (npk) =  40000
     Max angular momentum in pseudopotentials (lmaxx) =  3
     Presently no symmetry can be used with electric field

     Message from routine cell_base_init:
     DEPRECATED: use true lattice parameter, not A to a.u. conversion factor

     IMPORTANT: XC functional enforced from input :
     Exchange-correlation= BEEF-VDW
                           (   1   4  43  14   2   0   0)
     Any further DFT definition will be discarded
     Please, verify this is what you really want

  @ DRIVER MODE: Connecting to
 qe_1139763_2971672.sched-torque.pace.gatech.eduial1uw_v_scratch
  using UNIX socket
  @ DRIVER MODE: Message from server: STATUS
  @ DRIVER MODE: Message from server: INIT
  @ DRIVER MODE: Receiving replica           0          -1
  @ DRIVER MODE: Receiving encoded integer          25
  @ DRIVER MODE:  SCF:  T  FORCE:  T  STRESS:  F  VC:  F  ENSEMBLE:  F
  @ DRIVER MODE:  SCF:  T  FORCE:  T  STRESS:  F  VC:  F  ENSEMBLE:  F

     Using Slab Decomposition

     bravais-lattice index     =            0
     lattice parameter (alat)  =       1.8897  a.u.
     unit-cell volume          =    6658.9804 (a.u.)^3
     number of atoms/cell      =           57
     number of atomic types    =            5
     number of electrons       =       409.00
     number of Kohn-Sham states=          214
     kinetic-energy cutoff     =      29.3995  Ry
     charge density cutoff     =     293.9946  Ry
     scf convergence threshold =      7.3E-08
     mixing beta               =       0.0500
     number of iterations used =            8  plain     mixing
     Exchange-correlation= BEEF-VDW
                           (   1   4  43  14   2   0   0)

     celldm(1)=   1.889726  celldm(2)=   0.000000  celldm(3)=   0.000000
     celldm(4)=   0.000000  celldm(5)=   0.000000  celldm(6)=   0.000000

     crystal axes: (cart. coord. in units of alat)
               a(1) = (   6.579727   0.000000   0.000000 )
               a(2) = (  -0.000775   5.961596   0.000000 )
               a(3) = (   0.000000   0.000000  25.155947 )

     reciprocal axes: (cart. coord. in units 2 pi/alat)
               b(1) = (  0.151982  0.000020  0.000000 )
               b(2) = (  0.000000  0.167740  0.000000 )
               b(3) = (  0.000000  0.000000  0.039752 )

     PseudoPot. # 1 for Ti read from file:
     /storage/coda1/p-amedford6/0/shared/rich_project_chbe-medford/medford-share/data/pseudos_module/espresso/nninc/pbe/van/Ti.UPF
     MD5 check sum: 8e4df49b7f0d34bbd5052bf3f5ea0213
     Pseudo is Ultrasoft, Zval = 12.0
     Generated by new atomic code, or converted to UPF format
     Using radial grid of  851 points,  6 beta functions with:
                l(1) =   0
                l(2) =   0
                l(3) =   1
                l(4) =   1
                l(5) =   2
                l(6) =   2
     Q(r) pseudized with  8 coefficients,  rinner =    1.000   1.000   1.000
                                                       1.000   1.000

     PseudoPot. # 2 for O  read from file:
     /storage/coda1/p-amedford6/0/shared/rich_project_chbe-medford/medford-share/data/pseudos_module/espresso/nninc/pbe/van/O.UPF
     MD5 check sum: 78c19812648e8988a0fe644b0f25305e
     Pseudo is Ultrasoft, Zval =  6.0
     Generated by new atomic code, or converted to UPF format
     Using radial grid of  737 points,  4 beta functions with:
                l(1) =   0
                l(2) =   0
                l(3) =   1
                l(4) =   1
     Q(r) pseudized with  8 coefficients,  rinner =    0.800   0.800   0.800

     PseudoPot. # 3 for C  read from file:
     /storage/coda1/p-amedford6/0/shared/rich_project_chbe-medford/medford-share/data/pseudos_module/espresso/nninc/pbe/van/C.UPF
     MD5 check sum: 1a69bf6b8db32088f5b2163dbdb77a27
     Pseudo is Ultrasoft, Zval =  4.0
     Generated by new atomic code, or converted to UPF format
     Using radial grid of  721 points,  4 beta functions with:
                l(1) =   0
                l(2) =   0
                l(3) =   1
                l(4) =   1
     Q(r) pseudized with  8 coefficients,  rinner =    0.800   0.800   0.800

     PseudoPot. # 4 for H  read from file:
     /storage/coda1/p-amedford6/0/shared/rich_project_chbe-medford/medford-share/data/pseudos_module/espresso/nninc/pbe/van/H.UPF
     MD5 check sum: b5ee9d7bfd3a09ee7748110bda690ff7
     Pseudo is Ultrasoft, Zval =  1.0
     Generated by new atomic code, or converted to UPF format
     Using radial grid of  615 points,  1 beta functions with:
                l(1) =   0
     Q(r) pseudized with  8 coefficients,  rinner =    0.800

     PseudoPot. # 5 for N  read from file:
     /storage/coda1/p-amedford6/0/shared/rich_project_chbe-medford/medford-share/data/pseudos_module/espresso/nninc/pbe/van/N.UPF
     MD5 check sum: 90d10febe142ad51ac9d5be1deb811c4
     Pseudo is Ultrasoft, Zval =  5.0
     Generated by new atomic code, or converted to UPF format
     Using radial grid of  729 points,  4 beta functions with:
                l(1) =   0
                l(2) =   0
                l(3) =   1
                l(4) =   1
     Q(r) pseudized with  8 coefficients,  rinner =    0.800   0.800   0.800

     atomic species   valence    mass     pseudopotential
        Ti1           12.00    47.86700     Ti( 1.00)
        O1             6.00    15.99900     O ( 1.00)
        C1             4.00    12.01100     C ( 1.00)
        H1             1.00     1.00800     H ( 1.00)
        N1             5.00    14.00700     N ( 1.00)

     No symmetry found

   Cartesian axes

     site n.     atom                  positions (alat units)
         1           Ti1 tau(   1) = (   0.0004258   2.9801865   6.0000000  )
         2           Ti1 tau(   2) = (   3.2906075   1.4906267   6.0002472  )
         3           O1  tau(   3) = (   0.0006271   0.0005054   7.9858123  )
         4           O1  tau(   4) = (   3.2906025   0.0005020   7.3038282  )
         5           O1  tau(   5) = (   4.5942328   1.4918067   9.2879030  )
         6           O1  tau(   6) = (   1.9868534   1.4903216   9.2879459  )
         7           Ti1 tau(   7) = (   3.3113259   3.0354369   9.1618307  )
         8           Ti1 tau(   8) = (   0.0141821   1.6139659   9.3625064  )
         9           O1  tau(   9) = (   3.2964399   0.0287090  11.3517035  )
        10           O1  tau(  10) = (   0.0046459   0.0167322  10.6079620  )
        11           O1  tau(  11) = (   1.2916403   1.5142126  12.6509924  )
        12           O1  tau(  12) = (   5.2954765   1.5212855  12.6445515  )
        13           Ti1 tau(  13) = (   0.0303381   3.0181167  12.7741416  )
        14           Ti1 tau(  14) = (   3.3376880   1.5190318  12.5019279  )
        15           O1  tau(  15) = (   6.5702980   0.0162101  14.7136675  )
        16           O1  tau(  16) = (   3.3118210   0.0215951  13.9605728  )
        17           O1  tau(  17) = (   4.5586303   1.5408398  16.0643691  )
        18           O1  tau(  18) = (   2.0376984   1.5397913  16.0346728  )
        19           Ti1 tau(  19) = (   3.2806018   3.0126274  15.6982083  )
        20           Ti1 tau(  20) = (   0.0204579   1.3876160  16.0921805  )
        21           O1  tau(  21) = (   3.2904802   0.0005063   4.7018136  )
        22           O1  tau(  22) = (   0.0362274   0.0182013  17.2505027  )
        23           O1  tau(  23) = (   1.3043587   1.4918075   6.0039043  )
        24           O1  tau(  24) = (   5.2767064   1.4903225   6.0039473  )
        25           Ti1 tau(  25) = (   0.0000382   5.9609847   6.0000000  )
        26           Ti1 tau(  26) = (   3.2902200   4.4714249   6.0002472  )
        27           O1  tau(  27) = (   0.0002396   2.9813036   7.9858123  )
        28           O1  tau(  28) = (   3.2902150   2.9813002   7.3038282  )
        29           O1  tau(  29) = (   4.5938453   4.4726049   9.2879030  )
        30           O1  tau(  30) = (   1.9864658   4.4711199   9.2879459  )
        31           Ti1 tau(  31) = (   3.2918133   0.0584897   9.1554610  )
        32           Ti1 tau(  32) = (   0.0176696   4.5429683   9.2683582  )
        33           O1  tau(  33) = (   3.2944385   3.0046939  11.3531965  )
        34           O1  tau(  34) = (   0.0071923   2.9964285  10.5824339  )
        35           O1  tau(  35) = (   1.2923070   4.5060354  12.6395470  )
        36           O1  tau(  36) = (   5.2930342   4.4972821  12.6335129  )
        37           Ti1 tau(  37) = (   0.0360028   0.0369787  12.5252624  )
        38           Ti1 tau(  38) = (   3.3378333   4.5109478  12.5016189  )
        39           O1  tau(  39) = (   0.0182598   3.0415135  14.6926035  )
        40           O1  tau(  40) = (   3.2973286   3.0139918  13.9115332  )
        41           O1  tau(  41) = (   4.5518717   4.4752506  16.0920674  )
        42           O1  tau(  42) = (   2.0385343   4.4722040  16.0556704  )
        43           Ti1 tau(  43) = (   3.3273276   0.0437280  15.7880462  )
        44           Ti1 tau(  44) = (   0.0148993   4.5306414  15.9319406  )
        45           O1  tau(  45) = (   3.2900926   2.9813045   4.7018136  )
        46           O1  tau(  46) = (   1.3039711   4.4726057   6.0039043  )
        47           O1  tau(  47) = (   5.2763189   4.4711207   6.0039473  )
        48           C1  tau(  48) = (   6.0619278   3.0088867  18.6555636  )
        49           O1  tau(  49) = (   6.5788924   2.9994598  17.3400993  )
        50           H1  tau(  50) = (   4.9713474   2.8828304  18.6415055  )
        51           H1  tau(  51) = (   6.4909130   2.1836263  19.2313859  )
        52           H1  tau(  52) = (   6.3070107   3.9563896  19.1453893  )
        53           N1  tau(  53) = (   5.9950546   3.0301018  22.7159517  )
        54           N1  tau(  54) = (   5.2276613   3.1827328  21.9368001  )
        55           O1  tau(  55) = (   3.1818816   0.0591848  18.2205797  )
        56           H1  tau(  56) = (   3.8437189   5.3938241  18.5518935  )
        57           H1  tau(  57) = (   2.3086839   5.6188137  18.3735615  )

     number of k points=    10  Fermi-Dirac smearing, width (Ry)=  0.0073
                       cart. coord. in units 2pi/alat
        k(    1) = (   0.0000000   0.0000000   0.0000000), wk =   0.1250000
        k(    2) = (   0.0000000   0.0419351   0.0000000), wk =   0.2500000
        k(    3) = (   0.0000000  -0.0838702   0.0000000), wk =   0.1250000
        k(    4) = (   0.0379955   0.0000049   0.0000000), wk =   0.2500000
        k(    5) = (   0.0379955   0.0419400   0.0000000), wk =   0.2500000
        k(    6) = (   0.0379955  -0.0838652   0.0000000), wk =   0.2500000
        k(    7) = (   0.0379955  -0.0419301   0.0000000), wk =   0.2500000
        k(    8) = (  -0.0759910  -0.0000099   0.0000000), wk =   0.1250000
        k(    9) = (  -0.0759910   0.0419252   0.0000000), wk =   0.2500000
        k(   10) = (  -0.0759910  -0.0838800   0.0000000), wk =   0.1250000

     Initial potential from superposition of free atoms

     starting charge  392.99914, renormalised to  409.00000

     negative rho (up, down):  9.746E-03 0.000E+00

     %%%%%%%%%%%%%%%%%%%%%%%%%%%%%%%%%%%%%%%%%%%%%%%%%%%%%%%%%%%%%%%%%%%%%%%%
     %                                                                      %
     % You are using vdW-DF, which was implemented by the Thonhauser group. %
     % Please cite the following two papers that made this development      %
     % possible and the two reviews that describe the various versions:     %
     %                                                                      %
     %   T. Thonhauser et al., PRL 115, 136402 (2015).                      %
     %   T. Thonhauser et al., PRB 76, 125112 (2007).                       %
     %   K. Berland et al., Rep. Prog. Phys. 78, 066501 (2015).             %
     %   D.C. Langreth et al., J. Phys.: Condens. Matter 21, 084203 (2009). %
     %                                                                      %
     %                                                                      %
     % If you are calculating the stress with vdW-DF, please also cite:     %
     %                                                                      %
     %   R. Sabatini et al., J. Phys.: Condens. Matter 24, 424209 (2012).   %
     %                                                                      %
     %%%%%%%%%%%%%%%%%%%%%%%%%%%%%%%%%%%%%%%%%%%%%%%%%%%%%%%%%%%%%%%%%%%%%%%%

     Adding external electric field

     Computed dipole along edir(3) :
        Dipole              -18.5707 Ry au,        -47.2021 Debye
        Dipole field         -0.0350 Ry au,

        Potential amp.        3.2487 Ry
        Total length         46.3494 bohr

     Starting wfcs are  309 atomic wfcs
  @ DRIVER MODE: Message from server: STATUS
  @ DRIVER MODE: Message from server: POSDATA
  @ DRIVER MODE: Reading and sharing cell
  @ DRIVER MODE: Reading and sharing positions
  @ DRIVER MODE: Received positions

     Self-consistent Calculation

     iteration #  1     ecut=    29.40 Ry     beta= 0.05
     Davidson diagonalization with overlap
     c_bands:  3 eigenvalues not converged
     c_bands:  2 eigenvalues not converged
     c_bands:  2 eigenvalues not converged
     c_bands:  5 eigenvalues not converged
     c_bands:  5 eigenvalues not converged
     c_bands:  5 eigenvalues not converged
     c_bands:  1 eigenvalues not converged
     c_bands:  3 eigenvalues not converged
     ethr =  1.00E-05,  avg # of iterations = 28.5

[...]

     total energy              =   -2113.11268952 Ry
     estimated scf accuracy    <   10297.53417760 Ry

     iteration #  2     ecut=    29.40 Ry     beta= 0.05
     Davidson diagonalization with overlap
     ethr =  1.00E-02,  avg # of iterations = 29.9

[...]

     iteration # 70     ecut=    29.40 Ry     beta= 0.05
     Davidson diagonalization with overlap
     c_bands:  2 eigenvalues not converged
     c_bands:  1 eigenvalues not converged
     ethr =  1.83E-10,  avg # of iterations = 17.3

[...]

     total energy              =   -3006.52131853 Ry
     estimated scf accuracy    <       0.00000070 Ry

     iteration # 76     ecut=    29.40 Ry     beta= 0.05
     Davidson diagonalization with overlap
     ethr =  4.61E-11,  avg # of iterations = 15.5

     negative rho (up, down):  1.093E-02 0.000E+00

     Adding external electric field

     Computed dipole along edir(3) :
        Dipole                0.9956 Ry au,          2.5306 Debye
        Dipole field          0.0019 Ry au,

        Potential amp.       -0.1742 Ry
        Total length         46.3494 bohr

     End of self-consistent calculation

          k = 0.0000 0.0000 0.0000 ( 18029 PWs)   bands (ev):

   -55.2852 -55.2506 -55.2493 -55.2143 -55.1917 -55.1761 -55.1686 -55.1329
   -55.0823 -55.0640 -55.0482 -55.0407 -55.0068 -54.9528 -54.2921 -54.2580
   -31.8076 -31.7544 -31.6773 -31.6456 -31.6241 -31.5770 -31.5598 -31.5562
   -31.5200 -31.5149 -31.4782 -31.4646 -31.4582 -31.4490 -31.4449 -31.4320
   -31.4257 -31.3897 -31.3845 -31.3767 -31.3726 -31.3536 -31.3498 -31.3408
   -31.3330 -31.3269 -31.3112 -31.2897 -31.2793 -31.2736 -31.2704 -31.2630
   -31.2601 -31.2443 -31.2317 -31.2216 -31.2200 -31.1852 -31.1702 -31.1498
   -31.1375 -31.1362 -30.7013 -30.6056 -30.5832 -30.5180 -30.4319 -30.3208
   -21.4251 -18.7349 -17.1980 -16.0000 -15.7295 -15.5693 -15.4382 -15.4029
   -15.2159 -15.0943 -14.9615 -14.9374 -14.8837 -14.8564 -14.8220 -14.8113
   -14.8064 -14.7942 -14.7862 -14.7394 -14.7048 -14.6874 -14.6869 -14.6636
   -14.6149 -14.5614 -14.4964 -14.4313 -14.4026 -14.3610 -14.2918 -14.2838
   -12.7926 -12.6747  -9.1189  -6.6020  -6.5282  -4.5633  -4.5524  -3.9072
    -3.7673  -3.4877  -3.3637  -3.2862  -3.2117  -3.1892  -3.1677  -3.0925
    -2.9822  -2.8454  -2.7501  -2.5107  -2.4554  -2.4127  -2.3810  -2.3520
    -2.1952  -2.1704  -2.1017  -2.0906  -2.0819  -2.0712  -2.0440  -2.0152
    -1.9893  -1.9576  -1.8980  -1.8741  -1.8039  -1.6730  -1.6644  -1.6323
    -1.5859  -1.5697  -1.5681  -1.5414  -1.4973  -1.4784  -1.4540  -1.4486
    -1.3517  -1.2595  -1.2166  -1.1222  -1.0427  -0.9697  -0.8472  -0.8086
    -0.7352  -0.7020  -0.6858  -0.6322  -0.5829  -0.5726  -0.5140  -0.4671
    -0.3595  -0.3168  -0.2750  -0.2381  -0.1867  -0.1425  -0.0719  -0.0384
    -0.0059  -0.0014   0.0196   0.2180   0.2293   0.2807   0.2934   0.3904
     0.4430   0.4775   0.4908   0.5000   0.5379   0.6136   0.6691   0.6777
     0.7094   0.7453   0.7646   0.8115   0.8519   0.9040   0.9335   0.9684
     1.0348   1.0756   1.2291   1.3252   1.3679   1.4840   1.6409   1.7322
     1.8058   1.9062   2.3189   2.3763   3.8963   3.9304   3.9571   3.9755
     4.0434   4.1425   4.2592   4.3500   4.3597   4.3900

[...]

          k = 0.0380-0.0419 0.0000 ( 17876 PWs)   bands (ev):

[...]

          k =-0.0760-0.0000 0.0000 ( 17886 PWs)   bands (ev):

[...]

          k =-0.0760-0.0839 0.0000 ( 17948 PWs)   bands (ev):

   -55.2730 -55.2614 -55.2346 -55.2300 -55.1886 -55.1739 -55.1580 -55.1436
   -55.0850 -55.0609 -55.0504 -55.0260 -55.0216 -54.9554 -54.2756 -54.2744
   -31.6195 -31.6030 -31.5772 -31.5752 -31.5652 -31.5638 -31.5465 -31.5135
   -31.5065 -31.4897 -31.4863 -31.4758 -31.4408 -31.4304 -31.4098 -31.4057
   -31.4007 -31.3987 -31.3973 -31.3912 -31.3882 -31.3848 -31.3733 -31.3649
   -31.3588 -31.3500 -31.3493 -31.3475 -31.3423 -31.3165 -31.2907 -31.2780
   -31.2753 -31.2737 -31.2711 -31.2625 -31.2534 -31.2414 -31.2316 -31.2224
   -31.1807 -31.1470 -30.5965 -30.5952 -30.5148 -30.5138 -30.4755 -30.4745
   -21.4250 -18.7339 -17.1676 -15.4679 -15.3589 -15.2299 -15.1653 -15.1426
   -15.1159 -15.0630 -15.0467 -14.9912 -14.9870 -14.9364 -14.9302 -14.8871
   -14.8803 -14.8263 -14.7981 -14.7891 -14.7601 -14.7274 -14.7114 -14.7103
   -14.6705 -14.6488 -14.6404 -14.6099 -14.6026 -14.5406 -14.5033 -14.4702
   -12.7770 -12.7750  -9.1208  -6.6028  -6.5215  -4.5638  -4.5597  -3.8160
    -3.7263  -3.5134  -3.2724  -3.0036  -2.7534  -2.5708  -2.4795  -2.4105
    -2.3574  -2.3394  -2.2299  -2.2054  -2.1755  -2.1406  -2.1184  -2.1076
    -2.0900  -2.0810  -2.0739  -2.0560  -2.0229  -2.0031  -1.9770  -1.9523
    -1.9373  -1.9136  -1.8960  -1.8886  -1.8638  -1.8359  -1.8292  -1.8263
    -1.7635  -1.7235  -1.5654  -1.5203  -1.4993  -1.4092  -1.3898  -1.3732
    -1.3477  -1.3336  -1.3170  -1.1981  -1.1471  -1.1190  -1.0107  -0.9927
    -0.9667  -0.8283  -0.8045  -0.7721  -0.7433  -0.7018  -0.6322  -0.6081
    -0.5534  -0.5403  -0.4388  -0.4018  -0.3770  -0.3637  -0.2676  -0.2455
    -0.2400  -0.2142  -0.1509  -0.1192  -0.0738  -0.0441  -0.0134   0.0112
     0.0572   0.0770   0.1709   0.1912   0.2275   0.2703   0.3643   0.5312
     0.6240   0.7342   0.7599   0.8069   0.8673   0.9095   0.9611   1.0133
     1.0616   1.0678   1.1308   1.1676   1.2523   1.2662   1.2695   1.3379
     2.0935   2.0938   2.1816   2.1907   4.1378   4.1461   4.2031   4.2227
     4.3620   4.3682   4.3817   4.3893   4.4840   4.5518

     the Fermi energy is     3.8663 ev

!    total energy              =   -3006.52133148 Ry
     estimated scf accuracy    <       0.00000005 Ry
     smearing contrib. (-TS)   =      -0.02294578 Ry
     internal energy E=F+TS    =   -3006.49838570 Ry

     The total energy is F=E-TS. E is the sum of the following terms:
     one-electron contribution =  -22563.59252698 Ry
     hartree contribution      =   11381.14331751 Ry
     xc contribution           =    -501.14624240 Ry
     ewald contribution        =    8677.09519557 Ry
     electric field correction =       0.00187060 Ry

     convergence has been achieved in  76 iterations

     Forces acting on atoms (cartesian axes, Ry/au):

     atom    1 type  1   force =    -0.00014650   -0.00167536    0.10541097
     atom    2 type  1   force =    -0.00021867    0.00114240   -0.17917916
     atom    3 type  2   force =     0.00020564   -0.00553159   -0.03235393
     atom    4 type  2   force =     0.00010310    0.00072129    0.04628862
     atom    5 type  2   force =    -0.01804547    0.00052607    0.00423243
     atom    6 type  2   force =     0.01844067   -0.00044576    0.00410078
     atom    7 type  1   force =     0.00007277    0.00019100    0.00004486
     atom    8 type  1   force =     0.00007123    0.00031072   -0.00013340
     atom    9 type  2   force =     0.00017528    0.00035078   -0.00007565
     atom   10 type  2   force =     0.00017118   -0.00000184    0.00003409
     atom   11 type  2   force =     0.00004841   -0.00034181   -0.00037970
     atom   12 type  2   force =    -0.00006115   -0.00051563   -0.00051902
     atom   13 type  1   force =     0.00047584    0.00023580    0.00008090
     atom   14 type  1   force =    -0.00026644   -0.00047004   -0.00042405
     atom   15 type  2   force =     0.00005081   -0.00053517    0.00031264
     atom   16 type  2   force =    -0.00008364    0.00030670   -0.00022822
     atom   17 type  2   force =    -0.00041475   -0.00059280    0.00010242
     atom   18 type  2   force =     0.00008763   -0.00050815    0.00018497
     atom   19 type  1   force =     0.00035697   -0.00027414   -0.00015158
     atom   20 type  1   force =    -0.00005096   -0.00063579   -0.00080969
     atom   21 type  2   force =    -0.00003391    0.00010067    0.10396983
     atom   22 type  2   force =    -0.00001997   -0.00053989    0.00056909
     atom   23 type  2   force =    -0.06944434    0.00051887   -0.02948092
     atom   24 type  2   force =     0.06919823    0.00097737   -0.02953724
     atom   25 type  1   force =    -0.00003602    0.00156735    0.11482342
     atom   26 type  1   force =    -0.00022217   -0.00048458   -0.17918427
     atom   27 type  2   force =     0.00021417    0.00414182   -0.02605393
     atom   28 type  2   force =     0.00042814    0.00092954    0.04806967
     atom   29 type  2   force =    -0.01631991    0.00162367    0.00384284
     atom   30 type  2   force =     0.01737059    0.00217586    0.00361165
     atom   31 type  1   force =    -0.00014500    0.00010284   -0.00024203
     atom   32 type  1   force =     0.00011056   -0.00008914    0.00024551
     atom   33 type  2   force =     0.00028872   -0.00051192    0.00019933
     atom   34 type  2   force =    -0.00004134   -0.00031554   -0.00026760
     atom   35 type  2   force =    -0.00045798   -0.00013748    0.00001359
     atom   36 type  2   force =     0.00053821    0.00001641    0.00000457
     atom   37 type  1   force =     0.00046736   -0.00073136   -0.00003958
     atom   38 type  1   force =    -0.00037460   -0.00003421   -0.00036600
     atom   39 type  2   force =    -0.00042991   -0.00049964   -0.00049138
     atom   40 type  2   force =     0.00035833   -0.00041099   -0.00026206
     atom   41 type  2   force =    -0.00018497   -0.00004951    0.00007870
     atom   42 type  2   force =    -0.00027846   -0.00019911    0.00004097
     atom   43 type  1   force =     0.00022025    0.00009846    0.00136503
     atom   44 type  1   force =     0.00004784   -0.00044839   -0.00072314
     atom   45 type  2   force =    -0.00003670    0.00007892    0.10403215
     atom   46 type  2   force =    -0.06905228   -0.00107160   -0.02953902
     atom   47 type  2   force =     0.06886431   -0.00062765   -0.02961757
     atom   48 type  3   force =    -0.00096660   -0.00007919   -0.00136803
     atom   49 type  2   force =     0.00143445    0.00036993   -0.00147498
     atom   50 type  4   force =    -0.00018087   -0.00000235    0.00220495
     atom   51 type  4   force =    -0.00026050   -0.00037301    0.00018556
     atom   52 type  4   force =    -0.00051124    0.00036740   -0.00038775
     atom   53 type  5   force =    -0.00103030   -0.00019006   -0.00107164
     atom   54 type  5   force =     0.00049439    0.00038232    0.00078817
     atom   55 type  2   force =     0.00071478   -0.00001603    0.00039601
     atom   56 type  4   force =    -0.00156794    0.00013661   -0.00064922
     atom   57 type  4   force =    -0.00012730    0.00096689   -0.00022297

     Total force =     0.374603     Total SCF correction =     0.000555
  @ DRIVER MODE: Message from server: STATUS
  @ DRIVER MODE: Message from server: GETFORCE
  @ DRIVER MODE: Returning v,forces,stress,ensemble

     Writing output data file ./calc.save/
  @ DRIVER MODE: Message from server: EXIT
  @ DRIVE MODE: Exiting

     General routines

     Parallel routines

   This run was terminated on:  23:24:49  25Sep2021

   JOB DONE.