     Program PWSCF v.6.7GPU starts on  8Sep2021 at 22:32:50

     R & G space division:  proc/nbgrp/npool/nimage =      10
     Reading input from /storage/home/hcoda1/3/ntian30/research/carbon/CxH_vib/CH2_calc/ads_slab/CH2N2_b/out_0002/pw.inp
Warning: card &CELL ignored
Warning: card   CELL_DYNAMICS='IPI', ignored
Warning: card / ignored

     Current dimensions of program PWSCF are:
     Max number of different atomic species (ntypx) = 10
     Max number of k-points (npk) =  40000
     Max angular momentum in pseudopotentials (lmaxx) =  3
     Presently no symmetry can be used with electric field

     Message from routine cell_base_init:
     DEPRECATED: use true lattice parameter, not A to a.u. conversion factor

     IMPORTANT: XC functional enforced from input :
     Exchange-correlation= BEEF-VDW
                           (   1   4  43  14   2   0   0)
     Any further DFT definition will be discarded
     Please, verify this is what you really want

  @ DRIVER MODE: Connecting to
 qe_1139763_2767386.sched-torque.pace.gatech.edu2hw3h6rs_scratch
  using UNIX socket
  @ DRIVER MODE: Message from server: STATUS
  @ DRIVER MODE: Message from server: INIT
  @ DRIVER MODE: Receiving replica           0          -1
  @ DRIVER MODE: Receiving encoded integer          25
  @ DRIVER MODE:  SCF:  T  FORCE:  T  STRESS:  F  VC:  F  ENSEMBLE:  F
  @ DRIVER MODE:  SCF:  T  FORCE:  T  STRESS:  F  VC:  F  ENSEMBLE:  F

     Using Slab Decomposition

     bravais-lattice index     =            0
     lattice parameter (alat)  =       1.8897  a.u.
     unit-cell volume          =    6658.9804 (a.u.)^3
     number of atoms/cell      =           52
     number of atomic types    =            5
     number of electrons       =       394.00
     number of Kohn-Sham states=          207
     kinetic-energy cutoff     =      29.3995  Ry
     charge density cutoff     =     293.9946  Ry
     scf convergence threshold =      7.3E-08
     mixing beta               =       0.0500
     number of iterations used =            8  plain     mixing
     Exchange-correlation= BEEF-VDW
                           (   1   4  43  14   2   0   0)

     celldm(1)=   1.889726  celldm(2)=   0.000000  celldm(3)=   0.000000
     celldm(4)=   0.000000  celldm(5)=   0.000000  celldm(6)=   0.000000

     crystal axes: (cart. coord. in units of alat)
               a(1) = (   6.579727   0.000000   0.000000 )
               a(2) = (  -0.000775   5.961596   0.000000 )
               a(3) = (   0.000000   0.000000  25.155947 )

     reciprocal axes: (cart. coord. in units 2 pi/alat)
               b(1) = (  0.151982  0.000020  0.000000 )
               b(2) = (  0.000000  0.167740  0.000000 )
               b(3) = (  0.000000  0.000000  0.039752 )

     PseudoPot. # 1 for Ti read from file:
     /storage/coda1/p-amedford6/0/shared/rich_project_chbe-medford/medford-share/data/pseudos_module/espresso/nninc/pbe/van/Ti.UPF
     MD5 check sum: 8e4df49b7f0d34bbd5052bf3f5ea0213
     Pseudo is Ultrasoft, Zval = 12.0
     Generated by new atomic code, or converted to UPF format
     Using radial grid of  851 points,  6 beta functions with:
                l(1) =   0
                l(2) =   0
                l(3) =   1
                l(4) =   1
                l(5) =   2
                l(6) =   2
     Q(r) pseudized with  8 coefficients,  rinner =    1.000   1.000   1.000
                                                       1.000   1.000

     PseudoPot. # 2 for O  read from file:
     /storage/coda1/p-amedford6/0/shared/rich_project_chbe-medford/medford-share/data/pseudos_module/espresso/nninc/pbe/van/O.UPF
     MD5 check sum: 78c19812648e8988a0fe644b0f25305e
     Pseudo is Ultrasoft, Zval =  6.0
     Generated by new atomic code, or converted to UPF format
     Using radial grid of  737 points,  4 beta functions with:
                l(1) =   0
                l(2) =   0
                l(3) =   1
                l(4) =   1
     Q(r) pseudized with  8 coefficients,  rinner =    0.800   0.800   0.800

     PseudoPot. # 3 for N  read from file:
     /storage/coda1/p-amedford6/0/shared/rich_project_chbe-medford/medford-share/data/pseudos_module/espresso/nninc/pbe/van/N.UPF
     MD5 check sum: 90d10febe142ad51ac9d5be1deb811c4
     Pseudo is Ultrasoft, Zval =  5.0
     Generated by new atomic code, or converted to UPF format
     Using radial grid of  729 points,  4 beta functions with:
                l(1) =   0
                l(2) =   0
                l(3) =   1
                l(4) =   1
     Q(r) pseudized with  8 coefficients,  rinner =    0.800   0.800   0.800

     PseudoPot. # 4 for C  read from file:
     /storage/coda1/p-amedford6/0/shared/rich_project_chbe-medford/medford-share/data/pseudos_module/espresso/nninc/pbe/van/C.UPF
     MD5 check sum: 1a69bf6b8db32088f5b2163dbdb77a27
     Pseudo is Ultrasoft, Zval =  4.0
     Generated by new atomic code, or converted to UPF format
     Using radial grid of  721 points,  4 beta functions with:
                l(1) =   0
                l(2) =   0
                l(3) =   1
                l(4) =   1
     Q(r) pseudized with  8 coefficients,  rinner =    0.800   0.800   0.800

     PseudoPot. # 5 for H  read from file:
     /storage/coda1/p-amedford6/0/shared/rich_project_chbe-medford/medford-share/data/pseudos_module/espresso/nninc/pbe/van/H.UPF
     MD5 check sum: b5ee9d7bfd3a09ee7748110bda690ff7
     Pseudo is Ultrasoft, Zval =  1.0
     Generated by new atomic code, or converted to UPF format
     Using radial grid of  615 points,  1 beta functions with:
                l(1) =   0
     Q(r) pseudized with  8 coefficients,  rinner =    0.800

     atomic species   valence    mass     pseudopotential
        Ti1           12.00    47.86700     Ti( 1.00)
        O1             6.00    15.99900     O ( 1.00)
        N1             5.00    14.00700     N ( 1.00)
        C1             4.00    12.01100     C ( 1.00)
        H1             1.00     1.00800     H ( 1.00)

     No symmetry found

   Cartesian axes

     site n.     atom                  positions (alat units)
         1           Ti1 tau(   1) = (   0.0004258   2.9801865   6.0000000  )
         2           Ti1 tau(   2) = (   3.2906075   1.4906267   6.0002472  )
         3           O1  tau(   3) = (   0.0006271   0.0005054   7.9858123  )
         4           O1  tau(   4) = (   3.2906025   0.0005020   7.3038282  )
         5           O1  tau(   5) = (   4.5942328   1.4918067   9.2879030  )
         6           O1  tau(   6) = (   1.9868534   1.4903216   9.2879459  )
         7           Ti1 tau(   7) = (   3.2907910   2.8959150   9.1758416  )
         8           Ti1 tau(   8) = (   0.0015273   1.4827037   9.2680791  )
         9           O1  tau(   9) = (   3.2944872   5.9444814  11.3088555  )
        10           O1  tau(  10) = (   0.0116148   5.9584955  10.6183126  )
        11           O1  tau(  11) = (   1.2913257   1.4757505  12.6225222  )
        12           O1  tau(  12) = (   5.2743172   1.4729811  12.6021195  )
        13           Ti1 tau(  13) = (   0.0890023   2.9564894  12.7220187  )
        14           Ti1 tau(  14) = (   3.4221593   1.4702301  12.4648352  )
        15           O1  tau(  15) = (   0.0068176   5.9411714  14.5947238  )
        16           O1  tau(  16) = (   3.2944910   5.9492763  13.8828731  )
        17           O1  tau(  17) = (   4.5250581   1.4982466  16.0456249  )
        18           O1  tau(  18) = (   2.0665045   1.4881935  16.0281199  )
        19           Ti1 tau(  19) = (   3.2778778   2.9684174  15.6871799  )
        20           Ti1 tau(  20) = (   6.5490154   1.5309925  16.0314916  )
        21           O1  tau(  21) = (   3.2904802   0.0005063   4.7018136  )
        22           O1  tau(  22) = (   0.0123181   0.0076990  17.1679072  )
        23           O1  tau(  23) = (   1.3043587   1.4918075   6.0039043  )
        24           O1  tau(  24) = (   5.2767064   1.4903225   6.0039473  )
        25           Ti1 tau(  25) = (   0.0000382   5.9609847   6.0000000  )
        26           Ti1 tau(  26) = (   3.2902200   4.4714249   6.0002472  )
        27           O1  tau(  27) = (   0.0002396   2.9813036   7.9858123  )
        28           O1  tau(  28) = (   3.2902150   2.9813002   7.3038282  )
        29           O1  tau(  29) = (   4.5938453   4.4726049   9.2879030  )
        30           O1  tau(  30) = (   1.9864658   4.4711199   9.2879459  )
        31           Ti1 tau(  31) = (   3.2891106   5.8743827   9.1763621  )
        32           Ti1 tau(  32) = (   0.0006254   4.4649316   9.2693709  )
        33           O1  tau(  33) = (   3.2980042   2.9668427  11.3079272  )
        34           O1  tau(  34) = (   0.0092240   2.9805883  10.6323155  )
        35           O1  tau(  35) = (   1.2899229   4.4488879  12.6271902  )
        36           O1  tau(  36) = (   5.2743549   4.4545148  12.6090941  )
        37           Ti1 tau(  37) = (   0.1039690   5.9375691  12.6739196  )
        38           Ti1 tau(  38) = (   3.4213609   4.4493060  12.4702176  )
        39           O1  tau(  39) = (   6.5648181   2.9459624  14.6378081  )
        40           O1  tau(  40) = (   3.2943236   2.9658899  13.8785053  )
        41           O1  tau(  41) = (   4.5287159   4.4634493  16.0515226  )
        42           O1  tau(  42) = (   2.0597896   4.4749507  16.0164256  )
        43           Ti1 tau(  43) = (   3.2714021   5.9517381  15.6902239  )
        44           Ti1 tau(  44) = (   6.5616293   4.5902425  16.0297769  )
        45           O1  tau(  45) = (   3.2900926   2.9813045   4.7018136  )
        46           O1  tau(  46) = (   1.3039711   4.4726057   6.0039043  )
        47           O1  tau(  47) = (   5.2763189   4.4711207   6.0039473  )
        48           N1  tau(  48) = (   0.6559789   3.0609845  18.5091170  )
        49           N1  tau(  49) = (   0.0956274   2.9759187  17.3381616  )
        50           C1  tau(  50) = (   0.0579326   3.2697647  19.6266723  )
        51           H1  tau(  51) = (   5.5568954   3.3836083  19.7010695  )
        52           H1  tau(  52) = (   0.6727643   3.3288843  20.5134281  )

     number of k points=    10  Fermi-Dirac smearing, width (Ry)=  0.0073
                       cart. coord. in units 2pi/alat
        k(    1) = (   0.0000000   0.0000000   0.0000000), wk =   0.1250000
        k(    2) = (   0.0000000   0.0419351   0.0000000), wk =   0.2500000
        k(    3) = (   0.0000000  -0.0838702   0.0000000), wk =   0.1250000
        k(    4) = (   0.0379955   0.0000049   0.0000000), wk =   0.2500000
        k(    5) = (   0.0379955   0.0419400   0.0000000), wk =   0.2500000
        k(    6) = (   0.0379955  -0.0838652   0.0000000), wk =   0.2500000
        k(    7) = (   0.0379955  -0.0419301   0.0000000), wk =   0.2500000
        k(    8) = (  -0.0759910  -0.0000099   0.0000000), wk =   0.1250000
        k(    9) = (  -0.0759910   0.0419252   0.0000000), wk =   0.2500000
        k(   10) = (  -0.0759910  -0.0838800   0.0000000), wk =   0.1250000

     Initial potential from superposition of free atoms

     starting charge  377.99917, renormalised to  394.00000

     negative rho (up, down):  1.509E-02 0.000E+00

     %%%%%%%%%%%%%%%%%%%%%%%%%%%%%%%%%%%%%%%%%%%%%%%%%%%%%%%%%%%%%%%%%%%%%%%%
     %                                                                      %
     % You are using vdW-DF, which was implemented by the Thonhauser group. %
     % Please cite the following two papers that made this development      %
     % possible and the two reviews that describe the various versions:     %
     %                                                                      %
     %   T. Thonhauser et al., PRL 115, 136402 (2015).                      %
     %   T. Thonhauser et al., PRB 76, 125112 (2007).                       %
     %   K. Berland et al., Rep. Prog. Phys. 78, 066501 (2015).             %
     %   D.C. Langreth et al., J. Phys.: Condens. Matter 21, 084203 (2009). %
     %                                                                      %
     %                                                                      %
     % If you are calculating the stress with vdW-DF, please also cite:     %
     %                                                                      %
     %   R. Sabatini et al., J. Phys.: Condens. Matter 24, 424209 (2012).   %
     %                                                                      %
     %%%%%%%%%%%%%%%%%%%%%%%%%%%%%%%%%%%%%%%%%%%%%%%%%%%%%%%%%%%%%%%%%%%%%%%%

     Adding external electric field

     Computed dipole along edir(3) :
        Dipole               -7.6437 Ry au,        -19.4284 Debye
        Dipole field         -0.0144 Ry au,

        Potential amp.        1.3372 Ry
        Total length         46.3494 bohr

     Starting wfcs are  298 atomic wfcs
  @ DRIVER MODE: Message from server: STATUS
  @ DRIVER MODE: Message from server: POSDATA
  @ DRIVER MODE: Reading and sharing cell
  @ DRIVER MODE: Reading and sharing positions
  @ DRIVER MODE: Received positions

     Self-consistent Calculation

     iteration #  1     ecut=    29.40 Ry     beta= 0.05
     Davidson diagonalization with overlap
     c_bands:  1 eigenvalues not converged
     c_bands:  1 eigenvalues not converged
     c_bands:  1 eigenvalues not converged
     c_bands:  1 eigenvalues not converged
     c_bands:  2 eigenvalues not converged
     c_bands:  1 eigenvalues not converged
     ethr =  1.00E-05,  avg # of iterations = 18.6

[...]

     total energy              =   -2699.56954872 Ry
     estimated scf accuracy    <    2638.90714256 Ry

[...]

     iteration #  3     ecut=    29.40 Ry     beta= 0.05
     Davidson diagonalization with overlap
     ethr =  1.00E-02,  avg # of iterations = 15.2

[...]

     iteration # 45     ecut=    29.40 Ry     beta= 0.05
     Davidson diagonalization with overlap
     c_bands:  2 eigenvalues not converged
     ethr =  8.46E-07,  avg # of iterations = 11.0

[...]

     total energy              =   -2937.89147198 Ry
     estimated scf accuracy    <       0.00000010 Ry

     iteration # 66     ecut=    29.40 Ry     beta= 0.05
     Davidson diagonalization with overlap
     ethr =  2.45E-11,  avg # of iterations =  6.3

     negative rho (up, down):  1.606E-02 0.000E+00

     Adding external electric field

     Computed dipole along edir(3) :
        Dipole                0.5081 Ry au,          1.2913 Debye
        Dipole field          0.0010 Ry au,

        Potential amp.       -0.0889 Ry
        Total length         46.3494 bohr

     End of self-consistent calculation

          k = 0.0000 0.0000 0.0000 ( 18029 PWs)   bands (ev):

   -56.3289 -56.2950 -55.9032 -55.8997 -55.8692 -55.8638 -55.8401 -55.8064
   -55.6777 -55.6724 -55.6383 -55.6359 -55.1754 -55.1414 -55.1332 -55.0576
   -32.7846 -32.6209 -32.5936 -32.4879 -32.4410 -32.4081 -32.3947 -32.3682
   -32.3264 -32.1977 -32.1837 -32.1603 -32.1410 -32.1224 -32.1183 -32.0816
   -32.0721 -32.0672 -32.0656 -32.0411 -32.0335 -32.0312 -32.0222 -32.0187
   -32.0031 -31.9961 -31.9920 -31.9503 -31.9120 -31.9116 -31.8474 -31.8331
   -31.8143 -31.8056 -31.7911 -31.7419 -31.6592 -31.5770 -31.5024 -31.4791
   -31.3943 -31.3857 -31.3447 -31.3107 -31.3087 -31.2609 -31.1976 -31.1836
   -17.6551 -16.6971 -16.5376 -16.2613 -16.0304 -16.0025 -15.8668 -15.8359
   -15.8165 -15.7904 -15.6699 -15.6280 -15.5859 -15.4720 -15.4235 -15.4152
   -15.3939 -15.3834 -15.3741 -15.2799 -15.2507 -15.2341 -15.1823 -15.0983
   -15.0603 -15.0211 -14.8819 -14.8564 -14.7683 -14.4974 -13.6762 -13.5623
   -11.8541  -6.6305  -4.5882  -4.1679  -4.0376  -4.0212  -3.8719  -3.7879
    -3.5938  -3.5714  -3.4746  -3.2490  -3.1552  -3.1542  -3.0772  -3.0510
    -3.0092  -2.9488  -2.8836  -2.8551  -2.8306  -2.8070  -2.7473  -2.6730
    -2.6189  -2.5904  -2.5802  -2.5345  -2.4361  -2.3720  -2.3621  -2.3391
    -2.2767  -2.2641  -2.2413  -2.2380  -2.2032  -2.1850  -2.1064  -2.0674
    -1.9506  -1.8756  -1.7535  -1.7503  -1.6717  -1.6637  -1.6305  -1.4373
    -1.4089  -1.3311  -1.3006  -1.2465  -1.2142  -1.1514  -1.0937  -1.0677
    -0.9650  -0.9471  -0.9103  -0.8749  -0.8571  -0.8276  -0.8068  -0.7449
    -0.6962  -0.5239  -0.4767  -0.4418  -0.3573  -0.3363  -0.3096  -0.2675
    -0.2461  -0.2031  -0.1973  -0.1858  -0.1261  -0.1081  -0.0254   0.0414
     0.0482   0.1031   0.1779   0.2366   0.2740   0.3879   0.4382   0.5055
     0.5966   0.6070   0.6684   0.8140   0.8380   0.8464   0.8585   1.0590
     1.3133   1.4083   1.4501   1.5867   2.7543   2.8923   3.0018   3.2001
     3.3164   3.3334   3.5187   3.6637   3.6961   3.7477   3.7554

[...]

          k = 0.0380-0.0419 0.0000 ( 17876 PWs)   bands (ev):

[...]

          k =-0.0760-0.0000 0.0000 ( 17886 PWs)   bands (ev):

[...]

          k =-0.0760-0.0839 0.0000 ( 17948 PWs)   bands (ev):

   -56.3120 -56.3117 -55.8886 -55.8840 -55.8835 -55.8793 -55.8241 -55.8223
   -55.6670 -55.6598 -55.6489 -55.6484 -55.1584 -55.1582 -55.1289 -55.0617
   -32.6067 -32.6062 -32.6004 -32.6002 -32.4395 -32.4391 -32.2480 -32.2441
   -32.1936 -32.1880 -32.1642 -32.1621 -32.1411 -32.1381 -32.0974 -32.0936
   -32.0781 -32.0723 -32.0658 -32.0634 -32.0517 -32.0501 -32.0372 -32.0362
   -32.0157 -32.0026 -31.9850 -31.9764 -31.9464 -31.9359 -31.8905 -31.8846
   -31.8728 -31.8480 -31.8191 -31.8160 -31.5479 -31.4920 -31.4919 -31.4034
   -31.3906 -31.3905 -31.3546 -31.3516 -31.3515 -31.3395 -31.2677 -31.2419
   -17.6488 -16.0530 -16.0526 -16.0503 -16.0460 -15.9262 -15.9241 -15.7640
   -15.7617 -15.7414 -15.7362 -15.5838 -15.5608 -15.5222 -15.5213 -15.4816
   -15.4716 -15.3976 -15.3949 -15.3882 -15.3851 -15.3643 -15.3602 -15.3116
   -15.2699 -15.0362 -14.9615 -14.9051 -14.7921 -14.6861 -13.6648 -13.6647
   -11.8583  -6.6249  -4.5269  -4.0271  -3.3419  -3.3373  -3.1794  -3.1628
    -3.1043  -3.1035  -2.9868  -2.9831  -2.9703  -2.8615  -2.8428  -2.8016
    -2.7988  -2.7847  -2.7820  -2.7449  -2.7394  -2.7167  -2.7108  -2.6567
    -2.6416  -2.6335  -2.6291  -2.5491  -2.5034  -2.4762  -2.4441  -2.4111
    -2.3788  -2.3015  -2.2989  -2.2517  -2.2285  -2.1785  -2.1748  -2.1170
    -2.0816  -2.0122  -2.0027  -1.7874  -1.7500  -1.7403  -1.6808  -1.6018
    -1.5795  -1.4358  -1.4052  -1.3375  -1.3185  -1.2788  -1.2582  -1.2515
    -1.1677  -1.1618  -1.1482  -1.0675  -1.0613  -0.9972  -0.9630  -0.9291
    -0.8493  -0.8361  -0.7946  -0.7935  -0.7825  -0.7118  -0.6647  -0.5960
    -0.5497  -0.5350  -0.4182  -0.3670  -0.2895  -0.2349  -0.1913  -0.0813
    -0.0535  -0.0439   0.1660   0.1760   0.2285   0.3184   0.4395   0.4432
     0.4773   0.5715   0.5918   0.6199   0.6382   0.8301   0.9023   1.2263
     1.2274   1.2668   1.2672   1.5511   2.7125   3.4173   3.4182   3.4442
     3.4446   3.5896   3.6130   3.6485   3.6567   3.7360   3.7395

     the Fermi energy is     2.8412 ev

!    total energy              =   -2937.89149488 Ry
     estimated scf accuracy    <       0.00000007 Ry
     smearing contrib. (-TS)   =      -0.01385279 Ry
     internal energy E=F+TS    =   -2937.87764209 Ry

     The total energy is F=E-TS. E is the sum of the following terms:
     one-electron contribution =  -24293.62566955 Ry
     hartree contribution      =   12233.10620884 Ry
     xc contribution           =    -484.30276928 Ry
     ewald contribution        =    9606.94410080 Ry
     electric field correction =       0.00048710 Ry

     convergence has been achieved in  66 iterations

     Forces acting on atoms (cartesian axes, Ry/au):

     atom    1 type  1   force =     0.00010409   -0.00022067    0.10757435
     atom    2 type  1   force =    -0.00012533   -0.00062636   -0.16920719
     atom    3 type  2   force =    -0.00016001    0.00000453   -0.04211993
     atom    4 type  2   force =     0.00005734   -0.00092914    0.04190554
     atom    5 type  2   force =    -0.01490693    0.00022914   -0.00308254
     atom    6 type  2   force =     0.01654583    0.00104520   -0.00405680
     atom    7 type  1   force =    -0.00113568   -0.00214141    0.00268500
     atom    8 type  1   force =     0.00132148    0.00452173    0.07589071
     atom    9 type  2   force =     0.00003855    0.00010485    0.00022047
     atom   10 type  2   force =    -0.00133496    0.00010143   -0.04758763
     atom   11 type  2   force =    -0.00045952    0.00031824    0.00013699
     atom   12 type  2   force =    -0.00010724    0.00050023    0.00005085
     atom   13 type  1   force =     0.00045294   -0.00041872    0.00132569
     atom   14 type  1   force =    -0.00013331   -0.00012388    0.00023682
     atom   15 type  2   force =    -0.00014638   -0.00018324   -0.00041934
     atom   16 type  2   force =     0.00021326    0.00024562   -0.00049532
     atom   17 type  2   force =     0.00013255    0.00048924    0.00016101
     atom   18 type  2   force =    -0.00033116   -0.00013090   -0.00049399
     atom   19 type  1   force =     0.00011227    0.00080063    0.00021280
     atom   20 type  1   force =     0.00018532    0.00067168    0.00122128
     atom   21 type  2   force =     0.00006931    0.00003855    0.10164920
     atom   22 type  2   force =    -0.00041253    0.00041948   -0.00022321
     atom   23 type  2   force =    -0.07425286   -0.00003597   -0.02984551
     atom   24 type  2   force =     0.07421338    0.00041768   -0.02984644
     atom   25 type  1   force =     0.00025725   -0.00035053    0.10707477
     atom   26 type  1   force =    -0.00003019   -0.00037201   -0.16929835
     atom   27 type  2   force =    -0.00003940   -0.00029475   -0.04105816
     atom   28 type  2   force =     0.00011213   -0.00073117    0.04187867
     atom   29 type  2   force =    -0.01521377    0.00064573   -0.00337180
     atom   30 type  2   force =     0.01678081    0.00101862   -0.00434214
     atom   31 type  1   force =    -0.00132468    0.00037040    0.00244160
     atom   32 type  1   force =     0.00131073   -0.00712032    0.07651523
     atom   33 type  2   force =    -0.00005348    0.00016740   -0.00005433
     atom   34 type  2   force =    -0.00147287   -0.00007733   -0.05588868
     atom   35 type  2   force =     0.00002144    0.00006680    0.00002002
     atom   36 type  2   force =    -0.00006182    0.00021839   -0.00023608
     atom   37 type  1   force =     0.00023566    0.00028421    0.00100026
     atom   38 type  1   force =     0.00012624    0.00023429   -0.00002495
     atom   39 type  2   force =    -0.00027941    0.00000112   -0.00129181
     atom   40 type  2   force =     0.00009440    0.00026707   -0.00014589
     atom   41 type  2   force =    -0.00046397    0.00025461   -0.00056872
     atom   42 type  2   force =     0.00029811    0.00030207    0.00002957
     atom   43 type  1   force =    -0.00019226    0.00058284    0.00058897
     atom   44 type  1   force =    -0.00022397   -0.00025344    0.00091047
     atom   45 type  2   force =     0.00006175    0.00000330    0.10165486
     atom   46 type  2   force =    -0.07424314    0.00001527   -0.02981417
     atom   47 type  2   force =     0.07420130    0.00044844   -0.02983665
     atom   48 type  3   force =    -0.00879990    0.00213783    0.00404124
     atom   49 type  3   force =     0.00267104   -0.00021238    0.00132470
     atom   50 type  4   force =     0.00687781   -0.00260888   -0.00568516
     atom   51 type  5   force =     0.00076591   -0.00001316   -0.00178577
     atom   52 type  5   force =    -0.00135612   -0.00008235    0.00002948

     Total force =     0.389808     Total SCF correction =     0.000388
  @ DRIVER MODE: Message from server: STATUS
  @ DRIVER MODE: Message from server: GETFORCE
  @ DRIVER MODE: Returning v,forces,stress,ensemble

     Writing output data file ./calc.save/
  @ DRIVER MODE: Message from server: EXIT
  @ DRIVE MODE: Exiting

     General routines

     Parallel routines

   This run was terminated on:  22:51:45   8Sep2021

   JOB DONE.