     Program PWSCF v.6.7GPU starts on 15Sep2021 at 20:12:47

     R & G space division:  proc/nbgrp/npool/nimage =      10
     Reading input from /storage/home/hcoda1/3/ntian30/research/carbon/CxH_vib/H2O_calc/ads_slab/CH3NHNHH2O_a/out_0014/pw.inp
Warning: card &CELL ignored
Warning: card   CELL_DYNAMICS='IPI', ignored
Warning: card / ignored

     Current dimensions of program PWSCF are:
     Max number of different atomic species (ntypx) = 10
     Max number of k-points (npk) =  40000
     Max angular momentum in pseudopotentials (lmaxx) =  3
     Presently no symmetry can be used with electric field

     Message from routine cell_base_init:
     DEPRECATED: use true lattice parameter, not A to a.u. conversion factor

     IMPORTANT: XC functional enforced from input :
     Exchange-correlation= BEEF-VDW
                           (   1   4  43  14   2   0   0)
     Any further DFT definition will be discarded
     Please, verify this is what you really want

  @ DRIVER MODE: Connecting to
 qe_1139763_2852620.sched-torque.pace.gatech.edu9jgxq2bt_scratch
  using UNIX socket
  @ DRIVER MODE: Message from server: STATUS
  @ DRIVER MODE: Message from server: INIT
  @ DRIVER MODE: Receiving replica           0          -1
  @ DRIVER MODE: Receiving encoded integer          25
  @ DRIVER MODE:  SCF:  T  FORCE:  T  STRESS:  F  VC:  F  ENSEMBLE:  F
  @ DRIVER MODE:  SCF:  T  FORCE:  T  STRESS:  F  VC:  F  ENSEMBLE:  F

     Using Slab Decomposition

     bravais-lattice index     =            0
     lattice parameter (alat)  =       1.8897  a.u.
     unit-cell volume          =    6658.9804 (a.u.)^3
     number of atoms/cell      =           58
     number of atomic types    =            5
     number of electrons       =       405.00
     number of Kohn-Sham states=          212
     kinetic-energy cutoff     =      29.3995  Ry
     charge density cutoff     =     293.9946  Ry
     scf convergence threshold =      7.3E-08
     mixing beta               =       0.0500
     number of iterations used =            8  plain     mixing
     Exchange-correlation= BEEF-VDW
                           (   1   4  43  14   2   0   0)

     celldm(1)=   1.889726  celldm(2)=   0.000000  celldm(3)=   0.000000
     celldm(4)=   0.000000  celldm(5)=   0.000000  celldm(6)=   0.000000

     crystal axes: (cart. coord. in units of alat)
               a(1) = (   6.579727   0.000000   0.000000 )
               a(2) = (  -0.000775   5.961596   0.000000 )
               a(3) = (   0.000000   0.000000  25.155947 )

     reciprocal axes: (cart. coord. in units 2 pi/alat)
               b(1) = (  0.151982  0.000020  0.000000 )
               b(2) = (  0.000000  0.167740  0.000000 )
               b(3) = (  0.000000  0.000000  0.039752 )

     PseudoPot. # 1 for Ti read from file:
     /storage/coda1/p-amedford6/0/shared/rich_project_chbe-medford/medford-share/data/pseudos_module/espresso/nninc/pbe/van/Ti.UPF
     MD5 check sum: 8e4df49b7f0d34bbd5052bf3f5ea0213
     Pseudo is Ultrasoft, Zval = 12.0
     Generated by new atomic code, or converted to UPF format
     Using radial grid of  851 points,  6 beta functions with:
                l(1) =   0
                l(2) =   0
                l(3) =   1
                l(4) =   1
                l(5) =   2
                l(6) =   2
     Q(r) pseudized with  8 coefficients,  rinner =    1.000   1.000   1.000
                                                       1.000   1.000

     PseudoPot. # 2 for O  read from file:
     /storage/coda1/p-amedford6/0/shared/rich_project_chbe-medford/medford-share/data/pseudos_module/espresso/nninc/pbe/van/O.UPF
     MD5 check sum: 78c19812648e8988a0fe644b0f25305e
     Pseudo is Ultrasoft, Zval =  6.0
     Generated by new atomic code, or converted to UPF format
     Using radial grid of  737 points,  4 beta functions with:
                l(1) =   0
                l(2) =   0
                l(3) =   1
                l(4) =   1
     Q(r) pseudized with  8 coefficients,  rinner =    0.800   0.800   0.800

     PseudoPot. # 3 for N  read from file:
     /storage/coda1/p-amedford6/0/shared/rich_project_chbe-medford/medford-share/data/pseudos_module/espresso/nninc/pbe/van/N.UPF
     MD5 check sum: 90d10febe142ad51ac9d5be1deb811c4
     Pseudo is Ultrasoft, Zval =  5.0
     Generated by new atomic code, or converted to UPF format
     Using radial grid of  729 points,  4 beta functions with:
                l(1) =   0
                l(2) =   0
                l(3) =   1
                l(4) =   1
     Q(r) pseudized with  8 coefficients,  rinner =    0.800   0.800   0.800

     PseudoPot. # 4 for C  read from file:
     /storage/coda1/p-amedford6/0/shared/rich_project_chbe-medford/medford-share/data/pseudos_module/espresso/nninc/pbe/van/C.UPF
     MD5 check sum: 1a69bf6b8db32088f5b2163dbdb77a27
     Pseudo is Ultrasoft, Zval =  4.0
     Generated by new atomic code, or converted to UPF format
     Using radial grid of  721 points,  4 beta functions with:
                l(1) =   0
                l(2) =   0
                l(3) =   1
                l(4) =   1
     Q(r) pseudized with  8 coefficients,  rinner =    0.800   0.800   0.800

     PseudoPot. # 5 for H  read from file:
     /storage/coda1/p-amedford6/0/shared/rich_project_chbe-medford/medford-share/data/pseudos_module/espresso/nninc/pbe/van/H.UPF
     MD5 check sum: b5ee9d7bfd3a09ee7748110bda690ff7
     Pseudo is Ultrasoft, Zval =  1.0
     Generated by new atomic code, or converted to UPF format
     Using radial grid of  615 points,  1 beta functions with:
                l(1) =   0
     Q(r) pseudized with  8 coefficients,  rinner =    0.800

     atomic species   valence    mass     pseudopotential
        Ti1           12.00    47.86700     Ti( 1.00)
        O1             6.00    15.99900     O ( 1.00)
        N1             5.00    14.00700     N ( 1.00)
        C1             4.00    12.01100     C ( 1.00)
        H1             1.00     1.00800     H ( 1.00)

     No symmetry found

   Cartesian axes

     site n.     atom                  positions (alat units)
         1           Ti1 tau(   1) = (   0.0004258   2.9801865   6.0000000  )
         2           Ti1 tau(   2) = (   3.2906075   1.4906267   6.0002472  )
         3           O1  tau(   3) = (   0.0006271   0.0005054   7.9858123  )
         4           O1  tau(   4) = (   3.2906025   0.0005020   7.3038282  )
         5           O1  tau(   5) = (   4.5942328   1.4918067   9.2879030  )
         6           O1  tau(   6) = (   1.9868534   1.4903216   9.2879459  )
         7           Ti1 tau(   7) = (   3.2907910   2.8959150   9.1758416  )
         8           Ti1 tau(   8) = (   0.0015273   1.4827037   9.2680791  )
         9           O1  tau(   9) = (   3.2925356   5.9605122  11.3387169  )
        10           O1  tau(  10) = (   0.0116148   5.9584955  10.6183126  )
        11           O1  tau(  11) = (   1.2897729   1.4809555  12.6268520  )
        12           O1  tau(  12) = (   5.2791511   1.4810064  12.6173870  )
        13           Ti1 tau(  13) = (   0.0595640   3.0140846  12.5912772  )
        14           Ti1 tau(  14) = (   3.3761946   1.4800080  12.4968112  )
        15           O1  tau(  15) = (   6.5629824   0.0009262  14.6613707  )
        16           O1  tau(  16) = (   3.3123588   5.9604043  13.9421911  )
        17           O1  tau(  17) = (   4.5376415   1.5680301  16.0260299  )
        18           O1  tau(  18) = (   2.0142527   1.4857506  15.9764776  )
        19           Ti1 tau(  19) = (   3.2467940   3.0138708  15.6952036  )
        20           Ti1 tau(  20) = (   6.5376764   1.5432071  15.7832198  )
        21           O1  tau(  21) = (   3.2904802   0.0005063   4.7018136  )
        22           O1  tau(  22) = (   6.4898080   0.0110182  17.2547379  )
        23           O1  tau(  23) = (   1.3043587   1.4918075   6.0039043  )
        24           O1  tau(  24) = (   5.2767064   1.4903225   6.0039473  )
        25           Ti1 tau(  25) = (   0.0000382   5.9609847   6.0000000  )
        26           Ti1 tau(  26) = (   3.2902200   4.4714249   6.0002472  )
        27           O1  tau(  27) = (   0.0002396   2.9813036   7.9858123  )
        28           O1  tau(  28) = (   3.2902150   2.9813002   7.3038282  )
        29           O1  tau(  29) = (   4.5938453   4.4726049   9.2879030  )
        30           O1  tau(  30) = (   1.9864658   4.4711199   9.2879459  )
        31           Ti1 tau(  31) = (   3.2891106   5.8743827   9.1763621  )
        32           Ti1 tau(  32) = (   0.0006254   4.4649316   9.2693709  )
        33           O1  tau(  33) = (   3.2967638   2.9790471  11.3409087  )
        34           O1  tau(  34) = (   0.0092240   2.9805883  10.6323155  )
        35           O1  tau(  35) = (   1.2869154   4.4778632  12.6304858  )
        36           O1  tau(  36) = (   5.2845859   4.4648683  12.6187650  )
        37           Ti1 tau(  37) = (   0.0627082   0.0241251  12.5486904  )
        38           Ti1 tau(  38) = (   3.3788516   4.4738568  12.4976958  )
        39           O1  tau(  39) = (   6.5772583   2.9562949  14.6416036  )
        40           O1  tau(  40) = (   3.2725681   2.9944745  13.9013672  )
        41           O1  tau(  41) = (   4.5452577   4.4055011  16.0651929  )
        42           O1  tau(  42) = (   2.0228361   4.5129635  16.0417754  )
        43           Ti1 tau(  43) = (   3.2583029   0.0391736  15.7773877  )
        44           Ti1 tau(  44) = (   6.5476622   4.6515957  16.1089089  )
        45           O1  tau(  45) = (   3.2900926   2.9813045   4.7018136  )
        46           O1  tau(  46) = (   1.3039711   4.4726057   6.0039043  )
        47           O1  tau(  47) = (   5.2763189   4.4711207   6.0039473  )
        48           N1  tau(  48) = (   1.2275869   2.8250850  18.3327965  )
        49           N1  tau(  49) = (   0.1007212   2.9268546  17.4424539  )
        50           C1  tau(  50) = (   0.9934745   3.5098297  19.5973225  )
        51           H1  tau(  51) = (   0.0800711   3.1483545  20.1177682  )
        52           H1  tau(  52) = (   1.8428167   3.3484677  20.2521386  )
        53           H1  tau(  53) = (   0.8645268   4.5787652  19.4145101  )
        54           H1  tau(  54) = (   1.4038961   1.8348574  18.5000659  )
        55           H1  tau(  55) = (   5.8167727   2.7947134  17.9807349  )
        56           O1  tau(  56) = (   3.6251350   0.0523402  18.1652986  )
        57           H1  tau(  57) = (   4.6063402   0.0342754  18.1216558  )
        58           H1  tau(  58) = (   3.3562690   5.1322054  18.4688733  )

     number of k points=    10  Fermi-Dirac smearing, width (Ry)=  0.0073
                       cart. coord. in units 2pi/alat
        k(    1) = (   0.0000000   0.0000000   0.0000000), wk =   0.1250000
        k(    2) = (   0.0000000   0.0419351   0.0000000), wk =   0.2500000
        k(    3) = (   0.0000000  -0.0838702   0.0000000), wk =   0.1250000
        k(    4) = (   0.0379955   0.0000049   0.0000000), wk =   0.2500000
        k(    5) = (   0.0379955   0.0419400   0.0000000), wk =   0.2500000
        k(    6) = (   0.0379955  -0.0838652   0.0000000), wk =   0.2500000
        k(    7) = (   0.0379955  -0.0419301   0.0000000), wk =   0.2500000
        k(    8) = (  -0.0759910  -0.0000099   0.0000000), wk =   0.1250000
        k(    9) = (  -0.0759910   0.0419252   0.0000000), wk =   0.2500000
        k(   10) = (  -0.0759910  -0.0838800   0.0000000), wk =   0.1250000

     Initial potential from superposition of free atoms

     starting charge  388.99913, renormalised to  405.00000

     negative rho (up, down):  1.444E-02 0.000E+00

     %%%%%%%%%%%%%%%%%%%%%%%%%%%%%%%%%%%%%%%%%%%%%%%%%%%%%%%%%%%%%%%%%%%%%%%%
     %                                                                      %
     % You are using vdW-DF, which was implemented by the Thonhauser group. %
     % Please cite the following two papers that made this development      %
     % possible and the two reviews that describe the various versions:     %
     %                                                                      %
     %   T. Thonhauser et al., PRL 115, 136402 (2015).                      %
     %   T. Thonhauser et al., PRB 76, 125112 (2007).                       %
     %   K. Berland et al., Rep. Prog. Phys. 78, 066501 (2015).             %
     %   D.C. Langreth et al., J. Phys.: Condens. Matter 21, 084203 (2009). %
     %                                                                      %
     %                                                                      %
     % If you are calculating the stress with vdW-DF, please also cite:     %
     %                                                                      %
     %   R. Sabatini et al., J. Phys.: Condens. Matter 24, 424209 (2012).   %
     %                                                                      %
     %%%%%%%%%%%%%%%%%%%%%%%%%%%%%%%%%%%%%%%%%%%%%%%%%%%%%%%%%%%%%%%%%%%%%%%%

     Adding external electric field

     Computed dipole along edir(3) :
        Dipole              -14.1501 Ry au,        -35.9660 Debye
        Dipole field         -0.0267 Ry au,

        Potential amp.        2.4753 Ry
        Total length         46.3494 bohr

     Starting wfcs are  307 atomic wfcs
  @ DRIVER MODE: Message from server: STATUS
  @ DRIVER MODE: Message from server: POSDATA
  @ DRIVER MODE: Reading and sharing cell
  @ DRIVER MODE: Reading and sharing positions
  @ DRIVER MODE: Received positions

     Self-consistent Calculation

     iteration #  1     ecut=    29.40 Ry     beta= 0.05
     Davidson diagonalization with overlap
     c_bands:  4 eigenvalues not converged
     c_bands:  1 eigenvalues not converged
     c_bands:  1 eigenvalues not converged
     c_bands:  3 eigenvalues not converged
     c_bands:  2 eigenvalues not converged
     ethr =  1.00E-05,  avg # of iterations = 29.4

[...]

     total energy              =   -2232.55447149 Ry
     estimated scf accuracy    <    8442.99633547 Ry

     iteration #  2     ecut=    29.40 Ry     beta= 0.05
     Davidson diagonalization with overlap
     ethr =  1.00E-02,  avg # of iterations = 29.4

[...]

     iteration # 60     ecut=    29.40 Ry     beta= 0.05
     Davidson diagonalization with overlap
     c_bands:  1 eigenvalues not converged
     ethr =  1.88E-10,  avg # of iterations = 17.5

[...]

     total energy              =   -2976.50535459 Ry
     estimated scf accuracy    <       0.00000020 Ry

     iteration # 64     ecut=    29.40 Ry     beta= 0.05
     Davidson diagonalization with overlap
     ethr =  4.16E-11,  avg # of iterations = 10.7

     negative rho (up, down):  1.503E-02 0.000E+00

     Adding external electric field

     Computed dipole along edir(3) :
        Dipole                0.9834 Ry au,          2.4996 Debye
        Dipole field          0.0019 Ry au,

        Potential amp.       -0.1720 Ry
        Total length         46.3494 bohr

     End of self-consistent calculation

          k = 0.0000 0.0000 0.0000 ( 18029 PWs)   bands (ev):

   -55.5116 -55.4811 -55.4776 -55.4478 -55.4450 -55.3597 -55.3293 -55.3268
   -55.3246 -55.2953 -55.2939 -55.2603 -55.0525 -54.8873 -54.4945 -54.4605
   -32.0253 -31.9954 -31.8838 -31.8610 -31.8273 -31.8041 -31.7855 -31.7842
   -31.7561 -31.7126 -31.7012 -31.6813 -31.6783 -31.6638 -31.6581 -31.6363
   -31.6173 -31.6119 -31.6105 -31.5784 -31.5687 -31.5596 -31.5340 -31.5221
   -31.5195 -31.5171 -31.5141 -31.5086 -31.4935 -31.4855 -31.4820 -31.4725
   -31.4702 -31.4588 -31.4473 -31.4382 -31.4062 -31.3081 -31.2629 -31.1506
   -31.1423 -31.0782 -30.9018 -30.8130 -30.7906 -30.7185 -30.6320 -30.5210
   -18.7229 -16.5590 -16.2218 -15.9845 -15.7622 -15.6689 -15.6267 -15.4298
   -15.3354 -15.2508 -15.1305 -15.0792 -15.0536 -15.0459 -15.0324 -15.0073
   -14.9728 -14.9666 -14.9636 -14.9394 -14.9200 -14.8687 -14.8627 -14.8559
   -14.7626 -14.6983 -14.6636 -14.6505 -14.6408 -14.5752 -14.2032 -12.9966
   -12.8801 -11.6536  -8.8623  -6.4610  -5.1613  -4.2925  -3.6864  -3.5953
    -3.4682  -3.4204  -3.3712  -3.3437  -3.1517  -3.0953  -2.9434  -2.7723
    -2.6988  -2.6605  -2.6273  -2.5829  -2.5539  -2.4353  -2.4102  -2.3452
    -2.3211  -2.3101  -2.2770  -2.2675  -2.2524  -2.2356  -2.1580  -2.1494
    -2.0636  -1.9549  -1.9016  -1.8867  -1.8680  -1.8268  -1.7892  -1.7760
    -1.7629  -1.7447  -1.7314  -1.6935  -1.5778  -1.5273  -1.4477  -1.3681
    -1.2969  -1.2118  -1.1328  -1.1048  -1.0370  -1.0125  -0.9518  -0.9273
    -0.9153  -0.9070  -0.7897  -0.6818  -0.6637  -0.5940  -0.5327  -0.4563
    -0.4127  -0.3870  -0.3171  -0.2842  -0.2734  -0.2598  -0.2337  -0.2187
    -0.1619  -0.0154   0.0617   0.0802   0.1389   0.1797   0.2311   0.2564
     0.2840   0.3321   0.3634   0.4035   0.4532   0.4568   0.4688   0.4929
     0.5071   0.6663   0.7213   0.7547   0.7804   0.8289   0.9414   0.9842
     1.1379   1.2089   1.2742   1.4541   1.5280   1.6088   1.7196   2.0706
     2.0994   2.1453   3.6140   3.7065   3.7474   3.7688   3.8558   3.8582
     4.0691   4.1140   4.1221   4.1894

[...]

          k = 0.0380-0.0419 0.0000 ( 17876 PWs)   bands (ev):

[...]

          k =-0.0760-0.0000 0.0000 ( 17886 PWs)   bands (ev):

[...]

          k =-0.0760-0.0839 0.0000 ( 17948 PWs)   bands (ev):

   -55.4949 -55.4942 -55.4651 -55.4608 -55.4452 -55.3454 -55.3389 -55.3292
   -55.3123 -55.3118 -55.2783 -55.2761 -55.0509 -54.8887 -54.4775 -54.4774
   -31.8388 -31.8221 -31.8110 -31.8104 -31.7899 -31.7891 -31.7491 -31.7417
   -31.7336 -31.7056 -31.6947 -31.6755 -31.6600 -31.6581 -31.6330 -31.6305
   -31.6283 -31.6264 -31.6182 -31.6174 -31.6150 -31.6137 -31.6132 -31.5613
   -31.5530 -31.5467 -31.5387 -31.5278 -31.5141 -31.5130 -31.5085 -31.5041
   -31.4937 -31.4912 -31.4860 -31.4840 -31.4135 -31.3109 -31.2583 -31.2122
   -31.1531 -31.1058 -30.8033 -30.8033 -30.7146 -30.7145 -30.6753 -30.6753
   -18.7214 -16.5356 -15.6586 -15.5876 -15.4717 -15.4427 -15.3830 -15.3328
   -15.3154 -15.2462 -15.2099 -15.1975 -15.1454 -15.1431 -15.0951 -15.0713
   -15.0446 -15.0408 -15.0257 -14.9831 -14.9724 -14.9571 -14.9530 -14.9495
   -14.8723 -14.8364 -14.8323 -14.8277 -14.7584 -14.6248 -14.3522 -12.9819
   -12.9818 -11.6605  -8.8712  -6.4568  -5.1647  -4.2878  -3.6246  -3.0829
    -2.9439  -2.7861  -2.7211  -2.6403  -2.6390  -2.5966  -2.4715  -2.4460
    -2.4087  -2.3795  -2.3491  -2.3405  -2.3310  -2.3252  -2.3139  -2.3017
    -2.2889  -2.2498  -2.2031  -2.1878  -2.1792  -2.1751  -2.1600  -2.1488
    -2.1306  -2.1283  -2.0933  -2.0635  -2.0372  -2.0021  -1.9464  -1.7462
    -1.7191  -1.6979  -1.6741  -1.6580  -1.6463  -1.6132  -1.5749  -1.5643
    -1.4926  -1.4041  -1.3155  -1.2377  -1.2046  -1.1919  -1.1221  -1.0369
    -0.9958  -0.9567  -0.9195  -0.8595  -0.8008  -0.7625  -0.7251  -0.6438
    -0.6255  -0.6154  -0.5541  -0.5375  -0.4775  -0.4692  -0.3912  -0.3504
    -0.3124  -0.2660  -0.2384  -0.2327  -0.2135  -0.1795  -0.1715  -0.1177
    -0.0015   0.0073   0.0265   0.1321   0.2204   0.4595   0.5164   0.5488
     0.6292   0.6917   0.7537   0.7741   0.7960   0.7998   0.8358   0.8966
     1.0105   1.0203   1.0589   1.1471   1.1772   1.8913   1.8921   1.9650
     1.9652   2.0752   3.9263   3.9526   3.9784   4.0142   4.1147   4.1320
     4.1542   4.1563   4.2699   4.2905

     the Fermi energy is     3.6193 ev

!    total energy              =   -2976.50538959 Ry
     estimated scf accuracy    <       0.00000007 Ry
     smearing contrib. (-TS)   =      -0.02132615 Ry
     internal energy E=F+TS    =   -2976.48406344 Ry

     The total energy is F=E-TS. E is the sum of the following terms:
     one-electron contribution =  -23892.23364365 Ry
     hartree contribution      =   12042.63264795 Ry
     xc contribution           =    -495.75422943 Ry
     ewald contribution        =    9368.86933654 Ry
     electric field correction =       0.00182514 Ry

     convergence has been achieved in  64 iterations

     Forces acting on atoms (cartesian axes, Ry/au):

     atom    1 type  1   force =     0.00015296   -0.00028118    0.09583723
     atom    2 type  1   force =    -0.00022958   -0.00062530   -0.17570084
     atom    3 type  2   force =     0.00006131   -0.00014867   -0.02385401
     atom    4 type  2   force =     0.00006334   -0.00154324    0.05349165
     atom    5 type  2   force =    -0.01127010   -0.00076369    0.00355529
     atom    6 type  2   force =     0.01296793    0.00005438    0.00267997
     atom    7 type  1   force =    -0.00096355    0.00065817   -0.00793476
     atom    8 type  1   force =     0.00042415    0.00624287    0.02298121
     atom    9 type  2   force =    -0.00005525   -0.00030956   -0.00095380
     atom   10 type  2   force =    -0.00136740    0.00127909   -0.01512186
     atom   11 type  2   force =    -0.00032608    0.00025217   -0.00022562
     atom   12 type  2   force =    -0.00019850    0.00023075   -0.00032511
     atom   13 type  1   force =     0.00073911   -0.00046579    0.00027334
     atom   14 type  1   force =    -0.00019915    0.00041992    0.00152252
     atom   15 type  2   force =     0.00000815    0.00001916    0.00035029
     atom   16 type  2   force =     0.00026176    0.00005201    0.00009586
     atom   17 type  2   force =     0.00069071   -0.00022328    0.00034993
     atom   18 type  2   force =     0.00013644   -0.00049834    0.00036385
     atom   19 type  1   force =    -0.00128184    0.00019689    0.00071400
     atom   20 type  1   force =     0.00079754   -0.00014116   -0.00004209
     atom   21 type  2   force =     0.00008556   -0.00009023    0.10324150
     atom   22 type  2   force =    -0.00070484   -0.00049726   -0.00067800
     atom   23 type  2   force =    -0.07143654   -0.00018501   -0.02770900
     atom   24 type  2   force =     0.07140535    0.00027644   -0.02771134
     atom   25 type  1   force =     0.00002784   -0.00031178    0.09554741
     atom   26 type  1   force =    -0.00017703   -0.00031125   -0.17598468
     atom   27 type  2   force =     0.00009757   -0.00011934   -0.02295936
     atom   28 type  2   force =     0.00011448   -0.00127394    0.05314261
     atom   29 type  2   force =    -0.01151595    0.00014933    0.00361499
     atom   30 type  2   force =     0.01316482    0.00046138    0.00270543
     atom   31 type  1   force =    -0.00100639    0.00374150   -0.01104097
     atom   32 type  1   force =     0.00050838   -0.00741122    0.02338078
     atom   33 type  2   force =    -0.00023976    0.00031103   -0.00032187
     atom   34 type  2   force =    -0.00033372    0.00024995   -0.02184270
     atom   35 type  2   force =     0.00009096    0.00029863   -0.00036315
     atom   36 type  2   force =    -0.00035338    0.00030077   -0.00028465
     atom   37 type  1   force =     0.00039958    0.00057192   -0.00027511
     atom   38 type  1   force =    -0.00023650   -0.00042071    0.00136502
     atom   39 type  2   force =    -0.00007500   -0.00030581    0.00042383
     atom   40 type  2   force =     0.00032383    0.00009001   -0.00085313
     atom   41 type  2   force =     0.00119099    0.00049317    0.00012582
     atom   42 type  2   force =    -0.00069201    0.00031821    0.00000645
     atom   43 type  1   force =    -0.00097975   -0.00105122   -0.00005735
     atom   44 type  1   force =     0.00076582    0.00058402   -0.00012282
     atom   45 type  2   force =     0.00008681   -0.00010061    0.10324153
     atom   46 type  2   force =    -0.07144801   -0.00013688   -0.02769228
     atom   47 type  2   force =     0.07144664    0.00029543   -0.02772294
     atom   48 type  3   force =     0.00228782   -0.00234243   -0.00170929
     atom   49 type  3   force =    -0.00009984    0.00096845    0.00095793
     atom   50 type  4   force =    -0.02038113    0.00094269   -0.00192569
     atom   51 type  5   force =     0.00724196    0.00311596   -0.00259438
     atom   52 type  5   force =     0.00741324   -0.00160292    0.00439472
     atom   53 type  5   force =     0.00230615   -0.00135811    0.00061489
     atom   54 type  5   force =     0.00024113    0.00023901   -0.00028110
     atom   55 type  5   force =     0.00006288   -0.00005019    0.00075159
     atom   56 type  2   force =    -0.00074272   -0.00007390   -0.00006332
     atom   57 type  5   force =     0.00075404   -0.00004855    0.00000472
     atom   58 type  5   force =    -0.00000522   -0.00012174    0.00061688

     Total force =     0.367526     Total SCF correction =     0.000654
  @ DRIVER MODE: Message from server: STATUS
  @ DRIVER MODE: Message from server: GETFORCE
  @ DRIVER MODE: Returning v,forces,stress,ensemble

     Writing output data file ./calc.save/
  @ DRIVER MODE: Message from server: EXIT
  @ DRIVE MODE: Exiting

     General routines

     Parallel routines

   This run was terminated on:  20:31:49  15Sep2021

   JOB DONE.