     Program PWSCF v.6.7GPU starts on 15Sep2021 at 22:48:44

     R & G space division:  proc/nbgrp/npool/nimage =      10
     Reading input from /storage/home/hcoda1/3/ntian30/research/carbon/CxH_vib/H2O_calc/ads_slab/CHN2H2O_c/out_0023/pw.inp
Warning: card &CELL ignored
Warning: card   CELL_DYNAMICS='IPI', ignored
Warning: card / ignored

     Current dimensions of program PWSCF are:
     Max number of different atomic species (ntypx) = 10
     Max number of k-points (npk) =  40000
     Max angular momentum in pseudopotentials (lmaxx) =  3
     Presently no symmetry can be used with electric field

     Message from routine cell_base_init:
     DEPRECATED: use true lattice parameter, not A to a.u. conversion factor

     IMPORTANT: XC functional enforced from input :
     Exchange-correlation= BEEF-VDW
                           (   1   4  43  14   2   0   0)
     Any further DFT definition will be discarded
     Please, verify this is what you really want

  @ DRIVER MODE: Connecting to
 qe_1139763_2852625.sched-torque.pace.gatech.edu3hzcql3e_scratch
  using UNIX socket
  @ DRIVER MODE: Message from server: STATUS
  @ DRIVER MODE: Message from server: INIT
  @ DRIVER MODE: Receiving replica           0          -1
  @ DRIVER MODE: Receiving encoded integer          25
  @ DRIVER MODE:  SCF:  T  FORCE:  T  STRESS:  F  VC:  F  ENSEMBLE:  F
  @ DRIVER MODE:  SCF:  T  FORCE:  T  STRESS:  F  VC:  F  ENSEMBLE:  F

     Using Slab Decomposition

     bravais-lattice index     =            0
     lattice parameter (alat)  =       1.8897  a.u.
     unit-cell volume          =    6658.9804 (a.u.)^3
     number of atoms/cell      =           54
     number of atomic types    =            5
     number of electrons       =       401.00
     number of Kohn-Sham states=          210
     kinetic-energy cutoff     =      29.3995  Ry
     charge density cutoff     =     293.9946  Ry
     scf convergence threshold =      7.3E-08
     mixing beta               =       0.0500
     number of iterations used =            8  plain     mixing
     Exchange-correlation= BEEF-VDW
                           (   1   4  43  14   2   0   0)

     celldm(1)=   1.889726  celldm(2)=   0.000000  celldm(3)=   0.000000
     celldm(4)=   0.000000  celldm(5)=   0.000000  celldm(6)=   0.000000

     crystal axes: (cart. coord. in units of alat)
               a(1) = (   6.579727   0.000000   0.000000 )
               a(2) = (  -0.000775   5.961596   0.000000 )
               a(3) = (   0.000000   0.000000  25.155947 )

     reciprocal axes: (cart. coord. in units 2 pi/alat)
               b(1) = (  0.151982  0.000020  0.000000 )
               b(2) = (  0.000000  0.167740  0.000000 )
               b(3) = (  0.000000  0.000000  0.039752 )

     PseudoPot. # 1 for Ti read from file:
     /storage/coda1/p-amedford6/0/shared/rich_project_chbe-medford/medford-share/data/pseudos_module/espresso/nninc/pbe/van/Ti.UPF
     MD5 check sum: 8e4df49b7f0d34bbd5052bf3f5ea0213
     Pseudo is Ultrasoft, Zval = 12.0
     Generated by new atomic code, or converted to UPF format
     Using radial grid of  851 points,  6 beta functions with:
                l(1) =   0
                l(2) =   0
                l(3) =   1
                l(4) =   1
                l(5) =   2
                l(6) =   2
     Q(r) pseudized with  8 coefficients,  rinner =    1.000   1.000   1.000
                                                       1.000   1.000

     PseudoPot. # 2 for O  read from file:
     /storage/coda1/p-amedford6/0/shared/rich_project_chbe-medford/medford-share/data/pseudos_module/espresso/nninc/pbe/van/O.UPF
     MD5 check sum: 78c19812648e8988a0fe644b0f25305e
     Pseudo is Ultrasoft, Zval =  6.0
     Generated by new atomic code, or converted to UPF format
     Using radial grid of  737 points,  4 beta functions with:
                l(1) =   0
                l(2) =   0
                l(3) =   1
                l(4) =   1
     Q(r) pseudized with  8 coefficients,  rinner =    0.800   0.800   0.800

     PseudoPot. # 3 for C  read from file:
     /storage/coda1/p-amedford6/0/shared/rich_project_chbe-medford/medford-share/data/pseudos_module/espresso/nninc/pbe/van/C.UPF
     MD5 check sum: 1a69bf6b8db32088f5b2163dbdb77a27
     Pseudo is Ultrasoft, Zval =  4.0
     Generated by new atomic code, or converted to UPF format
     Using radial grid of  721 points,  4 beta functions with:
                l(1) =   0
                l(2) =   0
                l(3) =   1
                l(4) =   1
     Q(r) pseudized with  8 coefficients,  rinner =    0.800   0.800   0.800

     PseudoPot. # 4 for H  read from file:
     /storage/coda1/p-amedford6/0/shared/rich_project_chbe-medford/medford-share/data/pseudos_module/espresso/nninc/pbe/van/H.UPF
     MD5 check sum: b5ee9d7bfd3a09ee7748110bda690ff7
     Pseudo is Ultrasoft, Zval =  1.0
     Generated by new atomic code, or converted to UPF format
     Using radial grid of  615 points,  1 beta functions with:
                l(1) =   0
     Q(r) pseudized with  8 coefficients,  rinner =    0.800

     PseudoPot. # 5 for N  read from file:
     /storage/coda1/p-amedford6/0/shared/rich_project_chbe-medford/medford-share/data/pseudos_module/espresso/nninc/pbe/van/N.UPF
     MD5 check sum: 90d10febe142ad51ac9d5be1deb811c4
     Pseudo is Ultrasoft, Zval =  5.0
     Generated by new atomic code, or converted to UPF format
     Using radial grid of  729 points,  4 beta functions with:
                l(1) =   0
                l(2) =   0
                l(3) =   1
                l(4) =   1
     Q(r) pseudized with  8 coefficients,  rinner =    0.800   0.800   0.800

     atomic species   valence    mass     pseudopotential
        Ti1           12.00    47.86700     Ti( 1.00)
        O1             6.00    15.99900     O ( 1.00)
        C1             4.00    12.01100     C ( 1.00)
        H1             1.00     1.00800     H ( 1.00)
        N1             5.00    14.00700     N ( 1.00)

     No symmetry found

   Cartesian axes

     site n.     atom                  positions (alat units)
         1           Ti1 tau(   1) = (   0.0004258   2.9801865   6.0000000  )
         2           Ti1 tau(   2) = (   3.2906075   1.4906267   6.0002472  )
         3           O1  tau(   3) = (   0.0006271   0.0005054   7.9858123  )
         4           O1  tau(   4) = (   3.2906025   0.0005020   7.3038282  )
         5           O1  tau(   5) = (   4.5942328   1.4918067   9.2879030  )
         6           O1  tau(   6) = (   1.9868534   1.4903216   9.2879459  )
         7           Ti1 tau(   7) = (   3.2907910   2.8959150   9.1758416  )
         8           Ti1 tau(   8) = (   0.0015273   1.4827037   9.2680791  )
         9           O1  tau(   9) = (   3.2982821   5.9591942  11.3418950  )
        10           O1  tau(  10) = (   0.0116148   5.9584955  10.6183126  )
        11           O1  tau(  11) = (   1.2990089   1.4837789  12.6285733  )
        12           O1  tau(  12) = (   5.2904647   1.4888503  12.6163117  )
        13           Ti1 tau(  13) = (   0.0603338   2.9457994  12.6026339  )
        14           Ti1 tau(  14) = (   3.3706290   1.4705258  12.5092779  )
        15           O1  tau(  15) = (   6.5788109   0.0160518  14.6499261  )
        16           O1  tau(  16) = (   3.3158691   0.0087694  13.9605792  )
        17           O1  tau(  17) = (   4.5613999   1.5213109  16.0555727  )
        18           O1  tau(  18) = (   2.0390476   1.5587733  16.0026688  )
        19           Ti1 tau(  19) = (   3.2958454   3.0042652  15.6812246  )
        20           Ti1 tau(  20) = (   0.0477533   1.5223793  15.8108347  )
        21           O1  tau(  21) = (   3.2904802   0.0005063   4.7018136  )
        22           O1  tau(  22) = (   0.0778492   0.0082781  17.2116806  )
        23           O1  tau(  23) = (   1.3043587   1.4918075   6.0039043  )
        24           O1  tau(  24) = (   5.2767064   1.4903225   6.0039473  )
        25           Ti1 tau(  25) = (   0.0000382   5.9609847   6.0000000  )
        26           Ti1 tau(  26) = (   3.2902200   4.4714249   6.0002472  )
        27           O1  tau(  27) = (   0.0002396   2.9813036   7.9858123  )
        28           O1  tau(  28) = (   3.2902150   2.9813002   7.3038282  )
        29           O1  tau(  29) = (   4.5938453   4.4726049   9.2879030  )
        30           O1  tau(  30) = (   1.9864658   4.4711199   9.2879459  )
        31           Ti1 tau(  31) = (   3.2891106   5.8743827   9.1763621  )
        32           Ti1 tau(  32) = (   0.0006254   4.4649316   9.2693709  )
        33           O1  tau(  33) = (   3.3003553   2.9806904  11.3444413  )
        34           O1  tau(  34) = (   0.0092240   2.9805883  10.6323155  )
        35           O1  tau(  35) = (   1.2971990   4.4717445  12.6361083  )
        36           O1  tau(  36) = (   5.2938362   4.4783115  12.6231241  )
        37           Ti1 tau(  37) = (   0.0537182   5.9220384  12.5388396  )
        38           Ti1 tau(  38) = (   3.3696634   4.4695314  12.5002334  )
        39           O1  tau(  39) = (   0.0023790   2.9538485  14.6690360  )
        40           O1  tau(  40) = (   3.3142834   2.9899978  13.8932647  )
        41           O1  tau(  41) = (   4.5682027   4.4688565  16.0600133  )
        42           O1  tau(  42) = (   2.0418658   4.4415600  16.0251682  )
        43           Ti1 tau(  43) = (   3.3511655   0.0130708  15.8150828  )
        44           Ti1 tau(  44) = (   0.0311020   4.6533438  16.0685068  )
        45           O1  tau(  45) = (   3.2900926   2.9813045   4.7018136  )
        46           O1  tau(  46) = (   1.3039711   4.4726057   6.0039043  )
        47           O1  tau(  47) = (   5.2763189   4.4711207   6.0039473  )
        48           C1  tau(  48) = (   0.0453995   2.9433715  17.6444507  )
        49           H1  tau(  49) = (   0.9770157   2.9292850  18.2072415  )
        50           N1  tau(  50) = (   5.5932985   2.7872967  18.4085793  )
        51           N1  tau(  51) = (   4.6087457   2.6299947  18.9612495  )
        52           O1  tau(  52) = (   3.0556172   5.9408547  18.1262901  )
        53           H1  tau(  53) = (   3.4776725   0.7204629  18.5958315  )
        54           H1  tau(  54) = (   2.0935776   0.0631959  18.2589326  )

     number of k points=    10  Fermi-Dirac smearing, width (Ry)=  0.0073
                       cart. coord. in units 2pi/alat
        k(    1) = (   0.0000000   0.0000000   0.0000000), wk =   0.1250000
        k(    2) = (   0.0000000   0.0419351   0.0000000), wk =   0.2500000
        k(    3) = (   0.0000000  -0.0838702   0.0000000), wk =   0.1250000
        k(    4) = (   0.0379955   0.0000049   0.0000000), wk =   0.2500000
        k(    5) = (   0.0379955   0.0419400   0.0000000), wk =   0.2500000
        k(    6) = (   0.0379955  -0.0838652   0.0000000), wk =   0.2500000
        k(    7) = (   0.0379955  -0.0419301   0.0000000), wk =   0.2500000
        k(    8) = (  -0.0759910  -0.0000099   0.0000000), wk =   0.1250000
        k(    9) = (  -0.0759910   0.0419252   0.0000000), wk =   0.2500000
        k(   10) = (  -0.0759910  -0.0838800   0.0000000), wk =   0.1250000

     Initial potential from superposition of free atoms

     starting charge  384.99916, renormalised to  401.00000

     negative rho (up, down):  1.777E-02 0.000E+00

     %%%%%%%%%%%%%%%%%%%%%%%%%%%%%%%%%%%%%%%%%%%%%%%%%%%%%%%%%%%%%%%%%%%%%%%%
     %                                                                      %
     % You are using vdW-DF, which was implemented by the Thonhauser group. %
     % Please cite the following two papers that made this development      %
     % possible and the two reviews that describe the various versions:     %
     %                                                                      %
     %   T. Thonhauser et al., PRL 115, 136402 (2015).                      %
     %   T. Thonhauser et al., PRB 76, 125112 (2007).                       %
     %   K. Berland et al., Rep. Prog. Phys. 78, 066501 (2015).             %
     %   D.C. Langreth et al., J. Phys.: Condens. Matter 21, 084203 (2009). %
     %                                                                      %
     %                                                                      %
     % If you are calculating the stress with vdW-DF, please also cite:     %
     %                                                                      %
     %   R. Sabatini et al., J. Phys.: Condens. Matter 24, 424209 (2012).   %
     %                                                                      %
     %%%%%%%%%%%%%%%%%%%%%%%%%%%%%%%%%%%%%%%%%%%%%%%%%%%%%%%%%%%%%%%%%%%%%%%%

     Adding external electric field

     Computed dipole along edir(3) :
        Dipole              -11.5944 Ry au,        -29.4701 Debye
        Dipole field         -0.0219 Ry au,

        Potential amp.        2.0283 Ry
        Total length         46.3494 bohr

     Starting wfcs are  303 atomic wfcs
  @ DRIVER MODE: Message from server: STATUS
  @ DRIVER MODE: Message from server: POSDATA
  @ DRIVER MODE: Reading and sharing cell
  @ DRIVER MODE: Reading and sharing positions
  @ DRIVER MODE: Received positions

     Self-consistent Calculation

     iteration #  1     ecut=    29.40 Ry     beta= 0.05
     Davidson diagonalization with overlap
     c_bands:  3 eigenvalues not converged
     c_bands:  1 eigenvalues not converged
     c_bands:  3 eigenvalues not converged
     c_bands:  3 eigenvalues not converged
     c_bands:  5 eigenvalues not converged
     c_bands:  2 eigenvalues not converged
     c_bands:  2 eigenvalues not converged
     c_bands:  1 eigenvalues not converged
     c_bands:  5 eigenvalues not converged
     ethr =  1.00E-05,  avg # of iterations = 23.5

[...]

     total energy              =   -2415.37333212 Ry
     estimated scf accuracy    <    6267.32108655 Ry

     iteration #  2     ecut=    29.40 Ry     beta= 0.05
     Davidson diagonalization with overlap
     ethr =  1.00E-02,  avg # of iterations = 32.1

[...]

     iteration # 61     ecut=    29.40 Ry     beta= 0.05
     Davidson diagonalization with overlap
     c_bands:  1 eigenvalues not converged
     ethr =  2.85E-11,  avg # of iterations = 11.7

[...]

     total energy              =   -2971.50201124 Ry
     estimated scf accuracy    <       0.00000009 Ry

     iteration # 62     ecut=    29.40 Ry     beta= 0.05
     Davidson diagonalization with overlap
     ethr =  2.29E-11,  avg # of iterations =  5.7

     negative rho (up, down):  1.755E-02 0.000E+00

     Adding external electric field

     Computed dipole along edir(3) :
        Dipole                0.5857 Ry au,          1.4888 Debye
        Dipole field          0.0011 Ry au,

        Potential amp.       -0.1025 Ry
        Total length         46.3494 bohr

     End of self-consistent calculation

          k = 0.0000 0.0000 0.0000 ( 18029 PWs)   bands (ev):

   -55.8773 -55.8432 -55.8428 -55.8377 -55.8062 -55.7204 -55.6915 -55.6829
   -55.6578 -55.6574 -55.6477 -55.6240 -55.4073 -55.2168 -54.8591 -54.8250
   -32.3854 -32.3609 -32.2433 -32.2155 -32.1902 -32.1696 -32.1477 -32.1409
   -32.1210 -32.0686 -32.0638 -32.0615 -32.0297 -32.0231 -32.0181 -31.9921
   -31.9827 -31.9751 -31.9677 -31.9401 -31.9345 -31.9168 -31.8947 -31.8851
   -31.8822 -31.8702 -31.8696 -31.8560 -31.8484 -31.8443 -31.8335 -31.8302
   -31.8257 -31.8214 -31.8110 -31.7990 -31.7697 -31.6562 -31.6218 -31.4769
   -31.4612 -31.4292 -31.2663 -31.1776 -31.1552 -31.0830 -30.9965 -30.8854
   -20.5896 -18.7864 -16.5799 -16.3499 -16.1259 -16.0350 -15.9897 -15.7797
   -15.6706 -15.6151 -15.4912 -15.4272 -15.4194 -15.4119 -15.3909 -15.3808
   -15.3243 -15.3142 -15.3016 -15.2958 -15.2679 -15.2310 -15.2155 -15.2140
   -15.1421 -15.0393 -15.0185 -14.9951 -14.9930 -14.9351 -14.4939 -13.6183
   -13.3612 -13.2447  -6.6270  -5.8248  -4.7410  -4.5334  -3.9538  -3.8198
    -3.7846  -3.7512  -3.7126  -3.5175  -3.4907  -3.3748  -3.2301  -3.1270
    -3.0576  -3.0232  -2.9685  -2.8921  -2.8232  -2.7613  -2.7256  -2.6832
    -2.6740  -2.6383  -2.6315  -2.6137  -2.5943  -2.4934  -2.4590  -2.4099
    -2.3450  -2.2428  -2.2227  -2.1914  -2.1861  -2.1506  -2.1430  -2.1215
    -2.1044  -2.0947  -2.0195  -1.9232  -1.8737  -1.7811  -1.6691  -1.5310
    -1.5285  -1.4843  -1.3565  -1.3431  -1.3131  -1.2863  -1.2711  -1.2303
    -1.1394  -1.0831  -1.0368  -0.9739  -0.9005  -0.8114  -0.7692  -0.7177
    -0.6533  -0.6367  -0.6287  -0.6101  -0.5722  -0.4662  -0.4436  -0.3678
    -0.3627  -0.2770  -0.2457  -0.1851  -0.1545  -0.1165  -0.0777  -0.0039
     0.0160   0.0404   0.0589   0.0864   0.0950   0.1368   0.1697   0.1742
     0.3697   0.3954   0.4544   0.4642   0.5238   0.6452   0.6637   0.7778
     0.8949   1.0903   1.1634   1.2568   1.3551   1.7347   1.7806   1.7888
     3.2461   3.3436   3.3822   3.3913   3.4786   3.4902   3.7073   3.7530
     3.7610   3.8158

[...]

          k = 0.0380-0.0419 0.0000 ( 17876 PWs)   bands (ev):

[...]

          k =-0.0760-0.0000 0.0000 ( 17886 PWs)   bands (ev):

[...]

          k =-0.0760-0.0839 0.0000 ( 17948 PWs)   bands (ev):

   -55.8607 -55.8597 -55.8366 -55.8273 -55.8210 -55.7092 -55.6942 -55.6748
   -55.6735 -55.6492 -55.6428 -55.6392 -55.4059 -55.2180 -54.8422 -54.8418
   -32.2023 -32.1801 -32.1765 -32.1758 -32.1555 -32.1546 -32.1274 -32.1004
   -32.0874 -32.0600 -32.0519 -32.0476 -32.0340 -32.0036 -31.9957 -31.9890
   -31.9812 -31.9811 -31.9803 -31.9790 -31.9774 -31.9747 -31.9558 -31.9227
   -31.9104 -31.9055 -31.8978 -31.8767 -31.8761 -31.8727 -31.8655 -31.8581
   -31.8542 -31.8501 -31.8475 -31.8450 -31.7800 -31.6595 -31.6151 -31.5337
   -31.4792 -31.4522 -31.1681 -31.1678 -31.0792 -31.0788 -31.0399 -31.0397
   -20.5890 -18.7856 -16.0406 -15.9243 -15.8428 -15.8021 -15.7341 -15.6977
   -15.6510 -15.5863 -15.5566 -15.5533 -15.4984 -15.4826 -15.4420 -15.4278
   -15.4031 -15.3969 -15.3808 -15.3327 -15.3208 -15.3124 -15.3034 -15.2998
   -15.2587 -15.2246 -15.1997 -15.1954 -15.0891 -14.9579 -14.6687 -13.6271
   -13.3467 -13.3463  -6.6249  -5.8208  -4.6990  -4.5082  -3.6347  -3.3279
    -3.3177  -3.1005  -3.0446  -2.9883  -2.9809  -2.9371  -2.8145  -2.7869
    -2.7382  -2.7302  -2.6913  -2.6860  -2.6809  -2.6613  -2.6277  -2.6086
    -2.6033  -2.5524  -2.5466  -2.5397  -2.5220  -2.5112  -2.5040  -2.4795
    -2.4527  -2.4372  -2.4204  -2.3907  -2.3094  -2.2774  -2.1093  -2.0680
    -2.0206  -2.0121  -1.9809  -1.9604  -1.9485  -1.9272  -1.8834  -1.7259
    -1.6487  -1.5821  -1.5703  -1.5608  -1.4863  -1.4696  -1.3582  -1.3211
    -1.2878  -1.2539  -1.1795  -1.1009  -1.0930  -1.0716  -0.9666  -0.9592
    -0.9257  -0.8823  -0.8435  -0.8325  -0.8240  -0.7464  -0.6905  -0.6185
    -0.6123  -0.5881  -0.5752  -0.5487  -0.5235  -0.4304  -0.3626  -0.3065
    -0.2732  -0.1856  -0.1561   0.0668   0.0863   0.1990   0.2121   0.2801
     0.3214   0.4299   0.4380   0.4853   0.5091   0.5339   0.5959   0.6621
     0.6718   0.6991   0.8171   1.5265   1.5279   1.6002   1.6006   1.7028
     3.5651   3.5968   3.6294   3.6393   3.7489   3.7694   3.7897   3.7922
     3.9078   3.9277

     the Fermi energy is     3.2538 ev

!    total energy              =   -2971.50206820 Ry
     estimated scf accuracy    <       0.00000005 Ry
     smearing contrib. (-TS)   =      -0.02121351 Ry
     internal energy E=F+TS    =   -2971.48085469 Ry

     The total energy is F=E-TS. E is the sum of the following terms:
     one-electron contribution =  -24216.51684972 Ry
     hartree contribution      =   12198.97318013 Ry
     xc contribution           =    -492.40561874 Ry
     ewald contribution        =    9538.46778619 Ry
     electric field correction =       0.00064746 Ry

     convergence has been achieved in  62 iterations

     Forces acting on atoms (cartesian axes, Ry/au):

     atom    1 type  1   force =     0.00019505   -0.00029829    0.09588117
     atom    2 type  1   force =    -0.00004703   -0.00048296   -0.17569917
     atom    3 type  2   force =     0.00006963   -0.00014491   -0.02406585
     atom    4 type  2   force =     0.00005936   -0.00155931    0.05356474
     atom    5 type  2   force =    -0.01131282   -0.00084867    0.00336138
     atom    6 type  2   force =     0.01318488   -0.00018565    0.00285202
     atom    7 type  1   force =    -0.00059692    0.00052859   -0.00600117
     atom    8 type  1   force =     0.00021886    0.00884043    0.02326140
     atom    9 type  2   force =    -0.00020837    0.00013548   -0.00009865
     atom   10 type  2   force =    -0.00060049    0.00120405   -0.01590932
     atom   11 type  2   force =    -0.00017598    0.00013625   -0.00003980
     atom   12 type  2   force =    -0.00020137   -0.00008059   -0.00016935
     atom   13 type  1   force =     0.00001827    0.00057723    0.00025487
     atom   14 type  1   force =    -0.00006272    0.00004437   -0.00001947
     atom   15 type  2   force =    -0.00028228   -0.00015949   -0.00014912
     atom   16 type  2   force =    -0.00021553    0.00023773   -0.00008145
     atom   17 type  2   force =    -0.00026052   -0.00000731    0.00018268
     atom   18 type  2   force =    -0.00038895    0.00019807   -0.00007835
     atom   19 type  1   force =    -0.00021253   -0.00035857   -0.00016767
     atom   20 type  1   force =    -0.00016293   -0.00025219    0.00024578
     atom   21 type  2   force =     0.00006051   -0.00004623    0.10325023
     atom   22 type  2   force =     0.00017502    0.00017180   -0.00010383
     atom   23 type  2   force =    -0.07145143   -0.00012334   -0.02768862
     atom   24 type  2   force =     0.07143293    0.00030149   -0.02772600
     atom   25 type  1   force =     0.00002024   -0.00024115    0.09564826
     atom   26 type  1   force =    -0.00016873   -0.00038544   -0.17585891
     atom   27 type  2   force =     0.00010075   -0.00019862   -0.02306993
     atom   28 type  2   force =     0.00012203   -0.00121462    0.05307597
     atom   29 type  2   force =    -0.01156473    0.00062122    0.00327443
     atom   30 type  2   force =     0.01330384    0.00092610    0.00278058
     atom   31 type  1   force =    -0.00047027    0.00378369   -0.01060951
     atom   32 type  1   force =     0.00008728   -0.01101012    0.02366936
     atom   33 type  2   force =     0.00011645   -0.00003443    0.00001949
     atom   34 type  2   force =     0.00007729    0.00062181   -0.02084393
     atom   35 type  2   force =    -0.00018504   -0.00022414    0.00000570
     atom   36 type  2   force =    -0.00039189    0.00001682   -0.00009275
     atom   37 type  1   force =     0.00033323   -0.00051840   -0.00000608
     atom   38 type  1   force =     0.00001228    0.00000345   -0.00017924
     atom   39 type  2   force =    -0.00034432    0.00004364   -0.00001154
     atom   40 type  2   force =     0.00003429   -0.00015797   -0.00029481
     atom   41 type  2   force =    -0.00032588   -0.00023691    0.00003991
     atom   42 type  2   force =     0.00011193   -0.00003783   -0.00006015
     atom   43 type  1   force =     0.00021077   -0.00043133   -0.00023022
     atom   44 type  1   force =    -0.00015721   -0.00042222    0.00037938
     atom   45 type  2   force =     0.00006099   -0.00008044    0.10325176
     atom   46 type  2   force =    -0.07145139   -0.00010179   -0.02771409
     atom   47 type  2   force =     0.07145106    0.00033317   -0.02773913
     atom   48 type  3   force =     0.00179906    0.00029129   -0.00005458
     atom   49 type  4   force =     0.00019617    0.00024881    0.00008278
     atom   50 type  5   force =     0.01705340    0.00311595   -0.01128954
     atom   51 type  5   force =    -0.01896078   -0.00265729    0.01130046
     atom   52 type  2   force =    -0.00057831   -0.00004813   -0.00003392
     atom   53 type  4   force =     0.00011948    0.00005323    0.00038078
     atom   54 type  4   force =     0.00015337    0.00011364   -0.00067700

     Total force =     0.368090     Total SCF correction =     0.000375
  @ DRIVER MODE: Message from server: STATUS
  @ DRIVER MODE: Message from server: GETFORCE
  @ DRIVER MODE: Returning v,forces,stress,ensemble

     Writing output data file ./calc.save/
  @ DRIVER MODE: Message from server: EXIT
  @ DRIVE MODE: Exiting

     General routines

     Parallel routines

   This run was terminated on:  23: 6: 6  15Sep2021

   JOB DONE.