     Program PWSCF v.6.7GPU starts on 23Aug2021 at 22: 8:32

     R & G space division:  proc/nbgrp/npool/nimage =       6
     Reading input from /storage/home/hcoda1/3/ntian30/research/carbon/CH2_vib/ads_slab/CH2N2_a/out_0018/pw.inp
Warning: card &CELL ignored
Warning: card   CELL_DYNAMICS='IPI', ignored
Warning: card / ignored

     Current dimensions of program PWSCF are:
     Max number of different atomic species (ntypx) = 10
     Max number of k-points (npk) =  40000
     Max angular momentum in pseudopotentials (lmaxx) =  3
     Presently no symmetry can be used with electric field

     Message from routine cell_base_init:
     DEPRECATED: use true lattice parameter, not A to a.u. conversion factor

     IMPORTANT: XC functional enforced from input :
     Exchange-correlation= BEEF-VDW
                           (   1   4  43  14   2   0   0)
     Any further DFT definition will be discarded
     Please, verify this is what you really want

  @ DRIVER MODE: Connecting to
 qe_1139763_2632803.sched-torque.pace.gatech.edu5u4irj75_scratch
  using UNIX socket
  @ DRIVER MODE: Message from server: STATUS
  @ DRIVER MODE: Message from server: INIT
  @ DRIVER MODE: Receiving replica           0          -1
  @ DRIVER MODE: Receiving encoded integer          25
  @ DRIVER MODE:  SCF:  T  FORCE:  T  STRESS:  F  VC:  F  ENSEMBLE:  F
  @ DRIVER MODE:  SCF:  T  FORCE:  T  STRESS:  F  VC:  F  ENSEMBLE:  F

     Using Slab Decomposition

     bravais-lattice index     =            0
     lattice parameter (alat)  =       1.8897  a.u.
     unit-cell volume          =    6658.9804 (a.u.)^3
     number of atoms/cell      =           52
     number of atomic types    =            5
     number of electrons       =       394.00
     number of Kohn-Sham states=          207
     kinetic-energy cutoff     =      29.3995  Ry
     charge density cutoff     =     293.9946  Ry
     scf convergence threshold =      7.3E-08
     mixing beta               =       0.0500
     number of iterations used =            8  plain     mixing
     Exchange-correlation= BEEF-VDW
                           (   1   4  43  14   2   0   0)

     celldm(1)=   1.889726  celldm(2)=   0.000000  celldm(3)=   0.000000
     celldm(4)=   0.000000  celldm(5)=   0.000000  celldm(6)=   0.000000

     crystal axes: (cart. coord. in units of alat)
               a(1) = (   6.579727   0.000000   0.000000 )
               a(2) = (  -0.000775   5.961596   0.000000 )
               a(3) = (   0.000000   0.000000  25.155947 )

     reciprocal axes: (cart. coord. in units 2 pi/alat)
               b(1) = (  0.151982  0.000020  0.000000 )
               b(2) = (  0.000000  0.167740  0.000000 )
               b(3) = (  0.000000  0.000000  0.039752 )

     PseudoPot. # 1 for Ti read from file:
     /storage/coda1/p-amedford6/0/shared/rich_project_chbe-medford/medford-share/data/pseudos_module/espresso/nninc/pbe/van/Ti.UPF
     MD5 check sum: 8e4df49b7f0d34bbd5052bf3f5ea0213
     Pseudo is Ultrasoft, Zval = 12.0
     Generated by new atomic code, or converted to UPF format
     Using radial grid of  851 points,  6 beta functions with:
                l(1) =   0
                l(2) =   0
                l(3) =   1
                l(4) =   1
                l(5) =   2
                l(6) =   2
     Q(r) pseudized with  8 coefficients,  rinner =    1.000   1.000   1.000
                                                       1.000   1.000

     PseudoPot. # 2 for O  read from file:
     /storage/coda1/p-amedford6/0/shared/rich_project_chbe-medford/medford-share/data/pseudos_module/espresso/nninc/pbe/van/O.UPF
     MD5 check sum: 78c19812648e8988a0fe644b0f25305e
     Pseudo is Ultrasoft, Zval =  6.0
     Generated by new atomic code, or converted to UPF format
     Using radial grid of  737 points,  4 beta functions with:
                l(1) =   0
                l(2) =   0
                l(3) =   1
                l(4) =   1
     Q(r) pseudized with  8 coefficients,  rinner =    0.800   0.800   0.800

     PseudoPot. # 3 for N  read from file:
     /storage/coda1/p-amedford6/0/shared/rich_project_chbe-medford/medford-share/data/pseudos_module/espresso/nninc/pbe/van/N.UPF
     MD5 check sum: 90d10febe142ad51ac9d5be1deb811c4
     Pseudo is Ultrasoft, Zval =  5.0
     Generated by new atomic code, or converted to UPF format
     Using radial grid of  729 points,  4 beta functions with:
                l(1) =   0
                l(2) =   0
                l(3) =   1
                l(4) =   1
     Q(r) pseudized with  8 coefficients,  rinner =    0.800   0.800   0.800

     PseudoPot. # 4 for C  read from file:
     /storage/coda1/p-amedford6/0/shared/rich_project_chbe-medford/medford-share/data/pseudos_module/espresso/nninc/pbe/van/C.UPF
     MD5 check sum: 1a69bf6b8db32088f5b2163dbdb77a27
     Pseudo is Ultrasoft, Zval =  4.0
     Generated by new atomic code, or converted to UPF format
     Using radial grid of  721 points,  4 beta functions with:
                l(1) =   0
                l(2) =   0
                l(3) =   1
                l(4) =   1
     Q(r) pseudized with  8 coefficients,  rinner =    0.800   0.800   0.800

     PseudoPot. # 5 for H  read from file:
     /storage/coda1/p-amedford6/0/shared/rich_project_chbe-medford/medford-share/data/pseudos_module/espresso/nninc/pbe/van/H.UPF
     MD5 check sum: b5ee9d7bfd3a09ee7748110bda690ff7
     Pseudo is Ultrasoft, Zval =  1.0
     Generated by new atomic code, or converted to UPF format
     Using radial grid of  615 points,  1 beta functions with:
                l(1) =   0
     Q(r) pseudized with  8 coefficients,  rinner =    0.800

     atomic species   valence    mass     pseudopotential
        Ti1           12.00    47.86700     Ti( 1.00)
        O1             6.00    15.99900     O ( 1.00)
        N1             5.00    14.00700     N ( 1.00)
        C1             4.00    12.01100     C ( 1.00)
        H1             1.00     1.00800     H ( 1.00)

     No symmetry found

   Cartesian axes

     site n.     atom                  positions (alat units)
         1           Ti1 tau(   1) = (   0.0004258   2.9801865   6.0000000  )
         2           Ti1 tau(   2) = (   3.2906075   1.4906267   6.0002472  )
         3           O1  tau(   3) = (   0.0006271   0.0005054   7.9858123  )
         4           O1  tau(   4) = (   3.2906025   0.0005020   7.3038282  )
         5           O1  tau(   5) = (   4.5942328   1.4918067   9.2879030  )
         6           O1  tau(   6) = (   1.9868534   1.4903216   9.2879459  )
         7           Ti1 tau(   7) = (   3.2907910   2.8959150   9.1758416  )
         8           Ti1 tau(   8) = (   0.0015273   1.4827037   9.2680791  )
         9           O1  tau(   9) = (   3.2817373   5.9460525  11.2946146  )
        10           O1  tau(  10) = (   0.0116148   5.9584955  10.6183126  )
        11           O1  tau(  11) = (   1.3133758   1.4766388  12.6259016  )
        12           O1  tau(  12) = (   5.2926964   1.4629885  12.6363546  )
        13           Ti1 tau(  13) = (   6.4867702   2.9530348  12.7875790  )
        14           Ti1 tau(  14) = (   3.1556433   1.4654666  12.4614878  )
        15           O1  tau(  15) = (   0.0119351   5.9170239  14.6319389  )
        16           O1  tau(  16) = (   3.2888796   5.9458463  13.8730829  )
        17           O1  tau(  17) = (   4.5050169   1.4765614  15.9709225  )
        18           O1  tau(  18) = (   2.0372034   1.4852366  16.0641042  )
        19           Ti1 tau(  19) = (   3.3196583   2.9724019  15.6708981  )
        20           Ti1 tau(  20) = (   6.5671717   1.4125937  15.9950936  )
        21           O1  tau(  21) = (   3.2904802   0.0005063   4.7018136  )
        22           O1  tau(  22) = (   6.4769187   0.0355975  17.2006351  )
        23           O1  tau(  23) = (   1.3043587   1.4918075   6.0039043  )
        24           O1  tau(  24) = (   5.2767064   1.4903225   6.0039473  )
        25           Ti1 tau(  25) = (   0.0000382   5.9609847   6.0000000  )
        26           Ti1 tau(  26) = (   3.2902200   4.4714249   6.0002472  )
        27           O1  tau(  27) = (   0.0002396   2.9813036   7.9858123  )
        28           O1  tau(  28) = (   3.2902150   2.9813002   7.3038282  )
        29           O1  tau(  29) = (   4.5938453   4.4726049   9.2879030  )
        30           O1  tau(  30) = (   1.9864658   4.4711199   9.2879459  )
        31           Ti1 tau(  31) = (   3.2891106   5.8743827   9.1763621  )
        32           Ti1 tau(  32) = (   0.0006254   4.4649316   9.2693709  )
        33           O1  tau(  33) = (   3.2830713   2.9620590  11.2933342  )
        34           O1  tau(  34) = (   0.0092240   2.9805883  10.6323155  )
        35           O1  tau(  35) = (   1.3110001   4.4530301  12.6158702  )
        36           O1  tau(  36) = (   5.2890030   4.4574094  12.6263766  )
        37           Ti1 tau(  37) = (   6.4749751   5.9256585  12.7408108  )
        38           Ti1 tau(  38) = (   3.1548284   4.4449468  12.4552140  )
        39           O1  tau(  39) = (   6.5563663   2.9679540  14.6355405  )
        40           O1  tau(  40) = (   3.2955455   2.9696487  13.8658995  )
        41           O1  tau(  41) = (   4.4874099   4.4549745  16.0617524  )
        42           O1  tau(  42) = (   2.0361269   4.4599000  15.9844638  )
        43           Ti1 tau(  43) = (   3.2961532   5.9498675  15.6757175  )
        44           Ti1 tau(  44) = (   0.0931452   4.4613781  16.2340760  )
        45           O1  tau(  45) = (   3.2900926   2.9813045   4.7018136  )
        46           O1  tau(  46) = (   1.3039711   4.4726057   6.0039043  )
        47           O1  tau(  47) = (   5.2763189   4.4711207   6.0039473  )
        48           N1  tau(  48) = (   0.6376139   3.5490058  18.1121658  )
        49           C1  tau(  49) = (   1.1877089   3.2859424  19.2441644  )
        50           H1  tau(  50) = (   1.7795953   4.0554207  19.7243479  )
        51           H1  tau(  51) = (   1.0443441   2.3179332  19.7136356  )
        52           N1  tau(  52) = (   6.4637678   2.8186144  17.3583733  )

     number of k points=    10  Fermi-Dirac smearing, width (Ry)=  0.0073
                       cart. coord. in units 2pi/alat
        k(    1) = (   0.0000000   0.0000000   0.0000000), wk =   0.1250000
        k(    2) = (   0.0000000   0.0419351   0.0000000), wk =   0.2500000
        k(    3) = (   0.0000000  -0.0838702   0.0000000), wk =   0.1250000
        k(    4) = (   0.0379955   0.0000049   0.0000000), wk =   0.2500000
        k(    5) = (   0.0379955   0.0419400   0.0000000), wk =   0.2500000
        k(    6) = (   0.0379955  -0.0838652   0.0000000), wk =   0.2500000
        k(    7) = (   0.0379955  -0.0419301   0.0000000), wk =   0.2500000
        k(    8) = (  -0.0759910  -0.0000099   0.0000000), wk =   0.1250000
        k(    9) = (  -0.0759910   0.0419252   0.0000000), wk =   0.2500000
        k(   10) = (  -0.0759910  -0.0838800   0.0000000), wk =   0.1250000

     Initial potential from superposition of free atoms

     starting charge  377.99917, renormalised to  394.00000

     negative rho (up, down):  1.612E-02 0.000E+00

     %%%%%%%%%%%%%%%%%%%%%%%%%%%%%%%%%%%%%%%%%%%%%%%%%%%%%%%%%%%%%%%%%%%%%%%%
     %                                                                      %
     % You are using vdW-DF, which was implemented by the Thonhauser group. %
     % Please cite the following two papers that made this development      %
     % possible and the two reviews that describe the various versions:     %
     %                                                                      %
     %   T. Thonhauser et al., PRL 115, 136402 (2015).                      %
     %   T. Thonhauser et al., PRB 76, 125112 (2007).                       %
     %   K. Berland et al., Rep. Prog. Phys. 78, 066501 (2015).             %
     %   D.C. Langreth et al., J. Phys.: Condens. Matter 21, 084203 (2009). %
     %                                                                      %
     %                                                                      %
     % If you are calculating the stress with vdW-DF, please also cite:     %
     %                                                                      %
     %   R. Sabatini et al., J. Phys.: Condens. Matter 24, 424209 (2012).   %
     %                                                                      %
     %%%%%%%%%%%%%%%%%%%%%%%%%%%%%%%%%%%%%%%%%%%%%%%%%%%%%%%%%%%%%%%%%%%%%%%%

     Adding external electric field

     Computed dipole along edir(3) :
        Dipole               -7.0546 Ry au,        -17.9310 Debye
        Dipole field         -0.0133 Ry au,

        Potential amp.        1.2341 Ry
        Total length         46.3494 bohr

     Starting wfcs are  298 atomic wfcs
  @ DRIVER MODE: Message from server: STATUS
  @ DRIVER MODE: Message from server: POSDATA
  @ DRIVER MODE: Reading and sharing cell
  @ DRIVER MODE: Reading and sharing positions
  @ DRIVER MODE: Received positions

     Self-consistent Calculation

     iteration #  1     ecut=    29.40 Ry     beta= 0.05
     Davidson diagonalization with overlap
     c_bands:  1 eigenvalues not converged
     c_bands:  1 eigenvalues not converged
     c_bands:  1 eigenvalues not converged
     c_bands:  2 eigenvalues not converged
     ethr =  1.00E-05,  avg # of iterations = 18.0

[...]

     total energy              =   -2722.34593832 Ry
     estimated scf accuracy    <    2379.24615664 Ry

[...]

     iteration #  3     ecut=    29.40 Ry     beta= 0.05
     Davidson diagonalization with overlap
     ethr =  1.00E-02,  avg # of iterations = 15.8

[...]

     iteration # 61     ecut=    29.40 Ry     beta= 0.05
     Davidson diagonalization with overlap
     c_bands:  1 eigenvalues not converged
     ethr =  2.33E-11,  avg # of iterations =  5.5

[...]

     total energy              =   -2937.87542606 Ry
     estimated scf accuracy    <       0.00000013 Ry

     iteration # 68     ecut=    29.40 Ry     beta= 0.05
     Davidson diagonalization with overlap
     ethr =  1.91E-11,  avg # of iterations =  5.0

     negative rho (up, down):  1.677E-02 0.000E+00

     Adding external electric field

     Computed dipole along edir(3) :
        Dipole                0.3910 Ry au,          0.9939 Debye
        Dipole field          0.0007 Ry au,

        Potential amp.       -0.0684 Ry
        Total length         46.3494 bohr

     End of self-consistent calculation

          k = 0.0000 0.0000 0.0000 ( 18029 PWs)   bands (ev):

   -56.6501 -56.6165 -55.8576 -55.8464 -55.8224 -55.8136 -55.7842 -55.7486
   -55.6095 -55.5640 -55.4670 -55.4020 -55.3516 -55.3176 -55.0601 -54.8082
   -33.0827 -32.9293 -32.9011 -32.8226 -32.7311 -32.7082 -32.3308 -32.3295
   -32.3213 -32.1425 -32.1143 -32.0753 -32.0713 -32.0552 -32.0542 -32.0322
   -31.9988 -31.9947 -31.9942 -31.9875 -31.9728 -31.9622 -31.9612 -31.9499
   -31.9471 -31.9438 -31.9210 -31.9202 -31.8422 -31.7490 -31.7462 -31.7148
   -31.6877 -31.6692 -31.6637 -31.6424 -31.6257 -31.5921 -31.5701 -31.5644
   -31.4824 -31.4803 -31.3693 -31.3205 -31.2721 -31.1582 -31.0485 -30.9560
   -18.0290 -16.8455 -16.5038 -16.2729 -16.0319 -16.0316 -15.9336 -15.9103
   -15.9007 -15.7922 -15.7366 -15.7096 -15.6241 -15.6113 -15.4531 -15.3750
   -15.3549 -15.3397 -15.2208 -15.1682 -15.1542 -15.1075 -15.0763 -15.0116
   -14.8672 -14.8293 -14.7592 -14.6882 -14.5564 -14.3288 -13.8506 -13.7397
   -12.1436  -6.5672  -4.5231  -4.4011  -4.3962  -3.9836  -3.7866  -3.6680
    -3.5575  -3.5339  -3.5032  -3.2921  -3.2538  -3.2295  -3.1905  -3.1319
    -3.0825  -2.9417  -2.9091  -2.8616  -2.8487  -2.8403  -2.8184  -2.7545
    -2.6548  -2.5255  -2.4987  -2.4838  -2.4568  -2.3752  -2.3590  -2.2855
    -2.2588  -2.2367  -2.2115  -2.1915  -2.0422  -2.0235  -1.9956  -1.9741
    -1.9103  -1.8677  -1.8619  -1.7415  -1.6662  -1.5747  -1.5474  -1.4196
    -1.4102  -1.3714  -1.2919  -1.2710  -1.1715  -1.1351  -1.0654  -1.0453
    -0.9839  -0.9639  -0.8432  -0.8277  -0.7988  -0.7890  -0.6640  -0.6538
    -0.6206  -0.5490  -0.5440  -0.4900  -0.3800  -0.3574  -0.3308  -0.2920
    -0.2654  -0.2193  -0.1575  -0.1437  -0.0939  -0.0566   0.0224   0.1343
     0.1384   0.2225   0.2961   0.3228   0.4185   0.4636   0.5310   0.5965
     0.6224   0.6700   0.6898   0.7123   0.8009   0.8986   0.9070   0.9739
     1.2240   1.2635   1.4519   1.8923   2.2686   2.6150   2.7650   3.0688
     3.2006   3.3049   3.5728   3.6059   3.6532   3.7412   3.7650

[...]

          k = 0.0380-0.0419 0.0000 ( 17876 PWs)   bands (ev):

[...]

          k =-0.0760-0.0000 0.0000 ( 17886 PWs)   bands (ev):

[...]

          k =-0.0760-0.0839 0.0000 ( 17948 PWs)   bands (ev):

   -56.6336 -56.6328 -55.8429 -55.8358 -55.8311 -55.8299 -55.7678 -55.7648
   -55.6012 -55.5722 -55.4620 -55.4069 -55.3346 -55.3345 -55.0590 -54.8093
   -32.9155 -32.9143 -32.8995 -32.8990 -32.7756 -32.7748 -32.1597 -32.1573
   -32.1465 -32.1411 -32.1391 -32.1385 -32.0719 -32.0706 -32.0417 -32.0409
   -32.0324 -32.0302 -32.0272 -32.0239 -32.0226 -32.0193 -31.9719 -31.9667
   -31.9417 -31.9251 -31.8853 -31.8654 -31.8018 -31.7934 -31.7744 -31.7459
   -31.6975 -31.6767 -31.6766 -31.6482 -31.6369 -31.5921 -31.5616 -31.5615
   -31.5226 -31.5225 -31.4056 -31.3128 -31.2734 -31.1782 -31.0714 -31.0070
   -18.0195 -16.1975 -16.1939 -16.1570 -16.1564 -15.9509 -15.9464 -15.9020
   -15.8965 -15.7646 -15.7586 -15.5335 -15.5328 -15.5142 -15.4995 -15.4185
   -15.4067 -15.3855 -15.3735 -15.3461 -15.3302 -15.2151 -15.1989 -15.1591
   -15.1180 -14.8349 -14.7663 -14.7062 -14.5843 -14.4753 -13.8430 -13.8429
   -12.1497  -6.5562  -4.5105  -4.3531  -3.3265  -3.3226  -3.2525  -3.2453
    -3.2285  -3.1946  -3.1927  -3.0208  -3.0192  -3.0180  -3.0175  -2.8413
    -2.8401  -2.8215  -2.8058  -2.6990  -2.6836  -2.6664  -2.6481  -2.5956
    -2.5758  -2.5340  -2.5281  -2.5197  -2.5010  -2.4761  -2.4210  -2.4169
    -2.3581  -2.3338  -2.2341  -2.1894  -2.1876  -2.1620  -2.1282  -2.0468
    -2.0107  -1.8592  -1.8517  -1.7848  -1.7841  -1.6850  -1.6253  -1.5924
    -1.5318  -1.4949  -1.4851  -1.4178  -1.3496  -1.3376  -1.2625  -1.2495
    -1.2282  -1.1164  -1.0935  -1.0339  -0.9589  -0.9214  -0.8678  -0.8614
    -0.8435  -0.8307  -0.7981  -0.7407  -0.6718  -0.6394  -0.5865  -0.5482
    -0.5159  -0.4529  -0.3894  -0.3228  -0.2269  -0.1760  -0.1695  -0.1179
    -0.1041   0.0829   0.0923   0.1662   0.3330   0.4104   0.4992   0.5187
     0.5839   0.7212   0.7411   0.7519   0.7872   0.9771   1.0243   1.0748
     1.0752   1.0770   1.0971   1.8483   2.1223   3.1779   3.1788   3.2423
     3.2430   3.5647   3.5686   3.6736   3.6795   3.6939   3.6978

     the Fermi energy is     2.4923 ev

!    total energy              =   -2937.87545003 Ry
     estimated scf accuracy    <       0.00000003 Ry
     smearing contrib. (-TS)   =      -0.00676225 Ry
     internal energy E=F+TS    =   -2937.86868777 Ry

     The total energy is F=E-TS. E is the sum of the following terms:
     one-electron contribution =  -24389.23018572 Ry
     hartree contribution      =   12281.62877460 Ry
     xc contribution           =    -484.37841814 Ry
     ewald contribution        =    9654.11085293 Ry
     electric field correction =       0.00028855 Ry

     convergence has been achieved in  68 iterations

     Forces acting on atoms (cartesian axes, Ry/au):

     atom    1 type  1   force =    -0.00001128   -0.00039005    0.12097866
     atom    2 type  1   force =    -0.00006365   -0.00059444   -0.16253702
     atom    3 type  2   force =     0.00018824   -0.00020628   -0.06340510
     atom    4 type  2   force =    -0.00005756   -0.00047627    0.03044080
     atom    5 type  2   force =    -0.01676664    0.00082215   -0.00761739
     atom    6 type  2   force =     0.01809247    0.00143969   -0.00862311
     atom    7 type  1   force =     0.00080578   -0.00399843    0.01548767
     atom    8 type  1   force =    -0.00025585    0.00469406    0.10595062
     atom    9 type  2   force =    -0.00027867   -0.00003444    0.00045340
     atom   10 type  2   force =    -0.00274988    0.00064874   -0.06143859
     atom   11 type  2   force =     0.00054231    0.00022157   -0.00013971
     atom   12 type  2   force =    -0.00022419    0.00013628   -0.00023408
     atom   13 type  1   force =     0.00029343   -0.00008681    0.00051448
     atom   14 type  1   force =    -0.00004863    0.00049730    0.00044914
     atom   15 type  2   force =     0.00000611    0.00034706    0.00001479
     atom   16 type  2   force =     0.00007541   -0.00020762   -0.00061188
     atom   17 type  2   force =     0.00017816    0.00007667    0.00005368
     atom   18 type  2   force =     0.00003867    0.00013146   -0.00001967
     atom   19 type  1   force =     0.00030007   -0.00027743    0.00008983
     atom   20 type  1   force =     0.00012543   -0.00050460   -0.00041516
     atom   21 type  2   force =     0.00005453    0.00005523    0.10009613
     atom   22 type  2   force =    -0.00011303    0.00063419   -0.00063021
     atom   23 type  2   force =    -0.07808238    0.00003476   -0.03199861
     atom   24 type  2   force =     0.07795126    0.00045365   -0.03199858
     atom   25 type  1   force =     0.00008479   -0.00039517    0.12056227
     atom   26 type  1   force =    -0.00010650   -0.00035264   -0.16267508
     atom   27 type  2   force =     0.00029507   -0.00046159   -0.06247697
     atom   28 type  2   force =    -0.00002914   -0.00027888    0.03029867
     atom   29 type  2   force =    -0.01725587    0.00115483   -0.00753919
     atom   30 type  2   force =     0.01853710    0.00141651   -0.00850966
     atom   31 type  1   force =     0.00072403   -0.00086434    0.01496158
     atom   32 type  1   force =    -0.00022767   -0.00735226    0.10669699
     atom   33 type  2   force =     0.00010953    0.00048133    0.00050379
     atom   34 type  2   force =    -0.00267953   -0.00007251   -0.07485192
     atom   35 type  2   force =     0.00065265   -0.00004421    0.00000289
     atom   36 type  2   force =    -0.00048227    0.00022901   -0.00011075
     atom   37 type  1   force =    -0.00015189    0.00061376    0.00060779
     atom   38 type  1   force =    -0.00019049    0.00051414    0.00046144
     atom   39 type  2   force =    -0.00016499   -0.00000035   -0.00000652
     atom   40 type  2   force =     0.00014815    0.00003928   -0.00013422
     atom   41 type  2   force =    -0.00029392   -0.00042509    0.00051387
     atom   42 type  2   force =     0.00048960   -0.00015936   -0.00021361
     atom   43 type  1   force =    -0.00019595   -0.00042863    0.00008061
     atom   44 type  1   force =    -0.00009560    0.00018530   -0.00027804
     atom   45 type  2   force =     0.00004701    0.00004274    0.10011975
     atom   46 type  2   force =    -0.07807671    0.00008986   -0.03196113
     atom   47 type  2   force =     0.07795480    0.00053300   -0.03197754
     atom   48 type  3   force =     0.00175512    0.00173871    0.00097932
     atom   49 type  4   force =     0.00296400    0.00299470    0.00335802
     atom   50 type  5   force =    -0.00265380   -0.00201514   -0.00406794
     atom   51 type  5   force =    -0.00049536   -0.00014991    0.00067442
     atom   52 type  3   force =    -0.00066228   -0.00044953    0.00012108

     Total force =     0.417677     Total SCF correction =     0.000632
  @ DRIVER MODE: Message from server: STATUS
  @ DRIVER MODE: Message from server: GETFORCE
  @ DRIVER MODE: Returning v,forces,stress,ensemble

     Writing output data file ./calc.save/
  @ DRIVER MODE: Message from server: EXIT
  @ DRIVE MODE: Exiting

     General routines

     Parallel routines

   This run was terminated on:  22:39: 3  23Aug2021

   JOB DONE.