     Program PWSCF v.6.7GPU starts on 15Sep2021 at 21: 6:11

     R & G space division:  proc/nbgrp/npool/nimage =      10
     Reading input from /storage/home/hcoda1/3/ntian30/research/carbon/CxH_vib/H2O_calc/ads_slab/CHN2HH2O_a/out_0018/pw.inp
Warning: card &CELL ignored
Warning: card   CELL_DYNAMICS='IPI', ignored
Warning: card / ignored

     Current dimensions of program PWSCF are:
     Max number of different atomic species (ntypx) = 10
     Max number of k-points (npk) =  40000
     Max angular momentum in pseudopotentials (lmaxx) =  3
     Presently no symmetry can be used with electric field

     Message from routine cell_base_init:
     DEPRECATED: use true lattice parameter, not A to a.u. conversion factor

     IMPORTANT: XC functional enforced from input :
     Exchange-correlation= BEEF-VDW
                           (   1   4  43  14   2   0   0)
     Any further DFT definition will be discarded
     Please, verify this is what you really want

  @ DRIVER MODE: Connecting to
 qe_1139763_2852626.sched-torque.pace.gatech.eduul17idi3_scratch
  using UNIX socket
  @ DRIVER MODE: Message from server: STATUS
  @ DRIVER MODE: Message from server: INIT
  @ DRIVER MODE: Receiving replica           0          -1
  @ DRIVER MODE: Receiving encoded integer          25
  @ DRIVER MODE:  SCF:  T  FORCE:  T  STRESS:  F  VC:  F  ENSEMBLE:  F
  @ DRIVER MODE:  SCF:  T  FORCE:  T  STRESS:  F  VC:  F  ENSEMBLE:  F

     Using Slab Decomposition

     bravais-lattice index     =            0
     lattice parameter (alat)  =       1.8897  a.u.
     unit-cell volume          =    6658.9804 (a.u.)^3
     number of atoms/cell      =           55
     number of atomic types    =            5
     number of electrons       =       402.00
     number of Kohn-Sham states=          211
     kinetic-energy cutoff     =      29.3995  Ry
     charge density cutoff     =     293.9946  Ry
     scf convergence threshold =      7.3E-08
     mixing beta               =       0.0500
     number of iterations used =            8  plain     mixing
     Exchange-correlation= BEEF-VDW
                           (   1   4  43  14   2   0   0)

     celldm(1)=   1.889726  celldm(2)=   0.000000  celldm(3)=   0.000000
     celldm(4)=   0.000000  celldm(5)=   0.000000  celldm(6)=   0.000000

     crystal axes: (cart. coord. in units of alat)
               a(1) = (   6.579727   0.000000   0.000000 )
               a(2) = (  -0.000775   5.961596   0.000000 )
               a(3) = (   0.000000   0.000000  25.155947 )

     reciprocal axes: (cart. coord. in units 2 pi/alat)
               b(1) = (  0.151982  0.000020  0.000000 )
               b(2) = (  0.000000  0.167740  0.000000 )
               b(3) = (  0.000000  0.000000  0.039752 )

     PseudoPot. # 1 for Ti read from file:
     /storage/coda1/p-amedford6/0/shared/rich_project_chbe-medford/medford-share/data/pseudos_module/espresso/nninc/pbe/van/Ti.UPF
     MD5 check sum: 8e4df49b7f0d34bbd5052bf3f5ea0213
     Pseudo is Ultrasoft, Zval = 12.0
     Generated by new atomic code, or converted to UPF format
     Using radial grid of  851 points,  6 beta functions with:
                l(1) =   0
                l(2) =   0
                l(3) =   1
                l(4) =   1
                l(5) =   2
                l(6) =   2
     Q(r) pseudized with  8 coefficients,  rinner =    1.000   1.000   1.000
                                                       1.000   1.000

     PseudoPot. # 2 for O  read from file:
     /storage/coda1/p-amedford6/0/shared/rich_project_chbe-medford/medford-share/data/pseudos_module/espresso/nninc/pbe/van/O.UPF
     MD5 check sum: 78c19812648e8988a0fe644b0f25305e
     Pseudo is Ultrasoft, Zval =  6.0
     Generated by new atomic code, or converted to UPF format
     Using radial grid of  737 points,  4 beta functions with:
                l(1) =   0
                l(2) =   0
                l(3) =   1
                l(4) =   1
     Q(r) pseudized with  8 coefficients,  rinner =    0.800   0.800   0.800

     PseudoPot. # 3 for N  read from file:
     /storage/coda1/p-amedford6/0/shared/rich_project_chbe-medford/medford-share/data/pseudos_module/espresso/nninc/pbe/van/N.UPF
     MD5 check sum: 90d10febe142ad51ac9d5be1deb811c4
     Pseudo is Ultrasoft, Zval =  5.0
     Generated by new atomic code, or converted to UPF format
     Using radial grid of  729 points,  4 beta functions with:
                l(1) =   0
                l(2) =   0
                l(3) =   1
                l(4) =   1
     Q(r) pseudized with  8 coefficients,  rinner =    0.800   0.800   0.800

     PseudoPot. # 4 for C  read from file:
     /storage/coda1/p-amedford6/0/shared/rich_project_chbe-medford/medford-share/data/pseudos_module/espresso/nninc/pbe/van/C.UPF
     MD5 check sum: 1a69bf6b8db32088f5b2163dbdb77a27
     Pseudo is Ultrasoft, Zval =  4.0
     Generated by new atomic code, or converted to UPF format
     Using radial grid of  721 points,  4 beta functions with:
                l(1) =   0
                l(2) =   0
                l(3) =   1
                l(4) =   1
     Q(r) pseudized with  8 coefficients,  rinner =    0.800   0.800   0.800

     PseudoPot. # 5 for H  read from file:
     /storage/coda1/p-amedford6/0/shared/rich_project_chbe-medford/medford-share/data/pseudos_module/espresso/nninc/pbe/van/H.UPF
     MD5 check sum: b5ee9d7bfd3a09ee7748110bda690ff7
     Pseudo is Ultrasoft, Zval =  1.0
     Generated by new atomic code, or converted to UPF format
     Using radial grid of  615 points,  1 beta functions with:
                l(1) =   0
     Q(r) pseudized with  8 coefficients,  rinner =    0.800

     atomic species   valence    mass     pseudopotential
        Ti1           12.00    47.86700     Ti( 1.00)
        O1             6.00    15.99900     O ( 1.00)
        N1             5.00    14.00700     N ( 1.00)
        C1             4.00    12.01100     C ( 1.00)
        H1             1.00     1.00800     H ( 1.00)

     No symmetry found

   Cartesian axes

     site n.     atom                  positions (alat units)
         1           Ti1 tau(   1) = (   0.0004258   2.9801865   6.0000000  )
         2           Ti1 tau(   2) = (   3.2906075   1.4906267   6.0002472  )
         3           O1  tau(   3) = (   0.0006271   0.0005054   7.9858123  )
         4           O1  tau(   4) = (   3.2906025   0.0005020   7.3038282  )
         5           O1  tau(   5) = (   4.5942328   1.4918067   9.2879030  )
         6           O1  tau(   6) = (   1.9868534   1.4903216   9.2879459  )
         7           Ti1 tau(   7) = (   3.2907910   2.8959150   9.1758416  )
         8           Ti1 tau(   8) = (   0.0015273   1.4827037   9.2680791  )
         9           O1  tau(   9) = (   3.2768631   0.0039008  11.3091060  )
        10           O1  tau(  10) = (   0.0116148   5.9584955  10.6183126  )
        11           O1  tau(  11) = (   1.2710838   1.4709840  12.6395574  )
        12           O1  tau(  12) = (   5.2772223   1.5075092  12.6020671  )
        13           Ti1 tau(  13) = (   0.0276258   2.9086511  12.7028215  )
        14           Ti1 tau(  14) = (   3.3492493   1.4375301  12.4845766  )
        15           O1  tau(  15) = (   6.5006329   5.9509897  14.6081112  )
        16           O1  tau(  16) = (   3.3450391   0.0041935  13.9069437  )
        17           O1  tau(  17) = (   4.5555219   1.5659029  16.0522165  )
        18           O1  tau(  18) = (   1.9836904   1.4119734  15.8927236  )
        19           Ti1 tau(  19) = (   3.2827818   2.9316656  15.8555152  )
        20           Ti1 tau(  20) = (   6.5629331   1.3437128  15.9803530  )
        21           O1  tau(  21) = (   3.2904802   0.0005063   4.7018136  )
        22           O1  tau(  22) = (   6.5074089   5.9525318  17.1494500  )
        23           O1  tau(  23) = (   1.3043587   1.4918075   6.0039043  )
        24           O1  tau(  24) = (   5.2767064   1.4903225   6.0039473  )
        25           Ti1 tau(  25) = (   0.0000382   5.9609847   6.0000000  )
        26           Ti1 tau(  26) = (   3.2902200   4.4714249   6.0002472  )
        27           O1  tau(  27) = (   0.0002396   2.9813036   7.9858123  )
        28           O1  tau(  28) = (   3.2902150   2.9813002   7.3038282  )
        29           O1  tau(  29) = (   4.5938453   4.4726049   9.2879030  )
        30           O1  tau(  30) = (   1.9864658   4.4711199   9.2879459  )
        31           Ti1 tau(  31) = (   3.2891106   5.8743827   9.1763621  )
        32           Ti1 tau(  32) = (   0.0006254   4.4649316   9.2693709  )
        33           O1  tau(  33) = (   3.2854303   2.9668816  11.2996989  )
        34           O1  tau(  34) = (   0.0092240   2.9805883  10.6323155  )
        35           O1  tau(  35) = (   1.2743094   4.4851408  12.6236879  )
        36           O1  tau(  36) = (   5.2782958   4.4707264  12.5946799  )
        37           Ti1 tau(  37) = (   0.0481499   5.8920156  12.5607908  )
        38           Ti1 tau(  38) = (   3.3544845   4.3749597  12.5572158  )
        39           O1  tau(  39) = (   6.5410016   3.0017514  14.6365314  )
        40           O1  tau(  40) = (   3.2441134   3.0029108  13.8718978  )
        41           O1  tau(  41) = (   4.5385932   4.4028810  16.0550583  )
        42           O1  tau(  42) = (   1.9619458   4.5383001  15.8611175  )
        43           Ti1 tau(  43) = (   3.2178196   5.9097812  15.7399460  )
        44           Ti1 tau(  44) = (   6.5330930   4.4908980  15.8705378  )
        45           O1  tau(  45) = (   3.2900926   2.9813045   4.7018136  )
        46           O1  tau(  46) = (   1.3039711   4.4726057   6.0039043  )
        47           O1  tau(  47) = (   5.2763189   4.4711207   6.0039473  )
        48           N1  tau(  48) = (   1.2867840   3.0293760  18.3347772  )
        49           C1  tau(  49) = (   2.5003166   3.0326976  17.9707196  )
        50           H1  tau(  50) = (   3.2053588   3.1791635  18.8100936  )
        51           N1  tau(  51) = (   0.2138509   2.9871109  17.4421441  )
        52           H1  tau(  52) = (   5.9621615   2.9869774  18.0311354  )
        53           O1  tau(  53) = (   3.4290693   5.9360351  18.0748810  )
        54           H1  tau(  54) = (   4.3780305   0.1327944  18.2306609  )
        55           H1  tau(  55) = (   2.9458904   0.7245148  18.4607207  )

     number of k points=    10  Fermi-Dirac smearing, width (Ry)=  0.0073
                       cart. coord. in units 2pi/alat
        k(    1) = (   0.0000000   0.0000000   0.0000000), wk =   0.1250000
        k(    2) = (   0.0000000   0.0419351   0.0000000), wk =   0.2500000
        k(    3) = (   0.0000000  -0.0838702   0.0000000), wk =   0.1250000
        k(    4) = (   0.0379955   0.0000049   0.0000000), wk =   0.2500000
        k(    5) = (   0.0379955   0.0419400   0.0000000), wk =   0.2500000
        k(    6) = (   0.0379955  -0.0838652   0.0000000), wk =   0.2500000
        k(    7) = (   0.0379955  -0.0419301   0.0000000), wk =   0.2500000
        k(    8) = (  -0.0759910  -0.0000099   0.0000000), wk =   0.1250000
        k(    9) = (  -0.0759910   0.0419252   0.0000000), wk =   0.2500000
        k(   10) = (  -0.0759910  -0.0838800   0.0000000), wk =   0.1250000

     Initial potential from superposition of free atoms

     starting charge  385.99915, renormalised to  402.00000

     negative rho (up, down):  1.830E-02 0.000E+00

     %%%%%%%%%%%%%%%%%%%%%%%%%%%%%%%%%%%%%%%%%%%%%%%%%%%%%%%%%%%%%%%%%%%%%%%%
     %                                                                      %
     % You are using vdW-DF, which was implemented by the Thonhauser group. %
     % Please cite the following two papers that made this development      %
     % possible and the two reviews that describe the various versions:     %
     %                                                                      %
     %   T. Thonhauser et al., PRL 115, 136402 (2015).                      %
     %   T. Thonhauser et al., PRB 76, 125112 (2007).                       %
     %   K. Berland et al., Rep. Prog. Phys. 78, 066501 (2015).             %
     %   D.C. Langreth et al., J. Phys.: Condens. Matter 21, 084203 (2009). %
     %                                                                      %
     %                                                                      %
     % If you are calculating the stress with vdW-DF, please also cite:     %
     %                                                                      %
     %   R. Sabatini et al., J. Phys.: Condens. Matter 24, 424209 (2012).   %
     %                                                                      %
     %%%%%%%%%%%%%%%%%%%%%%%%%%%%%%%%%%%%%%%%%%%%%%%%%%%%%%%%%%%%%%%%%%%%%%%%

     Adding external electric field

     Computed dipole along edir(3) :
        Dipole              -11.0907 Ry au,        -28.1897 Debye
        Dipole field         -0.0209 Ry au,

        Potential amp.        1.9401 Ry
        Total length         46.3494 bohr

     Starting wfcs are  304 atomic wfcs
  @ DRIVER MODE: Message from server: STATUS
  @ DRIVER MODE: Message from server: POSDATA
  @ DRIVER MODE: Reading and sharing cell
  @ DRIVER MODE: Reading and sharing positions
  @ DRIVER MODE: Received positions

     Self-consistent Calculation

     iteration #  1     ecut=    29.40 Ry     beta= 0.05
     Davidson diagonalization with overlap
     c_bands:  5 eigenvalues not converged
     c_bands:  1 eigenvalues not converged
     c_bands:  3 eigenvalues not converged
     c_bands:  4 eigenvalues not converged
     c_bands:  1 eigenvalues not converged
     c_bands:  1 eigenvalues not converged
     c_bands:  1 eigenvalues not converged
     c_bands:  1 eigenvalues not converged
     c_bands:  2 eigenvalues not converged
     ethr =  1.00E-05,  avg # of iterations = 29.7

[...]

     total energy              =   -2403.86405161 Ry
     estimated scf accuracy    <    6373.99304595 Ry

     iteration #  2     ecut=    29.40 Ry     beta= 0.05
     Davidson diagonalization with overlap
     ethr =  1.00E-02,  avg # of iterations = 25.2

[...]

     iteration # 52     ecut=    29.40 Ry     beta= 0.05
     Davidson diagonalization with overlap
     c_bands:  1 eigenvalues not converged
     ethr =  7.44E-07,  avg # of iterations =  8.7

[...]

     total energy              =   -2972.69109668 Ry
     estimated scf accuracy    <       0.00000009 Ry

     iteration # 74     ecut=    29.40 Ry     beta= 0.05
     Davidson diagonalization with overlap
     ethr =  2.22E-11,  avg # of iterations =  4.6

     negative rho (up, down):  1.793E-02 0.000E+00

     Adding external electric field

     Computed dipole along edir(3) :
        Dipole                0.3601 Ry au,          0.9153 Debye
        Dipole field          0.0007 Ry au,

        Potential amp.       -0.0630 Ry
        Total length         46.3494 bohr

     End of self-consistent calculation

          k = 0.0000 0.0000 0.0000 ( 18029 PWs)   bands (ev):

   -56.3449 -56.3110 -55.9425 -55.9087 -55.7543 -55.7178 -55.5620 -55.5562
   -55.5489 -55.5256 -55.5155 -55.4513 -55.2530 -55.2422 -55.1484 -55.1145
   -32.7983 -32.6374 -32.6106 -32.5030 -32.4222 -32.4176 -32.4101 -32.2431
   -32.1600 -32.1557 -32.0972 -32.0845 -32.0699 -32.0454 -32.0396 -31.9789
   -31.9770 -31.9686 -31.9353 -31.9115 -31.9089 -31.8682 -31.8528 -31.8437
   -31.8186 -31.7812 -31.7606 -31.7335 -31.7305 -31.7113 -31.7094 -31.7063
   -31.6897 -31.6714 -31.6544 -31.6389 -31.5526 -31.5471 -31.5139 -31.4988
   -31.4790 -31.4696 -31.4556 -31.4405 -31.3652 -31.3360 -31.2802 -31.1687
   -18.7416 -16.9374 -16.6617 -16.3493 -16.1467 -15.9642 -15.8997 -15.8424
   -15.7900 -15.6692 -15.6062 -15.5787 -15.5065 -15.4016 -15.3824 -15.3537
   -15.3038 -15.2854 -15.2689 -15.2393 -15.1861 -15.1510 -15.1343 -15.0586
   -15.0372 -15.0262 -14.8998 -14.8334 -14.8097 -14.7741 -14.5205 -13.6471
   -13.5341 -12.2768  -6.7086  -6.5204  -4.1634  -4.0787  -3.9078  -3.7624
    -3.6683  -3.6196  -3.4462  -3.4066  -3.3670  -3.2632  -3.1216  -3.0900
    -3.0175  -2.9670  -2.9232  -2.8655  -2.8057  -2.7614  -2.7177  -2.6357
    -2.6308  -2.6184  -2.6005  -2.5829  -2.5645  -2.4481  -2.3566  -2.3385
    -2.3160  -2.2735  -2.2543  -2.2415  -2.1920  -2.1618  -2.0786  -2.0692
    -2.0217  -1.9639  -1.9164  -1.8091  -1.7964  -1.7214  -1.7049  -1.6633
    -1.5305  -1.4072  -1.3769  -1.3231  -1.3088  -1.2257  -1.2064  -1.1777
    -1.0804  -1.0684  -1.0244  -1.0022  -0.8784  -0.8525  -0.8050  -0.7965
    -0.7664  -0.6694  -0.6325  -0.5213  -0.4765  -0.4316  -0.4223  -0.3474
    -0.3193  -0.2752  -0.2245  -0.1714  -0.1693  -0.1413  -0.0581  -0.0170
     0.0289   0.0778   0.1132   0.2008   0.2548   0.2918   0.3067   0.3946
     0.4369   0.4523   0.5178   0.5861   0.6376   0.7042   0.7475   0.8614
     0.8753   0.8927   0.9758   1.0974   1.4077   1.4285   1.4688   1.6626
     2.6458   2.8785   2.9994   3.1638   3.3087   3.3585   3.6295   3.6838
     3.7590   3.8357   3.8759

[...]

          k = 0.0380-0.0419 0.0000 ( 17876 PWs)   bands (ev):

[...]

          k =-0.0760-0.0000 0.0000 ( 17886 PWs)   bands (ev):

[...]

          k =-0.0760-0.0839 0.0000 ( 17948 PWs)   bands (ev):

   -56.3285 -56.3273 -55.9273 -55.9237 -55.7429 -55.7291 -55.5558 -55.5463
   -55.5397 -55.5346 -55.5306 -55.4498 -55.2541 -55.2432 -55.1314 -55.1314
   -32.6235 -32.6223 -32.6145 -32.6139 -32.4554 -32.4541 -32.2429 -32.2389
   -32.1326 -32.1293 -32.1198 -32.1125 -32.0431 -32.0330 -31.9709 -31.9610
   -31.9515 -31.9488 -31.8996 -31.8883 -31.8683 -31.8663 -31.8596 -31.8278
   -31.8132 -31.7820 -31.7760 -31.7596 -31.7569 -31.7486 -31.7474 -31.7323
   -31.7274 -31.7174 -31.7053 -31.6356 -31.6102 -31.5570 -31.5262 -31.5105
   -31.4742 -31.4685 -31.4684 -31.3614 -31.3613 -31.3374 -31.3229 -31.3228
   -18.7392 -16.9158 -16.0661 -16.0538 -15.9359 -15.9309 -15.7523 -15.7340
   -15.6998 -15.6743 -15.6369 -15.5509 -15.4864 -15.4789 -15.4720 -15.4078
   -15.3629 -15.3541 -15.3350 -15.3067 -15.2798 -15.2538 -15.1624 -15.1367
   -15.1324 -15.1029 -15.0217 -15.0091 -14.9484 -14.8124 -14.7385 -13.6371
   -13.6366 -12.2979  -6.6961  -6.4367  -3.9905  -3.8043  -3.2364  -3.1800
    -3.1762  -3.0672  -3.0406  -2.9660  -2.8693  -2.8508  -2.8378  -2.8039
    -2.7793  -2.7709  -2.7541  -2.7090  -2.6622  -2.6404  -2.6245  -2.6159
    -2.6108  -2.5961  -2.5666  -2.5381  -2.4798  -2.4702  -2.4365  -2.4189
    -2.3896  -2.3132  -2.3050  -2.2913  -2.2895  -2.2317  -2.1337  -2.1189
    -2.1100  -2.0667  -2.0007  -1.9315  -1.8434  -1.8013  -1.7351  -1.6793
    -1.6236  -1.5948  -1.5824  -1.4838  -1.4246  -1.4137  -1.3672  -1.3137
    -1.2343  -1.1988  -1.1613  -1.1502  -1.1379  -1.0956  -1.0438  -0.9856
    -0.8707  -0.8466  -0.8367  -0.7742  -0.7699  -0.7597  -0.6493  -0.6184
    -0.5684  -0.5429  -0.5236  -0.4846  -0.4564  -0.3815  -0.2901  -0.2435
    -0.1151  -0.0984  -0.0451   0.0016   0.0138   0.1060   0.1931   0.2170
     0.3563   0.3706   0.4032   0.5365   0.6053   0.6570   0.6742   0.7968
     0.8161   0.8518   1.0182   1.2618   1.2662   1.2851   1.2862   1.6129
     2.6228   3.4177   3.4199   3.4500   3.4521   3.6622   3.6757   3.7538
     3.7923   3.8834   3.9054

     the Fermi energy is     2.8198 ev

!    total energy              =   -2972.69111322 Ry
     estimated scf accuracy    <       0.00000005 Ry
     smearing contrib. (-TS)   =      -0.01344366 Ry
     internal energy E=F+TS    =   -2972.67766956 Ry

     The total energy is F=E-TS. E is the sum of the following terms:
     one-electron contribution =  -24586.18312295 Ry
     hartree contribution      =   12385.09905899 Ry
     xc contribution           =    -493.16950371 Ry
     ewald contribution        =    9721.57565339 Ry
     electric field correction =       0.00024471 Ry

     convergence has been achieved in  74 iterations

     Forces acting on atoms (cartesian axes, Ry/au):

     atom    1 type  1   force =    -0.00000901   -0.00028577    0.10605466
     atom    2 type  1   force =    -0.00022257   -0.00076586   -0.16693148
     atom    3 type  2   force =    -0.00002406   -0.00013673   -0.03890810
     atom    4 type  2   force =    -0.00009908   -0.00037723    0.03646513
     atom    5 type  2   force =    -0.00755576   -0.00012969   -0.00577945
     atom    6 type  2   force =     0.00856968    0.00077886   -0.00746856
     atom    7 type  1   force =    -0.00079536   -0.00146205    0.01976377
     atom    8 type  1   force =     0.00110386    0.01828007    0.06313776
     atom    9 type  2   force =    -0.00008336   -0.00020182    0.00030543
     atom   10 type  2   force =    -0.00265105    0.00203316   -0.04766937
     atom   11 type  2   force =    -0.00022652   -0.00001784    0.00009961
     atom   12 type  2   force =     0.00036572   -0.00013619    0.00006679
     atom   13 type  1   force =     0.00006044   -0.00010855   -0.00034115
     atom   14 type  1   force =    -0.00048356   -0.00001841    0.00006926
     atom   15 type  2   force =     0.00027978    0.00010031   -0.00035476
     atom   16 type  2   force =    -0.00012259   -0.00028522    0.00052334
     atom   17 type  2   force =     0.00002822   -0.00020945    0.00031915
     atom   18 type  2   force =     0.00016171    0.00014261   -0.00024607
     atom   19 type  1   force =     0.00019008    0.00009680    0.00143620
     atom   20 type  1   force =     0.00016999    0.00027099    0.00009306
     atom   21 type  2   force =     0.00004915   -0.00001895    0.10087755
     atom   22 type  2   force =     0.00031218    0.00026923    0.00050425
     atom   23 type  2   force =    -0.07580204   -0.00011670   -0.02987826
     atom   24 type  2   force =     0.07569128    0.00033775   -0.02988707
     atom   25 type  1   force =     0.00020091   -0.00055904    0.10641826
     atom   26 type  1   force =    -0.00006670   -0.00026438   -0.16736967
     atom   27 type  2   force =    -0.00006303   -0.00032068   -0.03756002
     atom   28 type  2   force =     0.00007086   -0.00045633    0.03692326
     atom   29 type  2   force =    -0.00852789    0.00126281   -0.00517447
     atom   30 type  2   force =     0.00948235    0.00122398   -0.00689126
     atom   31 type  1   force =    -0.00129676   -0.00008503    0.02608942
     atom   32 type  1   force =     0.00115956   -0.02137953    0.06370814
     atom   33 type  2   force =    -0.00002820    0.00024872   -0.00007045
     atom   34 type  2   force =    -0.00008370    0.00090950   -0.05945482
     atom   35 type  2   force =    -0.00007897    0.00009229   -0.00015036
     atom   36 type  2   force =    -0.00012000    0.00036954   -0.00016867
     atom   37 type  1   force =     0.00002333   -0.00031635    0.00009252
     atom   38 type  1   force =    -0.00042238   -0.00006798   -0.00011074
     atom   39 type  2   force =    -0.00021068    0.00037328    0.00045538
     atom   40 type  2   force =     0.00048614    0.00012689   -0.00036155
     atom   41 type  2   force =    -0.00008571    0.00036394   -0.00016208
     atom   42 type  2   force =     0.00049119    0.00015817    0.00006681
     atom   43 type  1   force =    -0.00038588   -0.00003677    0.00004768
     atom   44 type  1   force =     0.00037104    0.00001526   -0.00023168
     atom   45 type  2   force =     0.00002675   -0.00000228    0.10091438
     atom   46 type  2   force =    -0.07581332   -0.00010656   -0.02983282
     atom   47 type  2   force =     0.07568292    0.00032125   -0.02987060
     atom   48 type  3   force =    -0.00039466    0.00013207   -0.00022792
     atom   49 type  4   force =     0.00597091    0.00193203    0.00800356
     atom   50 type  5   force =    -0.00500190   -0.00242877   -0.00710145
     atom   51 type  3   force =     0.00006136    0.00013307   -0.00041985
     atom   52 type  5   force =    -0.00002859    0.00029148    0.00024493
     atom   53 type  2   force =    -0.00058162    0.00005115   -0.00091590
     atom   54 type  5   force =    -0.00027944    0.00011655    0.00046200
     atom   55 type  5   force =     0.00053497   -0.00013758    0.00039628

     Total force =     0.383846     Total SCF correction =     0.000443
  @ DRIVER MODE: Message from server: STATUS
  @ DRIVER MODE: Message from server: GETFORCE
  @ DRIVER MODE: Returning v,forces,stress,ensemble

     Writing output data file ./calc.save/
  @ DRIVER MODE: Message from server: EXIT
  @ DRIVE MODE: Exiting

     General routines

     Parallel routines

   This run was terminated on:  21:25:50  15Sep2021

   JOB DONE.