     Program PWSCF v.6.7GPU starts on 12Oct2021 at 14:16: 1

     R & G space division:  proc/nbgrp/npool/nimage =       8
     Reading input from /storage/home/hcoda1/3/ntian30/research/carbon/ACS_vib/ads_slab/HNNH2/out_0016/pw.inp
Warning: card &CELL ignored
Warning: card   CELL_DYNAMICS='IPI', ignored
Warning: card / ignored

     Current dimensions of program PWSCF are:
     Max number of different atomic species (ntypx) = 10
     Max number of k-points (npk) =  40000
     Max angular momentum in pseudopotentials (lmaxx) =  3
     Presently no symmetry can be used with electric field

     Message from routine cell_base_init:
     DEPRECATED: use true lattice parameter, not A to a.u. conversion factor

     IMPORTANT: XC functional enforced from input :
     Exchange-correlation= BEEF-VDW
                           (   1   4  43  14   2   0   0)
     Any further DFT definition will be discarded
     Please, verify this is what you really want

  @ DRIVER MODE: Connecting to
 qe_1139763_3181312.sched-torque.pace.gatech.edurnbbq5oz_scratch
  using UNIX socket
  @ DRIVER MODE: Message from server: STATUS
  @ DRIVER MODE: Message from server: INIT
  @ DRIVER MODE: Receiving replica           0          -1
  @ DRIVER MODE: Receiving encoded integer          25
  @ DRIVER MODE:  SCF:  T  FORCE:  T  STRESS:  F  VC:  F  ENSEMBLE:  F
  @ DRIVER MODE:  SCF:  T  FORCE:  T  STRESS:  F  VC:  F  ENSEMBLE:  F

     Using Slab Decomposition

     bravais-lattice index     =            0
     lattice parameter (alat)  =       1.8897  a.u.
     unit-cell volume          =    6658.9804 (a.u.)^3
     number of atoms/cell      =           52
     number of atomic types    =            4
     number of electrons       =       391.00
     number of Kohn-Sham states=          205
     kinetic-energy cutoff     =      29.3995  Ry
     charge density cutoff     =     293.9946  Ry
     scf convergence threshold =      7.3E-08
     mixing beta               =       0.0500
     number of iterations used =            8  plain     mixing
     Exchange-correlation= BEEF-VDW
                           (   1   4  43  14   2   0   0)

     celldm(1)=   1.889726  celldm(2)=   0.000000  celldm(3)=   0.000000
     celldm(4)=   0.000000  celldm(5)=   0.000000  celldm(6)=   0.000000

     crystal axes: (cart. coord. in units of alat)
               a(1) = (   6.579727   0.000000   0.000000 )
               a(2) = (  -0.000775   5.961596   0.000000 )
               a(3) = (   0.000000   0.000000  25.155947 )

     reciprocal axes: (cart. coord. in units 2 pi/alat)
               b(1) = (  0.151982  0.000020  0.000000 )
               b(2) = (  0.000000  0.167740  0.000000 )
               b(3) = (  0.000000  0.000000  0.039752 )

     PseudoPot. # 1 for Ti read from file:
     /storage/coda1/p-amedford6/0/shared/rich_project_chbe-medford/medford-share/data/pseudos_module/espresso/nninc/pbe/van/Ti.UPF
     MD5 check sum: 8e4df49b7f0d34bbd5052bf3f5ea0213
     Pseudo is Ultrasoft, Zval = 12.0
     Generated by new atomic code, or converted to UPF format
     Using radial grid of  851 points,  6 beta functions with:
                l(1) =   0
                l(2) =   0
                l(3) =   1
                l(4) =   1
                l(5) =   2
                l(6) =   2
     Q(r) pseudized with  8 coefficients,  rinner =    1.000   1.000   1.000
                                                       1.000   1.000

     PseudoPot. # 2 for O  read from file:
     /storage/coda1/p-amedford6/0/shared/rich_project_chbe-medford/medford-share/data/pseudos_module/espresso/nninc/pbe/van/O.UPF
     MD5 check sum: 78c19812648e8988a0fe644b0f25305e
     Pseudo is Ultrasoft, Zval =  6.0
     Generated by new atomic code, or converted to UPF format
     Using radial grid of  737 points,  4 beta functions with:
                l(1) =   0
                l(2) =   0
                l(3) =   1
                l(4) =   1
     Q(r) pseudized with  8 coefficients,  rinner =    0.800   0.800   0.800

     PseudoPot. # 3 for H  read from file:
     /storage/coda1/p-amedford6/0/shared/rich_project_chbe-medford/medford-share/data/pseudos_module/espresso/nninc/pbe/van/H.UPF
     MD5 check sum: b5ee9d7bfd3a09ee7748110bda690ff7
     Pseudo is Ultrasoft, Zval =  1.0
     Generated by new atomic code, or converted to UPF format
     Using radial grid of  615 points,  1 beta functions with:
                l(1) =   0
     Q(r) pseudized with  8 coefficients,  rinner =    0.800

     PseudoPot. # 4 for N  read from file:
     /storage/coda1/p-amedford6/0/shared/rich_project_chbe-medford/medford-share/data/pseudos_module/espresso/nninc/pbe/van/N.UPF
     MD5 check sum: 90d10febe142ad51ac9d5be1deb811c4
     Pseudo is Ultrasoft, Zval =  5.0
     Generated by new atomic code, or converted to UPF format
     Using radial grid of  729 points,  4 beta functions with:
                l(1) =   0
                l(2) =   0
                l(3) =   1
                l(4) =   1
     Q(r) pseudized with  8 coefficients,  rinner =    0.800   0.800   0.800

     atomic species   valence    mass     pseudopotential
        Ti1           12.00    47.86700     Ti( 1.00)
        O1             6.00    15.99900     O ( 1.00)
        H1             1.00     1.00800     H ( 1.00)
        N1             5.00    14.00700     N ( 1.00)

     No symmetry found

   Cartesian axes

     site n.     atom                  positions (alat units)
         1           Ti1 tau(   1) = (   0.0004258   2.9801865   6.0000000  )
         2           Ti1 tau(   2) = (   3.2906075   1.4906267   6.0002472  )
         3           O1  tau(   3) = (   0.0006271   0.0005054   7.9858123  )
         4           O1  tau(   4) = (   3.2906025   0.0005020   7.3038282  )
         5           O1  tau(   5) = (   4.5942328   1.4918067   9.2879030  )
         6           O1  tau(   6) = (   1.9868534   1.4903216   9.2879459  )
         7           Ti1 tau(   7) = (   3.2908112   2.9011704   9.1816539  )
         8           Ti1 tau(   8) = (   0.0015097   1.3932332   9.2931702  )
         9           O1  tau(   9) = (   3.2819087   5.9526348  11.3504271  )
        10           O1  tau(  10) = (   6.5772260   5.9545827  10.6088576  )
        11           O1  tau(  11) = (   1.2874804   1.4832564  12.6509691  )
        12           O1  tau(  12) = (   5.2781146   1.4858874  12.6440994  )
        13           Ti1 tau(  13) = (   6.5585775   2.9503744  12.8030734  )
        14           Ti1 tau(  14) = (   3.2696126   1.4733128  12.4944632  )
        15           O1  tau(  15) = (   6.5513721   5.9458199  14.6768215  )
        16           O1  tau(  16) = (   3.2879482   5.9481552  13.9547078  )
        17           O1  tau(  17) = (   4.5181657   1.4884665  16.1124167  )
        18           O1  tau(  18) = (   2.0188244   1.4835402  16.0984261  )
        19           Ti1 tau(  19) = (   3.2766105   2.9578040  15.7125626  )
        20           Ti1 tau(  20) = (   0.0270592   1.3580474  16.0627221  )
        21           O1  tau(  21) = (   3.2904802   0.0005063   4.7018136  )
        22           O1  tau(  22) = (   0.0072818   5.9434210  17.2237418  )
        23           O1  tau(  23) = (   1.3043587   1.4918075   6.0039043  )
        24           O1  tau(  24) = (   5.2767064   1.4903225   6.0039473  )
        25           Ti1 tau(  25) = (   0.0000382   5.9609847   6.0000000  )
        26           Ti1 tau(  26) = (   3.2902200   4.4714249   6.0002472  )
        27           O1  tau(  27) = (   0.0002396   2.9813036   7.9858123  )
        28           O1  tau(  28) = (   3.2902150   2.9813002   7.3038282  )
        29           O1  tau(  29) = (   4.5938453   4.4726049   9.2879030  )
        30           O1  tau(  30) = (   1.9864658   4.4711199   9.2879459  )
        31           Ti1 tau(  31) = (   3.2900885   5.8829342   9.1674613  )
        32           Ti1 tau(  32) = (   0.0009626   4.3321112   9.3579051  )
        33           O1  tau(  33) = (   3.2805539   2.9674959  11.3464436  )
        34           O1  tau(  34) = (   6.5791951   2.9642230  10.5753725  )
        35           O1  tau(  35) = (   1.2880645   4.4660911  12.6414962  )
        36           O1  tau(  36) = (   5.2770833   4.4616490  12.6331305  )
        37           Ti1 tau(  37) = (   6.5652171   5.9330851  12.5680926  )
        38           Ti1 tau(  38) = (   3.2703904   4.4534766  12.4879229  )
        39           O1  tau(  39) = (   6.5642693   2.9891374  14.6930774  )
        40           O1  tau(  40) = (   3.2814391   2.9717942  13.9260038  )
        41           O1  tau(  41) = (   4.5200678   4.4336085  16.1105754  )
        42           O1  tau(  42) = (   2.0169658   4.4359636  16.1171003  )
        43           Ti1 tau(  43) = (   3.3139371   5.9425984  15.7429620  )
        44           Ti1 tau(  44) = (   0.0173840   4.5100783  16.0001754  )
        45           O1  tau(  45) = (   3.2900926   2.9813045   4.7018136  )
        46           O1  tau(  46) = (   1.3039711   4.4726057   6.0039043  )
        47           O1  tau(  47) = (   5.2763189   4.4711207   6.0039473  )
        48           H1  tau(  48) = (   5.5810648   2.9993886  17.8866560  )
        49           N1  tau(  49) = (   6.5184219   2.9788514  17.4915934  )
        50           N1  tau(  50) = (   0.8269126   2.9875512  18.6276789  )
        51           H1  tau(  51) = (   1.2125983   2.0437984  18.7562651  )
        52           H1  tau(  52) = (   1.5963704   3.6133177  18.4401992  )

     number of k points=    10  Fermi-Dirac smearing, width (Ry)=  0.0073
                       cart. coord. in units 2pi/alat
        k(    1) = (   0.0000000   0.0000000   0.0000000), wk =   0.1250000
        k(    2) = (   0.0000000   0.0419351   0.0000000), wk =   0.2500000
        k(    3) = (   0.0000000  -0.0838702   0.0000000), wk =   0.1250000
        k(    4) = (   0.0379955   0.0000049   0.0000000), wk =   0.2500000
        k(    5) = (   0.0379955   0.0419400   0.0000000), wk =   0.2500000
        k(    6) = (   0.0379955  -0.0838652   0.0000000), wk =   0.2500000
        k(    7) = (   0.0379955  -0.0419301   0.0000000), wk =   0.2500000
        k(    8) = (  -0.0759910  -0.0000099   0.0000000), wk =   0.1250000
        k(    9) = (  -0.0759910   0.0419252   0.0000000), wk =   0.2500000
        k(   10) = (  -0.0759910  -0.0838800   0.0000000), wk =   0.1250000

     Initial potential from superposition of free atoms

     starting charge  374.99920, renormalised to  391.00000

     negative rho (up, down):  1.966E-02 0.000E+00

     %%%%%%%%%%%%%%%%%%%%%%%%%%%%%%%%%%%%%%%%%%%%%%%%%%%%%%%%%%%%%%%%%%%%%%%%
     %                                                                      %
     % You are using vdW-DF, which was implemented by the Thonhauser group. %
     % Please cite the following two papers that made this development      %
     % possible and the two reviews that describe the various versions:     %
     %                                                                      %
     %   T. Thonhauser et al., PRL 115, 136402 (2015).                      %
     %   T. Thonhauser et al., PRB 76, 125112 (2007).                       %
     %   K. Berland et al., Rep. Prog. Phys. 78, 066501 (2015).             %
     %   D.C. Langreth et al., J. Phys.: Condens. Matter 21, 084203 (2009). %
     %                                                                      %
     %                                                                      %
     % If you are calculating the stress with vdW-DF, please also cite:     %
     %                                                                      %
     %   R. Sabatini et al., J. Phys.: Condens. Matter 24, 424209 (2012).   %
     %                                                                      %
     %%%%%%%%%%%%%%%%%%%%%%%%%%%%%%%%%%%%%%%%%%%%%%%%%%%%%%%%%%%%%%%%%%%%%%%%

     Adding external electric field

     Computed dipole along edir(3) :
        Dipole               -5.4650 Ry au,        -13.8907 Debye
        Dipole field         -0.0103 Ry au,

        Potential amp.        0.9560 Ry
        Total length         46.3494 bohr

     Starting wfcs are  295 atomic wfcs
  @ DRIVER MODE: Message from server: STATUS
  @ DRIVER MODE: Message from server: POSDATA
  @ DRIVER MODE: Reading and sharing cell
  @ DRIVER MODE: Reading and sharing positions
  @ DRIVER MODE: Received positions

     Self-consistent Calculation

     iteration #  1     ecut=    29.40 Ry     beta= 0.05
     Davidson diagonalization with overlap
     c_bands:  2 eigenvalues not converged
     c_bands:  1 eigenvalues not converged
     c_bands:  2 eigenvalues not converged
     c_bands:  3 eigenvalues not converged
     c_bands:  4 eigenvalues not converged
     c_bands:  2 eigenvalues not converged
     c_bands:  1 eigenvalues not converged
     c_bands:  1 eigenvalues not converged
     c_bands:  2 eigenvalues not converged
     ethr =  1.00E-05,  avg # of iterations = 19.9

[...]

     total energy              =   -2794.80187377 Ry
     estimated scf accuracy    <    1459.04136913 Ry

     iteration #  2     ecut=    29.40 Ry     beta= 0.05
     Davidson diagonalization with overlap
     ethr =  1.00E-02,  avg # of iterations = 17.0

[...]

     iteration # 46     ecut=    29.40 Ry     beta= 0.05
     Davidson diagonalization with overlap
     c_bands:  1 eigenvalues not converged
     ethr =  9.63E-09,  avg # of iterations = 16.4

[...]

     total energy              =   -2927.71102103 Ry
     estimated scf accuracy    <       0.00000008 Ry

     iteration # 58     ecut=    29.40 Ry     beta= 0.05
     Davidson diagonalization with overlap
     ethr =  2.17E-11,  avg # of iterations = 13.5

     negative rho (up, down):  1.936E-02 0.000E+00

     Adding external electric field

     Computed dipole along edir(3) :
        Dipole                0.4584 Ry au,          1.1650 Debye
        Dipole field          0.0009 Ry au,

        Potential amp.       -0.0802 Ry
        Total length         46.3494 bohr

     End of self-consistent calculation

          k = 0.0000 0.0000 0.0000 ( 18029 PWs)   bands (ev):

   -56.1410 -56.1254 -56.1051 -56.0892 -56.0429 -56.0092 -55.9690 -55.9449
   -55.8938 -55.8819 -55.8675 -55.8315 -55.7621 -55.7563 -55.0777 -55.0436
   -32.6968 -32.6008 -32.4823 -32.4706 -32.4599 -32.4281 -32.4023 -32.3843
   -32.3739 -32.3533 -32.3481 -32.3446 -32.3311 -32.3068 -32.3031 -32.2822
   -32.2762 -32.2550 -32.2239 -32.2121 -32.2089 -32.1911 -32.1594 -32.1539
   -32.1521 -32.1325 -32.1297 -32.1066 -32.0995 -32.0954 -32.0948 -32.0734
   -32.0730 -32.0398 -32.0180 -32.0160 -31.9801 -31.9767 -31.9679 -31.9553
   -31.9410 -31.8982 -31.4848 -31.3963 -31.3735 -31.3011 -31.2147 -31.1041
   -16.9040 -16.6676 -16.5251 -16.3698 -16.2651 -16.2421 -16.1851 -15.9067
   -15.8396 -15.7778 -15.7599 -15.7385 -15.7275 -15.6640 -15.6631 -15.6291
   -15.5847 -15.5504 -15.5392 -15.5101 -15.5025 -15.4536 -15.4285 -15.3986
   -15.3641 -15.2803 -15.2258 -15.1546 -15.1181 -15.0788 -13.5815 -13.4655
   -11.2708  -5.2310  -4.6167  -4.2496  -4.1339  -4.0494  -3.9983  -3.9311
    -3.7822  -3.7250  -3.5887  -3.3396  -3.3023  -3.2880  -3.2585  -3.2209
    -3.0329  -2.9834  -2.9473  -2.9254  -2.9196  -2.9125  -2.8748  -2.8425
    -2.8350  -2.8322  -2.7158  -2.6451  -2.5574  -2.5492  -2.4772  -2.4382
    -2.4149  -2.4113  -2.3711  -2.3476  -2.3266  -2.3087  -2.2827  -2.1806
    -2.1553  -2.0729  -1.9837  -1.8987  -1.7763  -1.7134  -1.7017  -1.5745
    -1.5151  -1.5125  -1.4786  -1.4572  -1.4174  -1.3397  -1.3027  -1.2544
    -1.1758  -1.1314  -1.0616  -1.0324  -1.0173  -0.9772  -0.9025  -0.8541
    -0.8471  -0.8361  -0.6304  -0.6031  -0.5936  -0.5793  -0.4609  -0.3798
    -0.3624  -0.3326  -0.3156  -0.3032  -0.2496  -0.1588  -0.1299  -0.1181
    -0.0988  -0.0128   0.0570   0.0643   0.0979   0.1860   0.2096   0.3261
     0.3907   0.5664   0.6022   0.7208   0.8631   0.9420   0.9760   1.1362
     1.5222   1.5586   1.5729   3.0558   3.0735   3.1109   3.1317   3.2683
     3.3779   3.3819   3.4802   3.5010   3.5532

[...]

          k = 0.0380-0.0419 0.0000 ( 17876 PWs)   bands (ev):

[...]

          k =-0.0760-0.0000 0.0000 ( 17886 PWs)   bands (ev):

[...]

          k =-0.0760-0.0839 0.0000 ( 17948 PWs)   bands (ev):

   -56.1288 -56.1172 -56.1080 -56.1063 -56.0386 -56.0046 -55.9731 -55.9494
   -55.8916 -55.8789 -55.8564 -55.8429 -55.7641 -55.7587 -55.0609 -55.0603
   -32.5007 -32.4972 -32.4338 -32.4243 -32.4171 -32.4113 -32.4012 -32.3993
   -32.3381 -32.3375 -32.3339 -32.3045 -32.3024 -32.2856 -32.2713 -32.2578
   -32.2498 -32.2483 -32.2354 -32.2333 -32.2208 -32.2095 -32.1948 -32.1844
   -32.1765 -32.1677 -32.1651 -32.1600 -32.1418 -32.1080 -32.0872 -32.0854
   -32.0845 -32.0662 -32.0651 -32.0599 -32.0486 -32.0224 -32.0187 -31.9915
   -31.9492 -31.9479 -31.3866 -31.3858 -31.2980 -31.2973 -31.2582 -31.2575
   -16.5400 -16.3600 -16.3136 -16.0819 -16.0665 -16.0238 -15.9463 -15.8936
   -15.8884 -15.8637 -15.8564 -15.7965 -15.7860 -15.7739 -15.7456 -15.6489
   -15.6472 -15.6356 -15.6167 -15.5550 -15.5395 -15.5051 -15.4746 -15.4653
   -15.4386 -15.4106 -15.3804 -15.3586 -15.2970 -15.2801 -13.5677 -13.5668
   -11.2790  -5.2284  -4.5774  -3.6959  -3.6474  -3.5989  -3.2947  -3.2769
    -3.2483  -3.1335  -3.0657  -3.0396  -3.0068  -2.9778  -2.9421  -2.9308
    -2.9158  -2.9115  -2.9032  -2.9005  -2.8690  -2.8390  -2.8232  -2.7768
    -2.7490  -2.7405  -2.7242  -2.7079  -2.7032  -2.6535  -2.6498  -2.6449
    -2.6363  -2.5197  -2.3864  -2.3694  -2.3312  -2.2122  -2.1888  -2.1826
    -2.1531  -2.1420  -2.1364  -2.0796  -1.9748  -1.8699  -1.8208  -1.8000
    -1.7762  -1.7142  -1.5973  -1.5467  -1.5362  -1.5051  -1.4432  -1.4236
    -1.3728  -1.3664  -1.2612  -1.2341  -1.2115  -1.1366  -1.0754  -1.0576
    -1.0350  -0.9758  -0.9289  -0.9081  -0.8998  -0.8542  -0.7528  -0.7447
    -0.6962  -0.6856  -0.6333  -0.6277  -0.5746  -0.4459  -0.2050  -0.1671
    -0.0948  -0.0722   0.0197   0.0512   0.0791   0.1737   0.2020   0.3035
     0.3439   0.4389   0.4457   0.4614   0.5039   0.6697   1.3068   1.3095
     1.3830   1.3894   1.5604   3.2123   3.2496   3.2743   3.3381   3.5185
     3.5420   3.5430   3.5575   3.5898   3.6527

     the Fermi energy is     3.0142 ev

!    total energy              =   -2927.71107098 Ry
     estimated scf accuracy    <       0.00000007 Ry
     smearing contrib. (-TS)   =      -0.02327138 Ry
     internal energy E=F+TS    =   -2927.68779960 Ry

     The total energy is F=E-TS. E is the sum of the following terms:
     one-electron contribution =  -24559.75559621 Ry
     hartree contribution      =   12363.05322498 Ry
     xc contribution           =    -481.65104029 Ry
     ewald contribution        =    9750.66521545 Ry
     electric field correction =       0.00039648 Ry

     convergence has been achieved in  58 iterations

     Forces acting on atoms (cartesian axes, Ry/au):

     atom    1 type  1   force =     0.00025929    0.00111275    0.11028569
     atom    2 type  1   force =     0.00006622    0.00173012   -0.17422451
     atom    3 type  2   force =     0.00010775    0.00665856   -0.03420570
     atom    4 type  2   force =     0.00001488   -0.00085954    0.05076286
     atom    5 type  2   force =    -0.01744914   -0.00135054    0.00575942
     atom    6 type  2   force =     0.01690164   -0.00102119    0.00538707
     atom    7 type  1   force =     0.00007030    0.00260436   -0.01783657
     atom    8 type  1   force =    -0.00001401    0.00013097    0.00033157
     atom    9 type  2   force =    -0.00001255    0.00009220   -0.00040294
     atom   10 type  2   force =     0.00000271   -0.00050980   -0.00006957
     atom   11 type  2   force =     0.00007682   -0.00026114   -0.00006782
     atom   12 type  2   force =    -0.00007547   -0.00036775   -0.00023147
     atom   13 type  1   force =    -0.00038308   -0.00035160    0.00003535
     atom   14 type  1   force =    -0.00075731    0.00007997   -0.00012490
     atom   15 type  2   force =    -0.00011998   -0.00018976    0.00066298
     atom   16 type  2   force =     0.00011232   -0.00014638   -0.00029921
     atom   17 type  2   force =     0.00019479   -0.00020384    0.00057023
     atom   18 type  2   force =     0.00094677   -0.00044362    0.00055541
     atom   19 type  1   force =    -0.00002934    0.00045664    0.00007003
     atom   20 type  1   force =    -0.00015349   -0.00087216    0.00107655
     atom   21 type  2   force =     0.00009726    0.00006192    0.10312086
     atom   22 type  2   force =     0.00009515    0.00045916   -0.00157508
     atom   23 type  2   force =    -0.07113700    0.00061977   -0.03027496
     atom   24 type  2   force =     0.07110394    0.00103585   -0.03028506
     atom   25 type  1   force =     0.00005077   -0.00110504    0.11745471
     atom   26 type  1   force =     0.00004823   -0.00256390   -0.17407164
     atom   27 type  2   force =     0.00006912   -0.00281638   -0.02991451
     atom   28 type  2   force =     0.00002582   -0.00148774    0.05392355
     atom   29 type  2   force =    -0.01860587    0.00056514    0.00665737
     atom   30 type  2   force =     0.01808650    0.00123852    0.00629974
     atom   31 type  1   force =     0.00039608   -0.00270684   -0.01220994
     atom   32 type  1   force =    -0.00000694    0.00038486    0.00070302
     atom   33 type  2   force =     0.00002440   -0.00009320   -0.00046422
     atom   34 type  2   force =     0.00006816    0.00031920    0.00038664
     atom   35 type  2   force =    -0.00001363    0.00006172   -0.00030124
     atom   36 type  2   force =     0.00008998    0.00001703   -0.00033156
     atom   37 type  1   force =    -0.00049809   -0.00043283    0.00097351
     atom   38 type  1   force =    -0.00071043    0.00004819   -0.00014265
     atom   39 type  2   force =    -0.00013906   -0.00064280   -0.00036323
     atom   40 type  2   force =     0.00001292   -0.00011028   -0.00061189
     atom   41 type  2   force =    -0.00038807    0.00020002    0.00039253
     atom   42 type  2   force =     0.00086645    0.00037113   -0.00001401
     atom   43 type  1   force =     0.00031586   -0.00027047    0.00000755
     atom   44 type  1   force =     0.00043645    0.00061208    0.00050997
     atom   45 type  2   force =     0.00008139    0.00013629    0.10305439
     atom   46 type  2   force =    -0.07143125   -0.00055126   -0.03020738
     atom   47 type  2   force =     0.07139867   -0.00010929   -0.03025978
     atom   48 type  3   force =     0.00062409    0.00021402   -0.00013649
     atom   49 type  4   force =     0.00021731    0.00231582   -0.00033278
     atom   50 type  4   force =    -0.00294753   -0.02315385    0.00325628
     atom   51 type  3   force =    -0.00463745    0.01357827   -0.00046232
     atom   52 type  3   force =     0.00664766    0.00751666   -0.00281584

     Total force =     0.377163     Total SCF correction =     0.000968
  @ DRIVER MODE: Message from server: STATUS
  @ DRIVER MODE: Message from server: GETFORCE
  @ DRIVER MODE: Returning v,forces,stress,ensemble

     Writing output data file ./calc.save/
  @ DRIVER MODE: Message from server: EXIT
  @ DRIVE MODE: Exiting

     General routines

     Parallel routines

   This run was terminated on:  14:35: 3  12Oct2021

   JOB DONE.