     Program PWSCF v.6.7GPU starts on 23Sep2021 at 12: 5: 7

     R & G space division:  proc/nbgrp/npool/nimage =       8
     Reading input from /storage/home/hcoda1/3/ntian30/research/carbon/CxH_vib/H2O_calc/ads_slab/CH3ON2HO_a/out_0003/pw.inp
Warning: card &CELL ignored
Warning: card   CELL_DYNAMICS='IPI', ignored
Warning: card / ignored

     Current dimensions of program PWSCF are:
     Max number of different atomic species (ntypx) = 10
     Max number of k-points (npk) =  40000
     Max angular momentum in pseudopotentials (lmaxx) =  3
     Presently no symmetry can be used with electric field

     Message from routine cell_base_init:
     DEPRECATED: use true lattice parameter, not A to a.u. conversion factor

     IMPORTANT: XC functional enforced from input :
     Exchange-correlation= BEEF-VDW
                           (   1   4  43  14   2   0   0)
     Any further DFT definition will be discarded
     Please, verify this is what you really want

  @ DRIVER MODE: Connecting to
 qe_1139763_2947306.sched-torque.pace.gatech.edu307ya89f_scratch
  using UNIX socket
  @ DRIVER MODE: Message from server: STATUS
  @ DRIVER MODE: Message from server: INIT
  @ DRIVER MODE: Receiving replica           0          -1
  @ DRIVER MODE: Receiving encoded integer          25
  @ DRIVER MODE:  SCF:  T  FORCE:  T  STRESS:  F  VC:  F  ENSEMBLE:  F
  @ DRIVER MODE:  SCF:  T  FORCE:  T  STRESS:  F  VC:  F  ENSEMBLE:  F

     Using Slab Decomposition

     bravais-lattice index     =            0
     lattice parameter (alat)  =       1.8897  a.u.
     unit-cell volume          =    6658.9804 (a.u.)^3
     number of atoms/cell      =           56
     number of atomic types    =            5
     number of electrons       =       408.00
     number of Kohn-Sham states=          214
     kinetic-energy cutoff     =      29.3995  Ry
     charge density cutoff     =     293.9946  Ry
     scf convergence threshold =      7.3E-08
     mixing beta               =       0.0500
     number of iterations used =            8  plain     mixing
     Exchange-correlation= BEEF-VDW
                           (   1   4  43  14   2   0   0)

     celldm(1)=   1.889726  celldm(2)=   0.000000  celldm(3)=   0.000000
     celldm(4)=   0.000000  celldm(5)=   0.000000  celldm(6)=   0.000000

     crystal axes: (cart. coord. in units of alat)
               a(1) = (   6.579727   0.000000   0.000000 )
               a(2) = (  -0.000775   5.961596   0.000000 )
               a(3) = (   0.000000   0.000000  25.155947 )

     reciprocal axes: (cart. coord. in units 2 pi/alat)
               b(1) = (  0.151982  0.000020  0.000000 )
               b(2) = (  0.000000  0.167740  0.000000 )
               b(3) = (  0.000000  0.000000  0.039752 )

     PseudoPot. # 1 for Ti read from file:
     /storage/coda1/p-amedford6/0/shared/rich_project_chbe-medford/medford-share/data/pseudos_module/espresso/nninc/pbe/van/Ti.UPF
     MD5 check sum: 8e4df49b7f0d34bbd5052bf3f5ea0213
     Pseudo is Ultrasoft, Zval = 12.0
     Generated by new atomic code, or converted to UPF format
     Using radial grid of  851 points,  6 beta functions with:
                l(1) =   0
                l(2) =   0
                l(3) =   1
                l(4) =   1
                l(5) =   2
                l(6) =   2
     Q(r) pseudized with  8 coefficients,  rinner =    1.000   1.000   1.000
                                                       1.000   1.000

     PseudoPot. # 2 for O  read from file:
     /storage/coda1/p-amedford6/0/shared/rich_project_chbe-medford/medford-share/data/pseudos_module/espresso/nninc/pbe/van/O.UPF
     MD5 check sum: 78c19812648e8988a0fe644b0f25305e
     Pseudo is Ultrasoft, Zval =  6.0
     Generated by new atomic code, or converted to UPF format
     Using radial grid of  737 points,  4 beta functions with:
                l(1) =   0
                l(2) =   0
                l(3) =   1
                l(4) =   1
     Q(r) pseudized with  8 coefficients,  rinner =    0.800   0.800   0.800

     PseudoPot. # 3 for C  read from file:
     /storage/coda1/p-amedford6/0/shared/rich_project_chbe-medford/medford-share/data/pseudos_module/espresso/nninc/pbe/van/C.UPF
     MD5 check sum: 1a69bf6b8db32088f5b2163dbdb77a27
     Pseudo is Ultrasoft, Zval =  4.0
     Generated by new atomic code, or converted to UPF format
     Using radial grid of  721 points,  4 beta functions with:
                l(1) =   0
                l(2) =   0
                l(3) =   1
                l(4) =   1
     Q(r) pseudized with  8 coefficients,  rinner =    0.800   0.800   0.800

     PseudoPot. # 4 for H  read from file:
     /storage/coda1/p-amedford6/0/shared/rich_project_chbe-medford/medford-share/data/pseudos_module/espresso/nninc/pbe/van/H.UPF
     MD5 check sum: b5ee9d7bfd3a09ee7748110bda690ff7
     Pseudo is Ultrasoft, Zval =  1.0
     Generated by new atomic code, or converted to UPF format
     Using radial grid of  615 points,  1 beta functions with:
                l(1) =   0
     Q(r) pseudized with  8 coefficients,  rinner =    0.800

     PseudoPot. # 5 for N  read from file:
     /storage/coda1/p-amedford6/0/shared/rich_project_chbe-medford/medford-share/data/pseudos_module/espresso/nninc/pbe/van/N.UPF
     MD5 check sum: 90d10febe142ad51ac9d5be1deb811c4
     Pseudo is Ultrasoft, Zval =  5.0
     Generated by new atomic code, or converted to UPF format
     Using radial grid of  729 points,  4 beta functions with:
                l(1) =   0
                l(2) =   0
                l(3) =   1
                l(4) =   1
     Q(r) pseudized with  8 coefficients,  rinner =    0.800   0.800   0.800

     atomic species   valence    mass     pseudopotential
        Ti1           12.00    47.86700     Ti( 1.00)
        O1             6.00    15.99900     O ( 1.00)
        C1             4.00    12.01100     C ( 1.00)
        H1             1.00     1.00800     H ( 1.00)
        N1             5.00    14.00700     N ( 1.00)

     No symmetry found

   Cartesian axes

     site n.     atom                  positions (alat units)
         1           Ti1 tau(   1) = (   0.0004258   2.9801865   6.0000000  )
         2           Ti1 tau(   2) = (   3.2906075   1.4906267   6.0002472  )
         3           O1  tau(   3) = (   0.0006271   0.0005054   7.9858123  )
         4           O1  tau(   4) = (   3.2906025   0.0005020   7.3038282  )
         5           O1  tau(   5) = (   4.5942328   1.4918067   9.2879030  )
         6           O1  tau(   6) = (   1.9868534   1.4903216   9.2879459  )
         7           Ti1 tau(   7) = (   3.3138730   3.1023225   9.2183157  )
         8           Ti1 tau(   8) = (   0.0392070   1.5780841   9.3433077  )
         9           O1  tau(   9) = (   3.2868017   0.0212601  11.3135411  )
        10           O1  tau(  10) = (   0.0022550   0.0140515  10.5858881  )
        11           O1  tau(  11) = (   1.2767464   1.5002397  12.6205121  )
        12           O1  tau(  12) = (   5.2993684   1.4943797  12.6172415  )
        13           Ti1 tau(  13) = (   0.0200588   3.0780815  12.7918821  )
        14           Ti1 tau(  14) = (   3.2574684   1.5637424  12.4212484  )
        15           O1  tau(  15) = (   6.5768379   0.0158506  14.6682411  )
        16           O1  tau(  16) = (   3.2886937   5.9311801  13.9109749  )
        17           O1  tau(  17) = (   4.5620935   1.5260772  16.0398494  )
        18           O1  tau(  18) = (   2.0292830   1.5431627  16.0187044  )
        19           Ti1 tau(  19) = (   3.3027642   2.9567202  15.6520962  )
        20           Ti1 tau(  20) = (   0.0552782   1.4362356  15.9688716  )
        21           O1  tau(  21) = (   3.2904802   0.0005063   4.7018136  )
        22           O1  tau(  22) = (   0.0488089   0.0211857  17.1900833  )
        23           O1  tau(  23) = (   1.3043587   1.4918075   6.0039043  )
        24           O1  tau(  24) = (   5.2767064   1.4903225   6.0039473  )
        25           Ti1 tau(  25) = (   0.0000382   5.9609847   6.0000000  )
        26           Ti1 tau(  26) = (   3.2902200   4.4714249   6.0002472  )
        27           O1  tau(  27) = (   0.0002396   2.9813036   7.9858123  )
        28           O1  tau(  28) = (   3.2902150   2.9813002   7.3038282  )
        29           O1  tau(  29) = (   4.5938453   4.4726049   9.2879030  )
        30           O1  tau(  30) = (   1.9864658   4.4711199   9.2879459  )
        31           Ti1 tau(  31) = (   3.3219941   0.1169887   9.1790125  )
        32           Ti1 tau(  32) = (   0.0373256   4.5280481   9.3594506  )
        33           O1  tau(  33) = (   3.2887547   2.9594671  11.2851190  )
        34           O1  tau(  34) = (   0.0046902   2.9985155  10.5475055  )
        35           O1  tau(  35) = (   1.2817606   4.4707209  12.6310527  )
        36           O1  tau(  36) = (   5.3098963   4.4869072  12.6241852  )
        37           Ti1 tau(  37) = (   6.5328698   0.0937101  12.6083326  )
        38           Ti1 tau(  38) = (   3.2790761   4.6595539  12.6693962  )
        39           O1  tau(  39) = (   0.0062896   2.9920245  14.6683812  )
        40           O1  tau(  40) = (   3.3079832   2.9813091  13.8732900  )
        41           O1  tau(  41) = (   4.5514670   4.4448635  16.0695425  )
        42           O1  tau(  42) = (   2.0242163   4.4286948  16.0089506  )
        43           Ti1 tau(  43) = (   3.3772342   5.9382356  16.2476532  )
        44           Ti1 tau(  44) = (   0.0845355   4.5653432  16.0322982  )
        45           O1  tau(  45) = (   3.2900926   2.9813045   4.7018136  )
        46           O1  tau(  46) = (   1.3039711   4.4726057   6.0039043  )
        47           O1  tau(  47) = (   5.2763189   4.4711207   6.0039473  )
        48           C1  tau(  48) = (   6.0101766   2.9684267  18.6088694  )
        49           O1  tau(  49) = (   6.5649008   2.9952511  17.2928482  )
        50           H1  tau(  50) = (   4.9185495   2.9407445  18.5675634  )
        51           H1  tau(  51) = (   6.3703738   2.0936667  19.1370987  )
        52           H1  tau(  52) = (   6.3118891   3.8824302  19.1399426  )
        53           N1  tau(  53) = (   6.0262039   3.1690275  22.5535725  )
        54           N1  tau(  54) = (   5.1417247   3.1052473  21.8962875  )
        55           O1  tau(  55) = (   3.2068502   5.9581871  18.0710493  )
        56           H1  tau(  56) = (   2.3500504   0.2277792  18.4614507  )

     number of k points=    10  Fermi-Dirac smearing, width (Ry)=  0.0073
                       cart. coord. in units 2pi/alat
        k(    1) = (   0.0000000   0.0000000   0.0000000), wk =   0.1250000
        k(    2) = (   0.0000000   0.0419351   0.0000000), wk =   0.2500000
        k(    3) = (   0.0000000  -0.0838702   0.0000000), wk =   0.1250000
        k(    4) = (   0.0379955   0.0000049   0.0000000), wk =   0.2500000
        k(    5) = (   0.0379955   0.0419400   0.0000000), wk =   0.2500000
        k(    6) = (   0.0379955  -0.0838652   0.0000000), wk =   0.2500000
        k(    7) = (   0.0379955  -0.0419301   0.0000000), wk =   0.2500000
        k(    8) = (  -0.0759910  -0.0000099   0.0000000), wk =   0.1250000
        k(    9) = (  -0.0759910   0.0419252   0.0000000), wk =   0.2500000
        k(   10) = (  -0.0759910  -0.0838800   0.0000000), wk =   0.1250000

     Initial potential from superposition of free atoms

     starting charge  391.99915, renormalised to  408.00000

     negative rho (up, down):  9.975E-03 0.000E+00

     %%%%%%%%%%%%%%%%%%%%%%%%%%%%%%%%%%%%%%%%%%%%%%%%%%%%%%%%%%%%%%%%%%%%%%%%
     %                                                                      %
     % You are using vdW-DF, which was implemented by the Thonhauser group. %
     % Please cite the following two papers that made this development      %
     % possible and the two reviews that describe the various versions:     %
     %                                                                      %
     %   T. Thonhauser et al., PRL 115, 136402 (2015).                      %
     %   T. Thonhauser et al., PRB 76, 125112 (2007).                       %
     %   K. Berland et al., Rep. Prog. Phys. 78, 066501 (2015).             %
     %   D.C. Langreth et al., J. Phys.: Condens. Matter 21, 084203 (2009). %
     %                                                                      %
     %                                                                      %
     % If you are calculating the stress with vdW-DF, please also cite:     %
     %                                                                      %
     %   R. Sabatini et al., J. Phys.: Condens. Matter 24, 424209 (2012).   %
     %                                                                      %
     %%%%%%%%%%%%%%%%%%%%%%%%%%%%%%%%%%%%%%%%%%%%%%%%%%%%%%%%%%%%%%%%%%%%%%%%

     Adding external electric field

     Computed dipole along edir(3) :
        Dipole              -16.8152 Ry au,        -42.7399 Debye
        Dipole field         -0.0317 Ry au,

        Potential amp.        2.9416 Ry
        Total length         46.3494 bohr

     Starting wfcs are  308 atomic wfcs
  @ DRIVER MODE: Message from server: STATUS
  @ DRIVER MODE: Message from server: POSDATA
  @ DRIVER MODE: Reading and sharing cell
  @ DRIVER MODE: Reading and sharing positions
  @ DRIVER MODE: Received positions

     Self-consistent Calculation

     iteration #  1     ecut=    29.40 Ry     beta= 0.05
     Davidson diagonalization with overlap
     c_bands:  4 eigenvalues not converged
     c_bands:  1 eigenvalues not converged
     c_bands:  5 eigenvalues not converged
     c_bands:  1 eigenvalues not converged
     c_bands:  2 eigenvalues not converged
     c_bands:  2 eigenvalues not converged
     c_bands:  1 eigenvalues not converged
     c_bands:  5 eigenvalues not converged
     ethr =  1.00E-05,  avg # of iterations = 27.4

[...]

     total energy              =   -2248.46942761 Ry
     estimated scf accuracy    <    8688.99670602 Ry

[...]

     iteration #  3     ecut=    29.40 Ry     beta= 0.05
     Davidson diagonalization with overlap
     ethr =  1.00E-02,  avg # of iterations = 16.0

[...]

     iteration # 59     ecut=    29.40 Ry     beta= 0.05
     Davidson diagonalization with overlap
     c_bands:  1 eigenvalues not converged
     ethr =  1.85E-07,  avg # of iterations =  7.3

[...]

     total energy              =   -3005.28897928 Ry
     estimated scf accuracy    <       0.00000011 Ry

     iteration # 78     ecut=    29.40 Ry     beta= 0.05
     Davidson diagonalization with overlap
     ethr =  2.71E-11,  avg # of iterations =  5.0

     negative rho (up, down):  1.141E-02 0.000E+00

     Adding external electric field

     Computed dipole along edir(3) :
        Dipole                0.5479 Ry au,          1.3927 Debye
        Dipole field          0.0010 Ry au,

        Potential amp.       -0.0959 Ry
        Total length         46.3494 bohr

     End of self-consistent calculation

          k = 0.0000 0.0000 0.0000 ( 18029 PWs)   bands (ev):

   -56.1296 -56.0821 -55.5718 -55.5517 -55.5384 -55.5144 -55.4821 -55.4571
   -55.4225 -55.3966 -55.3627 -55.3211 -55.3199 -55.1837 -54.7428 -54.7089
   -32.5426 -32.3938 -32.3434 -32.3092 -32.2144 -32.1690 -32.0753 -32.0188
   -32.0104 -31.9042 -31.8602 -31.8427 -31.8374 -31.8153 -31.8130 -31.7750
   -31.7723 -31.7588 -31.7383 -31.7314 -31.7272 -31.6871 -31.6777 -31.6617
   -31.6585 -31.6408 -31.6377 -31.6288 -31.6206 -31.6111 -31.6041 -31.5869
   -31.5721 -31.5668 -31.5607 -31.5258 -31.5169 -31.5140 -31.4835 -31.4384
   -31.4004 -31.3888 -31.1372 -31.0829 -31.0586 -30.9541 -30.8692 -30.7583
   -20.8577 -17.3351 -16.3421 -16.2864 -16.1452 -15.9085 -15.7641 -15.6866
   -15.4570 -15.4468 -15.3319 -15.3250 -15.2900 -15.1589 -15.1416 -15.1340
   -15.0827 -15.0682 -15.0450 -15.0431 -15.0395 -15.0310 -14.9733 -14.9541
   -14.9146 -14.8557 -14.7795 -14.7593 -14.7102 -14.6994 -14.6575 -14.4321
   -13.2439 -13.1353  -9.0881  -6.0182  -4.1087  -3.9931  -3.9813  -3.9315
    -3.8132  -3.7612  -3.5880  -3.4893  -3.4638  -3.3878  -3.2912  -3.1861
    -2.9716  -2.8202  -2.7572  -2.7194  -2.7163  -2.6763  -2.6349  -2.5733
    -2.5186  -2.4765  -2.4427  -2.4086  -2.3480  -2.3369  -2.3200  -2.2897
    -2.2702  -2.2490  -2.2135  -2.2012  -2.0703  -2.0335  -2.0039  -1.9922
    -1.9392  -1.9204  -1.9019  -1.8918  -1.8468  -1.7504  -1.6525  -1.6385
    -1.5947  -1.4084  -1.3330  -1.2866  -1.2084  -1.1429  -1.0659  -1.0452
    -1.0355  -0.9803  -0.9424  -0.8413  -0.8073  -0.7676  -0.7009  -0.6948
    -0.6559  -0.5959  -0.5710  -0.5096  -0.4818  -0.4483  -0.3107  -0.2737
    -0.2560  -0.1939  -0.1937  -0.1023  -0.0404   0.0110   0.0297   0.0853
     0.1260   0.1477   0.1987   0.2293   0.2431   0.3266   0.3756   0.3827
     0.4162   0.4562   0.4746   0.5086   0.5949   0.6425   0.6694   0.6961
     0.8392   0.8533   0.9080   1.0145   1.0235   1.2055   1.2750   1.3107
     1.4974   1.5355   1.8267   1.8724   3.1706   3.3338   3.6132   3.7255
     3.7696   3.8096   3.8851   3.9122   4.0662   4.0888

[...]

          k = 0.0380-0.0419 0.0000 ( 17876 PWs)   bands (ev):

[...]

          k =-0.0760-0.0000 0.0000 ( 17886 PWs)   bands (ev):

[...]

          k =-0.0760-0.0839 0.0000 ( 17948 PWs)   bands (ev):

   -56.1227 -56.0890 -55.5697 -55.5467 -55.5374 -55.5084 -55.4867 -55.4629
   -55.4244 -55.3979 -55.3541 -55.3292 -55.3182 -55.1856 -54.7259 -54.7256
   -32.3893 -32.3738 -32.3474 -32.3451 -32.2746 -32.2460 -31.9637 -31.8836
   -31.8548 -31.8374 -31.8146 -31.8052 -31.7916 -31.7859 -31.7765 -31.7620
   -31.7565 -31.7465 -31.7462 -31.7384 -31.7292 -31.7204 -31.7072 -31.7064
   -31.7037 -31.6873 -31.6817 -31.6570 -31.6483 -31.6470 -31.6296 -31.6232
   -31.6005 -31.5936 -31.5780 -31.5662 -31.5635 -31.5360 -31.5210 -31.5031
   -31.4389 -31.3924 -31.0717 -31.0715 -30.9528 -30.9511 -30.9113 -30.9104
   -20.8576 -17.2975 -16.3161 -15.6930 -15.6033 -15.5940 -15.5867 -15.5538
   -15.5179 -15.4532 -15.4385 -15.3705 -15.2983 -15.2677 -15.2270 -15.2020
   -15.1860 -15.1491 -15.1447 -15.0827 -15.0390 -15.0302 -15.0154 -15.0018
   -14.9572 -14.9491 -14.9402 -14.9241 -14.9154 -14.8542 -14.7546 -14.5768
   -13.2396 -13.2384  -9.0882  -6.0197  -4.0460  -3.9979  -3.9751  -3.8593
    -3.7009  -3.4604  -2.9260  -2.8455  -2.7669  -2.7648  -2.7033  -2.6761
    -2.6282  -2.6051  -2.5687  -2.5533  -2.5315  -2.4658  -2.4411  -2.4267
    -2.4232  -2.4145  -2.3985  -2.3794  -2.3370  -2.3278  -2.3155  -2.3056
    -2.2863  -2.2819  -2.2693  -2.2485  -2.2079  -2.1459  -2.0888  -1.9482
    -1.9400  -1.9140  -1.8947  -1.8703  -1.8455  -1.7946  -1.7127  -1.6928
    -1.6741  -1.5988  -1.5396  -1.3351  -1.3137  -1.2960  -1.2263  -1.1582
    -1.0910  -1.0736  -1.0390  -1.0048  -0.9815  -0.9416  -0.8853  -0.8502
    -0.8075  -0.7948  -0.7565  -0.7191  -0.6708  -0.6090  -0.6005  -0.5676
    -0.5178  -0.4941  -0.4038  -0.3955  -0.3716  -0.3541  -0.3199  -0.2287
    -0.1767  -0.1303  -0.0427  -0.0028   0.0378   0.1716   0.2371   0.2731
     0.3464   0.3866   0.4936   0.5155   0.5937   0.6172   0.6456   0.6711
     0.7368   0.8074   0.8588   0.9080   0.9485   0.9633   1.0145   1.0644
     1.6685   1.6710   1.6785   1.6849   3.7135   3.7397   3.7475   3.7808
     3.9851   4.0150   4.0880   4.1048   4.1254   4.1799

     the Fermi energy is     2.5788 ev

!    total energy              =   -3005.28899637 Ry
     estimated scf accuracy    <       0.00000007 Ry
     smearing contrib. (-TS)   =      -0.00015438 Ry
     internal energy E=F+TS    =   -3005.28884199 Ry

     The total energy is F=E-TS. E is the sum of the following terms:
     one-electron contribution =  -22581.86253178 Ry
     hartree contribution      =   11387.22670828 Ry
     xc contribution           =    -500.24124174 Ry
     ewald contribution        =    8689.58765666 Ry
     electric field correction =       0.00056659 Ry

     convergence has been achieved in  78 iterations

     Forces acting on atoms (cartesian axes, Ry/au):

     atom    1 type  1   force =     0.00012048    0.00010553    0.13280835
     atom    2 type  1   force =    -0.00010832    0.00820750   -0.15822819
     atom    3 type  2   force =     0.00029859   -0.00362230   -0.05307594
     atom    4 type  2   force =     0.00058998    0.00105179    0.04012582
     atom    5 type  2   force =    -0.00786397   -0.00195573   -0.00034749
     atom    6 type  2   force =     0.00845876   -0.00490926   -0.00005211
     atom    7 type  1   force =    -0.00017724   -0.00030989   -0.00006200
     atom    8 type  1   force =    -0.00000209   -0.00026767    0.00020864
     atom    9 type  2   force =     0.00013187    0.00009564    0.00001454
     atom   10 type  2   force =    -0.00003337    0.00020400    0.00007698
     atom   11 type  2   force =    -0.00005465    0.00012899   -0.00000413
     atom   12 type  2   force =     0.00037712   -0.00011193   -0.00004929
     atom   13 type  1   force =    -0.00017988    0.00002619    0.00016358
     atom   14 type  1   force =     0.00012125    0.00058921    0.00009073
     atom   15 type  2   force =    -0.00010257   -0.00001189   -0.00004025
     atom   16 type  2   force =     0.00002416    0.00004779   -0.00044262
     atom   17 type  2   force =     0.00012618   -0.00046348    0.00019814
     atom   18 type  2   force =    -0.00004935   -0.00055770    0.00011093
     atom   19 type  1   force =    -0.00037924    0.00027817   -0.00006333
     atom   20 type  1   force =     0.00053091    0.00005952   -0.00015322
     atom   21 type  2   force =    -0.00006564    0.00009907    0.09918642
     atom   22 type  2   force =    -0.00023607    0.00011852    0.00002561
     atom   23 type  2   force =    -0.08058507    0.00058127   -0.03415029
     atom   24 type  2   force =     0.08035772    0.00110305   -0.03419114
     atom   25 type  1   force =    -0.00021829   -0.00017014    0.14172052
     atom   26 type  1   force =    -0.00018323   -0.00686509   -0.15774208
     atom   27 type  2   force =     0.00043797    0.00017874   -0.05211714
     atom   28 type  2   force =     0.00043741    0.00035405    0.04190621
     atom   29 type  2   force =    -0.00940363    0.00598206    0.00164454
     atom   30 type  2   force =     0.00930993    0.00235494    0.00175438
     atom   31 type  1   force =    -0.00002593    0.00010745    0.00013015
     atom   32 type  1   force =     0.00002170   -0.00013219   -0.00011176
     atom   33 type  2   force =    -0.00006648   -0.00031418    0.00026963
     atom   34 type  2   force =    -0.00009811   -0.00005777    0.00000950
     atom   35 type  2   force =     0.00062042    0.00026187   -0.00007051
     atom   36 type  2   force =    -0.00018998    0.00015405    0.00005295
     atom   37 type  1   force =    -0.00038921    0.00047037   -0.00063083
     atom   38 type  1   force =     0.00024642   -0.00035926   -0.00012415
     atom   39 type  2   force =    -0.00003070    0.00001434    0.00027108
     atom   40 type  2   force =     0.00012701   -0.00008240   -0.00033459
     atom   41 type  2   force =     0.00072103    0.00013329    0.00018656
     atom   42 type  2   force =    -0.00042846    0.00034244    0.00000411
     atom   43 type  1   force =    -0.00058572   -0.00031433    0.00000353
     atom   44 type  1   force =    -0.00006605   -0.00040235   -0.00029599
     atom   45 type  2   force =    -0.00007777    0.00017829    0.09875391
     atom   46 type  2   force =    -0.08055216   -0.00156569   -0.03410584
     atom   47 type  2   force =     0.08035576   -0.00103232   -0.03418975
     atom   48 type  3   force =     0.00003442    0.02121636    0.00017047
     atom   49 type  2   force =    -0.00019766   -0.00273142    0.00062706
     atom   50 type  4   force =    -0.00067320   -0.00165464   -0.00035228
     atom   51 type  4   force =     0.00274046   -0.00850126    0.00353637
     atom   52 type  4   force =    -0.00214584   -0.00808593   -0.00359168
     atom   53 type  5   force =     0.00099745    0.00011624    0.00074836
     atom   54 type  5   force =    -0.00132854   -0.00000961   -0.00084836
     atom   55 type  2   force =    -0.00110458    0.00082147    0.00029427
     atom   56 type  4   force =     0.00041601   -0.00089378    0.00028162

     Total force =     0.384531     Total SCF correction =     0.000736
  @ DRIVER MODE: Message from server: STATUS
  @ DRIVER MODE: Message from server: GETFORCE
  @ DRIVER MODE: Returning v,forces,stress,ensemble

     Writing output data file ./calc.save/
  @ DRIVER MODE: Message from server: EXIT
  @ DRIVE MODE: Exiting

     General routines

     Parallel routines

   This run was terminated on:  12:32:51  23Sep2021

   JOB DONE.