     Program PWSCF v.6.7GPU starts on 11Sep2021 at  1: 3:30

     R & G space division:  proc/nbgrp/npool/nimage =      10
     Reading input from /storage/home/hcoda1/3/ntian30/research/carbon/CxH_vib/CH2_calc/ads_slab/CH2OH_f/out_0022/pw.inp
Warning: card &CELL ignored
Warning: card   CELL_DYNAMICS='IPI', ignored
Warning: card / ignored

     Current dimensions of program PWSCF are:
     Max number of different atomic species (ntypx) = 10
     Max number of k-points (npk) =  40000
     Max angular momentum in pseudopotentials (lmaxx) =  3
     Presently no symmetry can be used with electric field

     Message from routine cell_base_init:
     DEPRECATED: use true lattice parameter, not A to a.u. conversion factor

     IMPORTANT: XC functional enforced from input :
     Exchange-correlation= BEEF-VDW
                           (   1   4  43  14   2   0   0)
     Any further DFT definition will be discarded
     Please, verify this is what you really want

  @ DRIVER MODE: Connecting to
 qe_1139763_2792042.sched-torque.pace.gatech.edui31g5_oo_scratch
  using UNIX socket
  @ DRIVER MODE: Message from server: STATUS
  @ DRIVER MODE: Message from server: INIT
  @ DRIVER MODE: Receiving replica           0          -1
  @ DRIVER MODE: Receiving encoded integer          25
  @ DRIVER MODE:  SCF:  T  FORCE:  T  STRESS:  F  VC:  F  ENSEMBLE:  F
  @ DRIVER MODE:  SCF:  T  FORCE:  T  STRESS:  F  VC:  F  ENSEMBLE:  F

     Using Slab Decomposition

     bravais-lattice index     =            0
     lattice parameter (alat)  =       1.8897  a.u.
     unit-cell volume          =    6658.9804 (a.u.)^3
     number of atoms/cell      =           52
     number of atomic types    =            4
     number of electrons       =       391.00
     number of Kohn-Sham states=          205
     kinetic-energy cutoff     =      29.3995  Ry
     charge density cutoff     =     293.9946  Ry
     scf convergence threshold =      7.3E-08
     mixing beta               =       0.0500
     number of iterations used =            8  plain     mixing
     Exchange-correlation= BEEF-VDW
                           (   1   4  43  14   2   0   0)

     celldm(1)=   1.889726  celldm(2)=   0.000000  celldm(3)=   0.000000
     celldm(4)=   0.000000  celldm(5)=   0.000000  celldm(6)=   0.000000

     crystal axes: (cart. coord. in units of alat)
               a(1) = (   6.579727   0.000000   0.000000 )
               a(2) = (  -0.000775   5.961596   0.000000 )
               a(3) = (   0.000000   0.000000  25.155947 )

     reciprocal axes: (cart. coord. in units 2 pi/alat)
               b(1) = (  0.151982  0.000020  0.000000 )
               b(2) = (  0.000000  0.167740  0.000000 )
               b(3) = (  0.000000  0.000000  0.039752 )

     PseudoPot. # 1 for O  read from file:
     /storage/coda1/p-amedford6/0/shared/rich_project_chbe-medford/medford-share/data/pseudos_module/espresso/nninc/pbe/van/O.UPF
     MD5 check sum: 78c19812648e8988a0fe644b0f25305e
     Pseudo is Ultrasoft, Zval =  6.0
     Generated by new atomic code, or converted to UPF format
     Using radial grid of  737 points,  4 beta functions with:
                l(1) =   0
                l(2) =   0
                l(3) =   1
                l(4) =   1
     Q(r) pseudized with  8 coefficients,  rinner =    0.800   0.800   0.800

     PseudoPot. # 2 for Ti read from file:
     /storage/coda1/p-amedford6/0/shared/rich_project_chbe-medford/medford-share/data/pseudos_module/espresso/nninc/pbe/van/Ti.UPF
     MD5 check sum: 8e4df49b7f0d34bbd5052bf3f5ea0213
     Pseudo is Ultrasoft, Zval = 12.0
     Generated by new atomic code, or converted to UPF format
     Using radial grid of  851 points,  6 beta functions with:
                l(1) =   0
                l(2) =   0
                l(3) =   1
                l(4) =   1
                l(5) =   2
                l(6) =   2
     Q(r) pseudized with  8 coefficients,  rinner =    1.000   1.000   1.000
                                                       1.000   1.000

     PseudoPot. # 3 for H  read from file:
     /storage/coda1/p-amedford6/0/shared/rich_project_chbe-medford/medford-share/data/pseudos_module/espresso/nninc/pbe/van/H.UPF
     MD5 check sum: b5ee9d7bfd3a09ee7748110bda690ff7
     Pseudo is Ultrasoft, Zval =  1.0
     Generated by new atomic code, or converted to UPF format
     Using radial grid of  615 points,  1 beta functions with:
                l(1) =   0
     Q(r) pseudized with  8 coefficients,  rinner =    0.800

     PseudoPot. # 4 for C  read from file:
     /storage/coda1/p-amedford6/0/shared/rich_project_chbe-medford/medford-share/data/pseudos_module/espresso/nninc/pbe/van/C.UPF
     MD5 check sum: 1a69bf6b8db32088f5b2163dbdb77a27
     Pseudo is Ultrasoft, Zval =  4.0
     Generated by new atomic code, or converted to UPF format
     Using radial grid of  721 points,  4 beta functions with:
                l(1) =   0
                l(2) =   0
                l(3) =   1
                l(4) =   1
     Q(r) pseudized with  8 coefficients,  rinner =    0.800   0.800   0.800

     atomic species   valence    mass     pseudopotential
        O1             6.00    15.99900     O ( 1.00)
        Ti1           12.00    47.86700     Ti( 1.00)
        H1             1.00     1.00800     H ( 1.00)
        C1             4.00    12.01100     C ( 1.00)

     No symmetry found

   Cartesian axes

     site n.     atom                  positions (alat units)
         1           O1  tau(   1) = (   3.2904802   0.0005063   4.7018136  )
         2           O1  tau(   2) = (   3.2900926   2.9813045   4.7018136  )
         3           Ti1 tau(   3) = (   0.0004258   2.9801865   6.0000000  )
         4           Ti1 tau(   4) = (   0.0000382   5.9609847   6.0000000  )
         5           Ti1 tau(   5) = (   3.2906075   1.4906267   6.0002472  )
         6           Ti1 tau(   6) = (   3.2902200   4.4714249   6.0002472  )
         7           O1  tau(   7) = (   1.3043587   1.4918075   6.0039043  )
         8           O1  tau(   8) = (   1.3039711   4.4726057   6.0039043  )
         9           O1  tau(   9) = (   5.2767064   1.4903225   6.0039473  )
        10           O1  tau(  10) = (   5.2763189   4.4711207   6.0039473  )
        11           O1  tau(  11) = (   3.2906025   0.0005020   7.3038282  )
        12           O1  tau(  12) = (   3.2902150   2.9813002   7.3038282  )
        13           O1  tau(  13) = (   0.0006271   0.0005054   7.9858123  )
        14           O1  tau(  14) = (   0.0002396   2.9813036   7.9858123  )
        15           Ti1 tau(  15) = (   3.3208325   5.9232416   9.1783542  )
        16           Ti1 tau(  16) = (   3.3324863   2.9377666   9.1648094  )
        17           Ti1 tau(  17) = (   0.0524917   1.4788520   9.2606301  )
        18           Ti1 tau(  18) = (   0.0483789   4.4105323   9.3105966  )
        19           O1  tau(  19) = (   4.5942328   1.4918067   9.2879030  )
        20           O1  tau(  20) = (   4.5938453   4.4726049   9.2879030  )
        21           O1  tau(  21) = (   1.9868534   1.4903216   9.2879459  )
        22           O1  tau(  22) = (   1.9864658   4.4711199   9.2879459  )
        23           O1  tau(  23) = (   6.5712937   0.0017758  10.5841540  )
        24           O1  tau(  24) = (   0.0002036   2.9871675  10.5944109  )
        25           O1  tau(  25) = (   3.2216619   2.9970402  11.3379169  )
        26           O1  tau(  26) = (   3.2239595   0.0054171  11.3328765  )
        27           Ti1 tau(  27) = (   6.5319223   0.0329622  12.4533321  )
        28           Ti1 tau(  28) = (   3.1914638   1.6317768  12.6145244  )
        29           Ti1 tau(  29) = (   3.1843358   4.5420783  12.4476223  )
        30           Ti1 tau(  30) = (   6.4449355   3.0101977  12.6586491  )
        31           O1  tau(  31) = (   5.2440064   1.5124744  12.5792363  )
        32           O1  tau(  32) = (   5.2402295   4.4617308  12.5795526  )
        33           O1  tau(  33) = (   1.2196697   1.4730338  12.6667888  )
        34           O1  tau(  34) = (   1.2190574   4.4979232  12.6669875  )
        35           O1  tau(  35) = (   3.2067865   2.9341989  13.9395670  )
        36           O1  tau(  36) = (   3.3440650   5.9513154  13.9008253  )
        37           O1  tau(  37) = (   6.3267833   5.9539684  14.6370341  )
        38           O1  tau(  38) = (   6.3913104   2.9714873  14.7475579  )
        39           Ti1 tau(  39) = (   3.1260420   2.9476348  15.9752747  )
        40           Ti1 tau(  40) = (   3.1986908   5.9292636  15.6746755  )
        41           Ti1 tau(  41) = (   6.4744102   1.3498976  15.9078779  )
        42           Ti1 tau(  42) = (   6.4721656   4.5656371  15.8700466  )
        43           O1  tau(  43) = (   1.8677001   4.5604514  15.8157410  )
        44           O1  tau(  44) = (   1.8686447   1.3618557  15.8396546  )
        45           O1  tau(  45) = (   4.4008848   1.5192286  16.2292034  )
        46           O1  tau(  46) = (   4.3978686   4.4066597  16.2143399  )
        47           O1  tau(  47) = (   6.4830960   5.9408203  17.1431429  )
        48           O1  tau(  48) = (   0.4828407   2.9769521  17.4917737  )
        49           H1  tau(  49) = (   6.5026766   3.0145448  18.2851392  )
        50           C1  tau(  50) = (   1.9555054   2.9805414  17.9097346  )
        51           H1  tau(  51) = (   2.0761010   2.0993267  18.5304525  )
        52           H1  tau(  52) = (   2.0801140   3.8867162  18.5073456  )

     number of k points=    10  Fermi-Dirac smearing, width (Ry)=  0.0073
                       cart. coord. in units 2pi/alat
        k(    1) = (   0.0000000   0.0000000   0.0000000), wk =   0.1250000
        k(    2) = (   0.0000000   0.0419351   0.0000000), wk =   0.2500000
        k(    3) = (   0.0000000  -0.0838702   0.0000000), wk =   0.1250000
        k(    4) = (   0.0379955   0.0000049   0.0000000), wk =   0.2500000
        k(    5) = (   0.0379955   0.0419400   0.0000000), wk =   0.2500000
        k(    6) = (   0.0379955  -0.0838652   0.0000000), wk =   0.2500000
        k(    7) = (   0.0379955  -0.0419301   0.0000000), wk =   0.2500000
        k(    8) = (  -0.0759910  -0.0000099   0.0000000), wk =   0.1250000
        k(    9) = (  -0.0759910   0.0419252   0.0000000), wk =   0.2500000
        k(   10) = (  -0.0759910  -0.0838800   0.0000000), wk =   0.1250000

     Initial potential from superposition of free atoms

     starting charge  374.99918, renormalised to  391.00000

     negative rho (up, down):  1.929E-02 0.000E+00

     %%%%%%%%%%%%%%%%%%%%%%%%%%%%%%%%%%%%%%%%%%%%%%%%%%%%%%%%%%%%%%%%%%%%%%%%
     %                                                                      %
     % You are using vdW-DF, which was implemented by the Thonhauser group. %
     % Please cite the following two papers that made this development      %
     % possible and the two reviews that describe the various versions:     %
     %                                                                      %
     %   T. Thonhauser et al., PRL 115, 136402 (2015).                      %
     %   T. Thonhauser et al., PRB 76, 125112 (2007).                       %
     %   K. Berland et al., Rep. Prog. Phys. 78, 066501 (2015).             %
     %   D.C. Langreth et al., J. Phys.: Condens. Matter 21, 084203 (2009). %
     %                                                                      %
     %                                                                      %
     % If you are calculating the stress with vdW-DF, please also cite:     %
     %                                                                      %
     %   R. Sabatini et al., J. Phys.: Condens. Matter 24, 424209 (2012).   %
     %                                                                      %
     %%%%%%%%%%%%%%%%%%%%%%%%%%%%%%%%%%%%%%%%%%%%%%%%%%%%%%%%%%%%%%%%%%%%%%%%

     Adding external electric field

     Computed dipole along edir(3) :
        Dipole               -5.2494 Ry au,        -13.3426 Debye
        Dipole field         -0.0099 Ry au,

        Potential amp.        0.9183 Ry
        Total length         46.3494 bohr

     Starting wfcs are  295 atomic wfcs
  @ DRIVER MODE: Message from server: STATUS
  @ DRIVER MODE: Message from server: POSDATA
  @ DRIVER MODE: Reading and sharing cell
  @ DRIVER MODE: Reading and sharing positions
  @ DRIVER MODE: Received positions

     Self-consistent Calculation

     iteration #  1     ecut=    29.40 Ry     beta= 0.05
     Davidson diagonalization with overlap
     c_bands:  1 eigenvalues not converged
     c_bands:  4 eigenvalues not converged
     c_bands:  1 eigenvalues not converged
     c_bands:  2 eigenvalues not converged
     c_bands:  4 eigenvalues not converged
     c_bands:  1 eigenvalues not converged
     c_bands:  1 eigenvalues not converged
     c_bands:  3 eigenvalues not converged
     ethr =  1.00E-05,  avg # of iterations = 19.6

[...]

     total energy              =   -2799.76201743 Ry
     estimated scf accuracy    <    1445.82691655 Ry

     iteration #  2     ecut=    29.40 Ry     beta= 0.05
     Davidson diagonalization with overlap
     ethr =  1.00E-02,  avg # of iterations = 16.9

[...]

     iteration # 61     ecut=    29.40 Ry     beta= 0.05
     Davidson diagonalization with overlap
     c_bands:  2 eigenvalues not converged
     ethr =  2.37E-11,  avg # of iterations = 12.2

[...]

     total energy              =   -2931.32919368 Ry
     estimated scf accuracy    <       0.00000010 Ry

     iteration # 62     ecut=    29.40 Ry     beta= 0.05
     Davidson diagonalization with overlap
     ethr =  2.37E-11,  avg # of iterations =  6.7

     negative rho (up, down):  1.890E-02 0.000E+00

     Adding external electric field

     Computed dipole along edir(3) :
        Dipole                0.9545 Ry au,          2.4260 Debye
        Dipole field          0.0018 Ry au,

        Potential amp.       -0.1670 Ry
        Total length         46.3494 bohr

     End of self-consistent calculation

          k = 0.0000 0.0000 0.0000 ( 18029 PWs)   bands (ev):

   -55.8489 -55.8113 -55.7569 -55.7445 -55.6911 -55.6834 -55.6685 -55.6640
   -55.6336 -55.6146 -55.6129 -55.5871 -55.5804 -55.5639 -54.8236 -54.7895
   -32.3586 -32.3232 -32.2324 -32.2032 -32.1578 -32.1328 -32.1206 -32.0959
   -32.0874 -32.0599 -32.0338 -32.0118 -32.0036 -31.9905 -31.9635 -31.9560
   -31.9452 -31.9337 -31.9152 -31.9127 -31.9082 -31.9024 -31.8747 -31.8566
   -31.8511 -31.8481 -31.8466 -31.8366 -31.8302 -31.8208 -31.8122 -31.8098
   -31.7996 -31.7872 -31.7836 -31.7828 -31.7697 -31.7640 -31.7469 -31.7354
   -31.7162 -31.6433 -31.2308 -31.1414 -31.1189 -31.0478 -30.9615 -30.8500
   -19.5421 -16.5525 -16.3367 -16.1499 -16.0509 -16.0005 -15.8318 -15.7496
   -15.5394 -15.4870 -15.4751 -15.4490 -15.3930 -15.3765 -15.3703 -15.3514
   -15.3399 -15.3148 -15.2553 -15.2464 -15.2382 -15.2034 -15.1458 -15.1158
   -14.9888 -14.9798 -14.9643 -14.9453 -14.8618 -14.7318 -13.3239 -13.2070
    -9.6280  -6.4508  -4.2030  -4.0034  -3.8643  -3.7668  -3.7512  -3.7305
    -3.5692  -3.4944  -3.2699  -3.1378  -3.0866  -3.0194  -2.9792  -2.9173
    -2.8247  -2.7624  -2.7204  -2.6801  -2.6466  -2.6452  -2.6297  -2.5756
    -2.5458  -2.5015  -2.3997  -2.3971  -2.3451  -2.2883  -2.2482  -2.2064
    -2.1653  -2.1497  -2.1290  -2.0926  -2.0592  -2.0493  -2.0168  -1.9865
    -1.9297  -1.8493  -1.8197  -1.5575  -1.4653  -1.3799  -1.3665  -1.2989
    -1.2751  -1.2461  -1.2311  -1.1928  -1.1803  -1.0928  -1.0849  -1.0115
    -0.9707  -0.8893  -0.8289  -0.7520  -0.6889  -0.6300  -0.6083  -0.5789
    -0.5634  -0.5533  -0.3924  -0.3808  -0.3537  -0.2430  -0.2269  -0.1622
    -0.1386  -0.0762  -0.0533   0.0118   0.0698   0.0916   0.1133   0.1495
     0.1599   0.1721   0.2144   0.2961   0.3861   0.3999   0.4172   0.4804
     0.6460   0.7198   0.8234   0.8875   1.1255   1.2010   1.2380   1.2823
     1.3874   1.7748   1.8278   3.2990   3.3684   3.4164   3.4266   3.4656
     3.5475   3.7377   3.7457   3.8042   3.8910

[...]

          k = 0.0380-0.0419 0.0000 ( 17876 PWs)   bands (ev):

[...]

          k =-0.0760-0.0000 0.0000 ( 17886 PWs)   bands (ev):

[...]

          k =-0.0760-0.0839 0.0000 ( 17948 PWs)   bands (ev):

   -55.8381 -55.8219 -55.7526 -55.7379 -55.6976 -55.6873 -55.6650 -55.6586
   -55.6254 -55.6200 -55.5982 -55.5964 -55.5947 -55.5664 -54.8066 -54.8064
   -32.2814 -32.1469 -32.1354 -32.1311 -32.1076 -32.0832 -32.0787 -32.0511
   -32.0195 -32.0022 -31.9922 -31.9886 -31.9756 -31.9660 -31.9641 -31.9594
   -31.9582 -31.9504 -31.9478 -31.9320 -31.9298 -31.9220 -31.8991 -31.8957
   -31.8914 -31.8848 -31.8834 -31.8733 -31.8651 -31.8587 -31.8454 -31.8426
   -31.8328 -31.8240 -31.8220 -31.8123 -31.8093 -31.8071 -31.8053 -31.7932
   -31.7894 -31.6448 -31.1318 -31.1314 -31.0443 -31.0433 -31.0049 -31.0041
   -19.5362 -16.1417 -15.9574 -15.8035 -15.7899 -15.7841 -15.6321 -15.6288
   -15.6039 -15.5672 -15.5344 -15.5165 -15.4785 -15.4744 -15.4311 -15.3796
   -15.3732 -15.3612 -15.3346 -15.2836 -15.2713 -15.2563 -15.1793 -15.1686
   -15.1603 -15.1340 -15.1311 -15.0994 -15.0988 -15.0248 -13.3106 -13.3068
    -9.6284  -6.4343  -4.2088  -3.8701  -3.2819  -3.2086  -3.0161  -3.0012
    -2.9267  -2.8918  -2.8659  -2.8256  -2.7756  -2.7686  -2.7539  -2.6795
    -2.6557  -2.6510  -2.6064  -2.5934  -2.5831  -2.5668  -2.5530  -2.5155
    -2.4926  -2.4684  -2.4452  -2.4300  -2.4082  -2.3995  -2.3948  -2.3494
    -2.3290  -2.2088  -2.1174  -2.0547  -2.0085  -1.9674  -1.9412  -1.9226
    -1.9048  -1.8904  -1.8773  -1.8370  -1.7687  -1.6028  -1.5240  -1.5190
    -1.4562  -1.4360  -1.3840  -1.3654  -1.2895  -1.2618  -1.2122  -1.1980
    -1.1822  -1.0794  -1.0557  -0.9626  -0.9301  -0.8241  -0.8007  -0.7875
    -0.7683  -0.7266  -0.7044  -0.6412  -0.6186  -0.5805  -0.5529  -0.5022
    -0.4569  -0.4401  -0.3427  -0.3012  -0.2475  -0.2004  -0.1336  -0.0242
     0.1544   0.1767   0.2119   0.3164   0.3553   0.4267   0.4831   0.5018
     0.5657   0.6021   0.6462   0.6952   0.7583   0.7949   1.2441   1.5626
     1.5711   1.6356   1.6472   3.6014   3.6505   3.7701   3.7831   3.8128
     3.8234   3.8367   3.8518   3.9012   3.9557

     the Fermi energy is     3.2923 ev

!    total energy              =   -2931.32922674 Ry
     estimated scf accuracy    <       0.00000003 Ry
     smearing contrib. (-TS)   =      -0.02172868 Ry
     internal energy E=F+TS    =   -2931.30749805 Ry

     The total energy is F=E-TS. E is the sum of the following terms:
     one-electron contribution =  -24944.55509833 Ry
     hartree contribution      =   12558.69514147 Ry
     xc contribution           =    -482.04691308 Ry
     ewald contribution        =    9936.59765265 Ry
     electric field correction =       0.00171924 Ry

     convergence has been achieved in  62 iterations

     Forces acting on atoms (cartesian axes, Ry/au):

     atom    1 type  1   force =    -0.00001375    0.00009849    0.10312219
     atom    2 type  1   force =     0.00000447    0.00011352    0.10343457
     atom    3 type  2   force =    -0.00029177    0.00099217    0.09592922
     atom    4 type  2   force =    -0.00015029   -0.00100262    0.10945343
     atom    5 type  2   force =    -0.00014649   -0.00319004   -0.17643076
     atom    6 type  2   force =    -0.00014376    0.00267589   -0.17603095
     atom    7 type  1   force =    -0.07085959    0.00114057   -0.02856332
     atom    8 type  1   force =    -0.07120449   -0.00152673   -0.02858610
     atom    9 type  1   force =     0.07070664    0.00155046   -0.02859138
     atom   10 type  1   force =     0.07092781   -0.00114892   -0.02863185
     atom   11 type  1   force =     0.00048723   -0.00020832    0.05106331
     atom   12 type  1   force =     0.00072189   -0.00042212    0.05033580
     atom   13 type  1   force =     0.00061509    0.00264634   -0.02977524
     atom   14 type  1   force =     0.00055844   -0.00111947   -0.02625333
     atom   15 type  2   force =     0.00019244   -0.00145952   -0.00050077
     atom   16 type  2   force =    -0.00010694    0.00157913   -0.00008998
     atom   17 type  2   force =    -0.00007133   -0.00004320    0.00030125
     atom   18 type  2   force =     0.00008929    0.00060765    0.00041655
     atom   19 type  1   force =    -0.01649900    0.00013266    0.00404987
     atom   20 type  1   force =    -0.01695083   -0.00138078    0.00405044
     atom   21 type  1   force =     0.01272965    0.00185600    0.00029383
     atom   22 type  1   force =     0.01237987    0.00142628    0.00046480
     atom   23 type  1   force =     0.00020337   -0.00009595   -0.00060216
     atom   24 type  1   force =     0.00017441   -0.00040618   -0.00047894
     atom   25 type  1   force =     0.00035433   -0.00003580   -0.00000685
     atom   26 type  1   force =     0.00007042   -0.00045120   -0.00067162
     atom   27 type  2   force =    -0.00001674   -0.00060715   -0.00026075
     atom   28 type  2   force =     0.00016239    0.00005924   -0.00031831
     atom   29 type  2   force =    -0.00012157   -0.00110361    0.00030615
     atom   30 type  2   force =     0.00036652    0.00034993    0.00019143
     atom   31 type  1   force =     0.00014872    0.00005729   -0.00007073
     atom   32 type  1   force =    -0.00009288   -0.00034971    0.00039159
     atom   33 type  1   force =     0.00023367   -0.00017112   -0.00013477
     atom   34 type  1   force =     0.00050144   -0.00037830    0.00024559
     atom   35 type  1   force =    -0.00011087    0.00013780    0.00176682
     atom   36 type  1   force =     0.00034734    0.00014699    0.00034075
     atom   37 type  1   force =     0.00015021   -0.00000254   -0.00006328
     atom   38 type  1   force =     0.00043908   -0.00038333    0.00014156
     atom   39 type  2   force =     0.00039076    0.00135682   -0.00079968
     atom   40 type  2   force =     0.00041981   -0.00031464    0.00006798
     atom   41 type  2   force =     0.00008122   -0.00075025    0.00040308
     atom   42 type  2   force =     0.00023372    0.00049897   -0.00003827
     atom   43 type  1   force =     0.00097137    0.00013015   -0.00004082
     atom   44 type  1   force =     0.00062521   -0.00012159    0.00006301
     atom   45 type  1   force =     0.00011532    0.00000482    0.00006056
     atom   46 type  1   force =     0.00041186   -0.00027892    0.00021331
     atom   47 type  1   force =     0.00051296    0.00042209   -0.00038923
     atom   48 type  1   force =     0.00010775   -0.00025517    0.00008935
     atom   49 type  3   force =     0.00015287   -0.00047094    0.00001193
     atom   50 type  4   force =    -0.00121441    0.00786175   -0.00416414
     atom   51 type  3   force =     0.00119170   -0.00897714    0.00501668
     atom   52 type  3   force =     0.00021544    0.00081023   -0.00073183

     Total force =     0.368647     Total SCF correction =     0.000513
  @ DRIVER MODE: Message from server: STATUS
  @ DRIVER MODE: Message from server: GETFORCE
  @ DRIVER MODE: Returning v,forces,stress,ensemble

     Writing output data file ./calc.save/
  @ DRIVER MODE: Message from server: EXIT
  @ DRIVE MODE: Exiting

     General routines

     Parallel routines

   This run was terminated on:   1:21:35  11Sep2021

   JOB DONE.