     Program PWSCF v.6.7GPU starts on 26Sep2021 at 23:22: 2

     R & G space division:  proc/nbgrp/npool/nimage =       8
     Reading input from /storage/home/hcoda1/3/ntian30/research/carbon/CxH_vib/CH_calc/ads_slab/CHONHNH2_b/out_0028/pw.inp
Warning: card &CELL ignored
Warning: card   CELL_DYNAMICS='IPI', ignored
Warning: card / ignored

     Current dimensions of program PWSCF are:
     Max number of different atomic species (ntypx) = 10
     Max number of k-points (npk) =  40000
     Max angular momentum in pseudopotentials (lmaxx) =  3
     Presently no symmetry can be used with electric field

     Message from routine cell_base_init:
     DEPRECATED: use true lattice parameter, not A to a.u. conversion factor

     IMPORTANT: XC functional enforced from input :
     Exchange-correlation= BEEF-VDW
                           (   1   4  43  14   2   0   0)
     Any further DFT definition will be discarded
     Please, verify this is what you really want

  @ DRIVER MODE: Connecting to
 qe_1139763_2982672.sched-torque.pace.gatech.edu47oc826l_scratch
  using UNIX socket
  @ DRIVER MODE: Message from server: STATUS
  @ DRIVER MODE: Message from server: INIT
  @ DRIVER MODE: Receiving replica           0          -1
  @ DRIVER MODE: Receiving encoded integer          25
  @ DRIVER MODE:  SCF:  T  FORCE:  T  STRESS:  F  VC:  F  ENSEMBLE:  F
  @ DRIVER MODE:  SCF:  T  FORCE:  T  STRESS:  F  VC:  F  ENSEMBLE:  F

     Using Slab Decomposition

     bravais-lattice index     =            0
     lattice parameter (alat)  =       1.8897  a.u.
     unit-cell volume          =    6658.9804 (a.u.)^3
     number of atoms/cell      =           55
     number of atomic types    =            5
     number of electrons       =       402.00
     number of Kohn-Sham states=          211
     kinetic-energy cutoff     =      29.3995  Ry
     charge density cutoff     =     293.9946  Ry
     scf convergence threshold =      7.3E-08
     mixing beta               =       0.0500
     number of iterations used =            8  plain     mixing
     Exchange-correlation= BEEF-VDW
                           (   1   4  43  14   2   0   0)

     celldm(1)=   1.889726  celldm(2)=   0.000000  celldm(3)=   0.000000
     celldm(4)=   0.000000  celldm(5)=   0.000000  celldm(6)=   0.000000

     crystal axes: (cart. coord. in units of alat)
               a(1) = (   6.579727   0.000000   0.000000 )
               a(2) = (  -0.000775   5.961596   0.000000 )
               a(3) = (   0.000000   0.000000  25.155947 )

     reciprocal axes: (cart. coord. in units 2 pi/alat)
               b(1) = (  0.151982  0.000020  0.000000 )
               b(2) = (  0.000000  0.167740  0.000000 )
               b(3) = (  0.000000  0.000000  0.039752 )

     PseudoPot. # 1 for O  read from file:
     /storage/coda1/p-amedford6/0/shared/rich_project_chbe-medford/medford-share/data/pseudos_module/espresso/nninc/pbe/van/O.UPF
     MD5 check sum: 78c19812648e8988a0fe644b0f25305e
     Pseudo is Ultrasoft, Zval =  6.0
     Generated by new atomic code, or converted to UPF format
     Using radial grid of  737 points,  4 beta functions with:
                l(1) =   0
                l(2) =   0
                l(3) =   1
                l(4) =   1
     Q(r) pseudized with  8 coefficients,  rinner =    0.800   0.800   0.800

     PseudoPot. # 2 for Ti read from file:
     /storage/coda1/p-amedford6/0/shared/rich_project_chbe-medford/medford-share/data/pseudos_module/espresso/nninc/pbe/van/Ti.UPF
     MD5 check sum: 8e4df49b7f0d34bbd5052bf3f5ea0213
     Pseudo is Ultrasoft, Zval = 12.0
     Generated by new atomic code, or converted to UPF format
     Using radial grid of  851 points,  6 beta functions with:
                l(1) =   0
                l(2) =   0
                l(3) =   1
                l(4) =   1
                l(5) =   2
                l(6) =   2
     Q(r) pseudized with  8 coefficients,  rinner =    1.000   1.000   1.000
                                                       1.000   1.000

     PseudoPot. # 3 for N  read from file:
     /storage/coda1/p-amedford6/0/shared/rich_project_chbe-medford/medford-share/data/pseudos_module/espresso/nninc/pbe/van/N.UPF
     MD5 check sum: 90d10febe142ad51ac9d5be1deb811c4
     Pseudo is Ultrasoft, Zval =  5.0
     Generated by new atomic code, or converted to UPF format
     Using radial grid of  729 points,  4 beta functions with:
                l(1) =   0
                l(2) =   0
                l(3) =   1
                l(4) =   1
     Q(r) pseudized with  8 coefficients,  rinner =    0.800   0.800   0.800

     PseudoPot. # 4 for H  read from file:
     /storage/coda1/p-amedford6/0/shared/rich_project_chbe-medford/medford-share/data/pseudos_module/espresso/nninc/pbe/van/H.UPF
     MD5 check sum: b5ee9d7bfd3a09ee7748110bda690ff7
     Pseudo is Ultrasoft, Zval =  1.0
     Generated by new atomic code, or converted to UPF format
     Using radial grid of  615 points,  1 beta functions with:
                l(1) =   0
     Q(r) pseudized with  8 coefficients,  rinner =    0.800

     PseudoPot. # 5 for C  read from file:
     /storage/coda1/p-amedford6/0/shared/rich_project_chbe-medford/medford-share/data/pseudos_module/espresso/nninc/pbe/van/C.UPF
     MD5 check sum: 1a69bf6b8db32088f5b2163dbdb77a27
     Pseudo is Ultrasoft, Zval =  4.0
     Generated by new atomic code, or converted to UPF format
     Using radial grid of  721 points,  4 beta functions with:
                l(1) =   0
                l(2) =   0
                l(3) =   1
                l(4) =   1
     Q(r) pseudized with  8 coefficients,  rinner =    0.800   0.800   0.800

     atomic species   valence    mass     pseudopotential
        O1             6.00    15.99900     O ( 1.00)
        Ti1           12.00    47.86700     Ti( 1.00)
        N1             5.00    14.00700     N ( 1.00)
        H1             1.00     1.00800     H ( 1.00)
        C1             4.00    12.01100     C ( 1.00)

     No symmetry found

   Cartesian axes

     site n.     atom                  positions (alat units)
         1           O1  tau(   1) = (   3.2904802   0.0005063   4.7018136  )
         2           O1  tau(   2) = (   3.2900926   2.9813045   4.7018136  )
         3           Ti1 tau(   3) = (   0.0004258   2.9801865   6.0000000  )
         4           Ti1 tau(   4) = (   0.0000382   5.9609847   6.0000000  )
         5           Ti1 tau(   5) = (   3.2906075   1.4906267   6.0002472  )
         6           Ti1 tau(   6) = (   3.2902200   4.4714249   6.0002472  )
         7           O1  tau(   7) = (   1.3043587   1.4918075   6.0039043  )
         8           O1  tau(   8) = (   1.3039711   4.4726057   6.0039043  )
         9           O1  tau(   9) = (   5.2767064   1.4903225   6.0039473  )
        10           O1  tau(  10) = (   5.2763189   4.4711207   6.0039473  )
        11           O1  tau(  11) = (   3.2906025   0.0005020   7.3038282  )
        12           O1  tau(  12) = (   3.2902150   2.9813002   7.3038282  )
        13           O1  tau(  13) = (   0.0006271   0.0005054   7.9858123  )
        14           O1  tau(  14) = (   0.0002396   2.9813036   7.9858123  )
        15           Ti1 tau(  15) = (   3.2907910   2.8959150   9.1758416  )
        16           Ti1 tau(  16) = (   3.2891106   5.8743827   9.1763621  )
        17           Ti1 tau(  17) = (   0.0015273   1.4827037   9.2680791  )
        18           Ti1 tau(  18) = (   0.0006254   4.4649316   9.2693709  )
        19           O1  tau(  19) = (   4.5942328   1.4918067   9.2879030  )
        20           O1  tau(  20) = (   4.5938453   4.4726049   9.2879030  )
        21           O1  tau(  21) = (   1.9868534   1.4903216   9.2879459  )
        22           O1  tau(  22) = (   1.9864658   4.4711199   9.2879459  )
        23           O1  tau(  23) = (   0.0116148   5.9584955  10.6183126  )
        24           O1  tau(  24) = (   0.0092240   2.9805883  10.6323155  )
        25           O1  tau(  25) = (   3.2729272   2.9749101  11.3358637  )
        26           O1  tau(  26) = (   3.2774458   5.9577983  11.3358029  )
        27           Ti1 tau(  27) = (   6.5123228   0.0223980  12.5466522  )
        28           Ti1 tau(  28) = (   6.5139447   2.9993280  12.6164542  )
        29           Ti1 tau(  29) = (   3.1950650   4.4673527  12.4897579  )
        30           Ti1 tau(  30) = (   3.1950454   1.4921031  12.4944583  )
        31           O1  tau(  31) = (   5.2839716   4.4726476  12.6140382  )
        32           O1  tau(  32) = (   1.2968206   4.4781603  12.6268461  )
        33           O1  tau(  33) = (   5.2856119   1.4917077  12.6233973  )
        34           O1  tau(  34) = (   1.2888650   1.4770595  12.6372879  )
        35           O1  tau(  35) = (   3.2788258   2.9629383  13.9230881  )
        36           O1  tau(  36) = (   3.2980453   5.9500611  13.9147740  )
        37           O1  tau(  37) = (   6.5334376   5.9389224  14.6738689  )
        38           O1  tau(  38) = (   6.5776160   3.0156023  14.6540868  )
        39           Ti1 tau(  39) = (   3.2542760   2.9504115  15.7371360  )
        40           Ti1 tau(  40) = (   3.3062714   5.9309079  15.7116640  )
        41           Ti1 tau(  41) = (   6.5650095   1.2976281  16.1142359  )
        42           Ti1 tau(  42) = (   0.0079766   4.4268374  15.8391656  )
        43           O1  tau(  43) = (   2.0280489   1.4492115  16.0660627  )
        44           O1  tau(  44) = (   4.5116609   1.4624326  16.0993158  )
        45           O1  tau(  45) = (   2.0244938   4.4513709  16.0356871  )
        46           O1  tau(  46) = (   4.5113612   4.4342832  16.0730653  )
        47           O1  tau(  47) = (   6.5716746   5.9215154  17.2308814  )
        48           N1  tau(  48) = (   5.9800345   2.9984367  18.5879729  )
        49           H1  tau(  49) = (   4.9797160   2.8240766  18.4383897  )
        50           H1  tau(  50) = (   1.6245422   1.3425840  19.0439533  )
        51           H1  tau(  51) = (   6.0578502   3.9810051  18.8619266  )
        52           N1  tau(  52) = (   2.1403542   1.9813023  19.6616680  )
        53           C1  tau(  53) = (   2.8938676   2.8537551  19.2737185  )
        54           H1  tau(  54) = (   3.3792091   3.5764479  19.9483559  )
        55           O1  tau(  55) = (   6.5521836   2.9666373  17.2729174  )

     number of k points=    10  Fermi-Dirac smearing, width (Ry)=  0.0073
                       cart. coord. in units 2pi/alat
        k(    1) = (   0.0000000   0.0000000   0.0000000), wk =   0.1250000
        k(    2) = (   0.0000000   0.0419351   0.0000000), wk =   0.2500000
        k(    3) = (   0.0000000  -0.0838702   0.0000000), wk =   0.1250000
        k(    4) = (   0.0379955   0.0000049   0.0000000), wk =   0.2500000
        k(    5) = (   0.0379955   0.0419400   0.0000000), wk =   0.2500000
        k(    6) = (   0.0379955  -0.0838652   0.0000000), wk =   0.2500000
        k(    7) = (   0.0379955  -0.0419301   0.0000000), wk =   0.2500000
        k(    8) = (  -0.0759910  -0.0000099   0.0000000), wk =   0.1250000
        k(    9) = (  -0.0759910   0.0419252   0.0000000), wk =   0.2500000
        k(   10) = (  -0.0759910  -0.0838800   0.0000000), wk =   0.1250000

     Initial potential from superposition of free atoms

     starting charge  385.99915, renormalised to  402.00000

     negative rho (up, down):  1.542E-02 0.000E+00

     %%%%%%%%%%%%%%%%%%%%%%%%%%%%%%%%%%%%%%%%%%%%%%%%%%%%%%%%%%%%%%%%%%%%%%%%
     %                                                                      %
     % You are using vdW-DF, which was implemented by the Thonhauser group. %
     % Please cite the following two papers that made this development      %
     % possible and the two reviews that describe the various versions:     %
     %                                                                      %
     %   T. Thonhauser et al., PRL 115, 136402 (2015).                      %
     %   T. Thonhauser et al., PRB 76, 125112 (2007).                       %
     %   K. Berland et al., Rep. Prog. Phys. 78, 066501 (2015).             %
     %   D.C. Langreth et al., J. Phys.: Condens. Matter 21, 084203 (2009). %
     %                                                                      %
     %                                                                      %
     % If you are calculating the stress with vdW-DF, please also cite:     %
     %                                                                      %
     %   R. Sabatini et al., J. Phys.: Condens. Matter 24, 424209 (2012).   %
     %                                                                      %
     %%%%%%%%%%%%%%%%%%%%%%%%%%%%%%%%%%%%%%%%%%%%%%%%%%%%%%%%%%%%%%%%%%%%%%%%

     Adding external electric field

     Computed dipole along edir(3) :
        Dipole              -12.8629 Ry au,        -32.6941 Debye
        Dipole field         -0.0243 Ry au,

        Potential amp.        2.2502 Ry
        Total length         46.3494 bohr

     Starting wfcs are  304 atomic wfcs
  @ DRIVER MODE: Message from server: STATUS
  @ DRIVER MODE: Message from server: POSDATA
  @ DRIVER MODE: Reading and sharing cell
  @ DRIVER MODE: Reading and sharing positions
  @ DRIVER MODE: Received positions

     Self-consistent Calculation

     iteration #  1     ecut=    29.40 Ry     beta= 0.05
     Davidson diagonalization with overlap
     c_bands:  5 eigenvalues not converged
     c_bands:  2 eigenvalues not converged
     c_bands:  2 eigenvalues not converged
     c_bands:  5 eigenvalues not converged
     c_bands:  3 eigenvalues not converged
     c_bands:  3 eigenvalues not converged
     c_bands:  2 eigenvalues not converged
     c_bands:  3 eigenvalues not converged
     c_bands:  1 eigenvalues not converged
     ethr =  1.00E-05,  avg # of iterations = 21.5

[...]

     total energy              =   -2369.71375077 Ry
     estimated scf accuracy    <    6837.24061801 Ry

     iteration #  2     ecut=    29.40 Ry     beta= 0.05
     Davidson diagonalization with overlap
     ethr =  1.00E-02,  avg # of iterations = 23.3

[...]

     iteration # 69     ecut=    29.40 Ry     beta= 0.05
     Davidson diagonalization with overlap
     c_bands:  1 eigenvalues not converged
     ethr =  4.42E-07,  avg # of iterations =  5.8

[...]

     total energy              =   -2972.58402791 Ry
     estimated scf accuracy    <       0.00000012 Ry

     iteration # 88     ecut=    29.40 Ry     beta= 0.05
     Davidson diagonalization with overlap
     ethr =  2.90E-11,  avg # of iterations =  5.6

     negative rho (up, down):  1.521E-02 0.000E+00

     Adding external electric field

     Computed dipole along edir(3) :
        Dipole                0.4910 Ry au,          1.2479 Debye
        Dipole field          0.0009 Ry au,

        Potential amp.       -0.0859 Ry
        Total length         46.3494 bohr

     End of self-consistent calculation

          k = 0.0000 0.0000 0.0000 ( 18029 PWs)   bands (ev):

   -55.8830 -55.8634 -55.8489 -55.8254 -55.7444 -55.7260 -55.7092 -55.6945
   -55.6844 -55.6605 -55.6591 -55.6252 -55.5164 -55.3044 -54.8618 -54.8278
   -32.4088 -32.3657 -32.2428 -32.1935 -32.1860 -32.1758 -32.1603 -32.1494
   -32.1264 -32.0940 -32.0501 -32.0384 -32.0352 -32.0348 -32.0174 -31.9966
   -31.9926 -31.9876 -31.9766 -31.9662 -31.9536 -31.9422 -31.9401 -31.8985
   -31.8912 -31.8859 -31.8839 -31.8746 -31.8658 -31.8593 -31.8556 -31.8350
   -31.8255 -31.8123 -31.8013 -31.7936 -31.7712 -31.7535 -31.7219 -31.5741
   -31.5360 -31.5184 -31.2689 -31.1805 -31.1581 -31.0857 -30.9992 -30.8881
   -18.6561 -16.6051 -16.3542 -16.1141 -16.0319 -15.9966 -15.9573 -15.8450
   -15.7220 -15.6108 -15.5170 -15.4414 -15.4218 -15.4199 -15.3807 -15.3719
   -15.3464 -15.3279 -15.3197 -15.3022 -15.2803 -15.2412 -15.2270 -15.2196
   -15.1295 -15.0519 -15.0176 -14.9738 -14.9658 -14.9408 -14.5580 -13.3644
   -13.2479 -12.2309  -8.1366  -5.3160  -4.9576  -4.5255  -3.9790  -3.8400
    -3.7891  -3.7218  -3.6820  -3.5025  -3.3933  -3.1379  -3.0641  -3.0438
    -3.0210  -2.9742  -2.8732  -2.7924  -2.6952  -2.6901  -2.6899  -2.6543
    -2.6445  -2.6270  -2.5878  -2.5652  -2.5008  -2.4264  -2.3927  -2.2836
    -2.2748  -2.2422  -2.1958  -2.1881  -2.1461  -2.1215  -2.1077  -2.1048
    -2.0900  -2.0501  -2.0487  -1.9098  -1.8714  -1.7946  -1.6768  -1.6026
    -1.4932  -1.4919  -1.3877  -1.3501  -1.3414  -1.3107  -1.2757  -1.2321
    -1.1716  -1.0706  -1.0414  -1.0130  -1.0074  -0.9042  -0.8452  -0.8209
    -0.7559  -0.6829  -0.6565  -0.6428  -0.6329  -0.6024  -0.3854  -0.3424
    -0.3233  -0.2897  -0.2444  -0.1906  -0.1515  -0.1049  -0.0660   0.0015
     0.0100   0.0620   0.0871   0.0989   0.1152   0.1261   0.1416   0.2374
     0.3297   0.3675   0.3893   0.4650   0.4693   0.6430   0.7065   0.7727
     0.8823   1.0863   1.1602   1.2441   1.3523   1.7312   1.7592   1.7771
     3.2460   3.2482   3.3387   3.3809   3.3893   3.4900   3.5393   3.7024
     3.7353   3.7669   3.8061

[...]

          k = 0.0380-0.0419 0.0000 ( 17876 PWs)   bands (ev):

[...]

          k =-0.0760-0.0000 0.0000 ( 17886 PWs)   bands (ev):

[...]

          k =-0.0760-0.0839 0.0000 ( 17948 PWs)   bands (ev):

   -55.8663 -55.8654 -55.8506 -55.8379 -55.7305 -55.7230 -55.7167 -55.6934
   -55.6785 -55.6761 -55.6448 -55.6398 -55.5151 -55.3056 -54.8448 -54.8447
   -32.2191 -32.2060 -32.1813 -32.1807 -32.1615 -32.1607 -32.1128 -32.1045
   -32.0867 -32.0776 -32.0406 -32.0316 -32.0103 -32.0024 -31.9998 -31.9979
   -31.9909 -31.9860 -31.9849 -31.9827 -31.9795 -31.9778 -31.9417 -31.9396
   -31.9341 -31.9188 -31.9116 -31.9021 -31.8788 -31.8778 -31.8774 -31.8751
   -31.8693 -31.8591 -31.8558 -31.8539 -31.8484 -31.7512 -31.7252 -31.6448
   -31.5655 -31.5257 -31.1709 -31.1708 -31.0817 -31.0816 -31.0425 -31.0424
   -18.6409 -16.0243 -16.0028 -15.9589 -15.8388 -15.8022 -15.7633 -15.7518
   -15.6760 -15.5950 -15.5738 -15.5691 -15.4898 -15.4714 -15.4576 -15.4202
   -15.4081 -15.3979 -15.3917 -15.3553 -15.3405 -15.3313 -15.3229 -15.3153
   -15.2390 -15.2023 -15.1974 -15.1853 -15.0731 -14.9487 -14.7353 -13.3498
   -13.3496 -12.2435  -8.1365  -5.3124  -4.9644  -4.4490  -3.3107  -3.2780
    -3.0971  -3.0131  -2.9976  -2.9796  -2.8727  -2.7938  -2.7871  -2.7525
    -2.7202  -2.7133  -2.7030  -2.7002  -2.6763  -2.6655  -2.6172  -2.5950
    -2.5824  -2.5550  -2.5442  -2.5401  -2.5093  -2.4959  -2.4589  -2.4380
    -2.4197  -2.4074  -2.3866  -2.3204  -2.2082  -2.1189  -2.0857  -2.0257
    -2.0154  -1.9852  -1.9517  -1.9371  -1.9205  -1.9033  -1.8649  -1.7405
    -1.6308  -1.5751  -1.5721  -1.5276  -1.4701  -1.4304  -1.3720  -1.3188
    -1.2862  -1.2731  -1.2244  -1.1642  -1.1441  -1.0686  -1.0261  -0.9963
    -0.9556  -0.9307  -0.8588  -0.8436  -0.8411  -0.8099  -0.7212  -0.7017
    -0.6457  -0.6390  -0.6119  -0.5561  -0.5380  -0.5068  -0.3833  -0.3601
    -0.2362  -0.1696  -0.0830   0.0672   0.0909   0.1865   0.2244   0.2512
     0.3097   0.4117   0.4302   0.4416   0.4597   0.4915   0.5194   0.6465
     0.6604   0.6945   0.8148   1.5239   1.5244   1.5961   1.5970   1.6067
     3.2323   3.5770   3.5834   3.6037   3.6311   3.7644   3.7664   3.7847
     3.7860   3.9238   3.9413

     the Fermi energy is     3.2494 ev

!    total energy              =   -2972.58403107 Ry
     estimated scf accuracy    <       0.00000007 Ry
     smearing contrib. (-TS)   =      -0.03086021 Ry
     internal energy E=F+TS    =   -2972.55317086 Ry

     The total energy is F=E-TS. E is the sum of the following terms:
     one-electron contribution =  -23745.26813682 Ry
     hartree contribution      =   11964.00286166 Ry
     xc contribution           =    -493.07900357 Ry
     ewald contribution        =    9301.79065299 Ry
     electric field correction =       0.00045488 Ry

     convergence has been achieved in  88 iterations

     Forces acting on atoms (cartesian axes, Ry/au):

     atom    1 type  1   force =     0.00004318   -0.00002449    0.10323794
     atom    2 type  1   force =     0.00004644   -0.00004585    0.10327494
     atom    3 type  2   force =     0.00007302   -0.00022230    0.09623851
     atom    4 type  2   force =    -0.00001600   -0.00028956    0.09602466
     atom    5 type  2   force =     0.00003126   -0.00063403   -0.17555419
     atom    6 type  2   force =    -0.00002072   -0.00024412   -0.17551485
     atom    7 type  1   force =    -0.07151152   -0.00013829   -0.02766834
     atom    8 type  1   force =    -0.07149690   -0.00012800   -0.02764276
     atom    9 type  1   force =     0.07135585    0.00028708   -0.02773466
     atom   10 type  1   force =     0.07134440    0.00031183   -0.02770023
     atom   11 type  1   force =    -0.00005668   -0.00144766    0.05286289
     atom   12 type  1   force =    -0.00002689   -0.00126139    0.05321242
     atom   13 type  1   force =     0.00000622   -0.00000309   -0.02441174
     atom   14 type  1   force =     0.00009996   -0.00023085   -0.02344027
     atom   15 type  2   force =     0.00002489    0.00048313   -0.01065521
     atom   16 type  2   force =     0.00014427    0.00348687   -0.00998904
     atom   17 type  2   force =     0.00069480    0.01061779    0.02593810
     atom   18 type  2   force =     0.00083784   -0.01140240    0.02624764
     atom   19 type  1   force =    -0.01196249   -0.00051702    0.00383776
     atom   20 type  1   force =    -0.01230634   -0.00009350    0.00375015
     atom   21 type  1   force =     0.01292218   -0.00008810    0.00218121
     atom   22 type  1   force =     0.01316937    0.00047647    0.00213683
     atom   23 type  1   force =    -0.00431866    0.00133356   -0.01315982
     atom   24 type  1   force =    -0.00237076    0.00054827   -0.02174697
     atom   25 type  1   force =     0.00023666   -0.00090170    0.00018964
     atom   26 type  1   force =     0.00001550    0.00043477    0.00083693
     atom   27 type  2   force =    -0.00040323    0.00041836   -0.00020986
     atom   28 type  2   force =    -0.00065807   -0.00051990   -0.00019552
     atom   29 type  2   force =     0.00099566    0.00002760   -0.00027796
     atom   30 type  2   force =     0.00037327   -0.00072764   -0.00028014
     atom   31 type  1   force =     0.00082841    0.00011855    0.00028011
     atom   32 type  1   force =    -0.00045087   -0.00001914    0.00016553
     atom   33 type  1   force =     0.00039900   -0.00036716    0.00002027
     atom   34 type  1   force =     0.00126431   -0.00021355    0.00003286
     atom   35 type  1   force =     0.00030292   -0.00030330    0.00028911
     atom   36 type  1   force =     0.00026740    0.00025780   -0.00026247
     atom   37 type  1   force =     0.00020341   -0.00009131   -0.00046979
     atom   38 type  1   force =     0.00020201    0.00017712    0.00002154
     atom   39 type  2   force =    -0.00074793    0.00028132   -0.00072052
     atom   40 type  2   force =    -0.00069314    0.00000214    0.00021859
     atom   41 type  2   force =     0.00019973   -0.00023728   -0.00067481
     atom   42 type  2   force =     0.00072000   -0.00009995   -0.00004734
     atom   43 type  1   force =     0.00026754    0.00026577   -0.00018485
     atom   44 type  1   force =     0.00029855   -0.00002594   -0.00002529
     atom   45 type  1   force =     0.00033729    0.00020287    0.00014279
     atom   46 type  1   force =     0.00012686    0.00047137    0.00024436
     atom   47 type  1   force =     0.00011655   -0.00005088    0.00006724
     atom   48 type  3   force =    -0.00079782   -0.00002485   -0.00097231
     atom   49 type  4   force =     0.00093954    0.00054814    0.00016107
     atom   50 type  4   force =     0.00412872    0.00542468    0.00530723
     atom   51 type  4   force =    -0.00031470    0.00071304   -0.00022853
     atom   52 type  3   force =    -0.01911136   -0.02360695   -0.00006897
     atom   53 type  5   force =     0.01447707    0.01730638   -0.00481343
     atom   54 type  4   force =    -0.00017952   -0.00001935   -0.00174103
     atom   55 type  1   force =    -0.00005045   -0.00021540   -0.00052941

     Total force =     0.369332     Total SCF correction =     0.000682
  @ DRIVER MODE: Message from server: STATUS
  @ DRIVER MODE: Message from server: GETFORCE
  @ DRIVER MODE: Returning v,forces,stress,ensemble

     Writing output data file ./calc.save/
  @ DRIVER MODE: Message from server: EXIT
  @ DRIVE MODE: Exiting

     General routines

     Parallel routines

   This run was terminated on:  23:49:52  26Sep2021

   JOB DONE.