     Program PWSCF v.6.7GPU starts on 28Sep2021 at 18:57:33

     R & G space division:  proc/nbgrp/npool/nimage =       8
     Reading input from /storage/home/hcoda1/3/ntian30/research/carbon/CxH_vib/H2O_calc/ads_slab/CHNHNH2HO_b/out_0020/pw.inp
Warning: card &CELL ignored
Warning: card   CELL_DYNAMICS='IPI', ignored
Warning: card / ignored

     Current dimensions of program PWSCF are:
     Max number of different atomic species (ntypx) = 10
     Max number of k-points (npk) =  40000
     Max angular momentum in pseudopotentials (lmaxx) =  3
     Presently no symmetry can be used with electric field

     Message from routine cell_base_init:
     DEPRECATED: use true lattice parameter, not A to a.u. conversion factor

     IMPORTANT: XC functional enforced from input :
     Exchange-correlation= BEEF-VDW
                           (   1   4  43  14   2   0   0)
     Any further DFT definition will be discarded
     Please, verify this is what you really want

  @ DRIVER MODE: Connecting to
 qe_1139763_3009830.sched-torque.pace.gatech.edu4pet1qv9_scratch
  using UNIX socket
  @ DRIVER MODE: Message from server: STATUS
  @ DRIVER MODE: Message from server: INIT
  @ DRIVER MODE: Receiving replica           0          -1
  @ DRIVER MODE: Receiving encoded integer          25
  @ DRIVER MODE:  SCF:  T  FORCE:  T  STRESS:  F  VC:  F  ENSEMBLE:  F
  @ DRIVER MODE:  SCF:  T  FORCE:  T  STRESS:  F  VC:  F  ENSEMBLE:  F

     Using Slab Decomposition

     bravais-lattice index     =            0
     lattice parameter (alat)  =       1.8897  a.u.
     unit-cell volume          =    6658.9804 (a.u.)^3
     number of atoms/cell      =           56
     number of atomic types    =            5
     number of electrons       =       403.00
     number of Kohn-Sham states=          211
     kinetic-energy cutoff     =      29.3995  Ry
     charge density cutoff     =     293.9946  Ry
     scf convergence threshold =      7.3E-08
     mixing beta               =       0.0500
     number of iterations used =            8  plain     mixing
     Exchange-correlation= BEEF-VDW
                           (   1   4  43  14   2   0   0)

     celldm(1)=   1.889726  celldm(2)=   0.000000  celldm(3)=   0.000000
     celldm(4)=   0.000000  celldm(5)=   0.000000  celldm(6)=   0.000000

     crystal axes: (cart. coord. in units of alat)
               a(1) = (   6.579727   0.000000   0.000000 )
               a(2) = (  -0.000775   5.961596   0.000000 )
               a(3) = (   0.000000   0.000000  25.155947 )

     reciprocal axes: (cart. coord. in units 2 pi/alat)
               b(1) = (  0.151982  0.000020  0.000000 )
               b(2) = (  0.000000  0.167740  0.000000 )
               b(3) = (  0.000000  0.000000  0.039752 )

     PseudoPot. # 1 for Ti read from file:
     /storage/coda1/p-amedford6/0/shared/rich_project_chbe-medford/medford-share/data/pseudos_module/espresso/nninc/pbe/van/Ti.UPF
     MD5 check sum: 8e4df49b7f0d34bbd5052bf3f5ea0213
     Pseudo is Ultrasoft, Zval = 12.0
     Generated by new atomic code, or converted to UPF format
     Using radial grid of  851 points,  6 beta functions with:
                l(1) =   0
                l(2) =   0
                l(3) =   1
                l(4) =   1
                l(5) =   2
                l(6) =   2
     Q(r) pseudized with  8 coefficients,  rinner =    1.000   1.000   1.000
                                                       1.000   1.000

     PseudoPot. # 2 for O  read from file:
     /storage/coda1/p-amedford6/0/shared/rich_project_chbe-medford/medford-share/data/pseudos_module/espresso/nninc/pbe/van/O.UPF
     MD5 check sum: 78c19812648e8988a0fe644b0f25305e
     Pseudo is Ultrasoft, Zval =  6.0
     Generated by new atomic code, or converted to UPF format
     Using radial grid of  737 points,  4 beta functions with:
                l(1) =   0
                l(2) =   0
                l(3) =   1
                l(4) =   1
     Q(r) pseudized with  8 coefficients,  rinner =    0.800   0.800   0.800

     PseudoPot. # 3 for N  read from file:
     /storage/coda1/p-amedford6/0/shared/rich_project_chbe-medford/medford-share/data/pseudos_module/espresso/nninc/pbe/van/N.UPF
     MD5 check sum: 90d10febe142ad51ac9d5be1deb811c4
     Pseudo is Ultrasoft, Zval =  5.0
     Generated by new atomic code, or converted to UPF format
     Using radial grid of  729 points,  4 beta functions with:
                l(1) =   0
                l(2) =   0
                l(3) =   1
                l(4) =   1
     Q(r) pseudized with  8 coefficients,  rinner =    0.800   0.800   0.800

     PseudoPot. # 4 for C  read from file:
     /storage/coda1/p-amedford6/0/shared/rich_project_chbe-medford/medford-share/data/pseudos_module/espresso/nninc/pbe/van/C.UPF
     MD5 check sum: 1a69bf6b8db32088f5b2163dbdb77a27
     Pseudo is Ultrasoft, Zval =  4.0
     Generated by new atomic code, or converted to UPF format
     Using radial grid of  721 points,  4 beta functions with:
                l(1) =   0
                l(2) =   0
                l(3) =   1
                l(4) =   1
     Q(r) pseudized with  8 coefficients,  rinner =    0.800   0.800   0.800

     PseudoPot. # 5 for H  read from file:
     /storage/coda1/p-amedford6/0/shared/rich_project_chbe-medford/medford-share/data/pseudos_module/espresso/nninc/pbe/van/H.UPF
     MD5 check sum: b5ee9d7bfd3a09ee7748110bda690ff7
     Pseudo is Ultrasoft, Zval =  1.0
     Generated by new atomic code, or converted to UPF format
     Using radial grid of  615 points,  1 beta functions with:
                l(1) =   0
     Q(r) pseudized with  8 coefficients,  rinner =    0.800

     atomic species   valence    mass     pseudopotential
        Ti1           12.00    47.86700     Ti( 1.00)
        O1             6.00    15.99900     O ( 1.00)
        N1             5.00    14.00700     N ( 1.00)
        C1             4.00    12.01100     C ( 1.00)
        H1             1.00     1.00800     H ( 1.00)

     No symmetry found

   Cartesian axes

     site n.     atom                  positions (alat units)
         1           Ti1 tau(   1) = (   0.0004258   2.9801865   6.0000000  )
         2           Ti1 tau(   2) = (   3.2906075   1.4906267   6.0002472  )
         3           O1  tau(   3) = (   0.0006271   0.0005054   7.9858123  )
         4           O1  tau(   4) = (   3.2906025   0.0005020   7.3038282  )
         5           O1  tau(   5) = (   4.5942328   1.4918067   9.2879030  )
         6           O1  tau(   6) = (   1.9868534   1.4903216   9.2879459  )
         7           Ti1 tau(   7) = (   3.2907910   2.8959150   9.1758416  )
         8           Ti1 tau(   8) = (   0.0015273   1.4827037   9.2680791  )
         9           O1  tau(   9) = (   3.2982983   0.0405180  11.3424948  )
        10           O1  tau(  10) = (   0.0116148   5.9584955  10.6183126  )
        11           O1  tau(  11) = (   1.2753745   1.5072422  12.7016807  )
        12           O1  tau(  12) = (   5.3195175   1.5181342  12.6954276  )
        13           Ti1 tau(  13) = (   0.0019584   2.9687762  12.4995492  )
        14           Ti1 tau(  14) = (   3.3051642   1.5697923  12.4614731  )
        15           O1  tau(  15) = (   6.5474216   5.8614089  14.6874354  )
        16           O1  tau(  16) = (   3.3077571   5.9224049  13.9445013  )
        17           O1  tau(  17) = (   4.5645563   1.5748115  16.1270233  )
        18           O1  tau(  18) = (   2.0342606   1.5395256  16.0843959  )
        19           Ti1 tau(  19) = (   3.2752269   2.9899004  15.7194909  )
        20           Ti1 tau(  20) = (   6.5310352   1.3332667  15.7916221  )
        21           O1  tau(  21) = (   3.2904802   0.0005063   4.7018136  )
        22           O1  tau(  22) = (   0.0193913   0.2006272  17.2172921  )
        23           O1  tau(  23) = (   1.3043587   1.4918075   6.0039043  )
        24           O1  tau(  24) = (   5.2767064   1.4903225   6.0039473  )
        25           Ti1 tau(  25) = (   0.0000382   5.9609847   6.0000000  )
        26           Ti1 tau(  26) = (   3.2902200   4.4714249   6.0002472  )
        27           O1  tau(  27) = (   0.0002396   2.9813036   7.9858123  )
        28           O1  tau(  28) = (   3.2902150   2.9813002   7.3038282  )
        29           O1  tau(  29) = (   4.5938453   4.4726049   9.2879030  )
        30           O1  tau(  30) = (   1.9864658   4.4711199   9.2879459  )
        31           Ti1 tau(  31) = (   3.2891106   5.8743827   9.1763621  )
        32           Ti1 tau(  32) = (   0.0006254   4.4649316   9.2693709  )
        33           O1  tau(  33) = (   3.2939295   2.9453814  11.3217152  )
        34           O1  tau(  34) = (   0.0092240   2.9805883  10.6323155  )
        35           O1  tau(  35) = (   1.2781447   4.4822909  12.6561401  )
        36           O1  tau(  36) = (   5.3212068   4.4743896  12.6463055  )
        37           Ti1 tau(  37) = (   0.0302233   5.9315785  12.5023592  )
        38           Ti1 tau(  38) = (   3.3112215   4.6713144  12.7097751  )
        39           O1  tau(  39) = (   0.0192075   3.0624537  14.9697097  )
        40           O1  tau(  40) = (   3.2993887   3.0147307  13.9488589  )
        41           O1  tau(  41) = (   4.5718800   4.4489939  16.2708329  )
        42           O1  tau(  42) = (   2.0246426   4.4466800  16.2581844  )
        43           Ti1 tau(  43) = (   3.2612680   0.0306108  16.4716933  )
        44           Ti1 tau(  44) = (   6.5506247   4.5497786  16.0606151  )
        45           O1  tau(  45) = (   3.2900926   2.9813045   4.7018136  )
        46           O1  tau(  46) = (   1.3039711   4.4726057   6.0039043  )
        47           O1  tau(  47) = (   5.2763189   4.4711207   6.0039473  )
        48           N1  tau(  48) = (   0.9981237   2.4704741  18.7333368  )
        49           N1  tau(  49) = (   6.5532285   3.4232418  18.2716252  )
        50           C1  tau(  50) = (   2.1690532   2.7243113  19.1879583  )
        51           H1  tau(  51) = (   2.3312509   3.8010200  19.3435938  )
        52           H1  tau(  52) = (   0.7222050   1.5235952  18.4365492  )
        53           H1  tau(  53) = (   0.1086806   4.2950834  18.7847415  )
        54           H1  tau(  54) = (   5.6367167   3.0457734  18.5222562  )
        55           O1  tau(  55) = (   3.2473456   0.1866190  18.2687603  )
        56           H1  tau(  56) = (   3.0571027   1.0491837  18.7494863  )

     number of k points=    10  Fermi-Dirac smearing, width (Ry)=  0.0073
                       cart. coord. in units 2pi/alat
        k(    1) = (   0.0000000   0.0000000   0.0000000), wk =   0.1250000
        k(    2) = (   0.0000000   0.0419351   0.0000000), wk =   0.2500000
        k(    3) = (   0.0000000  -0.0838702   0.0000000), wk =   0.1250000
        k(    4) = (   0.0379955   0.0000049   0.0000000), wk =   0.2500000
        k(    5) = (   0.0379955   0.0419400   0.0000000), wk =   0.2500000
        k(    6) = (   0.0379955  -0.0838652   0.0000000), wk =   0.2500000
        k(    7) = (   0.0379955  -0.0419301   0.0000000), wk =   0.2500000
        k(    8) = (  -0.0759910  -0.0000099   0.0000000), wk =   0.1250000
        k(    9) = (  -0.0759910   0.0419252   0.0000000), wk =   0.2500000
        k(   10) = (  -0.0759910  -0.0838800   0.0000000), wk =   0.1250000

     Initial potential from superposition of free atoms

     starting charge  386.99914, renormalised to  403.00000

     negative rho (up, down):  1.628E-02 0.000E+00

     %%%%%%%%%%%%%%%%%%%%%%%%%%%%%%%%%%%%%%%%%%%%%%%%%%%%%%%%%%%%%%%%%%%%%%%%
     %                                                                      %
     % You are using vdW-DF, which was implemented by the Thonhauser group. %
     % Please cite the following two papers that made this development      %
     % possible and the two reviews that describe the various versions:     %
     %                                                                      %
     %   T. Thonhauser et al., PRL 115, 136402 (2015).                      %
     %   T. Thonhauser et al., PRB 76, 125112 (2007).                       %
     %   K. Berland et al., Rep. Prog. Phys. 78, 066501 (2015).             %
     %   D.C. Langreth et al., J. Phys.: Condens. Matter 21, 084203 (2009). %
     %                                                                      %
     %                                                                      %
     % If you are calculating the stress with vdW-DF, please also cite:     %
     %                                                                      %
     %   R. Sabatini et al., J. Phys.: Condens. Matter 24, 424209 (2012).   %
     %                                                                      %
     %%%%%%%%%%%%%%%%%%%%%%%%%%%%%%%%%%%%%%%%%%%%%%%%%%%%%%%%%%%%%%%%%%%%%%%%

     Adding external electric field

     Computed dipole along edir(3) :
        Dipole              -13.0968 Ry au,        -33.2887 Debye
        Dipole field         -0.0247 Ry au,

        Potential amp.        2.2911 Ry
        Total length         46.3494 bohr

     Starting wfcs are  305 atomic wfcs
  @ DRIVER MODE: Message from server: STATUS
  @ DRIVER MODE: Message from server: POSDATA
  @ DRIVER MODE: Reading and sharing cell
  @ DRIVER MODE: Reading and sharing positions
  @ DRIVER MODE: Received positions

     Self-consistent Calculation

     iteration #  1     ecut=    29.40 Ry     beta= 0.05
     Davidson diagonalization with overlap
     c_bands:  5 eigenvalues not converged
     c_bands:  2 eigenvalues not converged
     c_bands:  1 eigenvalues not converged
     c_bands:  1 eigenvalues not converged
     c_bands:  5 eigenvalues not converged
     c_bands:  4 eigenvalues not converged
     c_bands:  1 eigenvalues not converged
     ethr =  1.00E-05,  avg # of iterations = 27.3

[...]

     total energy              =   -2288.81571273 Ry
     estimated scf accuracy    <    7754.45483314 Ry

     iteration #  2     ecut=    29.40 Ry     beta= 0.05
     Davidson diagonalization with overlap
     ethr =  1.00E-02,  avg # of iterations = 25.7

[...]

     iteration # 36     ecut=    29.40 Ry     beta= 0.05
     Davidson diagonalization with overlap
     c_bands:  1 eigenvalues not converged
     c_bands:  1 eigenvalues not converged
     ethr =  1.41E-06,  avg # of iterations = 14.1

[...]

     total energy              =   -2973.89798684 Ry
     estimated scf accuracy    <       0.00000008 Ry

     iteration # 60     ecut=    29.40 Ry     beta= 0.05
     Davidson diagonalization with overlap
     ethr =  2.06E-11,  avg # of iterations =  3.8

     negative rho (up, down):  1.611E-02 0.000E+00

     Adding external electric field

     Computed dipole along edir(3) :
        Dipole                0.8541 Ry au,          2.1708 Debye
        Dipole field          0.0016 Ry au,

        Potential amp.       -0.1494 Ry
        Total length         46.3494 bohr

     End of self-consistent calculation

          k = 0.0000 0.0000 0.0000 ( 18029 PWs)   bands (ev):

   -55.6398 -55.6379 -55.6038 -55.5678 -55.4877 -55.4654 -55.4454 -55.4417
   -55.4314 -55.3888 -55.3464 -55.2889 -55.2103 -55.0649 -54.6009 -54.5669
   -32.1223 -32.0955 -31.9750 -31.9702 -31.9688 -31.9284 -31.9024 -31.8837
   -31.8766 -31.8612 -31.8421 -31.8312 -31.7905 -31.7604 -31.7466 -31.7444
   -31.7392 -31.7256 -31.7049 -31.7006 -31.6955 -31.6692 -31.6635 -31.6508
   -31.6395 -31.6383 -31.6163 -31.6075 -31.5926 -31.5883 -31.5830 -31.5715
   -31.5603 -31.5435 -31.5002 -31.4927 -31.4896 -31.4741 -31.4103 -31.3244
   -31.2905 -31.2825 -31.0060 -30.9216 -30.8990 -30.8240 -30.7377 -30.6255
   -18.6998 -16.3046 -16.2511 -16.1102 -15.8872 -15.8002 -15.7688 -15.6079
   -15.4815 -15.4397 -15.3163 -15.1699 -15.1396 -15.1318 -15.1254 -15.1167
   -15.0993 -15.0718 -15.0584 -15.0539 -15.0402 -14.9758 -14.9570 -14.9280
   -14.8479 -14.7959 -14.7686 -14.6981 -14.6551 -14.5520 -14.5137 -14.2703
   -13.0987 -12.9825  -9.5789  -6.9114  -5.8601  -4.3153  -4.0934  -3.8375
    -3.6244  -3.5364  -3.5128  -3.4046  -3.3134  -3.0838  -3.0614  -2.9916
    -2.8399  -2.7468  -2.6619  -2.6349  -2.5937  -2.5402  -2.5262  -2.4835
    -2.4176  -2.3861  -2.3445  -2.3324  -2.2830  -2.2752  -2.2290  -2.1513
    -2.1447  -2.0391  -1.9711  -1.9663  -1.9517  -1.9433  -1.8935  -1.8782
    -1.8705  -1.8001  -1.7450  -1.7104  -1.6446  -1.6185  -1.5471  -1.3029
    -1.2242  -1.2111  -1.1491  -1.0683  -1.0378  -1.0236  -1.0127  -0.9872
    -0.9599  -0.8714  -0.8445  -0.7045  -0.6987  -0.6616  -0.6354  -0.6052
    -0.4934  -0.4300  -0.4066  -0.3613  -0.3401  -0.3003  -0.2376  -0.2185
    -0.1392  -0.0951  -0.0157  -0.0134   0.0120   0.0828   0.1425   0.1765
     0.1928   0.2929   0.3078   0.3366   0.3431   0.3660   0.3922   0.4853
     0.5032   0.5452   0.5678   0.7092   0.7198   0.7720   0.9155   0.9458
     1.0479   1.1461   1.3805   1.3903   1.4264   1.4538   1.6225   1.9913
     2.0361   3.4419   3.6011   3.6141   3.7109   3.7240   3.8009   3.9361
     4.0310   4.1025   4.1360

[...]

          k = 0.0380-0.0419 0.0000 ( 17876 PWs)   bands (ev):

[...]

          k =-0.0760-0.0000 0.0000 ( 17886 PWs)   bands (ev):

[...]

          k =-0.0760-0.0839 0.0000 ( 17948 PWs)   bands (ev):

   -55.6389 -55.6208 -55.6208 -55.5666 -55.4795 -55.4509 -55.4490 -55.4464
   -55.4460 -55.3804 -55.3548 -55.2900 -55.2084 -55.0667 -54.5839 -54.5837
   -32.0205 -31.9377 -31.9376 -31.9291 -31.9140 -31.9138 -31.9032 -31.8416
   -31.8167 -31.8086 -31.7981 -31.7825 -31.7770 -31.7610 -31.7588 -31.7407
   -31.7407 -31.7306 -31.7294 -31.7180 -31.7173 -31.7033 -31.6925 -31.6858
   -31.6497 -31.6459 -31.6450 -31.6390 -31.6242 -31.6216 -31.6138 -31.6013
   -31.5849 -31.5790 -31.5683 -31.5649 -31.4943 -31.4655 -31.4137 -31.4056
   -31.3291 -31.2858 -30.9118 -30.9117 -30.8191 -30.8187 -30.7810 -30.7807
   -18.6936 -16.2558 -15.9394 -15.6339 -15.6327 -15.6130 -15.4543 -15.4204
   -15.3886 -15.3588 -15.3084 -15.3027 -15.2774 -15.2423 -15.2289 -15.1759
   -15.1517 -15.1348 -15.1162 -15.0972 -15.0776 -15.0490 -15.0382 -15.0368
   -14.9572 -14.9480 -14.9337 -14.9259 -14.8497 -14.6362 -14.4849 -14.4282
   -13.0844 -13.0844  -9.5657  -6.9053  -5.8232  -4.4979  -3.9472  -3.7693
    -3.0665  -2.8681  -2.8383  -2.7114  -2.6782  -2.6551  -2.5903  -2.5495
    -2.5481  -2.4715  -2.4583  -2.4136  -2.4092  -2.3646  -2.3621  -2.3344
    -2.3254  -2.3120  -2.3025  -2.2955  -2.2468  -2.2208  -2.2176  -2.2051
    -2.1818  -2.1679  -2.1437  -2.1270  -2.0674  -1.9920  -1.8798  -1.8573
    -1.7979  -1.7632  -1.7488  -1.7297  -1.7078  -1.6803  -1.6617  -1.5643
    -1.4813  -1.4200  -1.3180  -1.2321  -1.2114  -1.1584  -1.1504  -1.1079
    -1.0851  -1.0649  -1.0286  -0.9599  -0.8501  -0.8386  -0.7700  -0.6842
    -0.6426  -0.5771  -0.5750  -0.5687  -0.5529  -0.5286  -0.5096  -0.4607
    -0.4549  -0.3637  -0.3395  -0.3327  -0.3144  -0.2845  -0.1503  -0.1114
    -0.0623   0.1378   0.1445   0.1728   0.2806   0.3705   0.4362   0.4464
     0.5040   0.5516   0.5861   0.6255   0.6811   0.7050   0.7711   0.8807
     0.8869   0.9059   0.9477   1.0090   1.2580   1.7915   1.7983   1.8564
     1.8567   3.6562   3.8504   3.9658   3.9712   3.9864   4.0277   4.0364
     4.0503   4.1111   4.1185

     the Fermi energy is     3.4825 ev

!    total energy              =   -2973.89804426 Ry
     estimated scf accuracy    <       0.00000007 Ry
     smearing contrib. (-TS)   =      -0.01933422 Ry
     internal energy E=F+TS    =   -2973.87871004 Ry

     The total energy is F=E-TS. E is the sum of the following terms:
     one-electron contribution =  -23221.61981965 Ry
     hartree contribution      =   11705.23671512 Ry
     xc contribution           =    -493.95464085 Ry
     ewald contribution        =    9036.45765881 Ry
     electric field correction =       0.00137653 Ry

     convergence has been achieved in  60 iterations

     Forces acting on atoms (cartesian axes, Ry/au):

     atom    1 type  1   force =     0.00006645   -0.00020056    0.09419885
     atom    2 type  1   force =    -0.00015931    0.00003853   -0.17479953
     atom    3 type  2   force =     0.00002973   -0.00050356   -0.02070541
     atom    4 type  2   force =     0.00004419   -0.00070682    0.05225720
     atom    5 type  2   force =    -0.00299934   -0.00196616    0.00012914
     atom    6 type  2   force =     0.00463605   -0.00150012   -0.00032785
     atom    7 type  1   force =    -0.00019674    0.00282079    0.01409705
     atom    8 type  1   force =    -0.00012141   -0.00121621   -0.00058669
     atom    9 type  2   force =     0.00005182   -0.00010661   -0.00010447
     atom   10 type  2   force =    -0.00139830    0.00346843   -0.00732417
     atom   11 type  2   force =    -0.00018265    0.00025077    0.00020570
     atom   12 type  2   force =     0.00037267    0.00039176    0.00061276
     atom   13 type  1   force =    -0.00043028    0.00058699   -0.00029455
     atom   14 type  1   force =     0.00000375   -0.00008298    0.00068371
     atom   15 type  2   force =     0.00038210    0.00089273    0.00064412
     atom   16 type  2   force =    -0.00009278   -0.00076869    0.00095130
     atom   17 type  2   force =     0.00057704   -0.00025014   -0.00011292
     atom   18 type  2   force =     0.00024111   -0.00007490   -0.00021845
     atom   19 type  1   force =    -0.00000048    0.00003331   -0.00060875
     atom   20 type  1   force =    -0.00028214   -0.00028121   -0.00052013
     atom   21 type  2   force =     0.00006927   -0.00000210    0.10299349
     atom   22 type  2   force =     0.00038965    0.00041678   -0.00000746
     atom   23 type  2   force =    -0.07235475   -0.00018652   -0.02725548
     atom   24 type  2   force =     0.07229789    0.00025860   -0.02730386
     atom   25 type  1   force =     0.00007342   -0.00030794    0.09365008
     atom   26 type  1   force =    -0.00006232   -0.00116475   -0.17491406
     atom   27 type  2   force =     0.00017364   -0.00002369   -0.01956928
     atom   28 type  2   force =     0.00003152   -0.00104268    0.04853954
     atom   29 type  2   force =    -0.00594615    0.00105881    0.00312512
     atom   30 type  2   force =     0.00742948    0.00157394    0.00262870
     atom   31 type  1   force =     0.00004408    0.00142513    0.00269155
     atom   32 type  1   force =     0.00006465    0.00067636   -0.00037006
     atom   33 type  2   force =    -0.00016956   -0.00012053   -0.00051418
     atom   34 type  2   force =    -0.00061432   -0.00196690   -0.01094151
     atom   35 type  2   force =     0.00024361   -0.00040674   -0.00014635
     atom   36 type  2   force =    -0.00004328   -0.00026417   -0.00021180
     atom   37 type  1   force =    -0.00026763   -0.00038473   -0.00052321
     atom   38 type  1   force =     0.00025864    0.00021043    0.00032259
     atom   39 type  2   force =    -0.00036369   -0.00120150   -0.00029912
     atom   40 type  2   force =    -0.00012892    0.00036335    0.00082459
     atom   41 type  2   force =    -0.00080417    0.00009137    0.00032441
     atom   42 type  2   force =     0.00031623   -0.00052475   -0.00003706
     atom   43 type  1   force =    -0.00032181    0.00063564    0.00007682
     atom   44 type  1   force =     0.00012233   -0.00117136   -0.00000396
     atom   45 type  2   force =     0.00006600    0.00005492    0.10283803
     atom   46 type  2   force =    -0.07231135   -0.00005884   -0.02720762
     atom   47 type  2   force =     0.07221899    0.00039109   -0.02723880
     atom   48 type  3   force =    -0.00009742    0.00154965    0.00087000
     atom   49 type  3   force =    -0.00046817    0.00052994    0.00032765
     atom   50 type  4   force =     0.00170704    0.00043772    0.00031792
     atom   51 type  5   force =    -0.00234290   -0.00287348   -0.00021352
     atom   52 type  5   force =    -0.00004544    0.00139636    0.00070419
     atom   53 type  5   force =     0.00009614   -0.00035783   -0.00072451
     atom   54 type  5   force =     0.00035930    0.00069382    0.00034153
     atom   55 type  2   force =     0.00043574    0.00014902   -0.00052281
     atom   56 type  5   force =    -0.00059721   -0.00067976   -0.00074847

     Total force =     0.361045     Total SCF correction =     0.000732
  @ DRIVER MODE: Message from server: STATUS
  @ DRIVER MODE: Message from server: GETFORCE
  @ DRIVER MODE: Returning v,forces,stress,ensemble

     Writing output data file ./calc.save/
  @ DRIVER MODE: Message from server: EXIT
  @ DRIVE MODE: Exiting

     General routines

     Parallel routines

   This run was terminated on:  19:18:49  28Sep2021

   JOB DONE.