     Program PWSCF v.6.7GPU starts on 24Aug2021 at 15:11:40

     R & G space division:  proc/nbgrp/npool/nimage =      72
     Reading input from /storage/home/hcoda1/3/ntian30/research/carbon/CH2_vib/ads_slab/CH2NHHH_a/out_0014/pw.inp
Warning: card &CELL ignored
Warning: card   CELL_DYNAMICS='IPI', ignored
Warning: card / ignored

     Current dimensions of program PWSCF are:
     Max number of different atomic species (ntypx) = 10
     Max number of k-points (npk) =  40000
     Max angular momentum in pseudopotentials (lmaxx) =  3
     Presently no symmetry can be used with electric field

     Message from routine cell_base_init:
     DEPRECATED: use true lattice parameter, not A to a.u. conversion factor

     IMPORTANT: XC functional enforced from input :
     Exchange-correlation= BEEF-VDW
                           (   1   4  43  14   2   0   0)
     Any further DFT definition will be discarded
     Please, verify this is what you really want

  @ DRIVER MODE: Connecting to
 qe_1139763_2641440.sched-torque.pace.gatech.educ7iwz5md_scratch
  using UNIX socket
  @ DRIVER MODE: Message from server: STATUS
  @ DRIVER MODE: Message from server: INIT
  @ DRIVER MODE: Receiving replica           0          -1
  @ DRIVER MODE: Receiving encoded integer          25
  @ DRIVER MODE:  SCF:  T  FORCE:  T  STRESS:  F  VC:  F  ENSEMBLE:  F
  @ DRIVER MODE:  SCF:  T  FORCE:  T  STRESS:  F  VC:  F  ENSEMBLE:  F

     Using Slab Decomposition

     bravais-lattice index     =            0
     lattice parameter (alat)  =       1.8897  a.u.
     unit-cell volume          =    6658.9804 (a.u.)^3
     number of atoms/cell      =           54
     number of atomic types    =            5
     number of electrons       =       392.00
     number of Kohn-Sham states=          206
     kinetic-energy cutoff     =      29.3995  Ry
     charge density cutoff     =     293.9946  Ry
     scf convergence threshold =      7.3E-08
     mixing beta               =       0.0500
     number of iterations used =            8  plain     mixing
     Exchange-correlation= BEEF-VDW
                           (   1   4  43  14   2   0   0)

     celldm(1)=   1.889726  celldm(2)=   0.000000  celldm(3)=   0.000000
     celldm(4)=   0.000000  celldm(5)=   0.000000  celldm(6)=   0.000000

     crystal axes: (cart. coord. in units of alat)
               a(1) = (   6.579727   0.000000   0.000000 )
               a(2) = (  -0.000775   5.961596   0.000000 )
               a(3) = (   0.000000   0.000000  25.155947 )

     reciprocal axes: (cart. coord. in units 2 pi/alat)
               b(1) = (  0.151982  0.000020  0.000000 )
               b(2) = (  0.000000  0.167740  0.000000 )
               b(3) = (  0.000000  0.000000  0.039752 )

     PseudoPot. # 1 for Ti read from file:
     /storage/coda1/p-amedford6/0/shared/rich_project_chbe-medford/medford-share/data/pseudos_module/espresso/nninc/pbe/van/Ti.UPF
     MD5 check sum: 8e4df49b7f0d34bbd5052bf3f5ea0213
     Pseudo is Ultrasoft, Zval = 12.0
     Generated by new atomic code, or converted to UPF format
     Using radial grid of  851 points,  6 beta functions with:
                l(1) =   0
                l(2) =   0
                l(3) =   1
                l(4) =   1
                l(5) =   2
                l(6) =   2
     Q(r) pseudized with  8 coefficients,  rinner =    1.000   1.000   1.000
                                                       1.000   1.000

     PseudoPot. # 2 for O  read from file:
     /storage/coda1/p-amedford6/0/shared/rich_project_chbe-medford/medford-share/data/pseudos_module/espresso/nninc/pbe/van/O.UPF
     MD5 check sum: 78c19812648e8988a0fe644b0f25305e
     Pseudo is Ultrasoft, Zval =  6.0
     Generated by new atomic code, or converted to UPF format
     Using radial grid of  737 points,  4 beta functions with:
                l(1) =   0
                l(2) =   0
                l(3) =   1
                l(4) =   1
     Q(r) pseudized with  8 coefficients,  rinner =    0.800   0.800   0.800

     PseudoPot. # 3 for N  read from file:
     /storage/coda1/p-amedford6/0/shared/rich_project_chbe-medford/medford-share/data/pseudos_module/espresso/nninc/pbe/van/N.UPF
     MD5 check sum: 90d10febe142ad51ac9d5be1deb811c4
     Pseudo is Ultrasoft, Zval =  5.0
     Generated by new atomic code, or converted to UPF format
     Using radial grid of  729 points,  4 beta functions with:
                l(1) =   0
                l(2) =   0
                l(3) =   1
                l(4) =   1
     Q(r) pseudized with  8 coefficients,  rinner =    0.800   0.800   0.800

     PseudoPot. # 4 for C  read from file:
     /storage/coda1/p-amedford6/0/shared/rich_project_chbe-medford/medford-share/data/pseudos_module/espresso/nninc/pbe/van/C.UPF
     MD5 check sum: 1a69bf6b8db32088f5b2163dbdb77a27
     Pseudo is Ultrasoft, Zval =  4.0
     Generated by new atomic code, or converted to UPF format
     Using radial grid of  721 points,  4 beta functions with:
                l(1) =   0
                l(2) =   0
                l(3) =   1
                l(4) =   1
     Q(r) pseudized with  8 coefficients,  rinner =    0.800   0.800   0.800

     PseudoPot. # 5 for H  read from file:
     /storage/coda1/p-amedford6/0/shared/rich_project_chbe-medford/medford-share/data/pseudos_module/espresso/nninc/pbe/van/H.UPF
     MD5 check sum: b5ee9d7bfd3a09ee7748110bda690ff7
     Pseudo is Ultrasoft, Zval =  1.0
     Generated by new atomic code, or converted to UPF format
     Using radial grid of  615 points,  1 beta functions with:
                l(1) =   0
     Q(r) pseudized with  8 coefficients,  rinner =    0.800

     atomic species   valence    mass     pseudopotential
        Ti1           12.00    47.86700     Ti( 1.00)
        O1             6.00    15.99900     O ( 1.00)
        N1             5.00    14.00700     N ( 1.00)
        C1             4.00    12.01100     C ( 1.00)
        H1             1.00     1.00800     H ( 1.00)

     No symmetry found

   Cartesian axes

     site n.     atom                  positions (alat units)
         1           Ti1 tau(   1) = (   0.0004258   2.9801865   6.0000000  )
         2           Ti1 tau(   2) = (   3.2906075   1.4906267   6.0002472  )
         3           O1  tau(   3) = (   0.0006271   0.0005054   7.9858123  )
         4           O1  tau(   4) = (   3.2906025   0.0005020   7.3038282  )
         5           O1  tau(   5) = (   4.5942328   1.4918067   9.2879030  )
         6           O1  tau(   6) = (   1.9868534   1.4903216   9.2879459  )
         7           Ti1 tau(   7) = (   3.2907910   2.8959150   9.1758416  )
         8           Ti1 tau(   8) = (   0.0015273   1.4827037   9.2680791  )
         9           O1  tau(   9) = (   3.2947057   0.0061428  11.3716447  )
        10           O1  tau(  10) = (   0.0116148   5.9584955  10.6183126  )
        11           O1  tau(  11) = (   1.2915649   1.4936813  12.6925814  )
        12           O1  tau(  12) = (   5.2970661   1.4944705  12.6810846  )
        13           Ti1 tau(  13) = (   0.0178387   2.9746902  12.5081746  )
        14           Ti1 tau(  14) = (   3.3154821   1.4870708  12.5273966  )
        15           O1  tau(  15) = (   6.5751158   5.8850184  14.6937530  )
        16           O1  tau(  16) = (   3.3021755   5.9482827  13.9948957  )
        17           O1  tau(  17) = (   4.5403780   1.5298489  16.1548813  )
        18           O1  tau(  18) = (   2.0255877   1.5226301  16.1187562  )
        19           Ti1 tau(  19) = (   3.2919084   3.0021400  15.7465462  )
        20           Ti1 tau(  20) = (   0.0121818   1.3098915  15.8601907  )
        21           O1  tau(  21) = (   3.2904802   0.0005063   4.7018136  )
        22           O1  tau(  22) = (   6.5726150   0.1553292  17.2405045  )
        23           O1  tau(  23) = (   1.3043587   1.4918075   6.0039043  )
        24           O1  tau(  24) = (   5.2767064   1.4903225   6.0039473  )
        25           Ti1 tau(  25) = (   0.0000382   5.9609847   6.0000000  )
        26           Ti1 tau(  26) = (   3.2902200   4.4714249   6.0002472  )
        27           O1  tau(  27) = (   0.0002396   2.9813036   7.9858123  )
        28           O1  tau(  28) = (   3.2902150   2.9813002   7.3038282  )
        29           O1  tau(  29) = (   4.5938453   4.4726049   9.2879030  )
        30           O1  tau(  30) = (   1.9864658   4.4711199   9.2879459  )
        31           Ti1 tau(  31) = (   3.2891106   5.8743827   9.1763621  )
        32           Ti1 tau(  32) = (   0.0006254   4.4649316   9.2693709  )
        33           O1  tau(  33) = (   3.2927311   2.9710310  11.3658552  )
        34           O1  tau(  34) = (   0.0092240   2.9805883  10.6323155  )
        35           O1  tau(  35) = (   1.2954064   4.4636889  12.6531092  )
        36           O1  tau(  36) = (   5.2951753   4.4642890  12.6444158  )
        37           Ti1 tau(  37) = (   0.0208150   5.9452171  12.5004641  )
        38           Ti1 tau(  38) = (   3.3163264   4.4646888  12.5160798  )
        39           O1  tau(  39) = (   6.5606049   3.0383603  14.9590055  )
        40           O1  tau(  40) = (   3.3003749   3.0012653  13.9593002  )
        41           O1  tau(  41) = (   4.5325621   4.4784225  16.2386555  )
        42           O1  tau(  42) = (   2.0180351   4.4745910  16.2101397  )
        43           Ti1 tau(  43) = (   3.2993765   0.0184524  15.7908042  )
        44           Ti1 tau(  44) = (   0.0223033   4.5207704  16.0490861  )
        45           O1  tau(  45) = (   3.2900926   2.9813045   4.7018136  )
        46           O1  tau(  46) = (   1.3039711   4.4726057   6.0039043  )
        47           O1  tau(  47) = (   5.2763189   4.4711207   6.0039473  )
        48           N1  tau(  48) = (   6.4337409   3.4053151  18.1409392  )
        49           C1  tau(  49) = (   1.0285230   3.1422446  19.0018829  )
        50           H1  tau(  50) = (   0.7575518   3.0234394  20.0507379  )
        51           H1  tau(  51) = (   1.7227964   3.9744885  18.9089305  )
        52           H1  tau(  52) = (   5.9280473   4.2150708  18.4935385  )
        53           H1  tau(  53) = (   5.7900178   2.6175148  18.1880975  )
        54           H1  tau(  54) = (   1.5159085   2.2300880  18.6641165  )

     number of k points=    10  Fermi-Dirac smearing, width (Ry)=  0.0073
                       cart. coord. in units 2pi/alat
        k(    1) = (   0.0000000   0.0000000   0.0000000), wk =   0.1250000
        k(    2) = (   0.0000000   0.0419351   0.0000000), wk =   0.2500000
        k(    3) = (   0.0000000  -0.0838702   0.0000000), wk =   0.1250000
        k(    4) = (   0.0379955   0.0000049   0.0000000), wk =   0.2500000
        k(    5) = (   0.0379955   0.0419400   0.0000000), wk =   0.2500000
        k(    6) = (   0.0379955  -0.0838652   0.0000000), wk =   0.2500000
        k(    7) = (   0.0379955  -0.0419301   0.0000000), wk =   0.2500000
        k(    8) = (  -0.0759910  -0.0000099   0.0000000), wk =   0.1250000
        k(    9) = (  -0.0759910   0.0419252   0.0000000), wk =   0.2500000
        k(   10) = (  -0.0759910  -0.0838800   0.0000000), wk =   0.1250000

     Initial potential from superposition of free atoms

     starting charge  375.99915, renormalised to  392.00000

     negative rho (up, down):  1.645E-02 0.000E+00

     %%%%%%%%%%%%%%%%%%%%%%%%%%%%%%%%%%%%%%%%%%%%%%%%%%%%%%%%%%%%%%%%%%%%%%%%
     %                                                                      %
     % You are using vdW-DF, which was implemented by the Thonhauser group. %
     % Please cite the following two papers that made this development      %
     % possible and the two reviews that describe the various versions:     %
     %                                                                      %
     %   T. Thonhauser et al., PRL 115, 136402 (2015).                      %
     %   T. Thonhauser et al., PRB 76, 125112 (2007).                       %
     %   K. Berland et al., Rep. Prog. Phys. 78, 066501 (2015).             %
     %   D.C. Langreth et al., J. Phys.: Condens. Matter 21, 084203 (2009). %
     %                                                                      %
     %                                                                      %
     % If you are calculating the stress with vdW-DF, please also cite:     %
     %                                                                      %
     %   R. Sabatini et al., J. Phys.: Condens. Matter 24, 424209 (2012).   %
     %                                                                      %
     %%%%%%%%%%%%%%%%%%%%%%%%%%%%%%%%%%%%%%%%%%%%%%%%%%%%%%%%%%%%%%%%%%%%%%%%

     Adding external electric field

     Computed dipole along edir(3) :
        Dipole               -7.5123 Ry au,        -19.0944 Debye
        Dipole field         -0.0142 Ry au,

        Potential amp.        1.3142 Ry
        Total length         46.3494 bohr

     Starting wfcs are  297 atomic wfcs
  @ DRIVER MODE: Message from server: STATUS
  @ DRIVER MODE: Message from server: POSDATA
  @ DRIVER MODE: Reading and sharing cell
  @ DRIVER MODE: Reading and sharing positions
  @ DRIVER MODE: Received positions

     Self-consistent Calculation

     iteration #  1     ecut=    29.40 Ry     beta= 0.05
     Davidson diagonalization with overlap
     c_bands:  1 eigenvalues not converged
     c_bands:  1 eigenvalues not converged
     c_bands:  2 eigenvalues not converged
     c_bands:  1 eigenvalues not converged
     c_bands:  1 eigenvalues not converged
     c_bands:  1 eigenvalues not converged
     ethr =  1.00E-05,  avg # of iterations = 19.3

[...]

     total energy              =   -2681.19907544 Ry
     estimated scf accuracy    <    2661.06358797 Ry

[...]

     iteration #  3     ecut=    29.40 Ry     beta= 0.05
     Davidson diagonalization with overlap
     ethr =  1.00E-02,  avg # of iterations = 14.3

[...]

     iteration # 69     ecut=    29.40 Ry     beta= 0.05
     Davidson diagonalization with overlap
     c_bands:  1 eigenvalues not converged
     ethr =  1.89E-11,  avg # of iterations = 13.4

[...]

     total energy              =   -2921.63251002 Ry
     estimated scf accuracy    <       0.00000009 Ry

     iteration # 70     ecut=    29.40 Ry     beta= 0.05
     Davidson diagonalization with overlap
     ethr =  1.89E-11,  avg # of iterations =  2.4

     negative rho (up, down):  1.723E-02 0.000E+00

     Adding external electric field

     Computed dipole along edir(3) :
        Dipole                1.3069 Ry au,          3.3219 Debye
        Dipole field          0.0025 Ry au,

        Potential amp.       -0.2286 Ry
        Total length         46.3494 bohr

     End of self-consistent calculation

          k = 0.0000 0.0000 0.0000 ( 18029 PWs)   bands (ev):

   -55.4312 -55.3942 -55.3811 -55.3566 -55.3469 -55.3138 -55.3087 -55.2743
   -55.2483 -55.2311 -55.2138 -55.2126 -55.1789 -55.0994 -54.4096 -54.3755
   -32.0006 -31.8862 -31.8735 -31.7975 -31.7482 -31.7382 -31.7356 -31.7186
   -31.6735 -31.6701 -31.6415 -31.6392 -31.6261 -31.6192 -31.6012 -31.5943
   -31.5867 -31.5744 -31.5692 -31.5461 -31.5336 -31.5302 -31.5023 -31.4949
   -31.4865 -31.4791 -31.4744 -31.4509 -31.4394 -31.4383 -31.4312 -31.4122
   -31.4115 -31.4051 -31.3993 -31.3962 -31.3624 -31.3528 -31.3409 -31.3239
   -31.3052 -31.2952 -30.8190 -30.7249 -30.7028 -30.6354 -30.5486 -30.4376
   -16.2939 -16.1615 -15.9758 -15.8310 -15.7486 -15.6292 -15.5179 -15.5040
   -15.3635 -15.2819 -15.1660 -15.1410 -15.1117 -15.0897 -15.0814 -15.0643
   -14.9735 -14.9686 -14.9563 -14.9237 -14.9226 -14.8783 -14.8679 -14.8259
   -14.8044 -14.8019 -14.6824 -14.5889 -14.5165 -14.2872 -12.9123 -12.7949
   -10.2234  -6.3099  -4.8281  -3.9402  -3.6099  -3.4517  -3.3685  -3.3331
    -3.3217  -3.1905  -3.0534  -2.9055  -2.8535  -2.8201  -2.7232  -2.6465
    -2.6391  -2.6196  -2.4656  -2.4308  -2.3862  -2.3372  -2.2993  -2.2411
    -2.2207  -2.2120  -2.1995  -2.1821  -2.1737  -2.0560  -1.9999  -1.9162
    -1.8571  -1.8343  -1.7841  -1.7639  -1.7439  -1.7201  -1.7106  -1.6699
    -1.6446  -1.6247  -1.5714  -1.4600  -1.3562  -1.3059  -1.1867  -1.0660
    -1.0287  -1.0167  -0.9649  -0.9378  -0.9162  -0.8590  -0.8071  -0.7781
    -0.7269  -0.6630  -0.6014  -0.5517  -0.4786  -0.4754  -0.4164  -0.3672
    -0.2464  -0.2139  -0.1969  -0.1693  -0.0784  -0.0403   0.0035   0.0835
     0.0946   0.1140   0.2074   0.2183   0.2922   0.3408   0.3575   0.4509
     0.4855   0.4981   0.5026   0.5250   0.5549   0.6048   0.6465   0.6730
     0.7399   0.8663   1.0794   1.1598   1.1834   1.5095   1.5193   1.6130
     1.7967   2.1890   2.2371   3.6667   3.7373   3.8131   3.8194   3.8322
     3.9050   4.1393   4.1630   4.1708   4.1775   4.1983

[...]

          k = 0.0380-0.0419 0.0000 ( 17876 PWs)   bands (ev):

[...]

          k =-0.0760-0.0000 0.0000 ( 17886 PWs)   bands (ev):

[...]

          k =-0.0760-0.0839 0.0000 ( 17948 PWs)   bands (ev):

   -55.4171 -55.4081 -55.3641 -55.3638 -55.3552 -55.3102 -55.2928 -55.2902
   -55.2347 -55.2326 -55.2290 -55.1963 -55.1954 -55.1006 -54.3927 -54.3923
   -31.8078 -31.8037 -31.8005 -31.7180 -31.6920 -31.6887 -31.6885 -31.6554
   -31.6554 -31.6400 -31.6334 -31.6307 -31.6240 -31.6022 -31.5867 -31.5700
   -31.5660 -31.5635 -31.5619 -31.5568 -31.5566 -31.5537 -31.5108 -31.5087
   -31.5058 -31.5017 -31.4993 -31.4861 -31.4839 -31.4835 -31.4818 -31.4657
   -31.4623 -31.4462 -31.4425 -31.4286 -31.4255 -31.4229 -31.3772 -31.3770
   -31.3709 -31.3099 -30.7156 -30.7153 -30.6316 -30.6313 -30.5921 -30.5919
   -16.1317 -15.7819 -15.6955 -15.6397 -15.4643 -15.4364 -15.4223 -15.4027
   -15.2735 -15.2477 -15.2220 -15.1997 -15.1786 -15.1411 -15.1335 -15.1287
   -15.0509 -15.0379 -15.0322 -15.0175 -14.9483 -14.9393 -14.9354 -14.9293
   -14.8788 -14.8751 -14.8321 -14.7816 -14.7783 -14.5632 -12.8965 -12.8963
   -10.2266  -6.2804  -4.8247  -3.9034  -2.9655  -2.9377  -2.8959  -2.8957
    -2.6805  -2.6428  -2.6074  -2.5834  -2.4918  -2.4495  -2.4305  -2.4298
    -2.3555  -2.3352  -2.3237  -2.2721  -2.2671  -2.2553  -2.2318  -2.1996
    -2.1739  -2.1596  -2.1498  -2.1312  -2.0876  -2.0737  -2.0538  -2.0336
    -2.0277  -2.0147  -1.9860  -1.9462  -1.8155  -1.8043  -1.7436  -1.6364
    -1.6315  -1.5563  -1.5459  -1.5009  -1.4873  -1.4627  -1.4283  -1.2485
    -1.2065  -1.1759  -1.1664  -1.1123  -1.0356  -1.0191  -0.9564  -0.9350
    -0.9169  -0.8121  -0.7691  -0.7541  -0.6643  -0.6555  -0.5726  -0.5244
    -0.4622  -0.4366  -0.4031  -0.3859  -0.3838  -0.3362  -0.3304  -0.2465
    -0.2007  -0.1646  -0.1512  -0.1188   0.0799   0.0869   0.1095   0.2551
     0.2746   0.4102   0.4373   0.4888   0.5685   0.6015   0.6821   0.7149
     0.8446   0.8752   0.8777   0.9473   0.9616   1.0236   1.0340   1.9697
     1.9704   2.0571   2.0572   3.8174   3.9092   3.9292   3.9717   4.0848
     4.1592   4.1839   4.2056   4.2528   4.2558   4.3178

     the Fermi energy is     3.7306 ev

!    total energy              =   -2921.63253049 Ry
     estimated scf accuracy    <       0.00000004 Ry
     smearing contrib. (-TS)   =      -0.03703183 Ry
     internal energy E=F+TS    =   -2921.59549866 Ry

     The total energy is F=E-TS. E is the sum of the following terms:
     one-electron contribution =  -24082.19450589 Ry
     hartree contribution      =   12130.23981332 Ry
     xc contribution           =    -481.76242541 Ry
     ewald contribution        =    9512.11839590 Ry
     electric field correction =       0.00322341 Ry

     convergence has been achieved in  70 iterations

     Forces acting on atoms (cartesian axes, Ry/au):

     atom    1 type  1   force =     0.00005463   -0.00024282    0.09318345
     atom    2 type  1   force =    -0.00012745   -0.00043157   -0.17823246
     atom    3 type  2   force =     0.00002082   -0.00040713   -0.02022152
     atom    4 type  2   force =    -0.00001322   -0.00187867    0.05854693
     atom    5 type  2   force =    -0.00994930   -0.00082526    0.00750488
     atom    6 type  2   force =     0.01146714   -0.00027289    0.00680281
     atom    7 type  1   force =    -0.00038714    0.00195199   -0.01464476
     atom    8 type  1   force =     0.00011020   -0.00011873   -0.00501722
     atom    9 type  2   force =    -0.00011553   -0.00005236    0.00000837
     atom   10 type  2   force =    -0.00117951    0.00218836   -0.00032560
     atom   11 type  2   force =    -0.00001689   -0.00019120    0.00006990
     atom   12 type  2   force =     0.00059051   -0.00051064    0.00013064
     atom   13 type  1   force =    -0.00072325    0.00034646   -0.00033265
     atom   14 type  1   force =    -0.00000609   -0.00058994    0.00005784
     atom   15 type  2   force =     0.00004075   -0.00058019   -0.00039446
     atom   16 type  2   force =     0.00023726    0.00060012    0.00049932
     atom   17 type  2   force =     0.00004161   -0.00054365    0.00033341
     atom   18 type  2   force =     0.00019346   -0.00011541    0.00029902
     atom   19 type  1   force =     0.00004353   -0.00033406    0.00179949
     atom   20 type  1   force =    -0.00019933    0.00043523    0.00025097
     atom   21 type  2   force =     0.00001083   -0.00010059    0.10388057
     atom   22 type  2   force =     0.00017446   -0.00016685    0.00051346
     atom   23 type  2   force =    -0.07045166   -0.00018704   -0.02692523
     atom   24 type  2   force =     0.07027803    0.00025423   -0.02696861
     atom   25 type  1   force =    -0.00001128   -0.00015776    0.09269687
     atom   26 type  1   force =    -0.00020256   -0.00049930   -0.17825030
     atom   27 type  2   force =     0.00007489   -0.00024677   -0.01927266
     atom   28 type  2   force =     0.00001652   -0.00165399    0.05788902
     atom   29 type  2   force =    -0.01051911   -0.00097700    0.00820188
     atom   30 type  2   force =     0.01192505   -0.00053194    0.00743183
     atom   31 type  1   force =    -0.00034217    0.00605226   -0.01543048
     atom   32 type  1   force =     0.00011391   -0.00039025   -0.00543770
     atom   33 type  2   force =     0.00030765   -0.00010481   -0.00031864
     atom   34 type  2   force =    -0.00063744   -0.00204920   -0.00050561
     atom   35 type  2   force =    -0.00040553   -0.00002706    0.00024175
     atom   36 type  2   force =     0.00067301   -0.00007493   -0.00003554
     atom   37 type  1   force =    -0.00035971   -0.00023669    0.00026626
     atom   38 type  1   force =     0.00002247    0.00041504   -0.00001366
     atom   39 type  2   force =     0.00021957   -0.00011219    0.00020334
     atom   40 type  2   force =     0.00017372    0.00025924    0.00010169
     atom   41 type  2   force =    -0.00044091    0.00025971   -0.00009589
     atom   42 type  2   force =     0.00049034    0.00086504   -0.00017628
     atom   43 type  1   force =     0.00043501    0.00060998    0.00027113
     atom   44 type  1   force =     0.00056115    0.00059699    0.00020784
     atom   45 type  2   force =     0.00001913   -0.00009276    0.10386761
     atom   46 type  2   force =    -0.07043098   -0.00012487   -0.02687346
     atom   47 type  2   force =     0.07025816    0.00030109   -0.02692561
     atom   48 type  3   force =    -0.00005981   -0.00167062    0.00190774
     atom   49 type  4   force =     0.00330152   -0.00047353   -0.00289629
     atom   50 type  5   force =    -0.00334463   -0.00004901    0.00306429
     atom   51 type  5   force =    -0.00003870    0.00019444   -0.00068324
     atom   52 type  5   force =    -0.00096856   -0.00036280    0.00014780
     atom   53 type  5   force =    -0.00090450    0.00050777   -0.00015281
     atom   54 type  5   force =    -0.00002009    0.00154650   -0.00024948

     Total force =     0.366052     Total SCF correction =     0.000542
  @ DRIVER MODE: Message from server: STATUS
  @ DRIVER MODE: Message from server: GETFORCE
  @ DRIVER MODE: Returning v,forces,stress,ensemble

     Writing output data file ./calc.save/
  @ DRIVER MODE: Message from server: EXIT
  @ DRIVE MODE: Exiting

     General routines

     Parallel routines

   This run was terminated on:  15:36:50  24Aug2021

   JOB DONE.