     Program PWSCF v.6.7GPU starts on  9Sep2021 at  5:59:54

     R & G space division:  proc/nbgrp/npool/nimage =      10
     Reading input from /storage/home/hcoda1/3/ntian30/research/carbon/CxH_vib/C_calc/ads_slab/CN2_a/out_0015/pw.inp
Warning: card &CELL ignored
Warning: card   CELL_DYNAMICS='IPI', ignored
Warning: card / ignored

     Current dimensions of program PWSCF are:
     Max number of different atomic species (ntypx) = 10
     Max number of k-points (npk) =  40000
     Max angular momentum in pseudopotentials (lmaxx) =  3
     Presently no symmetry can be used with electric field

     Message from routine cell_base_init:
     DEPRECATED: use true lattice parameter, not A to a.u. conversion factor

     IMPORTANT: XC functional enforced from input :
     Exchange-correlation= BEEF-VDW
                           (   1   4  43  14   2   0   0)
     Any further DFT definition will be discarded
     Please, verify this is what you really want

  @ DRIVER MODE: Connecting to
 qe_1139763_2767375.sched-torque.pace.gatech.eduzp30x50d_scratch
  using UNIX socket
  @ DRIVER MODE: Message from server: STATUS
  @ DRIVER MODE: Message from server: INIT
  @ DRIVER MODE: Receiving replica           0          -1
  @ DRIVER MODE: Receiving encoded integer          25
  @ DRIVER MODE:  SCF:  T  FORCE:  T  STRESS:  F  VC:  F  ENSEMBLE:  F
  @ DRIVER MODE:  SCF:  T  FORCE:  T  STRESS:  F  VC:  F  ENSEMBLE:  F

     Using Slab Decomposition

     bravais-lattice index     =            0
     lattice parameter (alat)  =       1.8897  a.u.
     unit-cell volume          =    6658.9804 (a.u.)^3
     number of atoms/cell      =           50
     number of atomic types    =            4
     number of electrons       =       392.00
     number of Kohn-Sham states=          206
     kinetic-energy cutoff     =      29.3995  Ry
     charge density cutoff     =     293.9946  Ry
     scf convergence threshold =      7.3E-08
     mixing beta               =       0.0500
     number of iterations used =            8  plain     mixing
     Exchange-correlation= BEEF-VDW
                           (   1   4  43  14   2   0   0)

     celldm(1)=   1.889726  celldm(2)=   0.000000  celldm(3)=   0.000000
     celldm(4)=   0.000000  celldm(5)=   0.000000  celldm(6)=   0.000000

     crystal axes: (cart. coord. in units of alat)
               a(1) = (   6.579727   0.000000   0.000000 )
               a(2) = (  -0.000775   5.961596   0.000000 )
               a(3) = (   0.000000   0.000000  25.155947 )

     reciprocal axes: (cart. coord. in units 2 pi/alat)
               b(1) = (  0.151982  0.000020  0.000000 )
               b(2) = (  0.000000  0.167740  0.000000 )
               b(3) = (  0.000000  0.000000  0.039752 )

     PseudoPot. # 1 for Ti read from file:
     /storage/coda1/p-amedford6/0/shared/rich_project_chbe-medford/medford-share/data/pseudos_module/espresso/nninc/pbe/van/Ti.UPF
     MD5 check sum: 8e4df49b7f0d34bbd5052bf3f5ea0213
     Pseudo is Ultrasoft, Zval = 12.0
     Generated by new atomic code, or converted to UPF format
     Using radial grid of  851 points,  6 beta functions with:
                l(1) =   0
                l(2) =   0
                l(3) =   1
                l(4) =   1
                l(5) =   2
                l(6) =   2
     Q(r) pseudized with  8 coefficients,  rinner =    1.000   1.000   1.000
                                                       1.000   1.000

     PseudoPot. # 2 for O  read from file:
     /storage/coda1/p-amedford6/0/shared/rich_project_chbe-medford/medford-share/data/pseudos_module/espresso/nninc/pbe/van/O.UPF
     MD5 check sum: 78c19812648e8988a0fe644b0f25305e
     Pseudo is Ultrasoft, Zval =  6.0
     Generated by new atomic code, or converted to UPF format
     Using radial grid of  737 points,  4 beta functions with:
                l(1) =   0
                l(2) =   0
                l(3) =   1
                l(4) =   1
     Q(r) pseudized with  8 coefficients,  rinner =    0.800   0.800   0.800

     PseudoPot. # 3 for N  read from file:
     /storage/coda1/p-amedford6/0/shared/rich_project_chbe-medford/medford-share/data/pseudos_module/espresso/nninc/pbe/van/N.UPF
     MD5 check sum: 90d10febe142ad51ac9d5be1deb811c4
     Pseudo is Ultrasoft, Zval =  5.0
     Generated by new atomic code, or converted to UPF format
     Using radial grid of  729 points,  4 beta functions with:
                l(1) =   0
                l(2) =   0
                l(3) =   1
                l(4) =   1
     Q(r) pseudized with  8 coefficients,  rinner =    0.800   0.800   0.800

     PseudoPot. # 4 for C  read from file:
     /storage/coda1/p-amedford6/0/shared/rich_project_chbe-medford/medford-share/data/pseudos_module/espresso/nninc/pbe/van/C.UPF
     MD5 check sum: 1a69bf6b8db32088f5b2163dbdb77a27
     Pseudo is Ultrasoft, Zval =  4.0
     Generated by new atomic code, or converted to UPF format
     Using radial grid of  721 points,  4 beta functions with:
                l(1) =   0
                l(2) =   0
                l(3) =   1
                l(4) =   1
     Q(r) pseudized with  8 coefficients,  rinner =    0.800   0.800   0.800

     atomic species   valence    mass     pseudopotential
        Ti1           12.00    47.86700     Ti( 1.00)
        O1             6.00    15.99900     O ( 1.00)
        N1             5.00    14.00700     N ( 1.00)
        C1             4.00    12.01100     C ( 1.00)

     No symmetry found

   Cartesian axes

     site n.     atom                  positions (alat units)
         1           Ti1 tau(   1) = (   0.0004258   2.9801865   6.0000000  )
         2           Ti1 tau(   2) = (   3.2906075   1.4906267   6.0002472  )
         3           O1  tau(   3) = (   0.0006271   0.0005054   7.9858123  )
         4           O1  tau(   4) = (   3.2906025   0.0005020   7.3038282  )
         5           O1  tau(   5) = (   4.5942328   1.4918067   9.2879030  )
         6           O1  tau(   6) = (   1.9868534   1.4903216   9.2879459  )
         7           Ti1 tau(   7) = (   3.2907910   2.8959150   9.1758416  )
         8           Ti1 tau(   8) = (   0.0015273   1.4827037   9.2680791  )
         9           O1  tau(   9) = (   3.2889285   5.9572048  11.3040972  )
        10           O1  tau(  10) = (   0.0116148   5.9584955  10.6183126  )
        11           O1  tau(  11) = (   1.3189323   1.4942761  12.6130295  )
        12           O1  tau(  12) = (   5.2997964   1.4884099  12.6250597  )
        13           Ti1 tau(  13) = (   6.4939836   2.9824287  12.7561987  )
        14           Ti1 tau(  14) = (   3.1682086   1.4887373  12.4699270  )
        15           O1  tau(  15) = (   0.0224291   5.9581829  14.5926458  )
        16           O1  tau(  16) = (   3.2893302   5.9536121  13.8847677  )
        17           O1  tau(  17) = (   4.5439212   1.4834749  16.0328965  )
        18           O1  tau(  18) = (   2.0755535   1.4836234  16.0228809  )
        19           Ti1 tau(  19) = (   3.3005686   2.9659170  15.6894391  )
        20           Ti1 tau(  20) = (   6.5401575   1.4426905  16.0647633  )
        21           O1  tau(  21) = (   3.2904802   0.0005063   4.7018136  )
        22           O1  tau(  22) = (   0.0258419   5.9532685  17.1653534  )
        23           O1  tau(  23) = (   1.3043587   1.4918075   6.0039043  )
        24           O1  tau(  24) = (   5.2767064   1.4903225   6.0039473  )
        25           Ti1 tau(  25) = (   0.0000382   5.9609847   6.0000000  )
        26           Ti1 tau(  26) = (   3.2902200   4.4714249   6.0002472  )
        27           O1  tau(  27) = (   0.0002396   2.9813036   7.9858123  )
        28           O1  tau(  28) = (   3.2902150   2.9813002   7.3038282  )
        29           O1  tau(  29) = (   4.5938453   4.4726049   9.2879030  )
        30           O1  tau(  30) = (   1.9864658   4.4711199   9.2879459  )
        31           Ti1 tau(  31) = (   3.2891106   5.8743827   9.1763621  )
        32           Ti1 tau(  32) = (   0.0006254   4.4649316   9.2693709  )
        33           O1  tau(  33) = (   3.2925136   2.9767646  11.3039470  )
        34           O1  tau(  34) = (   0.0092240   2.9805883  10.6323155  )
        35           O1  tau(  35) = (   1.3189435   4.4587261  12.6131553  )
        36           O1  tau(  36) = (   5.2992261   4.4686972  12.6254714  )
        37           Ti1 tau(  37) = (   6.4933837   0.0018553  12.7120694  )
        38           Ti1 tau(  38) = (   3.1687038   4.4682667  12.4696446  )
        39           O1  tau(  39) = (   6.5575253   2.9777116  14.6451287  )
        40           O1  tau(  40) = (   3.3026008   2.9720648  13.8804781  )
        41           O1  tau(  41) = (   4.5428380   4.4591099  16.0310608  )
        42           O1  tau(  42) = (   2.0745367   4.4570417  16.0198975  )
        43           Ti1 tau(  43) = (   3.2480854   5.9464808  15.6958456  )
        44           Ti1 tau(  44) = (   6.5385164   4.5051388  16.0519081  )
        45           O1  tau(  45) = (   3.2900926   2.9813045   4.7018136  )
        46           O1  tau(  46) = (   1.3039711   4.4726057   6.0039043  )
        47           O1  tau(  47) = (   5.2763189   4.4711207   6.0039473  )
        48           N1  tau(  48) = (   0.6627575   2.9932433  18.4779999  )
        49           C1  tau(  49) = (   1.2395031   3.0150465  19.5213309  )
        50           N1  tau(  50) = (   0.0963922   2.9673862  17.3183823  )

     number of k points=    10  Fermi-Dirac smearing, width (Ry)=  0.0073
                       cart. coord. in units 2pi/alat
        k(    1) = (   0.0000000   0.0000000   0.0000000), wk =   0.1250000
        k(    2) = (   0.0000000   0.0419351   0.0000000), wk =   0.2500000
        k(    3) = (   0.0000000  -0.0838702   0.0000000), wk =   0.1250000
        k(    4) = (   0.0379955   0.0000049   0.0000000), wk =   0.2500000
        k(    5) = (   0.0379955   0.0419400   0.0000000), wk =   0.2500000
        k(    6) = (   0.0379955  -0.0838652   0.0000000), wk =   0.2500000
        k(    7) = (   0.0379955  -0.0419301   0.0000000), wk =   0.2500000
        k(    8) = (  -0.0759910  -0.0000099   0.0000000), wk =   0.1250000
        k(    9) = (  -0.0759910   0.0419252   0.0000000), wk =   0.2500000
        k(   10) = (  -0.0759910  -0.0838800   0.0000000), wk =   0.1250000

     Initial potential from superposition of free atoms

     starting charge  375.99919, renormalised to  392.00000

     negative rho (up, down):  1.742E-02 0.000E+00

     %%%%%%%%%%%%%%%%%%%%%%%%%%%%%%%%%%%%%%%%%%%%%%%%%%%%%%%%%%%%%%%%%%%%%%%%
     %                                                                      %
     % You are using vdW-DF, which was implemented by the Thonhauser group. %
     % Please cite the following two papers that made this development      %
     % possible and the two reviews that describe the various versions:     %
     %                                                                      %
     %   T. Thonhauser et al., PRL 115, 136402 (2015).                      %
     %   T. Thonhauser et al., PRB 76, 125112 (2007).                       %
     %   K. Berland et al., Rep. Prog. Phys. 78, 066501 (2015).             %
     %   D.C. Langreth et al., J. Phys.: Condens. Matter 21, 084203 (2009). %
     %                                                                      %
     %                                                                      %
     % If you are calculating the stress with vdW-DF, please also cite:     %
     %                                                                      %
     %   R. Sabatini et al., J. Phys.: Condens. Matter 24, 424209 (2012).   %
     %                                                                      %
     %%%%%%%%%%%%%%%%%%%%%%%%%%%%%%%%%%%%%%%%%%%%%%%%%%%%%%%%%%%%%%%%%%%%%%%%

     Adding external electric field

     Computed dipole along edir(3) :
        Dipole               -6.0010 Ry au,        -15.2530 Debye
        Dipole field         -0.0113 Ry au,

        Potential amp.        1.0498 Ry
        Total length         46.3494 bohr

     Starting wfcs are  296 atomic wfcs
  @ DRIVER MODE: Message from server: STATUS
  @ DRIVER MODE: Message from server: POSDATA
  @ DRIVER MODE: Reading and sharing cell
  @ DRIVER MODE: Reading and sharing positions
  @ DRIVER MODE: Received positions

     Self-consistent Calculation

     iteration #  1     ecut=    29.40 Ry     beta= 0.05
     Davidson diagonalization with overlap
     c_bands:  3 eigenvalues not converged
     c_bands:  1 eigenvalues not converged
     c_bands:  3 eigenvalues not converged
     c_bands:  1 eigenvalues not converged
     c_bands:  1 eigenvalues not converged
     c_bands:  4 eigenvalues not converged
     ethr =  1.00E-05,  avg # of iterations = 19.5

[...]

     total energy              =   -2797.80930674 Ry
     estimated scf accuracy    <    1529.04698907 Ry

[...]

     iteration #  3     ecut=    29.40 Ry     beta= 0.05
     Davidson diagonalization with overlap
     ethr =  1.00E-02,  avg # of iterations = 14.7

[...]

     iteration # 50     ecut=    29.40 Ry     beta= 0.05
     Davidson diagonalization with overlap
     c_bands:  1 eigenvalues not converged
     ethr =  4.08E-08,  avg # of iterations =  8.0

[...]

     total energy              =   -2935.33680657 Ry
     estimated scf accuracy    <       0.00000023 Ry

     iteration # 72     ecut=    29.40 Ry     beta= 0.05
     Davidson diagonalization with overlap
     ethr =  5.69E-11,  avg # of iterations =  6.6

     negative rho (up, down):  1.699E-02 0.000E+00

     Adding external electric field

     Computed dipole along edir(3) :
        Dipole               -0.7933 Ry au,         -2.0164 Debye
        Dipole field         -0.0015 Ry au,

        Potential amp.        0.1388 Ry
        Total length         46.3494 bohr

     End of self-consistent calculation

          k = 0.0000 0.0000 0.0000 ( 18029 PWs)   bands (ev):

   -57.3078 -57.2741 -56.6504 -56.6163 -56.6129 -56.5793 -56.5568 -56.5214
   -56.3494 -56.3145 -56.2749 -56.2348 -56.0596 -56.0256 -55.8333 -55.7774
   -33.7477 -33.5926 -33.5645 -33.4750 -33.3829 -33.3725 -33.1156 -33.0978
   -33.0961 -32.9194 -32.8775 -32.8642 -32.8208 -32.8181 -32.8163 -32.8156
   -32.7870 -32.7789 -32.7765 -32.7714 -32.7628 -32.7497 -32.7371 -32.7205
   -32.7199 -32.6896 -32.6869 -32.6662 -32.5855 -32.5208 -32.4898 -32.4568
   -32.4525 -32.4485 -32.4231 -32.4176 -32.3924 -32.3911 -32.3686 -32.3645
   -32.2746 -32.1899 -32.0789 -32.0630 -32.0512 -32.0306 -31.9880 -31.8902
   -17.9184 -17.5494 -17.2537 -17.0222 -16.7797 -16.7168 -16.6663 -16.6421
   -16.5956 -16.5332 -16.5170 -16.4509 -16.3469 -16.3092 -16.2251 -16.1275
   -16.1192 -16.0826 -16.0163 -15.9161 -15.9114 -15.9090 -15.8487 -15.8410
   -15.7074 -15.6553 -15.5280 -15.5196 -15.4168 -15.1903 -14.5589 -14.4469
   -12.8896  -5.8777  -5.0877  -4.7482  -4.5464  -4.4507  -4.3298  -4.2838
    -4.2355  -4.0184  -3.9447  -3.9435  -3.8823  -3.8237  -3.6750  -3.6736
    -3.6239  -3.6029  -3.5691  -3.5186  -3.5062  -3.4735  -3.4725  -3.2917
    -3.2369  -3.2253  -3.2200  -3.2072  -3.1033  -3.0439  -3.0347  -3.0225
    -3.0080  -2.9786  -2.8525  -2.8103  -2.7679  -2.7525  -2.7434  -2.5958
    -2.5932  -2.5922  -2.4825  -2.4744  -2.3923  -2.3077  -2.1927  -2.1326
    -2.0876  -2.0528  -2.0292  -1.8812  -1.8489  -1.7964  -1.7344  -1.6926
    -1.6271  -1.6062  -1.5761  -1.5553  -1.5005  -1.4117  -1.3571  -1.3125
    -1.2551  -1.2405  -1.1074  -1.0961  -1.0818  -1.0668  -1.0088  -0.9490
    -0.9185  -0.8756  -0.8708  -0.8494  -0.7476  -0.6408  -0.6261  -0.5750
    -0.4628  -0.4519  -0.3868  -0.3452  -0.2555  -0.2178  -0.1447  -0.0902
    -0.0383  -0.0376   0.0053   0.1195   0.1714   0.1908   0.5182   0.5588
     0.6554   0.8641   1.2628   1.7044   1.9432   2.0796   2.3878   2.4319
     2.5410   2.8657   2.8742   2.9355   2.9866   3.0007

[...]

          k = 0.0380-0.0419 0.0000 ( 17876 PWs)   bands (ev):

[...]

          k =-0.0760-0.0000 0.0000 ( 17886 PWs)   bands (ev):

[...]

          k =-0.0760-0.0839 0.0000 ( 17948 PWs)   bands (ev):

   -57.2909 -57.2908 -56.6358 -56.6305 -56.5969 -56.5955 -56.5399 -56.5381
   -56.3326 -56.3312 -56.2650 -56.2447 -56.0426 -56.0425 -55.8271 -55.7834
   -33.5784 -33.5781 -33.5640 -33.5640 -33.4273 -33.4271 -32.9398 -32.9343
   -32.9291 -32.9268 -32.9072 -32.9060 -32.8349 -32.8326 -32.8252 -32.8192
   -32.8176 -32.8148 -32.8086 -32.8076 -32.7866 -32.7849 -32.7464 -32.7440
   -32.6767 -32.6751 -32.6177 -32.6160 -32.5936 -32.5757 -32.5393 -32.5295
   -32.4980 -32.4843 -32.4375 -32.4263 -32.3816 -32.3815 -32.2715 -32.2713
   -32.2600 -32.2324 -32.2323 -32.1112 -32.0439 -32.0165 -32.0007 -31.9728
   -17.9082 -16.9107 -16.9067 -16.8549 -16.8544 -16.6890 -16.6851 -16.6184
   -16.6140 -16.5008 -16.4911 -16.2882 -16.2771 -16.2713 -16.2701 -16.1767
   -16.1581 -16.1549 -16.1467 -16.0487 -16.0395 -15.9959 -15.9952 -15.9796
   -15.9343 -15.6784 -15.6086 -15.5460 -15.4362 -15.4019 -14.5500 -14.5499
   -12.8940  -5.7979  -4.0452  -4.0397  -3.9941  -3.9853  -3.9059  -3.9010
    -3.7621  -3.7586  -3.7187  -3.7140  -3.6077  -3.5797  -3.5735  -3.5711
    -3.4896  -3.4562  -3.4505  -3.4207  -3.4076  -3.3930  -3.3452  -3.3390
    -3.3044  -3.2992  -3.2222  -3.2191  -3.1725  -3.1687  -3.1276  -3.1005
    -3.0524  -2.9712  -2.9426  -2.9403  -2.9246  -2.8752  -2.8438  -2.6575
    -2.6511  -2.6260  -2.5339  -2.5288  -2.4573  -2.3590  -2.3488  -2.2980
    -2.2253  -2.2115  -2.0603  -2.0548  -2.0354  -2.0249  -1.9966  -1.9113
    -1.8709  -1.8164  -1.7242  -1.6894  -1.6506  -1.6224  -1.5995  -1.5887
    -1.5701  -1.5581  -1.4219  -1.4173  -1.3633  -1.3371  -1.2943  -1.2686
    -1.1559  -1.1233  -1.0231  -0.9140  -0.9030  -0.8778  -0.8667  -0.7516
    -0.6555  -0.6466  -0.4435  -0.3735  -0.2827  -0.2434  -0.2250  -0.0904
    -0.0755  -0.0370  -0.0246   0.1780   0.2350   0.3563   0.3610   0.3723
     0.3728   0.8768   1.2504   1.6481   2.4930   2.4935   2.5495   2.5497
     2.8518   2.8552   2.9244   2.9401   2.9868   2.9875

     the Fermi energy is     1.8559 ev

!    total energy              =   -2935.33682352 Ry
     estimated scf accuracy    <       0.00000005 Ry
     smearing contrib. (-TS)   =      -0.00931065 Ry
     internal energy E=F+TS    =   -2935.32751287 Ry

     The total energy is F=E-TS. E is the sum of the following terms:
     one-electron contribution =  -24516.11112467 Ry
     hartree contribution      =   12336.09649291 Ry
     xc contribution           =    -482.59086244 Ry
     ewald contribution        =    9727.27679361 Ry
     electric field correction =       0.00118772 Ry

     convergence has been achieved in  72 iterations

     Forces acting on atoms (cartesian axes, Ry/au):

     atom    1 type  1   force =     0.00005383   -0.00040922    0.11611831
     atom    2 type  1   force =    -0.00008345   -0.00058471   -0.16486291
     atom    3 type  2   force =     0.00017865   -0.00005880   -0.05568195
     atom    4 type  2   force =    -0.00003900   -0.00057573    0.03446409
     atom    5 type  2   force =    -0.01582203    0.00098838   -0.00641700
     atom    6 type  2   force =     0.01750610    0.00172596   -0.00686297
     atom    7 type  1   force =     0.00078115   -0.00314205    0.01350990
     atom    8 type  1   force =    -0.00039129    0.00376079    0.09566633
     atom    9 type  2   force =    -0.00004387    0.00005661    0.00002945
     atom   10 type  2   force =    -0.00227748    0.00157712   -0.05972950
     atom   11 type  2   force =    -0.00020290   -0.00015589    0.00008920
     atom   12 type  2   force =     0.00006837   -0.00053729    0.00002070
     atom   13 type  1   force =    -0.00023689   -0.00012640    0.00062375
     atom   14 type  1   force =     0.00009554   -0.00046026    0.00009823
     atom   15 type  2   force =    -0.00029684   -0.00142718   -0.00029101
     atom   16 type  2   force =     0.00016583    0.00012264   -0.00042593
     atom   17 type  2   force =    -0.00021808    0.00001789   -0.00016681
     atom   18 type  2   force =     0.00028689   -0.00018968   -0.00059251
     atom   19 type  1   force =    -0.00033546   -0.00061261    0.00060650
     atom   20 type  1   force =     0.00007765    0.00053375   -0.00139455
     atom   21 type  2   force =     0.00005573    0.00001218    0.10063091
     atom   22 type  2   force =    -0.00005078   -0.00178778   -0.00059701
     atom   23 type  2   force =    -0.07670031   -0.00002999   -0.03125314
     atom   24 type  2   force =     0.07656177    0.00038832   -0.03126594
     atom   25 type  1   force =     0.00008651   -0.00041638    0.11590730
     atom   26 type  1   force =    -0.00009468   -0.00033900   -0.16484690
     atom   27 type  2   force =     0.00034233   -0.00031877   -0.05458908
     atom   28 type  2   force =    -0.00001934   -0.00040104    0.03442659
     atom   29 type  2   force =    -0.01624685    0.00135015   -0.00650929
     atom   30 type  2   force =     0.01782601    0.00154196   -0.00699774
     atom   31 type  1   force =     0.00067980   -0.00039377    0.01277871
     atom   32 type  1   force =    -0.00027580   -0.00631808    0.09629859
     atom   33 type  2   force =    -0.00018143   -0.00013233   -0.00064954
     atom   34 type  2   force =    -0.00267730    0.00109236   -0.06842007
     atom   35 type  2   force =    -0.00012727    0.00031998    0.00019683
     atom   36 type  2   force =    -0.00001206    0.00035552    0.00008482
     atom   37 type  1   force =    -0.00007005   -0.00025028   -0.00005530
     atom   38 type  1   force =    -0.00016175   -0.00017767    0.00029387
     atom   39 type  2   force =    -0.00009027    0.00005135   -0.00005537
     atom   40 type  2   force =    -0.00007652    0.00012747   -0.00023746
     atom   41 type  2   force =     0.00101073    0.00017029    0.00033347
     atom   42 type  2   force =    -0.00069376    0.00023022   -0.00011156
     atom   43 type  1   force =    -0.00007009    0.00110952    0.00086010
     atom   44 type  1   force =     0.00044336   -0.00031348    0.00104023
     atom   45 type  2   force =     0.00005792   -0.00000119    0.10062031
     atom   46 type  2   force =    -0.07670676    0.00000471   -0.03122863
     atom   47 type  2   force =     0.07654960    0.00044244   -0.03125566
     atom   48 type  3   force =     0.00051374   -0.00089976    0.00009121
     atom   49 type  4   force =     0.00055533    0.00015787   -0.00051839
     atom   50 type  3   force =     0.00030545    0.00392187    0.00022682

     Total force =     0.407229     Total SCF correction =     0.000590
  @ DRIVER MODE: Message from server: STATUS
  @ DRIVER MODE: Message from server: GETFORCE
  @ DRIVER MODE: Returning v,forces,stress,ensemble

     Writing output data file ./calc.save/
  @ DRIVER MODE: Message from server: EXIT
  @ DRIVE MODE: Exiting

     General routines

     Parallel routines

   This run was terminated on:   6:33:47   9Sep2021

   JOB DONE.