     Program PWSCF v.6.7GPU starts on 23Sep2021 at  0:35:14

     R & G space division:  proc/nbgrp/npool/nimage =      10
     Reading input from /storage/home/hcoda1/3/ntian30/research/carbon/CxH_vib/H2O_calc/ads_slab/CHNNHHHO_a/out_0025/pw.inp
Warning: card &CELL ignored
Warning: card   CELL_DYNAMICS='IPI', ignored
Warning: card / ignored

     Current dimensions of program PWSCF are:
     Max number of different atomic species (ntypx) = 10
     Max number of k-points (npk) =  40000
     Max angular momentum in pseudopotentials (lmaxx) =  3
     Presently no symmetry can be used with electric field

     Message from routine cell_base_init:
     DEPRECATED: use true lattice parameter, not A to a.u. conversion factor

     IMPORTANT: XC functional enforced from input :
     Exchange-correlation= BEEF-VDW
                           (   1   4  43  14   2   0   0)
     Any further DFT definition will be discarded
     Please, verify this is what you really want

  @ DRIVER MODE: Connecting to
 qe_1139763_2937315.sched-torque.pace.gatech.eduvi0h_6yf_scratch
  using UNIX socket
  @ DRIVER MODE: Message from server: STATUS
  @ DRIVER MODE: Message from server: INIT
  @ DRIVER MODE: Receiving replica           0          -1
  @ DRIVER MODE: Receiving encoded integer          25
  @ DRIVER MODE:  SCF:  T  FORCE:  T  STRESS:  F  VC:  F  ENSEMBLE:  F
  @ DRIVER MODE:  SCF:  T  FORCE:  T  STRESS:  F  VC:  F  ENSEMBLE:  F

     Using Slab Decomposition

     bravais-lattice index     =            0
     lattice parameter (alat)  =       1.8897  a.u.
     unit-cell volume          =    6658.9804 (a.u.)^3
     number of atoms/cell      =           55
     number of atomic types    =            5
     number of electrons       =       402.00
     number of Kohn-Sham states=          211
     kinetic-energy cutoff     =      29.3995  Ry
     charge density cutoff     =     293.9946  Ry
     scf convergence threshold =      7.3E-08
     mixing beta               =       0.0500
     number of iterations used =            8  plain     mixing
     Exchange-correlation= BEEF-VDW
                           (   1   4  43  14   2   0   0)

     celldm(1)=   1.889726  celldm(2)=   0.000000  celldm(3)=   0.000000
     celldm(4)=   0.000000  celldm(5)=   0.000000  celldm(6)=   0.000000

     crystal axes: (cart. coord. in units of alat)
               a(1) = (   6.579727   0.000000   0.000000 )
               a(2) = (  -0.000775   5.961596   0.000000 )
               a(3) = (   0.000000   0.000000  25.155947 )

     reciprocal axes: (cart. coord. in units 2 pi/alat)
               b(1) = (  0.151982  0.000020  0.000000 )
               b(2) = (  0.000000  0.167740  0.000000 )
               b(3) = (  0.000000  0.000000  0.039752 )

     PseudoPot. # 1 for Ti read from file:
     /storage/coda1/p-amedford6/0/shared/rich_project_chbe-medford/medford-share/data/pseudos_module/espresso/nninc/pbe/van/Ti.UPF
     MD5 check sum: 8e4df49b7f0d34bbd5052bf3f5ea0213
     Pseudo is Ultrasoft, Zval = 12.0
     Generated by new atomic code, or converted to UPF format
     Using radial grid of  851 points,  6 beta functions with:
                l(1) =   0
                l(2) =   0
                l(3) =   1
                l(4) =   1
                l(5) =   2
                l(6) =   2
     Q(r) pseudized with  8 coefficients,  rinner =    1.000   1.000   1.000
                                                       1.000   1.000

     PseudoPot. # 2 for O  read from file:
     /storage/coda1/p-amedford6/0/shared/rich_project_chbe-medford/medford-share/data/pseudos_module/espresso/nninc/pbe/van/O.UPF
     MD5 check sum: 78c19812648e8988a0fe644b0f25305e
     Pseudo is Ultrasoft, Zval =  6.0
     Generated by new atomic code, or converted to UPF format
     Using radial grid of  737 points,  4 beta functions with:
                l(1) =   0
                l(2) =   0
                l(3) =   1
                l(4) =   1
     Q(r) pseudized with  8 coefficients,  rinner =    0.800   0.800   0.800

     PseudoPot. # 3 for N  read from file:
     /storage/coda1/p-amedford6/0/shared/rich_project_chbe-medford/medford-share/data/pseudos_module/espresso/nninc/pbe/van/N.UPF
     MD5 check sum: 90d10febe142ad51ac9d5be1deb811c4
     Pseudo is Ultrasoft, Zval =  5.0
     Generated by new atomic code, or converted to UPF format
     Using radial grid of  729 points,  4 beta functions with:
                l(1) =   0
                l(2) =   0
                l(3) =   1
                l(4) =   1
     Q(r) pseudized with  8 coefficients,  rinner =    0.800   0.800   0.800

     PseudoPot. # 4 for C  read from file:
     /storage/coda1/p-amedford6/0/shared/rich_project_chbe-medford/medford-share/data/pseudos_module/espresso/nninc/pbe/van/C.UPF
     MD5 check sum: 1a69bf6b8db32088f5b2163dbdb77a27
     Pseudo is Ultrasoft, Zval =  4.0
     Generated by new atomic code, or converted to UPF format
     Using radial grid of  721 points,  4 beta functions with:
                l(1) =   0
                l(2) =   0
                l(3) =   1
                l(4) =   1
     Q(r) pseudized with  8 coefficients,  rinner =    0.800   0.800   0.800

     PseudoPot. # 5 for H  read from file:
     /storage/coda1/p-amedford6/0/shared/rich_project_chbe-medford/medford-share/data/pseudos_module/espresso/nninc/pbe/van/H.UPF
     MD5 check sum: b5ee9d7bfd3a09ee7748110bda690ff7
     Pseudo is Ultrasoft, Zval =  1.0
     Generated by new atomic code, or converted to UPF format
     Using radial grid of  615 points,  1 beta functions with:
                l(1) =   0
     Q(r) pseudized with  8 coefficients,  rinner =    0.800

     atomic species   valence    mass     pseudopotential
        Ti1           12.00    47.86700     Ti( 1.00)
        O1             6.00    15.99900     O ( 1.00)
        N1             5.00    14.00700     N ( 1.00)
        C1             4.00    12.01100     C ( 1.00)
        H1             1.00     1.00800     H ( 1.00)

     No symmetry found

   Cartesian axes

     site n.     atom                  positions (alat units)
         1           Ti1 tau(   1) = (   0.0004258   2.9801865   6.0000000  )
         2           Ti1 tau(   2) = (   3.2906075   1.4906267   6.0002472  )
         3           O1  tau(   3) = (   0.0006271   0.0005054   7.9858123  )
         4           O1  tau(   4) = (   3.2906025   0.0005020   7.3038282  )
         5           O1  tau(   5) = (   4.5942328   1.4918067   9.2879030  )
         6           O1  tau(   6) = (   1.9868534   1.4903216   9.2879459  )
         7           Ti1 tau(   7) = (   3.2907910   2.8959150   9.1758416  )
         8           Ti1 tau(   8) = (   0.0015273   1.4827037   9.2680791  )
         9           O1  tau(   9) = (   3.3019041   5.9340972  11.2780832  )
        10           O1  tau(  10) = (   0.0116148   5.9584955  10.6183126  )
        11           O1  tau(  11) = (   1.2869077   1.4717189  12.6473688  )
        12           O1  tau(  12) = (   5.3188397   1.4655789  12.6430575  )
        13           Ti1 tau(  13) = (   0.0521173   3.0639968  12.7333969  )
        14           Ti1 tau(  14) = (   3.2906581   1.3001642  12.6471297  )
        15           O1  tau(  15) = (   0.0021475   5.9326859  14.6872502  )
        16           O1  tau(  16) = (   3.3040199   0.0265785  13.8678754  )
        17           O1  tau(  17) = (   4.6240569   1.6264218  16.1080407  )
        18           O1  tau(  18) = (   2.0715169   1.5429601  15.9546445  )
        19           Ti1 tau(  19) = (   3.3363059   2.9874148  15.6109769  )
        20           Ti1 tau(  20) = (   0.0492893   1.4028208  15.7974426  )
        21           O1  tau(  21) = (   3.2904802   0.0005063   4.7018136  )
        22           O1  tau(  22) = (   0.0944532   0.0627470  17.1934044  )
        23           O1  tau(  23) = (   1.3043587   1.4918075   6.0039043  )
        24           O1  tau(  24) = (   5.2767064   1.4903225   6.0039473  )
        25           Ti1 tau(  25) = (   0.0000382   5.9609847   6.0000000  )
        26           Ti1 tau(  26) = (   3.2902200   4.4714249   6.0002472  )
        27           O1  tau(  27) = (   0.0002396   2.9813036   7.9858123  )
        28           O1  tau(  28) = (   3.2902150   2.9813002   7.3038282  )
        29           O1  tau(  29) = (   4.5938453   4.4726049   9.2879030  )
        30           O1  tau(  30) = (   1.9864658   4.4711199   9.2879459  )
        31           Ti1 tau(  31) = (   3.2891106   5.8743827   9.1763621  )
        32           Ti1 tau(  32) = (   0.0006254   4.4649316   9.2693709  )
        33           O1  tau(  33) = (   3.3033179   3.0104581  11.2528581  )
        34           O1  tau(  34) = (   0.0092240   2.9805883  10.6323155  )
        35           O1  tau(  35) = (   1.3074756   4.4469578  12.6382572  )
        36           O1  tau(  36) = (   5.3202433   4.4545580  12.6357595  )
        37           Ti1 tau(  37) = (   6.5572640   0.0741000  12.5519234  )
        38           Ti1 tau(  38) = (   3.3179412   4.3950854  12.4030220  )
        39           O1  tau(  39) = (   0.0383827   2.9948909  14.7437145  )
        40           O1  tau(  40) = (   3.3238341   2.9662938  13.8354460  )
        41           O1  tau(  41) = (   4.5722604   4.5101538  15.9256862  )
        42           O1  tau(  42) = (   2.0839069   4.4665637  16.0501180  )
        43           Ti1 tau(  43) = (   3.2507700   5.9423238  16.2547716  )
        44           Ti1 tau(  44) = (   6.5063516   4.5631136  16.2071476  )
        45           O1  tau(  45) = (   3.2900926   2.9813045   4.7018136  )
        46           O1  tau(  46) = (   1.3039711   4.4726057   6.0039043  )
        47           O1  tau(  47) = (   5.2763189   4.4711207   6.0039473  )
        48           N1  tau(  48) = (   0.4124544   2.9287237  17.8391456  )
        49           C1  tau(  49) = (   1.3780350   3.0145335  18.6736463  )
        50           H1  tau(  50) = (   2.3027514   2.5668077  18.2879847  )
        51           N1  tau(  51) = (   5.7762606   3.6115528  18.1636368  )
        52           H1  tau(  52) = (   5.8437390   4.1179332  19.0469945  )
        53           H1  tau(  53) = (   5.0130290   2.9392956  18.1702355  )
        54           O1  tau(  54) = (   3.2882145   0.0116813  18.0866318  )
        55           H1  tau(  55) = (   2.5950809   5.5738040  18.6371346  )

     number of k points=    10  Fermi-Dirac smearing, width (Ry)=  0.0073
                       cart. coord. in units 2pi/alat
        k(    1) = (   0.0000000   0.0000000   0.0000000), wk =   0.1250000
        k(    2) = (   0.0000000   0.0419351   0.0000000), wk =   0.2500000
        k(    3) = (   0.0000000  -0.0838702   0.0000000), wk =   0.1250000
        k(    4) = (   0.0379955   0.0000049   0.0000000), wk =   0.2500000
        k(    5) = (   0.0379955   0.0419400   0.0000000), wk =   0.2500000
        k(    6) = (   0.0379955  -0.0838652   0.0000000), wk =   0.2500000
        k(    7) = (   0.0379955  -0.0419301   0.0000000), wk =   0.2500000
        k(    8) = (  -0.0759910  -0.0000099   0.0000000), wk =   0.1250000
        k(    9) = (  -0.0759910   0.0419252   0.0000000), wk =   0.2500000
        k(   10) = (  -0.0759910  -0.0838800   0.0000000), wk =   0.1250000

     Initial potential from superposition of free atoms

     starting charge  385.99915, renormalised to  402.00000

     negative rho (up, down):  1.703E-02 0.000E+00

     %%%%%%%%%%%%%%%%%%%%%%%%%%%%%%%%%%%%%%%%%%%%%%%%%%%%%%%%%%%%%%%%%%%%%%%%
     %                                                                      %
     % You are using vdW-DF, which was implemented by the Thonhauser group. %
     % Please cite the following two papers that made this development      %
     % possible and the two reviews that describe the various versions:     %
     %                                                                      %
     %   T. Thonhauser et al., PRL 115, 136402 (2015).                      %
     %   T. Thonhauser et al., PRB 76, 125112 (2007).                       %
     %   K. Berland et al., Rep. Prog. Phys. 78, 066501 (2015).             %
     %   D.C. Langreth et al., J. Phys.: Condens. Matter 21, 084203 (2009). %
     %                                                                      %
     %                                                                      %
     % If you are calculating the stress with vdW-DF, please also cite:     %
     %                                                                      %
     %   R. Sabatini et al., J. Phys.: Condens. Matter 24, 424209 (2012).   %
     %                                                                      %
     %%%%%%%%%%%%%%%%%%%%%%%%%%%%%%%%%%%%%%%%%%%%%%%%%%%%%%%%%%%%%%%%%%%%%%%%

     Adding external electric field

     Computed dipole along edir(3) :
        Dipole              -11.1544 Ry au,        -28.3516 Debye
        Dipole field         -0.0210 Ry au,

        Potential amp.        1.9513 Ry
        Total length         46.3494 bohr

     Starting wfcs are  304 atomic wfcs
  @ DRIVER MODE: Message from server: STATUS
  @ DRIVER MODE: Message from server: POSDATA
  @ DRIVER MODE: Reading and sharing cell
  @ DRIVER MODE: Reading and sharing positions
  @ DRIVER MODE: Received positions

     Self-consistent Calculation

     iteration #  1     ecut=    29.40 Ry     beta= 0.05
     Davidson diagonalization with overlap
     c_bands:  2 eigenvalues not converged
     c_bands:  3 eigenvalues not converged
     c_bands:  1 eigenvalues not converged
     c_bands:  5 eigenvalues not converged
     c_bands:  1 eigenvalues not converged
     c_bands:  1 eigenvalues not converged
     c_bands:  5 eigenvalues not converged
     c_bands:  3 eigenvalues not converged
     ethr =  1.00E-05,  avg # of iterations = 27.6

[...]

     total energy              =   -2400.31995579 Ry
     estimated scf accuracy    <    6416.15435453 Ry

     iteration #  2     ecut=    29.40 Ry     beta= 0.05
     Davidson diagonalization with overlap
     ethr =  1.00E-02,  avg # of iterations = 23.2

[...]

     iteration # 81     ecut=    29.40 Ry     beta= 0.05
     Davidson diagonalization with overlap
     c_bands:  1 eigenvalues not converged
     ethr =  6.28E-10,  avg # of iterations =  6.7

[...]

     total energy              =   -2972.60996473 Ry
     estimated scf accuracy    <       0.00000008 Ry

     iteration # 87     ecut=    29.40 Ry     beta= 0.05
     Davidson diagonalization with overlap
     ethr =  1.87E-11,  avg # of iterations =  5.8

     negative rho (up, down):  1.638E-02 0.000E+00

     Adding external electric field

     Computed dipole along edir(3) :
        Dipole                0.2216 Ry au,          0.5634 Debye
        Dipole field          0.0004 Ry au,

        Potential amp.       -0.0388 Ry
        Total length         46.3494 bohr

     End of self-consistent calculation

          k = 0.0000 0.0000 0.0000 ( 18029 PWs)   bands (ev):

   -56.4662 -56.4325 -56.0096 -55.9737 -55.7580 -55.7035 -55.6451 -55.6368
   -55.6034 -55.5142 -55.5056 -55.4499 -55.4066 -55.2820 -55.2105 -55.1765
   -32.9127 -32.7575 -32.7302 -32.6261 -32.5372 -32.5338 -32.4911 -32.2413
   -32.2272 -32.2053 -32.1585 -32.1535 -32.1276 -32.1081 -32.0254 -32.0116
   -31.9926 -31.9793 -31.9613 -31.9230 -31.9179 -31.9092 -31.9060 -31.8833
   -31.8645 -31.8625 -31.8587 -31.8053 -31.7891 -31.7690 -31.7462 -31.7224
   -31.7097 -31.6946 -31.6781 -31.6728 -31.6443 -31.6056 -31.5960 -31.5769
   -31.5469 -31.5455 -31.5217 -31.5135 -31.4902 -31.4247 -31.3404 -31.2283
   -17.9052 -16.7380 -16.4748 -16.4018 -16.2028 -16.0126 -15.9193 -15.9037
   -15.8843 -15.7640 -15.7631 -15.6121 -15.5317 -15.4762 -15.4139 -15.4026
   -15.3335 -15.3165 -15.2531 -15.2256 -15.2127 -15.1874 -15.1381 -15.0762
   -15.0655 -15.0390 -14.8521 -14.8275 -14.8119 -14.6272 -14.5338 -13.7080
   -13.5964 -13.2213  -7.8524  -6.1565  -4.2580  -4.2532  -4.1369  -3.9332
    -3.7342  -3.6725  -3.5776  -3.4339  -3.4035  -3.1611  -3.1459  -3.1041
    -3.0156  -2.9913  -2.9612  -2.9010  -2.8427  -2.8229  -2.7628  -2.6854
    -2.6828  -2.6730  -2.6416  -2.6187  -2.5151  -2.4747  -2.4130  -2.3736
    -2.3477  -2.3372  -2.2976  -2.2428  -2.2152  -2.1629  -2.1450  -2.0644
    -2.0359  -1.9473  -1.8874  -1.8696  -1.8161  -1.7584  -1.7537  -1.6985
    -1.5671  -1.4570  -1.3902  -1.3490  -1.2945  -1.2390  -1.2093  -1.1542
    -1.0893  -1.0661  -1.0430  -1.0058  -0.9450  -0.9163  -0.8693  -0.8152
    -0.7387  -0.6721  -0.6256  -0.6048  -0.4990  -0.4339  -0.3959  -0.3796
    -0.3431  -0.2897  -0.2336  -0.1939  -0.1835  -0.1608  -0.1001   0.0239
     0.0343   0.0934   0.1485   0.1818   0.1944   0.2099   0.2718   0.3389
     0.4129   0.4560   0.4687   0.5264   0.5909   0.6295   0.7441   0.8139
     0.8386   0.8810   0.9568   1.0320   1.0485   1.3550   1.3684   1.3976
     2.5158   2.7689   2.8997   3.0790   3.1999   3.3348   3.6536   3.6705
     3.6822   3.7032   3.7942

[...]

          k = 0.0380-0.0419 0.0000 ( 17876 PWs)   bands (ev):

[...]

          k =-0.0760-0.0000 0.0000 ( 17886 PWs)   bands (ev):

[...]

          k =-0.0760-0.0839 0.0000 ( 17948 PWs)   bands (ev):

   -56.4495 -56.4491 -55.9979 -55.9852 -55.7521 -55.7094 -55.6365 -55.6353
   -55.6119 -55.5120 -55.5071 -55.4482 -55.4086 -55.2836 -55.1940 -55.1928
   -32.7433 -32.7428 -32.7290 -32.7288 -32.5787 -32.5778 -32.3199 -32.3089
   -32.1898 -32.1836 -32.1754 -32.1737 -32.0599 -32.0274 -31.9810 -31.9739
   -31.9610 -31.9559 -31.9477 -31.9389 -31.9358 -31.9279 -31.9077 -31.8707
   -31.8625 -31.8569 -31.8541 -31.8396 -31.8202 -31.7957 -31.7816 -31.7720
   -31.7258 -31.7085 -31.7006 -31.6817 -31.6501 -31.6319 -31.6296 -31.6003
   -31.5492 -31.5351 -31.5342 -31.4942 -31.4213 -31.4200 -31.3831 -31.3822
   -17.8958 -16.4556 -16.1437 -16.1328 -16.0151 -16.0095 -15.8573 -15.8370
   -15.8189 -15.7453 -15.6810 -15.6597 -15.5120 -15.4993 -15.4630 -15.4275
   -15.3994 -15.3619 -15.3575 -15.3338 -15.3011 -15.2357 -15.2142 -15.1892
   -15.1789 -15.1020 -14.9226 -14.8996 -14.8965 -14.8218 -14.6833 -13.7000
   -13.6991 -13.2325  -7.8169  -6.0858  -4.3769  -4.0831  -3.3143  -3.2504
    -3.1754  -3.1418  -3.1305  -3.0565  -3.0412  -2.9262  -2.8977  -2.8588
    -2.8325  -2.8221  -2.8021  -2.7512  -2.7291  -2.6839  -2.6674  -2.6659
    -2.6341  -2.5939  -2.5740  -2.5508  -2.5399  -2.4701  -2.4404  -2.3975
    -2.3805  -2.3688  -2.3217  -2.2609  -2.2417  -2.1865  -2.1743  -2.1413
    -2.1045  -2.0445  -2.0051  -1.9629  -1.8650  -1.8447  -1.7755  -1.6580
    -1.6370  -1.5531  -1.5247  -1.5032  -1.4811  -1.4034  -1.3714  -1.3379
    -1.2502  -1.2235  -1.2155  -1.1893  -1.1562  -1.1320  -1.0742  -1.0127
    -0.9171  -0.8533  -0.8419  -0.8227  -0.7838  -0.7572  -0.7165  -0.6242
    -0.6031  -0.5678  -0.5578  -0.5163  -0.4039  -0.3778  -0.2280  -0.1908
    -0.1012  -0.0738  -0.0543  -0.0131   0.1085   0.1362   0.1867   0.2070
     0.2662   0.3112   0.3611   0.4519   0.5538   0.5662   0.6975   0.7247
     0.7451   0.8185   0.9506   0.9928   1.2082   1.2129   1.2144   1.2166
     2.4954   3.3216   3.3240   3.3572   3.3696   3.5727   3.5929   3.7186
     3.8030   3.8111   3.8317

     the Fermi energy is     2.6955 ev

!    total energy              =   -2972.60997011 Ry
     estimated scf accuracy    <       0.00000004 Ry
     smearing contrib. (-TS)   =      -0.01175296 Ry
     internal energy E=F+TS    =   -2972.59821715 Ry

     The total energy is F=E-TS. E is the sum of the following terms:
     one-electron contribution =  -24036.57813453 Ry
     hartree contribution      =   12109.68730020 Ry
     xc contribution           =    -493.07652947 Ry
     ewald contribution        =    9447.36905395 Ry
     electric field correction =       0.00009270 Ry

     convergence has been achieved in  87 iterations

     Forces acting on atoms (cartesian axes, Ry/au):

     atom    1 type  1   force =    -0.00003638   -0.00046202    0.10839428
     atom    2 type  1   force =     0.00001964    0.00008398   -0.16406356
     atom    3 type  2   force =     0.00013324    0.00046811   -0.04117937
     atom    4 type  2   force =     0.00009472   -0.00056698    0.03215434
     atom    5 type  2   force =    -0.00380376   -0.00332893   -0.00775946
     atom    6 type  2   force =     0.00586539   -0.00273706   -0.00758437
     atom    7 type  1   force =     0.00017163   -0.00552138    0.03629151
     atom    8 type  1   force =     0.00013048    0.02544093    0.06349246
     atom    9 type  2   force =     0.00013911    0.00039858    0.00014433
     atom   10 type  2   force =    -0.00195083    0.00076140   -0.03774712
     atom   11 type  2   force =     0.00009983   -0.00015594   -0.00016150
     atom   12 type  2   force =    -0.00073619    0.00020330   -0.00016898
     atom   13 type  1   force =     0.00044947    0.00045115    0.00083279
     atom   14 type  1   force =    -0.00056468   -0.00026868    0.00014429
     atom   15 type  2   force =    -0.00012806    0.00003949    0.00082666
     atom   16 type  2   force =    -0.00012849    0.00031521   -0.00014106
     atom   17 type  2   force =    -0.00107042    0.00044888   -0.00003655
     atom   18 type  2   force =     0.00057114   -0.00006517   -0.00029939
     atom   19 type  1   force =     0.00034179   -0.00077226    0.00002767
     atom   20 type  1   force =    -0.00050528   -0.00007234   -0.00026515
     atom   21 type  2   force =     0.00009720    0.00018698    0.10008482
     atom   22 type  2   force =    -0.00011585   -0.00031354    0.00034531
     atom   23 type  2   force =    -0.07740058    0.00001495   -0.03030818
     atom   24 type  2   force =     0.07739440    0.00043267   -0.03034897
     atom   25 type  1   force =    -0.00000847   -0.00031939    0.10857691
     atom   26 type  1   force =    -0.00004112   -0.00110370   -0.16409284
     atom   27 type  2   force =     0.00011779   -0.00017796   -0.03919028
     atom   28 type  2   force =     0.00011663    0.00117983    0.02837261
     atom   29 type  2   force =    -0.00230559    0.00467917   -0.01048931
     atom   30 type  2   force =     0.00438356    0.00496074   -0.01044865
     atom   31 type  1   force =     0.00005640    0.00318561    0.01912000
     atom   32 type  1   force =     0.00036591   -0.02766375    0.06523026
     atom   33 type  2   force =    -0.00003294   -0.00078889   -0.00039944
     atom   34 type  2   force =    -0.00062624    0.00085959   -0.05564723
     atom   35 type  2   force =    -0.00035490   -0.00023457   -0.00025660
     atom   36 type  2   force =    -0.00006092   -0.00003849   -0.00018369
     atom   37 type  1   force =     0.00029884   -0.00052825    0.00007263
     atom   38 type  1   force =    -0.00037039   -0.00014376    0.00026047
     atom   39 type  2   force =    -0.00016132    0.00033715   -0.00011882
     atom   40 type  2   force =    -0.00016733   -0.00026226   -0.00029224
     atom   41 type  2   force =    -0.00033191    0.00020466   -0.00000641
     atom   42 type  2   force =    -0.00045900    0.00003167    0.00009431
     atom   43 type  1   force =     0.00030578    0.00029524   -0.00012676
     atom   44 type  1   force =    -0.00045350    0.00024232   -0.00058478
     atom   45 type  2   force =     0.00010261    0.00001379    0.09989469
     atom   46 type  2   force =    -0.07743380   -0.00001225   -0.03031862
     atom   47 type  2   force =     0.07745425    0.00041905   -0.03035646
     atom   48 type  3   force =    -0.00032672    0.00083153    0.00115492
     atom   49 type  4   force =     0.00017148   -0.00020230   -0.00059738
     atom   50 type  5   force =    -0.00023349   -0.00014530   -0.00022132
     atom   51 type  3   force =    -0.00143878   -0.00187168   -0.00113077
     atom   52 type  5   force =     0.00259452    0.00091887    0.00043376
     atom   53 type  5   force =     0.00019329    0.00035691   -0.00090784
     atom   54 type  2   force =     0.00078712    0.00066653   -0.00127784
     atom   55 type  5   force =    -0.00120930   -0.00067149    0.00076189

     Total force =     0.382839     Total SCF correction =     0.000635
  @ DRIVER MODE: Message from server: STATUS
  @ DRIVER MODE: Message from server: GETFORCE
  @ DRIVER MODE: Returning v,forces,stress,ensemble

     Writing output data file ./calc.save/
  @ DRIVER MODE: Message from server: EXIT
  @ DRIVE MODE: Exiting

     General routines

     Parallel routines

   This run was terminated on:   0:58:17  23Sep2021

   JOB DONE.