     Program PWSCF v.6.7GPU starts on 18Aug2021 at 14:28: 3

     R & G space division:  proc/nbgrp/npool/nimage =       6
     Reading input from /storage/home/hcoda1/3/ntian30/research/carbon/CH3_vib_side_on/ads_slab/CH3_a/out_0009/pw.inp
Warning: card &CELL ignored
Warning: card   CELL_DYNAMICS='IPI', ignored
Warning: card / ignored

     Current dimensions of program PWSCF are:
     Max number of different atomic species (ntypx) = 10
     Max number of k-points (npk) =  40000
     Max angular momentum in pseudopotentials (lmaxx) =  3
     Presently no symmetry can be used with electric field

     Message from routine cell_base_init:
     DEPRECATED: use true lattice parameter, not A to a.u. conversion factor

     IMPORTANT: XC functional enforced from input :
     Exchange-correlation= BEEF-VDW
                           (   1   4  43  14   2   0   0)
     Any further DFT definition will be discarded
     Please, verify this is what you really want

  @ DRIVER MODE: Connecting to
 qe_1139763_2594175.sched-torque.pace.gatech.eduxe9f5vut_scratch
  using UNIX socket
  @ DRIVER MODE: Message from server: STATUS
  @ DRIVER MODE: Message from server: INIT
  @ DRIVER MODE: Receiving replica           0          -1
  @ DRIVER MODE: Receiving encoded integer          25
  @ DRIVER MODE:  SCF:  T  FORCE:  T  STRESS:  F  VC:  F  ENSEMBLE:  F
  @ DRIVER MODE:  SCF:  T  FORCE:  T  STRESS:  F  VC:  F  ENSEMBLE:  F

     Using Slab Decomposition

     bravais-lattice index     =            0
     lattice parameter (alat)  =       1.8897  a.u.
     unit-cell volume          =    6658.9804 (a.u.)^3
     number of atoms/cell      =           51
     number of atomic types    =            4
     number of electrons       =       385.00
     number of Kohn-Sham states=          202
     kinetic-energy cutoff     =      29.3995  Ry
     charge density cutoff     =     293.9946  Ry
     scf convergence threshold =      7.3E-08
     mixing beta               =       0.0500
     number of iterations used =            8  plain     mixing
     Exchange-correlation= BEEF-VDW
                           (   1   4  43  14   2   0   0)

     celldm(1)=   1.889726  celldm(2)=   0.000000  celldm(3)=   0.000000
     celldm(4)=   0.000000  celldm(5)=   0.000000  celldm(6)=   0.000000

     crystal axes: (cart. coord. in units of alat)
               a(1) = (   6.579727   0.000000   0.000000 )
               a(2) = (  -0.000775   5.961596   0.000000 )
               a(3) = (   0.000000   0.000000  25.155947 )

     reciprocal axes: (cart. coord. in units 2 pi/alat)
               b(1) = (  0.151982  0.000020  0.000000 )
               b(2) = (  0.000000  0.167740  0.000000 )
               b(3) = (  0.000000  0.000000  0.039752 )

     PseudoPot. # 1 for Ti read from file:
     /storage/coda1/p-amedford6/0/shared/rich_project_chbe-medford/medford-share/data/pseudos_module/espresso/nninc/pbe/van/Ti.UPF
     MD5 check sum: 8e4df49b7f0d34bbd5052bf3f5ea0213
     Pseudo is Ultrasoft, Zval = 12.0
     Generated by new atomic code, or converted to UPF format
     Using radial grid of  851 points,  6 beta functions with:
                l(1) =   0
                l(2) =   0
                l(3) =   1
                l(4) =   1
                l(5) =   2
                l(6) =   2
     Q(r) pseudized with  8 coefficients,  rinner =    1.000   1.000   1.000
                                                       1.000   1.000

     PseudoPot. # 2 for O  read from file:
     /storage/coda1/p-amedford6/0/shared/rich_project_chbe-medford/medford-share/data/pseudos_module/espresso/nninc/pbe/van/O.UPF
     MD5 check sum: 78c19812648e8988a0fe644b0f25305e
     Pseudo is Ultrasoft, Zval =  6.0
     Generated by new atomic code, or converted to UPF format
     Using radial grid of  737 points,  4 beta functions with:
                l(1) =   0
                l(2) =   0
                l(3) =   1
                l(4) =   1
     Q(r) pseudized with  8 coefficients,  rinner =    0.800   0.800   0.800

     PseudoPot. # 3 for C  read from file:
     /storage/coda1/p-amedford6/0/shared/rich_project_chbe-medford/medford-share/data/pseudos_module/espresso/nninc/pbe/van/C.UPF
     MD5 check sum: 1a69bf6b8db32088f5b2163dbdb77a27
     Pseudo is Ultrasoft, Zval =  4.0
     Generated by new atomic code, or converted to UPF format
     Using radial grid of  721 points,  4 beta functions with:
                l(1) =   0
                l(2) =   0
                l(3) =   1
                l(4) =   1
     Q(r) pseudized with  8 coefficients,  rinner =    0.800   0.800   0.800

     PseudoPot. # 4 for H  read from file:
     /storage/coda1/p-amedford6/0/shared/rich_project_chbe-medford/medford-share/data/pseudos_module/espresso/nninc/pbe/van/H.UPF
     MD5 check sum: b5ee9d7bfd3a09ee7748110bda690ff7
     Pseudo is Ultrasoft, Zval =  1.0
     Generated by new atomic code, or converted to UPF format
     Using radial grid of  615 points,  1 beta functions with:
                l(1) =   0
     Q(r) pseudized with  8 coefficients,  rinner =    0.800

     atomic species   valence    mass     pseudopotential
        Ti1           12.00    47.86700     Ti( 1.00)
        O1             6.00    15.99900     O ( 1.00)
        C1             4.00    12.01100     C ( 1.00)
        H1             1.00     1.00800     H ( 1.00)

     No symmetry found

   Cartesian axes

     site n.     atom                  positions (alat units)
         1           Ti1 tau(   1) = (   0.0004258   2.9801865   6.0000000  )
         2           Ti1 tau(   2) = (   3.2906075   1.4906267   6.0002472  )
         3           O1  tau(   3) = (   0.0006271   0.0005054   7.9858123  )
         4           O1  tau(   4) = (   3.2906025   0.0005020   7.3038282  )
         5           O1  tau(   5) = (   4.5942328   1.4918067   9.2879030  )
         6           O1  tau(   6) = (   1.9868534   1.4903216   9.2879459  )
         7           Ti1 tau(   7) = (   3.3226903   2.9514341   9.1576891  )
         8           Ti1 tau(   8) = (   0.0343464   1.5915341   9.3698150  )
         9           O1  tau(   9) = (   3.2914246   5.9565917  11.3520874  )
        10           O1  tau(  10) = (   0.0056322   0.0001635  10.6062760  )
        11           O1  tau(  11) = (   1.2817320   1.4815673  12.6483243  )
        12           O1  tau(  12) = (   5.2831613   1.4908443  12.6423163  )
        13           Ti1 tau(  13) = (   0.0382653   2.9371430  12.8126397  )
        14           Ti1 tau(  14) = (   3.3532929   1.4821923  12.4951370  )
        15           O1  tau(  15) = (   6.5662424   5.9331786  14.6600200  )
        16           O1  tau(  16) = (   3.2816364   5.9551084  13.9465949  )
        17           O1  tau(  17) = (   4.5315606   1.5040344  16.0986503  )
        18           O1  tau(  18) = (   2.0287349   1.4998145  16.0995964  )
        19           Ti1 tau(  19) = (   3.2668404   2.9769305  15.7222481  )
        20           Ti1 tau(  20) = (   6.5415330   1.4777109  16.1743724  )
        21           O1  tau(  21) = (   3.2904802   0.0005063   4.7018136  )
        22           O1  tau(  22) = (   6.5659521   0.0029676  17.1944956  )
        23           O1  tau(  23) = (   1.3043587   1.4918075   6.0039043  )
        24           O1  tau(  24) = (   5.2767064   1.4903225   6.0039473  )
        25           Ti1 tau(  25) = (   0.0000382   5.9609847   6.0000000  )
        26           Ti1 tau(  26) = (   3.2902200   4.4714249   6.0002472  )
        27           O1  tau(  27) = (   0.0002396   2.9813036   7.9858123  )
        28           O1  tau(  28) = (   3.2902150   2.9813002   7.3038282  )
        29           O1  tau(  29) = (   4.5938453   4.4726049   9.2879030  )
        30           O1  tau(  30) = (   1.9864658   4.4711199   9.2879459  )
        31           Ti1 tau(  31) = (   3.3086233   5.9367107   9.1526142  )
        32           Ti1 tau(  32) = (   0.0357814   4.5182409   9.2638332  )
        33           O1  tau(  33) = (   3.2921447   2.9709340  11.3500156  )
        34           O1  tau(  34) = (   0.0064783   2.9842416  10.5732297  )
        35           O1  tau(  35) = (   1.2836142   4.4569143  12.6423601  )
        36           O1  tau(  36) = (   5.2821634   4.4598214  12.6376843  )
        37           Ti1 tau(  37) = (   0.0453433   5.9192801  12.5257453  )
        38           Ti1 tau(  38) = (   3.3504828   4.4607682  12.4868234  )
        39           O1  tau(  39) = (   0.0004961   2.9772524  14.7247240  )
        40           O1  tau(  40) = (   3.2810368   2.9729593  13.9290527  )
        41           O1  tau(  41) = (   4.5304642   4.4591278  16.0913236  )
        42           O1  tau(  42) = (   2.0231910   4.4609068  16.0933517  )
        43           Ti1 tau(  43) = (   3.2586866   5.9546939  15.7393459  )
        44           Ti1 tau(  44) = (   6.5465221   4.6060206  15.8931146  )
        45           O1  tau(  45) = (   3.2900926   2.9813045   4.7018136  )
        46           O1  tau(  46) = (   1.3039711   4.4726057   6.0039043  )
        47           O1  tau(  47) = (   5.2763189   4.4711207   6.0039473  )
        48           C1  tau(  48) = (   6.5676456   2.8990966  17.8516705  )
        49           H1  tau(  49) = (   6.5659762   3.9454521  18.1205428  )
        50           H1  tau(  50) = (   0.8773746   2.4756544  18.3284787  )
        51           H1  tau(  51) = (   5.6845275   2.4719798  18.3396978  )

     number of k points=    10  Fermi-Dirac smearing, width (Ry)=  0.0073
                       cart. coord. in units 2pi/alat
        k(    1) = (   0.0000000   0.0000000   0.0000000), wk =   0.1250000
        k(    2) = (   0.0000000   0.0419351   0.0000000), wk =   0.2500000
        k(    3) = (   0.0000000  -0.0838702   0.0000000), wk =   0.1250000
        k(    4) = (   0.0379955   0.0000049   0.0000000), wk =   0.2500000
        k(    5) = (   0.0379955   0.0419400   0.0000000), wk =   0.2500000
        k(    6) = (   0.0379955  -0.0838652   0.0000000), wk =   0.2500000
        k(    7) = (   0.0379955  -0.0419301   0.0000000), wk =   0.2500000
        k(    8) = (  -0.0759910  -0.0000099   0.0000000), wk =   0.1250000
        k(    9) = (  -0.0759910   0.0419252   0.0000000), wk =   0.2500000
        k(   10) = (  -0.0759910  -0.0838800   0.0000000), wk =   0.1250000

     Initial potential from superposition of free atoms

     starting charge  368.99918, renormalised to  385.00000

     negative rho (up, down):  2.032E-02 0.000E+00

     %%%%%%%%%%%%%%%%%%%%%%%%%%%%%%%%%%%%%%%%%%%%%%%%%%%%%%%%%%%%%%%%%%%%%%%%
     %                                                                      %
     % You are using vdW-DF, which was implemented by the Thonhauser group. %
     % Please cite the following two papers that made this development      %
     % possible and the two reviews that describe the various versions:     %
     %                                                                      %
     %   T. Thonhauser et al., PRL 115, 136402 (2015).                      %
     %   T. Thonhauser et al., PRB 76, 125112 (2007).                       %
     %   K. Berland et al., Rep. Prog. Phys. 78, 066501 (2015).             %
     %   D.C. Langreth et al., J. Phys.: Condens. Matter 21, 084203 (2009). %
     %                                                                      %
     %                                                                      %
     % If you are calculating the stress with vdW-DF, please also cite:     %
     %                                                                      %
     %   R. Sabatini et al., J. Phys.: Condens. Matter 24, 424209 (2012).   %
     %                                                                      %
     %%%%%%%%%%%%%%%%%%%%%%%%%%%%%%%%%%%%%%%%%%%%%%%%%%%%%%%%%%%%%%%%%%%%%%%%

     Adding external electric field

     Computed dipole along edir(3) :
        Dipole               -1.9974 Ry au,         -5.0769 Debye
        Dipole field         -0.0038 Ry au,

        Potential amp.        0.3494 Ry
        Total length         46.3494 bohr

     Starting wfcs are  291 atomic wfcs
  @ DRIVER MODE: Message from server: STATUS
  @ DRIVER MODE: Message from server: POSDATA
  @ DRIVER MODE: Reading and sharing cell
  @ DRIVER MODE: Reading and sharing positions
  @ DRIVER MODE: Received positions

     Self-consistent Calculation

     iteration #  1     ecut=    29.40 Ry     beta= 0.05
     Davidson diagonalization with overlap
     c_bands:  2 eigenvalues not converged
     c_bands:  1 eigenvalues not converged
     c_bands:  3 eigenvalues not converged
     c_bands:  1 eigenvalues not converged
     ethr =  1.00E-05,  avg # of iterations = 18.5

[...]

     total energy              =   -2900.52689139 Ry
     estimated scf accuracy    <      12.60828054 Ry

     iteration #  2     ecut=    29.40 Ry     beta= 0.05
     Davidson diagonalization with overlap
     ethr =  3.27E-03,  avg # of iterations =  1.0

[...]

     iteration # 65     ecut=    29.40 Ry     beta= 0.05
     Davidson diagonalization with overlap
     c_bands:  1 eigenvalues not converged
     ethr =  1.02E-10,  avg # of iterations = 11.2

[...]

     total energy              =   -2899.02569650 Ry
     estimated scf accuracy    <       0.00000017 Ry

     iteration # 66     ecut=    29.40 Ry     beta= 0.05
     Davidson diagonalization with overlap
     ethr =  4.40E-11,  avg # of iterations =  6.8

     negative rho (up, down):  1.951E-02 0.000E+00

     Adding external electric field

     Computed dipole along edir(3) :
        Dipole                0.4683 Ry au,          1.1903 Debye
        Dipole field          0.0009 Ry au,

        Potential amp.       -0.0819 Ry
        Total length         46.3494 bohr

     End of self-consistent calculation

          k = 0.0000 0.0000 0.0000 ( 18029 PWs)   bands (ev):

   -56.2366 -56.2159 -56.2000 -56.1797 -56.1264 -56.1251 -56.0888 -56.0733
   -56.0036 -55.9974 -55.9650 -55.9613 -55.8918 -55.8707 -55.2534 -55.2193
   -32.7805 -32.7042 -32.6037 -32.5745 -32.5418 -32.5276 -32.5039 -32.4737
   -32.4639 -32.4595 -32.4450 -32.4423 -32.4382 -32.3983 -32.3973 -32.3631
   -32.3602 -32.3575 -32.3423 -32.3264 -32.3062 -32.3021 -32.2913 -32.2758
   -32.2740 -32.2543 -32.2496 -32.2404 -32.2321 -32.2252 -32.2172 -32.1892
   -32.1652 -32.1566 -32.1388 -32.1318 -32.1097 -32.0982 -32.0911 -32.0798
   -32.0756 -31.9727 -31.6637 -31.5656 -31.5432 -31.4801 -31.3940 -31.2830
   -16.9847 -16.6859 -16.5416 -16.3930 -16.3651 -16.2463 -16.0644 -15.9285
   -15.9143 -15.8399 -15.8118 -15.8065 -15.7761 -15.7582 -15.7497 -15.7432
   -15.6898 -15.6856 -15.6504 -15.6399 -15.6101 -15.5362 -15.5127 -15.4527
   -15.4114 -15.3549 -15.2593 -15.2315 -15.1974 -13.7542 -13.6358  -9.5131
    -4.3414  -4.1726  -4.1471  -4.1281  -4.0438  -3.8051  -3.7872  -3.5410
    -3.4181  -3.3972  -3.3728  -3.3685  -3.3207  -3.1817  -3.0907  -3.0649
    -3.0632  -3.0510  -3.0227  -3.0152  -2.9845  -2.9802  -2.9496  -2.9256
    -2.8979  -2.7313  -2.6536  -2.6474  -2.5860  -2.5378  -2.5229  -2.5045
    -2.4676  -2.4601  -2.4440  -2.4275  -2.3750  -2.2927  -2.2420  -2.1464
    -2.0673  -2.0363  -1.9452  -1.8551  -1.7794  -1.6889  -1.6618  -1.6362
    -1.5595  -1.5538  -1.4865  -1.4412  -1.4247  -1.3310  -1.2665  -1.2345
    -1.1350  -1.0950  -1.0062  -0.9893  -0.9749  -0.9586  -0.9464  -0.7718
    -0.7216  -0.6989  -0.6905  -0.5712  -0.5585  -0.5327  -0.5020  -0.4431
    -0.4034  -0.3491  -0.3204  -0.2725  -0.2545  -0.2485  -0.2322  -0.2085
    -0.1283  -0.0490  -0.0309   0.0630   0.1147   0.2365   0.3024   0.4076
     0.4947   0.6731   0.7709   0.8114   0.8484   0.9390   1.3608   1.4232
     2.9524   2.9942   3.0190   3.0537   3.0657   3.2229   3.3285   3.4054
     3.4073   3.4471

[...]

          k = 0.0380-0.0419 0.0000 ( 17876 PWs)   bands (ev):

[...]

          k =-0.0760-0.0000 0.0000 ( 17886 PWs)   bands (ev):

[...]

          k =-0.0760-0.0839 0.0000 ( 17948 PWs)   bands (ev):

   -56.2250 -56.2114 -56.1985 -56.1968 -56.1201 -56.1150 -56.0988 -56.0795
   -55.9993 -55.9822 -55.9816 -55.9586 -55.8944 -55.8734 -55.2368 -55.2357
   -32.5840 -32.5813 -32.5277 -32.5169 -32.5131 -32.5096 -32.4953 -32.4884
   -32.4527 -32.4367 -32.4254 -32.4214 -32.3914 -32.3722 -32.3655 -32.3567
   -32.3543 -32.3516 -32.3430 -32.3401 -32.3258 -32.3198 -32.3145 -32.3103
   -32.2995 -32.2991 -32.2973 -32.2766 -32.2433 -32.2410 -32.2357 -32.2275
   -32.2010 -32.1847 -32.1837 -32.1753 -32.1635 -32.1354 -32.1272 -32.1192
   -32.0893 -32.0216 -31.5566 -31.5552 -31.4770 -31.4762 -31.4375 -31.4366
   -16.4199 -16.3949 -16.1657 -16.1564 -16.1487 -16.0841 -15.9989 -15.9769
   -15.9602 -15.9560 -15.9013 -15.8826 -15.8739 -15.8375 -15.7798 -15.7716
   -15.7641 -15.7407 -15.6895 -15.6832 -15.6281 -15.6026 -15.5876 -15.5837
   -15.5655 -15.5611 -15.4633 -15.4189 -15.3864 -13.7382 -13.7359  -9.5286
    -3.7126  -3.6810  -3.4170  -3.3710  -3.3657  -3.2871  -3.2051  -3.1731
    -3.1481  -3.1380  -3.0846  -3.0755  -3.0735  -3.0685  -3.0452  -3.0281
    -3.0062  -2.9925  -2.9885  -2.9745  -2.9298  -2.8661  -2.8579  -2.8572
    -2.8454  -2.8001  -2.7900  -2.7829  -2.7640  -2.7630  -2.7088  -2.5106
    -2.4915  -2.4354  -2.3777  -2.3581  -2.3311  -2.3216  -2.2956  -2.2712
    -2.2083  -2.1366  -2.0224  -1.9796  -1.9565  -1.9414  -1.8875  -1.8379
    -1.7225  -1.6829  -1.6557  -1.6370  -1.5711  -1.4985  -1.4730  -1.4578
    -1.3742  -1.3473  -1.3055  -1.2407  -1.2040  -1.1908  -1.1398  -1.1270
    -1.0407  -0.9804  -0.9452  -0.9021  -0.8907  -0.8573  -0.8087  -0.7578
    -0.7449  -0.6839  -0.6222  -0.5288  -0.3157  -0.2305  -0.2208  -0.1785
    -0.1213  -0.0953   0.0118   0.0466   0.0612   0.1551   0.2213   0.2872
     0.3045   0.3297   0.3974   0.8863   1.1311   1.1319   1.2236   1.2341
     3.1567   3.1667   3.1964   3.2636   3.4098   3.4159   3.4351   3.4408
     3.5341   3.5873

     the Fermi energy is     2.9196 ev

!    total energy              =   -2899.02571498 Ry
     estimated scf accuracy    <       0.00000006 Ry
     smearing contrib. (-TS)   =      -0.02330185 Ry
     internal energy E=F+TS    =   -2899.00241313 Ry

     The total energy is F=E-TS. E is the sum of the following terms:
     one-electron contribution =  -24814.68718965 Ry
     hartree contribution      =   12486.29081620 Ry
     xc contribution           =    -474.70712289 Ry
     ewald contribution        =    9904.10066933 Ry
     electric field correction =       0.00041388 Ry

     convergence has been achieved in  66 iterations

     Forces acting on atoms (cartesian axes, Ry/au):

     atom    1 type  1   force =    -0.00012765   -0.00193799    0.10690098
     atom    2 type  1   force =    -0.00037379    0.00070283   -0.18022434
     atom    3 type  2   force =     0.00034876   -0.00662220   -0.03350435
     atom    4 type  2   force =     0.00056810   -0.00062836    0.04568689
     atom    5 type  2   force =    -0.01959560   -0.00121705    0.00436439
     atom    6 type  2   force =     0.02143380   -0.00007069    0.00424910
     atom    7 type  1   force =    -0.00028516    0.00033208   -0.00014039
     atom    8 type  1   force =    -0.00048758    0.00046543    0.00014541
     atom    9 type  2   force =    -0.00004762   -0.00039444   -0.00057540
     atom   10 type  2   force =     0.00009954    0.00046635   -0.00036524
     atom   11 type  2   force =     0.00015339   -0.00003075   -0.00003280
     atom   12 type  2   force =     0.00025813   -0.00015599   -0.00003463
     atom   13 type  1   force =    -0.00054833    0.00007630    0.00068992
     atom   14 type  1   force =    -0.00058107    0.00015734    0.00003106
     atom   15 type  2   force =    -0.00004351    0.00032677   -0.00020537
     atom   16 type  2   force =    -0.00003339   -0.00003999    0.00050254
     atom   17 type  2   force =    -0.00088351   -0.00089900   -0.00022315
     atom   18 type  2   force =     0.00075435   -0.00079571   -0.00042826
     atom   19 type  1   force =    -0.00023324    0.00040379   -0.00035637
     atom   20 type  1   force =     0.00048834    0.00064797    0.00060695
     atom   21 type  2   force =     0.00000100    0.00003760    0.10430166
     atom   22 type  2   force =    -0.00009423   -0.00057305   -0.00068455
     atom   23 type  2   force =    -0.06876146    0.00084750   -0.02964255
     atom   24 type  2   force =     0.06851705    0.00129848   -0.02971133
     atom   25 type  1   force =    -0.00009415    0.00130789    0.11803414
     atom   26 type  1   force =    -0.00020261   -0.00066476   -0.18054261
     atom   27 type  2   force =     0.00055288    0.00240339   -0.02741886
     atom   28 type  2   force =     0.00072776   -0.00048723    0.04720044
     atom   29 type  2   force =    -0.01933171    0.00075601    0.00376685
     atom   30 type  2   force =     0.01928603    0.00249408    0.00344946
     atom   31 type  1   force =    -0.00007758   -0.00075668    0.00035048
     atom   32 type  1   force =    -0.00042474    0.00002868    0.00035998
     atom   33 type  2   force =    -0.00013537    0.00036495   -0.00075999
     atom   34 type  2   force =    -0.00007824    0.00005736   -0.00011409
     atom   35 type  2   force =     0.00043237    0.00023255   -0.00041685
     atom   36 type  2   force =    -0.00079610    0.00002699   -0.00040696
     atom   37 type  1   force =    -0.00054792    0.00050349    0.00061196
     atom   38 type  1   force =     0.00014811   -0.00042686    0.00035002
     atom   39 type  2   force =    -0.00030866   -0.00015921   -0.00020768
     atom   40 type  2   force =    -0.00004558    0.00078466    0.00060334
     atom   41 type  2   force =    -0.00015872    0.00121617   -0.00016994
     atom   42 type  2   force =     0.00036321    0.00127312   -0.00042465
     atom   43 type  1   force =    -0.00018800    0.00065300   -0.00025159
     atom   44 type  1   force =     0.00042383    0.00018681    0.00007088
     atom   45 type  2   force =    -0.00000543    0.00006296    0.10432784
     atom   46 type  2   force =    -0.06829701   -0.00103505   -0.02970398
     atom   47 type  2   force =     0.06814502   -0.00065469   -0.02974497
     atom   48 type  3   force =    -0.00067883   -0.01226656   -0.00169615
     atom   49 type  4   force =     0.00003194    0.01152833    0.00242034
     atom   50 type  4   force =    -0.00032813   -0.00002574   -0.00037515
     atom   51 type  4   force =     0.00106133    0.00019915   -0.00066247

     Total force =     0.377735     Total SCF correction =     0.000764
  @ DRIVER MODE: Message from server: STATUS
  @ DRIVER MODE: Message from server: GETFORCE
  @ DRIVER MODE: Returning v,forces,stress,ensemble

     Writing output data file ./calc.save/
  @ DRIVER MODE: Message from server: EXIT
  @ DRIVE MODE: Exiting

     General routines

     Parallel routines

   This run was terminated on:  14:54:45  18Aug2021

   JOB DONE.