     Program PWSCF v.6.7GPU starts on 25Sep2021 at 17: 3:44

     R & G space division:  proc/nbgrp/npool/nimage =       8
     Reading input from /storage/home/hcoda1/3/ntian30/research/carbon/CxH_vib/H2O_calc/ads_slab/CH3OHN2HO_a/out_0005/pw.inp
Warning: card &CELL ignored
Warning: card   CELL_DYNAMICS='IPI', ignored
Warning: card / ignored

     Current dimensions of program PWSCF are:
     Max number of different atomic species (ntypx) = 10
     Max number of k-points (npk) =  40000
     Max angular momentum in pseudopotentials (lmaxx) =  3
     Presently no symmetry can be used with electric field

     Message from routine cell_base_init:
     DEPRECATED: use true lattice parameter, not A to a.u. conversion factor

     IMPORTANT: XC functional enforced from input :
     Exchange-correlation= BEEF-VDW
                           (   1   4  43  14   2   0   0)
     Any further DFT definition will be discarded
     Please, verify this is what you really want

  @ DRIVER MODE: Connecting to
 qe_1139763_2971668.sched-torque.pace.gatech.edu3rwuuxx1_scratch
  using UNIX socket
  @ DRIVER MODE: Message from server: STATUS
  @ DRIVER MODE: Message from server: INIT
  @ DRIVER MODE: Receiving replica           0          -1
  @ DRIVER MODE: Receiving encoded integer          25
  @ DRIVER MODE:  SCF:  T  FORCE:  T  STRESS:  F  VC:  F  ENSEMBLE:  F
  @ DRIVER MODE:  SCF:  T  FORCE:  T  STRESS:  F  VC:  F  ENSEMBLE:  F

     Using Slab Decomposition

     bravais-lattice index     =            0
     lattice parameter (alat)  =       1.8897  a.u.
     unit-cell volume          =    6658.9804 (a.u.)^3
     number of atoms/cell      =           57
     number of atomic types    =            5
     number of electrons       =       409.00
     number of Kohn-Sham states=          214
     kinetic-energy cutoff     =      29.3995  Ry
     charge density cutoff     =     293.9946  Ry
     scf convergence threshold =      7.3E-08
     mixing beta               =       0.0500
     number of iterations used =            8  plain     mixing
     Exchange-correlation= BEEF-VDW
                           (   1   4  43  14   2   0   0)

     celldm(1)=   1.889726  celldm(2)=   0.000000  celldm(3)=   0.000000
     celldm(4)=   0.000000  celldm(5)=   0.000000  celldm(6)=   0.000000

     crystal axes: (cart. coord. in units of alat)
               a(1) = (   6.579727   0.000000   0.000000 )
               a(2) = (  -0.000775   5.961596   0.000000 )
               a(3) = (   0.000000   0.000000  25.155947 )

     reciprocal axes: (cart. coord. in units 2 pi/alat)
               b(1) = (  0.151982  0.000020  0.000000 )
               b(2) = (  0.000000  0.167740  0.000000 )
               b(3) = (  0.000000  0.000000  0.039752 )

     PseudoPot. # 1 for Ti read from file:
     /storage/coda1/p-amedford6/0/shared/rich_project_chbe-medford/medford-share/data/pseudos_module/espresso/nninc/pbe/van/Ti.UPF
     MD5 check sum: 8e4df49b7f0d34bbd5052bf3f5ea0213
     Pseudo is Ultrasoft, Zval = 12.0
     Generated by new atomic code, or converted to UPF format
     Using radial grid of  851 points,  6 beta functions with:
                l(1) =   0
                l(2) =   0
                l(3) =   1
                l(4) =   1
                l(5) =   2
                l(6) =   2
     Q(r) pseudized with  8 coefficients,  rinner =    1.000   1.000   1.000
                                                       1.000   1.000

     PseudoPot. # 2 for O  read from file:
     /storage/coda1/p-amedford6/0/shared/rich_project_chbe-medford/medford-share/data/pseudos_module/espresso/nninc/pbe/van/O.UPF
     MD5 check sum: 78c19812648e8988a0fe644b0f25305e
     Pseudo is Ultrasoft, Zval =  6.0
     Generated by new atomic code, or converted to UPF format
     Using radial grid of  737 points,  4 beta functions with:
                l(1) =   0
                l(2) =   0
                l(3) =   1
                l(4) =   1
     Q(r) pseudized with  8 coefficients,  rinner =    0.800   0.800   0.800

     PseudoPot. # 3 for C  read from file:
     /storage/coda1/p-amedford6/0/shared/rich_project_chbe-medford/medford-share/data/pseudos_module/espresso/nninc/pbe/van/C.UPF
     MD5 check sum: 1a69bf6b8db32088f5b2163dbdb77a27
     Pseudo is Ultrasoft, Zval =  4.0
     Generated by new atomic code, or converted to UPF format
     Using radial grid of  721 points,  4 beta functions with:
                l(1) =   0
                l(2) =   0
                l(3) =   1
                l(4) =   1
     Q(r) pseudized with  8 coefficients,  rinner =    0.800   0.800   0.800

     PseudoPot. # 4 for H  read from file:
     /storage/coda1/p-amedford6/0/shared/rich_project_chbe-medford/medford-share/data/pseudos_module/espresso/nninc/pbe/van/H.UPF
     MD5 check sum: b5ee9d7bfd3a09ee7748110bda690ff7
     Pseudo is Ultrasoft, Zval =  1.0
     Generated by new atomic code, or converted to UPF format
     Using radial grid of  615 points,  1 beta functions with:
                l(1) =   0
     Q(r) pseudized with  8 coefficients,  rinner =    0.800

     PseudoPot. # 5 for N  read from file:
     /storage/coda1/p-amedford6/0/shared/rich_project_chbe-medford/medford-share/data/pseudos_module/espresso/nninc/pbe/van/N.UPF
     MD5 check sum: 90d10febe142ad51ac9d5be1deb811c4
     Pseudo is Ultrasoft, Zval =  5.0
     Generated by new atomic code, or converted to UPF format
     Using radial grid of  729 points,  4 beta functions with:
                l(1) =   0
                l(2) =   0
                l(3) =   1
                l(4) =   1
     Q(r) pseudized with  8 coefficients,  rinner =    0.800   0.800   0.800

     atomic species   valence    mass     pseudopotential
        Ti1           12.00    47.86700     Ti( 1.00)
        O1             6.00    15.99900     O ( 1.00)
        C1             4.00    12.01100     C ( 1.00)
        H1             1.00     1.00800     H ( 1.00)
        N1             5.00    14.00700     N ( 1.00)

     No symmetry found

   Cartesian axes

     site n.     atom                  positions (alat units)
         1           Ti1 tau(   1) = (   0.0004258   2.9801865   6.0000000  )
         2           Ti1 tau(   2) = (   3.2906075   1.4906267   6.0002472  )
         3           O1  tau(   3) = (   0.0006271   0.0005054   7.9858123  )
         4           O1  tau(   4) = (   3.2906025   0.0005020   7.3038282  )
         5           O1  tau(   5) = (   4.5942328   1.4918067   9.2879030  )
         6           O1  tau(   6) = (   1.9868534   1.4903216   9.2879459  )
         7           Ti1 tau(   7) = (   3.3371032   3.0268772   9.1887580  )
         8           Ti1 tau(   8) = (   0.0611061   1.5258697   9.2809523  )
         9           O1  tau(   9) = (   3.3143856   0.0188946  11.3581724  )
        10           O1  tau(  10) = (   0.0164151   0.0031400  10.5895864  )
        11           O1  tau(  11) = (   1.3088961   1.4994640  12.6347600  )
        12           O1  tau(  12) = (   5.3347766   1.4946156  12.6347356  )
        13           Ti1 tau(  13) = (   0.0202478   3.0292801  12.5720800  )
        14           Ti1 tau(  14) = (   3.3188568   1.5851219  12.4260843  )
        15           O1  tau(  15) = (   0.0445434   5.9450813  14.6510506  )
        16           O1  tau(  16) = (   3.3207065   5.8849141  14.0104376  )
        17           O1  tau(  17) = (   4.6249962   1.5116716  16.1313945  )
        18           O1  tau(  18) = (   2.0639035   1.5439872  16.0680944  )
        19           Ti1 tau(  19) = (   3.3360141   2.9454253  15.6763505  )
        20           Ti1 tau(  20) = (   0.0686920   1.3314864  15.9334539  )
        21           O1  tau(  21) = (   3.2904802   0.0005063   4.7018136  )
        22           O1  tau(  22) = (   0.0979609   0.0039778  17.1657837  )
        23           O1  tau(  23) = (   1.3043587   1.4918075   6.0039043  )
        24           O1  tau(  24) = (   5.2767064   1.4903225   6.0039473  )
        25           Ti1 tau(  25) = (   0.0000382   5.9609847   6.0000000  )
        26           Ti1 tau(  26) = (   3.2902200   4.4714249   6.0002472  )
        27           O1  tau(  27) = (   0.0002396   2.9813036   7.9858123  )
        28           O1  tau(  28) = (   3.2902150   2.9813002   7.3038282  )
        29           O1  tau(  29) = (   4.5938453   4.4726049   9.2879030  )
        30           O1  tau(  30) = (   1.9864658   4.4711199   9.2879459  )
        31           Ti1 tau(  31) = (   3.3368545   0.0404040   9.1664313  )
        32           Ti1 tau(  32) = (   0.0604674   4.4799263   9.2696248  )
        33           O1  tau(  33) = (   3.3137611   2.9662427  11.3084074  )
        34           O1  tau(  34) = (   0.0134136   2.9850836  10.6046154  )
        35           O1  tau(  35) = (   1.3054726   4.4719986  12.6384794  )
        36           O1  tau(  36) = (   5.3362180   4.4781181  12.6390536  )
        37           Ti1 tau(  37) = (   0.0365240   0.0487139  12.4702884  )
        38           Ti1 tau(  38) = (   3.3180881   4.6653017  12.7087268  )
        39           O1  tau(  39) = (   0.0228105   2.9918545  14.7761892  )
        40           O1  tau(  40) = (   3.3431522   2.9700269  13.9040455  )
        41           O1  tau(  41) = (   4.6265974   4.4152401  16.1544535  )
        42           O1  tau(  42) = (   2.0571238   4.3592187  16.1146037  )
        43           Ti1 tau(  43) = (   3.3848590   5.9294639  16.2700006  )
        44           Ti1 tau(  44) = (   0.0517009   4.5268197  15.8466567  )
        45           O1  tau(  45) = (   3.2900926   2.9813045   4.7018136  )
        46           O1  tau(  46) = (   1.3039711   4.4726057   6.0039043  )
        47           O1  tau(  47) = (   5.2763189   4.4711207   6.0039473  )
        48           C1  tau(  48) = (   5.9450987   3.0517216  18.8499509  )
        49           O1  tau(  49) = (   0.1802289   3.0084098  17.6484507  )
        50           H1  tau(  50) = (   4.9625852   2.6832861  18.5889656  )
        51           H1  tau(  51) = (   1.1163247   3.1442434  17.8758057  )
        52           H1  tau(  52) = (   6.3899442   2.3914015  19.6026461  )
        53           H1  tau(  53) = (   5.8846647   4.0795385  19.2151274  )
        54           N1  tau(  54) = (   5.7598779   3.1323611  22.9045362  )
        55           N1  tau(  55) = (   4.9845974   3.1850264  22.1203839  )
        56           O1  tau(  56) = (   3.1467188   0.0118795  18.1166202  )
        57           H1  tau(  57) = (   2.2164505   0.0865285  18.3868412  )

     number of k points=    10  Fermi-Dirac smearing, width (Ry)=  0.0073
                       cart. coord. in units 2pi/alat
        k(    1) = (   0.0000000   0.0000000   0.0000000), wk =   0.1250000
        k(    2) = (   0.0000000   0.0419351   0.0000000), wk =   0.2500000
        k(    3) = (   0.0000000  -0.0838702   0.0000000), wk =   0.1250000
        k(    4) = (   0.0379955   0.0000049   0.0000000), wk =   0.2500000
        k(    5) = (   0.0379955   0.0419400   0.0000000), wk =   0.2500000
        k(    6) = (   0.0379955  -0.0838652   0.0000000), wk =   0.2500000
        k(    7) = (   0.0379955  -0.0419301   0.0000000), wk =   0.2500000
        k(    8) = (  -0.0759910  -0.0000099   0.0000000), wk =   0.1250000
        k(    9) = (  -0.0759910   0.0419252   0.0000000), wk =   0.2500000
        k(   10) = (  -0.0759910  -0.0838800   0.0000000), wk =   0.1250000

     Initial potential from superposition of free atoms

     starting charge  392.99914, renormalised to  409.00000

     negative rho (up, down):  9.139E-03 0.000E+00

     %%%%%%%%%%%%%%%%%%%%%%%%%%%%%%%%%%%%%%%%%%%%%%%%%%%%%%%%%%%%%%%%%%%%%%%%
     %                                                                      %
     % You are using vdW-DF, which was implemented by the Thonhauser group. %
     % Please cite the following two papers that made this development      %
     % possible and the two reviews that describe the various versions:     %
     %                                                                      %
     %   T. Thonhauser et al., PRL 115, 136402 (2015).                      %
     %   T. Thonhauser et al., PRB 76, 125112 (2007).                       %
     %   K. Berland et al., Rep. Prog. Phys. 78, 066501 (2015).             %
     %   D.C. Langreth et al., J. Phys.: Condens. Matter 21, 084203 (2009). %
     %                                                                      %
     %                                                                      %
     % If you are calculating the stress with vdW-DF, please also cite:     %
     %                                                                      %
     %   R. Sabatini et al., J. Phys.: Condens. Matter 24, 424209 (2012).   %
     %                                                                      %
     %%%%%%%%%%%%%%%%%%%%%%%%%%%%%%%%%%%%%%%%%%%%%%%%%%%%%%%%%%%%%%%%%%%%%%%%

     Adding external electric field

     Computed dipole along edir(3) :
        Dipole              -18.8656 Ry au,        -47.9516 Debye
        Dipole field         -0.0356 Ry au,

        Potential amp.        3.3003 Ry
        Total length         46.3494 bohr

     Starting wfcs are  309 atomic wfcs
  @ DRIVER MODE: Message from server: STATUS
  @ DRIVER MODE: Message from server: POSDATA
  @ DRIVER MODE: Reading and sharing cell
  @ DRIVER MODE: Reading and sharing positions
  @ DRIVER MODE: Received positions

     Self-consistent Calculation

     iteration #  1     ecut=    29.40 Ry     beta= 0.05
     Davidson diagonalization with overlap
     c_bands:  5 eigenvalues not converged
     c_bands:  5 eigenvalues not converged
     c_bands:  1 eigenvalues not converged
     c_bands:  4 eigenvalues not converged
     c_bands:  1 eigenvalues not converged
     c_bands:  3 eigenvalues not converged
     ethr =  1.00E-05,  avg # of iterations = 27.3

[...]

     total energy              =   -2113.19160325 Ry
     estimated scf accuracy    <   10330.81377779 Ry

     iteration #  2     ecut=    29.40 Ry     beta= 0.05
     Davidson diagonalization with overlap
     ethr =  1.00E-02,  avg # of iterations = 30.4

[...]

     iteration # 90     ecut=    29.40 Ry     beta= 0.05
     Davidson diagonalization with overlap
     c_bands:  1 eigenvalues not converged
     ethr =  2.31E-11,  avg # of iterations = 14.9

[...]

     total energy              =   -3006.45818111 Ry
     estimated scf accuracy    <       0.00000017 Ry

     iteration # 91     ecut=    29.40 Ry     beta= 0.05
     Davidson diagonalization with overlap
     ethr =  2.31E-11,  avg # of iterations = 11.2

     negative rho (up, down):  1.063E-02 0.000E+00

     Adding external electric field

     Computed dipole along edir(3) :
        Dipole                1.0413 Ry au,          2.6467 Debye
        Dipole field          0.0020 Ry au,

        Potential amp.       -0.1822 Ry
        Total length         46.3494 bohr

     End of self-consistent calculation

          k = 0.0000 0.0000 0.0000 ( 18029 PWs)   bands (ev):

   -55.3341 -55.2593 -55.2241 -55.1499 -55.1281 -55.0931 -55.0571 -55.0524
   -55.0507 -55.0317 -55.0216 -54.9917 -54.9048 -54.8288 -54.2189 -54.1849
   -31.7373 -31.7287 -31.6405 -31.6294 -31.5879 -31.5748 -31.5493 -31.5485
   -31.5137 -31.5021 -31.4907 -31.4262 -31.4130 -31.4128 -31.3861 -31.3678
   -31.3594 -31.3423 -31.3415 -31.3300 -31.3227 -31.3181 -31.2720 -31.2698
   -31.2681 -31.2613 -31.2583 -31.2455 -31.2392 -31.2204 -31.2138 -31.2032
   -31.2015 -31.1816 -31.1770 -31.1690 -31.1677 -31.1339 -31.0936 -31.0742
   -31.0430 -31.0326 -30.6251 -30.5388 -30.5163 -30.4421 -30.3558 -30.2442
   -21.4913 -19.7748 -16.1391 -15.9112 -15.7321 -15.5302 -15.4733 -15.4069
   -15.2196 -15.1462 -14.9903 -14.8651 -14.8504 -14.7937 -14.7930 -14.7825
   -14.7535 -14.7287 -14.6834 -14.6720 -14.6666 -14.6630 -14.6014 -14.5590
   -14.5567 -14.5292 -14.5086 -14.3814 -14.3344 -14.2799 -14.1096 -14.0879
   -12.7184 -12.6022 -10.5652  -6.6746  -6.4400  -4.6869  -4.6156  -4.6023
    -4.4004  -3.6550  -3.3559  -3.2604  -3.1601  -3.1414  -3.0767  -3.0254
    -2.8110  -2.6945  -2.6414  -2.5282  -2.4019  -2.3647  -2.3009  -2.2830
    -2.1912  -2.1722  -2.1418  -2.1092  -2.0564  -2.0286  -2.0211  -2.0073
    -1.9311  -1.9259  -1.7960  -1.7910  -1.7352  -1.6425  -1.6249  -1.6017
    -1.5935  -1.5607  -1.5572  -1.5158  -1.4920  -1.4675  -1.4342  -1.3626
    -1.3439  -1.2805  -1.2449  -1.0089  -0.8572  -0.8331  -0.7525  -0.7358
    -0.7024  -0.6769  -0.6569  -0.6454  -0.6088  -0.5935  -0.4897  -0.3862
    -0.3772  -0.3180  -0.2804  -0.2755  -0.1399  -0.0945  -0.0208   0.0018
     0.0343   0.0553   0.1393   0.1883   0.2101   0.2767   0.3083   0.4134
     0.4509   0.4702   0.5115   0.5671   0.6273   0.6609   0.7005   0.7039
     0.7366   0.7859   0.8156   0.8498   0.8722   0.9194   1.0221   1.0595
     1.0700   1.2112   1.2217   1.3039   1.4286   1.4805   1.7536   1.8062
     1.8527   1.9984   2.3750   2.4219   3.8647   3.9674   3.9883   4.0096
     4.0773   4.1591   4.3245   4.3480   4.4124   4.5137

[...]

          k = 0.0380-0.0419 0.0000 ( 17876 PWs)   bands (ev):

[...]

          k =-0.0760-0.0000 0.0000 ( 17886 PWs)   bands (ev):

[...]

          k =-0.0760-0.0839 0.0000 ( 17948 PWs)   bands (ev):

   -55.3334 -55.2462 -55.2370 -55.1439 -55.1237 -55.0988 -55.0563 -55.0517
   -55.0432 -55.0349 -55.0227 -55.0010 -54.9011 -54.8324 -54.2021 -54.2016
   -31.6484 -31.5839 -31.5741 -31.5572 -31.5483 -31.5471 -31.5424 -31.5265
   -31.4642 -31.4593 -31.4205 -31.3995 -31.3876 -31.3825 -31.3662 -31.3639
   -31.3604 -31.3586 -31.3517 -31.3458 -31.3408 -31.3388 -31.3233 -31.3213
   -31.3026 -31.2916 -31.2623 -31.2558 -31.2532 -31.2489 -31.2410 -31.2397
   -31.2331 -31.2284 -31.2245 -31.2201 -31.2177 -31.1792 -31.1606 -31.0976
   -31.0801 -31.0366 -30.5291 -30.5288 -30.4389 -30.4374 -30.3991 -30.3981
   -21.4912 -19.7711 -16.1153 -15.5413 -15.3848 -15.2138 -15.1999 -15.1206
   -15.0292 -15.0114 -14.9808 -14.9674 -14.9503 -14.9258 -14.9178 -14.8829
   -14.8196 -14.7777 -14.7545 -14.7463 -14.6993 -14.6941 -14.6906 -14.6278
   -14.6205 -14.6024 -14.5777 -14.5179 -14.5090 -14.4083 -14.3934 -14.2208
   -12.7045 -12.7037 -10.5673  -6.6747  -6.4415  -4.6757  -4.6223  -4.5978
    -4.3916  -3.6198  -3.3463  -2.6895  -2.6040  -2.5169  -2.4374  -2.3592
    -2.3033  -2.2552  -2.2345  -2.1899  -2.1686  -2.0992  -2.0648  -2.0558
    -2.0364  -2.0342  -2.0035  -1.9886  -1.9761  -1.9542  -1.9260  -1.9087
    -1.8981  -1.8770  -1.8573  -1.8313  -1.8193  -1.8094  -1.7945  -1.7785
    -1.6676  -1.6500  -1.6183  -1.4536  -1.4424  -1.3749  -1.3434  -1.3168
    -1.3125  -1.2825  -1.2666  -1.2233  -1.1177  -1.0924  -1.0432  -0.9900
    -0.9079  -0.8929  -0.8421  -0.7913  -0.7452  -0.7167  -0.6863  -0.6707
    -0.6164  -0.4788  -0.4582  -0.4127  -0.2938  -0.2206  -0.2050  -0.1925
    -0.1707  -0.1475  -0.1010  -0.0928  -0.0310  -0.0183   0.0525   0.0564
     0.0855   0.1072   0.2096   0.3317   0.4104   0.4539   0.4990   0.5484
     0.5826   0.6648   0.7407   0.8271   0.9033   0.9327   0.9463   1.0641
     1.0965   1.1491   1.1953   1.2152   1.2735   1.3092   1.3494   1.3826
     2.1672   2.1809   2.2372   2.2429   4.0452   4.2955   4.3554   4.3724
     4.3822   4.4145   4.4356   4.4878   4.5036   4.5279

     the Fermi energy is     3.8748 ev

!    total energy              =   -3006.45818643 Ry
     estimated scf accuracy    <       0.00000006 Ry
     smearing contrib. (-TS)   =      -0.02082682 Ry
     internal energy E=F+TS    =   -3006.43735961 Ry

     The total energy is F=E-TS. E is the sum of the following terms:
     one-electron contribution =  -22319.60396038 Ry
     hartree contribution      =   11259.27401263 Ry
     xc contribution           =    -501.14721043 Ry
     ewald contribution        =    8555.03775239 Ry
     electric field correction =       0.00204618 Ry

     convergence has been achieved in  91 iterations

     Forces acting on atoms (cartesian axes, Ry/au):

     atom    1 type  1   force =    -0.00037467   -0.00016963    0.09495907
     atom    2 type  1   force =    -0.00035319    0.00512865   -0.17483165
     atom    3 type  2   force =     0.00070931    0.00012997   -0.02672814
     atom    4 type  2   force =     0.00129105    0.00083357    0.05207746
     atom    5 type  2   force =    -0.01095813   -0.00256235    0.00077693
     atom    6 type  2   force =     0.01193141   -0.00381189    0.00178574
     atom    7 type  1   force =    -0.00021485    0.00039730    0.00068428
     atom    8 type  1   force =     0.00013659    0.00022356    0.00018215
     atom    9 type  2   force =     0.00024994    0.00075816   -0.00066693
     atom   10 type  2   force =    -0.00038980    0.00016110    0.00013486
     atom   11 type  2   force =     0.00044534   -0.00015483    0.00011057
     atom   12 type  2   force =    -0.00085326   -0.00015432    0.00036237
     atom   13 type  1   force =     0.00043239    0.00035208   -0.00022163
     atom   14 type  1   force =    -0.00034086   -0.00071316    0.00094858
     atom   15 type  2   force =    -0.00014376   -0.00052931   -0.00097920
     atom   16 type  2   force =    -0.00028452   -0.00000301   -0.00023880
     atom   17 type  2   force =    -0.00093961    0.00031935   -0.00005367
     atom   18 type  2   force =     0.00043244    0.00073859   -0.00003468
     atom   19 type  1   force =     0.00029899   -0.00084364    0.00019977
     atom   20 type  1   force =    -0.00025333   -0.00010824    0.00015525
     atom   21 type  2   force =    -0.00000380    0.00007407    0.10304773
     atom   22 type  2   force =     0.00000244   -0.00014233    0.00087631
     atom   23 type  2   force =    -0.07196118    0.00013534   -0.02803919
     atom   24 type  2   force =     0.07179690    0.00063292   -0.02814339
     atom   25 type  1   force =    -0.00036109    0.00026325    0.10241908
     atom   26 type  1   force =    -0.00010988   -0.00475045   -0.17507367
     atom   27 type  2   force =     0.00084882    0.00116979   -0.02484499
     atom   28 type  2   force =     0.00119676    0.00025322    0.05170633
     atom   29 type  2   force =    -0.01191700    0.00381457    0.00171816
     atom   30 type  2   force =     0.01375789    0.00146593    0.00245092
     atom   31 type  1   force =    -0.00028935   -0.00015949    0.00081670
     atom   32 type  1   force =     0.00027898    0.00029245    0.00061471
     atom   33 type  2   force =     0.00000589    0.00020781    0.00008120
     atom   34 type  2   force =    -0.00027262   -0.00032374   -0.00057482
     atom   35 type  2   force =    -0.00022716    0.00005044   -0.00047394
     atom   36 type  2   force =    -0.00038182    0.00009632   -0.00009274
     atom   37 type  1   force =    -0.00005457   -0.00034231    0.00003745
     atom   38 type  1   force =    -0.00056680    0.00028882    0.00002322
     atom   39 type  2   force =    -0.00025148   -0.00025062    0.00078601
     atom   40 type  2   force =    -0.00020078    0.00011147    0.00030994
     atom   41 type  2   force =    -0.00134582   -0.00029224   -0.00007785
     atom   42 type  2   force =     0.00101613   -0.00019719   -0.00043281
     atom   43 type  1   force =    -0.00016381    0.00057557    0.00040444
     atom   44 type  1   force =    -0.00006769    0.00032350   -0.00020597
     atom   45 type  2   force =     0.00000239    0.00013966    0.10263571
     atom   46 type  2   force =    -0.07185267   -0.00062554   -0.02798511
     atom   47 type  2   force =     0.07171153   -0.00013329   -0.02806029
     atom   48 type  3   force =     0.00304893   -0.00005650    0.01706671
     atom   49 type  2   force =     0.00093070   -0.00094568   -0.00547672
     atom   50 type  4   force =    -0.00249398   -0.00139045   -0.00277373
     atom   51 type  4   force =     0.00024120    0.00042474   -0.00051082
     atom   52 type  4   force =    -0.00317758    0.00394232   -0.00626180
     atom   53 type  4   force =    -0.00009752   -0.00326930   -0.00365380
     atom   54 type  5   force =     0.00012941   -0.00008097    0.00033678
     atom   55 type  5   force =    -0.00049712    0.00006068   -0.00036584
     atom   56 type  2   force =     0.00080641   -0.00056104    0.00022179
     atom   57 type  4   force =    -0.00030216   -0.00079368   -0.00112802

     Total force =     0.365432     Total SCF correction =     0.000646
  @ DRIVER MODE: Message from server: STATUS
  @ DRIVER MODE: Message from server: GETFORCE
  @ DRIVER MODE: Returning v,forces,stress,ensemble

     Writing output data file ./calc.save/
  @ DRIVER MODE: Message from server: EXIT
  @ DRIVE MODE: Exiting

     General routines

     Parallel routines

   This run was terminated on:  17:41:33  25Sep2021

   JOB DONE.