     Program PWSCF v.6.7GPU starts on 14Sep2021 at 20:25: 2

     R & G space division:  proc/nbgrp/npool/nimage =      10
     Reading input from /storage/home/hcoda1/3/ntian30/research/carbon/CxH_vib/CH2_calc/ads_slab/CH2ON2_b/out_0020/pw.inp
Warning: card &CELL ignored
Warning: card   CELL_DYNAMICS='IPI', ignored
Warning: card / ignored

     Current dimensions of program PWSCF are:
     Max number of different atomic species (ntypx) = 10
     Max number of k-points (npk) =  40000
     Max angular momentum in pseudopotentials (lmaxx) =  3
     Presently no symmetry can be used with electric field

     Message from routine cell_base_init:
     DEPRECATED: use true lattice parameter, not A to a.u. conversion factor

     IMPORTANT: XC functional enforced from input :
     Exchange-correlation= BEEF-VDW
                           (   1   4  43  14   2   0   0)
     Any further DFT definition will be discarded
     Please, verify this is what you really want

  @ DRIVER MODE: Connecting to
 qe_1139763_2840441.sched-torque.pace.gatech.eduwidfl1eh_scratch
  using UNIX socket
  @ DRIVER MODE: Message from server: STATUS
  @ DRIVER MODE: Message from server: INIT
  @ DRIVER MODE: Receiving replica           0          -1
  @ DRIVER MODE: Receiving encoded integer          25
  @ DRIVER MODE:  SCF:  T  FORCE:  T  STRESS:  F  VC:  F  ENSEMBLE:  F
  @ DRIVER MODE:  SCF:  T  FORCE:  T  STRESS:  F  VC:  F  ENSEMBLE:  F

     Using Slab Decomposition

     bravais-lattice index     =            0
     lattice parameter (alat)  =       1.8897  a.u.
     unit-cell volume          =    6658.9804 (a.u.)^3
     number of atoms/cell      =           53
     number of atomic types    =            5
     number of electrons       =       400.00
     number of Kohn-Sham states=          210
     kinetic-energy cutoff     =      29.3995  Ry
     charge density cutoff     =     293.9946  Ry
     scf convergence threshold =      7.3E-08
     mixing beta               =       0.0500
     number of iterations used =            8  plain     mixing
     Exchange-correlation= BEEF-VDW
                           (   1   4  43  14   2   0   0)

     celldm(1)=   1.889726  celldm(2)=   0.000000  celldm(3)=   0.000000
     celldm(4)=   0.000000  celldm(5)=   0.000000  celldm(6)=   0.000000

     crystal axes: (cart. coord. in units of alat)
               a(1) = (   6.579727   0.000000   0.000000 )
               a(2) = (  -0.000775   5.961596   0.000000 )
               a(3) = (   0.000000   0.000000  25.155947 )

     reciprocal axes: (cart. coord. in units 2 pi/alat)
               b(1) = (  0.151982  0.000020  0.000000 )
               b(2) = (  0.000000  0.167740  0.000000 )
               b(3) = (  0.000000  0.000000  0.039752 )

     PseudoPot. # 1 for C  read from file:
     /storage/coda1/p-amedford6/0/shared/rich_project_chbe-medford/medford-share/data/pseudos_module/espresso/nninc/pbe/van/C.UPF
     MD5 check sum: 1a69bf6b8db32088f5b2163dbdb77a27
     Pseudo is Ultrasoft, Zval =  4.0
     Generated by new atomic code, or converted to UPF format
     Using radial grid of  721 points,  4 beta functions with:
                l(1) =   0
                l(2) =   0
                l(3) =   1
                l(4) =   1
     Q(r) pseudized with  8 coefficients,  rinner =    0.800   0.800   0.800

     PseudoPot. # 2 for H  read from file:
     /storage/coda1/p-amedford6/0/shared/rich_project_chbe-medford/medford-share/data/pseudos_module/espresso/nninc/pbe/van/H.UPF
     MD5 check sum: b5ee9d7bfd3a09ee7748110bda690ff7
     Pseudo is Ultrasoft, Zval =  1.0
     Generated by new atomic code, or converted to UPF format
     Using radial grid of  615 points,  1 beta functions with:
                l(1) =   0
     Q(r) pseudized with  8 coefficients,  rinner =    0.800

     PseudoPot. # 3 for O  read from file:
     /storage/coda1/p-amedford6/0/shared/rich_project_chbe-medford/medford-share/data/pseudos_module/espresso/nninc/pbe/van/O.UPF
     MD5 check sum: 78c19812648e8988a0fe644b0f25305e
     Pseudo is Ultrasoft, Zval =  6.0
     Generated by new atomic code, or converted to UPF format
     Using radial grid of  737 points,  4 beta functions with:
                l(1) =   0
                l(2) =   0
                l(3) =   1
                l(4) =   1
     Q(r) pseudized with  8 coefficients,  rinner =    0.800   0.800   0.800

     PseudoPot. # 4 for Ti read from file:
     /storage/coda1/p-amedford6/0/shared/rich_project_chbe-medford/medford-share/data/pseudos_module/espresso/nninc/pbe/van/Ti.UPF
     MD5 check sum: 8e4df49b7f0d34bbd5052bf3f5ea0213
     Pseudo is Ultrasoft, Zval = 12.0
     Generated by new atomic code, or converted to UPF format
     Using radial grid of  851 points,  6 beta functions with:
                l(1) =   0
                l(2) =   0
                l(3) =   1
                l(4) =   1
                l(5) =   2
                l(6) =   2
     Q(r) pseudized with  8 coefficients,  rinner =    1.000   1.000   1.000
                                                       1.000   1.000

     PseudoPot. # 5 for N  read from file:
     /storage/coda1/p-amedford6/0/shared/rich_project_chbe-medford/medford-share/data/pseudos_module/espresso/nninc/pbe/van/N.UPF
     MD5 check sum: 90d10febe142ad51ac9d5be1deb811c4
     Pseudo is Ultrasoft, Zval =  5.0
     Generated by new atomic code, or converted to UPF format
     Using radial grid of  729 points,  4 beta functions with:
                l(1) =   0
                l(2) =   0
                l(3) =   1
                l(4) =   1
     Q(r) pseudized with  8 coefficients,  rinner =    0.800   0.800   0.800

     atomic species   valence    mass     pseudopotential
        C1             4.00    12.01100     C ( 1.00)
        H1             1.00     1.00800     H ( 1.00)
        O1             6.00    15.99900     O ( 1.00)
        Ti1           12.00    47.86700     Ti( 1.00)
        N1             5.00    14.00700     N ( 1.00)

     No symmetry found

   Cartesian axes

     site n.     atom                  positions (alat units)
         1           C1  tau(   1) = (   6.4247902   2.9910588  18.6917704  )
         2           H1  tau(   2) = (   6.3980358   3.9338040  19.2291268  )
         3           H1  tau(   3) = (   6.3671137   2.0386567  19.2103458  )
         4           O1  tau(   4) = (   3.2904802   0.0005063   4.7018136  )
         5           O1  tau(   5) = (   3.2900926   2.9813045   4.7018136  )
         6           O1  tau(   6) = (   1.3043587   1.4918075   6.0039043  )
         7           O1  tau(   7) = (   1.3039711   4.4726057   6.0039043  )
         8           O1  tau(   8) = (   5.2767064   1.4903225   6.0039473  )
         9           O1  tau(   9) = (   5.2763189   4.4711207   6.0039473  )
        10           O1  tau(  10) = (   3.2906025   0.0005020   7.3038282  )
        11           O1  tau(  11) = (   3.2902150   2.9813002   7.3038282  )
        12           O1  tau(  12) = (   0.0006271   0.0005054   7.9858123  )
        13           O1  tau(  13) = (   0.0002396   2.9813036   7.9858123  )
        14           O1  tau(  14) = (   4.5942328   1.4918067   9.2879030  )
        15           O1  tau(  15) = (   4.5938453   4.4726049   9.2879030  )
        16           O1  tau(  16) = (   1.9868534   1.4903216   9.2879459  )
        17           O1  tau(  17) = (   1.9864658   4.4711199   9.2879459  )
        18           O1  tau(  18) = (   0.0058113   2.9878523  10.5832334  )
        19           O1  tau(  19) = (   0.0062988   0.0093020  10.6005518  )
        20           O1  tau(  20) = (   3.2955317   2.9954032  11.3404818  )
        21           O1  tau(  21) = (   3.2944299   0.0136787  11.3445968  )
        22           O1  tau(  22) = (   5.2904553   1.5027675  12.6317203  )
        23           O1  tau(  23) = (   5.2914467   4.4836083  12.6349631  )
        24           O1  tau(  24) = (   1.2933861   1.5040032  12.6362007  )
        25           O1  tau(  25) = (   1.2922507   4.4849626  12.6395598  )
        26           O1  tau(  26) = (   3.2955364   2.9961609  13.9180299  )
        27           O1  tau(  27) = (   3.2969677   0.0155663  13.9438287  )
        28           O1  tau(  28) = (   0.0016464   0.0229801  14.6780835  )
        29           O1  tau(  29) = (   0.0078505   2.9966620  14.7218711  )
        30           O1  tau(  30) = (   4.5417949   4.4807699  16.1031406  )
        31           O1  tau(  31) = (   4.5422182   1.5234006  16.1020929  )
        32           O1  tau(  32) = (   2.0382733   4.4802786  16.1011463  )
        33           O1  tau(  33) = (   2.0385641   1.5240134  16.0993588  )
        34           O1  tau(  34) = (   6.5794991   0.0244991  17.1995468  )
        35           O1  tau(  35) = (   6.5588415   3.0026814  17.4289308  )
        36           Ti1 tau(  36) = (   0.0004258   2.9801865   6.0000000  )
        37           Ti1 tau(  37) = (   0.0000382   5.9609847   6.0000000  )
        38           Ti1 tau(  38) = (   3.2906075   1.4906267   6.0002472  )
        39           Ti1 tau(  39) = (   3.2902200   4.4714249   6.0002472  )
        40           Ti1 tau(  40) = (   3.2947477   0.0499856   9.1537742  )
        41           Ti1 tau(  41) = (   3.3215383   3.0289251   9.1580241  )
        42           Ti1 tau(  42) = (   0.0276872   4.5181110   9.2597866  )
        43           Ti1 tau(  43) = (   0.0223396   1.5961087   9.3523429  )
        44           Ti1 tau(  44) = (   3.3278215   4.4891914  12.4850086  )
        45           Ti1 tau(  45) = (   3.3277968   1.5111787  12.4828596  )
        46           Ti1 tau(  46) = (   0.0250534   0.0277200  12.4935153  )
        47           Ti1 tau(  47) = (   0.0290128   3.0118426  12.7617797  )
        48           Ti1 tau(  48) = (   3.2948489   3.0033751  15.7103116  )
        49           Ti1 tau(  49) = (   3.2995243   0.0226186  15.7353524  )
        50           Ti1 tau(  50) = (   0.0095488   1.4190105  15.9501391  )
        51           Ti1 tau(  51) = (   0.0217608   4.6113996  15.9785021  )
        52           N1  tau(  52) = (   3.7826193   3.0501191  20.3090129  )
        53           N1  tau(  53) = (   2.7364546   2.9530354  19.9655958  )

     number of k points=    10  Fermi-Dirac smearing, width (Ry)=  0.0073
                       cart. coord. in units 2pi/alat
        k(    1) = (   0.0000000   0.0000000   0.0000000), wk =   0.1250000
        k(    2) = (   0.0000000   0.0419351   0.0000000), wk =   0.2500000
        k(    3) = (   0.0000000  -0.0838702   0.0000000), wk =   0.1250000
        k(    4) = (   0.0379955   0.0000049   0.0000000), wk =   0.2500000
        k(    5) = (   0.0379955   0.0419400   0.0000000), wk =   0.2500000
        k(    6) = (   0.0379955  -0.0838652   0.0000000), wk =   0.2500000
        k(    7) = (   0.0379955  -0.0419301   0.0000000), wk =   0.2500000
        k(    8) = (  -0.0759910  -0.0000099   0.0000000), wk =   0.1250000
        k(    9) = (  -0.0759910   0.0419252   0.0000000), wk =   0.2500000
        k(   10) = (  -0.0759910  -0.0838800   0.0000000), wk =   0.1250000

     Initial potential from superposition of free atoms

     starting charge  383.99917, renormalised to  400.00000

     negative rho (up, down):  1.497E-02 0.000E+00

     %%%%%%%%%%%%%%%%%%%%%%%%%%%%%%%%%%%%%%%%%%%%%%%%%%%%%%%%%%%%%%%%%%%%%%%%
     %                                                                      %
     % You are using vdW-DF, which was implemented by the Thonhauser group. %
     % Please cite the following two papers that made this development      %
     % possible and the two reviews that describe the various versions:     %
     %                                                                      %
     %   T. Thonhauser et al., PRL 115, 136402 (2015).                      %
     %   T. Thonhauser et al., PRB 76, 125112 (2007).                       %
     %   K. Berland et al., Rep. Prog. Phys. 78, 066501 (2015).             %
     %   D.C. Langreth et al., J. Phys.: Condens. Matter 21, 084203 (2009). %
     %                                                                      %
     %                                                                      %
     % If you are calculating the stress with vdW-DF, please also cite:     %
     %                                                                      %
     %   R. Sabatini et al., J. Phys.: Condens. Matter 24, 424209 (2012).   %
     %                                                                      %
     %%%%%%%%%%%%%%%%%%%%%%%%%%%%%%%%%%%%%%%%%%%%%%%%%%%%%%%%%%%%%%%%%%%%%%%%

     Adding external electric field

     Computed dipole along edir(3) :
        Dipole              -12.3567 Ry au,        -31.4077 Debye
        Dipole field         -0.0233 Ry au,

        Potential amp.        2.1616 Ry
        Total length         46.3494 bohr

     Starting wfcs are  302 atomic wfcs
  @ DRIVER MODE: Message from server: STATUS
  @ DRIVER MODE: Message from server: POSDATA
  @ DRIVER MODE: Reading and sharing cell
  @ DRIVER MODE: Reading and sharing positions
  @ DRIVER MODE: Received positions

     Self-consistent Calculation

     iteration #  1     ecut=    29.40 Ry     beta= 0.05
     Davidson diagonalization with overlap
     c_bands:  2 eigenvalues not converged
     c_bands:  2 eigenvalues not converged
     c_bands:  2 eigenvalues not converged
     c_bands:  2 eigenvalues not converged
     c_bands:  4 eigenvalues not converged
     c_bands:  2 eigenvalues not converged
     c_bands:  5 eigenvalues not converged
     c_bands:  1 eigenvalues not converged
     c_bands:  3 eigenvalues not converged
     c_bands:  5 eigenvalues not converged
     ethr =  1.00E-05,  avg # of iterations = 22.0

[...]

     total energy              =   -2430.19594964 Ry
     estimated scf accuracy    <    6093.22246700 Ry

     iteration #  2     ecut=    29.40 Ry     beta= 0.05
     Davidson diagonalization with overlap
     ethr =  1.00E-02,  avg # of iterations = 22.0

[...]

     iteration # 88     ecut=    29.40 Ry     beta= 0.05
     Davidson diagonalization with overlap
     ethr =  6.55E-11,  avg # of iterations =  9.9

[...]

     total energy              =   -2970.35124462 Ry
     estimated scf accuracy    <       0.00000009 Ry

     iteration # 89     ecut=    29.40 Ry     beta= 0.05
     Davidson diagonalization with overlap
     c_bands:  1 eigenvalues not converged
     ethr =  2.22E-11,  avg # of iterations = 12.5

     negative rho (up, down):  1.509E-02 0.000E+00

     Adding external electric field

     Computed dipole along edir(3) :
        Dipole                0.9940 Ry au,          2.5265 Debye
        Dipole field          0.0019 Ry au,

        Potential amp.       -0.1739 Ry
        Total length         46.3494 bohr

     End of self-consistent calculation

          k = 0.0000 0.0000 0.0000 ( 18029 PWs)   bands (ev):

   -55.5214 -55.5124 -55.4843 -55.4761 -55.4176 -55.4005 -55.3753 -55.3118
   -55.3053 -55.2957 -55.2928 -55.2595 -55.2407 -55.2161 -54.5464 -54.5123
   -32.0834 -31.9944 -31.8954 -31.8853 -31.8313 -31.8274 -31.8195 -31.7998
   -31.7721 -31.7558 -31.7540 -31.7288 -31.7052 -31.6945 -31.6795 -31.6615
   -31.6464 -31.6460 -31.6368 -31.6161 -31.5966 -31.5926 -31.5839 -31.5785
   -31.5740 -31.5471 -31.5465 -31.5251 -31.5193 -31.5181 -31.4971 -31.4744
   -31.4691 -31.4467 -31.4376 -31.4372 -31.4295 -31.4253 -31.4031 -31.3988
   -31.3934 -31.3857 -30.9563 -30.8589 -30.8367 -30.7731 -30.6870 -30.5757
   -21.4049 -19.7407 -16.3055 -16.0048 -15.8637 -15.7326 -15.6760 -15.5649
   -15.4077 -15.3482 -15.2512 -15.2019 -15.1513 -15.1203 -15.1100 -15.0950
   -15.0719 -15.0544 -15.0515 -14.9842 -14.9728 -14.9365 -14.9235 -14.9231
   -14.8258 -14.7767 -14.7111 -14.6515 -14.5978 -14.5444 -14.5196 -13.0469
   -12.9285  -9.1233  -6.6674  -5.3889  -5.3865  -4.5590  -4.5485  -3.6544
    -3.4759  -3.4337  -3.4265  -3.3711  -3.3616  -3.2644  -3.1445  -3.1088
    -2.8235  -2.7345  -2.7014  -2.6876  -2.6795  -2.5498  -2.4894  -2.3713
    -2.3668  -2.3522  -2.3503  -2.3419  -2.2990  -2.2945  -2.2517  -2.2209
    -2.1322  -2.0730  -1.9636  -1.9524  -1.9274  -1.8648  -1.8314  -1.8086
    -1.8063  -1.7609  -1.7586  -1.7552  -1.7110  -1.6233  -1.5190  -1.4777
    -1.3826  -1.3485  -1.2362  -1.1048  -1.0268  -0.9869  -0.9339  -0.8843
    -0.8799  -0.8607  -0.8324  -0.8214  -0.8065  -0.6896  -0.5753  -0.5734
    -0.4718  -0.4201  -0.3945  -0.3797  -0.2823  -0.2638  -0.2560  -0.1788
    -0.0224  -0.0182  -0.0060   0.1130   0.1419   0.1583   0.2087   0.2302
     0.2713   0.2951   0.3485   0.4050   0.4147   0.4641   0.4723   0.4939
     0.5997   0.6576   0.6643   0.7224   0.7664   0.9517   0.9663   1.1071
     1.1653   1.3817   1.4785   1.5288   1.6475   2.0655   2.1247   3.6386
     3.6742   3.6938   3.7424   3.7752   3.8111   3.8740   4.0811   4.0987
     4.1005   4.1277

[...]

          k = 0.0380-0.0419 0.0000 ( 17876 PWs)   bands (ev):

[...]

          k =-0.0760-0.0000 0.0000 ( 17886 PWs)   bands (ev):

[...]

          k =-0.0760-0.0839 0.0000 ( 17948 PWs)   bands (ev):

   -55.5102 -55.4954 -55.4953 -55.4929 -55.4098 -55.3969 -55.3831 -55.3150
   -55.3013 -55.2896 -55.2766 -55.2761 -55.2468 -55.2194 -54.5298 -54.5288
   -31.8860 -31.8833 -31.8183 -31.8045 -31.8024 -31.8004 -31.7905 -31.7797
   -31.7684 -31.7433 -31.7270 -31.7142 -31.7018 -31.6625 -31.6505 -31.6441
   -31.6391 -31.6340 -31.6285 -31.6245 -31.6131 -31.6069 -31.6042 -31.6007
   -31.5976 -31.5952 -31.5775 -31.5710 -31.5430 -31.5335 -31.5291 -31.5157
   -31.5035 -31.4945 -31.4893 -31.4822 -31.4799 -31.4754 -31.4584 -31.4377
   -31.4276 -31.4135 -30.8499 -30.8487 -30.7696 -30.7689 -30.7305 -30.7296
   -21.4047 -19.7335 -15.7365 -15.7063 -15.6067 -15.4732 -15.4625 -15.4213
   -15.3803 -15.3225 -15.2651 -15.2605 -15.2215 -15.2064 -15.1871 -15.1499
   -15.1189 -15.0747 -15.0616 -15.0567 -15.0446 -14.9898 -14.9831 -14.9434
   -14.9253 -14.9182 -14.8738 -14.8663 -14.7917 -14.7515 -14.7291 -13.0311
   -13.0284  -9.1359  -6.6511  -5.3648  -5.3186  -4.5638  -4.5582  -3.5713
    -3.1694  -3.0260  -2.9900  -2.8305  -2.6951  -2.6844  -2.6295  -2.5394
    -2.5059  -2.4622  -2.4101  -2.3960  -2.3728  -2.3684  -2.3593  -2.3559
    -2.3468  -2.2959  -2.2776  -2.2422  -2.1873  -2.1785  -2.1649  -2.1590
    -2.1161  -2.1004  -2.0923  -2.0871  -2.0799  -2.0203  -1.9377  -1.8712
    -1.7813  -1.7426  -1.7180  -1.6824  -1.6470  -1.6118  -1.5902  -1.5724
    -1.4620  -1.4329  -1.2902  -1.2657  -1.2494  -1.2388  -1.1973  -1.1931
    -1.0605  -0.9835  -0.9744  -0.9497  -0.8962  -0.8610  -0.8158  -0.7909
    -0.7030  -0.6681  -0.6272  -0.5751  -0.4963  -0.4861  -0.4352  -0.4191
    -0.3388  -0.3233  -0.2922  -0.2891  -0.2230  -0.1774  -0.1032  -0.0969
    -0.0712   0.0359   0.0913   0.1052   0.2880   0.4611   0.4749   0.4852
     0.5975   0.6072   0.6529   0.7283   0.7386   0.8229   0.8786   0.9758
     0.9951   1.0047   1.0837   1.8375   1.8385   1.9280   1.9396   3.6357
     3.8548   3.8863   3.9068   3.9591   4.1159   4.1206   4.1337   4.1465
     4.2770   4.2961

     the Fermi energy is     3.6273 ev

!    total energy              =   -2970.35124803 Ry
     estimated scf accuracy    <       0.00000007 Ry
     smearing contrib. (-TS)   =      -0.03416152 Ry
     internal energy E=F+TS    =   -2970.31708651 Ry

     The total energy is F=E-TS. E is the sum of the following terms:
     one-electron contribution =  -23485.56224872 Ry
     hartree contribution      =   11835.41587736 Ry
     xc contribution           =    -491.50796040 Ry
     ewald contribution        =    9171.33538065 Ry
     electric field correction =       0.00186459 Ry

     convergence has been achieved in  89 iterations

     Forces acting on atoms (cartesian axes, Ry/au):

     atom    1 type  1   force =    -0.00031438    0.00010882   -0.00012971
     atom    2 type  2   force =    -0.00042914    0.00078766    0.00027493
     atom    3 type  2   force =     0.00005461   -0.00057979   -0.00030497
     atom    4 type  3   force =    -0.00007545    0.00001813    0.10425846
     atom    5 type  3   force =    -0.00006157   -0.00001597    0.10433321
     atom    6 type  3   force =    -0.06903952    0.00075426   -0.02905042
     atom    7 type  3   force =    -0.06859211   -0.00135975   -0.02905227
     atom    8 type  3   force =     0.06870115    0.00128371   -0.02912343
     atom    9 type  3   force =     0.06835708   -0.00098295   -0.02912983
     atom   10 type  3   force =     0.00016751    0.00038897    0.04599990
     atom   11 type  3   force =     0.00058354    0.00071725    0.04718098
     atom   12 type  3   force =     0.00031291   -0.00528830   -0.03191932
     atom   13 type  3   force =     0.00035938    0.00311137   -0.02590057
     atom   14 type  3   force =    -0.01815280   -0.00007572    0.00386737
     atom   15 type  3   force =    -0.01657050    0.00120416    0.00340980
     atom   16 type  3   force =     0.01841263   -0.00125867    0.00383665
     atom   17 type  3   force =     0.01756902    0.00142187    0.00327493
     atom   18 type  3   force =     0.00002829    0.00030519    0.00040764
     atom   19 type  3   force =     0.00004411   -0.00011822    0.00012743
     atom   20 type  3   force =    -0.00006091    0.00027099    0.00034752
     atom   21 type  3   force =    -0.00008901   -0.00029210   -0.00039249
     atom   22 type  3   force =     0.00036815    0.00029054    0.00030114
     atom   23 type  3   force =     0.00031205   -0.00026576    0.00022927
     atom   24 type  3   force =    -0.00034263    0.00038344    0.00014562
     atom   25 type  3   force =    -0.00022486   -0.00030944    0.00018018
     atom   26 type  3   force =    -0.00029132    0.00013478    0.00031590
     atom   27 type  3   force =    -0.00024181   -0.00008839    0.00017780
     atom   28 type  3   force =     0.00068157   -0.00003611   -0.00019937
     atom   29 type  3   force =     0.00025746    0.00023184   -0.00052084
     atom   30 type  3   force =    -0.00102994   -0.00040961   -0.00023682
     atom   31 type  3   force =    -0.00076746    0.00050881   -0.00010943
     atom   32 type  3   force =    -0.00001351   -0.00056172    0.00056355
     atom   33 type  3   force =     0.00040201    0.00060907    0.00048156
     atom   34 type  3   force =     0.00027463   -0.00001059    0.00082914
     atom   35 type  3   force =     0.00000666   -0.00055359   -0.00026315
     atom   36 type  4   force =    -0.00025569   -0.00177327    0.10175821
     atom   37 type  4   force =    -0.00009341    0.00135204    0.11448042
     atom   38 type  4   force =    -0.00030746    0.00053949   -0.18030925
     atom   39 type  4   force =    -0.00021931   -0.00039719   -0.18062828
     atom   40 type  4   force =     0.00026007    0.00082008   -0.00113100
     atom   41 type  4   force =     0.00021458   -0.00078391   -0.00090524
     atom   42 type  4   force =    -0.00023358    0.00087339   -0.00020165
     atom   43 type  4   force =    -0.00018536   -0.00020469    0.00003974
     atom   44 type  4   force =     0.00013543   -0.00008378    0.00027829
     atom   45 type  4   force =     0.00003827    0.00009210    0.00035398
     atom   46 type  4   force =    -0.00025318    0.00048776   -0.00009798
     atom   47 type  4   force =    -0.00040500   -0.00043542    0.00041548
     atom   48 type  4   force =     0.00167307   -0.00010869    0.00085171
     atom   49 type  4   force =     0.00181750    0.00014392    0.00023790
     atom   50 type  4   force =    -0.00041632    0.00024370   -0.00021953
     atom   51 type  4   force =    -0.00320201   -0.00056021   -0.00037981
     atom   52 type  5   force =     0.00119159    0.00045797    0.00137352
     atom   53 type  5   force =    -0.00035505   -0.00098744   -0.00012689

     Total force =     0.374205     Total SCF correction =     0.001041
  @ DRIVER MODE: Message from server: STATUS
  @ DRIVER MODE: Message from server: GETFORCE
  @ DRIVER MODE: Returning v,forces,stress,ensemble

     Writing output data file ./calc.save/
  @ DRIVER MODE: Message from server: EXIT
  @ DRIVE MODE: Exiting

     General routines

     Parallel routines

   This run was terminated on:  20:49:20  14Sep2021

   JOB DONE.