     Program PWSCF v.6.7GPU starts on  2Aug2021 at 12:21:43

     R & G space division:  proc/nbgrp/npool/nimage =      16
     Reading input from /storage/home/hcoda1/3/ntian30/research/carbon/02Aug_vib_paired/ads_slab/CH3NH3_a/out_0001/pw.inp
Warning: card &CELL ignored
Warning: card   CELL_DYNAMICS='IPI', ignored
Warning: card / ignored

     Current dimensions of program PWSCF are:
     Max number of different atomic species (ntypx) = 10
     Max number of k-points (npk) =  40000
     Max angular momentum in pseudopotentials (lmaxx) =  3
     Presently no symmetry can be used with electric field

     Message from routine cell_base_init:
     DEPRECATED: use true lattice parameter, not A to a.u. conversion factor

     IMPORTANT: XC functional enforced from input :
     Exchange-correlation= BEEF-VDW
                           (   1   4  43  14   2   0   0)
     Any further DFT definition will be discarded
     Please, verify this is what you really want

  @ DRIVER MODE: Connecting to
 qe_1139763_2482539.sched-torque.pace.gatech.edus4jkjwj9_scratch
  using UNIX socket
  @ DRIVER MODE: Message from server: STATUS
  @ DRIVER MODE: Message from server: INIT
  @ DRIVER MODE: Receiving replica           0          -1
  @ DRIVER MODE: Receiving encoded integer          25
  @ DRIVER MODE:  SCF:  T  FORCE:  T  STRESS:  F  VC:  F  ENSEMBLE:  F
  @ DRIVER MODE:  SCF:  T  FORCE:  T  STRESS:  F  VC:  F  ENSEMBLE:  F

     Using Slab Decomposition

     bravais-lattice index     =            0
     lattice parameter (alat)  =       1.8897  a.u.
     unit-cell volume          =    6658.9804 (a.u.)^3
     number of atoms/cell      =           55
     number of atomic types    =            5
     number of electrons       =       393.00
     number of Kohn-Sham states=          206
     kinetic-energy cutoff     =      29.3995  Ry
     charge density cutoff     =     293.9946  Ry
     scf convergence threshold =      7.3E-08
     mixing beta               =       0.0500
     number of iterations used =            8  plain     mixing
     Exchange-correlation= BEEF-VDW
                           (   1   4  43  14   2   0   0)

     celldm(1)=   1.889726  celldm(2)=   0.000000  celldm(3)=   0.000000
     celldm(4)=   0.000000  celldm(5)=   0.000000  celldm(6)=   0.000000

     crystal axes: (cart. coord. in units of alat)
               a(1) = (   6.579727   0.000000   0.000000 )
               a(2) = (  -0.000775   5.961596   0.000000 )
               a(3) = (   0.000000   0.000000  25.155947 )

     reciprocal axes: (cart. coord. in units 2 pi/alat)
               b(1) = (  0.151982  0.000020  0.000000 )
               b(2) = (  0.000000  0.167740  0.000000 )
               b(3) = (  0.000000  0.000000  0.039752 )

     PseudoPot. # 1 for Ti read from file:
     /storage/coda1/p-amedford6/0/shared/rich_project_chbe-medford/medford-share/data/pseudos_module/espresso/nninc/pbe/van/Ti.UPF
     MD5 check sum: 8e4df49b7f0d34bbd5052bf3f5ea0213
     Pseudo is Ultrasoft, Zval = 12.0
     Generated by new atomic code, or converted to UPF format
     Using radial grid of  851 points,  6 beta functions with:
                l(1) =   0
                l(2) =   0
                l(3) =   1
                l(4) =   1
                l(5) =   2
                l(6) =   2
     Q(r) pseudized with  8 coefficients,  rinner =    1.000   1.000   1.000
                                                       1.000   1.000

     PseudoPot. # 2 for O  read from file:
     /storage/coda1/p-amedford6/0/shared/rich_project_chbe-medford/medford-share/data/pseudos_module/espresso/nninc/pbe/van/O.UPF
     MD5 check sum: 78c19812648e8988a0fe644b0f25305e
     Pseudo is Ultrasoft, Zval =  6.0
     Generated by new atomic code, or converted to UPF format
     Using radial grid of  737 points,  4 beta functions with:
                l(1) =   0
                l(2) =   0
                l(3) =   1
                l(4) =   1
     Q(r) pseudized with  8 coefficients,  rinner =    0.800   0.800   0.800

     PseudoPot. # 3 for C  read from file:
     /storage/coda1/p-amedford6/0/shared/rich_project_chbe-medford/medford-share/data/pseudos_module/espresso/nninc/pbe/van/C.UPF
     MD5 check sum: 1a69bf6b8db32088f5b2163dbdb77a27
     Pseudo is Ultrasoft, Zval =  4.0
     Generated by new atomic code, or converted to UPF format
     Using radial grid of  721 points,  4 beta functions with:
                l(1) =   0
                l(2) =   0
                l(3) =   1
                l(4) =   1
     Q(r) pseudized with  8 coefficients,  rinner =    0.800   0.800   0.800

     PseudoPot. # 4 for H  read from file:
     /storage/coda1/p-amedford6/0/shared/rich_project_chbe-medford/medford-share/data/pseudos_module/espresso/nninc/pbe/van/H.UPF
     MD5 check sum: b5ee9d7bfd3a09ee7748110bda690ff7
     Pseudo is Ultrasoft, Zval =  1.0
     Generated by new atomic code, or converted to UPF format
     Using radial grid of  615 points,  1 beta functions with:
                l(1) =   0
     Q(r) pseudized with  8 coefficients,  rinner =    0.800

     PseudoPot. # 5 for N  read from file:
     /storage/coda1/p-amedford6/0/shared/rich_project_chbe-medford/medford-share/data/pseudos_module/espresso/nninc/pbe/van/N.UPF
     MD5 check sum: 90d10febe142ad51ac9d5be1deb811c4
     Pseudo is Ultrasoft, Zval =  5.0
     Generated by new atomic code, or converted to UPF format
     Using radial grid of  729 points,  4 beta functions with:
                l(1) =   0
                l(2) =   0
                l(3) =   1
                l(4) =   1
     Q(r) pseudized with  8 coefficients,  rinner =    0.800   0.800   0.800

     atomic species   valence    mass     pseudopotential
        Ti1           12.00    47.86700     Ti( 1.00)
        O1             6.00    15.99900     O ( 1.00)
        C1             4.00    12.01100     C ( 1.00)
        H1             1.00     1.00800     H ( 1.00)
        N1             5.00    14.00700     N ( 1.00)

     No symmetry found

   Cartesian axes

     site n.     atom                  positions (alat units)
         1           Ti1 tau(   1) = (   0.0004258   2.9801865   6.0000000  )
         2           Ti1 tau(   2) = (   3.2906075   1.4906267   6.0002472  )
         3           O1  tau(   3) = (   0.0006271   0.0005054   7.9858123  )
         4           O1  tau(   4) = (   3.2906025   0.0005020   7.3038282  )
         5           O1  tau(   5) = (   4.5942328   1.4918067   9.2879030  )
         6           O1  tau(   6) = (   1.9868534   1.4903216   9.2879459  )
         7           Ti1 tau(   7) = (   3.2907910   2.8959150   9.1758416  )
         8           Ti1 tau(   8) = (   0.0015273   1.4827037   9.2680791  )
         9           O1  tau(   9) = (   3.2981156   0.0012339  11.3300471  )
        10           O1  tau(  10) = (   0.0116148   5.9584955  10.6183126  )
        11           O1  tau(  11) = (   1.3033605   1.5036236  12.6199488  )
        12           O1  tau(  12) = (   5.2811161   1.5074500  12.6162500  )
        13           Ti1 tau(  13) = (   0.0407500   2.9455431  12.6352795  )
        14           Ti1 tau(  14) = (   3.3444429   1.4910927  12.4779025  )
        15           O1  tau(  15) = (   0.0052662   0.0451097  14.6026341  )
        16           O1  tau(  16) = (   3.2946143   0.0124870  13.9210852  )
        17           O1  tau(  17) = (   4.5465206   1.5046604  16.0624161  )
        18           O1  tau(  18) = (   2.0546879   1.5048301  16.0609706  )
        19           Ti1 tau(  19) = (   3.2991624   2.9918142  15.6995589  )
        20           Ti1 tau(  20) = (   6.5707204   1.4025535  15.8059435  )
        21           O1  tau(  21) = (   3.2904802   0.0005063   4.7018136  )
        22           O1  tau(  22) = (   0.0164654   0.0145536  17.1360041  )
        23           O1  tau(  23) = (   1.3043587   1.4918075   6.0039043  )
        24           O1  tau(  24) = (   5.2767064   1.4903225   6.0039473  )
        25           Ti1 tau(  25) = (   0.0000382   5.9609847   6.0000000  )
        26           Ti1 tau(  26) = (   3.2902200   4.4714249   6.0002472  )
        27           O1  tau(  27) = (   0.0002396   2.9813036   7.9858123  )
        28           O1  tau(  28) = (   3.2902150   2.9813002   7.3038282  )
        29           O1  tau(  29) = (   4.5938453   4.4726049   9.2879030  )
        30           O1  tau(  30) = (   1.9864658   4.4711199   9.2879459  )
        31           Ti1 tau(  31) = (   3.2891106   5.8743827   9.1763621  )
        32           Ti1 tau(  32) = (   0.0006254   4.4649316   9.2693709  )
        33           O1  tau(  33) = (   3.2977166   2.9913250  11.3287690  )
        34           O1  tau(  34) = (   0.0092240   2.9805883  10.6323155  )
        35           O1  tau(  35) = (   1.3008534   4.4801743  12.6308489  )
        36           O1  tau(  36) = (   5.2850400   4.4860598  12.6280017  )
        37           Ti1 tau(  37) = (   0.0409916   5.9178611  12.5441859  )
        38           Ti1 tau(  38) = (   3.3442415   4.4710906  12.4862270  )
        39           O1  tau(  39) = (   0.0109228   2.9791018  14.7123696  )
        40           O1  tau(  40) = (   3.2998940   2.9912248  13.9043662  )
        41           O1  tau(  41) = (   4.5474046   4.4713503  16.0779382  )
        42           O1  tau(  42) = (   2.0618872   4.4767818  16.0643778  )
        43           Ti1 tau(  43) = (   3.2722838   0.0128901  15.7174356  )
        44           Ti1 tau(  44) = (   6.5592075   4.4947239  16.1563676  )
        45           O1  tau(  45) = (   3.2900926   2.9813045   4.7018136  )
        46           O1  tau(  46) = (   1.3039711   4.4726057   6.0039043  )
        47           O1  tau(  47) = (   5.2763189   4.4711207   6.0039473  )
        48           C1  tau(  48) = (   0.0259503   3.0870652  17.8341721  )
        49           H1  tau(  49) = (   5.8142062   3.6010452  18.3763092  )
        50           H1  tau(  50) = (   6.4784518   2.0305676  18.0614951  )
        51           H1  tau(  51) = (   0.9863100   3.3782628  18.2908018  )
        52           N1  tau(  52) = (   4.7642638   1.7931862  21.6370373  )
        53           H1  tau(  53) = (   4.5527921   2.7808570  21.5386679  )
        54           H1  tau(  54) = (   4.1042548   1.2952780  21.0483319  )
        55           H1  tau(  55) = (   4.5435699   1.5432347  22.5953497  )

     number of k points=    10  Fermi-Dirac smearing, width (Ry)=  0.0073
                       cart. coord. in units 2pi/alat
        k(    1) = (   0.0000000   0.0000000   0.0000000), wk =   0.1250000
        k(    2) = (   0.0000000   0.0419351   0.0000000), wk =   0.2500000
        k(    3) = (   0.0000000  -0.0838702   0.0000000), wk =   0.1250000
        k(    4) = (   0.0379955   0.0000049   0.0000000), wk =   0.2500000
        k(    5) = (   0.0379955   0.0419400   0.0000000), wk =   0.2500000
        k(    6) = (   0.0379955  -0.0838652   0.0000000), wk =   0.2500000
        k(    7) = (   0.0379955  -0.0419301   0.0000000), wk =   0.2500000
        k(    8) = (  -0.0759910  -0.0000099   0.0000000), wk =   0.1250000
        k(    9) = (  -0.0759910   0.0419252   0.0000000), wk =   0.2500000
        k(   10) = (  -0.0759910  -0.0838800   0.0000000), wk =   0.1250000

     Initial potential from superposition of free atoms

     starting charge  376.99914, renormalised to  393.00000

     negative rho (up, down):  1.001E-02 0.000E+00

     %%%%%%%%%%%%%%%%%%%%%%%%%%%%%%%%%%%%%%%%%%%%%%%%%%%%%%%%%%%%%%%%%%%%%%%%
     %                                                                      %
     % You are using vdW-DF, which was implemented by the Thonhauser group. %
     % Please cite the following two papers that made this development      %
     % possible and the two reviews that describe the various versions:     %
     %                                                                      %
     %   T. Thonhauser et al., PRL 115, 136402 (2015).                      %
     %   T. Thonhauser et al., PRB 76, 125112 (2007).                       %
     %   K. Berland et al., Rep. Prog. Phys. 78, 066501 (2015).             %
     %   D.C. Langreth et al., J. Phys.: Condens. Matter 21, 084203 (2009). %
     %                                                                      %
     %                                                                      %
     % If you are calculating the stress with vdW-DF, please also cite:     %
     %                                                                      %
     %   R. Sabatini et al., J. Phys.: Condens. Matter 24, 424209 (2012).   %
     %                                                                      %
     %%%%%%%%%%%%%%%%%%%%%%%%%%%%%%%%%%%%%%%%%%%%%%%%%%%%%%%%%%%%%%%%%%%%%%%%

     Adding external electric field

     Computed dipole along edir(3) :
        Dipole               -9.0616 Ry au,        -23.0322 Debye
        Dipole field         -0.0171 Ry au,

        Potential amp.        1.5852 Ry
        Total length         46.3494 bohr

     Starting wfcs are  298 atomic wfcs
  @ DRIVER MODE: Message from server: STATUS
  @ DRIVER MODE: Message from server: POSDATA
  @ DRIVER MODE: Reading and sharing cell
  @ DRIVER MODE: Reading and sharing positions
  @ DRIVER MODE: Received positions

     Self-consistent Calculation

     iteration #  1     ecut=    29.40 Ry     beta= 0.05
     Davidson diagonalization with overlap
     c_bands:  1 eigenvalues not converged
     c_bands:  1 eigenvalues not converged
     c_bands:  1 eigenvalues not converged
     ethr =  1.00E-05,  avg # of iterations = 17.8

[...]

     total energy              =   -2692.43035558 Ry
     estimated scf accuracy    <    2566.22105188 Ry

[...]

     iteration #  3     ecut=    29.40 Ry     beta= 0.05
     Davidson diagonalization with overlap
     ethr =  1.00E-02,  avg # of iterations = 16.4

[...]

     iteration # 60     ecut=    29.40 Ry     beta= 0.05
     Davidson diagonalization with overlap
     c_bands:  1 eigenvalues not converged
     ethr =  5.71E-10,  avg # of iterations = 13.0

[...]

     total energy              =   -2922.78939354 Ry
     estimated scf accuracy    <       0.00000008 Ry

     iteration # 69     ecut=    29.40 Ry     beta= 0.05
     Davidson diagonalization with overlap
     ethr =  1.94E-11,  avg # of iterations =  2.0

     negative rho (up, down):  1.131E-02 0.000E+00

     Adding external electric field

     Computed dipole along edir(3) :
        Dipole                0.5501 Ry au,          1.3982 Debye
        Dipole field          0.0010 Ry au,

        Potential amp.       -0.0962 Ry
        Total length         46.3494 bohr

     End of self-consistent calculation

          k = 0.0000 0.0000 0.0000 ( 18029 PWs)   bands (ev):

   -56.0341 -56.0303 -56.0000 -55.9938 -55.9017 -55.8669 -55.8665 -55.8420
   -55.8235 -55.8080 -55.8029 -55.7692 -55.5693 -55.4026 -55.0094 -54.9754
   -32.5886 -32.5160 -32.3611 -32.3552 -32.3412 -32.3401 -32.3271 -32.2936
   -32.2766 -32.2396 -32.2336 -32.2330 -32.2097 -32.1863 -32.1734 -32.1671
   -32.1379 -32.1354 -32.1212 -32.0913 -32.0811 -32.0702 -32.0387 -32.0337
   -32.0294 -32.0279 -32.0135 -32.0120 -32.0052 -31.9803 -31.9795 -31.9771
   -31.9721 -31.9714 -31.9560 -31.9468 -31.9152 -31.8482 -31.7835 -31.6901
   -31.6311 -31.5200 -31.4165 -31.3283 -31.3059 -31.2332 -31.1467 -31.0357
   -16.7683 -16.5050 -16.2729 -16.1824 -16.1326 -16.0460 -15.8686 -15.7522
   -15.7036 -15.6027 -15.5703 -15.5503 -15.5338 -15.5034 -15.4952 -15.4700
   -15.4588 -15.4525 -15.4179 -15.3900 -15.3648 -15.3503 -15.2305 -15.1780
   -15.1619 -15.1306 -15.0826 -15.0665 -14.6126 -13.6559 -13.5121 -13.3958
    -9.0484  -4.1430  -3.9629  -3.9377  -3.8892  -3.8474  -3.7146  -3.6973
    -3.6449  -3.5844  -3.2672  -3.2096  -3.2015  -3.1606  -3.1460  -2.9904
    -2.9250  -2.8508  -2.8342  -2.8280  -2.8030  -2.7976  -2.7933  -2.7503
    -2.7078  -2.6543  -2.6299  -2.5571  -2.5189  -2.4439  -2.3708  -2.3437
    -2.3014  -2.2958  -2.2620  -2.2503  -2.2419  -2.2315  -2.1972  -2.1764
    -2.0016  -1.9427  -1.8868  -1.8164  -1.8032  -1.6383  -1.5318  -1.4842
    -1.4650  -1.4580  -1.4398  -1.4230  -1.3271  -1.2090  -1.1762  -1.1269
    -1.0787  -1.0300  -1.0003  -0.9000  -0.8834  -0.7925  -0.7791  -0.7606
    -0.6493  -0.6222  -0.4912  -0.4703  -0.4632  -0.4040  -0.3881  -0.3153
    -0.2911  -0.2349  -0.1694  -0.1573  -0.0891  -0.0630  -0.0600  -0.0030
     0.0013   0.0466   0.0607   0.1706   0.2268   0.2761   0.3301   0.4355
     0.5165   0.6308   0.6774   0.7370   0.9386   1.0122   1.1216   1.1818
     1.2052   1.4659   1.5835   1.6290   3.1046   3.1896   3.2113   3.2371
     3.3446   3.3696   3.5551   3.5718   3.6061   3.6260

[...]

          k = 0.0380-0.0419 0.0000 ( 17876 PWs)   bands (ev):

[...]

          k =-0.0760-0.0000 0.0000 ( 17886 PWs)   bands (ev):

[...]

          k =-0.0760-0.0839 0.0000 ( 17948 PWs)   bands (ev):

   -56.0176 -56.0164 -56.0149 -56.0090 -55.8868 -55.8816 -55.8581 -55.8320
   -55.8256 -55.8237 -55.7873 -55.7850 -55.5679 -55.4040 -54.9924 -54.9922
   -32.3945 -32.3880 -32.3317 -32.3309 -32.3130 -32.3120 -32.2933 -32.2886
   -32.2223 -32.2213 -32.2183 -32.2075 -32.1673 -32.1661 -32.1470 -32.1425
   -32.1383 -32.1371 -32.1359 -32.1277 -32.1265 -32.1237 -32.0881 -32.0775
   -32.0729 -32.0508 -32.0466 -32.0327 -32.0238 -32.0229 -32.0190 -32.0171
   -32.0018 -32.0005 -31.9965 -31.9903 -31.9260 -31.8311 -31.7856 -31.6927
   -31.6755 -31.5643 -31.3186 -31.3185 -31.2293 -31.2292 -31.1900 -31.1899
   -16.2102 -16.1872 -15.9810 -15.9466 -15.9433 -15.9361 -15.8055 -15.7251
   -15.7246 -15.6987 -15.6374 -15.6261 -15.6044 -15.5658 -15.5414 -15.5392
   -15.5203 -15.5153 -15.4891 -15.4790 -15.4663 -15.4590 -15.3664 -15.3468
   -15.3429 -15.2935 -15.1480 -15.0019 -14.8935 -13.6551 -13.4977 -13.4975
    -9.0628  -3.7168  -3.7081  -3.5064  -3.4751  -3.2328  -3.1944  -3.1813
    -3.1124  -2.9560  -2.9163  -2.8985  -2.8906  -2.8463  -2.8387  -2.8333
    -2.8221  -2.7936  -2.7759  -2.7378  -2.7307  -2.7174  -2.7119  -2.6993
    -2.6823  -2.6524  -2.6443  -2.6219  -2.6081  -2.5889  -2.5695  -2.5439
    -2.5390  -2.4104  -2.2518  -2.2285  -2.1673  -2.1599  -2.1110  -2.0999
    -2.0941  -2.0668  -2.0377  -2.0082  -1.8486  -1.7405  -1.7258  -1.7092
    -1.6407  -1.6126  -1.5288  -1.4371  -1.3962  -1.3783  -1.3105  -1.3067
    -1.2558  -1.2317  -1.2108  -1.1435  -1.0870  -1.0498  -0.9927  -0.9868
    -0.9785  -0.9084  -0.8660  -0.7911  -0.7824  -0.7454  -0.7104  -0.6549
    -0.6168  -0.6099  -0.5192  -0.4871  -0.3747  -0.3261  -0.0679  -0.0213
     0.0336   0.0616   0.1271   0.1848   0.1891   0.2863   0.2900   0.3261
     0.4059   0.4271   0.4983   0.5175   0.5675   0.7293   1.2777   1.3763
     1.3771   1.4486   1.4490   1.4564   3.4025   3.4141   3.4212   3.4660
     3.6112   3.6158   3.6353   3.6361   3.7746   3.7975

     the Fermi energy is     3.1011 ev

!    total energy              =   -2922.78942073 Ry
     estimated scf accuracy    <       0.00000007 Ry
     smearing contrib. (-TS)   =      -0.02169545 Ry
     internal energy E=F+TS    =   -2922.76772529 Ry

     The total energy is F=E-TS. E is the sum of the following terms:
     one-electron contribution =  -23651.34707465 Ry
     hartree contribution      =   11909.88062057 Ry
     xc contribution           =    -482.26360285 Ry
     ewald contribution        =    9300.96176056 Ry
     electric field correction =       0.00057109 Ry

     convergence has been achieved in  69 iterations

     Forces acting on atoms (cartesian axes, Ry/au):

     atom    1 type  1   force =     0.00005239   -0.00022519    0.09685960
     atom    2 type  1   force =    -0.00017771   -0.00055863   -0.17515232
     atom    3 type  2   force =     0.00002060   -0.00004803   -0.02503654
     atom    4 type  2   force =     0.00002765   -0.00139755    0.05263351
     atom    5 type  2   force =    -0.01205174   -0.00050676    0.00330313
     atom    6 type  2   force =     0.01377859    0.00009072    0.00270354
     atom    7 type  1   force =    -0.00058223    0.00056878   -0.01156180
     atom    8 type  1   force =     0.00020513    0.01201643    0.02901073
     atom    9 type  2   force =    -0.00029678    0.00057295    0.00058295
     atom   10 type  2   force =    -0.00153687    0.00252722   -0.01945751
     atom   11 type  2   force =    -0.00019116   -0.00037725   -0.00013701
     atom   12 type  2   force =    -0.00090025    0.00004199   -0.00029900
     atom   13 type  1   force =     0.00054421   -0.00097153    0.00107400
     atom   14 type  1   force =     0.00146191    0.00057945   -0.00067806
     atom   15 type  2   force =    -0.00026877   -0.00102121    0.00042727
     atom   16 type  2   force =    -0.00022043   -0.00020160   -0.00146621
     atom   17 type  2   force =    -0.00086191    0.00060577   -0.00016127
     atom   18 type  2   force =     0.00027906    0.00104589    0.00013343
     atom   19 type  1   force =    -0.00002741   -0.00111560    0.00064317
     atom   20 type  1   force =    -0.00037579    0.00046815   -0.00018336
     atom   21 type  2   force =     0.00004757   -0.00003720    0.10323116
     atom   22 type  2   force =     0.00026159   -0.00030897    0.00097467
     atom   23 type  2   force =    -0.07156556   -0.00014715   -0.02769336
     atom   24 type  2   force =     0.07145898    0.00026541   -0.02772634
     atom   25 type  1   force =     0.00005222   -0.00028131    0.09645492
     atom   26 type  1   force =    -0.00020048   -0.00029518   -0.17537688
     atom   27 type  2   force =     0.00008669   -0.00017369   -0.02382943
     atom   28 type  2   force =     0.00004616   -0.00114271    0.05271646
     atom   29 type  2   force =    -0.01209328    0.00085383    0.00276964
     atom   30 type  2   force =     0.01373826    0.00124028    0.00218868
     atom   31 type  1   force =    -0.00047323    0.00303694   -0.01242453
     atom   32 type  1   force =     0.00018824   -0.01423344    0.02941533
     atom   33 type  2   force =    -0.00023042   -0.00062927    0.00043905
     atom   34 type  2   force =    -0.00097830    0.00175975   -0.02266304
     atom   35 type  2   force =    -0.00067878   -0.00060265   -0.00011833
     atom   36 type  2   force =     0.00003089   -0.00015258   -0.00033640
     atom   37 type  1   force =     0.00065275    0.00027558    0.00053050
     atom   38 type  1   force =     0.00151755    0.00019014   -0.00067552
     atom   39 type  2   force =     0.00016819    0.00013497   -0.00121947
     atom   40 type  2   force =    -0.00034982   -0.00010275    0.00175998
     atom   41 type  2   force =    -0.00098037   -0.00090486   -0.00024291
     atom   42 type  2   force =     0.00010083   -0.00158391    0.00032938
     atom   43 type  1   force =     0.00040078    0.00066093    0.00106332
     atom   44 type  1   force =     0.00056523   -0.00029290    0.00064290
     atom   45 type  2   force =     0.00005388   -0.00009519    0.10318552
     atom   46 type  2   force =    -0.07155018   -0.00011365   -0.02769728
     atom   47 type  2   force =     0.07145856    0.00031958   -0.02773001
     atom   48 type  3   force =     0.01757475    0.00082246   -0.00103342
     atom   49 type  4   force =    -0.00741122    0.00312830    0.00370231
     atom   50 type  4   force =    -0.00181897   -0.00176121    0.00136990
     atom   51 type  4   force =    -0.00929335   -0.00201133   -0.00430576
     atom   52 type  5   force =    -0.00007722   -0.00019218   -0.00037329
     atom   53 type  4   force =     0.00064121   -0.00003384   -0.00037168
     atom   54 type  4   force =     0.00006239    0.00019371   -0.00011970
     atom   55 type  4   force =    -0.00028404    0.00012009   -0.00007464

     Total force =     0.369052     Total SCF correction =     0.000467
  @ DRIVER MODE: Message from server: STATUS
  @ DRIVER MODE: Message from server: GETFORCE
  @ DRIVER MODE: Returning v,forces,stress,ensemble

     Writing output data file ./calc.save/
  @ DRIVER MODE: Message from server: EXIT
  @ DRIVE MODE: Exiting

     General routines

     Parallel routines

   This run was terminated on:  12:40:28   2Aug2021

   JOB DONE.