     Program PWSCF v.6.7GPU starts on 16Sep2021 at  3:45:11

     R & G space division:  proc/nbgrp/npool/nimage =      10
     Reading input from /storage/home/hcoda1/3/ntian30/research/carbon/CxH_vib/H2O_calc/ads_slab/CH3OHH2O_e/out_0038/pw.inp
Warning: card &CELL ignored
Warning: card   CELL_DYNAMICS='IPI', ignored
Warning: card / ignored

     Current dimensions of program PWSCF are:
     Max number of different atomic species (ntypx) = 10
     Max number of k-points (npk) =  40000
     Max angular momentum in pseudopotentials (lmaxx) =  3
     Presently no symmetry can be used with electric field

     Message from routine cell_base_init:
     DEPRECATED: use true lattice parameter, not A to a.u. conversion factor

     IMPORTANT: XC functional enforced from input :
     Exchange-correlation= BEEF-VDW
                           (   1   4  43  14   2   0   0)
     Any further DFT definition will be discarded
     Please, verify this is what you really want

  @ DRIVER MODE: Connecting to
 qe_1139763_2852623.sched-torque.pace.gatech.eduwrkmefx9_scratch
  using UNIX socket
  @ DRIVER MODE: Message from server: STATUS
  @ DRIVER MODE: Message from server: INIT
  @ DRIVER MODE: Receiving replica           0          -1
  @ DRIVER MODE: Receiving encoded integer          25
  @ DRIVER MODE:  SCF:  T  FORCE:  T  STRESS:  F  VC:  F  ENSEMBLE:  F
  @ DRIVER MODE:  SCF:  T  FORCE:  T  STRESS:  F  VC:  F  ENSEMBLE:  F

     Using Slab Decomposition

     bravais-lattice index     =            0
     lattice parameter (alat)  =       1.8897  a.u.
     unit-cell volume          =    6658.9804 (a.u.)^3
     number of atoms/cell      =           56
     number of atomic types    =            4
     number of electrons       =       400.00
     number of Kohn-Sham states=          210
     kinetic-energy cutoff     =      29.3995  Ry
     charge density cutoff     =     293.9946  Ry
     scf convergence threshold =      7.3E-08
     mixing beta               =       0.0500
     number of iterations used =            8  plain     mixing
     Exchange-correlation= BEEF-VDW
                           (   1   4  43  14   2   0   0)

     celldm(1)=   1.889726  celldm(2)=   0.000000  celldm(3)=   0.000000
     celldm(4)=   0.000000  celldm(5)=   0.000000  celldm(6)=   0.000000

     crystal axes: (cart. coord. in units of alat)
               a(1) = (   6.579727   0.000000   0.000000 )
               a(2) = (  -0.000775   5.961596   0.000000 )
               a(3) = (   0.000000   0.000000  25.155947 )

     reciprocal axes: (cart. coord. in units 2 pi/alat)
               b(1) = (  0.151982  0.000020  0.000000 )
               b(2) = (  0.000000  0.167740  0.000000 )
               b(3) = (  0.000000  0.000000  0.039752 )

     PseudoPot. # 1 for Ti read from file:
     /storage/coda1/p-amedford6/0/shared/rich_project_chbe-medford/medford-share/data/pseudos_module/espresso/nninc/pbe/van/Ti.UPF
     MD5 check sum: 8e4df49b7f0d34bbd5052bf3f5ea0213
     Pseudo is Ultrasoft, Zval = 12.0
     Generated by new atomic code, or converted to UPF format
     Using radial grid of  851 points,  6 beta functions with:
                l(1) =   0
                l(2) =   0
                l(3) =   1
                l(4) =   1
                l(5) =   2
                l(6) =   2
     Q(r) pseudized with  8 coefficients,  rinner =    1.000   1.000   1.000
                                                       1.000   1.000

     PseudoPot. # 2 for O  read from file:
     /storage/coda1/p-amedford6/0/shared/rich_project_chbe-medford/medford-share/data/pseudos_module/espresso/nninc/pbe/van/O.UPF
     MD5 check sum: 78c19812648e8988a0fe644b0f25305e
     Pseudo is Ultrasoft, Zval =  6.0
     Generated by new atomic code, or converted to UPF format
     Using radial grid of  737 points,  4 beta functions with:
                l(1) =   0
                l(2) =   0
                l(3) =   1
                l(4) =   1
     Q(r) pseudized with  8 coefficients,  rinner =    0.800   0.800   0.800

     PseudoPot. # 3 for C  read from file:
     /storage/coda1/p-amedford6/0/shared/rich_project_chbe-medford/medford-share/data/pseudos_module/espresso/nninc/pbe/van/C.UPF
     MD5 check sum: 1a69bf6b8db32088f5b2163dbdb77a27
     Pseudo is Ultrasoft, Zval =  4.0
     Generated by new atomic code, or converted to UPF format
     Using radial grid of  721 points,  4 beta functions with:
                l(1) =   0
                l(2) =   0
                l(3) =   1
                l(4) =   1
     Q(r) pseudized with  8 coefficients,  rinner =    0.800   0.800   0.800

     PseudoPot. # 4 for H  read from file:
     /storage/coda1/p-amedford6/0/shared/rich_project_chbe-medford/medford-share/data/pseudos_module/espresso/nninc/pbe/van/H.UPF
     MD5 check sum: b5ee9d7bfd3a09ee7748110bda690ff7
     Pseudo is Ultrasoft, Zval =  1.0
     Generated by new atomic code, or converted to UPF format
     Using radial grid of  615 points,  1 beta functions with:
                l(1) =   0
     Q(r) pseudized with  8 coefficients,  rinner =    0.800

     atomic species   valence    mass     pseudopotential
        Ti1           12.00    47.86700     Ti( 1.00)
        O1             6.00    15.99900     O ( 1.00)
        C1             4.00    12.01100     C ( 1.00)
        H1             1.00     1.00800     H ( 1.00)

     No symmetry found

   Cartesian axes

     site n.     atom                  positions (alat units)
         1           Ti1 tau(   1) = (   0.0004258   2.9801865   6.0000000  )
         2           Ti1 tau(   2) = (   3.2906075   1.4906267   6.0002472  )
         3           O1  tau(   3) = (   0.0006271   0.0005054   7.9858123  )
         4           O1  tau(   4) = (   3.2906025   0.0005020   7.3038282  )
         5           O1  tau(   5) = (   4.5942328   1.4918067   9.2879030  )
         6           O1  tau(   6) = (   1.9868534   1.4903216   9.2879459  )
         7           Ti1 tau(   7) = (   3.3179988   2.9667087   9.1587561  )
         8           Ti1 tau(   8) = (   0.0368451   1.4888401   9.2646154  )
         9           O1  tau(   9) = (   3.2981896   5.9413050  11.3756853  )
        10           O1  tau(  10) = (   0.0022081   5.9550161  10.6068466  )
        11           O1  tau(  11) = (   1.2930414   1.4711740  12.6526869  )
        12           O1  tau(  12) = (   5.2963464   1.4745835  12.6500758  )
        13           Ti1 tau(  13) = (   0.0229324   2.9590759  12.5385950  )
        14           Ti1 tau(  14) = (   3.3157970   1.4644123  12.5194148  )
        15           O1  tau(  15) = (   6.5691168   5.9481840  14.6869282  )
        16           O1  tau(  16) = (   3.2964787   5.9455965  14.0277316  )
        17           O1  tau(  17) = (   4.5665908   1.5027878  16.2081754  )
        18           O1  tau(  18) = (   2.0283028   1.5092035  16.1774433  )
        19           Ti1 tau(  19) = (   3.2999954   2.9453206  15.7178785  )
        20           Ti1 tau(  20) = (   6.5724188   1.3235339  15.9896992  )
        21           O1  tau(  21) = (   3.2904802   0.0005063   4.7018136  )
        22           O1  tau(  22) = (   0.0286320   5.9425150  17.2304330  )
        23           O1  tau(  23) = (   1.3043587   1.4918075   6.0039043  )
        24           O1  tau(  24) = (   5.2767064   1.4903225   6.0039473  )
        25           Ti1 tau(  25) = (   0.0000382   5.9609847   6.0000000  )
        26           Ti1 tau(  26) = (   3.2902200   4.4714249   6.0002472  )
        27           O1  tau(  27) = (   0.0002396   2.9813036   7.9858123  )
        28           O1  tau(  28) = (   3.2902150   2.9813002   7.3038282  )
        29           O1  tau(  29) = (   4.5938453   4.4726049   9.2879030  )
        30           O1  tau(  30) = (   1.9864658   4.4711199   9.2879459  )
        31           Ti1 tau(  31) = (   3.3176359   5.9492212   9.1540102  )
        32           Ti1 tau(  32) = (   0.0367062   4.4560090   9.2708352  )
        33           O1  tau(  33) = (   3.2951800   2.9650663  11.3684769  )
        34           O1  tau(  34) = (   0.0080098   2.9764013  10.6279654  )
        35           O1  tau(  35) = (   1.2931912   4.4560454  12.6592269  )
        36           O1  tau(  36) = (   5.2946864   4.4524020  12.6579832  )
        37           Ti1 tau(  37) = (   0.0159028   5.9413441  12.4831893  )
        38           Ti1 tau(  38) = (   3.3151975   4.4500431  12.5204281  )
        39           O1  tau(  39) = (   0.0034497   2.9621527  14.8596962  )
        40           O1  tau(  40) = (   3.2989893   2.9535984  13.9376031  )
        41           O1  tau(  41) = (   4.5724332   4.4114593  16.1445292  )
        42           O1  tau(  42) = (   2.0255208   4.3883007  16.1585022  )
        43           Ti1 tau(  43) = (   3.2821299   5.9114753  15.8432964  )
        44           Ti1 tau(  44) = (   6.5414858   4.5242847  15.8739915  )
        45           O1  tau(  45) = (   3.2900926   2.9813045   4.7018136  )
        46           O1  tau(  46) = (   1.3039711   4.4726057   6.0039043  )
        47           O1  tau(  47) = (   5.2763189   4.4711207   6.0039473  )
        48           C1  tau(  48) = (   5.9754720   3.1749164  18.9278073  )
        49           O1  tau(  49) = (   0.1533887   3.0270296  17.7012840  )
        50           H1  tau(  50) = (   4.9293134   3.0706859  18.6584277  )
        51           H1  tau(  51) = (   1.0910173   3.2466920  17.8500278  )
        52           H1  tau(  52) = (   6.2690755   2.3937635  19.6305738  )
        53           H1  tau(  53) = (   6.1431946   4.1694627  19.3379575  )
        54           O1  tau(  54) = (   3.1823115   5.9428592  18.3689464  )
        55           H1  tau(  55) = (   3.8852673   0.6353712  18.4582360  )
        56           H1  tau(  56) = (   2.3406934   0.4831942  18.3201771  )

     number of k points=    10  Fermi-Dirac smearing, width (Ry)=  0.0073
                       cart. coord. in units 2pi/alat
        k(    1) = (   0.0000000   0.0000000   0.0000000), wk =   0.1250000
        k(    2) = (   0.0000000   0.0419351   0.0000000), wk =   0.2500000
        k(    3) = (   0.0000000  -0.0838702   0.0000000), wk =   0.1250000
        k(    4) = (   0.0379955   0.0000049   0.0000000), wk =   0.2500000
        k(    5) = (   0.0379955   0.0419400   0.0000000), wk =   0.2500000
        k(    6) = (   0.0379955  -0.0838652   0.0000000), wk =   0.2500000
        k(    7) = (   0.0379955  -0.0419301   0.0000000), wk =   0.2500000
        k(    8) = (  -0.0759910  -0.0000099   0.0000000), wk =   0.1250000
        k(    9) = (  -0.0759910   0.0419252   0.0000000), wk =   0.2500000
        k(   10) = (  -0.0759910  -0.0838800   0.0000000), wk =   0.1250000

     Initial potential from superposition of free atoms

     starting charge  383.99915, renormalised to  400.00000

     negative rho (up, down):  1.599E-02 0.000E+00

     %%%%%%%%%%%%%%%%%%%%%%%%%%%%%%%%%%%%%%%%%%%%%%%%%%%%%%%%%%%%%%%%%%%%%%%%
     %                                                                      %
     % You are using vdW-DF, which was implemented by the Thonhauser group. %
     % Please cite the following two papers that made this development      %
     % possible and the two reviews that describe the various versions:     %
     %                                                                      %
     %   T. Thonhauser et al., PRL 115, 136402 (2015).                      %
     %   T. Thonhauser et al., PRB 76, 125112 (2007).                       %
     %   K. Berland et al., Rep. Prog. Phys. 78, 066501 (2015).             %
     %   D.C. Langreth et al., J. Phys.: Condens. Matter 21, 084203 (2009). %
     %                                                                      %
     %                                                                      %
     % If you are calculating the stress with vdW-DF, please also cite:     %
     %                                                                      %
     %   R. Sabatini et al., J. Phys.: Condens. Matter 24, 424209 (2012).   %
     %                                                                      %
     %%%%%%%%%%%%%%%%%%%%%%%%%%%%%%%%%%%%%%%%%%%%%%%%%%%%%%%%%%%%%%%%%%%%%%%%

     Adding external electric field

     Computed dipole along edir(3) :
        Dipole              -11.7400 Ry au,        -29.8402 Debye
        Dipole field         -0.0222 Ry au,

        Potential amp.        2.0537 Ry
        Total length         46.3494 bohr

     Starting wfcs are  302 atomic wfcs
  @ DRIVER MODE: Message from server: STATUS
  @ DRIVER MODE: Message from server: POSDATA
  @ DRIVER MODE: Reading and sharing cell
  @ DRIVER MODE: Reading and sharing positions
  @ DRIVER MODE: Received positions

     Self-consistent Calculation

     iteration #  1     ecut=    29.40 Ry     beta= 0.05
     Davidson diagonalization with overlap
     c_bands:  2 eigenvalues not converged
     c_bands:  2 eigenvalues not converged
     c_bands:  4 eigenvalues not converged
     c_bands:  3 eigenvalues not converged
     c_bands:  4 eigenvalues not converged
     c_bands:  4 eigenvalues not converged
     c_bands:  3 eigenvalues not converged
     c_bands:  2 eigenvalues not converged
     ethr =  1.00E-05,  avg # of iterations = 21.3

[...]

     total energy              =   -2420.22656548 Ry
     estimated scf accuracy    <    6189.14517550 Ry

     iteration #  2     ecut=    29.40 Ry     beta= 0.05
     Davidson diagonalization with overlap
     ethr =  1.00E-02,  avg # of iterations = 29.0

[...]

     iteration # 78     ecut=    29.40 Ry     beta= 0.05
     Davidson diagonalization with overlap
     c_bands:  1 eigenvalues not converged
     ethr =  2.52E-10,  avg # of iterations = 12.5

[...]

     total energy              =   -2967.47579229 Ry
     estimated scf accuracy    <       0.00000012 Ry

     iteration # 83     ecut=    29.40 Ry     beta= 0.05
     Davidson diagonalization with overlap
     ethr =  3.04E-11,  avg # of iterations = 10.5

     negative rho (up, down):  1.588E-02 0.000E+00

     Adding external electric field

     Computed dipole along edir(3) :
        Dipole                1.3765 Ry au,          3.4987 Debye
        Dipole field          0.0026 Ry au,

        Potential amp.       -0.2408 Ry
        Total length         46.3494 bohr

     End of self-consistent calculation

          k = 0.0000 0.0000 0.0000 ( 18029 PWs)   bands (ev):

   -55.2504 -55.2226 -55.2144 -55.1883 -55.1567 -55.1489 -55.1432 -55.0965
   -55.0962 -55.0900 -55.0557 -55.0379 -55.0081 -55.0039 -54.3122 -54.2781
   -31.8171 -31.7667 -31.7177 -31.6277 -31.5655 -31.5551 -31.5504 -31.5480
   -31.5115 -31.4821 -31.4659 -31.4638 -31.4527 -31.4427 -31.4285 -31.4141
   -31.3969 -31.3908 -31.3875 -31.3830 -31.3766 -31.3681 -31.3453 -31.3406
   -31.3386 -31.3189 -31.3162 -31.3144 -31.2937 -31.2798 -31.2643 -31.2438
   -31.2423 -31.2415 -31.2304 -31.2212 -31.2030 -31.1893 -31.1773 -31.1727
   -31.1596 -31.1491 -30.7241 -30.6218 -30.6002 -30.5405 -30.4542 -30.3430
   -20.1693 -19.0814 -16.0797 -15.8326 -15.6927 -15.5942 -15.4734 -15.3399
   -15.2797 -15.1649 -15.0739 -14.9829 -14.9688 -14.9515 -14.9213 -14.8985
   -14.8736 -14.8353 -14.8092 -14.7655 -14.7567 -14.7402 -14.7334 -14.6967
   -14.6936 -14.6486 -14.6402 -14.4833 -14.4130 -14.3529 -14.1312 -12.8125
   -12.6931 -11.1870  -6.9261  -6.8413  -5.1364  -5.0156  -3.4193  -3.2627
    -3.2264  -3.2028  -3.1833  -3.1443  -3.0588  -2.9608  -2.7895  -2.6792
    -2.5417  -2.5346  -2.4883  -2.4612  -2.4041  -2.3222  -2.2338  -2.2074
    -2.1725  -2.1389  -2.1358  -2.1198  -2.1095  -2.0537  -2.0178  -1.9602
    -1.8638  -1.8140  -1.7733  -1.7554  -1.6952  -1.6514  -1.6164  -1.5891
    -1.5824  -1.5758  -1.5175  -1.5152  -1.5072  -1.4959  -1.4782  -1.2897
    -1.2498  -1.1171  -1.0264  -0.9859  -0.9717  -0.8178  -0.8110  -0.7663
    -0.7335  -0.6992  -0.6586  -0.6011  -0.5036  -0.4726  -0.4216  -0.3834
    -0.2753  -0.2432  -0.2123  -0.1575  -0.0502  -0.0418  -0.0160   0.0033
     0.0774   0.1731   0.2025   0.2234   0.3005   0.3056   0.3668   0.4076
     0.4413   0.5162   0.5614   0.5726   0.6643   0.6811   0.6949   0.7214
     0.7249   0.8234   0.8593   0.9041   0.9225   1.0741   1.1683   1.3080
     1.3367   1.6033   1.6986   1.7141   1.8744   2.3000   2.3547   3.8409
     3.9092   3.9475   3.9554   3.9687   4.0483   4.3319   4.3471   4.3591
     4.3688   4.3869

[...]

          k = 0.0380-0.0419 0.0000 ( 17876 PWs)   bands (ev):

[...]

          k =-0.0760-0.0000 0.0000 ( 17886 PWs)   bands (ev):

[...]

          k =-0.0760-0.0839 0.0000 ( 17948 PWs)   bands (ev):

   -55.2334 -55.2312 -55.2073 -55.2034 -55.1536 -55.1431 -55.1359 -55.1039
   -55.1029 -55.0741 -55.0713 -55.0227 -55.0191 -55.0100 -54.2951 -54.2950
   -31.6836 -31.6242 -31.6172 -31.5345 -31.5308 -31.5171 -31.5057 -31.5006
   -31.4931 -31.4725 -31.4543 -31.4488 -31.4446 -31.4312 -31.4054 -31.4031
   -31.3914 -31.3890 -31.3817 -31.3808 -31.3774 -31.3741 -31.3614 -31.3474
   -31.3395 -31.3346 -31.3336 -31.3271 -31.3241 -31.3239 -31.3235 -31.3055
   -31.2982 -31.2954 -31.2770 -31.2725 -31.2719 -31.2478 -31.2440 -31.2089
   -31.2047 -31.1917 -30.6128 -30.6127 -30.5369 -30.5366 -30.4975 -30.4973
   -20.1660 -19.0807 -15.6379 -15.5392 -15.3890 -15.2658 -15.2535 -15.2408
   -15.1886 -15.1239 -15.1113 -15.0601 -15.0482 -15.0167 -15.0010 -14.9949
   -14.9589 -14.8505 -14.8464 -14.8361 -14.8154 -14.7704 -14.7594 -14.7523
   -14.7400 -14.7040 -14.6955 -14.6813 -14.6709 -14.5792 -14.4406 -12.7945
   -12.7937 -11.1889  -6.9225  -6.8414  -5.1376  -4.9942  -3.1837  -2.9849
    -2.8073  -2.7285  -2.6309  -2.4837  -2.4690  -2.3880  -2.3760  -2.3256
    -2.2548  -2.2517  -2.2482  -2.1668  -2.1547  -2.1546  -2.1333  -2.1137
    -2.0738  -2.0649  -2.0404  -2.0310  -1.9894  -1.9588  -1.9457  -1.9286
    -1.9183  -1.9144  -1.8833  -1.8687  -1.8532  -1.8113  -1.7884  -1.7284
    -1.6409  -1.6033  -1.4805  -1.4780  -1.4412  -1.4126  -1.3874  -1.3469
    -1.3270  -1.2791  -1.2592  -1.2336  -1.0500  -1.0340  -0.9787  -0.9393
    -0.9202  -0.9064  -0.8444  -0.7725  -0.7457  -0.7146  -0.6484  -0.5754
    -0.4788  -0.4553  -0.4467  -0.3410  -0.2885  -0.2489  -0.2446  -0.2355
    -0.2112  -0.1629  -0.1431  -0.0812  -0.0422   0.0015   0.0269   0.0438
     0.2249   0.2633   0.3217   0.4129   0.4418   0.5869   0.6355   0.6874
     0.7479   0.8243   0.8353   0.9013   1.0155   1.0277   1.0575   1.1347
     1.1780   1.1837   1.2088   2.0653   2.0674   2.1690   2.1720   3.9707
     4.0782   4.0968   4.1756   4.2418   4.3500   4.3630   4.3923   4.4028
     4.4487   4.4797

     the Fermi energy is     3.8973 ev

!    total energy              =   -2967.47579800 Ry
     estimated scf accuracy    <       0.00000006 Ry
     smearing contrib. (-TS)   =      -0.03654171 Ry
     internal energy E=F+TS    =   -2967.43925629 Ry

     The total energy is F=E-TS. E is the sum of the following terms:
     one-electron contribution =  -23962.79898334 Ry
     hartree contribution      =   12077.00070668 Ry
     xc contribution           =    -491.85867138 Ry
     ewald contribution        =    9410.21411619 Ry
     electric field correction =       0.00357556 Ry

     convergence has been achieved in  83 iterations

     Forces acting on atoms (cartesian axes, Ry/au):

     atom    1 type  1   force =    -0.00026776    0.00020144    0.09242892
     atom    2 type  1   force =    -0.00035292    0.00104947   -0.18342489
     atom    3 type  2   force =     0.00050422   -0.00072426   -0.02348405
     atom    4 type  2   force =     0.00072395   -0.00018597    0.05072151
     atom    5 type  2   force =    -0.01404283   -0.00131078    0.00495179
     atom    6 type  2   force =     0.01521283   -0.00065325    0.00509460
     atom    7 type  1   force =    -0.00048196    0.00105907   -0.00012294
     atom    8 type  1   force =     0.00015113   -0.00052055    0.00040855
     atom    9 type  2   force =    -0.00044068    0.00017291    0.00038314
     atom   10 type  2   force =     0.00040898    0.00016524    0.00045762
     atom   11 type  2   force =     0.00035636    0.00043891    0.00034615
     atom   12 type  2   force =     0.00006172    0.00014107    0.00027044
     atom   13 type  1   force =    -0.00087830   -0.00118594   -0.00011126
     atom   14 type  1   force =     0.00059218   -0.00005400    0.00021534
     atom   15 type  2   force =     0.00052320    0.00076412    0.00005822
     atom   16 type  2   force =    -0.00061970   -0.00036772    0.00005860
     atom   17 type  2   force =     0.00008797    0.00033804   -0.00057531
     atom   18 type  2   force =    -0.00013546    0.00017759    0.00002300
     atom   19 type  1   force =     0.00082311   -0.00006629   -0.00033456
     atom   20 type  1   force =    -0.00020809    0.00020313   -0.00017052
     atom   21 type  2   force =    -0.00004192    0.00015721    0.10500671
     atom   22 type  2   force =    -0.00019951    0.00057348   -0.00078438
     atom   23 type  2   force =    -0.06799106    0.00013734   -0.02680274
     atom   24 type  2   force =     0.06770524    0.00052395   -0.02686487
     atom   25 type  1   force =    -0.00038502   -0.00008610    0.09621041
     atom   26 type  1   force =    -0.00035413   -0.00100319   -0.18322484
     atom   27 type  2   force =     0.00041774   -0.00125316   -0.02225320
     atom   28 type  2   force =     0.00070365   -0.00033104    0.05104056
     atom   29 type  2   force =    -0.01422993   -0.00105457    0.00466188
     atom   30 type  2   force =     0.01518192    0.00021314    0.00484714
     atom   31 type  1   force =    -0.00049713   -0.00145759    0.00016693
     atom   32 type  1   force =     0.00012967    0.00070755   -0.00026451
     atom   33 type  2   force =     0.00002191   -0.00020201    0.00005279
     atom   34 type  2   force =     0.00002556   -0.00006854   -0.00009746
     atom   35 type  2   force =     0.00020997    0.00008632    0.00031347
     atom   36 type  2   force =     0.00040067    0.00045121    0.00005637
     atom   37 type  1   force =    -0.00105499    0.00125246   -0.00005156
     atom   38 type  1   force =     0.00036735    0.00010821   -0.00043446
     atom   39 type  2   force =     0.00043090    0.00022144   -0.00034079
     atom   40 type  2   force =    -0.00009349    0.00019743    0.00008344
     atom   41 type  2   force =    -0.00017629    0.00009812   -0.00066413
     atom   42 type  2   force =     0.00015863    0.00009256    0.00038665
     atom   43 type  1   force =    -0.00028884    0.00014773    0.00026910
     atom   44 type  1   force =    -0.00015798    0.00002923   -0.00088514
     atom   45 type  2   force =    -0.00005520    0.00015610    0.10493351
     atom   46 type  2   force =    -0.06803541   -0.00037664   -0.02680078
     atom   47 type  2   force =     0.06775826    0.00004544   -0.02688865
     atom   48 type  3   force =    -0.00005779    0.00051580   -0.00020898
     atom   49 type  2   force =    -0.00111392    0.00031324    0.00086319
     atom   50 type  4   force =     0.00049399    0.00058162    0.00008829
     atom   51 type  4   force =     0.00071641    0.00085002   -0.00003792
     atom   52 type  4   force =    -0.00042981    0.00059898   -0.00022645
     atom   53 type  4   force =    -0.00020153   -0.00024591    0.00011002
     atom   54 type  2   force =    -0.02386660   -0.00189472   -0.00109746
     atom   55 type  4   force =     0.01008510    0.00942711    0.00074005
     atom   56 type  4   force =     0.01240566   -0.00915448    0.00090344

     Total force =     0.369568     Total SCF correction =     0.000724
  @ DRIVER MODE: Message from server: STATUS
  @ DRIVER MODE: Message from server: GETFORCE
  @ DRIVER MODE: Returning v,forces,stress,ensemble

     Writing output data file ./calc.save/
  @ DRIVER MODE: Message from server: EXIT
  @ DRIVE MODE: Exiting

     General routines

     Parallel routines

   This run was terminated on:   4: 6:49  16Sep2021

   JOB DONE.