     Program PWSCF v.6.7GPU starts on  9Sep2021 at  1:46: 8

     R & G space division:  proc/nbgrp/npool/nimage =      10
     Reading input from /storage/home/hcoda1/3/ntian30/research/carbon/CxH_vib/CH2_calc/ads_slab/CH2N_a/out_0015/pw.inp
Warning: card &CELL ignored
Warning: card   CELL_DYNAMICS='IPI', ignored
Warning: card / ignored

     Current dimensions of program PWSCF are:
     Max number of different atomic species (ntypx) = 10
     Max number of k-points (npk) =  40000
     Max angular momentum in pseudopotentials (lmaxx) =  3
     Presently no symmetry can be used with electric field

     Message from routine cell_base_init:
     DEPRECATED: use true lattice parameter, not A to a.u. conversion factor

     IMPORTANT: XC functional enforced from input :
     Exchange-correlation= BEEF-VDW
                           (   1   4  43  14   2   0   0)
     Any further DFT definition will be discarded
     Please, verify this is what you really want

  @ DRIVER MODE: Connecting to
 qe_1139763_2767392.sched-torque.pace.gatech.edu4kh64wwo_scratch
  using UNIX socket
  @ DRIVER MODE: Message from server: STATUS
  @ DRIVER MODE: Message from server: INIT
  @ DRIVER MODE: Receiving replica           0          -1
  @ DRIVER MODE: Receiving encoded integer          25
  @ DRIVER MODE:  SCF:  T  FORCE:  T  STRESS:  F  VC:  F  ENSEMBLE:  F
  @ DRIVER MODE:  SCF:  T  FORCE:  T  STRESS:  F  VC:  F  ENSEMBLE:  F

     Using Slab Decomposition

     bravais-lattice index     =            0
     lattice parameter (alat)  =       1.8897  a.u.
     unit-cell volume          =    6658.9804 (a.u.)^3
     number of atoms/cell      =           51
     number of atomic types    =            5
     number of electrons       =       389.00
     number of Kohn-Sham states=          204
     kinetic-energy cutoff     =      29.3995  Ry
     charge density cutoff     =     293.9946  Ry
     scf convergence threshold =      7.3E-08
     mixing beta               =       0.0500
     number of iterations used =            8  plain     mixing
     Exchange-correlation= BEEF-VDW
                           (   1   4  43  14   2   0   0)

     celldm(1)=   1.889726  celldm(2)=   0.000000  celldm(3)=   0.000000
     celldm(4)=   0.000000  celldm(5)=   0.000000  celldm(6)=   0.000000

     crystal axes: (cart. coord. in units of alat)
               a(1) = (   6.579727   0.000000   0.000000 )
               a(2) = (  -0.000775   5.961596   0.000000 )
               a(3) = (   0.000000   0.000000  25.155947 )

     reciprocal axes: (cart. coord. in units 2 pi/alat)
               b(1) = (  0.151982  0.000020  0.000000 )
               b(2) = (  0.000000  0.167740  0.000000 )
               b(3) = (  0.000000  0.000000  0.039752 )

     PseudoPot. # 1 for Ti read from file:
     /storage/coda1/p-amedford6/0/shared/rich_project_chbe-medford/medford-share/data/pseudos_module/espresso/nninc/pbe/van/Ti.UPF
     MD5 check sum: 8e4df49b7f0d34bbd5052bf3f5ea0213
     Pseudo is Ultrasoft, Zval = 12.0
     Generated by new atomic code, or converted to UPF format
     Using radial grid of  851 points,  6 beta functions with:
                l(1) =   0
                l(2) =   0
                l(3) =   1
                l(4) =   1
                l(5) =   2
                l(6) =   2
     Q(r) pseudized with  8 coefficients,  rinner =    1.000   1.000   1.000
                                                       1.000   1.000

     PseudoPot. # 2 for O  read from file:
     /storage/coda1/p-amedford6/0/shared/rich_project_chbe-medford/medford-share/data/pseudos_module/espresso/nninc/pbe/van/O.UPF
     MD5 check sum: 78c19812648e8988a0fe644b0f25305e
     Pseudo is Ultrasoft, Zval =  6.0
     Generated by new atomic code, or converted to UPF format
     Using radial grid of  737 points,  4 beta functions with:
                l(1) =   0
                l(2) =   0
                l(3) =   1
                l(4) =   1
     Q(r) pseudized with  8 coefficients,  rinner =    0.800   0.800   0.800

     PseudoPot. # 3 for N  read from file:
     /storage/coda1/p-amedford6/0/shared/rich_project_chbe-medford/medford-share/data/pseudos_module/espresso/nninc/pbe/van/N.UPF
     MD5 check sum: 90d10febe142ad51ac9d5be1deb811c4
     Pseudo is Ultrasoft, Zval =  5.0
     Generated by new atomic code, or converted to UPF format
     Using radial grid of  729 points,  4 beta functions with:
                l(1) =   0
                l(2) =   0
                l(3) =   1
                l(4) =   1
     Q(r) pseudized with  8 coefficients,  rinner =    0.800   0.800   0.800

     PseudoPot. # 4 for C  read from file:
     /storage/coda1/p-amedford6/0/shared/rich_project_chbe-medford/medford-share/data/pseudos_module/espresso/nninc/pbe/van/C.UPF
     MD5 check sum: 1a69bf6b8db32088f5b2163dbdb77a27
     Pseudo is Ultrasoft, Zval =  4.0
     Generated by new atomic code, or converted to UPF format
     Using radial grid of  721 points,  4 beta functions with:
                l(1) =   0
                l(2) =   0
                l(3) =   1
                l(4) =   1
     Q(r) pseudized with  8 coefficients,  rinner =    0.800   0.800   0.800

     PseudoPot. # 5 for H  read from file:
     /storage/coda1/p-amedford6/0/shared/rich_project_chbe-medford/medford-share/data/pseudos_module/espresso/nninc/pbe/van/H.UPF
     MD5 check sum: b5ee9d7bfd3a09ee7748110bda690ff7
     Pseudo is Ultrasoft, Zval =  1.0
     Generated by new atomic code, or converted to UPF format
     Using radial grid of  615 points,  1 beta functions with:
                l(1) =   0
     Q(r) pseudized with  8 coefficients,  rinner =    0.800

     atomic species   valence    mass     pseudopotential
        Ti1           12.00    47.86700     Ti( 1.00)
        O1             6.00    15.99900     O ( 1.00)
        N1             5.00    14.00700     N ( 1.00)
        C1             4.00    12.01100     C ( 1.00)
        H1             1.00     1.00800     H ( 1.00)

     No symmetry found

   Cartesian axes

     site n.     atom                  positions (alat units)
         1           Ti1 tau(   1) = (   0.0004258   2.9801865   6.0000000  )
         2           Ti1 tau(   2) = (   3.2906075   1.4906267   6.0002472  )
         3           O1  tau(   3) = (   0.0006271   0.0005054   7.9858123  )
         4           O1  tau(   4) = (   3.2906025   0.0005020   7.3038282  )
         5           O1  tau(   5) = (   4.5942328   1.4918067   9.2879030  )
         6           O1  tau(   6) = (   1.9868534   1.4903216   9.2879459  )
         7           Ti1 tau(   7) = (   3.2907910   2.8959150   9.1758416  )
         8           Ti1 tau(   8) = (   0.0015273   1.4827037   9.2680791  )
         9           O1  tau(   9) = (   3.3121109   0.0111249  11.3310253  )
        10           O1  tau(  10) = (   0.0116148   5.9584955  10.6183126  )
        11           O1  tau(  11) = (   1.3329579   1.5011098  12.6063046  )
        12           O1  tau(  12) = (   5.3158149   1.4916659  12.6245769  )
        13           Ti1 tau(  13) = (   6.5431557   2.9598450  12.6156978  )
        14           Ti1 tau(  14) = (   3.2273839   1.5049138  12.4779161  )
        15           O1  tau(  15) = (   0.0471551   0.0364395  14.6528705  )
        16           O1  tau(  16) = (   3.3160098   0.0207640  13.9215624  )
        17           O1  tau(  17) = (   4.5810600   1.5471256  16.0564497  )
        18           O1  tau(  18) = (   2.0947546   1.5446786  16.0656860  )
        19           Ti1 tau(  19) = (   3.3354243   3.0239694  15.7034691  )
        20           Ti1 tau(  20) = (   0.0419518   1.5622418  15.8401859  )
        21           O1  tau(  21) = (   3.2904802   0.0005063   4.7018136  )
        22           O1  tau(  22) = (   0.0415632   0.0558952  17.2248266  )
        23           O1  tau(  23) = (   1.3043587   1.4918075   6.0039043  )
        24           O1  tau(  24) = (   5.2767064   1.4903225   6.0039473  )
        25           Ti1 tau(  25) = (   0.0000382   5.9609847   6.0000000  )
        26           Ti1 tau(  26) = (   3.2902200   4.4714249   6.0002472  )
        27           O1  tau(  27) = (   0.0002396   2.9813036   7.9858123  )
        28           O1  tau(  28) = (   3.2902150   2.9813002   7.3038282  )
        29           O1  tau(  29) = (   4.5938453   4.4726049   9.2879030  )
        30           O1  tau(  30) = (   1.9864658   4.4711199   9.2879459  )
        31           Ti1 tau(  31) = (   3.2891106   5.8743827   9.1763621  )
        32           Ti1 tau(  32) = (   0.0006254   4.4649316   9.2693709  )
        33           O1  tau(  33) = (   3.3101407   2.9955762  11.3294870  )
        34           O1  tau(  34) = (   0.0092240   2.9805883  10.6323155  )
        35           O1  tau(  35) = (   1.3272401   4.4878838  12.6173354  )
        36           O1  tau(  36) = (   5.3164082   4.4812184  12.6342743  )
        37           Ti1 tau(  37) = (   6.5430856   5.9365306  12.5602028  )
        38           Ti1 tau(  38) = (   3.2246414   4.4845729  12.4831641  )
        39           O1  tau(  39) = (   0.0420920   2.9623338  14.6463429  )
        40           O1  tau(  40) = (   3.3182946   3.0055568  13.9055467  )
        41           O1  tau(  41) = (   4.5797692   4.5125808  16.0776662  )
        42           O1  tau(  42) = (   2.0972274   4.5146901  16.0918111  )
        43           Ti1 tau(  43) = (   3.3319946   0.0399457  15.7186693  )
        44           Ti1 tau(  44) = (   0.0407629   4.6953510  16.1098173  )
        45           O1  tau(  45) = (   3.2900926   2.9813045   4.7018136  )
        46           O1  tau(  46) = (   1.3039711   4.4726057   6.0039043  )
        47           O1  tau(  47) = (   5.2763189   4.4711207   6.0039473  )
        48           N1  tau(  48) = (   0.0554023   2.9932257  17.3910969  )
        49           C1  tau(  49) = (   0.1090839   2.9222626  18.6472186  )
        50           H1  tau(  50) = (   0.1225839   3.8104711  19.2773028  )
        51           H1  tau(  51) = (   0.1417253   1.9549180  19.1625725  )

     number of k points=    10  Fermi-Dirac smearing, width (Ry)=  0.0073
                       cart. coord. in units 2pi/alat
        k(    1) = (   0.0000000   0.0000000   0.0000000), wk =   0.1250000
        k(    2) = (   0.0000000   0.0419351   0.0000000), wk =   0.2500000
        k(    3) = (   0.0000000  -0.0838702   0.0000000), wk =   0.1250000
        k(    4) = (   0.0379955   0.0000049   0.0000000), wk =   0.2500000
        k(    5) = (   0.0379955   0.0419400   0.0000000), wk =   0.2500000
        k(    6) = (   0.0379955  -0.0838652   0.0000000), wk =   0.2500000
        k(    7) = (   0.0379955  -0.0419301   0.0000000), wk =   0.2500000
        k(    8) = (  -0.0759910  -0.0000099   0.0000000), wk =   0.1250000
        k(    9) = (  -0.0759910   0.0419252   0.0000000), wk =   0.2500000
        k(   10) = (  -0.0759910  -0.0838800   0.0000000), wk =   0.1250000

     Initial potential from superposition of free atoms

     starting charge  372.99918, renormalised to  389.00000

     negative rho (up, down):  1.813E-02 0.000E+00

     %%%%%%%%%%%%%%%%%%%%%%%%%%%%%%%%%%%%%%%%%%%%%%%%%%%%%%%%%%%%%%%%%%%%%%%%
     %                                                                      %
     % You are using vdW-DF, which was implemented by the Thonhauser group. %
     % Please cite the following two papers that made this development      %
     % possible and the two reviews that describe the various versions:     %
     %                                                                      %
     %   T. Thonhauser et al., PRL 115, 136402 (2015).                      %
     %   T. Thonhauser et al., PRB 76, 125112 (2007).                       %
     %   K. Berland et al., Rep. Prog. Phys. 78, 066501 (2015).             %
     %   D.C. Langreth et al., J. Phys.: Condens. Matter 21, 084203 (2009). %
     %                                                                      %
     %                                                                      %
     % If you are calculating the stress with vdW-DF, please also cite:     %
     %                                                                      %
     %   R. Sabatini et al., J. Phys.: Condens. Matter 24, 424209 (2012).   %
     %                                                                      %
     %%%%%%%%%%%%%%%%%%%%%%%%%%%%%%%%%%%%%%%%%%%%%%%%%%%%%%%%%%%%%%%%%%%%%%%%

     Adding external electric field

     Computed dipole along edir(3) :
        Dipole               -4.6856 Ry au,        -11.9097 Debye
        Dipole field         -0.0088 Ry au,

        Potential amp.        0.8197 Ry
        Total length         46.3494 bohr

     Starting wfcs are  294 atomic wfcs
  @ DRIVER MODE: Message from server: STATUS
  @ DRIVER MODE: Message from server: POSDATA
  @ DRIVER MODE: Reading and sharing cell
  @ DRIVER MODE: Reading and sharing positions
  @ DRIVER MODE: Received positions

     Self-consistent Calculation

     iteration #  1     ecut=    29.40 Ry     beta= 0.05
     Davidson diagonalization with overlap
     c_bands:  3 eigenvalues not converged
     c_bands:  1 eigenvalues not converged
     c_bands:  1 eigenvalues not converged
     c_bands:  3 eigenvalues not converged
     c_bands:  3 eigenvalues not converged
     c_bands:  2 eigenvalues not converged
     c_bands:  2 eigenvalues not converged
     ethr =  1.00E-05,  avg # of iterations = 19.8

[...]

     total energy              =   -2866.31241646 Ry
     estimated scf accuracy    <     588.81775323 Ry

     iteration #  2     ecut=    29.40 Ry     beta= 0.05
     Davidson diagonalization with overlap
     ethr =  1.00E-02,  avg # of iterations = 14.6

[...]

     iteration # 70     ecut=    29.40 Ry     beta= 0.05
     Davidson diagonalization with overlap
     c_bands:  1 eigenvalues not converged
     ethr =  5.62E-10,  avg # of iterations = 14.2

[...]

     total energy              =   -2917.92289648 Ry
     estimated scf accuracy    <       0.00000012 Ry

     iteration # 75     ecut=    29.40 Ry     beta= 0.05
     Davidson diagonalization with overlap
     ethr =  3.17E-11,  avg # of iterations =  9.3

     negative rho (up, down):  1.844E-02 0.000E+00

     Adding external electric field

     Computed dipole along edir(3) :
        Dipole                0.7733 Ry au,          1.9656 Debye
        Dipole field          0.0015 Ry au,

        Potential amp.       -0.1353 Ry
        Total length         46.3494 bohr

     End of self-consistent calculation

          k = 0.0000 0.0000 0.0000 ( 18029 PWs)   bands (ev):

   -55.9931 -55.9838 -55.9590 -55.9475 -55.8706 -55.8407 -55.8206 -55.8064
   -55.8019 -55.7679 -55.7655 -55.7318 -55.5198 -55.2460 -54.9700 -54.9360
   -32.5383 -32.4754 -32.3420 -32.3227 -32.3007 -32.2957 -32.2859 -32.2561
   -32.2356 -32.2106 -32.2037 -32.1816 -32.1640 -32.1451 -32.1369 -32.1238
   -32.1031 -32.0973 -32.0827 -32.0501 -32.0495 -32.0465 -32.0003 -31.9991
   -31.9979 -31.9961 -31.9898 -31.9821 -31.9678 -31.9557 -31.9481 -31.9411
   -31.9323 -31.9322 -31.9187 -31.9093 -31.8777 -31.7695 -31.7017 -31.5351
   -31.5006 -31.4581 -31.3772 -31.2889 -31.2665 -31.1939 -31.1074 -30.9964
   -16.7353 -16.4670 -16.2419 -16.1449 -16.1139 -15.9976 -15.8317 -15.7133
   -15.6623 -15.5642 -15.5505 -15.5288 -15.4951 -15.4646 -15.4626 -15.4362
   -15.4327 -15.4133 -15.4001 -15.3522 -15.3299 -15.2956 -15.1979 -15.1668
   -15.1270 -15.0990 -15.0580 -15.0485 -14.9252 -14.5600 -13.4726 -13.3561
    -7.5907  -4.3436  -4.1130  -4.0045  -3.9480  -3.8984  -3.8397  -3.6335
    -3.5424  -3.5201  -3.2234  -3.1769  -3.1594  -3.1469  -3.1085  -2.8929
    -2.8394  -2.8077  -2.7866  -2.7724  -2.7612  -2.7534  -2.7333  -2.7064
    -2.5931  -2.5374  -2.5340  -2.4110  -2.3833  -2.3266  -2.3048  -2.2581
    -2.2424  -2.2338  -2.2068  -2.1960  -2.1828  -2.1524  -2.0744  -1.9608
    -1.8101  -1.7909  -1.7556  -1.6297  -1.5999  -1.5388  -1.4487  -1.4330
    -1.4184  -1.3841  -1.3671  -1.2956  -1.1700  -1.1456  -1.1361  -1.0353
    -0.9886  -0.9702  -0.8736  -0.8382  -0.7683  -0.7570  -0.7457  -0.7085
    -0.5471  -0.4907  -0.4614  -0.3946  -0.3649  -0.3062  -0.2932  -0.2643
    -0.1819  -0.1297  -0.1095  -0.1030  -0.0544  -0.0181  -0.0014   0.0081
     0.0193   0.0334   0.2059   0.2789   0.2857   0.3648   0.3747   0.5357
     0.5966   0.6643   0.7723   0.9774   1.0519   1.1411   1.2444   1.4377
     1.6232   1.6687   3.1433   3.2269   3.2752   3.2847   3.3861   3.4228
     3.5964   3.6028   3.6171   3.6912

[...]

          k = 0.0380-0.0419 0.0000 ( 17876 PWs)   bands (ev):

[...]

          k =-0.0760-0.0000 0.0000 ( 17886 PWs)   bands (ev):

[...]

          k =-0.0760-0.0839 0.0000 ( 17948 PWs)   bands (ev):

   -55.9764 -55.9755 -55.9683 -55.9628 -55.8636 -55.8275 -55.8240 -55.8231
   -55.7854 -55.7839 -55.7495 -55.7479 -55.5188 -55.2468 -54.9530 -54.9529
   -32.3441 -32.3389 -32.2910 -32.2903 -32.2717 -32.2708 -32.2537 -32.2416
   -32.1936 -32.1875 -32.1812 -32.1745 -32.1376 -32.1193 -32.1143 -32.1130
   -32.1036 -32.0977 -32.0958 -32.0949 -32.0885 -32.0860 -32.0670 -32.0429
   -32.0392 -32.0287 -32.0192 -32.0057 -31.9844 -31.9840 -31.9812 -31.9797
   -31.9642 -31.9634 -31.9597 -31.9567 -31.8821 -31.7721 -31.6979 -31.6006
   -31.5022 -31.4789 -31.2792 -31.2791 -31.1900 -31.1899 -31.1507 -31.1507
   -16.1676 -16.1484 -15.9366 -15.9094 -15.9044 -15.8930 -15.7646 -15.7041
   -15.6876 -15.6856 -15.6069 -15.5851 -15.5637 -15.5362 -15.5246 -15.5122
   -15.5061 -15.4977 -15.4545 -15.4483 -15.4289 -15.4217 -15.3189 -15.3093
   -15.3052 -15.2495 -15.1758 -15.0373 -14.9423 -14.7279 -13.4580 -13.4579
    -7.5868  -4.3250  -3.6942  -3.4581  -3.4354  -3.1668  -3.1498  -3.1408
    -3.0808  -2.9080  -2.8921  -2.8691  -2.8482  -2.8195  -2.8177  -2.7964
    -2.7944  -2.7835  -2.7394  -2.7322  -2.7066  -2.6700  -2.6596  -2.6481
    -2.6395  -2.6156  -2.6053  -2.5635  -2.5340  -2.5268  -2.5119  -2.4883
    -2.3031  -2.2200  -2.1936  -2.1304  -2.1230  -2.0881  -2.0566  -2.0446
    -2.0287  -1.9783  -1.9004  -1.7259  -1.6930  -1.6750  -1.6175  -1.5885
    -1.5476  -1.4615  -1.3934  -1.3688  -1.3628  -1.3142  -1.2055  -1.1839
    -1.1698  -1.0963  -1.0610  -1.0425  -1.0014  -0.9863  -0.9531  -0.9477
    -0.8546  -0.8050  -0.7583  -0.7559  -0.7104  -0.6441  -0.6312  -0.6037
    -0.4946  -0.4757  -0.4055  -0.3768  -0.2750  -0.2069  -0.0090   0.0533
     0.0788   0.1371   0.2174   0.2982   0.3127   0.3265   0.3269   0.3744
     0.4435   0.5396   0.5490   0.6025   0.7073   1.3322   1.4157   1.4163
     1.4886   1.4886   3.4291   3.4390   3.4783   3.5001   3.6361   3.6518
     3.6746   3.6757   3.7307   3.8128

     the Fermi energy is     3.1410 ev

!    total energy              =   -2917.92292095 Ry
     estimated scf accuracy    <       0.00000005 Ry
     smearing contrib. (-TS)   =      -0.02181510 Ry
     internal energy E=F+TS    =   -2917.90110585 Ry

     The total energy is F=E-TS. E is the sum of the following terms:
     one-electron contribution =  -24778.28141842 Ry
     hartree contribution      =   12472.81316759 Ry
     xc contribution           =    -479.19080662 Ry
     ewald contribution        =    9866.75682308 Ry
     electric field correction =       0.00112853 Ry

     convergence has been achieved in  75 iterations

     Forces acting on atoms (cartesian axes, Ry/au):

     atom    1 type  1   force =     0.00017378   -0.00023125    0.09671313
     atom    2 type  1   force =     0.00006374   -0.00053089   -0.17541638
     atom    3 type  2   force =     0.00018152    0.00000834   -0.02477403
     atom    4 type  2   force =     0.00005711   -0.00133305    0.05293938
     atom    5 type  2   force =    -0.01178235    0.00012363    0.00259468
     atom    6 type  2   force =     0.01395272    0.00051346    0.00339879
     atom    7 type  1   force =     0.00129513    0.00070568   -0.01176448
     atom    8 type  1   force =    -0.00005341    0.00765642    0.02822263
     atom    9 type  2   force =    -0.00024332   -0.00023530   -0.00012155
     atom   10 type  2   force =    -0.00220409    0.00207604   -0.01526864
     atom   11 type  2   force =     0.00001379   -0.00009301    0.00022930
     atom   12 type  2   force =    -0.00004910    0.00014499   -0.00006285
     atom   13 type  1   force =    -0.00104054   -0.00025583   -0.00002609
     atom   14 type  1   force =    -0.00021387   -0.00025872    0.00056779
     atom   15 type  2   force =    -0.00030540   -0.00001376   -0.00028452
     atom   16 type  2   force =     0.00025104    0.00007971   -0.00055406
     atom   17 type  2   force =     0.00006144    0.00007561   -0.00021036
     atom   18 type  2   force =    -0.00012909    0.00031713   -0.00052300
     atom   19 type  1   force =    -0.00063336    0.00010564   -0.00037467
     atom   20 type  1   force =     0.00013850   -0.00102323    0.00026980
     atom   21 type  2   force =     0.00008687   -0.00004652    0.10323270
     atom   22 type  2   force =     0.00044022   -0.00025316   -0.00005040
     atom   23 type  2   force =    -0.07145451   -0.00015625   -0.02767702
     atom   24 type  2   force =     0.07144862    0.00033272   -0.02776154
     atom   25 type  1   force =     0.00018680   -0.00022408    0.09621441
     atom   26 type  1   force =     0.00010860   -0.00029793   -0.17554606
     atom   27 type  2   force =     0.00022323   -0.00011938   -0.02385334
     atom   28 type  2   force =     0.00008903   -0.00110229    0.05288162
     atom   29 type  2   force =    -0.01198852    0.00068123    0.00234643
     atom   30 type  2   force =     0.01402225    0.00103124    0.00319763
     atom   31 type  1   force =     0.00114336    0.00334086   -0.01209169
     atom   32 type  1   force =    -0.00024435   -0.00973702    0.02865957
     atom   33 type  2   force =    -0.00017541    0.00031728   -0.00009584
     atom   34 type  2   force =    -0.00172660    0.00175341   -0.02356499
     atom   35 type  2   force =     0.00000987    0.00009454    0.00022681
     atom   36 type  2   force =     0.00054683    0.00012904    0.00021087
     atom   37 type  1   force =    -0.00099771   -0.00039016    0.00026256
     atom   38 type  1   force =     0.00023685   -0.00012735    0.00051389
     atom   39 type  2   force =    -0.00005786   -0.00053095   -0.00077955
     atom   40 type  2   force =    -0.00004461    0.00025908    0.00044553
     atom   41 type  2   force =    -0.00068076   -0.00046742   -0.00016155
     atom   42 type  2   force =    -0.00011500   -0.00074605   -0.00072853
     atom   43 type  1   force =    -0.00047030    0.00002173   -0.00013533
     atom   44 type  1   force =     0.00013112    0.00034727    0.00052594
     atom   45 type  2   force =     0.00006543   -0.00006489    0.10324135
     atom   46 type  2   force =    -0.07145532   -0.00008688   -0.02768984
     atom   47 type  2   force =     0.07147047    0.00033637   -0.02777020
     atom   48 type  3   force =     0.00098906   -0.00020062   -0.00007301
     atom   49 type  4   force =    -0.00154877   -0.00920396   -0.00424968
     atom   50 type  5   force =     0.00040953    0.00858777    0.00469705
     atom   51 type  5   force =    -0.00018268   -0.00130924    0.00001738

     Total force =     0.368235     Total SCF correction =     0.000614
  @ DRIVER MODE: Message from server: STATUS
  @ DRIVER MODE: Message from server: GETFORCE
  @ DRIVER MODE: Returning v,forces,stress,ensemble

     Writing output data file ./calc.save/
  @ DRIVER MODE: Message from server: EXIT
  @ DRIVE MODE: Exiting

     General routines

     Parallel routines

   This run was terminated on:   2: 3:46   9Sep2021

   JOB DONE.