     Program PWSCF v.6.7GPU starts on 14Sep2021 at 23:55:53

     R & G space division:  proc/nbgrp/npool/nimage =      10
     Reading input from /storage/home/hcoda1/3/ntian30/research/carbon/CxH_vib/CH2_calc/ads_slab/CH2OHN2_a/out_0030/pw.inp
Warning: card &CELL ignored
Warning: card   CELL_DYNAMICS='IPI', ignored
Warning: card / ignored

     Current dimensions of program PWSCF are:
     Max number of different atomic species (ntypx) = 10
     Max number of k-points (npk) =  40000
     Max angular momentum in pseudopotentials (lmaxx) =  3
     Presently no symmetry can be used with electric field

     Message from routine cell_base_init:
     DEPRECATED: use true lattice parameter, not A to a.u. conversion factor

     IMPORTANT: XC functional enforced from input :
     Exchange-correlation= BEEF-VDW
                           (   1   4  43  14   2   0   0)
     Any further DFT definition will be discarded
     Please, verify this is what you really want

  @ DRIVER MODE: Connecting to
 qe_1139763_2840440.sched-torque.pace.gatech.eduxgxvti7b_scratch
  using UNIX socket
  @ DRIVER MODE: Message from server: STATUS
  @ DRIVER MODE: Message from server: INIT
  @ DRIVER MODE: Receiving replica           0          -1
  @ DRIVER MODE: Receiving encoded integer          25
  @ DRIVER MODE:  SCF:  T  FORCE:  T  STRESS:  F  VC:  F  ENSEMBLE:  F
  @ DRIVER MODE:  SCF:  T  FORCE:  T  STRESS:  F  VC:  F  ENSEMBLE:  F

     Using Slab Decomposition

     bravais-lattice index     =            0
     lattice parameter (alat)  =       1.8897  a.u.
     unit-cell volume          =    6658.9804 (a.u.)^3
     number of atoms/cell      =           54
     number of atomic types    =            5
     number of electrons       =       401.00
     number of Kohn-Sham states=          210
     kinetic-energy cutoff     =      29.3995  Ry
     charge density cutoff     =     293.9946  Ry
     scf convergence threshold =      7.3E-08
     mixing beta               =       0.0500
     number of iterations used =            8  plain     mixing
     Exchange-correlation= BEEF-VDW
                           (   1   4  43  14   2   0   0)

     celldm(1)=   1.889726  celldm(2)=   0.000000  celldm(3)=   0.000000
     celldm(4)=   0.000000  celldm(5)=   0.000000  celldm(6)=   0.000000

     crystal axes: (cart. coord. in units of alat)
               a(1) = (   6.579727   0.000000   0.000000 )
               a(2) = (  -0.000775   5.961596   0.000000 )
               a(3) = (   0.000000   0.000000  25.155947 )

     reciprocal axes: (cart. coord. in units 2 pi/alat)
               b(1) = (  0.151982  0.000020  0.000000 )
               b(2) = (  0.000000  0.167740  0.000000 )
               b(3) = (  0.000000  0.000000  0.039752 )

     PseudoPot. # 1 for C  read from file:
     /storage/coda1/p-amedford6/0/shared/rich_project_chbe-medford/medford-share/data/pseudos_module/espresso/nninc/pbe/van/C.UPF
     MD5 check sum: 1a69bf6b8db32088f5b2163dbdb77a27
     Pseudo is Ultrasoft, Zval =  4.0
     Generated by new atomic code, or converted to UPF format
     Using radial grid of  721 points,  4 beta functions with:
                l(1) =   0
                l(2) =   0
                l(3) =   1
                l(4) =   1
     Q(r) pseudized with  8 coefficients,  rinner =    0.800   0.800   0.800

     PseudoPot. # 2 for H  read from file:
     /storage/coda1/p-amedford6/0/shared/rich_project_chbe-medford/medford-share/data/pseudos_module/espresso/nninc/pbe/van/H.UPF
     MD5 check sum: b5ee9d7bfd3a09ee7748110bda690ff7
     Pseudo is Ultrasoft, Zval =  1.0
     Generated by new atomic code, or converted to UPF format
     Using radial grid of  615 points,  1 beta functions with:
                l(1) =   0
     Q(r) pseudized with  8 coefficients,  rinner =    0.800

     PseudoPot. # 3 for O  read from file:
     /storage/coda1/p-amedford6/0/shared/rich_project_chbe-medford/medford-share/data/pseudos_module/espresso/nninc/pbe/van/O.UPF
     MD5 check sum: 78c19812648e8988a0fe644b0f25305e
     Pseudo is Ultrasoft, Zval =  6.0
     Generated by new atomic code, or converted to UPF format
     Using radial grid of  737 points,  4 beta functions with:
                l(1) =   0
                l(2) =   0
                l(3) =   1
                l(4) =   1
     Q(r) pseudized with  8 coefficients,  rinner =    0.800   0.800   0.800

     PseudoPot. # 4 for Ti read from file:
     /storage/coda1/p-amedford6/0/shared/rich_project_chbe-medford/medford-share/data/pseudos_module/espresso/nninc/pbe/van/Ti.UPF
     MD5 check sum: 8e4df49b7f0d34bbd5052bf3f5ea0213
     Pseudo is Ultrasoft, Zval = 12.0
     Generated by new atomic code, or converted to UPF format
     Using radial grid of  851 points,  6 beta functions with:
                l(1) =   0
                l(2) =   0
                l(3) =   1
                l(4) =   1
                l(5) =   2
                l(6) =   2
     Q(r) pseudized with  8 coefficients,  rinner =    1.000   1.000   1.000
                                                       1.000   1.000

     PseudoPot. # 5 for N  read from file:
     /storage/coda1/p-amedford6/0/shared/rich_project_chbe-medford/medford-share/data/pseudos_module/espresso/nninc/pbe/van/N.UPF
     MD5 check sum: 90d10febe142ad51ac9d5be1deb811c4
     Pseudo is Ultrasoft, Zval =  5.0
     Generated by new atomic code, or converted to UPF format
     Using radial grid of  729 points,  4 beta functions with:
                l(1) =   0
                l(2) =   0
                l(3) =   1
                l(4) =   1
     Q(r) pseudized with  8 coefficients,  rinner =    0.800   0.800   0.800

     atomic species   valence    mass     pseudopotential
        C1             4.00    12.01100     C ( 1.00)
        H1             1.00     1.00800     H ( 1.00)
        O1             6.00    15.99900     O ( 1.00)
        Ti1           12.00    47.86700     Ti( 1.00)
        N1             5.00    14.00700     N ( 1.00)

     No symmetry found

   Cartesian axes

     site n.     atom                  positions (alat units)
         1           C1  tau(   1) = (   5.1764158   1.5385028  19.8564928  )
         2           H1  tau(   2) = (   4.2418317   1.4168958  19.3325039  )
         3           H1  tau(   3) = (   6.1328006   2.9100337  18.2018079  )
         4           H1  tau(   4) = (   6.0297582   0.9181690  19.6386741  )
         5           O1  tau(   5) = (   0.0006271   0.0005054   7.9858123  )
         6           O1  tau(   6) = (   3.2906025   0.0005020   7.3038282  )
         7           O1  tau(   7) = (   4.5942328   1.4918067   9.2879030  )
         8           O1  tau(   8) = (   1.9868534   1.4903216   9.2879459  )
         9           O1  tau(   9) = (   3.2696825   0.0177092  11.3460806  )
        10           O1  tau(  10) = (   6.5743896   0.0111799  10.6115589  )
        11           O1  tau(  11) = (   1.2770957   1.5070501  12.6511825  )
        12           O1  tau(  12) = (   5.2749141   1.5057152  12.6378801  )
        13           O1  tau(  13) = (   6.5263050   0.0247340  14.7317399  )
        14           O1  tau(  14) = (   3.2747511   0.0213673  13.9312909  )
        15           O1  tau(  15) = (   4.4933390   1.5239927  16.1070736  )
        16           O1  tau(  16) = (   2.0026543   1.5217075  16.0711130  )
        17           O1  tau(  17) = (   3.2904802   0.0005063   4.7018136  )
        18           O1  tau(  18) = (   6.5469758   0.0421337  17.2556835  )
        19           O1  tau(  19) = (   1.3043587   1.4918075   6.0039043  )
        20           O1  tau(  20) = (   5.2767064   1.4903225   6.0039473  )
        21           O1  tau(  21) = (   0.0002396   2.9813036   7.9858123  )
        22           O1  tau(  22) = (   3.2902150   2.9813002   7.3038282  )
        23           O1  tau(  23) = (   4.5938453   4.4726049   9.2879030  )
        24           O1  tau(  24) = (   1.9864658   4.4711199   9.2879459  )
        25           O1  tau(  25) = (   3.2722311   3.0011533  11.3472759  )
        26           O1  tau(  26) = (   6.5787409   2.9955660  10.5677177  )
        27           O1  tau(  27) = (   1.2755865   4.4883074  12.6550720  )
        28           O1  tau(  28) = (   5.2773609   4.4903743  12.6413705  )
        29           O1  tau(  29) = (   6.5451067   2.9841024  14.7029789  )
        30           O1  tau(  30) = (   3.2773495   3.0062142  13.9304278  )
        31           O1  tau(  31) = (   4.4941242   4.5002890  16.1165364  )
        32           O1  tau(  32) = (   2.0016379   4.5015838  16.0818063  )
        33           O1  tau(  33) = (   3.2900926   2.9813045   4.7018136  )
        34           O1  tau(  34) = (   1.3039711   4.4726057   6.0039043  )
        35           O1  tau(  35) = (   5.2763189   4.4711207   6.0039473  )
        36           O1  tau(  36) = (   6.5536212   3.0044252  17.3297899  )
        37           Ti1 tau(  37) = (   0.0004258   2.9801865   6.0000000  )
        38           Ti1 tau(  38) = (   3.2906075   1.4906267   6.0002472  )
        39           Ti1 tau(  39) = (   3.3348906   3.0327224   9.1579215  )
        40           Ti1 tau(  40) = (   0.0203972   1.6099837   9.3624797  )
        41           Ti1 tau(  41) = (   6.5380572   3.0081639  12.8251979  )
        42           Ti1 tau(  42) = (   3.2225065   1.5141752  12.4854623  )
        43           Ti1 tau(  43) = (   3.2525775   3.0161725  15.7233172  )
        44           Ti1 tau(  44) = (   6.5465844   1.4469101  15.9770741  )
        45           Ti1 tau(  45) = (   0.0000382   5.9609847   6.0000000  )
        46           Ti1 tau(  46) = (   3.2902200   4.4714249   6.0002472  )
        47           Ti1 tau(  47) = (   3.2831171   0.0558662   9.1532617  )
        48           Ti1 tau(  48) = (   0.0294011   4.5318189   9.2743274  )
        49           Ti1 tau(  49) = (   6.5160019   0.0223579  12.5245727  )
        50           Ti1 tau(  50) = (   3.2207252   4.4944464  12.4919313  )
        51           Ti1 tau(  51) = (   3.2545639   0.0336594  15.7221480  )
        52           Ti1 tau(  52) = (   6.5427997   4.6104004  16.1409301  )
        53           N1  tau(  53) = (   5.0796009   2.6163306  22.0446247  )
        54           N1  tau(  54) = (   5.1188049   2.0915644  21.0330699  )

     number of k points=    10  Fermi-Dirac smearing, width (Ry)=  0.0073
                       cart. coord. in units 2pi/alat
        k(    1) = (   0.0000000   0.0000000   0.0000000), wk =   0.1250000
        k(    2) = (   0.0000000   0.0419351   0.0000000), wk =   0.2500000
        k(    3) = (   0.0000000  -0.0838702   0.0000000), wk =   0.1250000
        k(    4) = (   0.0379955   0.0000049   0.0000000), wk =   0.2500000
        k(    5) = (   0.0379955   0.0419400   0.0000000), wk =   0.2500000
        k(    6) = (   0.0379955  -0.0838652   0.0000000), wk =   0.2500000
        k(    7) = (   0.0379955  -0.0419301   0.0000000), wk =   0.2500000
        k(    8) = (  -0.0759910  -0.0000099   0.0000000), wk =   0.1250000
        k(    9) = (  -0.0759910   0.0419252   0.0000000), wk =   0.2500000
        k(   10) = (  -0.0759910  -0.0838800   0.0000000), wk =   0.1250000

     Initial potential from superposition of free atoms

     starting charge  384.99916, renormalised to  401.00000

     negative rho (up, down):  1.197E-02 0.000E+00

     %%%%%%%%%%%%%%%%%%%%%%%%%%%%%%%%%%%%%%%%%%%%%%%%%%%%%%%%%%%%%%%%%%%%%%%%
     %                                                                      %
     % You are using vdW-DF, which was implemented by the Thonhauser group. %
     % Please cite the following two papers that made this development      %
     % possible and the two reviews that describe the various versions:     %
     %                                                                      %
     %   T. Thonhauser et al., PRL 115, 136402 (2015).                      %
     %   T. Thonhauser et al., PRB 76, 125112 (2007).                       %
     %   K. Berland et al., Rep. Prog. Phys. 78, 066501 (2015).             %
     %   D.C. Langreth et al., J. Phys.: Condens. Matter 21, 084203 (2009). %
     %                                                                      %
     %                                                                      %
     % If you are calculating the stress with vdW-DF, please also cite:     %
     %                                                                      %
     %   R. Sabatini et al., J. Phys.: Condens. Matter 24, 424209 (2012).   %
     %                                                                      %
     %%%%%%%%%%%%%%%%%%%%%%%%%%%%%%%%%%%%%%%%%%%%%%%%%%%%%%%%%%%%%%%%%%%%%%%%

     Adding external electric field

     Computed dipole along edir(3) :
        Dipole              -14.0859 Ry au,        -35.8029 Debye
        Dipole field         -0.0266 Ry au,

        Potential amp.        2.4641 Ry
        Total length         46.3494 bohr

     Starting wfcs are  303 atomic wfcs
  @ DRIVER MODE: Message from server: STATUS
  @ DRIVER MODE: Message from server: POSDATA
  @ DRIVER MODE: Reading and sharing cell
  @ DRIVER MODE: Reading and sharing positions
  @ DRIVER MODE: Received positions

     Self-consistent Calculation

     iteration #  1     ecut=    29.40 Ry     beta= 0.05
     Davidson diagonalization with overlap
     c_bands:  5 eigenvalues not converged
     c_bands:  3 eigenvalues not converged
     c_bands:  5 eigenvalues not converged
     c_bands:  2 eigenvalues not converged
     c_bands:  4 eigenvalues not converged
     c_bands:  4 eigenvalues not converged
     c_bands:  4 eigenvalues not converged
     c_bands:  3 eigenvalues not converged
     c_bands:  5 eigenvalues not converged
     ethr =  1.00E-05,  avg # of iterations = 22.0

[...]

     total energy              =   -2410.40874635 Ry
     estimated scf accuracy    <    6378.47691355 Ry

     iteration #  2     ecut=    29.40 Ry     beta= 0.05
     Davidson diagonalization with overlap
     ethr =  1.00E-02,  avg # of iterations = 23.9

[...]

     iteration # 71     ecut=    29.40 Ry     beta= 0.05
     Davidson diagonalization with overlap
     c_bands:  2 eigenvalues not converged
     c_bands:  1 eigenvalues not converged
     ethr =  2.60E-09,  avg # of iterations = 17.2

[...]

     total energy              =   -2971.53803696 Ry
     estimated scf accuracy    <       0.00000009 Ry

     iteration # 82     ecut=    29.40 Ry     beta= 0.05
     Davidson diagonalization with overlap
     ethr =  2.15E-11,  avg # of iterations = 11.9

     negative rho (up, down):  1.327E-02 0.000E+00

     Adding external electric field

     Computed dipole along edir(3) :
        Dipole                0.4530 Ry au,          1.1515 Debye
        Dipole field          0.0009 Ry au,

        Potential amp.       -0.0792 Ry
        Total length         46.3494 bohr

     End of self-consistent calculation

          k = 0.0000 0.0000 0.0000 ( 18029 PWs)   bands (ev):

   -55.7554 -55.7419 -55.7183 -55.7057 -55.6669 -55.6406 -55.6168 -55.5804
   -55.5802 -55.5697 -55.5284 -55.5048 -55.4712 -55.4052 -54.7655 -54.7314
   -32.3061 -32.2224 -32.1943 -32.1018 -32.0753 -32.0568 -32.0472 -32.0236
   -31.9846 -31.9805 -31.9662 -31.9572 -31.9527 -31.9231 -31.9157 -31.9148
   -31.9100 -31.8860 -31.8783 -31.8502 -31.8446 -31.8206 -31.8205 -31.8162
   -31.7948 -31.7909 -31.7763 -31.7667 -31.7613 -31.7588 -31.7520 -31.7442
   -31.7315 -31.7289 -31.7267 -31.6864 -31.6845 -31.6498 -31.6272 -31.6111
   -31.5939 -31.5909 -31.1751 -31.0783 -31.0560 -30.9918 -30.9058 -30.7946
   -20.7608 -17.0254 -16.4902 -16.1968 -16.0335 -15.9021 -15.8720 -15.7725
   -15.5818 -15.4496 -15.4321 -15.3553 -15.3213 -15.3146 -15.2846 -15.2743
   -15.2714 -15.2556 -15.2020 -15.1840 -15.1672 -15.1558 -15.1294 -15.0752
   -15.0303 -14.9617 -14.9101 -14.8712 -14.8636 -14.7521 -14.7337 -13.9636
   -13.2658 -13.1476  -6.5666  -5.6077  -5.0044  -4.5381  -3.8532  -3.6776
    -3.6644  -3.6420  -3.5588  -3.5312  -3.3156  -3.2998  -2.9974  -2.9229
    -2.8933  -2.8897  -2.8769  -2.6977  -2.6447  -2.5940  -2.5808  -2.5665
    -2.5630  -2.5396  -2.5326  -2.5080  -2.4856  -2.4608  -2.4536  -2.3147
    -2.2855  -2.1666  -2.1519  -2.1342  -2.0885  -2.0545  -2.0213  -1.9998
    -1.9966  -1.9766  -1.9552  -1.9204  -1.8363  -1.8174  -1.6861  -1.5812
    -1.5444  -1.4508  -1.3188  -1.2338  -1.2134  -1.1817  -1.1542  -1.1418
    -1.0920  -1.0665  -1.0162  -0.9492  -0.9451  -0.8414  -0.7677  -0.7316
    -0.6591  -0.6477  -0.6201  -0.4979  -0.4764  -0.4645  -0.2954  -0.2333
    -0.2210  -0.2166  -0.0886  -0.0482  -0.0127  -0.0032   0.0292   0.0581
     0.0970   0.1461   0.2079   0.2308   0.2454   0.2525   0.2724   0.3007
     0.4163   0.4314   0.4455   0.5623   0.5816   0.7631   0.7731   0.8953
     0.9953   1.1632   1.2591   1.3312   1.4302   1.7022   1.8479   1.9083
     3.4347   3.4664   3.4968   3.5135   3.5857   3.7094   3.8156   3.8726
     3.8937   3.9154

[...]

          k = 0.0380-0.0419 0.0000 ( 17876 PWs)   bands (ev):

[...]

          k =-0.0760-0.0000 0.0000 ( 17886 PWs)   bands (ev):

[...]

          k =-0.0760-0.0839 0.0000 ( 17948 PWs)   bands (ev):

   -55.7443 -55.7292 -55.7247 -55.7227 -55.6636 -55.6359 -55.6047 -55.5923
   -55.5849 -55.5727 -55.5257 -55.4889 -55.4872 -55.4075 -54.7489 -54.7478
   -32.1096 -32.1057 -32.0945 -32.0465 -32.0364 -32.0308 -32.0137 -32.0125
   -32.0060 -31.9680 -31.9449 -31.9371 -31.9334 -31.9018 -31.8989 -31.8878
   -31.8750 -31.8722 -31.8706 -31.8608 -31.8590 -31.8518 -31.8444 -31.8373
   -31.8369 -31.8126 -31.8078 -31.8032 -31.7971 -31.7940 -31.7922 -31.7739
   -31.7662 -31.7485 -31.7453 -31.7393 -31.7240 -31.7074 -31.6940 -31.6870
   -31.6355 -31.6003 -31.0693 -31.0680 -30.9885 -30.9877 -30.9493 -30.9484
   -20.7606 -16.9626 -15.9324 -15.9232 -15.6778 -15.6752 -15.6708 -15.5994
   -15.5168 -15.4917 -15.4741 -15.4696 -15.4218 -15.4081 -15.3961 -15.3319
   -15.2953 -15.2759 -15.2586 -15.2559 -15.2016 -15.1969 -15.1465 -15.1249
   -15.1073 -15.1027 -15.0806 -15.0764 -15.0594 -14.9762 -14.9068 -13.9635
   -13.2501 -13.2477  -6.5607  -5.6100  -4.9435  -4.5373  -3.5309  -3.2242
    -3.2133  -2.9461  -2.8986  -2.8855  -2.8041  -2.7411  -2.6751  -2.6339
    -2.6111  -2.6019  -2.5897  -2.5831  -2.5783  -2.5735  -2.5551  -2.5378
    -2.5166  -2.5057  -2.4502  -2.4293  -2.4060  -2.3837  -2.3761  -2.3653
    -2.3280  -2.3092  -2.2983  -2.2823  -2.2779  -2.2028  -2.0505  -2.0048
    -1.9177  -1.8959  -1.8853  -1.8390  -1.8176  -1.8000  -1.7870  -1.7444
    -1.7232  -1.5572  -1.4826  -1.4675  -1.4482  -1.4192  -1.3666  -1.2661
    -1.2375  -1.1651  -1.1579  -1.1163  -1.0572  -0.9795  -0.9574  -0.9180
    -0.8592  -0.8227  -0.7666  -0.7335  -0.7116  -0.7034  -0.6544  -0.5955
    -0.5562  -0.4968  -0.4713  -0.4076  -0.3676  -0.3303  -0.2759  -0.2453
    -0.2187  -0.1034  -0.0071   0.1378   0.1864   0.2742   0.2902   0.3155
     0.3273   0.4542   0.4851   0.5137   0.5595   0.6466   0.7006   0.7687
     0.7883   0.8169   0.8742   1.6196   1.6208   1.7055   1.7101   1.7209
     3.6305   3.6676   3.6862   3.7362   3.8930   3.8976   3.9163   3.9245
     3.9734   4.0556

     the Fermi energy is     3.4004 ev

!    total energy              =   -2971.53804469 Ry
     estimated scf accuracy    <       0.00000006 Ry
     smearing contrib. (-TS)   =      -0.02330375 Ry
     internal energy E=F+TS    =   -2971.51474095 Ry

     The total energy is F=E-TS. E is the sum of the following terms:
     one-electron contribution =  -22746.57165810 Ry
     hartree contribution      =   11464.45040680 Ry
     xc contribution           =    -492.33294595 Ry
     ewald contribution        =    8802.93906902 Ry
     electric field correction =       0.00038729 Ry

     convergence has been achieved in  82 iterations

     Forces acting on atoms (cartesian axes, Ry/au):

     atom    1 type  1   force =    -0.00063933    0.00098380    0.00071216
     atom    2 type  2   force =    -0.00045872    0.00082706   -0.00063120
     atom    3 type  2   force =    -0.00144297   -0.00089172   -0.00036838
     atom    4 type  2   force =     0.00081460   -0.00049975   -0.00023547
     atom    5 type  3   force =     0.00034335   -0.00681284   -0.03339701
     atom    6 type  3   force =    -0.00002303    0.00054331    0.04531761
     atom    7 type  3   force =    -0.02046459    0.00053073    0.00450514
     atom    8 type  3   force =     0.01814787   -0.00160046    0.00413742
     atom    9 type  3   force =     0.00013177    0.00000908   -0.00010476
     atom   10 type  3   force =    -0.00003752   -0.00006121    0.00004475
     atom   11 type  3   force =     0.00036389   -0.00012084   -0.00042333
     atom   12 type  3   force =     0.00041686    0.00008128   -0.00026693
     atom   13 type  3   force =     0.00037162    0.00032906    0.00201559
     atom   14 type  3   force =     0.00035794    0.00021152    0.00007000
     atom   15 type  3   force =    -0.00001556   -0.00011431    0.00081593
     atom   16 type  3   force =     0.00009342   -0.00009234    0.00054254
     atom   17 type  3   force =     0.00003711    0.00005735    0.10414641
     atom   18 type  3   force =    -0.00013014    0.00160049    0.00469347
     atom   19 type  3   force =    -0.06901494    0.00070359   -0.02968838
     atom   20 type  3   force =     0.06878874    0.00126693   -0.02968167
     atom   21 type  3   force =     0.00038189    0.00378332   -0.02833021
     atom   22 type  3   force =     0.00085402    0.00084366    0.04700684
     atom   23 type  3   force =    -0.01798056    0.00140754    0.00374965
     atom   24 type  3   force =     0.01767631    0.00226875    0.00328003
     atom   25 type  3   force =    -0.00015058   -0.00020195    0.00003283
     atom   26 type  3   force =     0.00017341   -0.00005528    0.00029804
     atom   27 type  3   force =    -0.00013702   -0.00012762    0.00013465
     atom   28 type  3   force =    -0.00005271   -0.00017848    0.00046234
     atom   29 type  3   force =     0.00007365   -0.00130866    0.00051393
     atom   30 type  3   force =    -0.00019330   -0.00034549    0.00050869
     atom   31 type  3   force =    -0.00012091   -0.00009091    0.00068256
     atom   32 type  3   force =    -0.00023717   -0.00016980    0.00024398
     atom   33 type  3   force =     0.00004325    0.00003460    0.10423392
     atom   34 type  3   force =    -0.06859232   -0.00136634   -0.02972638
     atom   35 type  3   force =     0.06847667   -0.00099356   -0.02970623
     atom   36 type  3   force =     0.00102654    0.00027618    0.00203598
     atom   37 type  4   force =    -0.00001488   -0.00158275    0.10640557
     atom   38 type  4   force =    -0.00015314    0.00073635   -0.17962696
     atom   39 type  4   force =    -0.00039802    0.00006816   -0.00010055
     atom   40 type  4   force =     0.00001718    0.00007512    0.00000051
     atom   41 type  4   force =    -0.00007107    0.00070887    0.00039723
     atom   42 type  4   force =    -0.00017337    0.00002108    0.00022297
     atom   43 type  4   force =    -0.00017008   -0.00017057   -0.00094507
     atom   44 type  4   force =     0.00051317    0.00064002   -0.00545134
     atom   45 type  4   force =    -0.00001524    0.00123027    0.11834419
     atom   46 type  4   force =     0.00000411   -0.00035310   -0.17986818
     atom   47 type  4   force =     0.00035373    0.00005928   -0.00022181
     atom   48 type  4   force =    -0.00002718    0.00028075   -0.00028492
     atom   49 type  4   force =     0.00049995    0.00044583    0.00065490
     atom   50 type  4   force =     0.00008389    0.00011906   -0.00081782
     atom   51 type  4   force =     0.00038178   -0.00083021   -0.00065431
     atom   52 type  4   force =     0.00087318   -0.00214420   -0.00561016
     atom   53 type  5   force =     0.00067022    0.00126279   -0.00003707
     atom   54 type  5   force =    -0.00125578   -0.00129344   -0.00003168

     Total force =     0.376707     Total SCF correction =     0.000614
  @ DRIVER MODE: Message from server: STATUS
  @ DRIVER MODE: Message from server: GETFORCE
  @ DRIVER MODE: Returning v,forces,stress,ensemble

     Writing output data file ./calc.save/
  @ DRIVER MODE: Message from server: EXIT
  @ DRIVE MODE: Exiting

     General routines

     Parallel routines

   This run was terminated on:   0:18:59  15Sep2021

   JOB DONE.