     Program PWSCF v.6.7GPU starts on 23Sep2021 at  9:19:12

     R & G space division:  proc/nbgrp/npool/nimage =       8
     Reading input from /storage/home/hcoda1/3/ntian30/research/carbon/CxH_vib/H2O_calc/ads_slab/CH3N2HHO_a/out_0028/pw.inp
Warning: card &CELL ignored
Warning: card   CELL_DYNAMICS='IPI', ignored
Warning: card / ignored

     Current dimensions of program PWSCF are:
     Max number of different atomic species (ntypx) = 10
     Max number of k-points (npk) =  40000
     Max angular momentum in pseudopotentials (lmaxx) =  3
     Presently no symmetry can be used with electric field

     Message from routine cell_base_init:
     DEPRECATED: use true lattice parameter, not A to a.u. conversion factor

     IMPORTANT: XC functional enforced from input :
     Exchange-correlation= BEEF-VDW
                           (   1   4  43  14   2   0   0)
     Any further DFT definition will be discarded
     Please, verify this is what you really want

  @ DRIVER MODE: Connecting to
 qe_1139763_2941009.sched-torque.pace.gatech.edupjjslge2_scratch
  using UNIX socket
  @ DRIVER MODE: Message from server: STATUS
  @ DRIVER MODE: Message from server: INIT
  @ DRIVER MODE: Receiving replica           0          -1
  @ DRIVER MODE: Receiving encoded integer          25
  @ DRIVER MODE:  SCF:  T  FORCE:  T  STRESS:  F  VC:  F  ENSEMBLE:  F
  @ DRIVER MODE:  SCF:  T  FORCE:  T  STRESS:  F  VC:  F  ENSEMBLE:  F

     Using Slab Decomposition

     bravais-lattice index     =            0
     lattice parameter (alat)  =       1.8897  a.u.
     unit-cell volume          =    6658.9804 (a.u.)^3
     number of atoms/cell      =           56
     number of atomic types    =            5
     number of electrons       =       403.00
     number of Kohn-Sham states=          211
     kinetic-energy cutoff     =      29.3995  Ry
     charge density cutoff     =     293.9946  Ry
     scf convergence threshold =      7.3E-08
     mixing beta               =       0.0500
     number of iterations used =            8  plain     mixing
     Exchange-correlation= BEEF-VDW
                           (   1   4  43  14   2   0   0)

     celldm(1)=   1.889726  celldm(2)=   0.000000  celldm(3)=   0.000000
     celldm(4)=   0.000000  celldm(5)=   0.000000  celldm(6)=   0.000000

     crystal axes: (cart. coord. in units of alat)
               a(1) = (   6.579727   0.000000   0.000000 )
               a(2) = (  -0.000775   5.961596   0.000000 )
               a(3) = (   0.000000   0.000000  25.155947 )

     reciprocal axes: (cart. coord. in units 2 pi/alat)
               b(1) = (  0.151982  0.000020  0.000000 )
               b(2) = (  0.000000  0.167740  0.000000 )
               b(3) = (  0.000000  0.000000  0.039752 )

     PseudoPot. # 1 for Ti read from file:
     /storage/coda1/p-amedford6/0/shared/rich_project_chbe-medford/medford-share/data/pseudos_module/espresso/nninc/pbe/van/Ti.UPF
     MD5 check sum: 8e4df49b7f0d34bbd5052bf3f5ea0213
     Pseudo is Ultrasoft, Zval = 12.0
     Generated by new atomic code, or converted to UPF format
     Using radial grid of  851 points,  6 beta functions with:
                l(1) =   0
                l(2) =   0
                l(3) =   1
                l(4) =   1
                l(5) =   2
                l(6) =   2
     Q(r) pseudized with  8 coefficients,  rinner =    1.000   1.000   1.000
                                                       1.000   1.000

     PseudoPot. # 2 for O  read from file:
     /storage/coda1/p-amedford6/0/shared/rich_project_chbe-medford/medford-share/data/pseudos_module/espresso/nninc/pbe/van/O.UPF
     MD5 check sum: 78c19812648e8988a0fe644b0f25305e
     Pseudo is Ultrasoft, Zval =  6.0
     Generated by new atomic code, or converted to UPF format
     Using radial grid of  737 points,  4 beta functions with:
                l(1) =   0
                l(2) =   0
                l(3) =   1
                l(4) =   1
     Q(r) pseudized with  8 coefficients,  rinner =    0.800   0.800   0.800

     PseudoPot. # 3 for N  read from file:
     /storage/coda1/p-amedford6/0/shared/rich_project_chbe-medford/medford-share/data/pseudos_module/espresso/nninc/pbe/van/N.UPF
     MD5 check sum: 90d10febe142ad51ac9d5be1deb811c4
     Pseudo is Ultrasoft, Zval =  5.0
     Generated by new atomic code, or converted to UPF format
     Using radial grid of  729 points,  4 beta functions with:
                l(1) =   0
                l(2) =   0
                l(3) =   1
                l(4) =   1
     Q(r) pseudized with  8 coefficients,  rinner =    0.800   0.800   0.800

     PseudoPot. # 4 for C  read from file:
     /storage/coda1/p-amedford6/0/shared/rich_project_chbe-medford/medford-share/data/pseudos_module/espresso/nninc/pbe/van/C.UPF
     MD5 check sum: 1a69bf6b8db32088f5b2163dbdb77a27
     Pseudo is Ultrasoft, Zval =  4.0
     Generated by new atomic code, or converted to UPF format
     Using radial grid of  721 points,  4 beta functions with:
                l(1) =   0
                l(2) =   0
                l(3) =   1
                l(4) =   1
     Q(r) pseudized with  8 coefficients,  rinner =    0.800   0.800   0.800

     PseudoPot. # 5 for H  read from file:
     /storage/coda1/p-amedford6/0/shared/rich_project_chbe-medford/medford-share/data/pseudos_module/espresso/nninc/pbe/van/H.UPF
     MD5 check sum: b5ee9d7bfd3a09ee7748110bda690ff7
     Pseudo is Ultrasoft, Zval =  1.0
     Generated by new atomic code, or converted to UPF format
     Using radial grid of  615 points,  1 beta functions with:
                l(1) =   0
     Q(r) pseudized with  8 coefficients,  rinner =    0.800

     atomic species   valence    mass     pseudopotential
        Ti1           12.00    47.86700     Ti( 1.00)
        O1             6.00    15.99900     O ( 1.00)
        N1             5.00    14.00700     N ( 1.00)
        C1             4.00    12.01100     C ( 1.00)
        H1             1.00     1.00800     H ( 1.00)

     No symmetry found

   Cartesian axes

     site n.     atom                  positions (alat units)
         1           Ti1 tau(   1) = (   0.0004258   2.9801865   6.0000000  )
         2           Ti1 tau(   2) = (   3.2906075   1.4906267   6.0002472  )
         3           O1  tau(   3) = (   0.0006271   0.0005054   7.9858123  )
         4           O1  tau(   4) = (   3.2906025   0.0005020   7.3038282  )
         5           O1  tau(   5) = (   4.5942328   1.4918067   9.2879030  )
         6           O1  tau(   6) = (   1.9868534   1.4903216   9.2879459  )
         7           Ti1 tau(   7) = (   3.2907910   2.8959150   9.1758416  )
         8           Ti1 tau(   8) = (   0.0015273   1.4827037   9.2680791  )
         9           O1  tau(   9) = (   3.2827749   5.9542966  11.3123607  )
        10           O1  tau(  10) = (   0.0116148   5.9584955  10.6183126  )
        11           O1  tau(  11) = (   1.2790800   1.4852124  12.6463597  )
        12           O1  tau(  12) = (   5.2943908   1.4901875  12.6352807  )
        13           Ti1 tau(  13) = (   6.5507123   3.1127926  12.6266869  )
        14           Ti1 tau(  14) = (   3.2873181   1.3120036  12.6863921  )
        15           O1  tau(  15) = (   6.5656690   0.0172326  14.6855350  )
        16           O1  tau(  16) = (   3.2842416   0.0515509  13.9244022  )
        17           O1  tau(  17) = (   4.5437539   1.5966601  16.0680646  )
        18           O1  tau(  18) = (   2.0303991   1.5956099  16.0781401  )
        19           Ti1 tau(  19) = (   3.2961159   3.0594788  15.6697774  )
        20           Ti1 tau(  20) = (   6.5318457   1.5630605  15.7780207  )
        21           O1  tau(  21) = (   3.2904802   0.0005063   4.7018136  )
        22           O1  tau(  22) = (   6.5726385   0.0820865  17.2550913  )
        23           O1  tau(  23) = (   1.3043587   1.4918075   6.0039043  )
        24           O1  tau(  24) = (   5.2767064   1.4903225   6.0039473  )
        25           Ti1 tau(  25) = (   0.0000382   5.9609847   6.0000000  )
        26           Ti1 tau(  26) = (   3.2902200   4.4714249   6.0002472  )
        27           O1  tau(  27) = (   0.0002396   2.9813036   7.9858123  )
        28           O1  tau(  28) = (   3.2902150   2.9813002   7.3038282  )
        29           O1  tau(  29) = (   4.5938453   4.4726049   9.2879030  )
        30           O1  tau(  30) = (   1.9864658   4.4711199   9.2879459  )
        31           Ti1 tau(  31) = (   3.2891106   5.8743827   9.1763621  )
        32           Ti1 tau(  32) = (   0.0006254   4.4649316   9.2693709  )
        33           O1  tau(  33) = (   3.2807365   3.0201584  11.2787527  )
        34           O1  tau(  34) = (   0.0092240   2.9805883  10.6323155  )
        35           O1  tau(  35) = (   1.2751182   4.4744369  12.6357194  )
        36           O1  tau(  36) = (   5.2842299   4.4734050  12.6250694  )
        37           Ti1 tau(  37) = (   0.0094520   0.1224552  12.5707632  )
        38           Ti1 tau(  38) = (   3.2670701   4.4034752  12.4162930  )
        39           O1  tau(  39) = (   6.5622168   3.0106679  14.6773207  )
        40           O1  tau(  40) = (   3.2891587   3.0115246  13.8909557  )
        41           O1  tau(  41) = (   4.5321968   4.4927823  16.1577793  )
        42           O1  tau(  42) = (   2.0250423   4.4919485  16.1304878  )
        43           Ti1 tau(  43) = (   3.2250977   0.0853664  16.3312049  )
        44           Ti1 tau(  44) = (   6.5532039   4.7053171  16.1332850  )
        45           O1  tau(  45) = (   3.2900926   2.9813045   4.7018136  )
        46           O1  tau(  46) = (   1.3039711   4.4726057   6.0039043  )
        47           O1  tau(  47) = (   5.2763189   4.4711207   6.0039473  )
        48           N1  tau(  48) = (   0.0650423   2.5931692  18.6004617  )
        49           N1  tau(  49) = (   0.0051179   2.9528117  17.3995676  )
        50           C1  tau(  50) = (   0.1360749   3.5155665  19.7334966  )
        51           H1  tau(  51) = (   6.1082608   4.3937080  19.5213757  )
        52           H1  tau(  52) = (   6.3628389   3.0128702  20.6266755  )
        53           H1  tau(  53) = (   1.1699357   3.8405576  19.8861820  )
        54           H1  tau(  54) = (   0.1060244   1.5775976  18.7788705  )
        55           O1  tau(  55) = (   3.2396048   0.1449850  18.2004881  )
        56           H1  tau(  56) = (   3.4111690   5.2654565  18.6466900  )

     number of k points=    10  Fermi-Dirac smearing, width (Ry)=  0.0073
                       cart. coord. in units 2pi/alat
        k(    1) = (   0.0000000   0.0000000   0.0000000), wk =   0.1250000
        k(    2) = (   0.0000000   0.0419351   0.0000000), wk =   0.2500000
        k(    3) = (   0.0000000  -0.0838702   0.0000000), wk =   0.1250000
        k(    4) = (   0.0379955   0.0000049   0.0000000), wk =   0.2500000
        k(    5) = (   0.0379955   0.0419400   0.0000000), wk =   0.2500000
        k(    6) = (   0.0379955  -0.0838652   0.0000000), wk =   0.2500000
        k(    7) = (   0.0379955  -0.0419301   0.0000000), wk =   0.2500000
        k(    8) = (  -0.0759910  -0.0000099   0.0000000), wk =   0.1250000
        k(    9) = (  -0.0759910   0.0419252   0.0000000), wk =   0.2500000
        k(   10) = (  -0.0759910  -0.0838800   0.0000000), wk =   0.1250000

     Initial potential from superposition of free atoms

     starting charge  386.99914, renormalised to  403.00000

     negative rho (up, down):  1.430E-02 0.000E+00

     %%%%%%%%%%%%%%%%%%%%%%%%%%%%%%%%%%%%%%%%%%%%%%%%%%%%%%%%%%%%%%%%%%%%%%%%
     %                                                                      %
     % You are using vdW-DF, which was implemented by the Thonhauser group. %
     % Please cite the following two papers that made this development      %
     % possible and the two reviews that describe the various versions:     %
     %                                                                      %
     %   T. Thonhauser et al., PRL 115, 136402 (2015).                      %
     %   T. Thonhauser et al., PRB 76, 125112 (2007).                       %
     %   K. Berland et al., Rep. Prog. Phys. 78, 066501 (2015).             %
     %   D.C. Langreth et al., J. Phys.: Condens. Matter 21, 084203 (2009). %
     %                                                                      %
     %                                                                      %
     % If you are calculating the stress with vdW-DF, please also cite:     %
     %                                                                      %
     %   R. Sabatini et al., J. Phys.: Condens. Matter 24, 424209 (2012).   %
     %                                                                      %
     %%%%%%%%%%%%%%%%%%%%%%%%%%%%%%%%%%%%%%%%%%%%%%%%%%%%%%%%%%%%%%%%%%%%%%%%

     Adding external electric field

     Computed dipole along edir(3) :
        Dipole              -12.7219 Ry au,        -32.3358 Debye
        Dipole field         -0.0240 Ry au,

        Potential amp.        2.2255 Ry
        Total length         46.3494 bohr

     Starting wfcs are  305 atomic wfcs
  @ DRIVER MODE: Message from server: STATUS
  @ DRIVER MODE: Message from server: POSDATA
  @ DRIVER MODE: Reading and sharing cell
  @ DRIVER MODE: Reading and sharing positions
  @ DRIVER MODE: Received positions

     Self-consistent Calculation

     iteration #  1     ecut=    29.40 Ry     beta= 0.05
     Davidson diagonalization with overlap
     c_bands:  5 eigenvalues not converged
     c_bands:  4 eigenvalues not converged
     c_bands:  3 eigenvalues not converged
     c_bands:  4 eigenvalues not converged
     c_bands:  5 eigenvalues not converged
     c_bands:  4 eigenvalues not converged
     c_bands:  1 eigenvalues not converged
     c_bands:  4 eigenvalues not converged
     ethr =  1.00E-05,  avg # of iterations = 25.4

[...]

     total energy              =   -2361.21433633 Ry
     estimated scf accuracy    <    6936.00590490 Ry

     iteration #  2     ecut=    29.40 Ry     beta= 0.05
     Davidson diagonalization with overlap
     ethr =  1.00E-02,  avg # of iterations = 25.0

[...]

     iteration # 42     ecut=    29.40 Ry     beta= 0.05
     Davidson diagonalization with overlap
     c_bands:  1 eigenvalues not converged
     ethr =  9.68E-07,  avg # of iterations =  3.3

[...]

     total energy              =   -2973.99524715 Ry
     estimated scf accuracy    <       0.00000008 Ry

     iteration # 75     ecut=    29.40 Ry     beta= 0.05
     Davidson diagonalization with overlap
     ethr =  1.99E-11,  avg # of iterations =  2.9

     negative rho (up, down):  1.503E-02 0.000E+00

     Adding external electric field

     Computed dipole along edir(3) :
        Dipole                1.1973 Ry au,          3.0433 Debye
        Dipole field          0.0023 Ry au,

        Potential amp.       -0.2095 Ry
        Total length         46.3494 bohr

     End of self-consistent calculation

          k = 0.0000 0.0000 0.0000 ( 18029 PWs)   bands (ev):

   -55.7006 -55.6667 -55.3862 -55.3522 -55.2769 -55.1694 -55.1143 -55.0364
   -54.9903 -54.9582 -54.8298 -54.7358 -54.6950 -54.6239 -54.5275 -54.4935
   -32.1605 -31.9948 -31.9710 -31.8618 -31.8556 -31.7839 -31.7624 -31.6516
   -31.6062 -31.6044 -31.5933 -31.5395 -31.5370 -31.5179 -31.4968 -31.4917
   -31.4879 -31.3950 -31.3866 -31.3705 -31.3350 -31.3160 -31.3054 -31.2945
   -31.2746 -31.2707 -31.2373 -31.1995 -31.1759 -31.1745 -31.1649 -31.1470
   -31.0967 -31.0298 -30.9911 -30.9519 -30.9500 -30.9268 -30.9202 -30.9060
   -30.8950 -30.8571 -30.8378 -30.8341 -30.8338 -30.7451 -30.6599 -30.5480
   -19.0750 -16.2297 -16.0569 -15.7655 -15.5945 -15.3875 -15.3587 -15.2638
   -15.1609 -15.1439 -15.0403 -14.9754 -14.8906 -14.8216 -14.8017 -14.7534
   -14.7237 -14.6954 -14.6808 -14.6712 -14.6329 -14.6013 -14.5843 -14.5085
   -14.4637 -14.4455 -14.4179 -14.3527 -14.2568 -13.9907 -13.9280 -13.0252
   -12.9118 -12.5801  -9.3486  -6.2244  -4.7688  -4.7244  -3.7771  -3.5359
    -3.4408  -3.3306  -3.1219  -3.0725  -2.8939  -2.7736  -2.7531  -2.5329
    -2.5052  -2.3934  -2.3784  -2.3333  -2.3254  -2.2914  -2.2248  -2.1964
    -2.1246  -2.0643  -2.0373  -2.0036  -1.9508  -1.8957  -1.8903  -1.8765
    -1.8193  -1.7515  -1.7232  -1.7142  -1.6702  -1.6065  -1.5980  -1.5814
    -1.5623  -1.5410  -1.3980  -1.2916  -1.2307  -1.1920  -1.1426  -1.0860
    -1.0334  -1.0199  -0.9195  -0.8398  -0.7984  -0.6809  -0.6530  -0.6127
    -0.5282  -0.5037  -0.4610  -0.4418  -0.4007  -0.3936  -0.2887  -0.2712
    -0.2371  -0.1944  -0.0751  -0.0272  -0.0192   0.0626   0.1213   0.2015
     0.2431   0.2587   0.2833   0.3692   0.3970   0.4143   0.4222   0.4948
     0.5138   0.5626   0.6160   0.6988   0.7113   0.7512   0.7853   0.7983
     0.9283   0.9365   1.0262   1.0502   1.0612   1.1256   1.2199   1.2794
     1.3909   1.4051   1.4978   1.4978   1.5183   1.7168   1.8913   2.0500
     2.0903   3.5008   3.6201   3.6822   3.7200   3.9306   3.9422   4.2053
     4.2803   4.2836   4.3736

[...]

          k = 0.0380-0.0419 0.0000 ( 17876 PWs)   bands (ev):

[...]

          k =-0.0760-0.0000 0.0000 ( 17886 PWs)   bands (ev):

[...]

          k =-0.0760-0.0839 0.0000 ( 17948 PWs)   bands (ev):

   -55.6838 -55.6833 -55.3717 -55.3664 -55.2763 -55.1635 -55.1201 -55.0286
   -54.9979 -54.9586 -54.8278 -54.7335 -54.6969 -54.6260 -54.5109 -54.5099
   -31.9807 -31.9803 -31.9760 -31.9759 -31.8073 -31.8068 -31.6899 -31.6844
   -31.5699 -31.5658 -31.5644 -31.5582 -31.5532 -31.4924 -31.4823 -31.4676
   -31.4346 -31.3855 -31.3838 -31.3611 -31.3461 -31.3461 -31.3340 -31.3339
   -31.2574 -31.2438 -31.2371 -31.2330 -31.2053 -31.1940 -31.1648 -31.1555
   -31.0889 -31.0395 -31.0350 -30.9915 -30.9583 -30.9535 -30.9524 -30.9109
   -30.8725 -30.8470 -30.8463 -30.8369 -30.7414 -30.7402 -30.7030 -30.7022
   -19.0716 -16.2226 -15.4716 -15.4614 -15.3173 -15.3079 -15.2299 -15.1407
   -15.1225 -15.0937 -15.0448 -15.0228 -14.9414 -14.8851 -14.8655 -14.8402
   -14.8213 -14.8071 -14.7495 -14.7464 -14.7310 -14.7172 -14.6511 -14.6128
   -14.5825 -14.5760 -14.4680 -14.3883 -14.3041 -14.1547 -14.0646 -13.0148
   -13.0142 -12.5805  -9.3552  -6.2171  -4.7596  -4.7242  -3.7702  -3.4127
    -2.6502  -2.6070  -2.5160  -2.4379  -2.4332  -2.3838  -2.3832  -2.3017
    -2.2490  -2.1911  -2.1669  -2.1587  -2.1583  -2.1271  -2.1179  -2.0638
    -2.0588  -2.0412  -2.0383  -1.9818  -1.9569  -1.9425  -1.8907  -1.8354
    -1.7847  -1.7480  -1.7263  -1.6861  -1.6673  -1.6643  -1.5792  -1.5652
    -1.5376  -1.5100  -1.4651  -1.4346  -1.3793  -1.3577  -1.3013  -1.1739
    -1.1023  -1.0171  -0.9115  -0.8902  -0.8573  -0.8239  -0.8114  -0.7888
    -0.7559  -0.6405  -0.6302  -0.5806  -0.5487  -0.5207  -0.5032  -0.4753
    -0.4527  -0.3515  -0.3095  -0.2802  -0.2401  -0.2061  -0.1780  -0.1448
    -0.0932  -0.0540  -0.0440  -0.0127   0.0211   0.0356   0.1887   0.2683
     0.4012   0.4296   0.5195   0.5661   0.5983   0.6274   0.6561   0.7748
     0.8224   0.8449   0.8816   0.9032   1.0019   1.0985   1.1189   1.1873
     1.2216   1.3266   1.3576   1.4453   1.4968   1.8797   1.8875   1.9084
     1.9089   3.3785   4.0459   4.0487   4.0604   4.0737   4.2389   4.2417
     4.3425   4.3666   4.5006

     the Fermi energy is     3.4573 ev

!    total energy              =   -2973.99526131 Ry
     estimated scf accuracy    <       0.00000007 Ry
     smearing contrib. (-TS)   =      -0.01689390 Ry
     internal energy E=F+TS    =   -2973.97836741 Ry

     The total energy is F=E-TS. E is the sum of the following terms:
     one-electron contribution =  -23437.90045635 Ry
     hartree contribution      =   11816.40902612 Ry
     xc contribution           =    -493.95874979 Ry
     ewald contribution        =    9141.46910727 Ry
     electric field correction =       0.00270535 Ry

     convergence has been achieved in  75 iterations

     Forces acting on atoms (cartesian axes, Ry/au):

     atom    1 type  1   force =     0.00012112   -0.00023778    0.10267326
     atom    2 type  1   force =    -0.00011731    0.00008895   -0.16808468
     atom    3 type  2   force =    -0.00000894    0.00045818   -0.03239793
     atom    4 type  2   force =     0.00002731   -0.00097144    0.04010157
     atom    5 type  2   force =    -0.00542494   -0.00191461   -0.00432406
     atom    6 type  2   force =     0.00665867   -0.00135939   -0.00592357
     atom    7 type  1   force =    -0.00053754   -0.00531018    0.03004644
     atom    8 type  1   force =     0.00069704    0.00860867    0.04850481
     atom    9 type  2   force =     0.00012368   -0.00130871   -0.00106571
     atom   10 type  2   force =    -0.00253579    0.00301202   -0.03415021
     atom   11 type  2   force =    -0.00038263   -0.00009044   -0.00023204
     atom   12 type  2   force =     0.00048086   -0.00037174   -0.00011375
     atom   13 type  1   force =     0.00022844   -0.00162074    0.00020403
     atom   14 type  1   force =     0.00017418   -0.00077293    0.00070692
     atom   15 type  2   force =     0.00008650    0.00005532   -0.00028027
     atom   16 type  2   force =    -0.00012942    0.00005718    0.00172111
     atom   17 type  2   force =    -0.00102616   -0.00057752    0.00039054
     atom   18 type  2   force =     0.00065569   -0.00109983    0.00052268
     atom   19 type  1   force =     0.00060085   -0.00097209   -0.00072529
     atom   20 type  1   force =    -0.00076685   -0.00042151   -0.00020689
     atom   21 type  2   force =     0.00004787    0.00012370    0.10110847
     atom   22 type  2   force =    -0.00010693    0.00050866    0.00026736
     atom   23 type  2   force =    -0.07541738   -0.00011973   -0.02931014
     atom   24 type  2   force =     0.07532927    0.00030231   -0.02932779
     atom   25 type  1   force =     0.00013911   -0.00023092    0.10280056
     atom   26 type  1   force =    -0.00004196   -0.00130428   -0.16849045
     atom   27 type  2   force =     0.00011843    0.00017527   -0.03116963
     atom   28 type  2   force =    -0.00000970    0.00072318    0.03582132
     atom   29 type  2   force =    -0.00425323    0.00378504   -0.00625420
     atom   30 type  2   force =     0.00527656    0.00442226   -0.00777968
     atom   31 type  1   force =    -0.00054099    0.00495533    0.01593827
     atom   32 type  1   force =     0.00077037   -0.01041379    0.04919175
     atom   33 type  2   force =     0.00002703   -0.00090499   -0.00137670
     atom   34 type  2   force =    -0.00240551    0.00222337   -0.04431693
     atom   35 type  2   force =     0.00055034    0.00019899   -0.00013577
     atom   36 type  2   force =    -0.00017945    0.00022899   -0.00006572
     atom   37 type  1   force =     0.00026567    0.00038254   -0.00044617
     atom   38 type  1   force =     0.00041836    0.00140147    0.00105930
     atom   39 type  2   force =     0.00036417    0.00045107    0.00009951
     atom   40 type  2   force =     0.00005906    0.00015566    0.00048175
     atom   41 type  2   force =    -0.00092664   -0.00023840    0.00010522
     atom   42 type  2   force =     0.00044165    0.00024867    0.00032103
     atom   43 type  1   force =     0.00027014    0.00025604   -0.00146989
     atom   44 type  1   force =    -0.00065517   -0.00012934   -0.00087995
     atom   45 type  2   force =     0.00007073   -0.00002095    0.10091277
     atom   46 type  2   force =    -0.07547358   -0.00005117   -0.02932836
     atom   47 type  2   force =     0.07538531    0.00038323   -0.02932345
     atom   48 type  3   force =    -0.00096582   -0.00049834    0.00169468
     atom   49 type  3   force =     0.00035903   -0.00057149   -0.00112620
     atom   50 type  4   force =     0.00279151    0.00550348   -0.00357283
     atom   51 type  5   force =     0.00055122   -0.00045363   -0.00204814
     atom   52 type  5   force =    -0.00195589   -0.00490006    0.00360033
     atom   53 type  5   force =    -0.00008176   -0.00039738   -0.00127336
     atom   54 type  5   force =    -0.00005557   -0.00066013   -0.00139719
     atom   55 type  2   force =    -0.00032473    0.00036134   -0.00099023
     atom   56 type  5   force =     0.00123371   -0.00114739   -0.00068649

     Total force =     0.372867     Total SCF correction =     0.000645
  @ DRIVER MODE: Message from server: STATUS
  @ DRIVER MODE: Message from server: GETFORCE
  @ DRIVER MODE: Returning v,forces,stress,ensemble

     Writing output data file ./calc.save/
  @ DRIVER MODE: Message from server: EXIT
  @ DRIVE MODE: Exiting

     General routines

     Parallel routines

   This run was terminated on:   9:43:58  23Sep2021

   JOB DONE.