     Program PWSCF v.6.7GPU starts on 15Sep2021 at 17:14:21

     R & G space division:  proc/nbgrp/npool/nimage =      10
     Reading input from /storage/home/hcoda1/3/ntian30/research/carbon/CxH_vib/H2O_calc/ads_slab/CHOHH2O_a/out_0005/pw.inp
Warning: card &CELL ignored
Warning: card   CELL_DYNAMICS='IPI', ignored
Warning: card / ignored

     Current dimensions of program PWSCF are:
     Max number of different atomic species (ntypx) = 10
     Max number of k-points (npk) =  40000
     Max angular momentum in pseudopotentials (lmaxx) =  3
     Presently no symmetry can be used with electric field

     Message from routine cell_base_init:
     DEPRECATED: use true lattice parameter, not A to a.u. conversion factor

     IMPORTANT: XC functional enforced from input :
     Exchange-correlation= BEEF-VDW
                           (   1   4  43  14   2   0   0)
     Any further DFT definition will be discarded
     Please, verify this is what you really want

  @ DRIVER MODE: Connecting to
 qe_1139763_2852632.sched-torque.pace.gatech.eduxkhlqb1w_scratch
  using UNIX socket
  @ DRIVER MODE: Message from server: STATUS
  @ DRIVER MODE: Message from server: INIT
  @ DRIVER MODE: Receiving replica           0          -1
  @ DRIVER MODE: Receiving encoded integer          25
  @ DRIVER MODE:  SCF:  T  FORCE:  T  STRESS:  F  VC:  F  ENSEMBLE:  F
  @ DRIVER MODE:  SCF:  T  FORCE:  T  STRESS:  F  VC:  F  ENSEMBLE:  F

     Using Slab Decomposition

     bravais-lattice index     =            0
     lattice parameter (alat)  =       1.8897  a.u.
     unit-cell volume          =    6658.9804 (a.u.)^3
     number of atoms/cell      =           54
     number of atomic types    =            4
     number of electrons       =       398.00
     number of Kohn-Sham states=          209
     kinetic-energy cutoff     =      29.3995  Ry
     charge density cutoff     =     293.9946  Ry
     scf convergence threshold =      7.3E-08
     mixing beta               =       0.0500
     number of iterations used =            8  plain     mixing
     Exchange-correlation= BEEF-VDW
                           (   1   4  43  14   2   0   0)

     celldm(1)=   1.889726  celldm(2)=   0.000000  celldm(3)=   0.000000
     celldm(4)=   0.000000  celldm(5)=   0.000000  celldm(6)=   0.000000

     crystal axes: (cart. coord. in units of alat)
               a(1) = (   6.579727   0.000000   0.000000 )
               a(2) = (  -0.000775   5.961596   0.000000 )
               a(3) = (   0.000000   0.000000  25.155947 )

     reciprocal axes: (cart. coord. in units 2 pi/alat)
               b(1) = (  0.151982  0.000020  0.000000 )
               b(2) = (  0.000000  0.167740  0.000000 )
               b(3) = (  0.000000  0.000000  0.039752 )

     PseudoPot. # 1 for Ti read from file:
     /storage/coda1/p-amedford6/0/shared/rich_project_chbe-medford/medford-share/data/pseudos_module/espresso/nninc/pbe/van/Ti.UPF
     MD5 check sum: 8e4df49b7f0d34bbd5052bf3f5ea0213
     Pseudo is Ultrasoft, Zval = 12.0
     Generated by new atomic code, or converted to UPF format
     Using radial grid of  851 points,  6 beta functions with:
                l(1) =   0
                l(2) =   0
                l(3) =   1
                l(4) =   1
                l(5) =   2
                l(6) =   2
     Q(r) pseudized with  8 coefficients,  rinner =    1.000   1.000   1.000
                                                       1.000   1.000

     PseudoPot. # 2 for O  read from file:
     /storage/coda1/p-amedford6/0/shared/rich_project_chbe-medford/medford-share/data/pseudos_module/espresso/nninc/pbe/van/O.UPF
     MD5 check sum: 78c19812648e8988a0fe644b0f25305e
     Pseudo is Ultrasoft, Zval =  6.0
     Generated by new atomic code, or converted to UPF format
     Using radial grid of  737 points,  4 beta functions with:
                l(1) =   0
                l(2) =   0
                l(3) =   1
                l(4) =   1
     Q(r) pseudized with  8 coefficients,  rinner =    0.800   0.800   0.800

     PseudoPot. # 3 for C  read from file:
     /storage/coda1/p-amedford6/0/shared/rich_project_chbe-medford/medford-share/data/pseudos_module/espresso/nninc/pbe/van/C.UPF
     MD5 check sum: 1a69bf6b8db32088f5b2163dbdb77a27
     Pseudo is Ultrasoft, Zval =  4.0
     Generated by new atomic code, or converted to UPF format
     Using radial grid of  721 points,  4 beta functions with:
                l(1) =   0
                l(2) =   0
                l(3) =   1
                l(4) =   1
     Q(r) pseudized with  8 coefficients,  rinner =    0.800   0.800   0.800

     PseudoPot. # 4 for H  read from file:
     /storage/coda1/p-amedford6/0/shared/rich_project_chbe-medford/medford-share/data/pseudos_module/espresso/nninc/pbe/van/H.UPF
     MD5 check sum: b5ee9d7bfd3a09ee7748110bda690ff7
     Pseudo is Ultrasoft, Zval =  1.0
     Generated by new atomic code, or converted to UPF format
     Using radial grid of  615 points,  1 beta functions with:
                l(1) =   0
     Q(r) pseudized with  8 coefficients,  rinner =    0.800

     atomic species   valence    mass     pseudopotential
        Ti1           12.00    47.86700     Ti( 1.00)
        O1             6.00    15.99900     O ( 1.00)
        C1             4.00    12.01100     C ( 1.00)
        H1             1.00     1.00800     H ( 1.00)

     No symmetry found

   Cartesian axes

     site n.     atom                  positions (alat units)
         1           Ti1 tau(   1) = (   0.0004258   2.9801865   6.0000000  )
         2           Ti1 tau(   2) = (   3.2906075   1.4906267   6.0002472  )
         3           O1  tau(   3) = (   0.0006271   0.0005054   7.9858123  )
         4           O1  tau(   4) = (   3.2906025   0.0005020   7.3038282  )
         5           O1  tau(   5) = (   4.5942328   1.4918067   9.2879030  )
         6           O1  tau(   6) = (   1.9868534   1.4903216   9.2879459  )
         7           Ti1 tau(   7) = (   3.3203992   3.0065636   9.1614972  )
         8           Ti1 tau(   8) = (   0.0364112   1.5055733   9.2692997  )
         9           O1  tau(   9) = (   3.3037507   0.0048223  11.3846665  )
        10           O1  tau(  10) = (   0.0023770   0.0017864  10.5989407  )
        11           O1  tau(  11) = (   1.2986710   1.4943985  12.6419360  )
        12           O1  tau(  12) = (   5.3019195   1.4930987  12.6558330  )
        13           Ti1 tau(  13) = (   0.0201679   2.9954199  12.5459836  )
        14           Ti1 tau(  14) = (   3.3085843   1.4996073  12.5278567  )
        15           O1  tau(  15) = (   0.0306707   0.0063333  14.6434371  )
        16           O1  tau(  16) = (   3.2901280   5.9588824  14.0411263  )
        17           O1  tau(  17) = (   4.5937705   1.5245028  16.1210063  )
        18           O1  tau(  18) = (   2.0412355   1.5396885  16.1535958  )
        19           Ti1 tau(  19) = (   3.3250740   2.9785215  15.7238461  )
        20           Ti1 tau(  20) = (   0.0142243   1.3716099  15.9029131  )
        21           O1  tau(  21) = (   3.2904802   0.0005063   4.7018136  )
        22           O1  tau(  22) = (   0.0234726   5.9563001  17.1693433  )
        23           O1  tau(  23) = (   1.3043587   1.4918075   6.0039043  )
        24           O1  tau(  24) = (   5.2767064   1.4903225   6.0039473  )
        25           Ti1 tau(  25) = (   0.0000382   5.9609847   6.0000000  )
        26           Ti1 tau(  26) = (   3.2902200   4.4714249   6.0002472  )
        27           O1  tau(  27) = (   0.0002396   2.9813036   7.9858123  )
        28           O1  tau(  28) = (   3.2902150   2.9813002   7.3038282  )
        29           O1  tau(  29) = (   4.5938453   4.4726049   9.2879030  )
        30           O1  tau(  30) = (   1.9864658   4.4711199   9.2879459  )
        31           Ti1 tau(  31) = (   3.3166040   0.0254347   9.1556988  )
        32           Ti1 tau(  32) = (   0.0362352   4.4699824   9.2670842  )
        33           O1  tau(  33) = (   3.3035804   2.9865095  11.3763011  )
        34           O1  tau(  34) = (   0.0042610   2.9829788  10.6236548  )
        35           O1  tau(  35) = (   1.2977823   4.4749822  12.6434080  )
        36           O1  tau(  36) = (   5.3021498   4.4756442  12.6578133  )
        37           Ti1 tau(  37) = (   0.0128731   0.0155586  12.4748574  )
        38           Ti1 tau(  38) = (   3.3087006   4.4877506  12.5360639  )
        39           O1  tau(  39) = (   0.0289868   2.9802581  14.8446641  )
        40           O1  tau(  40) = (   3.2975897   2.9808645  13.9396156  )
        41           O1  tau(  41) = (   4.5936103   4.4348319  16.1149158  )
        42           O1  tau(  42) = (   2.0365336   4.4144103  16.1518429  )
        43           Ti1 tau(  43) = (   3.2980932   5.9591119  15.8729608  )
        44           Ti1 tau(  44) = (   0.0070259   4.5936845  15.8821292  )
        45           O1  tau(  45) = (   3.2900926   2.9813045   4.7018136  )
        46           O1  tau(  46) = (   1.3039711   4.4726057   6.0039043  )
        47           O1  tau(  47) = (   5.2763189   4.4711207   6.0039473  )
        48           C1  tau(  48) = (   6.0563806   2.9601134  19.0378501  )
        49           O1  tau(  49) = (   0.1703025   2.9720528  17.8813388  )
        50           H1  tau(  50) = (   5.0099104   2.8626262  18.6876999  )
        51           H1  tau(  51) = (   1.1251272   3.0566160  18.0647747  )
        52           O1  tau(  52) = (   3.2803433   5.9178330  18.2983259  )
        53           H1  tau(  53) = (   4.0549949   5.9397654  18.8787675  )
        54           H1  tau(  54) = (   2.4787048   0.0262026  18.8357284  )

     number of k points=    10  Fermi-Dirac smearing, width (Ry)=  0.0073
                       cart. coord. in units 2pi/alat
        k(    1) = (   0.0000000   0.0000000   0.0000000), wk =   0.1250000
        k(    2) = (   0.0000000   0.0419351   0.0000000), wk =   0.2500000
        k(    3) = (   0.0000000  -0.0838702   0.0000000), wk =   0.1250000
        k(    4) = (   0.0379955   0.0000049   0.0000000), wk =   0.2500000
        k(    5) = (   0.0379955   0.0419400   0.0000000), wk =   0.2500000
        k(    6) = (   0.0379955  -0.0838652   0.0000000), wk =   0.2500000
        k(    7) = (   0.0379955  -0.0419301   0.0000000), wk =   0.2500000
        k(    8) = (  -0.0759910  -0.0000099   0.0000000), wk =   0.1250000
        k(    9) = (  -0.0759910   0.0419252   0.0000000), wk =   0.2500000
        k(   10) = (  -0.0759910  -0.0838800   0.0000000), wk =   0.1250000

     Initial potential from superposition of free atoms

     starting charge  381.99917, renormalised to  398.00000

     negative rho (up, down):  1.671E-02 0.000E+00

     %%%%%%%%%%%%%%%%%%%%%%%%%%%%%%%%%%%%%%%%%%%%%%%%%%%%%%%%%%%%%%%%%%%%%%%%
     %                                                                      %
     % You are using vdW-DF, which was implemented by the Thonhauser group. %
     % Please cite the following two papers that made this development      %
     % possible and the two reviews that describe the various versions:     %
     %                                                                      %
     %   T. Thonhauser et al., PRL 115, 136402 (2015).                      %
     %   T. Thonhauser et al., PRB 76, 125112 (2007).                       %
     %   K. Berland et al., Rep. Prog. Phys. 78, 066501 (2015).             %
     %   D.C. Langreth et al., J. Phys.: Condens. Matter 21, 084203 (2009). %
     %                                                                      %
     %                                                                      %
     % If you are calculating the stress with vdW-DF, please also cite:     %
     %                                                                      %
     %   R. Sabatini et al., J. Phys.: Condens. Matter 24, 424209 (2012).   %
     %                                                                      %
     %%%%%%%%%%%%%%%%%%%%%%%%%%%%%%%%%%%%%%%%%%%%%%%%%%%%%%%%%%%%%%%%%%%%%%%%

     Adding external electric field

     Computed dipole along edir(3) :
        Dipole              -10.5099 Ry au,        -26.7135 Debye
        Dipole field         -0.0198 Ry au,

        Potential amp.        1.8385 Ry
        Total length         46.3494 bohr

     Starting wfcs are  300 atomic wfcs
  @ DRIVER MODE: Message from server: STATUS
  @ DRIVER MODE: Message from server: POSDATA
  @ DRIVER MODE: Reading and sharing cell
  @ DRIVER MODE: Reading and sharing positions
  @ DRIVER MODE: Received positions

     Self-consistent Calculation

     iteration #  1     ecut=    29.40 Ry     beta= 0.05
     Davidson diagonalization with overlap
     c_bands:  2 eigenvalues not converged
     c_bands:  3 eigenvalues not converged
     c_bands:  1 eigenvalues not converged
     c_bands:  4 eigenvalues not converged
     c_bands:  4 eigenvalues not converged
     c_bands:  4 eigenvalues not converged
     c_bands:  1 eigenvalues not converged
     c_bands:  3 eigenvalues not converged
     c_bands:  4 eigenvalues not converged
     ethr =  1.00E-05,  avg # of iterations = 19.9

[...]

     total energy              =   -2479.39890747 Ry
     estimated scf accuracy    <    5441.04566093 Ry

     iteration #  2     ecut=    29.40 Ry     beta= 0.05
     Davidson diagonalization with overlap
     ethr =  1.00E-02,  avg # of iterations = 25.6

[...]

     iteration # 59     ecut=    29.40 Ry     beta= 0.05
     Davidson diagonalization with overlap
     c_bands:  1 eigenvalues not converged
     ethr =  1.30E-09,  avg # of iterations = 13.3

[...]

     total energy              =   -2964.77940364 Ry
     estimated scf accuracy    <       0.00000008 Ry

     iteration # 76     ecut=    29.40 Ry     beta= 0.05
     Davidson diagonalization with overlap
     ethr =  1.88E-11,  avg # of iterations =  2.9

     negative rho (up, down):  1.519E-02 0.000E+00

     Adding external electric field

     Computed dipole along edir(3) :
        Dipole                0.7177 Ry au,          1.8242 Debye
        Dipole field          0.0014 Ry au,

        Potential amp.       -0.1256 Ry
        Total length         46.3494 bohr

     End of self-consistent calculation

          k = 0.0000 0.0000 0.0000 ( 18029 PWs)   bands (ev):

   -55.6988 -55.6858 -55.6625 -55.6603 -55.6514 -55.6006 -55.5491 -55.5473
   -55.5367 -55.5147 -55.5017 -55.4813 -55.4806 -55.4678 -54.7666 -54.7325
   -32.2593 -32.1799 -32.1788 -32.0817 -32.0444 -32.0247 -32.0134 -32.0035
   -31.9747 -31.9398 -31.9294 -31.9146 -31.8908 -31.8832 -31.8759 -31.8577
   -31.8395 -31.8388 -31.8356 -31.8282 -31.8136 -31.8011 -31.8008 -31.7917
   -31.7913 -31.7742 -31.7710 -31.7429 -31.7319 -31.7171 -31.7057 -31.7048
   -31.7015 -31.6957 -31.6895 -31.6814 -31.6492 -31.6478 -31.6431 -31.6389
   -31.6125 -31.5586 -31.1783 -31.0769 -31.0552 -30.9946 -30.9082 -30.7972
   -21.2439 -19.2687 -16.5183 -16.2763 -16.1340 -16.0316 -15.9251 -15.7929
   -15.7056 -15.5822 -15.5186 -15.3922 -15.3541 -15.3494 -15.3423 -15.3127
   -15.2944 -15.2676 -15.2441 -15.2030 -15.1987 -15.1950 -15.1663 -15.1537
   -15.0961 -15.0834 -15.0432 -14.9218 -14.8699 -14.8089 -14.4960 -13.2673
   -13.1482 -10.4135  -7.2294  -5.7511  -4.7934  -4.0899  -3.9457  -3.8111
    -3.7114  -3.6427  -3.6071  -3.5413  -3.4584  -3.2558  -3.1268  -3.1177
    -2.9845  -2.9475  -2.9032  -2.8018  -2.7373  -2.6741  -2.6640  -2.5892
    -2.5838  -2.5751  -2.5618  -2.4720  -2.4659  -2.4168  -2.3734  -2.2961
    -2.2610  -2.1416  -2.1112  -2.1017  -2.0579  -2.0422  -2.0353  -2.0235
    -1.9734  -1.9477  -1.9320  -1.9289  -1.7883  -1.7447  -1.6008  -1.4734
    -1.4447  -1.4272  -1.3091  -1.2605  -1.2444  -1.1884  -1.1686  -1.1560
    -1.1170  -1.0360  -0.9541  -0.9330  -0.8591  -0.8148  -0.7100  -0.6173
    -0.5741  -0.5251  -0.5001  -0.4907  -0.4713  -0.4101  -0.3599  -0.2720
    -0.2187  -0.1581  -0.1285  -0.1213  -0.0683  -0.0372   0.0413   0.0904
     0.1249   0.1374   0.2241   0.2393   0.2510   0.2821   0.2852   0.3981
     0.4523   0.5060   0.5155   0.6635   0.8274   0.8567   0.9344   1.1507
     1.2590   1.2612   1.4224   1.4974   1.8441   1.8984   3.3888   3.4587
     3.4934   3.5074   3.5158   3.5946   3.8292   3.8771   3.9082   3.9274
     3.9362

[...]

          k = 0.0380-0.0419 0.0000 ( 17876 PWs)   bands (ev):

[...]

          k =-0.0760-0.0000 0.0000 ( 17886 PWs)   bands (ev):

[...]

          k =-0.0760-0.0839 0.0000 ( 17948 PWs)   bands (ev):

   -55.6832 -55.6778 -55.6709 -55.6662 -55.6586 -55.5943 -55.5536 -55.5338
   -55.5299 -55.5296 -55.4880 -55.4859 -55.4837 -55.4821 -54.7495 -54.7495
   -32.1037 -32.0696 -32.0585 -31.9970 -31.9926 -31.9741 -31.9648 -31.9555
   -31.9539 -31.9290 -31.9281 -31.9031 -31.8939 -31.8659 -31.8518 -31.8502
   -31.8487 -31.8404 -31.8356 -31.8316 -31.8240 -31.8179 -31.7991 -31.7966
   -31.7935 -31.7921 -31.7912 -31.7899 -31.7865 -31.7785 -31.7772 -31.7467
   -31.7322 -31.7318 -31.7175 -31.7073 -31.7054 -31.7016 -31.6749 -31.6699
   -31.6693 -31.6473 -31.0678 -31.0678 -30.9911 -30.9908 -30.9515 -30.9513
   -21.2427 -19.2682 -16.1503 -15.9541 -15.8030 -15.7184 -15.7118 -15.6531
   -15.5736 -15.5326 -15.4879 -15.4749 -15.4639 -15.4300 -15.4224 -15.4117
   -15.3473 -15.2960 -15.2925 -15.2770 -15.2282 -15.2202 -15.2096 -15.2040
   -15.1952 -15.1521 -15.1480 -15.1333 -15.1225 -14.9819 -14.8289 -13.2496
   -13.2488 -10.4169  -7.2269  -5.7546  -4.7730  -4.0225  -3.8773  -3.2298
    -3.2265  -2.9650  -2.9425  -2.8844  -2.8728  -2.8080  -2.7773  -2.7011
    -2.6946  -2.6508  -2.6093  -2.6015  -2.5881  -2.5638  -2.5304  -2.5202
    -2.4751  -2.4674  -2.4406  -2.4378  -2.4158  -2.3998  -2.3747  -2.3688
    -2.3367  -2.3169  -2.3098  -2.3063  -2.2324  -2.1672  -2.0429  -2.0224
    -1.9828  -1.9308  -1.9153  -1.8448  -1.8091  -1.7946  -1.7373  -1.7039
    -1.6791  -1.5026  -1.4919  -1.4710  -1.3814  -1.3478  -1.3403  -1.3114
    -1.2532  -1.2211  -1.2184  -1.1393  -1.0286  -1.0066  -0.9064  -0.8615
    -0.8601  -0.7731  -0.7376  -0.6988  -0.6968  -0.6617  -0.6032  -0.5817
    -0.5250  -0.5208  -0.4729  -0.4505  -0.4269  -0.3968  -0.2258  -0.1687
    -0.1138  -0.0159   0.0098   0.2385   0.2692   0.2782   0.3433   0.3751
     0.4790   0.5015   0.5654   0.5807   0.6817   0.7085   0.7302   0.7352
     0.7810   1.5047   1.6109   1.6135   1.7124   1.7161   3.5396   3.5508
     3.6535   3.7064   3.7430   3.8459   3.8956   3.9272   3.9355   3.9502
     4.0251

     the Fermi energy is     3.4368 ev

!    total energy              =   -2964.77941212 Ry
     estimated scf accuracy    <       0.00000006 Ry
     smearing contrib. (-TS)   =      -0.03745279 Ry
     internal energy E=F+TS    =   -2964.74195934 Ry

     The total energy is F=E-TS. E is the sum of the following terms:
     one-electron contribution =  -24114.54580936 Ry
     hartree contribution      =   12147.53703235 Ry
     xc contribution           =    -490.03255315 Ry
     ewald contribution        =    9492.29839874 Ry
     electric field correction =       0.00097208 Ry

     convergence has been achieved in  76 iterations

     Forces acting on atoms (cartesian axes, Ry/au):

     atom    1 type  1   force =    -0.00035359   -0.00002094    0.09253953
     atom    2 type  1   force =    -0.00033360    0.00121909   -0.18263281
     atom    3 type  2   force =     0.00043570    0.00023276   -0.02457609
     atom    4 type  2   force =     0.00073397    0.00044898    0.05163253
     atom    5 type  2   force =    -0.01466435   -0.00007421    0.00465541
     atom    6 type  2   force =     0.01553601   -0.00057073    0.00540811
     atom    7 type  1   force =    -0.00050618   -0.00015966    0.00008458
     atom    8 type  1   force =     0.00021815    0.00002629    0.00020674
     atom    9 type  2   force =    -0.00016697   -0.00017603   -0.00030180
     atom   10 type  2   force =     0.00006409   -0.00003941    0.00032687
     atom   11 type  2   force =    -0.00031518    0.00021231    0.00004283
     atom   12 type  2   force =     0.00038681    0.00007984   -0.00020246
     atom   13 type  1   force =    -0.00020659   -0.00025581    0.00013138
     atom   14 type  1   force =     0.00012924   -0.00022440   -0.00052458
     atom   15 type  2   force =    -0.00032491    0.00032214   -0.00006207
     atom   16 type  2   force =     0.00007687    0.00001657   -0.00020242
     atom   17 type  2   force =     0.00006556   -0.00007182    0.00037668
     atom   18 type  2   force =    -0.00009191    0.00004469    0.00002560
     atom   19 type  1   force =    -0.00092751    0.00005441   -0.00063522
     atom   20 type  1   force =     0.00034532   -0.00014232   -0.00089159
     atom   21 type  2   force =    -0.00009657    0.00005789    0.10492147
     atom   22 type  2   force =    -0.00032493   -0.00002186    0.00095388
     atom   23 type  2   force =    -0.06834940    0.00002900   -0.02693073
     atom   24 type  2   force =     0.06804571    0.00046385   -0.02700964
     atom   25 type  1   force =    -0.00030658   -0.00001806    0.09720724
     atom   26 type  1   force =    -0.00030397   -0.00120392   -0.18267412
     atom   27 type  2   force =     0.00035046    0.00023542   -0.02299056
     atom   28 type  2   force =     0.00081312    0.00042602    0.05201945
     atom   29 type  2   force =    -0.01464651    0.00064754    0.00458454
     atom   30 type  2   force =     0.01566270    0.00040049    0.00531376
     atom   31 type  1   force =    -0.00046494   -0.00000313    0.00011282
     atom   32 type  1   force =     0.00021487    0.00008827    0.00019160
     atom   33 type  2   force =    -0.00008912    0.00013027    0.00016762
     atom   34 type  2   force =     0.00001067    0.00001380    0.00016683
     atom   35 type  2   force =    -0.00015425   -0.00030592    0.00013398
     atom   36 type  2   force =     0.00022447   -0.00019900   -0.00009888
     atom   37 type  1   force =    -0.00029218    0.00016419   -0.00052132
     atom   38 type  1   force =     0.00012638    0.00038133   -0.00042003
     atom   39 type  2   force =    -0.00035462   -0.00027583   -0.00002129
     atom   40 type  2   force =     0.00017999   -0.00008314    0.00003369
     atom   41 type  2   force =    -0.00016418   -0.00018574    0.00002534
     atom   42 type  2   force =     0.00011896   -0.00029251   -0.00031657
     atom   43 type  1   force =    -0.00083437   -0.00025315   -0.00025671
     atom   44 type  1   force =     0.00034038   -0.00039926   -0.00083213
     atom   45 type  2   force =    -0.00007267    0.00005394    0.10481741
     atom   46 type  2   force =    -0.06833468   -0.00060339   -0.02692375
     atom   47 type  2   force =     0.06803183   -0.00013973   -0.02699973
     atom   48 type  3   force =    -0.00042616    0.00026735    0.01086648
     atom   49 type  2   force =     0.00227858   -0.00014662   -0.00756623
     atom   50 type  4   force =    -0.00217418   -0.00009035   -0.00313096
     atom   51 type  4   force =     0.00056760   -0.00001532   -0.00014131
     atom   52 type  2   force =     0.00006907   -0.00112294    0.00094530
     atom   53 type  4   force =    -0.00027026    0.00058308   -0.00042785
     atom   54 type  4   force =     0.00052384    0.00049566   -0.00060081

     Total force =     0.368751     Total SCF correction =     0.000802
  @ DRIVER MODE: Message from server: STATUS
  @ DRIVER MODE: Message from server: GETFORCE
  @ DRIVER MODE: Returning v,forces,stress,ensemble

     Writing output data file ./calc.save/
  @ DRIVER MODE: Message from server: EXIT
  @ DRIVE MODE: Exiting

     General routines

     Parallel routines

   This run was terminated on:  17:34: 0  15Sep2021

   JOB DONE.