     Program PWSCF v.6.7GPU starts on 15Sep2021 at 19: 4:50

     R & G space division:  proc/nbgrp/npool/nimage =      10
     Reading input from /storage/home/hcoda1/3/ntian30/research/carbon/CxH_vib/H2O_calc/ads_slab/CH2OHH2O_a/out_0011/pw.inp
Warning: card &CELL ignored
Warning: card   CELL_DYNAMICS='IPI', ignored
Warning: card / ignored

     Current dimensions of program PWSCF are:
     Max number of different atomic species (ntypx) = 10
     Max number of k-points (npk) =  40000
     Max angular momentum in pseudopotentials (lmaxx) =  3
     Presently no symmetry can be used with electric field

     Message from routine cell_base_init:
     DEPRECATED: use true lattice parameter, not A to a.u. conversion factor

     IMPORTANT: XC functional enforced from input :
     Exchange-correlation= BEEF-VDW
                           (   1   4  43  14   2   0   0)
     Any further DFT definition will be discarded
     Please, verify this is what you really want

  @ DRIVER MODE: Connecting to
 qe_1139763_2852615.sched-torque.pace.gatech.educifo7mov_scratch
  using UNIX socket
  @ DRIVER MODE: Message from server: STATUS
  @ DRIVER MODE: Message from server: INIT
  @ DRIVER MODE: Receiving replica           0          -1
  @ DRIVER MODE: Receiving encoded integer          25
  @ DRIVER MODE:  SCF:  T  FORCE:  T  STRESS:  F  VC:  F  ENSEMBLE:  F
  @ DRIVER MODE:  SCF:  T  FORCE:  T  STRESS:  F  VC:  F  ENSEMBLE:  F

     Using Slab Decomposition

     bravais-lattice index     =            0
     lattice parameter (alat)  =       1.8897  a.u.
     unit-cell volume          =    6658.9804 (a.u.)^3
     number of atoms/cell      =           55
     number of atomic types    =            4
     number of electrons       =       399.00
     number of Kohn-Sham states=          209
     kinetic-energy cutoff     =      29.3995  Ry
     charge density cutoff     =     293.9946  Ry
     scf convergence threshold =      7.3E-08
     mixing beta               =       0.0500
     number of iterations used =            8  plain     mixing
     Exchange-correlation= BEEF-VDW
                           (   1   4  43  14   2   0   0)

     celldm(1)=   1.889726  celldm(2)=   0.000000  celldm(3)=   0.000000
     celldm(4)=   0.000000  celldm(5)=   0.000000  celldm(6)=   0.000000

     crystal axes: (cart. coord. in units of alat)
               a(1) = (   6.579727   0.000000   0.000000 )
               a(2) = (  -0.000775   5.961596   0.000000 )
               a(3) = (   0.000000   0.000000  25.155947 )

     reciprocal axes: (cart. coord. in units 2 pi/alat)
               b(1) = (  0.151982  0.000020  0.000000 )
               b(2) = (  0.000000  0.167740  0.000000 )
               b(3) = (  0.000000  0.000000  0.039752 )

     PseudoPot. # 1 for Ti read from file:
     /storage/coda1/p-amedford6/0/shared/rich_project_chbe-medford/medford-share/data/pseudos_module/espresso/nninc/pbe/van/Ti.UPF
     MD5 check sum: 8e4df49b7f0d34bbd5052bf3f5ea0213
     Pseudo is Ultrasoft, Zval = 12.0
     Generated by new atomic code, or converted to UPF format
     Using radial grid of  851 points,  6 beta functions with:
                l(1) =   0
                l(2) =   0
                l(3) =   1
                l(4) =   1
                l(5) =   2
                l(6) =   2
     Q(r) pseudized with  8 coefficients,  rinner =    1.000   1.000   1.000
                                                       1.000   1.000

     PseudoPot. # 2 for O  read from file:
     /storage/coda1/p-amedford6/0/shared/rich_project_chbe-medford/medford-share/data/pseudos_module/espresso/nninc/pbe/van/O.UPF
     MD5 check sum: 78c19812648e8988a0fe644b0f25305e
     Pseudo is Ultrasoft, Zval =  6.0
     Generated by new atomic code, or converted to UPF format
     Using radial grid of  737 points,  4 beta functions with:
                l(1) =   0
                l(2) =   0
                l(3) =   1
                l(4) =   1
     Q(r) pseudized with  8 coefficients,  rinner =    0.800   0.800   0.800

     PseudoPot. # 3 for C  read from file:
     /storage/coda1/p-amedford6/0/shared/rich_project_chbe-medford/medford-share/data/pseudos_module/espresso/nninc/pbe/van/C.UPF
     MD5 check sum: 1a69bf6b8db32088f5b2163dbdb77a27
     Pseudo is Ultrasoft, Zval =  4.0
     Generated by new atomic code, or converted to UPF format
     Using radial grid of  721 points,  4 beta functions with:
                l(1) =   0
                l(2) =   0
                l(3) =   1
                l(4) =   1
     Q(r) pseudized with  8 coefficients,  rinner =    0.800   0.800   0.800

     PseudoPot. # 4 for H  read from file:
     /storage/coda1/p-amedford6/0/shared/rich_project_chbe-medford/medford-share/data/pseudos_module/espresso/nninc/pbe/van/H.UPF
     MD5 check sum: b5ee9d7bfd3a09ee7748110bda690ff7
     Pseudo is Ultrasoft, Zval =  1.0
     Generated by new atomic code, or converted to UPF format
     Using radial grid of  615 points,  1 beta functions with:
                l(1) =   0
     Q(r) pseudized with  8 coefficients,  rinner =    0.800

     atomic species   valence    mass     pseudopotential
        Ti1           12.00    47.86700     Ti( 1.00)
        O1             6.00    15.99900     O ( 1.00)
        C1             4.00    12.01100     C ( 1.00)
        H1             1.00     1.00800     H ( 1.00)

     No symmetry found

   Cartesian axes

     site n.     atom                  positions (alat units)
         1           Ti1 tau(   1) = (   0.0004258   2.9801865   6.0000000  )
         2           Ti1 tau(   2) = (   3.2906075   1.4906267   6.0002472  )
         3           O1  tau(   3) = (   0.0006271   0.0005054   7.9858123  )
         4           O1  tau(   4) = (   3.2906025   0.0005020   7.3038282  )
         5           O1  tau(   5) = (   4.5942328   1.4918067   9.2879030  )
         6           O1  tau(   6) = (   1.9868534   1.4903216   9.2879459  )
         7           Ti1 tau(   7) = (   3.2434587   3.0186650   9.1693953  )
         8           Ti1 tau(   8) = (   6.5248695   1.5265067   9.2859949  )
         9           O1  tau(   9) = (   3.3238096   0.0077392  11.3399147  )
        10           O1  tau(  10) = (   0.0083103   0.0007143  10.5763085  )
        11           O1  tau(  11) = (   1.3076427   1.5153157  12.5877682  )
        12           O1  tau(  12) = (   5.3324098   1.4751673  12.6362968  )
        13           Ti1 tau(  13) = (   0.0822926   2.9518924  12.6100891  )
        14           Ti1 tau(  14) = (   3.3652580   1.6116561  12.6031695  )
        15           O1  tau(  15) = (   0.1623142   0.0003102  14.6136642  )
        16           O1  tau(  16) = (   3.2083997   0.0016335  13.9229753  )
        17           O1  tau(  17) = (   4.6427586   1.3635169  15.8692112  )
        18           O1  tau(  18) = (   2.0707938   1.5934636  16.1317492  )
        19           Ti1 tau(  19) = (   3.4055461   2.9583945  15.9219660  )
        20           Ti1 tau(  20) = (   0.0529163   1.3399360  15.9091509  )
        21           O1  tau(  21) = (   3.2904802   0.0005063   4.7018136  )
        22           O1  tau(  22) = (   0.1143047   5.9459637  17.1421970  )
        23           O1  tau(  23) = (   1.3043587   1.4918075   6.0039043  )
        24           O1  tau(  24) = (   5.2767064   1.4903225   6.0039473  )
        25           Ti1 tau(  25) = (   0.0000382   5.9609847   6.0000000  )
        26           Ti1 tau(  26) = (   3.2902200   4.4714249   6.0002472  )
        27           O1  tau(  27) = (   0.0002396   2.9813036   7.9858123  )
        28           O1  tau(  28) = (   3.2902150   2.9813002   7.3038282  )
        29           O1  tau(  29) = (   4.5938453   4.4726049   9.2879030  )
        30           O1  tau(  30) = (   1.9864658   4.4711199   9.2879459  )
        31           Ti1 tau(  31) = (   3.2519499   0.0415563   9.1803751  )
        32           Ti1 tau(  32) = (   6.5223785   4.4699269   9.2708698  )
        33           O1  tau(  33) = (   3.3249262   3.0006027  11.3427062  )
        34           O1  tau(  34) = (   6.5728067   2.9803724  10.5910131  )
        35           O1  tau(  35) = (   1.3048910   4.4590737  12.5876729  )
        36           O1  tau(  36) = (   5.3248012   4.5079456  12.6396186  )
        37           Ti1 tau(  37) = (   0.0305998   5.9348532  12.4502240  )
        38           Ti1 tau(  38) = (   3.3518916   4.5407868  12.4757475  )
        39           O1  tau(  39) = (   0.0741357   2.9755951  14.7167286  )
        40           O1  tau(  40) = (   3.3703583   2.9475192  13.9294239  )
        41           O1  tau(  41) = (   4.6408928   4.5782690  15.8216857  )
        42           O1  tau(  42) = (   2.0743197   4.3710070  16.0958311  )
        43           Ti1 tau(  43) = (   3.3271525   5.9323444  15.7323421  )
        44           Ti1 tau(  44) = (   0.0603002   4.5335970  15.7939964  )
        45           O1  tau(  45) = (   3.2900926   2.9813045   4.7018136  )
        46           O1  tau(  46) = (   1.3039711   4.4726057   6.0039043  )
        47           O1  tau(  47) = (   5.2763189   4.4711207   6.0039473  )
        48           C1  tau(  48) = (   4.5917920   3.0228413  17.9030398  )
        49           O1  tau(  49) = (   6.0625861   3.0006587  17.4462122  )
        50           H1  tau(  50) = (   0.0503952   3.1075262  18.2373115  )
        51           H1  tau(  51) = (   4.5265887   2.1706275  18.5876854  )
        52           H1  tau(  52) = (   4.4781653   3.9549082  18.4551422  )
        53           O1  tau(  53) = (   2.8659371   5.8926936  18.2031264  )
        54           H1  tau(  54) = (   3.0528466   0.8172038  18.5446680  )
        55           H1  tau(  55) = (   1.8959954   5.8777970  18.0521013  )

     number of k points=    10  Fermi-Dirac smearing, width (Ry)=  0.0073
                       cart. coord. in units 2pi/alat
        k(    1) = (   0.0000000   0.0000000   0.0000000), wk =   0.1250000
        k(    2) = (   0.0000000   0.0419351   0.0000000), wk =   0.2500000
        k(    3) = (   0.0000000  -0.0838702   0.0000000), wk =   0.1250000
        k(    4) = (   0.0379955   0.0000049   0.0000000), wk =   0.2500000
        k(    5) = (   0.0379955   0.0419400   0.0000000), wk =   0.2500000
        k(    6) = (   0.0379955  -0.0838652   0.0000000), wk =   0.2500000
        k(    7) = (   0.0379955  -0.0419301   0.0000000), wk =   0.2500000
        k(    8) = (  -0.0759910  -0.0000099   0.0000000), wk =   0.1250000
        k(    9) = (  -0.0759910   0.0419252   0.0000000), wk =   0.2500000
        k(   10) = (  -0.0759910  -0.0838800   0.0000000), wk =   0.1250000

     Initial potential from superposition of free atoms

     starting charge  382.99916, renormalised to  399.00000

     negative rho (up, down):  1.858E-02 0.000E+00

     %%%%%%%%%%%%%%%%%%%%%%%%%%%%%%%%%%%%%%%%%%%%%%%%%%%%%%%%%%%%%%%%%%%%%%%%
     %                                                                      %
     % You are using vdW-DF, which was implemented by the Thonhauser group. %
     % Please cite the following two papers that made this development      %
     % possible and the two reviews that describe the various versions:     %
     %                                                                      %
     %   T. Thonhauser et al., PRL 115, 136402 (2015).                      %
     %   T. Thonhauser et al., PRB 76, 125112 (2007).                       %
     %   K. Berland et al., Rep. Prog. Phys. 78, 066501 (2015).             %
     %   D.C. Langreth et al., J. Phys.: Condens. Matter 21, 084203 (2009). %
     %                                                                      %
     %                                                                      %
     % If you are calculating the stress with vdW-DF, please also cite:     %
     %                                                                      %
     %   R. Sabatini et al., J. Phys.: Condens. Matter 24, 424209 (2012).   %
     %                                                                      %
     %%%%%%%%%%%%%%%%%%%%%%%%%%%%%%%%%%%%%%%%%%%%%%%%%%%%%%%%%%%%%%%%%%%%%%%%

     Adding external electric field

     Computed dipole along edir(3) :
        Dipole               -9.7256 Ry au,        -24.7201 Debye
        Dipole field         -0.0184 Ry au,

        Potential amp.        1.7014 Ry
        Total length         46.3494 bohr

     Starting wfcs are  301 atomic wfcs
  @ DRIVER MODE: Message from server: STATUS
  @ DRIVER MODE: Message from server: POSDATA
  @ DRIVER MODE: Reading and sharing cell
  @ DRIVER MODE: Reading and sharing positions
  @ DRIVER MODE: Received positions

     Self-consistent Calculation

     iteration #  1     ecut=    29.40 Ry     beta= 0.05
     Davidson diagonalization with overlap
     c_bands:  1 eigenvalues not converged
     c_bands:  2 eigenvalues not converged
     c_bands:  3 eigenvalues not converged
     c_bands:  5 eigenvalues not converged
     c_bands:  3 eigenvalues not converged
     c_bands:  2 eigenvalues not converged
     c_bands:  3 eigenvalues not converged
     c_bands:  2 eigenvalues not converged
     ethr =  1.00E-05,  avg # of iterations = 19.8

[...]

     total energy              =   -2478.55764830 Ry
     estimated scf accuracy    <    5415.41869336 Ry

     iteration #  2     ecut=    29.40 Ry     beta= 0.05
     Davidson diagonalization with overlap
     ethr =  1.00E-02,  avg # of iterations = 24.1

[...]

     iteration # 55     ecut=    29.40 Ry     beta= 0.05
     Davidson diagonalization with overlap
     c_bands:  1 eigenvalues not converged
     ethr =  8.73E-08,  avg # of iterations = 12.5

[...]

     total energy              =   -2966.15808022 Ry
     estimated scf accuracy    <       0.00000013 Ry

     iteration # 70     ecut=    29.40 Ry     beta= 0.05
     Davidson diagonalization with overlap
     ethr =  3.28E-11,  avg # of iterations =  5.9

     negative rho (up, down):  1.797E-02 0.000E+00

     Adding external electric field

     Computed dipole along edir(3) :
        Dipole                1.0092 Ry au,          2.5652 Debye
        Dipole field          0.0019 Ry au,

        Potential amp.       -0.1765 Ry
        Total length         46.3494 bohr

     End of self-consistent calculation

          k = 0.0000 0.0000 0.0000 ( 18029 PWs)   bands (ev):

   -55.6861 -55.6497 -55.5777 -55.5698 -55.5132 -55.5112 -55.5055 -55.5027
   -55.4750 -55.4576 -55.4503 -55.4396 -55.4241 -55.3356 -54.6555 -54.6215
   -32.1757 -32.1622 -32.0516 -32.0221 -31.9999 -31.9734 -31.9526 -31.9408
   -31.9273 -31.8672 -31.8405 -31.8335 -31.8300 -31.8208 -31.7930 -31.7843
   -31.7803 -31.7613 -31.7561 -31.7452 -31.7335 -31.7281 -31.6947 -31.6893
   -31.6870 -31.6802 -31.6747 -31.6668 -31.6616 -31.6571 -31.6494 -31.6324
   -31.6287 -31.6260 -31.6209 -31.6179 -31.6099 -31.6090 -31.5836 -31.5608
   -31.5498 -31.4227 -31.0625 -30.9741 -30.9516 -30.8794 -30.7930 -30.6817
   -19.3564 -18.7475 -16.3709 -16.1743 -15.9697 -15.8555 -15.8366 -15.6549
   -15.5314 -15.3852 -15.3328 -15.3045 -15.2831 -15.2137 -15.2069 -15.1921
   -15.1568 -15.1523 -15.1156 -15.0959 -15.0898 -15.0618 -15.0106 -14.9890
   -14.9396 -14.8790 -14.8105 -14.7902 -14.7814 -14.7061 -14.6144 -13.1562
   -13.0396  -9.4105  -6.5060  -6.2758  -4.0780  -3.8540  -3.6862  -3.6422
    -3.6085  -3.5723  -3.4143  -3.3011  -3.1224  -3.0195  -2.9498  -2.8987
    -2.8624  -2.7856  -2.7437  -2.6191  -2.5959  -2.5459  -2.5132  -2.4778
    -2.4705  -2.4494  -2.4042  -2.3872  -2.3713  -2.2142  -2.2031  -2.1703
    -2.1052  -2.0738  -2.0467  -2.0100  -1.9881  -1.9612  -1.9428  -1.8962
    -1.8777  -1.8065  -1.7977  -1.7551  -1.6878  -1.6559  -1.3909  -1.3162
    -1.2923  -1.2550  -1.1902  -1.0929  -1.0894  -1.0829  -1.0824  -1.0281
    -1.0172  -0.8589  -0.8452  -0.8306  -0.7502  -0.6717  -0.5926  -0.5561
    -0.4915  -0.4413  -0.4082  -0.3804  -0.3557  -0.2994  -0.2324  -0.2077
    -0.1375  -0.0628  -0.0300   0.0231   0.0485   0.0927   0.1236   0.1999
     0.2390   0.2728   0.3009   0.3188   0.3289   0.3727   0.3924   0.4817
     0.5588   0.5867   0.5937   0.6677   0.7943   0.8769   0.9885   1.0803
     1.3023   1.3686   1.4201   1.5488   1.5587   1.9404   1.9910   3.4554
     3.5245   3.5838   3.5844   3.6193   3.6999   3.9027   3.9499   4.0083
     4.0420

[...]

          k = 0.0380-0.0419 0.0000 ( 17876 PWs)   bands (ev):

[...]

          k =-0.0760-0.0000 0.0000 ( 17886 PWs)   bands (ev):

[...]

          k =-0.0760-0.0839 0.0000 ( 17948 PWs)   bands (ev):

   -55.6744 -55.6612 -55.5723 -55.5651 -55.5174 -55.5102 -55.5078 -55.4992
   -55.4598 -55.4565 -55.4539 -55.4428 -55.4392 -55.3371 -54.6385 -54.6384
   -32.0943 -31.9837 -31.9728 -31.9709 -31.9488 -31.8977 -31.8713 -31.8500
   -31.8432 -31.8382 -31.8354 -31.8121 -31.8110 -31.7963 -31.7953 -31.7859
   -31.7847 -31.7761 -31.7746 -31.7718 -31.7690 -31.7590 -31.7377 -31.7322
   -31.7263 -31.7143 -31.7075 -31.7006 -31.6984 -31.6841 -31.6700 -31.6631
   -31.6619 -31.6592 -31.6573 -31.6509 -31.6495 -31.6475 -31.6454 -31.6430
   -31.6260 -31.4249 -30.9644 -30.9642 -30.8758 -30.8750 -30.8363 -30.8359
   -19.3495 -18.7465 -15.9879 -15.6506 -15.6375 -15.6322 -15.6016 -15.4798
   -15.4564 -15.4341 -15.3886 -15.3582 -15.3525 -15.3292 -15.2852 -15.2285
   -15.2092 -15.2015 -15.1917 -15.1394 -15.1251 -15.1143 -15.0684 -15.0279
   -15.0248 -15.0017 -14.9752 -14.9701 -14.9697 -14.9420 -14.8758 -13.1430
   -13.1398  -9.4168  -6.5053  -6.2563  -4.0352  -3.7483  -3.1580  -3.0413
    -2.8678  -2.8473  -2.7956  -2.7726  -2.7196  -2.6512  -2.6224  -2.6110
    -2.6090  -2.5753  -2.5127  -2.4786  -2.4748  -2.4356  -2.4173  -2.4095
    -2.3889  -2.3639  -2.3388  -2.3208  -2.3143  -2.2788  -2.2664  -2.2514
    -2.2454  -2.2338  -2.2155  -2.1742  -2.0673  -1.9460  -1.9117  -1.8766
    -1.8358  -1.7769  -1.7707  -1.7569  -1.7224  -1.7216  -1.7050  -1.6279
    -1.4644  -1.4024  -1.3397  -1.3179  -1.2448  -1.2320  -1.2158  -1.1729
    -1.1321  -1.0930  -1.0472  -1.0186  -0.9616  -0.9167  -0.7875  -0.7357
    -0.6503  -0.6451  -0.6226  -0.6076  -0.5535  -0.5290  -0.5042  -0.4592
    -0.4250  -0.3805  -0.3489  -0.3399  -0.3177  -0.2566  -0.1565  -0.1075
    -0.0454  -0.0391   0.0421   0.1729   0.3584   0.3887   0.4470   0.4978
     0.5865   0.6098   0.6586   0.6782   0.7357   0.7627   0.8043   0.8644
     0.9252   0.9535   1.5122   1.7320   1.7384   1.8016   1.8111   3.7468
     3.8347   3.9270   3.9409   3.9751   3.9874   3.9930   4.0225   4.0792
     4.1260

     the Fermi energy is     3.4529 ev

!    total energy              =   -2966.15810048 Ry
     estimated scf accuracy    <       0.00000007 Ry
     smearing contrib. (-TS)   =      -0.02139729 Ry
     internal energy E=F+TS    =   -2966.13670319 Ry

     The total energy is F=E-TS. E is the sum of the following terms:
     one-electron contribution =  -24758.83551446 Ry
     hartree contribution      =   12471.96603812 Ry
     xc contribution           =    -490.95212381 Ry
     ewald contribution        =    9811.68297489 Ry
     electric field correction =       0.00192207 Ry

     convergence has been achieved in  70 iterations

     Forces acting on atoms (cartesian axes, Ry/au):

     atom    1 type  1   force =     0.00075560   -0.00018301    0.09532346
     atom    2 type  1   force =     0.00024290   -0.00219340   -0.17570624
     atom    3 type  2   force =    -0.00066232   -0.00040821   -0.03008627
     atom    4 type  2   force =    -0.00084900    0.00063495    0.05234440
     atom    5 type  2   force =    -0.01387046   -0.00099735    0.00146388
     atom    6 type  2   force =     0.01581926    0.00241188    0.00318781
     atom    7 type  1   force =     0.00033869    0.00039176   -0.00026965
     atom    8 type  1   force =    -0.00035951    0.00140518    0.00067328
     atom    9 type  2   force =     0.00011118   -0.00002466    0.00023058
     atom   10 type  2   force =     0.00017230    0.00017185   -0.00059674
     atom   11 type  2   force =    -0.00021900    0.00024504    0.00017081
     atom   12 type  2   force =    -0.00039865    0.00008726    0.00006849
     atom   13 type  1   force =     0.00023719   -0.00018496   -0.00053749
     atom   14 type  1   force =    -0.00100888    0.00001032    0.00026008
     atom   15 type  2   force =     0.00003288   -0.00105576   -0.00029655
     atom   16 type  2   force =    -0.00000535   -0.00006537   -0.00013604
     atom   17 type  2   force =    -0.00059814   -0.00038496   -0.00018238
     atom   18 type  2   force =     0.00042279   -0.00030896    0.00010940
     atom   19 type  1   force =    -0.00027142    0.00032048   -0.00005822
     atom   20 type  1   force =     0.00030538    0.00085406   -0.00014715
     atom   21 type  2   force =     0.00014859    0.00019872    0.10301522
     atom   22 type  2   force =     0.00016899   -0.00112664    0.00045040
     atom   23 type  2   force =    -0.07129352    0.00094241   -0.02829037
     atom   24 type  2   force =     0.07134119    0.00133606   -0.02832583
     atom   25 type  1   force =     0.00021961    0.00038397    0.10640986
     atom   26 type  1   force =    -0.00000085    0.00252417   -0.17559176
     atom   27 type  2   force =    -0.00037798    0.00013237   -0.02786484
     atom   28 type  2   force =    -0.00096123    0.00076124    0.05165393
     atom   29 type  2   force =    -0.01302049   -0.00123203    0.00107090
     atom   30 type  2   force =     0.01546283    0.00037085    0.00295513
     atom   31 type  1   force =     0.00051640    0.00002871   -0.00000822
     atom   32 type  1   force =    -0.00041340   -0.00140847    0.00019850
     atom   33 type  2   force =    -0.00016670   -0.00031563    0.00018862
     atom   34 type  2   force =     0.00000528    0.00010624   -0.00018445
     atom   35 type  2   force =    -0.00060568   -0.00019032    0.00064579
     atom   36 type  2   force =     0.00001429   -0.00036980    0.00022785
     atom   37 type  1   force =     0.00060391    0.00027042    0.00060538
     atom   38 type  1   force =    -0.00092190    0.00014125    0.00045440
     atom   39 type  2   force =    -0.00008561    0.00067087   -0.00019845
     atom   40 type  2   force =    -0.00004215   -0.00050892   -0.00062909
     atom   41 type  2   force =     0.00090211    0.00004345   -0.00014613
     atom   42 type  2   force =    -0.00082586   -0.00016126    0.00018323
     atom   43 type  1   force =     0.00019166   -0.00100822   -0.00019457
     atom   44 type  1   force =    -0.00026498    0.00024465   -0.00063290
     atom   45 type  2   force =     0.00012329    0.00015532    0.10329294
     atom   46 type  2   force =    -0.07121751   -0.00125955   -0.02828453
     atom   47 type  2   force =     0.07128521   -0.00086355   -0.02832418
     atom   48 type  3   force =    -0.00151088   -0.00025807   -0.00233543
     atom   49 type  2   force =     0.00682802    0.00169798    0.01709342
     atom   50 type  4   force =    -0.00709779   -0.00207049   -0.01297557
     atom   51 type  4   force =     0.00043460   -0.00013076   -0.00015742
     atom   52 type  4   force =     0.00057572    0.00007308   -0.00059473
     atom   53 type  2   force =     0.00157562   -0.00040223    0.00092663
     atom   54 type  4   force =    -0.00029061    0.00038668    0.00002422
     atom   55 type  4   force =    -0.00149557    0.00011138   -0.00047344

     Total force =     0.368129     Total SCF correction =     0.000671
  @ DRIVER MODE: Message from server: STATUS
  @ DRIVER MODE: Message from server: GETFORCE
  @ DRIVER MODE: Returning v,forces,stress,ensemble

     Writing output data file ./calc.save/
  @ DRIVER MODE: Message from server: EXIT
  @ DRIVE MODE: Exiting

     General routines

     Parallel routines

   This run was terminated on:  19:23:59  15Sep2021

   JOB DONE.