     Program PWSCF v.6.7GPU starts on 10Sep2021 at  5:25:26

     R & G space division:  proc/nbgrp/npool/nimage =      10
     Reading input from /storage/home/hcoda1/3/ntian30/research/carbon/CxH_vib/CH3_calc/ads_slab/CH3N2OH_j/out_0026/pw.inp
Warning: card &CELL ignored
Warning: card   CELL_DYNAMICS='IPI', ignored
Warning: card / ignored

     Current dimensions of program PWSCF are:
     Max number of different atomic species (ntypx) = 10
     Max number of k-points (npk) =  40000
     Max angular momentum in pseudopotentials (lmaxx) =  3
     Presently no symmetry can be used with electric field

     Message from routine cell_base_init:
     DEPRECATED: use true lattice parameter, not A to a.u. conversion factor

     IMPORTANT: XC functional enforced from input :
     Exchange-correlation= BEEF-VDW
                           (   1   4  43  14   2   0   0)
     Any further DFT definition will be discarded
     Please, verify this is what you really want

  @ DRIVER MODE: Connecting to
 qe_1139763_2779713.sched-torque.pace.gatech.eduqrtjpnpn_scratch
  using UNIX socket
  @ DRIVER MODE: Message from server: STATUS
  @ DRIVER MODE: Message from server: INIT
  @ DRIVER MODE: Receiving replica           0          -1
  @ DRIVER MODE: Receiving encoded integer          25
  @ DRIVER MODE:  SCF:  T  FORCE:  T  STRESS:  F  VC:  F  ENSEMBLE:  F
  @ DRIVER MODE:  SCF:  T  FORCE:  T  STRESS:  F  VC:  F  ENSEMBLE:  F

     Using Slab Decomposition

     bravais-lattice index     =            0
     lattice parameter (alat)  =       1.8897  a.u.
     unit-cell volume          =    6658.9804 (a.u.)^3
     number of atoms/cell      =           55
     number of atomic types    =            5
     number of electrons       =       402.00
     number of Kohn-Sham states=          211
     kinetic-energy cutoff     =      29.3995  Ry
     charge density cutoff     =     293.9946  Ry
     scf convergence threshold =      7.3E-08
     mixing beta               =       0.0500
     number of iterations used =            8  plain     mixing
     Exchange-correlation= BEEF-VDW
                           (   1   4  43  14   2   0   0)

     celldm(1)=   1.889726  celldm(2)=   0.000000  celldm(3)=   0.000000
     celldm(4)=   0.000000  celldm(5)=   0.000000  celldm(6)=   0.000000

     crystal axes: (cart. coord. in units of alat)
               a(1) = (   6.579727   0.000000   0.000000 )
               a(2) = (  -0.000775   5.961596   0.000000 )
               a(3) = (   0.000000   0.000000  25.155947 )

     reciprocal axes: (cart. coord. in units 2 pi/alat)
               b(1) = (  0.151982  0.000020  0.000000 )
               b(2) = (  0.000000  0.167740  0.000000 )
               b(3) = (  0.000000  0.000000  0.039752 )

     PseudoPot. # 1 for Ti read from file:
     /storage/coda1/p-amedford6/0/shared/rich_project_chbe-medford/medford-share/data/pseudos_module/espresso/nninc/pbe/van/Ti.UPF
     MD5 check sum: 8e4df49b7f0d34bbd5052bf3f5ea0213
     Pseudo is Ultrasoft, Zval = 12.0
     Generated by new atomic code, or converted to UPF format
     Using radial grid of  851 points,  6 beta functions with:
                l(1) =   0
                l(2) =   0
                l(3) =   1
                l(4) =   1
                l(5) =   2
                l(6) =   2
     Q(r) pseudized with  8 coefficients,  rinner =    1.000   1.000   1.000
                                                       1.000   1.000

     PseudoPot. # 2 for O  read from file:
     /storage/coda1/p-amedford6/0/shared/rich_project_chbe-medford/medford-share/data/pseudos_module/espresso/nninc/pbe/van/O.UPF
     MD5 check sum: 78c19812648e8988a0fe644b0f25305e
     Pseudo is Ultrasoft, Zval =  6.0
     Generated by new atomic code, or converted to UPF format
     Using radial grid of  737 points,  4 beta functions with:
                l(1) =   0
                l(2) =   0
                l(3) =   1
                l(4) =   1
     Q(r) pseudized with  8 coefficients,  rinner =    0.800   0.800   0.800

     PseudoPot. # 3 for N  read from file:
     /storage/coda1/p-amedford6/0/shared/rich_project_chbe-medford/medford-share/data/pseudos_module/espresso/nninc/pbe/van/N.UPF
     MD5 check sum: 90d10febe142ad51ac9d5be1deb811c4
     Pseudo is Ultrasoft, Zval =  5.0
     Generated by new atomic code, or converted to UPF format
     Using radial grid of  729 points,  4 beta functions with:
                l(1) =   0
                l(2) =   0
                l(3) =   1
                l(4) =   1
     Q(r) pseudized with  8 coefficients,  rinner =    0.800   0.800   0.800

     PseudoPot. # 4 for C  read from file:
     /storage/coda1/p-amedford6/0/shared/rich_project_chbe-medford/medford-share/data/pseudos_module/espresso/nninc/pbe/van/C.UPF
     MD5 check sum: 1a69bf6b8db32088f5b2163dbdb77a27
     Pseudo is Ultrasoft, Zval =  4.0
     Generated by new atomic code, or converted to UPF format
     Using radial grid of  721 points,  4 beta functions with:
                l(1) =   0
                l(2) =   0
                l(3) =   1
                l(4) =   1
     Q(r) pseudized with  8 coefficients,  rinner =    0.800   0.800   0.800

     PseudoPot. # 5 for H  read from file:
     /storage/coda1/p-amedford6/0/shared/rich_project_chbe-medford/medford-share/data/pseudos_module/espresso/nninc/pbe/van/H.UPF
     MD5 check sum: b5ee9d7bfd3a09ee7748110bda690ff7
     Pseudo is Ultrasoft, Zval =  1.0
     Generated by new atomic code, or converted to UPF format
     Using radial grid of  615 points,  1 beta functions with:
                l(1) =   0
     Q(r) pseudized with  8 coefficients,  rinner =    0.800

     atomic species   valence    mass     pseudopotential
        Ti1           12.00    47.86700     Ti( 1.00)
        O1             6.00    15.99900     O ( 1.00)
        N1             5.00    14.00700     N ( 1.00)
        C1             4.00    12.01100     C ( 1.00)
        H1             1.00     1.00800     H ( 1.00)

     No symmetry found

   Cartesian axes

     site n.     atom                  positions (alat units)
         1           Ti1 tau(   1) = (   0.0004258   2.9801865   6.0000000  )
         2           Ti1 tau(   2) = (   3.2906075   1.4906267   6.0002472  )
         3           O1  tau(   3) = (   0.0006271   0.0005054   7.9858123  )
         4           O1  tau(   4) = (   3.2906025   0.0005020   7.3038282  )
         5           O1  tau(   5) = (   4.5942328   1.4918067   9.2879030  )
         6           O1  tau(   6) = (   1.9868534   1.4903216   9.2879459  )
         7           Ti1 tau(   7) = (   3.2907910   2.8959150   9.1758416  )
         8           Ti1 tau(   8) = (   0.0015273   1.4827037   9.2680791  )
         9           O1  tau(   9) = (   3.2817971   0.0424577  11.2706337  )
        10           O1  tau(  10) = (   0.0116148   5.9584955  10.6183126  )
        11           O1  tau(  11) = (   1.2813654   1.4951502  12.6332405  )
        12           O1  tau(  12) = (   5.2815101   1.4921423  12.6269808  )
        13           Ti1 tau(  13) = (   6.5662594   2.8603684  12.6843660  )
        14           Ti1 tau(  14) = (   3.2717346   1.4252475  12.4210995  )
        15           O1  tau(  15) = (   6.5710910   0.0045200  14.6317625  )
        16           O1  tau(  16) = (   3.2759495   0.0084639  13.8932321  )
        17           O1  tau(  17) = (   4.5517014   1.4983445  16.0008815  )
        18           O1  tau(  18) = (   2.0271237   1.5070609  16.0478782  )
        19           Ti1 tau(  19) = (   3.2345769   3.0092735  16.2435900  )
        20           Ti1 tau(  20) = (   6.4941389   1.4975806  15.8145731  )
        21           O1  tau(  21) = (   3.2904802   0.0005063   4.7018136  )
        22           O1  tau(  22) = (   6.5579512   0.0396517  17.1742205  )
        23           O1  tau(  23) = (   1.3043587   1.4918075   6.0039043  )
        24           O1  tau(  24) = (   5.2767064   1.4903225   6.0039473  )
        25           Ti1 tau(  25) = (   0.0000382   5.9609847   6.0000000  )
        26           Ti1 tau(  26) = (   3.2902200   4.4714249   6.0002472  )
        27           O1  tau(  27) = (   0.0002396   2.9813036   7.9858123  )
        28           O1  tau(  28) = (   3.2902150   2.9813002   7.3038282  )
        29           O1  tau(  29) = (   4.5938453   4.4726049   9.2879030  )
        30           O1  tau(  30) = (   1.9864658   4.4711199   9.2879459  )
        31           Ti1 tau(  31) = (   3.2891106   5.8743827   9.1763621  )
        32           Ti1 tau(  32) = (   0.0006254   4.4649316   9.2693709  )
        33           O1  tau(  33) = (   3.2800217   2.9666125  11.2981572  )
        34           O1  tau(  34) = (   0.0092240   2.9805883  10.6323155  )
        35           O1  tau(  35) = (   1.2755083   4.4823741  12.6262202  )
        36           O1  tau(  36) = (   5.2848398   4.4807727  12.6177486  )
        37           Ti1 tau(  37) = (   6.5672004   5.8338186  12.5551636  )
        38           Ti1 tau(  38) = (   3.2732152   4.2974050  12.6602233  )
        39           O1  tau(  39) = (   6.5693882   2.9786051  14.6782399  )
        40           O1  tau(  40) = (   3.2805734   3.0393479  13.9038923  )
        41           O1  tau(  41) = (   4.5335661   4.5240572  16.0872286  )
        42           O1  tau(  42) = (   2.0073973   4.5295938  16.0607137  )
        43           Ti1 tau(  43) = (   3.2598295   0.0330142  15.6732764  )
        44           Ti1 tau(  44) = (   6.5464637   4.6748829  16.0422594  )
        45           O1  tau(  45) = (   3.2900926   2.9813045   4.7018136  )
        46           O1  tau(  46) = (   1.3039711   4.4726057   6.0039043  )
        47           O1  tau(  47) = (   5.2763189   4.4711207   6.0039473  )
        48           N1  tau(  48) = (   0.1126456   2.6876119  18.6539570  )
        49           N1  tau(  49) = (   0.0165868   2.9082207  17.4746156  )
        50           C1  tau(  50) = (   0.2746321   3.7930379  19.6319179  )
        51           H1  tau(  51) = (   0.1055085   4.7742840  19.1878107  )
        52           H1  tau(  52) = (   6.1860284   3.5871646  20.4591619  )
        53           H1  tau(  53) = (   1.2982147   3.7051261  19.9977701  )
        54           O1  tau(  54) = (   3.2987527   2.9937385  18.0942264  )
        55           H1  tau(  55) = (   3.7476408   3.7324850  18.5320624  )

     number of k points=    10  Fermi-Dirac smearing, width (Ry)=  0.0073
                       cart. coord. in units 2pi/alat
        k(    1) = (   0.0000000   0.0000000   0.0000000), wk =   0.1250000
        k(    2) = (   0.0000000   0.0419351   0.0000000), wk =   0.2500000
        k(    3) = (   0.0000000  -0.0838702   0.0000000), wk =   0.1250000
        k(    4) = (   0.0379955   0.0000049   0.0000000), wk =   0.2500000
        k(    5) = (   0.0379955   0.0419400   0.0000000), wk =   0.2500000
        k(    6) = (   0.0379955  -0.0838652   0.0000000), wk =   0.2500000
        k(    7) = (   0.0379955  -0.0419301   0.0000000), wk =   0.2500000
        k(    8) = (  -0.0759910  -0.0000099   0.0000000), wk =   0.1250000
        k(    9) = (  -0.0759910   0.0419252   0.0000000), wk =   0.2500000
        k(   10) = (  -0.0759910  -0.0838800   0.0000000), wk =   0.1250000

     Initial potential from superposition of free atoms

     starting charge  385.99915, renormalised to  402.00000

     negative rho (up, down):  1.467E-02 0.000E+00

     %%%%%%%%%%%%%%%%%%%%%%%%%%%%%%%%%%%%%%%%%%%%%%%%%%%%%%%%%%%%%%%%%%%%%%%%
     %                                                                      %
     % You are using vdW-DF, which was implemented by the Thonhauser group. %
     % Please cite the following two papers that made this development      %
     % possible and the two reviews that describe the various versions:     %
     %                                                                      %
     %   T. Thonhauser et al., PRL 115, 136402 (2015).                      %
     %   T. Thonhauser et al., PRB 76, 125112 (2007).                       %
     %   K. Berland et al., Rep. Prog. Phys. 78, 066501 (2015).             %
     %   D.C. Langreth et al., J. Phys.: Condens. Matter 21, 084203 (2009). %
     %                                                                      %
     %                                                                      %
     % If you are calculating the stress with vdW-DF, please also cite:     %
     %                                                                      %
     %   R. Sabatini et al., J. Phys.: Condens. Matter 24, 424209 (2012).   %
     %                                                                      %
     %%%%%%%%%%%%%%%%%%%%%%%%%%%%%%%%%%%%%%%%%%%%%%%%%%%%%%%%%%%%%%%%%%%%%%%%

     Adding external electric field

     Computed dipole along edir(3) :
        Dipole              -11.9798 Ry au,        -30.4497 Debye
        Dipole field         -0.0226 Ry au,

        Potential amp.        2.0957 Ry
        Total length         46.3494 bohr

     Starting wfcs are  304 atomic wfcs
  @ DRIVER MODE: Message from server: STATUS
  @ DRIVER MODE: Message from server: POSDATA
  @ DRIVER MODE: Reading and sharing cell
  @ DRIVER MODE: Reading and sharing positions
  @ DRIVER MODE: Received positions

     Self-consistent Calculation

     iteration #  1     ecut=    29.40 Ry     beta= 0.05
     Davidson diagonalization with overlap
     c_bands:  4 eigenvalues not converged
     c_bands:  3 eigenvalues not converged
     c_bands:  5 eigenvalues not converged
     c_bands:  5 eigenvalues not converged
     c_bands:  3 eigenvalues not converged
     c_bands:  4 eigenvalues not converged
     c_bands:  2 eigenvalues not converged
     c_bands:  1 eigenvalues not converged
     ethr =  1.00E-05,  avg # of iterations = 25.4

[...]

     total energy              =   -2401.00695529 Ry
     estimated scf accuracy    <    6441.00118649 Ry

     iteration #  2     ecut=    29.40 Ry     beta= 0.05
     Davidson diagonalization with overlap
     ethr =  1.00E-02,  avg # of iterations = 22.3

[...]

     iteration # 56     ecut=    29.40 Ry     beta= 0.05
     Davidson diagonalization with overlap
     c_bands:  1 eigenvalues not converged
     ethr =  1.98E-07,  avg # of iterations =  9.9

[...]

     total energy              =   -2972.74455995 Ry
     estimated scf accuracy    <       0.00000008 Ry

     iteration # 87     ecut=    29.40 Ry     beta= 0.05
     Davidson diagonalization with overlap
     ethr =  1.96E-11,  avg # of iterations =  5.0

     negative rho (up, down):  1.549E-02 0.000E+00

     Adding external electric field

     Computed dipole along edir(3) :
        Dipole                0.6117 Ry au,          1.5549 Debye
        Dipole field          0.0012 Ry au,

        Potential amp.       -0.1070 Ry
        Total length         46.3494 bohr

     End of self-consistent calculation

          k = 0.0000 0.0000 0.0000 ( 18029 PWs)   bands (ev):

   -56.2379 -56.2041 -55.8229 -55.7893 -55.5905 -55.5309 -55.4798 -55.4045
   -55.3804 -55.3255 -55.2352 -55.1632 -55.0830 -55.0105 -54.9894 -54.9766
   -32.6883 -32.5304 -32.5035 -32.3964 -32.3124 -32.3038 -32.3021 -32.0705
   -32.0419 -32.0229 -31.9706 -31.9642 -31.9302 -31.8968 -31.8683 -31.8166
   -31.8072 -31.7917 -31.7538 -31.7342 -31.7269 -31.7062 -31.6933 -31.6917
   -31.6899 -31.6498 -31.6025 -31.5733 -31.5540 -31.5356 -31.5344 -31.4968
   -31.4871 -31.4269 -31.4173 -31.4073 -31.3674 -31.3436 -31.3387 -31.3200
   -31.3144 -31.2910 -31.2384 -31.2261 -31.2259 -31.2113 -31.1413 -31.0295
   -18.8583 -16.5320 -16.3519 -16.1969 -15.9858 -15.8177 -15.7257 -15.7176
   -15.6696 -15.5486 -15.5212 -15.4266 -15.3353 -15.2617 -15.2613 -15.2365
   -15.1400 -15.0837 -15.0575 -15.0172 -14.9972 -14.9903 -14.9772 -14.8788
   -14.8621 -14.8570 -14.7144 -14.6927 -14.6071 -14.3588 -14.2622 -13.5083
   -13.3961 -11.5352  -6.9443  -4.4166  -4.1631  -4.0414  -4.0295  -3.8304
    -3.7476  -3.5301  -3.4310  -3.3545  -3.2320  -3.1465  -2.9566  -2.9453
    -2.8915  -2.8219  -2.7472  -2.6881  -2.6361  -2.6257  -2.5522  -2.5135
    -2.4729  -2.4654  -2.4031  -2.3871  -2.3020  -2.2886  -2.2162  -2.1814
    -2.1506  -2.1213  -2.1013  -2.0407  -2.0331  -2.0019  -1.9712  -1.9189
    -1.8588  -1.8104  -1.7244  -1.6755  -1.6561  -1.5632  -1.5433  -1.5324
    -1.5159  -1.3206  -1.2469  -1.2258  -1.2141  -1.0664  -1.0237  -0.9989
    -0.9189  -0.8953  -0.8480  -0.8080  -0.7601  -0.7034  -0.6723  -0.6664
    -0.6417  -0.5901  -0.4027  -0.3699  -0.3213  -0.2913  -0.2537  -0.1973
    -0.1669  -0.1358  -0.0533  -0.0480  -0.0389  -0.0015   0.0484   0.1294
     0.1891   0.2094   0.3022   0.3084   0.3503   0.3848   0.4412   0.4686
     0.5524   0.5962   0.6117   0.6664   0.6864   0.8750   0.9120   0.9486
     0.9860   1.0138   1.0595   1.1742   1.2428   1.5443   1.5619   1.6014
     2.7536   2.9886   3.1174   3.2733   3.4208   3.5154   3.8257   3.8544
     3.8900   3.9478   4.0191

[...]

          k = 0.0380-0.0419 0.0000 ( 17876 PWs)   bands (ev):

[...]

          k =-0.0760-0.0000 0.0000 ( 17886 PWs)   bands (ev):

[...]

          k =-0.0760-0.0839 0.0000 ( 17948 PWs)   bands (ev):

   -56.2214 -56.2205 -55.8073 -55.8048 -55.5852 -55.5362 -55.4769 -55.4072
   -55.3744 -55.3313 -55.2334 -55.1616 -55.0847 -54.9938 -54.9931 -54.9909
   -32.5165 -32.5153 -32.5046 -32.5039 -32.3489 -32.3478 -32.1268 -32.1229
   -32.0016 -31.9995 -31.9961 -31.9944 -31.8907 -31.8521 -31.8155 -31.8086
   -31.8034 -31.7638 -31.7521 -31.7467 -31.7204 -31.7056 -31.6982 -31.6668
   -31.6610 -31.6252 -31.6203 -31.6013 -31.5939 -31.5640 -31.5577 -31.5441
   -31.4876 -31.4332 -31.4309 -31.4209 -31.3651 -31.3434 -31.3331 -31.3326
   -31.2955 -31.2950 -31.2449 -31.2279 -31.2225 -31.2215 -31.1841 -31.1834
   -18.8545 -16.3392 -15.9419 -15.9295 -15.8062 -15.7996 -15.6274 -15.6109
   -15.5899 -15.5329 -15.5116 -15.4640 -15.3239 -15.3144 -15.2544 -15.2216
   -15.1966 -15.1801 -15.1511 -15.1507 -15.1315 -15.0578 -15.0304 -15.0032
   -14.9541 -14.9501 -14.7845 -14.7186 -14.7046 -14.4908 -14.4589 -13.4991
   -13.4991 -11.5332  -6.9581  -4.3641  -4.0313  -4.0132  -3.9348  -3.1103
    -3.0556  -2.9453  -2.9186  -2.8446  -2.8222  -2.7146  -2.6909  -2.6499
    -2.6364  -2.6327  -2.5775  -2.5554  -2.5329  -2.4887  -2.4769  -2.4639
    -2.4392  -2.3912  -2.3804  -2.3625  -2.3468  -2.3305  -2.2367  -2.2311
    -2.2135  -2.1689  -2.1654  -2.1528  -2.0754  -2.0064  -1.9624  -1.9563
    -1.9242  -1.8676  -1.7926  -1.6824  -1.6606  -1.6057  -1.5785  -1.5028
    -1.4727  -1.4273  -1.3327  -1.3253  -1.2981  -1.2806  -1.2198  -1.2053
    -1.0626  -1.0295  -1.0239  -1.0171  -1.0144  -0.9170  -0.8563  -0.7961
    -0.7454  -0.6615  -0.6478  -0.6268  -0.6082  -0.5986  -0.5794  -0.5553
    -0.4938  -0.4523  -0.4019  -0.3849  -0.2808  -0.2016  -0.1672  -0.1009
    -0.0233   0.0656   0.1441   0.1576   0.1953   0.2497   0.3384   0.3800
     0.4225   0.4911   0.5332   0.6063   0.6679   0.7529   0.7768   0.8654
     0.9769   0.9935   1.0438   1.1313   1.4043   1.4110   1.4176   1.4184
     2.7593   3.5363   3.5401   3.5700   3.5782   3.7780   3.7900   3.9157
     3.9700   3.9951   4.0317

     the Fermi energy is     2.9253 ev

!    total energy              =   -2972.74456739 Ry
     estimated scf accuracy    <       0.00000003 Ry
     smearing contrib. (-TS)   =      -0.01283898 Ry
     internal energy E=F+TS    =   -2972.73172840 Ry

     The total energy is F=E-TS. E is the sum of the following terms:
     one-electron contribution =  -23700.74130042 Ry
     hartree contribution      =   11943.67322884 Ry
     xc contribution           =    -493.12895959 Ry
     ewald contribution        =    9277.46459659 Ry
     electric field correction =       0.00070618 Ry

     convergence has been achieved in  87 iterations

     Forces acting on atoms (cartesian axes, Ry/au):

     atom    1 type  1   force =     0.00009121   -0.00038130    0.10701661
     atom    2 type  1   force =    -0.00004282   -0.00170037   -0.16537089
     atom    3 type  2   force =     0.00003491   -0.00025874   -0.03868814
     atom    4 type  2   force =     0.00004593    0.00076084    0.03118124
     atom    5 type  2   force =    -0.00355927    0.00294628   -0.00840415
     atom    6 type  2   force =     0.00469515    0.00361417   -0.01017423
     atom    7 type  1   force =    -0.00073227    0.00047993    0.02122451
     atom    8 type  1   force =     0.00100630    0.01539527    0.06094462
     atom    9 type  2   force =     0.00011344   -0.00014257    0.00009370
     atom   10 type  2   force =    -0.00289319    0.00226570   -0.04713371
     atom   11 type  2   force =    -0.00004044   -0.00020605   -0.00002877
     atom   12 type  2   force =     0.00000331   -0.00002972    0.00019346
     atom   13 type  1   force =     0.00028430   -0.00013363    0.00010183
     atom   14 type  1   force =     0.00040397   -0.00014631    0.00024652
     atom   15 type  2   force =     0.00015998    0.00013440   -0.00030067
     atom   16 type  2   force =     0.00014462   -0.00015381    0.00002510
     atom   17 type  2   force =     0.00016634    0.00016182    0.00026290
     atom   18 type  2   force =     0.00013761    0.00026612    0.00008384
     atom   19 type  1   force =     0.00003962   -0.00014914   -0.00011832
     atom   20 type  1   force =    -0.00033100    0.00020118    0.00005090
     atom   21 type  2   force =     0.00010291    0.00000100    0.10028825
     atom   22 type  2   force =     0.00003450    0.00003320   -0.00017014
     atom   23 type  2   force =    -0.07669545   -0.00004944   -0.03005811
     atom   24 type  2   force =     0.07668133    0.00038308   -0.03008159
     atom   25 type  1   force =     0.00006388   -0.00043507    0.10696727
     atom   26 type  1   force =    -0.00011331    0.00063241   -0.16567493
     atom   27 type  2   force =     0.00012145   -0.00027232   -0.03749921
     atom   28 type  2   force =     0.00004354   -0.00043616    0.03536146
     atom   29 type  2   force =    -0.00569661   -0.00043494   -0.00598947
     atom   30 type  2   force =     0.00686097    0.00006276   -0.00767749
     atom   31 type  1   force =    -0.00056636   -0.00239562    0.03460606
     atom   32 type  1   force =     0.00111200   -0.01877613    0.06146488
     atom   33 type  2   force =     0.00022423   -0.00012505    0.00004967
     atom   34 type  2   force =    -0.00253724    0.00012858   -0.05384262
     atom   35 type  2   force =     0.00022120   -0.00024901   -0.00012141
     atom   36 type  2   force =     0.00017749   -0.00002363    0.00027381
     atom   37 type  1   force =     0.00035145   -0.00019933   -0.00013720
     atom   38 type  1   force =     0.00047131   -0.00022939    0.00028355
     atom   39 type  2   force =     0.00016104   -0.00044221    0.00024724
     atom   40 type  2   force =    -0.00019201   -0.00006788   -0.00010304
     atom   41 type  2   force =     0.00010684   -0.00038898    0.00011644
     atom   42 type  2   force =     0.00022188   -0.00041891    0.00012979
     atom   43 type  1   force =    -0.00024913    0.00005524   -0.00025742
     atom   44 type  1   force =    -0.00005775   -0.00029275    0.00025247
     atom   45 type  2   force =     0.00009684    0.00011012    0.10048925
     atom   46 type  2   force =    -0.07667586   -0.00005734   -0.03007235
     atom   47 type  2   force =     0.07666601    0.00036490   -0.03009950
     atom   48 type  3   force =     0.00008464   -0.00025207    0.00073902
     atom   49 type  3   force =     0.00018081    0.00012547   -0.00100213
     atom   50 type  4   force =     0.00477344    0.00260450   -0.00519114
     atom   51 type  5   force =     0.00015086   -0.00100738    0.00095265
     atom   52 type  5   force =    -0.00576501   -0.00128024    0.00462160
     atom   53 type  5   force =     0.00029871    0.00010932   -0.00025018
     atom   54 type  2   force =     0.00044888    0.00122687    0.00066248
     atom   55 type  5   force =    -0.00083518   -0.00092768   -0.00048430

     Total force =     0.381474     Total SCF correction =     0.000639
  @ DRIVER MODE: Message from server: STATUS
  @ DRIVER MODE: Message from server: GETFORCE
  @ DRIVER MODE: Returning v,forces,stress,ensemble

     Writing output data file ./calc.save/
  @ DRIVER MODE: Message from server: EXIT
  @ DRIVE MODE: Exiting

     General routines

     Parallel routines

   This run was terminated on:   5:47:55  10Sep2021

   JOB DONE.