     Program PWSCF v.6.8 starts on 15Oct2021 at 16:12:48

     R & G space division:  proc/nbgrp/npool/nimage =       4

     Reading input from /storage/home/hcoda1/3/ntian30/research/carbon/Thiel_calc/ads_slab/NH2NH3H_perslab/Thiel_calc.log/pw.inp
Warning: card &CELL ignored
Warning: card   CELL_DYNAMICS='IPI', ignored
Warning: card / ignored

     Current dimensions of program PWSCF are:
     Max number of different atomic species (ntypx) = 10
     Max number of k-points (npk) =  40000
     Max angular momentum in pseudopotentials (lmaxx) =  4
     Presently no symmetry can be used with electric field

     Message from routine cell_base_init:
     DEPRECATED: use true lattice parameter, not A to a.u. conversion factor

     IMPORTANT: XC functional enforced from input :
     Exchange-correlation= BEEF-VDW
                           (   1   4  43  14   2   0   0)
     Any further DFT definition will be discarded
     Please, verify this is what you really want

  @ DRIVER MODE: Connecting to
 qe_1139763_3223924.sched-torque.pace.gatech.edujt68kpsk_scratch
  using UNIX socket
  @ DRIVER MODE: Message from server: STATUS
  @ DRIVER MODE: Message from server: INIT
  @ DRIVER MODE: Receiving replica           0          -1
  @ DRIVER MODE: Receiving encoded integer          25
  @ DRIVER MODE:  SCF:  T  FORCE:  T  STRESS:  F  VC:  F  ENSEMBLE:  F
  @ DRIVER MODE:  SCF:  T  FORCE:  T  STRESS:  F  VC:  F  ENSEMBLE:  F

     Using Slab Decomposition

     bravais-lattice index     =            0
     lattice parameter (alat)  =       1.8897  a.u.
     unit-cell volume          =    9988.4706 (a.u.)^3
     number of atoms/cell      =           61
     number of atomic types    =            4
     number of electrons       =       442.00
     number of Kohn-Sham states=          231
     kinetic-energy cutoff     =      29.3995  Ry
     charge density cutoff     =     293.9946  Ry
     scf convergence threshold =      7.3E-08
     mixing beta               =       0.0500
     number of iterations used =            8  plain     mixing
     Exchange-correlation= BEEF-VDW
                           (   1   4  43  14   2   0   0)

     celldm(1)=   1.889726  celldm(2)=   0.000000  celldm(3)=   0.000000
     celldm(4)=   0.000000  celldm(5)=   0.000000  celldm(6)=   0.000000

     crystal axes: (cart. coord. in units of alat)
               a(1) = (   6.579727   0.000000   0.000000 )
               a(2) = (  -0.001163   8.942395   0.000000 )
               a(3) = (   0.000000   0.000000  25.155947 )

     reciprocal axes: (cart. coord. in units 2 pi/alat)
               b(1) = (  0.151982  0.000020  0.000000 )
               b(2) = (  0.000000  0.111827  0.000000 )
               b(3) = (  0.000000  0.000000  0.039752 )

     PseudoPot. # 1 for O  read from file:
     /storage/coda1/p-amedford6/0/shared/rich_project_chbe-medford/medford-share/data/pseudos_module/espresso/nninc/pbe/van/O.UPF
     MD5 check sum: 78c19812648e8988a0fe644b0f25305e
     Pseudo is Ultrasoft, Zval =  6.0
     Generated by new atomic code, or converted to UPF format
     Using radial grid of  737 points,  4 beta functions with:
                l(1) =   0
                l(2) =   0
                l(3) =   1
                l(4) =   1
     Q(r) pseudized with  8 coefficients,  rinner =    0.800   0.800   0.800

     PseudoPot. # 2 for Ti read from file:
     /storage/coda1/p-amedford6/0/shared/rich_project_chbe-medford/medford-share/data/pseudos_module/espresso/nninc/pbe/van/Ti.UPF
     MD5 check sum: 8e4df49b7f0d34bbd5052bf3f5ea0213
     Pseudo is Ultrasoft, Zval = 12.0
     Generated by new atomic code, or converted to UPF format
     Using radial grid of  851 points,  6 beta functions with:
                l(1) =   0
                l(2) =   0
                l(3) =   1
                l(4) =   1
                l(5) =   2
                l(6) =   2
     Q(r) pseudized with  8 coefficients,  rinner =    1.000   1.000   1.000
                                                       1.000   1.000

     PseudoPot. # 3 for N  read from file:
     /storage/coda1/p-amedford6/0/shared/rich_project_chbe-medford/medford-share/data/pseudos_module/espresso/nninc/pbe/van/N.UPF
     MD5 check sum: 90d10febe142ad51ac9d5be1deb811c4
     Pseudo is Ultrasoft, Zval =  5.0
     Generated by new atomic code, or converted to UPF format
     Using radial grid of  729 points,  4 beta functions with:
                l(1) =   0
                l(2) =   0
                l(3) =   1
                l(4) =   1
     Q(r) pseudized with  8 coefficients,  rinner =    0.800   0.800   0.800

     PseudoPot. # 4 for H  read from file:
     /storage/coda1/p-amedford6/0/shared/rich_project_chbe-medford/medford-share/data/pseudos_module/espresso/nninc/pbe/van/H.UPF
     MD5 check sum: b5ee9d7bfd3a09ee7748110bda690ff7
     Pseudo is Ultrasoft, Zval =  1.0
     Generated by new atomic code, or converted to UPF format
     Using radial grid of  615 points,  1 beta functions with:
                l(1) =   0
     Q(r) pseudized with  8 coefficients,  rinner =    0.800

     atomic species   valence    mass     pseudopotential
        O1             6.00    15.99900     O ( 1.00)
        Ti1           12.00    47.86700     Ti( 1.00)
        N1             5.00    14.00700     N ( 1.00)
        H1             1.00     1.00800     H ( 1.00)

     No symmetry found

   Cartesian axes

     site n.     atom                  positions (alat units)
         1           O1  tau(   1) = (   0.0007354   0.0005023  10.5931620  )
         2           O1  tau(   2) = (   3.2905955   0.0005026  13.8824958  )
         3           O1  tau(   3) = (   0.0007284   0.0005029  17.1718295  )
         4           O1  tau(   4) = (   0.0006271   0.0005054   7.9858123  )
         5           O1  tau(   5) = (   3.2904872   0.0005057  11.2751460  )
         6           O1  tau(   6) = (   0.0006201   0.0005060  14.5644798  )
         7           O1  tau(   7) = (   1.9868534   1.4903216   9.2879459  )
         8           O1  tau(   8) = (   5.2767135   1.4903219  12.5772797  )
         9           O1  tau(   9) = (   1.9868463   1.4903222  15.8666135  )
        10           Ti1 tau(  10) = (   0.0007404   1.4906270   9.2895810  )
        11           Ti1 tau(  11) = (   3.2906005   1.4906273  12.5789147  )
        12           Ti1 tau(  12) = (   0.0007334   1.4906276  15.8682485  )
        13           O1  tau(  13) = (   4.5942328   1.4918067   9.2879030  )
        14           O1  tau(  14) = (   1.3043657   1.4918069  12.5772368  )
        15           O1  tau(  15) = (   4.5942258   1.4918072  15.8665706  )
        16           Ti1 tau(  16) = (   3.2902859   2.9801868   9.2893338  )
        17           Ti1 tau(  17) = (   0.0004188   2.9801870  12.5786675  )
        18           Ti1 tau(  18) = (   3.2902789   2.9801873  15.8680013  )
        19           O1  tau(  19) = (   0.0003479   2.9813005  10.5931620  )
        20           O1  tau(  20) = (   3.2902079   2.9813008  13.8824958  )
        21           O1  tau(  21) = (   0.0002396   2.9813036   7.9858123  )
        22           O1  tau(  22) = (   3.2900997   2.9813039  11.2751460  )
        23           O1  tau(  23) = (   0.0002325   2.9813042  14.5644798  )
        24           O1  tau(  24) = (   1.9864658   4.4711199   9.2879459  )
        25           O1  tau(  25) = (   5.2763259   4.4711201  12.5772797  )
        26           O1  tau(  26) = (   1.9864588   4.4711204  15.8666135  )
        27           Ti1 tau(  27) = (   0.0003529   4.4714252   9.2895810  )
        28           Ti1 tau(  28) = (   3.2902129   4.4714255  12.5789147  )
        29           Ti1 tau(  29) = (   0.0003458   4.4714258  15.8682485  )
        30           O1  tau(  30) = (   4.5938453   4.4726049   9.2879030  )
        31           O1  tau(  31) = (   1.3039782   4.4726052  12.5772368  )
        32           O1  tau(  32) = (   4.5938383   4.4726054  15.8665706  )
        33           Ti1 tau(  33) = (   3.2898983   5.9609850   9.2893338  )
        34           Ti1 tau(  34) = (   0.0000312   5.9609853  12.5786675  )
        35           Ti1 tau(  35) = (   3.2898913   5.9609855  15.8680013  )
        36           O1  tau(  36) = (  -0.0000397   5.9620987  10.5931620  )
        37           O1  tau(  37) = (   3.2898204   5.9620990  13.8824958  )
        38           O1  tau(  38) = (  -0.0000467   5.9620993  17.1718295  )
        39           O1  tau(  39) = (  -0.0001480   5.9621018   7.9858123  )
        40           O1  tau(  40) = (   3.2897121   5.9621021  11.2751460  )
        41           O1  tau(  41) = (  -0.0001550   5.9621024  14.5644798  )
        42           O1  tau(  42) = (   1.9860782   7.4519181   9.2879459  )
        43           O1  tau(  43) = (   5.2759383   7.4519184  12.5772797  )
        44           O1  tau(  44) = (   1.9860712   7.4519187  15.8666135  )
        45           Ti1 tau(  45) = (  -0.0000347   7.4522234   9.2895810  )
        46           Ti1 tau(  46) = (   3.2898254   7.4522237  12.5789147  )
        47           Ti1 tau(  47) = (  -0.0000417   7.4522240  15.8682485  )
        48           O1  tau(  48) = (   4.5934577   7.4534031   9.2879030  )
        49           O1  tau(  49) = (   1.3035906   7.4534034  12.5772368  )
        50           O1  tau(  50) = (   4.5934507   7.4534037  15.8665706  )
        51           Ti1 tau(  51) = (   3.2895107   8.9417832   9.2893338  )
        52           Ti1 tau(  52) = (  -0.0003564   8.9417835  12.5786675  )
        53           Ti1 tau(  53) = (   3.2895037   8.9417838  15.8680013  )
        54           N1  tau(  54) = (   3.2898913   5.9609855  18.1718295  )
        55           H1  tau(  55) = (   3.2898913   5.1545435  18.8094325  )
        56           H1  tau(  56) = (   3.2898913   6.7674275  18.8094325  )
        57           H1  tau(  57) = (   0.0007284   0.0005029  18.1718295  )
        58           N1  tau(  58) = (   0.0003408   2.9813011  17.9718295  )
        59           H1  tau(  59) = (   0.0003408   2.0415701  18.3601265  )
        60           H1  tau(  60) = (   5.7662370   3.4511661  18.3601265  )
        61           H1  tau(  61) = (   0.8141718   3.4511661  18.3601265  )

     number of k points=     1  Fermi-Dirac smearing, width (Ry)=  0.0073
                       cart. coord. in units 2pi/alat
        k(    1) = (   0.0000000   0.0000000   0.0000000), wk =   2.0000000

     Initial potential from superposition of free atoms

     starting charge  423.99908, renormalised to  442.00000

     negative rho (up, down):  3.287E-02 0.000E+00

     %%%%%%%%%%%%%%%%%%%%%%%%%%%%%%%%%%%%%%%%%%%%%%%%%%%%%%%%%%%%%%%%%%%%%%%%
     %                                                                      %
     % You are using vdW-DF, which was implemented by the Thonhauser group. %
     % Please cite the following two papers that made this development      %
     % possible and the two reviews that describe the various versions:     %
     %                                                                      %
     %   T. Thonhauser et al., PRL 115, 136402 (2015).                      %
[...]
     atom   36 type  1   force =     0.00000517    0.00006943    0.06503038
     atom   37 type  1   force =     0.00001561   -0.00136255    0.00033700
     atom   38 type  1   force =     0.00003954   -0.01642055   -0.07153868
     atom   39 type  1   force =     0.00004920    0.00016994    0.10023223
     atom   40 type  1   force =     0.00005305    0.00038977   -0.03193893
     atom   41 type  1   force =     0.00005737   -0.01811613    0.03917060
     atom   42 type  1   force =     0.08174416    0.00027230   -0.03220605
     atom   43 type  1   force =    -0.00489720    0.00217520    0.00968558
     atom   44 type  1   force =     0.02208521    0.03320437    0.02524701
     atom   45 type  2   force =    -0.00003551   -0.00098102   -0.15026759
     atom   46 type  2   force =    -0.00003338   -0.01142610   -0.00167771
     atom   47 type  2   force =    -0.00002391   -0.13776794    0.01434301
     atom   48 type  1   force =    -0.08183782   -0.00003997   -0.03216568
     atom   49 type  1   force =     0.00479241    0.00175521    0.00971218
     atom   50 type  1   force =    -0.02221817    0.03281881    0.02528211
     atom   51 type  2   force =     0.00008558   -0.00013684    0.10990732
     atom   52 type  2   force =     0.00007829    0.00071600   -0.07035694
     atom   53 type  2   force =     0.00015914   -0.05284576   -0.13341826
     atom   54 type  3   force =    -0.00001748   -0.00312178   -0.03423183
     atom   55 type  4   force =     0.00000907    0.00442697   -0.01554792
     atom   56 type  4   force =    -0.00003061   -0.00576607   -0.01811223
     atom   57 type  4   force =    -0.00000704   -0.02035964   -0.06210798
     atom   58 type  3   force =     0.00000182   -0.00543709   -0.00489248
     atom   59 type  4   force =    -0.00001563    0.00197925    0.00389784
     atom   60 type  4   force =    -0.00375922    0.00767430   -0.00132202
     atom   61 type  4   force =     0.00373048    0.00767996   -0.00131469

     Total force =     0.616839     Total SCF correction =     0.000638
  @ DRIVER MODE: Message from server: STATUS
  @ DRIVER MODE: Message from server: GETFORCE
  @ DRIVER MODE: Returning v,forces,stress,ensemble

     Writing config to output data dir ./calc.save/
     Message from routine punch:
     wavefunctions written to file
  @ DRIVER MODE: Message from server: STATUS
  @ DRIVER MODE: Message from server: INIT
  @ DRIVER MODE: Receiving replica           0           0
  @ DRIVER MODE: Receiving encoded integer          25
  @ DRIVER MODE:  SCF:  T  FORCE:  T  STRESS:  F  VC:  F  ENSEMBLE:  F
  @ DRIVER MODE:  SCF:  T  FORCE:  T  STRESS:  F  VC:  F  ENSEMBLE:  F
  @ DRIVER MODE: Message from server: STATUS
  @ DRIVER MODE: Message from server: POSDATA
  @ DRIVER MODE: Reading and sharing positions
  @ DRIVER MODE: Received positions
     NEW-OLD atomic charge density approx. for the potential

[...]

     Self-consistent Calculation

[...]

     iteration #  4     ecut=    29.40 Ry     beta= 0.05
     Davidson diagonalization with overlap
     c_bands:  1 eigenvalues not converged
     ethr =  5.59E-09,  avg # of iterations = 20.0

[...]

     total energy              =   -3295.72033544 Ry
     estimated scf accuracy    <       0.00000016 Ry

     iteration # 14     ecut=    29.40 Ry     beta= 0.05
     Davidson diagonalization with overlap
     ethr =  3.56E-11,  avg # of iterations = 13.0

[...]

     End of self-consistent calculation

          k = 0.0000 0.0000 0.0000 ( 26871 PWs)   bands (ev):

   -57.4936 -57.4273 -57.3579 -57.3531 -57.3452 -57.3212 -57.3179 -57.3046
   -57.3017 -57.2955 -57.2850 -57.2687 -57.2657 -57.2498 -57.1234 -56.5575
   -56.5334 -56.5279 -34.0276 -33.9104 -33.7964 -33.7885 -33.7782 -33.7714
   -33.7557 -33.7408 -33.7273 -33.7201 -33.7168 -33.7096 -33.6979 -33.6963
   -33.6850 -33.6755 -33.6748 -33.6381 -33.6178 -33.6126 -33.6110 -33.6044
   -33.5817 -33.5786 -33.5670 -33.5635 -33.5619 -33.5288 -33.5260 -33.5174
   -33.5130 -33.5076 -33.4948 -33.4860 -33.4835 -33.4697 -33.4587 -33.4206
   -33.4170 -33.4105 -33.4009 -33.3993 -33.3948 -33.3532 -33.3178 -32.8744
   -32.8669 -32.8569 -32.8415 -32.8366 -32.7829 -32.7215 -32.7147 -32.5845
   -19.3528 -18.2885 -17.9635 -17.7564 -17.6867 -17.6660 -17.6092 -17.5736
   -17.4839 -17.4687 -17.3892 -17.3739 -17.2759 -17.2443 -17.2330 -17.2156
   -17.2105 -17.2097 -17.1760 -17.1478 -17.1122 -17.0821 -17.0573 -17.0260
   -17.0017 -16.8879 -16.8592 -16.8496 -16.8343 -16.7494 -16.7421 -16.7326
   -16.4310 -15.0673 -14.9685 -14.9084 -14.9056  -7.8998  -7.6634  -7.4049
    -6.5041  -5.6261  -5.4260  -5.2558  -5.2241  -5.0119  -4.9250  -4.8604
    -4.8331  -4.8193  -4.7811  -4.7284  -4.6994  -4.6824  -4.6218  -4.5703
    -4.5579  -4.5268  -4.5069  -4.4651  -4.4409  -4.4301  -4.3937  -4.3141
    -4.2962  -4.2680  -4.2358  -4.2292  -4.1668  -4.1622  -4.1436  -4.1139
    -4.0751  -3.9624  -3.9042  -3.8342  -3.8302  -3.7790  -3.7569  -3.6786
    -3.6205  -3.6185  -3.5994  -3.4985  -3.4875  -3.4817  -3.3766  -3.3417
    -3.2908  -3.2684  -3.2589  -3.2422  -3.2163  -3.1612  -3.0986  -3.0937
    -2.9905  -2.9344  -2.8896  -2.8206  -2.7361  -2.7358  -2.6708  -2.6224
    -2.5706  -2.5701  -2.5449  -2.4441  -2.4392  -2.2947  -2.1984  -2.1945
    -2.1721  -2.1297  -2.1230  -2.1110  -2.0809  -2.0654  -2.0403  -1.9960
    -1.9665  -1.8871  -1.8711  -1.8373  -1.8229  -1.7919  -1.7694  -1.7054
    -1.6535  -1.6512  -1.5652  -1.4836  -1.3291  -1.3126  -1.3038  -1.2877
    -1.2550  -1.1662  -1.1339  -0.7627  -0.5882  -0.4655  -0.2754  -0.2216
    -0.2198   0.0977   0.1024   0.2446   1.6788   1.8339   1.8836   1.9863
     2.0270   2.0563   2.0867   2.1561   2.1922   2.2182   2.2476

     the Fermi energy is     1.6905 ev

!    total energy              =   -3295.72033615 Ry
     estimated scf accuracy    <       0.00000004 Ry
     smearing contrib. (-TS)   =      -0.03328523 Ry
     internal energy E=F+TS    =   -3295.68705092 Ry

     The total energy is F=E-TS. E is the sum of the following terms:
     one-electron contribution =  -34289.95343592 Ry
     hartree contribution      =   17214.19263945 Ry
     xc contribution           =    -543.87443095 Ry
     ewald contribution        =   14323.94318416 Ry
     electric field correction =       0.00499235 Ry

     convergence has been achieved in  14 iterations

     Forces acting on atoms (cartesian axes, Ry/au):

     atom    1 type  1   force =     0.00001326    0.00037941    0.06529875
     atom    2 type  1   force =    -0.00004529    0.00082618   -0.00130183
     atom    3 type  1   force =     0.00002224    0.00044208   -0.00008241
     atom    4 type  1   force =     0.00005434   -0.00050476    0.10939031
     atom    5 type  1   force =    -0.00002584    0.00059579    0.00066952
     atom    6 type  1   force =     0.00001020    0.00071921    0.00033820
     atom    7 type  1   force =     0.05237693    0.00088861   -0.03072972
     atom    8 type  1   force =     0.00013556    0.00072115   -0.00004985
     atom    9 type  1   force =    -0.00055791    0.00064244   -0.00009957
     atom   10 type  2   force =    -0.00005473   -0.00542251   -0.19566096
     atom   11 type  2   force =     0.00013295   -0.00076871    0.00060193
     atom   12 type  2   force =    -0.00004731    0.00025259   -0.00087295
     atom   13 type  1   force =    -0.05248514    0.00050602   -0.03068957
     atom   14 type  1   force =     0.00003902    0.00053092   -0.00002329
     atom   15 type  1   force =     0.00052419    0.00066584   -0.00009676
     atom   16 type  2   force =     0.00010337   -0.00149245    0.07725667
     atom   17 type  2   force =    -0.00026757   -0.00027839    0.00024671
     atom   18 type  2   force =     0.00003590   -0.00039220    0.00136741
     atom   19 type  1   force =     0.00001486    0.00219721    0.06701451
     atom   20 type  1   force =    -0.00003939   -0.00009093    0.00012661
     atom   21 type  1   force =     0.00005298    0.00112915    0.11044407
     atom   22 type  1   force =    -0.00003058   -0.00000657   -0.00027826
     atom   23 type  1   force =     0.00001014   -0.00057329    0.00078678
     atom   24 type  1   force =     0.05382526    0.00167630   -0.02940051
     atom   25 type  1   force =     0.00041383    0.00077378   -0.00019687
     atom   26 type  1   force =     0.00016428   -0.00022689    0.00007543
     atom   27 type  2   force =    -0.00007065   -0.00043282   -0.20003233
     atom   28 type  2   force =     0.00014270    0.00104359   -0.00004590
     atom   29 type  2   force =     0.00000317    0.00034045    0.00042854
     atom   30 type  1   force =    -0.05393289    0.00132793   -0.02937886
     atom   31 type  1   force =    -0.00027294    0.00061521   -0.00016430
     atom   32 type  1   force =    -0.00018382   -0.00023074    0.00008905
     atom   33 type  2   force =     0.00012703    0.00067171    0.08583523
     atom   34 type  2   force =    -0.00026294   -0.00023559   -0.00019444
     atom   35 type  2   force =     0.00006149    0.00037242    0.00049227
     atom   36 type  1   force =     0.00007522   -0.00157580    0.06671314
     atom   37 type  1   force =    -0.00003345   -0.00032317   -0.00011365
     atom   38 type  1   force =     0.00000323    0.00012131    0.00020374
     atom   39 type  1   force =     0.00005751   -0.00148801    0.11011019
     atom   40 type  1   force =    -0.00003379    0.00047557   -0.00006068
     atom   41 type  1   force =     0.00001396   -0.00028863   -0.00077034
     atom   42 type  1   force =     0.05415404   -0.00369411   -0.02982582
     atom   43 type  1   force =     0.00061953    0.00087241   -0.00014363
     atom   44 type  1   force =    -0.00027171   -0.00011203    0.00019650
     atom   45 type  2   force =    -0.00008205    0.00362334   -0.19528500
     atom   46 type  2   force =     0.00014121    0.00058494    0.00003683
     atom   47 type  2   force =    -0.00000592    0.00014247   -0.00006197
     atom   48 type  1   force =    -0.05425441   -0.00404579   -0.02978018
     atom   49 type  1   force =    -0.00039437    0.00068554   -0.00012498
     atom   50 type  1   force =     0.00025735   -0.00010990    0.00020017
     atom   51 type  2   force =     0.00012098   -0.00328650    0.07751737
     atom   52 type  2   force =    -0.00027394   -0.00025621    0.00061350
     atom   53 type  2   force =     0.00001507    0.00009175    0.00020667
     atom   54 type  3   force =     0.00000753    0.00092128   -0.00132046
     atom   55 type  4   force =     0.00000542   -0.00039929    0.00013866
     atom   56 type  4   force =    -0.00003893   -0.00001268   -0.00006226
     atom   57 type  4   force =    -0.00006064   -0.00029513   -0.00061475
     atom   58 type  3   force =    -0.00026971    0.00072074   -0.00036941
     atom   59 type  4   force =     0.00000856   -0.00011281    0.00020720
     atom   60 type  4   force =    -0.00012753    0.00048069    0.00054474
     atom   61 type  4   force =     0.00038013    0.00061787    0.00068081

     Total force =     0.456037     Total SCF correction =     0.000539
  @ DRIVER MODE: Message from server: STATUS
  @ DRIVER MODE: Message from server: GETFORCE
  @ DRIVER MODE: Returning v,forces,stress,ensemble

     Writing config to output data dir ./calc.save/
     Message from routine punch:
     wavefunctions written to file
  @ DRIVER MODE: Message from server: STATUS
  @ DRIVER MODE: Message from server: INIT
  @ DRIVER MODE: Receiving replica           0           0
  @ DRIVER MODE: Receiving encoded integer           2
  @ DRIVER MODE:  SCF:  T  FORCE:  T  STRESS:  F  VC:  F  ENSEMBLE:  F
  @ DRIVER MODE:  SCF:  F  FORCE:  F  STRESS:  F  VC:  F  ENSEMBLE:  T
  @ DRIVER MODE: Message from server: STATUS
  @ DRIVER MODE: Message from server: POSDATA
  @ DRIVER MODE: Reading and sharing positions
  @ DRIVER MODE: Received positions
     NEW-OLD atomic charge density approx. for the potential

[...]

     Adding external electric field

     Computed dipole along edir(3) :
        Dipole                1.9920 Ry au,          5.0632 Debye
        Dipole field          0.0025 Ry au,

        Potential amp.       -0.2323 Ry
        Total length         46.3494 bohr

  @ DRIVER MODE: BEEF-vdw

[...]

     negative rho (up, down):  3.551E-02 0.000E+00

     negative rho (up, down):  3.551E-02 0.000E+00
 BEEFens 2000 ensemble energies
             -0.390407563729573E+02
             -0.226297244911622E+01
             -0.805749980156937E+01
              0.271093797103193E+02
             -0.134385922703052E+02
             -0.103898530667244E+02
             -0.271368993507900E+02
             -0.566895709770177E+02
             -0.242253553901291E+02
             -0.254729429937382E+02
             -0.236077238195136E+02
              0.480931767164133E+01
              0.222076804835811E+01
             -0.118091501534099E+01
              0.195345987684897E+01
              0.298268519496601E+02
             -0.115383064531656E+02
             -0.812400676811406E+01
              0.131471148937034E+02
             -0.697578663626426E+02
              0.349630522594656E+02
             -0.149495638210554E+02
             -0.272280614005250E+01
             -0.632627974815114E+01
             -0.106695958288560E+01
             -0.241546745188212E+01
              0.541015682818588E+02
             -0.168526737491722E+02
             -0.456076394134999E+01
             -0.341661268621592E+02
              0.442056101543158E+02
             -0.490651959907896E+01
             -0.240494529243807E+02
              0.126638682559838E+02
             -0.231444120050881E+01
              0.146309708540534E+02
             -0.606752526987890E+00
              0.309851248588063E+01
              0.212638127186930E+02
             -0.615840853770617E+02
              0.343005503613639E+02
              0.914043610388671E+01
             -0.703446908202403E+01
             -0.197061363044138E+02
              0.774259382025770E+01
             -0.123512585894098E+02
              0.280288441639508E+02
              0.224143967813156E+02
             -0.144336652138033E+02
             -0.184094772080068E+02
             -0.194179639565968E+02
             -0.234066794225590E+02
              0.118589558313053E+02
             -0.305317838008000E+02
              0.935840676845476E+01
              0.389957641063622E+02
              0.449268900600958E+02
              0.209656956886724E+02
              0.939336739568120E+01
              0.195273324833423E+02
[...]
             -0.459408938107203E+02
              0.312242613343665E+01
             -0.158766847843312E+01
             -0.640059147258683E+01
              0.685799906909779E-01
             -0.409045798055375E+02
             -0.790169499937578E+01
              0.556115912669571E+01
              0.834196945633926E+01
              0.306392725813769E+02
             -0.267564209156426E+02
              0.350097072057143E+02
             -0.250257579072010E+02
              0.160880531003895E+02
              0.253279086980013E+02

 BEEF-vdW xc energy contributions
           1 :   -460.772848904551
           2 :    401.138242799915
           3 :   -305.212347139898
           4 :    205.488212546782
           5 :   -127.452956460765
           6 :    80.8683981848927
           7 :   -61.2645198443666
           8 :    57.4052493994061
           9 :   -58.9267796757486
          10 :    60.1335995269778
          11 :   -59.6716462972127
          12 :    58.0749470315670
          13 :   -55.7110320665342
          14 :    52.2439310161557
          15 :   -47.2897189455151
          16 :    41.1480888091099
          17 :   -34.9105657214946
          18 :    29.9078991860181
          19 :   -27.0142861543217
          20 :    26.2823676152290
          21 :   -27.0921133614189
          22 :    28.5766178268568
          23 :   -29.9983555568108
          24 :    30.8723701079655
          25 :   -30.9072066458774
          26 :    29.9295300156215
          27 :   -27.9149760609479
          28 :    25.0797112820734
          29 :   -21.9202043309246
          30 :    19.1003494699989
          31 :   -54.1188544099140
          32 :   -36.6769368623337
  @ DRIVER MODE: Message from server: STATUS
  @ DRIVER MODE: Message from server: GETFORCE
  @ DRIVER MODE: Returning v,forces,stress,ensemble
  @ DRIVE MODE: Returning Ensemble Energies

     Writing config to output data dir ./calc.save/
     Message from routine punch:
     wavefunctions written to file
  @ DRIVER MODE: Message from server: EXIT
  @ DRIVE MODE: Exiting

     General routines

     Parallel routines

   This run was terminated on:  21:34: 6  15Oct2021

   JOB DONE.