     Program PWSCF v.6.7GPU starts on  9Sep2021 at 23:56: 5

     R & G space division:  proc/nbgrp/npool/nimage =      10
     Reading input from /storage/home/hcoda1/3/ntian30/research/carbon/CxH_vib/CH3_calc/ads_slab/CH3N2OH_l/out_0011/pw.inp
Warning: card &CELL ignored
Warning: card   CELL_DYNAMICS='IPI', ignored
Warning: card / ignored

     Current dimensions of program PWSCF are:
     Max number of different atomic species (ntypx) = 10
     Max number of k-points (npk) =  40000
     Max angular momentum in pseudopotentials (lmaxx) =  3
     Presently no symmetry can be used with electric field

     Message from routine cell_base_init:
     DEPRECATED: use true lattice parameter, not A to a.u. conversion factor

     IMPORTANT: XC functional enforced from input :
     Exchange-correlation= BEEF-VDW
                           (   1   4  43  14   2   0   0)
     Any further DFT definition will be discarded
     Please, verify this is what you really want

  @ DRIVER MODE: Connecting to
 qe_1139763_2779712.sched-torque.pace.gatech.eduh5xb6jgc_scratch
  using UNIX socket
  @ DRIVER MODE: Message from server: STATUS
  @ DRIVER MODE: Message from server: INIT
  @ DRIVER MODE: Receiving replica           0          -1
  @ DRIVER MODE: Receiving encoded integer          25
  @ DRIVER MODE:  SCF:  T  FORCE:  T  STRESS:  F  VC:  F  ENSEMBLE:  F
  @ DRIVER MODE:  SCF:  T  FORCE:  T  STRESS:  F  VC:  F  ENSEMBLE:  F

     Using Slab Decomposition

     bravais-lattice index     =            0
     lattice parameter (alat)  =       1.8897  a.u.
     unit-cell volume          =    6658.9804 (a.u.)^3
     number of atoms/cell      =           55
     number of atomic types    =            5
     number of electrons       =       402.00
     number of Kohn-Sham states=          211
     kinetic-energy cutoff     =      29.3995  Ry
     charge density cutoff     =     293.9946  Ry
     scf convergence threshold =      7.3E-08
     mixing beta               =       0.0500
     number of iterations used =            8  plain     mixing
     Exchange-correlation= BEEF-VDW
                           (   1   4  43  14   2   0   0)

     celldm(1)=   1.889726  celldm(2)=   0.000000  celldm(3)=   0.000000
     celldm(4)=   0.000000  celldm(5)=   0.000000  celldm(6)=   0.000000

     crystal axes: (cart. coord. in units of alat)
               a(1) = (   6.579727   0.000000   0.000000 )
               a(2) = (  -0.000775   5.961596   0.000000 )
               a(3) = (   0.000000   0.000000  25.155947 )

     reciprocal axes: (cart. coord. in units 2 pi/alat)
               b(1) = (  0.151982  0.000020  0.000000 )
               b(2) = (  0.000000  0.167740  0.000000 )
               b(3) = (  0.000000  0.000000  0.039752 )

     PseudoPot. # 1 for Ti read from file:
     /storage/coda1/p-amedford6/0/shared/rich_project_chbe-medford/medford-share/data/pseudos_module/espresso/nninc/pbe/van/Ti.UPF
     MD5 check sum: 8e4df49b7f0d34bbd5052bf3f5ea0213
     Pseudo is Ultrasoft, Zval = 12.0
     Generated by new atomic code, or converted to UPF format
     Using radial grid of  851 points,  6 beta functions with:
                l(1) =   0
                l(2) =   0
                l(3) =   1
                l(4) =   1
                l(5) =   2
                l(6) =   2
     Q(r) pseudized with  8 coefficients,  rinner =    1.000   1.000   1.000
                                                       1.000   1.000

     PseudoPot. # 2 for O  read from file:
     /storage/coda1/p-amedford6/0/shared/rich_project_chbe-medford/medford-share/data/pseudos_module/espresso/nninc/pbe/van/O.UPF
     MD5 check sum: 78c19812648e8988a0fe644b0f25305e
     Pseudo is Ultrasoft, Zval =  6.0
     Generated by new atomic code, or converted to UPF format
     Using radial grid of  737 points,  4 beta functions with:
                l(1) =   0
                l(2) =   0
                l(3) =   1
                l(4) =   1
     Q(r) pseudized with  8 coefficients,  rinner =    0.800   0.800   0.800

     PseudoPot. # 3 for N  read from file:
     /storage/coda1/p-amedford6/0/shared/rich_project_chbe-medford/medford-share/data/pseudos_module/espresso/nninc/pbe/van/N.UPF
     MD5 check sum: 90d10febe142ad51ac9d5be1deb811c4
     Pseudo is Ultrasoft, Zval =  5.0
     Generated by new atomic code, or converted to UPF format
     Using radial grid of  729 points,  4 beta functions with:
                l(1) =   0
                l(2) =   0
                l(3) =   1
                l(4) =   1
     Q(r) pseudized with  8 coefficients,  rinner =    0.800   0.800   0.800

     PseudoPot. # 4 for C  read from file:
     /storage/coda1/p-amedford6/0/shared/rich_project_chbe-medford/medford-share/data/pseudos_module/espresso/nninc/pbe/van/C.UPF
     MD5 check sum: 1a69bf6b8db32088f5b2163dbdb77a27
     Pseudo is Ultrasoft, Zval =  4.0
     Generated by new atomic code, or converted to UPF format
     Using radial grid of  721 points,  4 beta functions with:
                l(1) =   0
                l(2) =   0
                l(3) =   1
                l(4) =   1
     Q(r) pseudized with  8 coefficients,  rinner =    0.800   0.800   0.800

     PseudoPot. # 5 for H  read from file:
     /storage/coda1/p-amedford6/0/shared/rich_project_chbe-medford/medford-share/data/pseudos_module/espresso/nninc/pbe/van/H.UPF
     MD5 check sum: b5ee9d7bfd3a09ee7748110bda690ff7
     Pseudo is Ultrasoft, Zval =  1.0
     Generated by new atomic code, or converted to UPF format
     Using radial grid of  615 points,  1 beta functions with:
                l(1) =   0
     Q(r) pseudized with  8 coefficients,  rinner =    0.800

     atomic species   valence    mass     pseudopotential
        Ti1           12.00    47.86700     Ti( 1.00)
        O1             6.00    15.99900     O ( 1.00)
        N1             5.00    14.00700     N ( 1.00)
        C1             4.00    12.01100     C ( 1.00)
        H1             1.00     1.00800     H ( 1.00)

     No symmetry found

   Cartesian axes

     site n.     atom                  positions (alat units)
         1           Ti1 tau(   1) = (   0.0004258   2.9801865   6.0000000  )
         2           Ti1 tau(   2) = (   3.2906075   1.4906267   6.0002472  )
         3           O1  tau(   3) = (   0.0006271   0.0005054   7.9858123  )
         4           O1  tau(   4) = (   3.2906025   0.0005020   7.3038282  )
         5           O1  tau(   5) = (   4.5942328   1.4918067   9.2879030  )
         6           O1  tau(   6) = (   1.9868534   1.4903216   9.2879459  )
         7           Ti1 tau(   7) = (   3.2907910   2.8959150   9.1758416  )
         8           Ti1 tau(   8) = (   0.0015273   1.4827037   9.2680791  )
         9           O1  tau(   9) = (   3.3074573   5.9346435  11.2963613  )
        10           O1  tau(  10) = (   0.0116148   5.9584955  10.6183126  )
        11           O1  tau(  11) = (   1.3055178   1.4819292  12.6272398  )
        12           O1  tau(  12) = (   5.3158762   1.4804127  12.6185516  )
        13           Ti1 tau(  13) = (   0.0186029   2.8424156  12.6464711  )
        14           Ti1 tau(  14) = (   3.3167612   1.2924093  12.6669032  )
        15           O1  tau(  15) = (   0.0012442   5.9356390  14.6370070  )
        16           O1  tau(  16) = (   3.3127944   0.0275565  13.9018093  )
        17           O1  tau(  17) = (   4.5765900   1.5157235  16.0894388  )
        18           O1  tau(  18) = (   2.0422450   1.5317946  16.0210879  )
        19           Ti1 tau(  19) = (   3.3088329   2.9810726  15.6636066  )
        20           Ti1 tau(  20) = (   0.0236821   1.4688588  15.8133175  )
        21           O1  tau(  21) = (   3.2904802   0.0005063   4.7018136  )
        22           O1  tau(  22) = (   0.0676014   5.9495730  17.1734943  )
        23           O1  tau(  23) = (   1.3043587   1.4918075   6.0039043  )
        24           O1  tau(  24) = (   5.2767064   1.4903225   6.0039473  )
        25           Ti1 tau(  25) = (   0.0000382   5.9609847   6.0000000  )
        26           Ti1 tau(  26) = (   3.2902200   4.4714249   6.0002472  )
        27           O1  tau(  27) = (   0.0002396   2.9813036   7.9858123  )
        28           O1  tau(  28) = (   3.2902150   2.9813002   7.3038282  )
        29           O1  tau(  29) = (   4.5938453   4.4726049   9.2879030  )
        30           O1  tau(  30) = (   1.9864658   4.4711199   9.2879459  )
        31           Ti1 tau(  31) = (   3.2891106   5.8743827   9.1763621  )
        32           Ti1 tau(  32) = (   0.0006254   4.4649316   9.2693709  )
        33           O1  tau(  33) = (   3.3041982   3.0170362  11.2630756  )
        34           O1  tau(  34) = (   0.0092240   2.9805883  10.6323155  )
        35           O1  tau(  35) = (   1.3098214   4.4601496  12.6289764  )
        36           O1  tau(  36) = (   5.3139316   4.4642116  12.6209765  )
        37           Ti1 tau(  37) = (   0.0286784   5.8202107  12.5681754  )
        38           Ti1 tau(  38) = (   3.3194384   4.3879401  12.4232525  )
        39           O1  tau(  39) = (   6.5763552   2.9401740  14.6754030  )
        40           O1  tau(  40) = (   3.3328261   2.9762691  13.8808942  )
        41           O1  tau(  41) = (   4.5658580   4.4380642  16.1332302  )
        42           O1  tau(  42) = (   2.0359873   4.4031365  16.0422930  )
        43           Ti1 tau(  43) = (   3.3255947   5.9578944  16.3175027  )
        44           Ti1 tau(  44) = (   0.0374668   4.6230282  16.0307208  )
        45           O1  tau(  45) = (   3.2900926   2.9813045   4.7018136  )
        46           O1  tau(  46) = (   1.3039711   4.4726057   6.0039043  )
        47           O1  tau(  47) = (   5.2763189   4.4711207   6.0039473  )
        48           N1  tau(  48) = (   0.1245995   2.6662279  18.6673576  )
        49           N1  tau(  49) = (   0.0476076   2.8693738  17.4735824  )
        50           C1  tau(  50) = (   0.1295945   3.7926219  19.6405614  )
        51           H1  tau(  51) = (   6.3015398   4.7065717  19.2118634  )
        52           H1  tau(  52) = (   6.1525190   3.4626129  20.5140504  )
        53           H1  tau(  53) = (   1.1733748   3.9370966  19.9287387  )
        54           O1  tau(  54) = (   3.0981659   0.0197753  18.1302257  )
        55           H1  tau(  55) = (   2.1972620   0.2293568  18.4309947  )

     number of k points=    10  Fermi-Dirac smearing, width (Ry)=  0.0073
                       cart. coord. in units 2pi/alat
        k(    1) = (   0.0000000   0.0000000   0.0000000), wk =   0.1250000
        k(    2) = (   0.0000000   0.0419351   0.0000000), wk =   0.2500000
        k(    3) = (   0.0000000  -0.0838702   0.0000000), wk =   0.1250000
        k(    4) = (   0.0379955   0.0000049   0.0000000), wk =   0.2500000
        k(    5) = (   0.0379955   0.0419400   0.0000000), wk =   0.2500000
        k(    6) = (   0.0379955  -0.0838652   0.0000000), wk =   0.2500000
        k(    7) = (   0.0379955  -0.0419301   0.0000000), wk =   0.2500000
        k(    8) = (  -0.0759910  -0.0000099   0.0000000), wk =   0.1250000
        k(    9) = (  -0.0759910   0.0419252   0.0000000), wk =   0.2500000
        k(   10) = (  -0.0759910  -0.0838800   0.0000000), wk =   0.1250000

     Initial potential from superposition of free atoms

     starting charge  385.99915, renormalised to  402.00000

     negative rho (up, down):  1.433E-02 0.000E+00

     %%%%%%%%%%%%%%%%%%%%%%%%%%%%%%%%%%%%%%%%%%%%%%%%%%%%%%%%%%%%%%%%%%%%%%%%
     %                                                                      %
     % You are using vdW-DF, which was implemented by the Thonhauser group. %
     % Please cite the following two papers that made this development      %
     % possible and the two reviews that describe the various versions:     %
     %                                                                      %
     %   T. Thonhauser et al., PRL 115, 136402 (2015).                      %
     %   T. Thonhauser et al., PRB 76, 125112 (2007).                       %
     %   K. Berland et al., Rep. Prog. Phys. 78, 066501 (2015).             %
     %   D.C. Langreth et al., J. Phys.: Condens. Matter 21, 084203 (2009). %
     %                                                                      %
     %                                                                      %
     % If you are calculating the stress with vdW-DF, please also cite:     %
     %                                                                      %
     %   R. Sabatini et al., J. Phys.: Condens. Matter 24, 424209 (2012).   %
     %                                                                      %
     %%%%%%%%%%%%%%%%%%%%%%%%%%%%%%%%%%%%%%%%%%%%%%%%%%%%%%%%%%%%%%%%%%%%%%%%

     Adding external electric field

     Computed dipole along edir(3) :
        Dipole              -11.9884 Ry au,        -30.4715 Debye
        Dipole field         -0.0226 Ry au,

        Potential amp.        2.0972 Ry
        Total length         46.3494 bohr

     Starting wfcs are  304 atomic wfcs
  @ DRIVER MODE: Message from server: STATUS
  @ DRIVER MODE: Message from server: POSDATA
  @ DRIVER MODE: Reading and sharing cell
  @ DRIVER MODE: Reading and sharing positions
  @ DRIVER MODE: Received positions

     Self-consistent Calculation

     iteration #  1     ecut=    29.40 Ry     beta= 0.05
     Davidson diagonalization with overlap
     c_bands:  5 eigenvalues not converged
     c_bands:  3 eigenvalues not converged
     c_bands:  5 eigenvalues not converged
     c_bands:  4 eigenvalues not converged
     c_bands:  4 eigenvalues not converged
     c_bands:  1 eigenvalues not converged
     c_bands:  4 eigenvalues not converged
     c_bands:  2 eigenvalues not converged
     c_bands:  5 eigenvalues not converged
     c_bands:  4 eigenvalues not converged
     ethr =  1.00E-05,  avg # of iterations = 22.0

[...]

     total energy              =   -2400.53540310 Ry
     estimated scf accuracy    <    6448.10508929 Ry

     iteration #  2     ecut=    29.40 Ry     beta= 0.05
     Davidson diagonalization with overlap
     ethr =  1.00E-02,  avg # of iterations = 22.3

[...]

     iteration # 34     ecut=    29.40 Ry     beta= 0.05
     Davidson diagonalization with overlap
     c_bands:  2 eigenvalues not converged
     c_bands:  1 eigenvalues not converged
     ethr =  2.70E-07,  avg # of iterations = 13.1

[...]

     total energy              =   -2972.75583769 Ry
     estimated scf accuracy    <       0.00000008 Ry

     iteration # 56     ecut=    29.40 Ry     beta= 0.05
     Davidson diagonalization with overlap
     ethr =  1.94E-11,  avg # of iterations =  6.0

     negative rho (up, down):  1.508E-02 0.000E+00

     Adding external electric field

     Computed dipole along edir(3) :
        Dipole                0.5498 Ry au,          1.3975 Debye
        Dipole field          0.0010 Ry au,

        Potential amp.       -0.0962 Ry
        Total length         46.3494 bohr

     End of self-consistent calculation

          k = 0.0000 0.0000 0.0000 ( 18029 PWs)   bands (ev):

   -56.2933 -56.2595 -55.8807 -55.8457 -55.6231 -55.5843 -55.5651 -55.4050
   -55.3566 -55.3373 -55.2347 -55.1727 -55.0716 -55.0563 -55.0290 -55.0223
   -32.7430 -32.5857 -32.5589 -32.4518 -32.3672 -32.3604 -32.3593 -32.1048
   -32.1000 -32.0754 -32.0248 -32.0197 -31.9905 -31.8978 -31.8928 -31.8472
   -31.8455 -31.8439 -31.8086 -31.7858 -31.7686 -31.7472 -31.7277 -31.7054
   -31.6839 -31.6755 -31.6171 -31.5641 -31.5484 -31.5452 -31.5322 -31.5141
   -31.4935 -31.4523 -31.4335 -31.4065 -31.3902 -31.3821 -31.3665 -31.3299
   -31.3053 -31.2820 -31.2712 -31.2675 -31.2600 -31.2467 -31.1868 -31.0747
   -18.7264 -16.5819 -16.3650 -16.2380 -15.9926 -15.8560 -15.7749 -15.7214
   -15.6946 -15.6003 -15.5447 -15.4674 -15.3772 -15.3134 -15.2757 -15.2535
   -15.1786 -15.1075 -15.0560 -15.0313 -14.9913 -14.9830 -14.9574 -14.9008
   -14.8808 -14.8611 -14.8169 -14.6814 -14.6280 -14.3274 -14.3003 -13.5537
   -13.4416 -11.5024  -6.9664  -4.3921  -4.0927  -4.0666  -3.9742  -3.8604
    -3.7892  -3.5821  -3.4548  -3.2821  -3.2399  -3.1541  -2.9963  -2.9898
    -2.9408  -2.8668  -2.7831  -2.7104  -2.6716  -2.6601  -2.5495  -2.5178
    -2.5058  -2.4899  -2.4404  -2.4122  -2.3206  -2.2803  -2.2590  -2.2256
    -2.1940  -2.1415  -2.1253  -2.0892  -2.0655  -2.0018  -1.9320  -1.8891
    -1.8574  -1.7879  -1.7420  -1.6971  -1.6305  -1.6041  -1.5951  -1.5699
    -1.5224  -1.3345  -1.2964  -1.2555  -1.2525  -1.1119  -1.0571  -1.0257
    -0.9651  -0.9404  -0.8590  -0.8205  -0.7995  -0.7830  -0.7166  -0.7115
    -0.6630  -0.6315  -0.4497  -0.4161  -0.3514  -0.3297  -0.2714  -0.2345
    -0.2012  -0.1660  -0.1293  -0.0818  -0.0668  -0.0073   0.0416   0.0633
     0.2061   0.2388   0.3192   0.3303   0.3371   0.3602   0.4307   0.4684
     0.5402   0.5843   0.5935   0.6537   0.7342   0.7723   0.8972   0.9660
     0.9687   1.0062   1.0295   1.0970   1.1995   1.5032   1.5158   1.5542
     2.6824   2.9338   3.0648   3.2153   3.3654   3.4752   3.8005   3.8064
     3.8363   3.8890   3.9848

[...]

          k = 0.0380-0.0419 0.0000 ( 17876 PWs)   bands (ev):

[...]

          k =-0.0760-0.0000 0.0000 ( 17886 PWs)   bands (ev):

[...]

          k =-0.0760-0.0839 0.0000 ( 17948 PWs)   bands (ev):

   -56.2764 -56.2763 -55.8681 -55.8581 -55.6176 -55.5836 -55.5705 -55.3978
   -55.3637 -55.3379 -55.2330 -55.1707 -55.0732 -55.0398 -55.0387 -55.0309
   -32.5713 -32.5712 -32.5591 -32.5589 -32.4039 -32.4036 -32.1874 -32.1782
   -32.0618 -32.0530 -32.0516 -32.0466 -31.9263 -31.8890 -31.8503 -31.8396
   -31.8384 -31.8196 -31.8070 -31.7977 -31.7844 -31.7280 -31.7054 -31.6996
   -31.6347 -31.6310 -31.6208 -31.6034 -31.5957 -31.5942 -31.5495 -31.5456
   -31.4855 -31.4395 -31.4189 -31.4105 -31.3806 -31.3798 -31.3790 -31.3332
   -31.3324 -31.2855 -31.2775 -31.2678 -31.2664 -31.2637 -31.2296 -31.2287
   -18.7232 -16.3495 -15.9922 -15.9842 -15.8543 -15.8491 -15.6752 -15.6641
   -15.6016 -15.5643 -15.5211 -15.4996 -15.3701 -15.3426 -15.2737 -15.2419
   -15.2180 -15.1881 -15.1598 -15.1420 -15.1077 -15.0658 -15.0232 -15.0113
   -14.9709 -14.9686 -14.8491 -14.7601 -14.6935 -14.4977 -14.4627 -13.5450
   -13.5444 -11.5005  -6.9807  -4.3380  -4.0402  -4.0042  -3.8293  -3.1537
    -3.1135  -2.9875  -2.9640  -2.8817  -2.8404  -2.7779  -2.7160  -2.7002
    -2.6862  -2.6729  -2.6042  -2.5752  -2.5630  -2.5308  -2.5143  -2.5057
    -2.4640  -2.4013  -2.3860  -2.3610  -2.3573  -2.3510  -2.2759  -2.2195
    -2.2169  -2.1817  -2.1379  -2.1088  -2.0386  -2.0225  -1.9987  -1.9636
    -1.9253  -1.8233  -1.7814  -1.7290  -1.6793  -1.6263  -1.5859  -1.5778
    -1.5135  -1.4784  -1.3653  -1.3408  -1.3195  -1.2829  -1.2363  -1.1840
    -1.1302  -1.1049  -1.0651  -1.0551  -1.0379  -1.0123  -0.8922  -0.8564
    -0.7626  -0.7276  -0.7019  -0.6870  -0.6426  -0.6337  -0.5573  -0.5357
    -0.4961  -0.4766  -0.4060  -0.4027  -0.3670  -0.2952  -0.1990  -0.0427
     0.0610   0.0912   0.1228   0.1449   0.1871   0.2872   0.3011   0.3804
     0.4479   0.4623   0.4772   0.5064   0.6618   0.7271   0.8435   0.8695
     0.9059   0.9572   1.0198   1.0860   1.3602   1.3677   1.3702   1.3708
     2.6949   3.4851   3.4875   3.5167   3.5277   3.7183   3.7268   3.7361
     3.8857   3.9133   3.9784

     the Fermi energy is     2.8686 ev

!    total energy              =   -2972.75591201 Ry
     estimated scf accuracy    <       0.00000004 Ry
     smearing contrib. (-TS)   =      -0.01269956 Ry
     internal energy E=F+TS    =   -2972.74321245 Ry

     The total energy is F=E-TS. E is the sum of the following terms:
     one-electron contribution =  -23638.86543940 Ry
     hartree contribution      =   11912.44488716 Ry
     xc contribution           =    -493.06831881 Ry
     ewald contribution        =    9246.74508812 Ry
     electric field correction =       0.00057048 Ry

     convergence has been achieved in  56 iterations

     Forces acting on atoms (cartesian axes, Ry/au):

     atom    1 type  1   force =    -0.00000148   -0.00036669    0.10711168
     atom    2 type  1   force =    -0.00004110    0.00020359   -0.16475421
     atom    3 type  2   force =     0.00005651    0.00001644   -0.03849139
     atom    4 type  2   force =     0.00006625   -0.00063014    0.03424644
     atom    5 type  2   force =    -0.00361499   -0.00218328   -0.00728994
     atom    6 type  2   force =     0.00564146   -0.00176923   -0.00696312
     atom    7 type  1   force =     0.00025398   -0.00517268    0.03775336
     atom    8 type  1   force =    -0.00001256    0.01088562    0.05942160
     atom    9 type  2   force =    -0.00044168    0.00025789   -0.00128697
     atom   10 type  2   force =    -0.00077341   -0.00037762   -0.04504820
     atom   11 type  2   force =     0.00027473   -0.00022371    0.00012536
     atom   12 type  2   force =    -0.00061770   -0.00055912   -0.00023072
     atom   13 type  1   force =     0.00005619    0.00027946    0.00164232
     atom   14 type  1   force =    -0.00024390    0.00003657    0.00112369
     atom   15 type  2   force =    -0.00018361   -0.00048641   -0.00220952
     atom   16 type  2   force =     0.00032688    0.00012367    0.00010531
     atom   17 type  2   force =    -0.00015100    0.00034454   -0.00009861
     atom   18 type  2   force =     0.00053732    0.00041852   -0.00077335
     atom   19 type  1   force =    -0.00049745   -0.00047579    0.00027672
     atom   20 type  1   force =     0.00013764   -0.00028367    0.00076826
     atom   21 type  2   force =     0.00004268    0.00021318    0.10032183
     atom   22 type  2   force =    -0.00002118   -0.00088426   -0.00035880
     atom   23 type  2   force =    -0.07705056   -0.00000606   -0.03007902
     atom   24 type  2   force =     0.07692183    0.00042058   -0.03013888
     atom   25 type  1   force =     0.00005149   -0.00042467    0.10713566
     atom   26 type  1   force =    -0.00016613   -0.00138598   -0.16513372
     atom   27 type  2   force =     0.00012532   -0.00064405   -0.03693258
     atom   28 type  2   force =     0.00003775    0.00112663    0.02981938
     atom   29 type  2   force =    -0.00199821    0.00418473   -0.01027103
     atom   30 type  2   force =     0.00406693    0.00463146   -0.00984477
     atom   31 type  1   force =     0.00022788    0.00322017    0.02326107
     atom   32 type  1   force =    -0.00015061   -0.01396630    0.05948081
     atom   33 type  2   force =    -0.00014331   -0.00127922   -0.00078751
     atom   34 type  2   force =    -0.00071092   -0.00005531   -0.05548867
     atom   35 type  2   force =    -0.00105361    0.00023323    0.00001613
     atom   36 type  2   force =     0.00050500    0.00001092   -0.00041321
     atom   37 type  1   force =    -0.00013332   -0.00078328    0.00115351
     atom   38 type  1   force =    -0.00056486   -0.00004281    0.00064165
     atom   39 type  2   force =    -0.00031664    0.00047518   -0.00134586
     atom   40 type  2   force =    -0.00024886   -0.00045033   -0.00048452
     atom   41 type  2   force =    -0.00112464    0.00008595   -0.00030792
     atom   42 type  2   force =     0.00007835    0.00015267    0.00036846
     atom   43 type  1   force =     0.00071641    0.00098465    0.00040613
     atom   44 type  1   force =    -0.00016174    0.00142627    0.00138943
     atom   45 type  2   force =     0.00003417   -0.00000182    0.10012898
     atom   46 type  2   force =    -0.07709596    0.00002993   -0.03011124
     atom   47 type  2   force =     0.07698623    0.00045532   -0.03017710
     atom   48 type  3   force =    -0.00140063    0.00282824   -0.02336767
     atom   49 type  3   force =     0.00167834   -0.00161547    0.02849462
     atom   50 type  4   force =     0.00000975    0.00080051   -0.00345270
     atom   51 type  5   force =    -0.00029533   -0.00016566    0.00063406
     atom   52 type  5   force =    -0.00041173   -0.00034005   -0.00031073
     atom   53 type  5   force =     0.00009228    0.00021909    0.00051413
     atom   54 type  2   force =     0.00111814   -0.00043854   -0.00137696
     atom   55 type  5   force =    -0.00041635    0.00094712    0.00118835

     Total force =     0.382176     Total SCF correction =     0.000525
  @ DRIVER MODE: Message from server: STATUS
  @ DRIVER MODE: Message from server: GETFORCE
  @ DRIVER MODE: Returning v,forces,stress,ensemble

     Writing output data file ./calc.save/
  @ DRIVER MODE: Message from server: EXIT
  @ DRIVE MODE: Exiting

     General routines

     Parallel routines

   This run was terminated on:   0:11:35  10Sep2021

   JOB DONE.