     Program PWSCF v.6.7GPU starts on 22Sep2021 at 20:33:55

     R & G space division:  proc/nbgrp/npool/nimage =      10
     Reading input from /storage/home/hcoda1/3/ntian30/research/carbon/CxH_vib/H2O_calc/ads_slab/CH2NHO_a/out_0014/pw.inp
Warning: card &CELL ignored
Warning: card   CELL_DYNAMICS='IPI', ignored
Warning: card / ignored

     Current dimensions of program PWSCF are:
     Max number of different atomic species (ntypx) = 10
     Max number of k-points (npk) =  40000
     Max angular momentum in pseudopotentials (lmaxx) =  3
     Presently no symmetry can be used with electric field

     Message from routine cell_base_init:
     DEPRECATED: use true lattice parameter, not A to a.u. conversion factor

     IMPORTANT: XC functional enforced from input :
     Exchange-correlation= BEEF-VDW
                           (   1   4  43  14   2   0   0)
     Any further DFT definition will be discarded
     Please, verify this is what you really want

  @ DRIVER MODE: Connecting to
 qe_1139763_2937321.sched-torque.pace.gatech.eduxfxoeb75_scratch
  using UNIX socket
  @ DRIVER MODE: Message from server: STATUS
  @ DRIVER MODE: Message from server: INIT
  @ DRIVER MODE: Receiving replica           0          -1
  @ DRIVER MODE: Receiving encoded integer          25
  @ DRIVER MODE:  SCF:  T  FORCE:  T  STRESS:  F  VC:  F  ENSEMBLE:  F
  @ DRIVER MODE:  SCF:  T  FORCE:  T  STRESS:  F  VC:  F  ENSEMBLE:  F

     Using Slab Decomposition

     bravais-lattice index     =            0
     lattice parameter (alat)  =       1.8897  a.u.
     unit-cell volume          =    6658.9804 (a.u.)^3
     number of atoms/cell      =           53
     number of atomic types    =            5
     number of electrons       =       396.00
     number of Kohn-Sham states=          208
     kinetic-energy cutoff     =      29.3995  Ry
     charge density cutoff     =     293.9946  Ry
     scf convergence threshold =      7.3E-08
     mixing beta               =       0.0500
     number of iterations used =            8  plain     mixing
     Exchange-correlation= BEEF-VDW
                           (   1   4  43  14   2   0   0)

     celldm(1)=   1.889726  celldm(2)=   0.000000  celldm(3)=   0.000000
     celldm(4)=   0.000000  celldm(5)=   0.000000  celldm(6)=   0.000000

     crystal axes: (cart. coord. in units of alat)
               a(1) = (   6.579727   0.000000   0.000000 )
               a(2) = (  -0.000775   5.961596   0.000000 )
               a(3) = (   0.000000   0.000000  25.155947 )

     reciprocal axes: (cart. coord. in units 2 pi/alat)
               b(1) = (  0.151982  0.000020  0.000000 )
               b(2) = (  0.000000  0.167740  0.000000 )
               b(3) = (  0.000000  0.000000  0.039752 )

     PseudoPot. # 1 for Ti read from file:
     /storage/coda1/p-amedford6/0/shared/rich_project_chbe-medford/medford-share/data/pseudos_module/espresso/nninc/pbe/van/Ti.UPF
     MD5 check sum: 8e4df49b7f0d34bbd5052bf3f5ea0213
     Pseudo is Ultrasoft, Zval = 12.0
     Generated by new atomic code, or converted to UPF format
     Using radial grid of  851 points,  6 beta functions with:
                l(1) =   0
                l(2) =   0
                l(3) =   1
                l(4) =   1
                l(5) =   2
                l(6) =   2
     Q(r) pseudized with  8 coefficients,  rinner =    1.000   1.000   1.000
                                                       1.000   1.000

     PseudoPot. # 2 for O  read from file:
     /storage/coda1/p-amedford6/0/shared/rich_project_chbe-medford/medford-share/data/pseudos_module/espresso/nninc/pbe/van/O.UPF
     MD5 check sum: 78c19812648e8988a0fe644b0f25305e
     Pseudo is Ultrasoft, Zval =  6.0
     Generated by new atomic code, or converted to UPF format
     Using radial grid of  737 points,  4 beta functions with:
                l(1) =   0
                l(2) =   0
                l(3) =   1
                l(4) =   1
     Q(r) pseudized with  8 coefficients,  rinner =    0.800   0.800   0.800

     PseudoPot. # 3 for N  read from file:
     /storage/coda1/p-amedford6/0/shared/rich_project_chbe-medford/medford-share/data/pseudos_module/espresso/nninc/pbe/van/N.UPF
     MD5 check sum: 90d10febe142ad51ac9d5be1deb811c4
     Pseudo is Ultrasoft, Zval =  5.0
     Generated by new atomic code, or converted to UPF format
     Using radial grid of  729 points,  4 beta functions with:
                l(1) =   0
                l(2) =   0
                l(3) =   1
                l(4) =   1
     Q(r) pseudized with  8 coefficients,  rinner =    0.800   0.800   0.800

     PseudoPot. # 4 for C  read from file:
     /storage/coda1/p-amedford6/0/shared/rich_project_chbe-medford/medford-share/data/pseudos_module/espresso/nninc/pbe/van/C.UPF
     MD5 check sum: 1a69bf6b8db32088f5b2163dbdb77a27
     Pseudo is Ultrasoft, Zval =  4.0
     Generated by new atomic code, or converted to UPF format
     Using radial grid of  721 points,  4 beta functions with:
                l(1) =   0
                l(2) =   0
                l(3) =   1
                l(4) =   1
     Q(r) pseudized with  8 coefficients,  rinner =    0.800   0.800   0.800

     PseudoPot. # 5 for H  read from file:
     /storage/coda1/p-amedford6/0/shared/rich_project_chbe-medford/medford-share/data/pseudos_module/espresso/nninc/pbe/van/H.UPF
     MD5 check sum: b5ee9d7bfd3a09ee7748110bda690ff7
     Pseudo is Ultrasoft, Zval =  1.0
     Generated by new atomic code, or converted to UPF format
     Using radial grid of  615 points,  1 beta functions with:
                l(1) =   0
     Q(r) pseudized with  8 coefficients,  rinner =    0.800

     atomic species   valence    mass     pseudopotential
        Ti1           12.00    47.86700     Ti( 1.00)
        O1             6.00    15.99900     O ( 1.00)
        N1             5.00    14.00700     N ( 1.00)
        C1             4.00    12.01100     C ( 1.00)
        H1             1.00     1.00800     H ( 1.00)

     No symmetry found

   Cartesian axes

     site n.     atom                  positions (alat units)
         1           Ti1 tau(   1) = (   0.0004258   2.9801865   6.0000000  )
         2           Ti1 tau(   2) = (   3.2906075   1.4906267   6.0002472  )
         3           O1  tau(   3) = (   0.0006271   0.0005054   7.9858123  )
         4           O1  tau(   4) = (   3.2906025   0.0005020   7.3038282  )
         5           O1  tau(   5) = (   4.5942328   1.4918067   9.2879030  )
         6           O1  tau(   6) = (   1.9868534   1.4903216   9.2879459  )
         7           Ti1 tau(   7) = (   3.2907910   2.8959150   9.1758416  )
         8           Ti1 tau(   8) = (   0.0015273   1.4827037   9.2680791  )
         9           O1  tau(   9) = (   3.3049783   5.9490022  11.2668993  )
        10           O1  tau(  10) = (   0.0116148   5.9584955  10.6183126  )
        11           O1  tau(  11) = (   1.3054562   1.4902858  12.6165390  )
        12           O1  tau(  12) = (   5.3128925   1.4966897  12.6222362  )
        13           Ti1 tau(  13) = (   0.0227526   2.8513963  12.7011302  )
        14           Ti1 tau(  14) = (   3.3146314   1.3157910  12.6511296  )
        15           O1  tau(  15) = (   0.0292331   0.0037381  14.6451560  )
        16           O1  tau(  16) = (   3.3105559   0.0332628  13.8611824  )
        17           O1  tau(  17) = (   4.5798417   1.5533887  16.0574704  )
        18           O1  tau(  18) = (   2.0659959   1.5620864  16.0379710  )
        19           Ti1 tau(  19) = (   3.3199680   3.0150018  15.6455324  )
        20           Ti1 tau(  20) = (   6.5662113   1.5085715  15.8767718  )
        21           O1  tau(  21) = (   3.2904802   0.0005063   4.7018136  )
        22           O1  tau(  22) = (   0.0336757   0.0283057  17.1922241  )
        23           O1  tau(  23) = (   1.3043587   1.4918075   6.0039043  )
        24           O1  tau(  24) = (   5.2767064   1.4903225   6.0039473  )
        25           Ti1 tau(  25) = (   0.0000382   5.9609847   6.0000000  )
        26           Ti1 tau(  26) = (   3.2902200   4.4714249   6.0002472  )
        27           O1  tau(  27) = (   0.0002396   2.9813036   7.9858123  )
        28           O1  tau(  28) = (   3.2902150   2.9813002   7.3038282  )
        29           O1  tau(  29) = (   4.5938453   4.4726049   9.2879030  )
        30           O1  tau(  30) = (   1.9864658   4.4711199   9.2879459  )
        31           Ti1 tau(  31) = (   3.2891106   5.8743827   9.1763621  )
        32           Ti1 tau(  32) = (   0.0006254   4.4649316   9.2693709  )
        33           O1  tau(  33) = (   3.3044035   3.0314990  11.2389097  )
        34           O1  tau(  34) = (   0.0092240   2.9805883  10.6323155  )
        35           O1  tau(  35) = (   1.3090660   4.4724101  12.6204063  )
        36           O1  tau(  36) = (   5.3093727   4.4739031  12.6240458  )
        37           Ti1 tau(  37) = (   0.0315986   5.8296340  12.6341251  )
        38           Ti1 tau(  38) = (   3.3217628   4.4127071  12.4104736  )
        39           O1  tau(  39) = (   0.0286309   2.9529265  14.6620113  )
        40           O1  tau(  40) = (   3.3111648   2.9942334  13.8608864  )
        41           O1  tau(  41) = (   4.5850423   4.4544105  16.0703757  )
        42           O1  tau(  42) = (   2.0817017   4.4739285  16.0881885  )
        43           Ti1 tau(  43) = (   3.2564312   0.0343949  16.3346327  )
        44           Ti1 tau(  44) = (   6.5491996   4.6347227  16.0815441  )
        45           O1  tau(  45) = (   3.2900926   2.9813045   4.7018136  )
        46           O1  tau(  46) = (   1.3039711   4.4726057   6.0039043  )
        47           O1  tau(  47) = (   5.2763189   4.4711207   6.0039473  )
        48           N1  tau(  48) = (   0.0476609   2.9608057  17.4046342  )
        49           C1  tau(  49) = (   0.0744360   2.8714357  18.6596517  )
        50           H1  tau(  50) = (   0.0910575   3.7616739  19.3027278  )
        51           H1  tau(  51) = (   0.0872865   1.8968143  19.1621030  )
        52           O1  tau(  52) = (   3.2917830   0.0572188  18.1605702  )
        53           H1  tau(  53) = (   2.8914424   5.3141097  18.6896264  )

     number of k points=    10  Fermi-Dirac smearing, width (Ry)=  0.0073
                       cart. coord. in units 2pi/alat
        k(    1) = (   0.0000000   0.0000000   0.0000000), wk =   0.1250000
        k(    2) = (   0.0000000   0.0419351   0.0000000), wk =   0.2500000
        k(    3) = (   0.0000000  -0.0838702   0.0000000), wk =   0.1250000
        k(    4) = (   0.0379955   0.0000049   0.0000000), wk =   0.2500000
        k(    5) = (   0.0379955   0.0419400   0.0000000), wk =   0.2500000
        k(    6) = (   0.0379955  -0.0838652   0.0000000), wk =   0.2500000
        k(    7) = (   0.0379955  -0.0419301   0.0000000), wk =   0.2500000
        k(    8) = (  -0.0759910  -0.0000099   0.0000000), wk =   0.1250000
        k(    9) = (  -0.0759910   0.0419252   0.0000000), wk =   0.2500000
        k(   10) = (  -0.0759910  -0.0838800   0.0000000), wk =   0.1250000

     Initial potential from superposition of free atoms

     starting charge  379.99917, renormalised to  396.00000

     negative rho (up, down):  1.694E-02 0.000E+00

     %%%%%%%%%%%%%%%%%%%%%%%%%%%%%%%%%%%%%%%%%%%%%%%%%%%%%%%%%%%%%%%%%%%%%%%%
     %                                                                      %
     % You are using vdW-DF, which was implemented by the Thonhauser group. %
     % Please cite the following two papers that made this development      %
     % possible and the two reviews that describe the various versions:     %
     %                                                                      %
     %   T. Thonhauser et al., PRL 115, 136402 (2015).                      %
     %   T. Thonhauser et al., PRB 76, 125112 (2007).                       %
     %   K. Berland et al., Rep. Prog. Phys. 78, 066501 (2015).             %
     %   D.C. Langreth et al., J. Phys.: Condens. Matter 21, 084203 (2009). %
     %                                                                      %
     %                                                                      %
     % If you are calculating the stress with vdW-DF, please also cite:     %
     %                                                                      %
     %   R. Sabatini et al., J. Phys.: Condens. Matter 24, 424209 (2012).   %
     %                                                                      %
     %%%%%%%%%%%%%%%%%%%%%%%%%%%%%%%%%%%%%%%%%%%%%%%%%%%%%%%%%%%%%%%%%%%%%%%%

     Adding external electric field

     Computed dipole along edir(3) :
        Dipole               -7.7051 Ry au,        -19.5845 Debye
        Dipole field         -0.0145 Ry au,

        Potential amp.        1.3479 Ry
        Total length         46.3494 bohr

     Starting wfcs are  299 atomic wfcs
  @ DRIVER MODE: Message from server: STATUS
  @ DRIVER MODE: Message from server: POSDATA
  @ DRIVER MODE: Reading and sharing cell
  @ DRIVER MODE: Reading and sharing positions
  @ DRIVER MODE: Received positions

     Self-consistent Calculation

     iteration #  1     ecut=    29.40 Ry     beta= 0.05
     Davidson diagonalization with overlap
     c_bands:  1 eigenvalues not converged
     c_bands:  4 eigenvalues not converged
     c_bands:  2 eigenvalues not converged
     c_bands:  3 eigenvalues not converged
     c_bands:  2 eigenvalues not converged
     c_bands:  3 eigenvalues not converged
     c_bands:  2 eigenvalues not converged
     ethr =  1.00E-05,  avg # of iterations = 19.5

[...]

     total energy              =   -2658.46518416 Ry
     estimated scf accuracy    <    3232.59825983 Ry

[...]

     iteration #  3     ecut=    29.40 Ry     beta= 0.05
     Davidson diagonalization with overlap
     ethr =  1.00E-02,  avg # of iterations = 14.4

[...]

     iteration # 34     ecut=    29.40 Ry     beta= 0.05
     Davidson diagonalization with overlap
     c_bands:  1 eigenvalues not converged
     ethr =  3.36E-07,  avg # of iterations =  7.6

[...]

     total energy              =   -2951.50537016 Ry
     estimated scf accuracy    <       0.00000009 Ry

     iteration # 54     ecut=    29.40 Ry     beta= 0.05
     Davidson diagonalization with overlap
     ethr =  2.37E-11,  avg # of iterations =  3.2

     negative rho (up, down):  1.700E-02 0.000E+00

     Adding external electric field

     Computed dipole along edir(3) :
        Dipole                0.3624 Ry au,          0.9211 Debye
        Dipole field          0.0007 Ry au,

        Potential amp.       -0.0634 Ry
        Total length         46.3494 bohr

     End of self-consistent calculation

          k = 0.0000 0.0000 0.0000 ( 18029 PWs)   bands (ev):

   -56.8874 -56.8538 -56.0108 -55.9749 -55.7626 -55.6988 -55.5441 -55.4462
   -55.4123 -55.3929 -55.3296 -55.3061 -55.2773 -55.2587 -55.0760 -55.0133
   -33.3074 -33.1607 -33.1326 -33.0648 -32.9745 -32.9343 -32.4939 -32.2402
   -32.2313 -32.2028 -32.1510 -32.1485 -32.1220 -31.9957 -31.9807 -31.9317
   -31.9031 -31.8927 -31.8704 -31.8623 -31.8254 -31.7929 -31.7923 -31.7684
   -31.7650 -31.7598 -31.7186 -31.6910 -31.6598 -31.6508 -31.5943 -31.5702
   -31.5468 -31.5294 -31.5251 -31.5202 -31.5029 -31.4822 -31.4748 -31.4689
   -31.4586 -31.4286 -31.3386 -31.3173 -31.2824 -31.2761 -31.2538 -31.2154
   -16.9994 -16.4623 -16.4519 -16.2092 -16.1016 -16.0867 -16.0593 -15.9853
   -15.8002 -15.7292 -15.7016 -15.6510 -15.5270 -15.4036 -15.3070 -15.1598
   -15.0760 -15.0307 -15.0294 -15.0125 -14.9764 -14.9622 -14.9402 -14.8776
   -14.8573 -14.7864 -14.6485 -14.6097 -14.6027 -14.3333 -14.3243 -13.9435
   -13.8364  -7.2039  -4.5716  -4.1483  -3.9723  -3.9323  -3.7670  -3.5949
    -3.5823  -3.4445  -3.4107  -3.2694  -3.2650  -3.2509  -3.1659  -3.1509
    -3.0307  -2.9638  -2.9493  -2.8484  -2.8074  -2.6556  -2.6175  -2.5274
    -2.4748  -2.4538  -2.3910  -2.3417  -2.3150  -2.2907  -2.2657  -2.2094
    -2.1893  -2.1552  -2.0897  -2.0532  -1.9668  -1.9290  -1.9181  -1.9121
    -1.7984  -1.7716  -1.7312  -1.5917  -1.5330  -1.5145  -1.4924  -1.4396
    -1.3804  -1.3567  -1.3062  -1.2058  -1.1287  -1.1136  -1.0467  -1.0295
    -1.0163  -0.8922  -0.8383  -0.7451  -0.7360  -0.7198  -0.6531  -0.5945
    -0.5567  -0.4727  -0.3973  -0.3871  -0.3746  -0.3381  -0.3151  -0.2568
    -0.1467  -0.1059  -0.0570   0.0162   0.0375   0.1264   0.2210   0.2559
     0.2692   0.3139   0.3429   0.3634   0.4212   0.4851   0.4986   0.5676
     0.5755   0.5796   0.6653   0.7560   0.7939   0.8448   0.8689   0.8799
     1.0020   1.0883   1.1122   1.1575   1.5265   1.7498   2.4034   2.5729
     2.8490   3.0034   3.3266   3.3897   3.4027   3.4060   3.6732   3.8027

[...]

          k = 0.0380-0.0419 0.0000 ( 17876 PWs)   bands (ev):

[...]

          k =-0.0760-0.0000 0.0000 ( 17886 PWs)   bands (ev):

[...]

          k =-0.0760-0.0839 0.0000 ( 17948 PWs)   bands (ev):

   -56.8712 -56.8699 -55.9991 -55.9864 -55.7578 -55.7036 -55.5433 -55.4298
   -55.4286 -55.3893 -55.3302 -55.3095 -55.2759 -55.2576 -55.0772 -55.0144
   -33.1471 -33.1458 -33.1253 -33.1239 -33.0188 -33.0178 -32.3194 -32.3085
   -32.1937 -32.1813 -32.1808 -32.1726 -32.0633 -32.0205 -31.9889 -31.9777
   -31.9308 -31.9263 -31.8385 -31.7905 -31.7819 -31.7811 -31.7467 -31.7199
   -31.6991 -31.6516 -31.6500 -31.6497 -31.6474 -31.6365 -31.6158 -31.6113
   -31.6102 -31.6087 -31.5865 -31.5456 -31.5378 -31.5182 -31.5063 -31.4847
   -31.4773 -31.4263 -31.4246 -31.3475 -31.3403 -31.2864 -31.2560 -31.2353
   -16.4461 -16.3622 -16.3600 -16.3097 -16.3082 -16.0593 -16.0543 -15.8037
   -15.7727 -15.5887 -15.5117 -15.4796 -15.4296 -15.3886 -15.3539 -15.2523
   -15.2394 -15.1420 -15.1139 -15.1042 -15.0571 -15.0136 -14.9706 -14.9408
   -14.9015 -14.8110 -14.7518 -14.7166 -14.6129 -14.5166 -14.4672 -13.9409
   -13.9403  -7.1990  -4.1471  -3.9636  -3.4308  -3.4260  -3.4159  -3.4078
    -3.3528  -3.1840  -3.1763  -2.9907  -2.9630  -2.9605  -2.8896  -2.8832
    -2.7763  -2.7111  -2.7052  -2.7042  -2.6697  -2.6424  -2.6362  -2.5794
    -2.4724  -2.4211  -2.3965  -2.3745  -2.3454  -2.3172  -2.2631  -2.1737
    -2.1659  -2.1565  -2.1262  -2.1061  -2.0807  -2.0755  -1.9371  -1.8360
    -1.7643  -1.7157  -1.7058  -1.6906  -1.6640  -1.6283  -1.5977  -1.5843
    -1.5382  -1.4794  -1.4541  -1.3983  -1.3490  -1.3012  -1.2193  -1.1583
    -1.0906  -1.0696  -0.9369  -0.9215  -0.9020  -0.8635  -0.8298  -0.8209
    -0.7456  -0.6721  -0.6130  -0.5977  -0.5369  -0.5139  -0.4789  -0.4411
    -0.4321  -0.3765  -0.3543  -0.3058  -0.2909  -0.1701  -0.0868   0.0349
     0.0667   0.0848   0.1420   0.1750   0.3123   0.3212   0.3716   0.4862
     0.5226   0.6645   0.6818   0.7842   0.8335   0.8955   0.9520   0.9557
     0.9563   0.9824   1.0166   1.0374   1.1137   1.6877   2.9936   2.9964
     3.0535   3.0592   3.3659   3.3700   3.4745   3.4802   3.7844   3.7911

     the Fermi energy is     2.1409 ev

!    total energy              =   -2951.50544620 Ry
     estimated scf accuracy    <       0.00000006 Ry
     smearing contrib. (-TS)   =      -0.00232509 Ry
     internal energy E=F+TS    =   -2951.50312110 Ry

     The total energy is F=E-TS. E is the sum of the following terms:
     one-electron contribution =  -24181.76919239 Ry
     hartree contribution      =   12180.37771011 Ry
     xc contribution           =    -487.03872984 Ry
     ewald contribution        =    9536.92684318 Ry
     electric field correction =       0.00024784 Ry

     convergence has been achieved in  54 iterations

     Forces acting on atoms (cartesian axes, Ry/au):

     atom    1 type  1   force =     0.00001904   -0.00050541    0.12462996
     atom    2 type  1   force =    -0.00009946    0.00035020   -0.15484112
     atom    3 type  2   force =     0.00004644   -0.00012326   -0.06537991
     atom    4 type  2   force =     0.00007429    0.00024427    0.01704515
     atom    5 type  2   force =    -0.00339463   -0.00145104   -0.01348377
     atom    6 type  2   force =     0.00543452   -0.00094198   -0.01320087
     atom    7 type  1   force =     0.00030017   -0.00646000    0.05887043
     atom    8 type  1   force =     0.00011325    0.00855742    0.09581322
     atom    9 type  2   force =     0.00026594   -0.00011409    0.00025861
     atom   10 type  2   force =    -0.00166857    0.00093405   -0.05964784
     atom   11 type  2   force =     0.00078224   -0.00033991   -0.00034173
     atom   12 type  2   force =    -0.00101028   -0.00073989   -0.00008211
     atom   13 type  1   force =    -0.00020310   -0.00074486    0.00007287
     atom   14 type  1   force =     0.00003870   -0.00066364   -0.00012217
     atom   15 type  2   force =     0.00007166   -0.00025433   -0.00009138
     atom   16 type  2   force =    -0.00008700    0.00001707   -0.00043859
     atom   17 type  2   force =     0.00020864   -0.00012517   -0.00017475
     atom   18 type  2   force =    -0.00043159   -0.00017894   -0.00013717
     atom   19 type  1   force =    -0.00016990   -0.00138424    0.00018436
     atom   20 type  1   force =    -0.00021426   -0.00009255   -0.00017998
     atom   21 type  2   force =     0.00002477    0.00021581    0.09782859
     atom   22 type  2   force =    -0.00027183   -0.00035041    0.00020482
     atom   23 type  2   force =    -0.08254564    0.00005548   -0.03295064
     atom   24 type  2   force =     0.08243183    0.00049497   -0.03300479
     atom   25 type  1   force =     0.00002590   -0.00057781    0.12485416
     atom   26 type  1   force =    -0.00018809   -0.00147272   -0.15522655
     atom   27 type  2   force =     0.00011541   -0.00079778   -0.06369252
     atom   28 type  2   force =     0.00005730    0.00198419    0.01250019
     atom   29 type  2   force =    -0.00156728    0.00507880   -0.01680092
     atom   30 type  2   force =     0.00371521    0.00540138   -0.01641329
     atom   31 type  1   force =     0.00000079    0.00180521    0.04175831
     atom   32 type  1   force =     0.00011280   -0.01184507    0.09588846
     atom   33 type  2   force =     0.00001421   -0.00022400   -0.00028325
     atom   34 type  2   force =    -0.00105301    0.00153933   -0.07417397
     atom   35 type  2   force =    -0.00041671    0.00018344    0.00009028
     atom   36 type  2   force =     0.00112095    0.00043798    0.00015712
     atom   37 type  1   force =    -0.00030179    0.00060991    0.00025424
     atom   38 type  1   force =     0.00021312   -0.00053432    0.00002478
     atom   39 type  2   force =     0.00015039    0.00024303    0.00011617
     atom   40 type  2   force =    -0.00005061   -0.00050440   -0.00060250
     atom   41 type  2   force =     0.00050652    0.00009541   -0.00021864
     atom   42 type  2   force =    -0.00075681   -0.00008937    0.00006590
     atom   43 type  1   force =     0.00005060    0.00103136   -0.00064125
     atom   44 type  1   force =    -0.00001488    0.00002154   -0.00047655
     atom   45 type  2   force =     0.00004126    0.00001880    0.09765098
     atom   46 type  2   force =    -0.08260764    0.00001471   -0.03296071
     atom   47 type  2   force =     0.08248315    0.00044403   -0.03301348
     atom   48 type  3   force =    -0.00059264   -0.00004085    0.00019997
     atom   49 type  4   force =     0.00157538   -0.00004465    0.00019389
     atom   50 type  5   force =    -0.00086151   -0.00008386   -0.00020625
     atom   51 type  5   force =    -0.00057472    0.00002769    0.00013967
     atom   52 type  2   force =     0.00012525    0.00055942    0.00009963
     atom   53 type  5   force =    -0.00103780    0.00031905   -0.00011505

     Total force =     0.415479     Total SCF correction =     0.000716
  @ DRIVER MODE: Message from server: STATUS
  @ DRIVER MODE: Message from server: GETFORCE
  @ DRIVER MODE: Returning v,forces,stress,ensemble

     Writing output data file ./calc.save/
  @ DRIVER MODE: Message from server: EXIT
  @ DRIVE MODE: Exiting

     General routines

     Parallel routines

   This run was terminated on:  20:48:23  22Sep2021

   JOB DONE.