     Program PWSCF v.6.7GPU starts on 23Aug2021 at 19:27:12

     R & G space division:  proc/nbgrp/npool/nimage =       6
     Reading input from /storage/home/hcoda1/3/ntian30/research/carbon/CH2_vib/ads_slab/CH2NNHHH_a/out_0013/pw.inp
Warning: card &CELL ignored
Warning: card   CELL_DYNAMICS='IPI', ignored
Warning: card / ignored

     Current dimensions of program PWSCF are:
     Max number of different atomic species (ntypx) = 10
     Max number of k-points (npk) =  40000
     Max angular momentum in pseudopotentials (lmaxx) =  3
     Presently no symmetry can be used with electric field

     Message from routine cell_base_init:
     DEPRECATED: use true lattice parameter, not A to a.u. conversion factor

     IMPORTANT: XC functional enforced from input :
     Exchange-correlation= BEEF-VDW
                           (   1   4  43  14   2   0   0)
     Any further DFT definition will be discarded
     Please, verify this is what you really want

  @ DRIVER MODE: Connecting to
 qe_1139763_2632806.sched-torque.pace.gatech.edu074g6j4r_scratch
  using UNIX socket
  @ DRIVER MODE: Message from server: STATUS
  @ DRIVER MODE: Message from server: INIT
  @ DRIVER MODE: Receiving replica           0          -1
  @ DRIVER MODE: Receiving encoded integer          25
  @ DRIVER MODE:  SCF:  T  FORCE:  T  STRESS:  F  VC:  F  ENSEMBLE:  F
  @ DRIVER MODE:  SCF:  T  FORCE:  T  STRESS:  F  VC:  F  ENSEMBLE:  F

     Using Slab Decomposition

     bravais-lattice index     =            0
     lattice parameter (alat)  =       1.8897  a.u.
     unit-cell volume          =    6658.9804 (a.u.)^3
     number of atoms/cell      =           55
     number of atomic types    =            5
     number of electrons       =       397.00
     number of Kohn-Sham states=          208
     kinetic-energy cutoff     =      29.3995  Ry
     charge density cutoff     =     293.9946  Ry
     scf convergence threshold =      7.3E-08
     mixing beta               =       0.0500
     number of iterations used =            8  plain     mixing
     Exchange-correlation= BEEF-VDW
                           (   1   4  43  14   2   0   0)

     celldm(1)=   1.889726  celldm(2)=   0.000000  celldm(3)=   0.000000
     celldm(4)=   0.000000  celldm(5)=   0.000000  celldm(6)=   0.000000

     crystal axes: (cart. coord. in units of alat)
               a(1) = (   6.579727   0.000000   0.000000 )
               a(2) = (  -0.000775   5.961596   0.000000 )
               a(3) = (   0.000000   0.000000  25.155947 )

     reciprocal axes: (cart. coord. in units 2 pi/alat)
               b(1) = (  0.151982  0.000020  0.000000 )
               b(2) = (  0.000000  0.167740  0.000000 )
               b(3) = (  0.000000  0.000000  0.039752 )

     PseudoPot. # 1 for Ti read from file:
     /storage/coda1/p-amedford6/0/shared/rich_project_chbe-medford/medford-share/data/pseudos_module/espresso/nninc/pbe/van/Ti.UPF
     MD5 check sum: 8e4df49b7f0d34bbd5052bf3f5ea0213
     Pseudo is Ultrasoft, Zval = 12.0
     Generated by new atomic code, or converted to UPF format
     Using radial grid of  851 points,  6 beta functions with:
                l(1) =   0
                l(2) =   0
                l(3) =   1
                l(4) =   1
                l(5) =   2
                l(6) =   2
     Q(r) pseudized with  8 coefficients,  rinner =    1.000   1.000   1.000
                                                       1.000   1.000

     PseudoPot. # 2 for O  read from file:
     /storage/coda1/p-amedford6/0/shared/rich_project_chbe-medford/medford-share/data/pseudos_module/espresso/nninc/pbe/van/O.UPF
     MD5 check sum: 78c19812648e8988a0fe644b0f25305e
     Pseudo is Ultrasoft, Zval =  6.0
     Generated by new atomic code, or converted to UPF format
     Using radial grid of  737 points,  4 beta functions with:
                l(1) =   0
                l(2) =   0
                l(3) =   1
                l(4) =   1
     Q(r) pseudized with  8 coefficients,  rinner =    0.800   0.800   0.800

     PseudoPot. # 3 for N  read from file:
     /storage/coda1/p-amedford6/0/shared/rich_project_chbe-medford/medford-share/data/pseudos_module/espresso/nninc/pbe/van/N.UPF
     MD5 check sum: 90d10febe142ad51ac9d5be1deb811c4
     Pseudo is Ultrasoft, Zval =  5.0
     Generated by new atomic code, or converted to UPF format
     Using radial grid of  729 points,  4 beta functions with:
                l(1) =   0
                l(2) =   0
                l(3) =   1
                l(4) =   1
     Q(r) pseudized with  8 coefficients,  rinner =    0.800   0.800   0.800

     PseudoPot. # 4 for C  read from file:
     /storage/coda1/p-amedford6/0/shared/rich_project_chbe-medford/medford-share/data/pseudos_module/espresso/nninc/pbe/van/C.UPF
     MD5 check sum: 1a69bf6b8db32088f5b2163dbdb77a27
     Pseudo is Ultrasoft, Zval =  4.0
     Generated by new atomic code, or converted to UPF format
     Using radial grid of  721 points,  4 beta functions with:
                l(1) =   0
                l(2) =   0
                l(3) =   1
                l(4) =   1
     Q(r) pseudized with  8 coefficients,  rinner =    0.800   0.800   0.800

     PseudoPot. # 5 for H  read from file:
     /storage/coda1/p-amedford6/0/shared/rich_project_chbe-medford/medford-share/data/pseudos_module/espresso/nninc/pbe/van/H.UPF
     MD5 check sum: b5ee9d7bfd3a09ee7748110bda690ff7
     Pseudo is Ultrasoft, Zval =  1.0
     Generated by new atomic code, or converted to UPF format
     Using radial grid of  615 points,  1 beta functions with:
                l(1) =   0
     Q(r) pseudized with  8 coefficients,  rinner =    0.800

     atomic species   valence    mass     pseudopotential
        Ti1           12.00    47.86700     Ti( 1.00)
        O1             6.00    15.99900     O ( 1.00)
        N1             5.00    14.00700     N ( 1.00)
        C1             4.00    12.01100     C ( 1.00)
        H1             1.00     1.00800     H ( 1.00)

     No symmetry found

   Cartesian axes

     site n.     atom                  positions (alat units)
         1           Ti1 tau(   1) = (   0.0004258   2.9801865   6.0000000  )
         2           Ti1 tau(   2) = (   3.2906075   1.4906267   6.0002472  )
         3           O1  tau(   3) = (   0.0006271   0.0005054   7.9858123  )
         4           O1  tau(   4) = (   3.2906025   0.0005020   7.3038282  )
         5           O1  tau(   5) = (   4.5942328   1.4918067   9.2879030  )
         6           O1  tau(   6) = (   1.9868534   1.4903216   9.2879459  )
         7           Ti1 tau(   7) = (   3.2907910   2.8959150   9.1758416  )
         8           Ti1 tau(   8) = (   0.0015273   1.4827037   9.2680791  )
         9           O1  tau(   9) = (   3.2797308   5.9473376  11.3602069  )
        10           O1  tau(  10) = (   0.0116148   5.9584955  10.6183126  )
        11           O1  tau(  11) = (   1.2902197   1.4970218  12.6485984  )
        12           O1  tau(  12) = (   5.2825647   1.4998509  12.6204812  )
        13           Ti1 tau(  13) = (   6.5707130   2.9731531  12.5352273  )
        14           Ti1 tau(  14) = (   3.2824754   1.4851695  12.4964603  )
        15           O1  tau(  15) = (   6.5335774   0.0914421  14.6722524  )
        16           O1  tau(  16) = (   3.3157438   0.0180770  13.9903400  )
        17           O1  tau(  17) = (   4.5084513   1.5196572  16.2619966  )
        18           O1  tau(  18) = (   2.0062152   1.4815140  16.1839734  )
        19           Ti1 tau(  19) = (   3.2259906   2.9465836  15.7211513  )
        20           Ti1 tau(  20) = (   6.5090593   1.4075841  16.1508600  )
        21           O1  tau(  21) = (   3.2904802   0.0005063   4.7018136  )
        22           O1  tau(  22) = (   6.5630310   5.8123487  17.2302531  )
        23           O1  tau(  23) = (   1.3043587   1.4918075   6.0039043  )
        24           O1  tau(  24) = (   5.2767064   1.4903225   6.0039473  )
        25           Ti1 tau(  25) = (   0.0000382   5.9609847   6.0000000  )
        26           Ti1 tau(  26) = (   3.2902200   4.4714249   6.0002472  )
        27           O1  tau(  27) = (   0.0002396   2.9813036   7.9858123  )
        28           O1  tau(  28) = (   3.2902150   2.9813002   7.3038282  )
        29           O1  tau(  29) = (   4.5938453   4.4726049   9.2879030  )
        30           O1  tau(  30) = (   1.9864658   4.4711199   9.2879459  )
        31           Ti1 tau(  31) = (   3.2891106   5.8743827   9.1763621  )
        32           Ti1 tau(  32) = (   0.0006254   4.4649316   9.2693709  )
        33           O1  tau(  33) = (   3.2783824   2.9878764  11.3535400  )
        34           O1  tau(  34) = (   0.0092240   2.9805883  10.6323155  )
        35           O1  tau(  35) = (   1.2857266   4.4729298  12.7006550  )
        36           O1  tau(  36) = (   5.2845514   4.4687958  12.6640455  )
        37           Ti1 tau(  37) = (   6.5734551   0.0101047  12.5124135  )
        38           Ti1 tau(  38) = (   3.2852174   4.4611384  12.5175569  )
        39           O1  tau(  39) = (   6.5279837   2.9480221  14.9030702  )
        40           O1  tau(  40) = (   3.2956390   2.9588503  13.9390168  )
        41           O1  tau(  41) = (   4.4992944   4.4159585  16.2207858  )
        42           O1  tau(  42) = (   2.0104883   4.4624356  16.0673450  )
        43           Ti1 tau(  43) = (   3.2790961   0.0058003  15.7788240  )
        44           Ti1 tau(  44) = (   0.0606790   4.6093333  15.7554573  )
        45           O1  tau(  45) = (   3.2900926   2.9813045   4.7018136  )
        46           O1  tau(  46) = (   1.3039711   4.4726057   6.0039043  )
        47           O1  tau(  47) = (   5.2763189   4.4711207   6.0039473  )
        48           N1  tau(  48) = (   0.0403274   2.7191540  18.0026804  )
        49           C1  tau(  49) = (   0.9398849   2.4944932  18.9664025  )
        50           H1  tau(  50) = (   0.8973005   3.0183022  19.9142263  )
        51           H1  tau(  51) = (   1.7098349   1.7704235  18.7615287  )
        52           N1  tau(  52) = (   5.5765855   3.6054979  18.4816711  )
        53           H1  tau(  53) = (   5.9881759   4.5320851  18.7147717  )
        54           H1  tau(  54) = (   4.9344470   3.8465857  17.6610935  )
        55           H1  tau(  55) = (   5.0674124   3.1947177  19.2767304  )

     number of k points=    10  Fermi-Dirac smearing, width (Ry)=  0.0073
                       cart. coord. in units 2pi/alat
        k(    1) = (   0.0000000   0.0000000   0.0000000), wk =   0.1250000
        k(    2) = (   0.0000000   0.0419351   0.0000000), wk =   0.2500000
        k(    3) = (   0.0000000  -0.0838702   0.0000000), wk =   0.1250000
        k(    4) = (   0.0379955   0.0000049   0.0000000), wk =   0.2500000
        k(    5) = (   0.0379955   0.0419400   0.0000000), wk =   0.2500000
        k(    6) = (   0.0379955  -0.0838652   0.0000000), wk =   0.2500000
        k(    7) = (   0.0379955  -0.0419301   0.0000000), wk =   0.2500000
        k(    8) = (  -0.0759910  -0.0000099   0.0000000), wk =   0.1250000
        k(    9) = (  -0.0759910   0.0419252   0.0000000), wk =   0.2500000
        k(   10) = (  -0.0759910  -0.0838800   0.0000000), wk =   0.1250000

     Initial potential from superposition of free atoms

     starting charge  380.99914, renormalised to  397.00000

     negative rho (up, down):  1.589E-02 0.000E+00

     %%%%%%%%%%%%%%%%%%%%%%%%%%%%%%%%%%%%%%%%%%%%%%%%%%%%%%%%%%%%%%%%%%%%%%%%
     %                                                                      %
     % You are using vdW-DF, which was implemented by the Thonhauser group. %
     % Please cite the following two papers that made this development      %
     % possible and the two reviews that describe the various versions:     %
     %                                                                      %
     %   T. Thonhauser et al., PRL 115, 136402 (2015).                      %
     %   T. Thonhauser et al., PRB 76, 125112 (2007).                       %
     %   K. Berland et al., Rep. Prog. Phys. 78, 066501 (2015).             %
     %   D.C. Langreth et al., J. Phys.: Condens. Matter 21, 084203 (2009). %
     %                                                                      %
     %                                                                      %
     % If you are calculating the stress with vdW-DF, please also cite:     %
     %                                                                      %
     %   R. Sabatini et al., J. Phys.: Condens. Matter 24, 424209 (2012).   %
     %                                                                      %
     %%%%%%%%%%%%%%%%%%%%%%%%%%%%%%%%%%%%%%%%%%%%%%%%%%%%%%%%%%%%%%%%%%%%%%%%

     Adding external electric field

     Computed dipole along edir(3) :
        Dipole              -10.3122 Ry au,        -26.2111 Debye
        Dipole field         -0.0195 Ry au,

        Potential amp.        1.8040 Ry
        Total length         46.3494 bohr

     Starting wfcs are  301 atomic wfcs
  @ DRIVER MODE: Message from server: STATUS
  @ DRIVER MODE: Message from server: POSDATA
  @ DRIVER MODE: Reading and sharing cell
  @ DRIVER MODE: Reading and sharing positions
  @ DRIVER MODE: Received positions

     Self-consistent Calculation

     iteration #  1     ecut=    29.40 Ry     beta= 0.05
     Davidson diagonalization with overlap
     c_bands:  3 eigenvalues not converged
     c_bands:  2 eigenvalues not converged
     c_bands:  3 eigenvalues not converged
     c_bands:  2 eigenvalues not converged
     c_bands:  3 eigenvalues not converged
     c_bands:  2 eigenvalues not converged
     c_bands:  3 eigenvalues not converged
     c_bands:  2 eigenvalues not converged
     c_bands:  2 eigenvalues not converged
     c_bands:  3 eigenvalues not converged
     ethr =  1.00E-05,  avg # of iterations = 20.0

[...]

     total energy              =   -2480.06764159 Ry
     estimated scf accuracy    <    5159.15360133 Ry

     iteration #  2     ecut=    29.40 Ry     beta= 0.05
     Davidson diagonalization with overlap
     ethr =  1.00E-02,  avg # of iterations = 22.4

[...]

     iteration # 72     ecut=    29.40 Ry     beta= 0.05
     Davidson diagonalization with overlap
     c_bands:  1 eigenvalues not converged
     ethr =  2.79E-11,  avg # of iterations =  9.8

[...]

     total energy              =   -2941.49086687 Ry
     estimated scf accuracy    <       0.00000010 Ry

     iteration # 73     ecut=    29.40 Ry     beta= 0.05
     Davidson diagonalization with overlap
     ethr =  2.62E-11,  avg # of iterations = 11.6

     negative rho (up, down):  1.345E-02 0.000E+00

     Adding external electric field

     Computed dipole along edir(3) :
        Dipole                1.3643 Ry au,          3.4678 Debye
        Dipole field          0.0026 Ry au,

        Potential amp.       -0.2387 Ry
        Total length         46.3494 bohr

     End of self-consistent calculation

          k = 0.0000 0.0000 0.0000 ( 18029 PWs)   bands (ev):

   -55.2836 -55.2447 -55.2446 -55.2105 -55.1592 -55.1571 -55.1205 -55.0937
   -55.0766 -55.0754 -55.0590 -55.0422 -54.9561 -54.7906 -54.2626 -54.2285
   -31.8558 -31.7354 -31.6455 -31.6105 -31.5835 -31.5811 -31.5786 -31.5342
   -31.5316 -31.4914 -31.4897 -31.4892 -31.4569 -31.4540 -31.4400 -31.4184
   -31.4031 -31.3983 -31.3939 -31.3928 -31.3569 -31.3515 -31.3378 -31.3243
   -31.3016 -31.2963 -31.2899 -31.2860 -31.2737 -31.2704 -31.2605 -31.2505
   -31.2437 -31.2387 -31.2087 -31.2044 -31.1975 -31.1852 -31.1477 -31.1049
   -31.0614 -30.9321 -30.6714 -30.5786 -30.5565 -30.4879 -30.4012 -30.2901
   -19.2277 -16.1252 -15.8630 -15.7351 -15.5435 -15.4773 -15.3819 -15.2440
   -15.1926 -15.1317 -15.0821 -15.0420 -15.0287 -14.9632 -14.9060 -14.8174
   -14.8159 -14.7991 -14.7889 -14.7771 -14.7736 -14.7114 -14.7087 -14.6814
   -14.6668 -14.6566 -14.5160 -14.4319 -14.3705 -14.2788 -14.0254 -12.7651
   -12.6479  -9.1457  -7.8011  -7.0650  -5.9959  -3.8342  -3.4629  -3.2900
    -3.2435  -3.2030  -3.1782  -3.0096  -2.9281  -2.6606  -2.5925  -2.5530
    -2.5054  -2.4942  -2.4687  -2.2963  -2.2661  -2.2264  -2.1898  -2.1659
    -2.1262  -2.0983  -2.0823  -2.0531  -2.0400  -2.0379  -1.8558  -1.7844
    -1.7627  -1.7021  -1.6841  -1.6680  -1.6107  -1.5817  -1.5687  -1.5663
    -1.5435  -1.5263  -1.5037  -1.4607  -1.3738  -1.2822  -1.2378  -1.2166
    -1.1031  -1.0394  -0.9146  -0.8725  -0.8583  -0.8310  -0.7592  -0.6931
    -0.6652  -0.6293  -0.4893  -0.4847  -0.4003  -0.3909  -0.3175  -0.3007
    -0.2606  -0.2150  -0.1035  -0.0700  -0.0485   0.0032   0.0665   0.0886
     0.1704   0.2246   0.2814   0.2953   0.3748   0.4148   0.4523   0.4741
     0.5611   0.6029   0.6625   0.6688   0.7059   0.7091   0.7344   0.8208
     0.8341   0.8538   0.8946   1.0641   1.2643   1.3164   1.3372   1.6700
     1.6892   1.7601   1.9454   2.3348   2.3823   3.8176   3.8831   3.9536
     3.9681   3.9783   4.0501   4.0952   4.2850   4.3140   4.3170   4.3387

[...]

          k = 0.0380-0.0419 0.0000 ( 17876 PWs)   bands (ev):

[...]

          k =-0.0760-0.0000 0.0000 ( 17886 PWs)   bands (ev):

[...]

          k =-0.0760-0.0839 0.0000 ( 17948 PWs)   bands (ev):

   -55.2715 -55.2565 -55.2276 -55.2275 -55.1555 -55.1452 -55.1324 -55.0802
   -55.0773 -55.0745 -55.0597 -55.0585 -54.9545 -54.7921 -54.2455 -54.2455
   -31.6653 -31.6523 -31.5785 -31.5506 -31.5504 -31.5469 -31.5197 -31.5195
   -31.4921 -31.4838 -31.4791 -31.4754 -31.4210 -31.4120 -31.4119 -31.4085
   -31.4065 -31.4022 -31.3957 -31.3806 -31.3684 -31.3578 -31.3535 -31.3470
   -31.3468 -31.3447 -31.3432 -31.3276 -31.3108 -31.3078 -31.2914 -31.2888
   -31.2841 -31.2826 -31.2820 -31.2512 -31.2399 -31.2382 -31.1651 -31.0918
   -31.0622 -31.0097 -30.5692 -30.5691 -30.4840 -30.4838 -30.4446 -30.4445
   -19.2239 -15.5904 -15.5139 -15.4580 -15.3681 -15.2900 -15.2700 -15.2601
   -15.2269 -15.1601 -15.1367 -15.0717 -15.0367 -14.9909 -14.9881 -14.9730
   -14.8883 -14.8691 -14.8540 -14.8498 -14.7887 -14.7873 -14.7604 -14.7380
   -14.7313 -14.7275 -14.6277 -14.6267 -14.4625 -14.4323 -14.1991 -12.7495
   -12.7494  -9.1328  -7.8110  -7.0490  -6.0062  -3.8575  -2.8516  -2.7650
    -2.6755  -2.5190  -2.4816  -2.4717  -2.4164  -2.3257  -2.2999  -2.2866
    -2.2662  -2.2591  -2.1862  -2.1810  -2.1369  -2.1153  -2.1044  -2.0986
    -2.0646  -2.0514  -2.0378  -2.0011  -1.9927  -1.9764  -1.9422  -1.9226
    -1.8981  -1.8702  -1.8562  -1.8269  -1.7033  -1.6742  -1.6304  -1.5688
    -1.5433  -1.4763  -1.4710  -1.3700  -1.3569  -1.3460  -1.3049  -1.2908
    -1.2720  -1.1080  -1.0633  -1.0279  -1.0164  -1.0105  -0.8547  -0.8382
    -0.7701  -0.7544  -0.7394  -0.6629  -0.6217  -0.6059  -0.5253  -0.4858
    -0.4557  -0.4351  -0.2926  -0.2803  -0.2549  -0.2402  -0.2336  -0.1409
    -0.1205  -0.0846  -0.0504  -0.0124   0.0040   0.0632   0.2166   0.2430
     0.2798   0.4240   0.4394   0.5246   0.5720   0.6993   0.7639   0.7661
     0.8475   0.9175   1.0194   1.0319   1.0511   1.1371   1.1833   1.1883
     1.1895   2.1181   2.1190   2.2024   2.2026   3.6943   3.9572   4.0794
     4.0857   4.1280   4.2509   4.3345   4.3579   4.3958   4.3982   4.4802

     the Fermi energy is     3.8726 ev

!    total energy              =   -2941.49088238 Ry
     estimated scf accuracy    <       0.00000005 Ry
     smearing contrib. (-TS)   =      -0.04232515 Ry
     internal energy E=F+TS    =   -2941.44855723 Ry

     The total energy is F=E-TS. E is the sum of the following terms:
     one-electron contribution =  -23922.02465350 Ry
     hartree contribution      =   12054.19617337 Ry
     xc contribution           =    -486.85949596 Ry
     ewald contribution        =    9413.23590608 Ry
     electric field correction =       0.00351278 Ry

     convergence has been achieved in  73 iterations

     Forces acting on atoms (cartesian axes, Ry/au):

     atom    1 type  1   force =     0.00017049   -0.00017526    0.09403839
     atom    2 type  1   force =    -0.00005457   -0.00042468   -0.17754476
     atom    3 type  2   force =     0.00006606   -0.00004127   -0.02099182
     atom    4 type  2   force =     0.00001820   -0.00180415    0.05732416
     atom    5 type  2   force =    -0.01086177   -0.00090705    0.00783051
     atom    6 type  2   force =     0.01207340   -0.00033802    0.00622712
     atom    7 type  1   force =    -0.00065592    0.00290506   -0.01531304
     atom    8 type  1   force =     0.00059429    0.00233653    0.00233264
     atom    9 type  2   force =    -0.00010414    0.00013373    0.00092867
     atom   10 type  2   force =    -0.00165420   -0.00049213   -0.00377854
     atom   11 type  2   force =    -0.00005429   -0.00023776    0.00021094
     atom   12 type  2   force =    -0.00018383   -0.00039966    0.00028024
     atom   13 type  1   force =     0.00042796    0.00109414    0.00061562
     atom   14 type  1   force =     0.00020435   -0.00061772    0.00035793
     atom   15 type  2   force =    -0.00018187    0.00032267    0.00053190
     atom   16 type  2   force =    -0.00016440   -0.00024895   -0.00117738
     atom   17 type  2   force =     0.00006957   -0.00026275    0.00015800
     atom   18 type  2   force =    -0.00079856   -0.00032544    0.00014499
     atom   19 type  1   force =    -0.00053121    0.00108487   -0.00046755
     atom   20 type  1   force =    -0.00037377    0.00135238   -0.00118802
     atom   21 type  2   force =     0.00010957   -0.00004419    0.10377951
     atom   22 type  2   force =     0.00008037    0.00023308    0.00054604
     atom   23 type  2   force =    -0.07063359   -0.00017074   -0.02706399
     atom   24 type  2   force =     0.07057797    0.00030516   -0.02710026
     atom   25 type  1   force =     0.00015072   -0.00024246    0.09336731
     atom   26 type  1   force =    -0.00000782   -0.00038128   -0.17776943
     atom   27 type  2   force =     0.00010937   -0.00040091   -0.02001875
     atom   28 type  2   force =     0.00003425   -0.00146682    0.05680651
     atom   29 type  2   force =    -0.01076872   -0.00066200    0.00674631
     atom   30 type  2   force =     0.01188491   -0.00016885    0.00510284
     atom   31 type  1   force =    -0.00063029    0.00409459   -0.01561613
     atom   32 type  1   force =     0.00067505   -0.00279561    0.00211797
     atom   33 type  2   force =     0.00015637   -0.00022105   -0.00058374
     atom   34 type  2   force =    -0.00109157    0.00271962   -0.00199566
     atom   35 type  2   force =     0.00008361    0.00020192    0.00009601
     atom   36 type  2   force =    -0.00032632    0.00033977   -0.00007320
     atom   37 type  1   force =     0.00046782   -0.00008962    0.00031582
     atom   38 type  1   force =     0.00009398    0.00089275    0.00015156
     atom   39 type  2   force =    -0.00004184   -0.00098775    0.00042290
     atom   40 type  2   force =    -0.00023577   -0.00043190    0.00063422
     atom   41 type  2   force =    -0.00026409   -0.00007442   -0.00014907
     atom   42 type  2   force =     0.00012948    0.00000820    0.00023710
     atom   43 type  1   force =     0.00001123   -0.00146600    0.00088806
     atom   44 type  1   force =    -0.00007520   -0.00085458   -0.00140295
     atom   45 type  2   force =     0.00009718   -0.00007789    0.10377072
     atom   46 type  2   force =    -0.07065463   -0.00010363   -0.02707022
     atom   47 type  2   force =     0.07060485    0.00027963   -0.02710900
     atom   48 type  3   force =    -0.00089022   -0.00063626   -0.00086232
     atom   49 type  4   force =    -0.00127801    0.00052741    0.00161292
     atom   50 type  5   force =     0.00232644   -0.00095129   -0.00099266
     atom   51 type  5   force =    -0.00007930    0.00083237    0.00043154
     atom   52 type  3   force =    -0.00004192    0.00027125    0.00030485
     atom   53 type  5   force =     0.00036600   -0.00148034   -0.00068697
     atom   54 type  5   force =     0.00044030   -0.00022292    0.00100619
     atom   55 type  5   force =     0.00061397    0.00027022   -0.00036402

     Total force =     0.365731     Total SCF correction =     0.000453
  @ DRIVER MODE: Message from server: STATUS
  @ DRIVER MODE: Message from server: GETFORCE
  @ DRIVER MODE: Returning v,forces,stress,ensemble

     Writing output data file ./calc.save/
  @ DRIVER MODE: Message from server: EXIT
  @ DRIVE MODE: Exiting

     General routines

     Parallel routines

   This run was terminated on:  19:58:41  23Aug2021

   JOB DONE.