     Program PWSCF v.6.7GPU starts on 18Aug2021 at 19:30: 9

     R & G space division:  proc/nbgrp/npool/nimage =       6
     Reading input from /storage/home/hcoda1/3/ntian30/research/carbon/CH3_vib_side_on/ads_slab/CH3N2_c/out_0016/pw.inp
Warning: card &CELL ignored
Warning: card   CELL_DYNAMICS='IPI', ignored
Warning: card / ignored

     Current dimensions of program PWSCF are:
     Max number of different atomic species (ntypx) = 10
     Max number of k-points (npk) =  40000
     Max angular momentum in pseudopotentials (lmaxx) =  3
     Presently no symmetry can be used with electric field

     Message from routine cell_base_init:
     DEPRECATED: use true lattice parameter, not A to a.u. conversion factor

     IMPORTANT: XC functional enforced from input :
     Exchange-correlation= BEEF-VDW
                           (   1   4  43  14   2   0   0)
     Any further DFT definition will be discarded
     Please, verify this is what you really want

  @ DRIVER MODE: Connecting to
 qe_1139763_2594174.sched-torque.pace.gatech.eduyka2v__s_scratch
  using UNIX socket
  @ DRIVER MODE: Message from server: STATUS
  @ DRIVER MODE: Message from server: INIT
  @ DRIVER MODE: Receiving replica           0          -1
  @ DRIVER MODE: Receiving encoded integer          25
  @ DRIVER MODE:  SCF:  T  FORCE:  T  STRESS:  F  VC:  F  ENSEMBLE:  F
  @ DRIVER MODE:  SCF:  T  FORCE:  T  STRESS:  F  VC:  F  ENSEMBLE:  F

     Using Slab Decomposition

     bravais-lattice index     =            0
     lattice parameter (alat)  =       1.8897  a.u.
     unit-cell volume          =    6658.9804 (a.u.)^3
     number of atoms/cell      =           53
     number of atomic types    =            5
     number of electrons       =       395.00
     number of Kohn-Sham states=          207
     kinetic-energy cutoff     =      29.3995  Ry
     charge density cutoff     =     293.9946  Ry
     scf convergence threshold =      7.3E-08
     mixing beta               =       0.0500
     number of iterations used =            8  plain     mixing
     Exchange-correlation= BEEF-VDW
                           (   1   4  43  14   2   0   0)

     celldm(1)=   1.889726  celldm(2)=   0.000000  celldm(3)=   0.000000
     celldm(4)=   0.000000  celldm(5)=   0.000000  celldm(6)=   0.000000

     crystal axes: (cart. coord. in units of alat)
               a(1) = (   6.579727   0.000000   0.000000 )
               a(2) = (  -0.000775   5.961596   0.000000 )
               a(3) = (   0.000000   0.000000  25.155947 )

     reciprocal axes: (cart. coord. in units 2 pi/alat)
               b(1) = (  0.151982  0.000020  0.000000 )
               b(2) = (  0.000000  0.167740  0.000000 )
               b(3) = (  0.000000  0.000000  0.039752 )

     PseudoPot. # 1 for Ti read from file:
     /storage/coda1/p-amedford6/0/shared/rich_project_chbe-medford/medford-share/data/pseudos_module/espresso/nninc/pbe/van/Ti.UPF
     MD5 check sum: 8e4df49b7f0d34bbd5052bf3f5ea0213
     Pseudo is Ultrasoft, Zval = 12.0
     Generated by new atomic code, or converted to UPF format
     Using radial grid of  851 points,  6 beta functions with:
                l(1) =   0
                l(2) =   0
                l(3) =   1
                l(4) =   1
                l(5) =   2
                l(6) =   2
     Q(r) pseudized with  8 coefficients,  rinner =    1.000   1.000   1.000
                                                       1.000   1.000

     PseudoPot. # 2 for O  read from file:
     /storage/coda1/p-amedford6/0/shared/rich_project_chbe-medford/medford-share/data/pseudos_module/espresso/nninc/pbe/van/O.UPF
     MD5 check sum: 78c19812648e8988a0fe644b0f25305e
     Pseudo is Ultrasoft, Zval =  6.0
     Generated by new atomic code, or converted to UPF format
     Using radial grid of  737 points,  4 beta functions with:
                l(1) =   0
                l(2) =   0
                l(3) =   1
                l(4) =   1
     Q(r) pseudized with  8 coefficients,  rinner =    0.800   0.800   0.800

     PseudoPot. # 3 for N  read from file:
     /storage/coda1/p-amedford6/0/shared/rich_project_chbe-medford/medford-share/data/pseudos_module/espresso/nninc/pbe/van/N.UPF
     MD5 check sum: 90d10febe142ad51ac9d5be1deb811c4
     Pseudo is Ultrasoft, Zval =  5.0
     Generated by new atomic code, or converted to UPF format
     Using radial grid of  729 points,  4 beta functions with:
                l(1) =   0
                l(2) =   0
                l(3) =   1
                l(4) =   1
     Q(r) pseudized with  8 coefficients,  rinner =    0.800   0.800   0.800

     PseudoPot. # 4 for C  read from file:
     /storage/coda1/p-amedford6/0/shared/rich_project_chbe-medford/medford-share/data/pseudos_module/espresso/nninc/pbe/van/C.UPF
     MD5 check sum: 1a69bf6b8db32088f5b2163dbdb77a27
     Pseudo is Ultrasoft, Zval =  4.0
     Generated by new atomic code, or converted to UPF format
     Using radial grid of  721 points,  4 beta functions with:
                l(1) =   0
                l(2) =   0
                l(3) =   1
                l(4) =   1
     Q(r) pseudized with  8 coefficients,  rinner =    0.800   0.800   0.800

     PseudoPot. # 5 for H  read from file:
     /storage/coda1/p-amedford6/0/shared/rich_project_chbe-medford/medford-share/data/pseudos_module/espresso/nninc/pbe/van/H.UPF
     MD5 check sum: b5ee9d7bfd3a09ee7748110bda690ff7
     Pseudo is Ultrasoft, Zval =  1.0
     Generated by new atomic code, or converted to UPF format
     Using radial grid of  615 points,  1 beta functions with:
                l(1) =   0
     Q(r) pseudized with  8 coefficients,  rinner =    0.800

     atomic species   valence    mass     pseudopotential
        Ti1           12.00    47.86700     Ti( 1.00)
        O1             6.00    15.99900     O ( 1.00)
        N1             5.00    14.00700     N ( 1.00)
        C1             4.00    12.01100     C ( 1.00)
        H1             1.00     1.00800     H ( 1.00)

     No symmetry found

   Cartesian axes

     site n.     atom                  positions (alat units)
         1           Ti1 tau(   1) = (   0.0004258   2.9801865   6.0000000  )
         2           Ti1 tau(   2) = (   3.2906075   1.4906267   6.0002472  )
         3           O1  tau(   3) = (   0.0006271   0.0005054   7.9858123  )
         4           O1  tau(   4) = (   3.2906025   0.0005020   7.3038282  )
         5           O1  tau(   5) = (   4.5942328   1.4918067   9.2879030  )
         6           O1  tau(   6) = (   1.9868534   1.4903216   9.2879459  )
         7           Ti1 tau(   7) = (   3.2907910   2.8959150   9.1758416  )
         8           Ti1 tau(   8) = (   0.0015273   1.4827037   9.2680791  )
         9           O1  tau(   9) = (   3.2868105   5.9447858  11.3346005  )
        10           O1  tau(  10) = (   0.0116148   5.9584955  10.6183126  )
        11           O1  tau(  11) = (   1.2897616   1.4699164  12.6258314  )
        12           O1  tau(  12) = (   5.2713851   1.4716199  12.6109895  )
        13           Ti1 tau(  13) = (   0.0629619   2.9460495  12.6207869  )
        14           Ti1 tau(  14) = (   3.3778125   1.4702366  12.4807322  )
        15           O1  tau(  15) = (   6.5741670   5.9392046  14.6271830  )
        16           O1  tau(  16) = (   3.2925211   5.9405975  13.9303826  )
        17           O1  tau(  17) = (   4.5331425   1.4971777  16.0590535  )
        18           O1  tau(  18) = (   2.0416154   1.4974824  16.0477615  )
        19           Ti1 tau(  19) = (   3.2901388   2.9722967  15.7036181  )
        20           Ti1 tau(  20) = (   6.5714728   1.5019933  15.8140906  )
        21           O1  tau(  21) = (   3.2904802   0.0005063   4.7018136  )
        22           O1  tau(  22) = (   6.5775371   0.0159386  17.1814867  )
        23           O1  tau(  23) = (   1.3043587   1.4918075   6.0039043  )
        24           O1  tau(  24) = (   5.2767064   1.4903225   6.0039473  )
        25           Ti1 tau(  25) = (   0.0000382   5.9609847   6.0000000  )
        26           Ti1 tau(  26) = (   3.2902200   4.4714249   6.0002472  )
        27           O1  tau(  27) = (   0.0002396   2.9813036   7.9858123  )
        28           O1  tau(  28) = (   3.2902150   2.9813002   7.3038282  )
        29           O1  tau(  29) = (   4.5938453   4.4726049   9.2879030  )
        30           O1  tau(  30) = (   1.9864658   4.4711199   9.2879459  )
        31           Ti1 tau(  31) = (   3.2891106   5.8743827   9.1763621  )
        32           Ti1 tau(  32) = (   0.0006254   4.4649316   9.2693709  )
        33           O1  tau(  33) = (   3.2909631   2.9655588  11.3316111  )
        34           O1  tau(  34) = (   0.0092240   2.9805883  10.6323155  )
        35           O1  tau(  35) = (   1.2884032   4.4536117  12.6269208  )
        36           O1  tau(  36) = (   5.2752684   4.4605011  12.6109535  )
        37           Ti1 tau(  37) = (   0.0626277   5.9200555  12.5524633  )
        38           Ti1 tau(  38) = (   3.3797810   4.4486816  12.4846537  )
        39           O1  tau(  39) = (   6.5720240   2.9440667  14.6479771  )
        40           O1  tau(  40) = (   3.2941106   2.9728877  13.9057494  )
        41           O1  tau(  41) = (   4.5311790   4.4530262  16.1020043  )
        42           O1  tau(  42) = (   2.0427069   4.4534008  16.0946336  )
        43           Ti1 tau(  43) = (   3.2818950   5.9508925  15.7274921  )
        44           Ti1 tau(  44) = (   6.5750914   4.6476268  16.0792144  )
        45           O1  tau(  45) = (   3.2900926   2.9813045   4.7018136  )
        46           O1  tau(  46) = (   1.3039711   4.4726057   6.0039043  )
        47           O1  tau(  47) = (   5.2763189   4.4711207   6.0039473  )
        48           N1  tau(  48) = (   0.0795740   2.6614725  18.6386781  )
        49           N1  tau(  49) = (   0.0132033   2.8794178  17.4383708  )
        50           C1  tau(  50) = (   0.1510961   3.8131638  19.5808395  )
        51           H1  tau(  51) = (   6.4701351   4.7592986  19.1328852  )
        52           H1  tau(  52) = (   6.0910372   3.5604803  20.4266230  )
        53           H1  tau(  53) = (   1.1812797   3.8285794  19.9476819  )

     number of k points=    10  Fermi-Dirac smearing, width (Ry)=  0.0073
                       cart. coord. in units 2pi/alat
        k(    1) = (   0.0000000   0.0000000   0.0000000), wk =   0.1250000
        k(    2) = (   0.0000000   0.0419351   0.0000000), wk =   0.2500000
        k(    3) = (   0.0000000  -0.0838702   0.0000000), wk =   0.1250000
        k(    4) = (   0.0379955   0.0000049   0.0000000), wk =   0.2500000
        k(    5) = (   0.0379955   0.0419400   0.0000000), wk =   0.2500000
        k(    6) = (   0.0379955  -0.0838652   0.0000000), wk =   0.2500000
        k(    7) = (   0.0379955  -0.0419301   0.0000000), wk =   0.2500000
        k(    8) = (  -0.0759910  -0.0000099   0.0000000), wk =   0.1250000
        k(    9) = (  -0.0759910   0.0419252   0.0000000), wk =   0.2500000
        k(   10) = (  -0.0759910  -0.0838800   0.0000000), wk =   0.1250000

     Initial potential from superposition of free atoms

     starting charge  378.99916, renormalised to  395.00000

     negative rho (up, down):  1.506E-02 0.000E+00

     %%%%%%%%%%%%%%%%%%%%%%%%%%%%%%%%%%%%%%%%%%%%%%%%%%%%%%%%%%%%%%%%%%%%%%%%
     %                                                                      %
     % You are using vdW-DF, which was implemented by the Thonhauser group. %
     % Please cite the following two papers that made this development      %
     % possible and the two reviews that describe the various versions:     %
     %                                                                      %
     %   T. Thonhauser et al., PRL 115, 136402 (2015).                      %
     %   T. Thonhauser et al., PRB 76, 125112 (2007).                       %
     %   K. Berland et al., Rep. Prog. Phys. 78, 066501 (2015).             %
     %   D.C. Langreth et al., J. Phys.: Condens. Matter 21, 084203 (2009). %
     %                                                                      %
     %                                                                      %
     % If you are calculating the stress with vdW-DF, please also cite:     %
     %                                                                      %
     %   R. Sabatini et al., J. Phys.: Condens. Matter 24, 424209 (2012).   %
     %                                                                      %
     %%%%%%%%%%%%%%%%%%%%%%%%%%%%%%%%%%%%%%%%%%%%%%%%%%%%%%%%%%%%%%%%%%%%%%%%

     Adding external electric field

     Computed dipole along edir(3) :
        Dipole               -8.8495 Ry au,        -22.4931 Debye
        Dipole field         -0.0167 Ry au,

        Potential amp.        1.5481 Ry
        Total length         46.3494 bohr

     Starting wfcs are  299 atomic wfcs
  @ DRIVER MODE: Message from server: STATUS
  @ DRIVER MODE: Message from server: POSDATA
  @ DRIVER MODE: Reading and sharing cell
  @ DRIVER MODE: Reading and sharing positions
  @ DRIVER MODE: Received positions

     Self-consistent Calculation

     iteration #  1     ecut=    29.40 Ry     beta= 0.05
     Davidson diagonalization with overlap
     c_bands:  1 eigenvalues not converged
     c_bands:  2 eigenvalues not converged
     c_bands:  2 eigenvalues not converged
     c_bands:  3 eigenvalues not converged
     c_bands:  3 eigenvalues not converged
     c_bands:  1 eigenvalues not converged
     ethr =  1.00E-05,  avg # of iterations = 18.9

[...]

     total energy              =   -2605.34275094 Ry
     estimated scf accuracy    <    3702.56142937 Ry

     iteration #  2     ecut=    29.40 Ry     beta= 0.05
     Davidson diagonalization with overlap
     ethr =  1.00E-02,  avg # of iterations = 22.1

[...]

     iteration # 55     ecut=    29.40 Ry     beta= 0.05
     Davidson diagonalization with overlap
     c_bands:  1 eigenvalues not converged
     c_bands:  1 eigenvalues not converged
     c_bands:  1 eigenvalues not converged
     ethr =  1.13E-10,  avg # of iterations = 17.7

[...]

     total energy              =   -2939.15459239 Ry
     estimated scf accuracy    <       0.00000012 Ry

     iteration # 59     ecut=    29.40 Ry     beta= 0.05
     Davidson diagonalization with overlap
     ethr =  2.76E-11,  avg # of iterations = 10.3

     negative rho (up, down):  1.564E-02 0.000E+00

     Adding external electric field

     Computed dipole along edir(3) :
        Dipole                0.7049 Ry au,          1.7916 Debye
        Dipole field          0.0013 Ry au,

        Potential amp.       -0.1233 Ry
        Total length         46.3494 bohr

     End of self-consistent calculation

          k = 0.0000 0.0000 0.0000 ( 18029 PWs)   bands (ev):

   -55.8970 -55.8826 -55.8629 -55.8466 -55.7980 -55.7325 -55.7065 -55.7059
   -55.6959 -55.6719 -55.6713 -55.6376 -55.2887 -55.0986 -54.8746 -54.8406
   -32.4368 -32.3792 -32.2325 -32.2301 -32.2044 -32.2013 -32.1900 -32.1618
   -32.1396 -32.1266 -32.1048 -32.0690 -32.0631 -32.0494 -32.0359 -32.0224
   -32.0200 -32.0010 -31.9874 -31.9543 -31.9464 -31.9421 -31.9013 -31.8961
   -31.8938 -31.8903 -31.8823 -31.8774 -31.8733 -31.8464 -31.8459 -31.8366
   -31.8356 -31.8242 -31.8123 -31.7834 -31.7807 -31.5689 -31.4623 -31.3605
   -31.3587 -31.3144 -31.2817 -31.1933 -31.1709 -31.0985 -31.0120 -30.9009
   -18.4369 -16.6352 -16.3703 -16.1415 -16.0477 -16.0156 -15.8976 -15.7351
   -15.6175 -15.5628 -15.4653 -15.4458 -15.4325 -15.4008 -15.3825 -15.3775
   -15.3433 -15.3392 -15.3204 -15.3054 -15.2571 -15.2335 -15.2118 -15.1124
   -15.0662 -15.0321 -15.0170 -14.9540 -14.9489 -14.4449 -13.3773 -13.2609
   -11.3269  -6.9249  -4.3328  -4.0050  -3.8873  -3.8497  -3.8452  -3.8026
    -3.7462  -3.6275  -3.5013  -3.4392  -3.1284  -3.0804  -3.0645  -3.0474
    -3.0097  -2.8022  -2.7512  -2.7106  -2.6859  -2.6788  -2.6678  -2.6601
    -2.6485  -2.6100  -2.5079  -2.4386  -2.4310  -2.3463  -2.2957  -2.2725
    -2.2091  -2.1903  -2.1676  -2.1447  -2.1332  -2.1123  -2.0921  -2.0812
    -1.9760  -1.8858  -1.7570  -1.6973  -1.6749  -1.6607  -1.6589  -1.5049
    -1.3749  -1.3401  -1.3324  -1.3223  -1.2887  -1.2777  -1.1941  -1.0660
    -1.0544  -1.0157  -0.9627  -0.9043  -0.8792  -0.7774  -0.7406  -0.6635
    -0.6584  -0.6415  -0.5885  -0.5374  -0.3786  -0.3377  -0.3110  -0.2890
    -0.2641  -0.1934  -0.1718  -0.0561  -0.0382  -0.0204   0.0398   0.0626
     0.0759   0.0858   0.1035   0.1215   0.1390   0.3063   0.3787   0.4298
     0.4544   0.5120   0.6374   0.7061   0.7614   0.8617   1.0729   1.1472
     1.2398   1.3393   1.7185   1.7642   2.6457   3.2421   3.3228   3.3717
     3.3863   3.4833   3.5169   3.6940   3.6951   3.7234   3.7937

[...]

          k = 0.0380-0.0419 0.0000 ( 17876 PWs)   bands (ev):

[...]

          k =-0.0760-0.0000 0.0000 ( 17886 PWs)   bands (ev):

[...]

          k =-0.0760-0.0839 0.0000 ( 17948 PWs)   bands (ev):

   -55.8806 -55.8793 -55.8647 -55.8642 -55.7945 -55.7204 -55.7098 -55.7080
   -55.6898 -55.6873 -55.6552 -55.6539 -55.2873 -55.0999 -54.8575 -54.8575
   -32.2414 -32.2396 -32.1949 -32.1939 -32.1760 -32.1747 -32.1719 -32.1364
   -32.0909 -32.0879 -32.0819 -32.0814 -32.0446 -32.0152 -32.0075 -32.0068
   -32.0004 -32.0002 -31.9998 -31.9989 -31.9954 -31.9939 -31.9915 -31.9401
   -31.9264 -31.9143 -31.9133 -31.9019 -31.8890 -31.8884 -31.8861 -31.8851
   -31.8697 -31.8690 -31.8594 -31.8567 -31.6974 -31.5706 -31.4708 -31.4174
   -31.3605 -31.3400 -31.1836 -31.1836 -31.0945 -31.0945 -31.0553 -31.0552
   -18.4326 -16.0711 -16.0450 -15.8450 -15.8118 -15.8078 -15.7934 -15.6847
   -15.5997 -15.5925 -15.5897 -15.5233 -15.4935 -15.4776 -15.4368 -15.4244
   -15.4169 -15.4054 -15.3951 -15.3580 -15.3506 -15.3333 -15.3259 -15.2420
   -15.2139 -15.2098 -15.1843 -15.0662 -14.9349 -14.6212 -13.3628 -13.3627
   -11.3245  -6.9369  -4.2417  -3.8865  -3.8286  -3.3604  -3.3316  -3.0914
    -3.0526  -3.0388  -2.9856  -2.8241  -2.7937  -2.7681  -2.7564  -2.7248
    -2.7195  -2.7076  -2.7022  -2.6822  -2.6410  -2.6193  -2.6015  -2.5842
    -2.5649  -2.5509  -2.5348  -2.5182  -2.5087  -2.4693  -2.4458  -2.4343
    -2.4157  -2.4039  -2.2487  -2.1246  -2.0901  -2.0356  -2.0253  -2.0039
    -1.9637  -1.9598  -1.9481  -1.8838  -1.8110  -1.6595  -1.6154  -1.5965
    -1.5824  -1.5695  -1.5028  -1.4626  -1.3759  -1.3009  -1.2773  -1.2730
    -1.2050  -1.1172  -1.1095  -1.0630  -1.0197  -1.0102  -0.9553  -0.8905
    -0.8596  -0.8553  -0.8058  -0.7385  -0.7163  -0.6656  -0.6588  -0.6144
    -0.5593  -0.5518  -0.5303  -0.4894  -0.4074  -0.3837  -0.2457  -0.1657
    -0.0427   0.0713   0.1654   0.1799   0.2599   0.3119   0.3957   0.4134
     0.4239   0.4329   0.4760   0.5589   0.6349   0.6496   0.6954   0.8164
     1.5109   1.5117   1.5838   1.5841   2.7020   3.4894   3.5336   3.5758
     3.6081   3.7149   3.7469   3.7706   3.7719   3.8003   3.9368

     the Fermi energy is     3.2373 ev

!    total energy              =   -2939.15464520 Ry
     estimated scf accuracy    <       0.00000006 Ry
     smearing contrib. (-TS)   =      -0.02244284 Ry
     internal energy E=F+TS    =   -2939.13220236 Ry

     The total energy is F=E-TS. E is the sum of the following terms:
     one-electron contribution =  -24176.03747169 Ry
     hartree contribution      =   12175.24314157 Ry
     xc contribution           =    -485.18334936 Ry
     ewald contribution        =    9546.84453952 Ry
     electric field correction =       0.00093760 Ry

     convergence has been achieved in  59 iterations

     Forces acting on atoms (cartesian axes, Ry/au):

     atom    1 type  1   force =     0.00012409   -0.00026144    0.09665877
     atom    2 type  1   force =    -0.00012192   -0.00050576   -0.17521653
     atom    3 type  2   force =     0.00000024   -0.00010139   -0.02497255
     atom    4 type  2   force =     0.00005232   -0.00149826    0.05301280
     atom    5 type  2   force =    -0.01217997   -0.00109021    0.00361522
     atom    6 type  2   force =     0.01372847   -0.00028495    0.00229127
     atom    7 type  1   force =    -0.00117198    0.00037507   -0.01150560
     atom    8 type  1   force =     0.00056074    0.00940761    0.02850187
     atom    9 type  2   force =     0.00020047    0.00053362   -0.00012768
     atom   10 type  2   force =    -0.00114772    0.00028039   -0.01821890
     atom   11 type  2   force =    -0.00012397   -0.00000477   -0.00012904
     atom   12 type  2   force =     0.00014305    0.00021155    0.00018753
     atom   13 type  1   force =     0.00009019   -0.00029427    0.00012955
     atom   14 type  1   force =     0.00021553    0.00016993    0.00019435
     atom   15 type  2   force =     0.00021805   -0.00009275   -0.00002422
     atom   16 type  2   force =    -0.00033040    0.00033663    0.00036850
     atom   17 type  2   force =    -0.00014540    0.00040482   -0.00016532
     atom   18 type  2   force =     0.00012669    0.00015061    0.00020767
     atom   19 type  1   force =    -0.00008628    0.00014178    0.00011419
     atom   20 type  1   force =    -0.00059439   -0.00017666    0.00018402
     atom   21 type  2   force =     0.00008406    0.00001298    0.10321268
     atom   22 type  2   force =    -0.00020427    0.00016610    0.00080808
     atom   23 type  2   force =    -0.07144259   -0.00007391   -0.02771494
     atom   24 type  2   force =     0.07140621    0.00034433   -0.02772252
     atom   25 type  1   force =     0.00007006   -0.00021853    0.09639984
     atom   26 type  1   force =    -0.00022609   -0.00025611   -0.17563298
     atom   27 type  2   force =     0.00007164   -0.00024956   -0.02397551
     atom   28 type  2   force =     0.00009481   -0.00126462    0.05288391
     atom   29 type  2   force =    -0.01242215    0.00003621    0.00352723
     atom   30 type  2   force =     0.01388518    0.00032693    0.00217287
     atom   31 type  1   force =    -0.00114186    0.00333845   -0.01191507
     atom   32 type  1   force =     0.00065431   -0.01117074    0.02910607
     atom   33 type  2   force =     0.00011083   -0.00020439   -0.00038220
     atom   34 type  2   force =    -0.00089600   -0.00093263   -0.02482091
     atom   35 type  2   force =    -0.00039875    0.00027460    0.00002439
     atom   36 type  2   force =     0.00073313    0.00029897    0.00034566
     atom   37 type  1   force =    -0.00001794   -0.00022838   -0.00000453
     atom   38 type  1   force =    -0.00001972    0.00010668   -0.00002522
     atom   39 type  2   force =     0.00033014    0.00033002   -0.00042264
     atom   40 type  2   force =    -0.00030531    0.00010495    0.00015433
     atom   41 type  2   force =    -0.00040930    0.00053233    0.00013789
     atom   42 type  2   force =     0.00000948    0.00046130    0.00041946
     atom   43 type  1   force =    -0.00005219    0.00041060    0.00043191
     atom   44 type  1   force =    -0.00040718    0.00016666    0.00052232
     atom   45 type  2   force =     0.00008183   -0.00002638    0.10320673
     atom   46 type  2   force =    -0.07147425   -0.00003254   -0.02772617
     atom   47 type  2   force =     0.07144010    0.00039006   -0.02775046
     atom   48 type  3   force =     0.00048543    0.00418723    0.00066343
     atom   49 type  3   force =     0.00056114   -0.00026638    0.00031903
     atom   50 type  4   force =     0.00265569   -0.01750117    0.00409351
     atom   51 type  5   force =    -0.00206258    0.01007672   -0.00437156
     atom   52 type  5   force =     0.00002465    0.00161352   -0.00096133
     atom   53 type  5   force =    -0.00077633    0.00154514   -0.00010924

     Total force =     0.368930     Total SCF correction =     0.000596
  @ DRIVER MODE: Message from server: STATUS
  @ DRIVER MODE: Message from server: GETFORCE
  @ DRIVER MODE: Returning v,forces,stress,ensemble

     Writing output data file ./calc.save/
  @ DRIVER MODE: Message from server: EXIT
  @ DRIVE MODE: Exiting

     General routines

     Parallel routines

   This run was terminated on:  19:57:18  18Aug2021

   JOB DONE.