     Program PWSCF v.6.7GPU starts on  9Sep2021 at 12:24:49

     R & G space division:  proc/nbgrp/npool/nimage =      10
     Reading input from /storage/home/hcoda1/3/ntian30/research/carbon/CxH_vib/CH3_calc/ads_slab/CH3NH2NH_c/out_0043/pw.inp
Warning: card &CELL ignored
Warning: card   CELL_DYNAMICS='IPI', ignored
Warning: card / ignored

     Current dimensions of program PWSCF are:
     Max number of different atomic species (ntypx) = 10
     Max number of k-points (npk) =  40000
     Max angular momentum in pseudopotentials (lmaxx) =  3
     Presently no symmetry can be used with electric field

     Message from routine cell_base_init:
     DEPRECATED: use true lattice parameter, not A to a.u. conversion factor

     IMPORTANT: XC functional enforced from input :
     Exchange-correlation= BEEF-VDW
                           (   1   4  43  14   2   0   0)
     Any further DFT definition will be discarded
     Please, verify this is what you really want

  @ DRIVER MODE: Connecting to
 qe_1139763_2767400.sched-torque.pace.gatech.edudxt_4s8s_scratch
  using UNIX socket
  @ DRIVER MODE: Message from server: STATUS
  @ DRIVER MODE: Message from server: INIT
  @ DRIVER MODE: Receiving replica           0          -1
  @ DRIVER MODE: Receiving encoded integer          25
  @ DRIVER MODE:  SCF:  T  FORCE:  T  STRESS:  F  VC:  F  ENSEMBLE:  F
  @ DRIVER MODE:  SCF:  T  FORCE:  T  STRESS:  F  VC:  F  ENSEMBLE:  F

     Using Slab Decomposition

     bravais-lattice index     =            0
     lattice parameter (alat)  =       1.8897  a.u.
     unit-cell volume          =    6658.9804 (a.u.)^3
     number of atoms/cell      =           56
     number of atomic types    =            5
     number of electrons       =       398.00
     number of Kohn-Sham states=          209
     kinetic-energy cutoff     =      29.3995  Ry
     charge density cutoff     =     293.9946  Ry
     scf convergence threshold =      7.3E-08
     mixing beta               =       0.0500
     number of iterations used =            8  plain     mixing
     Exchange-correlation= BEEF-VDW
                           (   1   4  43  14   2   0   0)

     celldm(1)=   1.889726  celldm(2)=   0.000000  celldm(3)=   0.000000
     celldm(4)=   0.000000  celldm(5)=   0.000000  celldm(6)=   0.000000

     crystal axes: (cart. coord. in units of alat)
               a(1) = (   6.579727   0.000000   0.000000 )
               a(2) = (  -0.000775   5.961596   0.000000 )
               a(3) = (   0.000000   0.000000  25.155947 )

     reciprocal axes: (cart. coord. in units 2 pi/alat)
               b(1) = (  0.151982  0.000020  0.000000 )
               b(2) = (  0.000000  0.167740  0.000000 )
               b(3) = (  0.000000  0.000000  0.039752 )

     PseudoPot. # 1 for Ti read from file:
     /storage/coda1/p-amedford6/0/shared/rich_project_chbe-medford/medford-share/data/pseudos_module/espresso/nninc/pbe/van/Ti.UPF
     MD5 check sum: 8e4df49b7f0d34bbd5052bf3f5ea0213
     Pseudo is Ultrasoft, Zval = 12.0
     Generated by new atomic code, or converted to UPF format
     Using radial grid of  851 points,  6 beta functions with:
                l(1) =   0
                l(2) =   0
                l(3) =   1
                l(4) =   1
                l(5) =   2
                l(6) =   2
     Q(r) pseudized with  8 coefficients,  rinner =    1.000   1.000   1.000
                                                       1.000   1.000

     PseudoPot. # 2 for O  read from file:
     /storage/coda1/p-amedford6/0/shared/rich_project_chbe-medford/medford-share/data/pseudos_module/espresso/nninc/pbe/van/O.UPF
     MD5 check sum: 78c19812648e8988a0fe644b0f25305e
     Pseudo is Ultrasoft, Zval =  6.0
     Generated by new atomic code, or converted to UPF format
     Using radial grid of  737 points,  4 beta functions with:
                l(1) =   0
                l(2) =   0
                l(3) =   1
                l(4) =   1
     Q(r) pseudized with  8 coefficients,  rinner =    0.800   0.800   0.800

     PseudoPot. # 3 for N  read from file:
     /storage/coda1/p-amedford6/0/shared/rich_project_chbe-medford/medford-share/data/pseudos_module/espresso/nninc/pbe/van/N.UPF
     MD5 check sum: 90d10febe142ad51ac9d5be1deb811c4
     Pseudo is Ultrasoft, Zval =  5.0
     Generated by new atomic code, or converted to UPF format
     Using radial grid of  729 points,  4 beta functions with:
                l(1) =   0
                l(2) =   0
                l(3) =   1
                l(4) =   1
     Q(r) pseudized with  8 coefficients,  rinner =    0.800   0.800   0.800

     PseudoPot. # 4 for C  read from file:
     /storage/coda1/p-amedford6/0/shared/rich_project_chbe-medford/medford-share/data/pseudos_module/espresso/nninc/pbe/van/C.UPF
     MD5 check sum: 1a69bf6b8db32088f5b2163dbdb77a27
     Pseudo is Ultrasoft, Zval =  4.0
     Generated by new atomic code, or converted to UPF format
     Using radial grid of  721 points,  4 beta functions with:
                l(1) =   0
                l(2) =   0
                l(3) =   1
                l(4) =   1
     Q(r) pseudized with  8 coefficients,  rinner =    0.800   0.800   0.800

     PseudoPot. # 5 for H  read from file:
     /storage/coda1/p-amedford6/0/shared/rich_project_chbe-medford/medford-share/data/pseudos_module/espresso/nninc/pbe/van/H.UPF
     MD5 check sum: b5ee9d7bfd3a09ee7748110bda690ff7
     Pseudo is Ultrasoft, Zval =  1.0
     Generated by new atomic code, or converted to UPF format
     Using radial grid of  615 points,  1 beta functions with:
                l(1) =   0
     Q(r) pseudized with  8 coefficients,  rinner =    0.800

     atomic species   valence    mass     pseudopotential
        Ti1           12.00    47.86700     Ti( 1.00)
        O1             6.00    15.99900     O ( 1.00)
        N1             5.00    14.00700     N ( 1.00)
        C1             4.00    12.01100     C ( 1.00)
        H1             1.00     1.00800     H ( 1.00)

     No symmetry found

   Cartesian axes

     site n.     atom                  positions (alat units)
         1           Ti1 tau(   1) = (   0.0004258   2.9801865   6.0000000  )
         2           Ti1 tau(   2) = (   3.2906075   1.4906267   6.0002472  )
         3           O1  tau(   3) = (   0.0006271   0.0005054   7.9858123  )
         4           O1  tau(   4) = (   3.2906025   0.0005020   7.3038282  )
         5           O1  tau(   5) = (   4.5942328   1.4918067   9.2879030  )
         6           O1  tau(   6) = (   1.9868534   1.4903216   9.2879459  )
         7           Ti1 tau(   7) = (   3.2907910   2.8959150   9.1758416  )
         8           Ti1 tau(   8) = (   0.0015273   1.4827037   9.2680791  )
         9           O1  tau(   9) = (   3.3032705   0.0110091  11.3485381  )
        10           O1  tau(  10) = (   0.0116148   5.9584955  10.6183126  )
        11           O1  tau(  11) = (   1.3020657   1.4959176  12.6398190  )
        12           O1  tau(  12) = (   5.2896457   1.4919019  12.6612249  )
        13           Ti1 tau(  13) = (   0.0353884   3.0012823  12.5523301  )
        14           Ti1 tau(  14) = (   3.3275346   1.5008247  12.4978572  )
        15           O1  tau(  15) = (   0.0424128   0.0047235  14.7277795  )
        16           O1  tau(  16) = (   3.2762846   0.0047332  13.9819514  )
        17           O1  tau(  17) = (   4.5591522   1.5298593  16.0930730  )
        18           O1  tau(  18) = (   2.0612242   1.5646392  16.2256692  )
        19           Ti1 tau(  19) = (   3.3170857   3.0293758  15.7013767  )
        20           Ti1 tau(  20) = (   6.5267591   1.5471840  15.7818195  )
        21           O1  tau(  21) = (   3.2904802   0.0005063   4.7018136  )
        22           O1  tau(  22) = (   0.0258072   0.0396315  17.3287798  )
        23           O1  tau(  23) = (   1.3043587   1.4918075   6.0039043  )
        24           O1  tau(  24) = (   5.2767064   1.4903225   6.0039473  )
        25           Ti1 tau(  25) = (   0.0000382   5.9609847   6.0000000  )
        26           Ti1 tau(  26) = (   3.2902200   4.4714249   6.0002472  )
        27           O1  tau(  27) = (   0.0002396   2.9813036   7.9858123  )
        28           O1  tau(  28) = (   3.2902150   2.9813002   7.3038282  )
        29           O1  tau(  29) = (   4.5938453   4.4726049   9.2879030  )
        30           O1  tau(  30) = (   1.9864658   4.4711199   9.2879459  )
        31           Ti1 tau(  31) = (   3.2891106   5.8743827   9.1763621  )
        32           Ti1 tau(  32) = (   0.0006254   4.4649316   9.2693709  )
        33           O1  tau(  33) = (   3.3047253   2.9863606  11.3412877  )
        34           O1  tau(  34) = (   0.0092240   2.9805883  10.6323155  )
        35           O1  tau(  35) = (   1.3023160   4.4818153  12.6295520  )
        36           O1  tau(  36) = (   5.2910779   4.4839738  12.6480862  )
        37           Ti1 tau(  37) = (   0.0306270   0.0097343  12.5156175  )
        38           Ti1 tau(  38) = (   3.3295341   4.4791655  12.4867326  )
        39           O1  tau(  39) = (   0.0319336   2.9935560  14.7343221  )
        40           O1  tau(  40) = (   3.2835893   3.0037955  13.9224844  )
        41           O1  tau(  41) = (   4.5669158   4.4809188  16.1713821  )
        42           O1  tau(  42) = (   2.0542530   4.4668402  16.2247519  )
        43           Ti1 tau(  43) = (   3.3000170   0.0150779  15.7669526  )
        44           Ti1 tau(  44) = (   0.0416703   4.6955124  16.1636639  )
        45           O1  tau(  45) = (   3.2900926   2.9813045   4.7018136  )
        46           O1  tau(  46) = (   1.3039711   4.4726057   6.0039043  )
        47           O1  tau(  47) = (   5.2763189   4.4711207   6.0039473  )
        48           N1  tau(  48) = (   0.9019483   2.4226080  18.4567899  )
        49           N1  tau(  49) = (   6.4923839   2.9153054  17.5348467  )
        50           C1  tau(  50) = (   1.2734633   3.3482217  19.5544901  )
        51           H1  tau(  51) = (   0.3921683   3.5464126  20.1615046  )
        52           H1  tau(  52) = (   2.0553077   2.8833093  20.1573268  )
        53           H1  tau(  53) = (   1.6239766   4.2728770  19.1044814  )
        54           H1  tau(  54) = (   0.5870980   1.4942747  18.7832689  )
        55           H1  tau(  55) = (   5.5883569   2.8486818  18.0159164  )
        56           H1  tau(  56) = (   1.7025450   2.1792920  17.8234971  )

     number of k points=    10  Fermi-Dirac smearing, width (Ry)=  0.0073
                       cart. coord. in units 2pi/alat
        k(    1) = (   0.0000000   0.0000000   0.0000000), wk =   0.1250000
        k(    2) = (   0.0000000   0.0419351   0.0000000), wk =   0.2500000
        k(    3) = (   0.0000000  -0.0838702   0.0000000), wk =   0.1250000
        k(    4) = (   0.0379955   0.0000049   0.0000000), wk =   0.2500000
        k(    5) = (   0.0379955   0.0419400   0.0000000), wk =   0.2500000
        k(    6) = (   0.0379955  -0.0838652   0.0000000), wk =   0.2500000
        k(    7) = (   0.0379955  -0.0419301   0.0000000), wk =   0.2500000
        k(    8) = (  -0.0759910  -0.0000099   0.0000000), wk =   0.1250000
        k(    9) = (  -0.0759910   0.0419252   0.0000000), wk =   0.2500000
        k(   10) = (  -0.0759910  -0.0838800   0.0000000), wk =   0.1250000

     Initial potential from superposition of free atoms

     starting charge  381.99914, renormalised to  398.00000

     negative rho (up, down):  1.484E-02 0.000E+00

     %%%%%%%%%%%%%%%%%%%%%%%%%%%%%%%%%%%%%%%%%%%%%%%%%%%%%%%%%%%%%%%%%%%%%%%%
     %                                                                      %
     % You are using vdW-DF, which was implemented by the Thonhauser group. %
     % Please cite the following two papers that made this development      %
     % possible and the two reviews that describe the various versions:     %
     %                                                                      %
     %   T. Thonhauser et al., PRL 115, 136402 (2015).                      %
     %   T. Thonhauser et al., PRB 76, 125112 (2007).                       %
     %   K. Berland et al., Rep. Prog. Phys. 78, 066501 (2015).             %
     %   D.C. Langreth et al., J. Phys.: Condens. Matter 21, 084203 (2009). %
     %                                                                      %
     %                                                                      %
     % If you are calculating the stress with vdW-DF, please also cite:     %
     %                                                                      %
     %   R. Sabatini et al., J. Phys.: Condens. Matter 24, 424209 (2012).   %
     %                                                                      %
     %%%%%%%%%%%%%%%%%%%%%%%%%%%%%%%%%%%%%%%%%%%%%%%%%%%%%%%%%%%%%%%%%%%%%%%%

     Adding external electric field

     Computed dipole along edir(3) :
        Dipole              -10.9106 Ry au,        -27.7320 Debye
        Dipole field         -0.0206 Ry au,

        Potential amp.        1.9086 Ry
        Total length         46.3494 bohr

     Starting wfcs are  302 atomic wfcs
  @ DRIVER MODE: Message from server: STATUS
  @ DRIVER MODE: Message from server: POSDATA
  @ DRIVER MODE: Reading and sharing cell
  @ DRIVER MODE: Reading and sharing positions
  @ DRIVER MODE: Received positions

     Self-consistent Calculation

     iteration #  1     ecut=    29.40 Ry     beta= 0.05
     Davidson diagonalization with overlap
     c_bands:  4 eigenvalues not converged
     c_bands:  4 eigenvalues not converged
     c_bands:  1 eigenvalues not converged
     c_bands:  2 eigenvalues not converged
     c_bands:  3 eigenvalues not converged
     c_bands:  4 eigenvalues not converged
     c_bands:  4 eigenvalues not converged
     ethr =  1.00E-05,  avg # of iterations = 24.3

[...]

     total energy              =   -2445.38497375 Ry
     estimated scf accuracy    <    5568.51361803 Ry

     iteration #  2     ecut=    29.40 Ry     beta= 0.05
     Davidson diagonalization with overlap
     ethr =  1.00E-02,  avg # of iterations = 22.7

[...]

     iteration # 71     ecut=    29.40 Ry     beta= 0.05
     Davidson diagonalization with overlap
     ethr =  9.55E-11,  avg # of iterations =  6.6

[...]

     total energy              =   -2942.84141858 Ry
     estimated scf accuracy    <       0.00000009 Ry

     iteration # 73     ecut=    29.40 Ry     beta= 0.05
     Davidson diagonalization with overlap
     c_bands:  1 eigenvalues not converged
     ethr =  2.39E-11,  avg # of iterations = 11.3

     negative rho (up, down):  1.049E-02 0.000E+00

     Adding external electric field

     Computed dipole along edir(3) :
        Dipole                1.5804 Ry au,          4.0170 Debye
        Dipole field          0.0030 Ry au,

        Potential amp.       -0.2765 Ry
        Total length         46.3494 bohr

     End of self-consistent calculation

          k = 0.0000 0.0000 0.0000 ( 18029 PWs)   bands (ev):

   -55.0911 -55.0555 -55.0520 -55.0214 -54.9682 -54.9657 -54.9281 -54.8914
   -54.8832 -54.8688 -54.8555 -54.8509 -54.8028 -54.7584 -54.0659 -54.0318
   -31.6650 -31.5450 -31.4551 -31.4253 -31.3864 -31.3816 -31.3799 -31.3502
   -31.3466 -31.3458 -31.3027 -31.3007 -31.3001 -31.2656 -31.2474 -31.2279
   -31.2080 -31.2042 -31.1950 -31.1930 -31.1665 -31.1492 -31.1477 -31.1216
   -31.1123 -31.0983 -31.0949 -31.0932 -31.0899 -31.0765 -31.0718 -31.0643
   -31.0521 -31.0412 -31.0219 -31.0149 -31.0071 -31.0004 -30.9967 -30.9911
   -30.9859 -30.9510 -30.4742 -30.3826 -30.3604 -30.2909 -30.2042 -30.0931
   -19.1565 -15.9339 -15.6593 -15.5367 -15.3260 -15.2766 -15.2037 -15.0083
   -14.9432 -14.8876 -14.8772 -14.8657 -14.8490 -14.7778 -14.6986 -14.6181
   -14.6154 -14.6084 -14.5975 -14.5801 -14.5728 -14.5103 -14.5030 -14.4710
   -14.4591 -14.4190 -14.3119 -14.2301 -14.1733 -14.0217 -13.3031 -12.5685
   -12.4514 -11.0987  -7.8753  -6.5482  -5.8579  -4.1109  -3.9426  -3.2789
    -3.0932  -3.0686  -3.0092  -2.9842  -2.8090  -2.7598  -2.5495  -2.4482
    -2.3607  -2.3218  -2.3094  -2.2929  -2.1417  -2.0748  -2.0405  -1.9924
    -1.9693  -1.9468  -1.9055  -1.8979  -1.8671  -1.8492  -1.8406  -1.6633
    -1.5872  -1.5371  -1.5082  -1.4708  -1.4209  -1.3923  -1.3747  -1.3701
    -1.3648  -1.3457  -1.3142  -1.2532  -1.2232  -1.1678  -1.1005  -1.0736
    -0.9839  -0.9020  -0.7144  -0.6687  -0.6511  -0.6150  -0.5549  -0.5052
    -0.4720  -0.4369  -0.4223  -0.3553  -0.2872  -0.2547  -0.1919  -0.1277
    -0.1170  -0.0543  -0.0469   0.1142   0.1260   0.1473   0.2386   0.3246
     0.3728   0.3808   0.4393   0.5132   0.5354   0.5453   0.5815   0.6021
     0.6785   0.7877   0.8125   0.8542   0.8657   0.8993   0.9224   0.9770
     1.0009   1.0636   1.0698   1.1744   1.2253   1.2562   1.5060   1.5389
     1.8693   1.9029   1.9566   2.1434   2.5305   2.5776   4.0172   4.0799
     4.0939   4.1429   4.1662   4.1854   4.2573   4.4780   4.5033   4.5095
     4.5168

[...]

          k = 0.0380-0.0419 0.0000 ( 17876 PWs)   bands (ev):

[...]

          k =-0.0760-0.0000 0.0000 ( 17886 PWs)   bands (ev):

[...]

          k =-0.0760-0.0839 0.0000 ( 17948 PWs)   bands (ev):

   -55.0789 -55.0639 -55.0385 -55.0383 -54.9651 -54.9546 -54.9391 -54.8742
   -54.8716 -54.8707 -54.8691 -54.8667 -54.7968 -54.7643 -54.0488 -54.0487
   -31.4727 -31.4630 -31.4002 -31.3602 -31.3601 -31.3587 -31.3313 -31.3311
   -31.3001 -31.2960 -31.2911 -31.2850 -31.2587 -31.2251 -31.2182 -31.2121
   -31.2099 -31.2061 -31.2054 -31.1966 -31.1643 -31.1633 -31.1597 -31.1577
   -31.1575 -31.1547 -31.1501 -31.1337 -31.1082 -31.1045 -31.0978 -31.0893
   -31.0876 -31.0854 -31.0845 -31.0681 -31.0501 -31.0487 -31.0369 -31.0312
   -31.0065 -30.9902 -30.3731 -30.3730 -30.2869 -30.2867 -30.2476 -30.2475
   -19.1526 -15.4172 -15.3268 -15.1782 -15.1587 -15.1098 -15.0617 -15.0452
   -15.0277 -14.9715 -14.9322 -14.8862 -14.8377 -14.7945 -14.7923 -14.7536
   -14.6817 -14.6603 -14.6582 -14.6436 -14.5927 -14.5820 -14.5545 -14.5357
   -14.5307 -14.4875 -14.4278 -14.4242 -14.3846 -14.2054 -13.3133 -12.5531
   -12.5530 -11.1013  -7.8855  -6.5319  -5.8469  -4.0824  -3.9362  -2.6861
    -2.5867  -2.5150  -2.4200  -2.3334  -2.2931  -2.2580  -2.1236  -2.1041
    -2.0855  -2.0597  -2.0466  -2.0126  -2.0043  -1.9567  -1.9274  -1.9170
    -1.9108  -1.8980  -1.8758  -1.8274  -1.8053  -1.7957  -1.7864  -1.7478
    -1.7339  -1.7019  -1.6960  -1.6570  -1.6355  -1.5503  -1.4612  -1.4215
    -1.3712  -1.3057  -1.2718  -1.2651  -1.1718  -1.1637  -1.1406  -1.1072
    -1.0616  -0.9411  -0.8838  -0.8209  -0.8171  -0.8039  -0.6972  -0.6588
    -0.6289  -0.5937  -0.5557  -0.5264  -0.4877  -0.4412  -0.3641  -0.3334
    -0.2931  -0.2576  -0.1849  -0.0974  -0.0780  -0.0472  -0.0430   0.0439
     0.0682   0.1068   0.1157   0.1349   0.1915   0.2047   0.2919   0.3819
     0.4466   0.5345   0.6481   0.6529   0.7301   0.8220   0.9103   0.9475
     0.9995   1.0647   1.0677   1.1008   1.2217   1.2289   1.3505   1.3894
     1.3982   1.4205   2.3157   2.3167   2.3978   2.3978   4.1464   4.2441
     4.2829   4.3241   4.3749   4.5215   4.5446   4.5903   4.5907   4.6612
     4.6744

     the Fermi energy is     4.0637 ev

!    total energy              =   -2942.84143581 Ry
     estimated scf accuracy    <       0.00000006 Ry
     smearing contrib. (-TS)   =      -0.03725229 Ry
     internal energy E=F+TS    =   -2942.80418352 Ry

     The total energy is F=E-TS. E is the sum of the following terms:
     one-electron contribution =  -23856.40604930 Ry
     hartree contribution      =   12023.53511335 Ry
     xc contribution           =    -487.74835853 Ry
     ewald contribution        =    9377.81039739 Ry
     electric field correction =       0.00471358 Ry

     convergence has been achieved in  73 iterations

     Forces acting on atoms (cartesian axes, Ry/au):

     atom    1 type  1   force =     0.00001549   -0.00023548    0.09431288
     atom    2 type  1   force =    -0.00015645   -0.00054845   -0.17707726
     atom    3 type  2   force =     0.00001751   -0.00024348   -0.02146601
     atom    4 type  2   force =    -0.00001336   -0.00167504    0.05644192
     atom    5 type  2   force =    -0.01050055   -0.00075317    0.00562843
     atom    6 type  2   force =     0.01226507   -0.00009747    0.00552065
     atom    7 type  1   force =    -0.00024055    0.00107334   -0.01571430
     atom    8 type  1   force =    -0.00006883    0.00525077    0.00655342
     atom    9 type  2   force =    -0.00030495    0.00055898    0.00021353
     atom   10 type  2   force =    -0.00199869    0.00266219   -0.00434454
     atom   11 type  2   force =     0.00040047   -0.00022732    0.00028272
     atom   12 type  2   force =    -0.00008140   -0.00029550   -0.00019249
     atom   13 type  1   force =    -0.00073122    0.00044632   -0.00003967
     atom   14 type  1   force =     0.00037926   -0.00016634    0.00002746
     atom   15 type  2   force =    -0.00018554   -0.00061311   -0.00041089
     atom   16 type  2   force =     0.00004963    0.00038214   -0.00029295
     atom   17 type  2   force =     0.00071516    0.00015427    0.00036608
     atom   18 type  2   force =    -0.00012262    0.00010557   -0.00011507
     atom   19 type  1   force =     0.00028022    0.00076702    0.00030421
     atom   20 type  1   force =    -0.00044441    0.00021140    0.00060446
     atom   21 type  2   force =    -0.00001917   -0.00011525    0.10362054
     atom   22 type  2   force =     0.00018780    0.00033226    0.00036747
     atom   23 type  2   force =    -0.07089916   -0.00021692   -0.02718007
     atom   24 type  2   force =     0.07069845    0.00023425   -0.02722820
     atom   25 type  1   force =     0.00001780   -0.00027349    0.09398935
     atom   26 type  1   force =    -0.00025224   -0.00054991   -0.17735512
     atom   27 type  2   force =     0.00005968   -0.00008118   -0.02059738
     atom   28 type  2   force =     0.00002551   -0.00136414    0.05573555
     atom   29 type  2   force =    -0.01080485   -0.00000395    0.00592350
     atom   30 type  2   force =     0.01249388    0.00028388    0.00577362
     atom   31 type  1   force =    -0.00017405    0.00517536   -0.01629434
     atom   32 type  1   force =    -0.00009115   -0.00625326    0.00668571
     atom   33 type  2   force =    -0.00009690   -0.00047660    0.00023822
     atom   34 type  2   force =    -0.00163640    0.00066682   -0.00774339
     atom   35 type  2   force =    -0.00033047    0.00006168    0.00042321
     atom   36 type  2   force =     0.00057910    0.00006179   -0.00006700
     atom   37 type  1   force =    -0.00082543   -0.00078338   -0.00007952
     atom   38 type  1   force =     0.00048724    0.00001826    0.00042623
     atom   39 type  2   force =    -0.00029258   -0.00017988    0.00058756
     atom   40 type  2   force =    -0.00005320   -0.00019483   -0.00021474
     atom   41 type  2   force =     0.00007466   -0.00048096    0.00026902
     atom   42 type  2   force =    -0.00016884   -0.00030899    0.00051459
     atom   43 type  1   force =     0.00001860   -0.00069234   -0.00018766
     atom   44 type  1   force =     0.00027078    0.00040910    0.00041531
     atom   45 type  2   force =    -0.00002309   -0.00011534    0.10360895
     atom   46 type  2   force =    -0.07090734   -0.00013616   -0.02715150
     atom   47 type  2   force =     0.07070984    0.00028458   -0.02722411
     atom   48 type  3   force =    -0.00125677    0.00106900    0.00093687
     atom   49 type  3   force =    -0.01112026   -0.00144733    0.00580787
     atom   50 type  4   force =     0.00070575   -0.00006372   -0.00012601
     atom   51 type  5   force =     0.00021557   -0.00056160    0.00061771
     atom   52 type  5   force =    -0.00041460    0.00040115    0.00005239
     atom   53 type  5   force =     0.00041833   -0.00045385    0.00024494
     atom   54 type  5   force =     0.00020099   -0.00024989   -0.00001239
     atom   55 type  5   force =     0.01249321   -0.00004310   -0.00515211
     atom   56 type  5   force =     0.00043506   -0.00070868   -0.00022764

     Total force =     0.366084     Total SCF correction =     0.000873
  @ DRIVER MODE: Message from server: STATUS
  @ DRIVER MODE: Message from server: GETFORCE
  @ DRIVER MODE: Returning v,forces,stress,ensemble

     Writing output data file ./calc.save/
  @ DRIVER MODE: Message from server: EXIT
  @ DRIVE MODE: Exiting

     General routines

     Parallel routines

   This run was terminated on:  12:44:19   9Sep2021

   JOB DONE.