     Program PWSCF v.6.7GPU starts on 16Sep2021 at  1:11:38

     R & G space division:  proc/nbgrp/npool/nimage =      10
     Reading input from /storage/home/hcoda1/3/ntian30/research/carbon/CxH_vib/H2O_calc/ads_slab/CH3NHNH2H2O_a/out_0027/pw.inp
Warning: card &CELL ignored
Warning: card   CELL_DYNAMICS='IPI', ignored
Warning: card / ignored

     Current dimensions of program PWSCF are:
     Max number of different atomic species (ntypx) = 10
     Max number of k-points (npk) =  40000
     Max angular momentum in pseudopotentials (lmaxx) =  3
     Presently no symmetry can be used with electric field

     Message from routine cell_base_init:
     DEPRECATED: use true lattice parameter, not A to a.u. conversion factor

     IMPORTANT: XC functional enforced from input :
     Exchange-correlation= BEEF-VDW
                           (   1   4  43  14   2   0   0)
     Any further DFT definition will be discarded
     Please, verify this is what you really want

  @ DRIVER MODE: Connecting to
 qe_1139763_2852619.sched-torque.pace.gatech.eduobpvdx7j_scratch
  using UNIX socket
  @ DRIVER MODE: Message from server: STATUS
  @ DRIVER MODE: Message from server: INIT
  @ DRIVER MODE: Receiving replica           0          -1
  @ DRIVER MODE: Receiving encoded integer          25
  @ DRIVER MODE:  SCF:  T  FORCE:  T  STRESS:  F  VC:  F  ENSEMBLE:  F
  @ DRIVER MODE:  SCF:  T  FORCE:  T  STRESS:  F  VC:  F  ENSEMBLE:  F

     Using Slab Decomposition

     bravais-lattice index     =            0
     lattice parameter (alat)  =       1.8897  a.u.
     unit-cell volume          =    6658.9804 (a.u.)^3
     number of atoms/cell      =           59
     number of atomic types    =            5
     number of electrons       =       406.00
     number of Kohn-Sham states=          213
     kinetic-energy cutoff     =      29.3995  Ry
     charge density cutoff     =     293.9946  Ry
     scf convergence threshold =      7.3E-08
     mixing beta               =       0.0500
     number of iterations used =            8  plain     mixing
     Exchange-correlation= BEEF-VDW
                           (   1   4  43  14   2   0   0)

     celldm(1)=   1.889726  celldm(2)=   0.000000  celldm(3)=   0.000000
     celldm(4)=   0.000000  celldm(5)=   0.000000  celldm(6)=   0.000000

     crystal axes: (cart. coord. in units of alat)
               a(1) = (   6.579727   0.000000   0.000000 )
               a(2) = (  -0.000775   5.961596   0.000000 )
               a(3) = (   0.000000   0.000000  25.155947 )

     reciprocal axes: (cart. coord. in units 2 pi/alat)
               b(1) = (  0.151982  0.000020  0.000000 )
               b(2) = (  0.000000  0.167740  0.000000 )
               b(3) = (  0.000000  0.000000  0.039752 )

     PseudoPot. # 1 for Ti read from file:
     /storage/coda1/p-amedford6/0/shared/rich_project_chbe-medford/medford-share/data/pseudos_module/espresso/nninc/pbe/van/Ti.UPF
     MD5 check sum: 8e4df49b7f0d34bbd5052bf3f5ea0213
     Pseudo is Ultrasoft, Zval = 12.0
     Generated by new atomic code, or converted to UPF format
     Using radial grid of  851 points,  6 beta functions with:
                l(1) =   0
                l(2) =   0
                l(3) =   1
                l(4) =   1
                l(5) =   2
                l(6) =   2
     Q(r) pseudized with  8 coefficients,  rinner =    1.000   1.000   1.000
                                                       1.000   1.000

     PseudoPot. # 2 for O  read from file:
     /storage/coda1/p-amedford6/0/shared/rich_project_chbe-medford/medford-share/data/pseudos_module/espresso/nninc/pbe/van/O.UPF
     MD5 check sum: 78c19812648e8988a0fe644b0f25305e
     Pseudo is Ultrasoft, Zval =  6.0
     Generated by new atomic code, or converted to UPF format
     Using radial grid of  737 points,  4 beta functions with:
                l(1) =   0
                l(2) =   0
                l(3) =   1
                l(4) =   1
     Q(r) pseudized with  8 coefficients,  rinner =    0.800   0.800   0.800

     PseudoPot. # 3 for N  read from file:
     /storage/coda1/p-amedford6/0/shared/rich_project_chbe-medford/medford-share/data/pseudos_module/espresso/nninc/pbe/van/N.UPF
     MD5 check sum: 90d10febe142ad51ac9d5be1deb811c4
     Pseudo is Ultrasoft, Zval =  5.0
     Generated by new atomic code, or converted to UPF format
     Using radial grid of  729 points,  4 beta functions with:
                l(1) =   0
                l(2) =   0
                l(3) =   1
                l(4) =   1
     Q(r) pseudized with  8 coefficients,  rinner =    0.800   0.800   0.800

     PseudoPot. # 4 for C  read from file:
     /storage/coda1/p-amedford6/0/shared/rich_project_chbe-medford/medford-share/data/pseudos_module/espresso/nninc/pbe/van/C.UPF
     MD5 check sum: 1a69bf6b8db32088f5b2163dbdb77a27
     Pseudo is Ultrasoft, Zval =  4.0
     Generated by new atomic code, or converted to UPF format
     Using radial grid of  721 points,  4 beta functions with:
                l(1) =   0
                l(2) =   0
                l(3) =   1
                l(4) =   1
     Q(r) pseudized with  8 coefficients,  rinner =    0.800   0.800   0.800

     PseudoPot. # 5 for H  read from file:
     /storage/coda1/p-amedford6/0/shared/rich_project_chbe-medford/medford-share/data/pseudos_module/espresso/nninc/pbe/van/H.UPF
     MD5 check sum: b5ee9d7bfd3a09ee7748110bda690ff7
     Pseudo is Ultrasoft, Zval =  1.0
     Generated by new atomic code, or converted to UPF format
     Using radial grid of  615 points,  1 beta functions with:
                l(1) =   0
     Q(r) pseudized with  8 coefficients,  rinner =    0.800

     atomic species   valence    mass     pseudopotential
        Ti1           12.00    47.86700     Ti( 1.00)
        O1             6.00    15.99900     O ( 1.00)
        N1             5.00    14.00700     N ( 1.00)
        C1             4.00    12.01100     C ( 1.00)
        H1             1.00     1.00800     H ( 1.00)

     No symmetry found

   Cartesian axes

     site n.     atom                  positions (alat units)
         1           Ti1 tau(   1) = (   0.0004258   2.9801865   6.0000000  )
         2           Ti1 tau(   2) = (   3.2906075   1.4906267   6.0002472  )
         3           O1  tau(   3) = (   0.0006271   0.0005054   7.9858123  )
         4           O1  tau(   4) = (   3.2906025   0.0005020   7.3038282  )
         5           O1  tau(   5) = (   4.5942328   1.4918067   9.2879030  )
         6           O1  tau(   6) = (   1.9868534   1.4903216   9.2879459  )
         7           Ti1 tau(   7) = (   3.2907910   2.8959150   9.1758416  )
         8           Ti1 tau(   8) = (   0.0015273   1.4827037   9.2680791  )
         9           O1  tau(   9) = (   3.2683845   0.0132936  11.3796717  )
        10           O1  tau(  10) = (   0.0116148   5.9584955  10.6183126  )
        11           O1  tau(  11) = (   1.2681313   1.5011218  12.7194972  )
        12           O1  tau(  12) = (   5.2787963   1.4993765  12.6897032  )
        13           Ti1 tau(  13) = (   6.5560253   2.9823375  12.4990790  )
        14           Ti1 tau(  14) = (   3.2673924   1.4925278  12.5394213  )
        15           O1  tau(  15) = (   6.5345332   5.8735037  14.6996474  )
        16           O1  tau(  16) = (   3.2898196   5.9462848  13.9939205  )
        17           O1  tau(  17) = (   4.4957945   1.5291507  16.1605787  )
        18           O1  tau(  18) = (   1.9883785   1.5110281  16.0762771  )
        19           Ti1 tau(  19) = (   3.2526948   3.0056396  15.7740191  )
        20           Ti1 tau(  20) = (   0.0000763   1.3299063  15.8143521  )
        21           O1  tau(  21) = (   3.2904802   0.0005063   4.7018136  )
        22           O1  tau(  22) = (   6.5205728   0.2065101  17.2442985  )
        23           O1  tau(  23) = (   1.3043587   1.4918075   6.0039043  )
        24           O1  tau(  24) = (   5.2767064   1.4903225   6.0039473  )
        25           Ti1 tau(  25) = (   0.0000382   5.9609847   6.0000000  )
        26           Ti1 tau(  26) = (   3.2902200   4.4714249   6.0002472  )
        27           O1  tau(  27) = (   0.0002396   2.9813036   7.9858123  )
        28           O1  tau(  28) = (   3.2902150   2.9813002   7.3038282  )
        29           O1  tau(  29) = (   4.5938453   4.4726049   9.2879030  )
        30           O1  tau(  30) = (   1.9864658   4.4711199   9.2879459  )
        31           Ti1 tau(  31) = (   3.2891106   5.8743827   9.1763621  )
        32           Ti1 tau(  32) = (   0.0006254   4.4649316   9.2693709  )
        33           O1  tau(  33) = (   3.2688559   2.9716192  11.3757022  )
        34           O1  tau(  34) = (   0.0092240   2.9805883  10.6323155  )
        35           O1  tau(  35) = (   1.2711362   4.4646907  12.6658965  )
        36           O1  tau(  36) = (   5.2748280   4.4660984  12.6332574  )
        37           Ti1 tau(  37) = (   6.5627654   5.9477838  12.5072267  )
        38           Ti1 tau(  38) = (   3.2667511   4.4702655  12.5260729  )
        39           O1  tau(  39) = (   6.5087961   3.0586107  15.0099536  )
        40           O1  tau(  40) = (   3.2849776   3.0149387  13.9815115  )
        41           O1  tau(  41) = (   4.4906635   4.4862850  16.2792570  )
        42           O1  tau(  42) = (   1.9756856   4.4939852  16.2100911  )
        43           Ti1 tau(  43) = (   3.2747729   0.0241646  15.7895078  )
        44           Ti1 tau(  44) = (   6.5697470   4.5456975  16.1185117  )
        45           O1  tau(  45) = (   3.2900926   2.9813045   4.7018136  )
        46           O1  tau(  46) = (   1.3039711   4.4726057   6.0039043  )
        47           O1  tau(  47) = (   5.2763189   4.4711207   6.0039473  )
        48           N1  tau(  48) = (   0.9980056   3.0961469  19.0053282  )
        49           N1  tau(  49) = (   6.4063515   3.4839273  18.2229180  )
        50           C1  tau(  50) = (   1.6570833   4.2684698  19.5811903  )
        51           H1  tau(  51) = (   0.9936588   4.8902639  20.1979557  )
        52           H1  tau(  52) = (   2.4789334   3.8963689  20.1993048  )
        53           H1  tau(  53) = (   2.0598354   4.8861676  18.7819781  )
        54           H1  tau(  54) = (   0.6510520   2.5058952  19.7602174  )
        55           H1  tau(  55) = (   5.8507131   4.1735594  18.7414995  )
        56           H1  tau(  56) = (   5.8147758   2.6545292  18.1916272  )
        57           O1  tau(  57) = (   5.1718451   0.7889162  19.5681371  )
        58           H1  tau(  58) = (   5.5516362   0.5215711  18.6954158  )
        59           H1  tau(  59) = (   4.2099197   0.7512590  19.4668632  )

     number of k points=    10  Fermi-Dirac smearing, width (Ry)=  0.0073
                       cart. coord. in units 2pi/alat
        k(    1) = (   0.0000000   0.0000000   0.0000000), wk =   0.1250000
        k(    2) = (   0.0000000   0.0419351   0.0000000), wk =   0.2500000
        k(    3) = (   0.0000000  -0.0838702   0.0000000), wk =   0.1250000
        k(    4) = (   0.0379955   0.0000049   0.0000000), wk =   0.2500000
        k(    5) = (   0.0379955   0.0419400   0.0000000), wk =   0.2500000
        k(    6) = (   0.0379955  -0.0838652   0.0000000), wk =   0.2500000
        k(    7) = (   0.0379955  -0.0419301   0.0000000), wk =   0.2500000
        k(    8) = (  -0.0759910  -0.0000099   0.0000000), wk =   0.1250000
        k(    9) = (  -0.0759910   0.0419252   0.0000000), wk =   0.2500000
        k(   10) = (  -0.0759910  -0.0838800   0.0000000), wk =   0.1250000

     Initial potential from superposition of free atoms

     starting charge  389.99912, renormalised to  406.00000

     negative rho (up, down):  1.389E-02 0.000E+00

     %%%%%%%%%%%%%%%%%%%%%%%%%%%%%%%%%%%%%%%%%%%%%%%%%%%%%%%%%%%%%%%%%%%%%%%%
     %                                                                      %
     % You are using vdW-DF, which was implemented by the Thonhauser group. %
     % Please cite the following two papers that made this development      %
     % possible and the two reviews that describe the various versions:     %
     %                                                                      %
     %   T. Thonhauser et al., PRL 115, 136402 (2015).                      %
     %   T. Thonhauser et al., PRB 76, 125112 (2007).                       %
     %   K. Berland et al., Rep. Prog. Phys. 78, 066501 (2015).             %
     %   D.C. Langreth et al., J. Phys.: Condens. Matter 21, 084203 (2009). %
     %                                                                      %
     %                                                                      %
     % If you are calculating the stress with vdW-DF, please also cite:     %
     %                                                                      %
     %   R. Sabatini et al., J. Phys.: Condens. Matter 24, 424209 (2012).   %
     %                                                                      %
     %%%%%%%%%%%%%%%%%%%%%%%%%%%%%%%%%%%%%%%%%%%%%%%%%%%%%%%%%%%%%%%%%%%%%%%%

     Adding external electric field

     Computed dipole along edir(3) :
        Dipole              -16.7176 Ry au,        -42.4920 Debye
        Dipole field         -0.0315 Ry au,

        Potential amp.        2.9245 Ry
        Total length         46.3494 bohr

     Starting wfcs are  308 atomic wfcs
  @ DRIVER MODE: Message from server: STATUS
  @ DRIVER MODE: Message from server: POSDATA
  @ DRIVER MODE: Reading and sharing cell
  @ DRIVER MODE: Reading and sharing positions
  @ DRIVER MODE: Received positions

     Self-consistent Calculation

     iteration #  1     ecut=    29.40 Ry     beta= 0.05
     Davidson diagonalization with overlap
     c_bands:  2 eigenvalues not converged
     c_bands:  3 eigenvalues not converged
     c_bands:  2 eigenvalues not converged
     c_bands:  4 eigenvalues not converged
     c_bands:  1 eigenvalues not converged
     c_bands:  4 eigenvalues not converged
     c_bands:  3 eigenvalues not converged
     c_bands:  5 eigenvalues not converged
     c_bands:  3 eigenvalues not converged
     ethr =  1.00E-05,  avg # of iterations = 24.9

[...]

     total energy              =   -2136.65713550 Ry
     estimated scf accuracy    <    9692.88048580 Ry

     iteration #  2     ecut=    29.40 Ry     beta= 0.05
     Davidson diagonalization with overlap
     ethr =  1.00E-02,  avg # of iterations = 31.8

[...]

     iteration # 72     ecut=    29.40 Ry     beta= 0.05
     Davidson diagonalization with overlap
     c_bands:  1 eigenvalues not converged
     ethr =  4.09E-11,  avg # of iterations = 16.0

[...]

     total energy              =   -2977.68381663 Ry
     estimated scf accuracy    <       0.00000009 Ry

     iteration # 74     ecut=    29.40 Ry     beta= 0.05
     Davidson diagonalization with overlap
     ethr =  2.28E-11,  avg # of iterations =  6.6

     negative rho (up, down):  1.438E-02 0.000E+00

     Adding external electric field

     Computed dipole along edir(3) :
        Dipole                1.0190 Ry au,          2.5900 Debye
        Dipole field          0.0019 Ry au,

        Potential amp.       -0.1783 Ry
        Total length         46.3494 bohr

     End of self-consistent calculation

          k = 0.0000 0.0000 0.0000 ( 18029 PWs)   bands (ev):

   -55.3598 -55.3226 -55.3103 -55.2930 -55.2761 -55.2408 -55.2390 -55.2042
   -55.1828 -55.1816 -55.1485 -55.1427 -55.1090 -55.0182 -54.3424 -54.3084
   -31.9262 -31.8087 -31.8032 -31.7277 -31.6761 -31.6721 -31.6720 -31.6491
   -31.5991 -31.5951 -31.5720 -31.5695 -31.5553 -31.5392 -31.5302 -31.5268
   -31.5143 -31.5073 -31.4968 -31.4791 -31.4644 -31.4630 -31.4352 -31.4245
   -31.4175 -31.4134 -31.3929 -31.3854 -31.3692 -31.3675 -31.3629 -31.3540
   -31.3418 -31.3409 -31.3320 -31.3295 -31.2964 -31.2934 -31.2710 -31.2539
   -31.2304 -31.2283 -30.7519 -30.6574 -30.6354 -30.5683 -30.4815 -30.3706
   -18.0040 -17.6354 -16.1934 -15.9328 -15.7874 -15.6589 -15.5613 -15.4330
   -15.4137 -15.2918 -15.2216 -15.1179 -15.0666 -15.0484 -15.0124 -15.0022
   -14.9791 -14.9084 -14.9023 -14.8883 -14.8644 -14.8556 -14.8095 -14.8017
   -14.7605 -14.7361 -14.7118 -14.6129 -14.5229 -14.4481 -14.3409 -13.1535
   -12.8451 -12.7276  -9.4007  -6.3127  -5.8761  -5.7424  -4.2552  -3.5320
    -3.3833  -3.3146  -3.2783  -3.2529  -3.1195  -2.9619  -2.9145  -2.8046
    -2.7890  -2.6909  -2.6447  -2.5735  -2.5568  -2.5417  -2.3953  -2.3731
    -2.3479  -2.2812  -2.2540  -2.1876  -2.1655  -2.1550  -2.1451  -2.1221
    -2.0941  -2.0510  -1.9925  -1.9335  -1.8403  -1.8148  -1.7642  -1.7346
    -1.7138  -1.6969  -1.6513  -1.6402  -1.6008  -1.5862  -1.5665  -1.5519
    -1.3889  -1.3662  -1.2646  -1.2030  -1.1040  -1.0001  -0.9645  -0.9498
    -0.8528  -0.8344  -0.7816  -0.7409  -0.7380  -0.7034  -0.5917  -0.5291
    -0.4767  -0.4132  -0.3905  -0.3503  -0.2823  -0.1995  -0.1432  -0.1293
    -0.1131  -0.0967   0.0131   0.0255   0.0772   0.1520   0.1616   0.1678
     0.2414   0.2979   0.3682   0.3929   0.4108   0.5159   0.5316   0.5639
     0.5696   0.5994   0.6202   0.6452   0.7054   0.7358   0.8189   0.9406
     1.1323   1.2217   1.2491   1.3617   1.5721   1.5847   1.6803   1.8635
     2.2566   2.3049   3.7372   3.8083   3.8832   3.8871   3.9097   3.9735
     4.2103   4.2276   4.2421   4.2459   4.2698

[...]

          k = 0.0380-0.0419 0.0000 ( 17876 PWs)   bands (ev):

[...]

          k =-0.0760-0.0000 0.0000 ( 17886 PWs)   bands (ev):

[...]

          k =-0.0760-0.0839 0.0000 ( 17948 PWs)   bands (ev):

   -55.3461 -55.3361 -55.2934 -55.2928 -55.2917 -55.2334 -55.2287 -55.2162
   -55.1871 -55.1668 -55.1640 -55.1261 -55.1257 -55.0193 -54.3255 -54.3252
   -31.7343 -31.7263 -31.7243 -31.6398 -31.6201 -31.6185 -31.6181 -31.5845
   -31.5842 -31.5734 -31.5593 -31.5581 -31.5513 -31.5315 -31.5197 -31.5063
   -31.4997 -31.4966 -31.4951 -31.4937 -31.4869 -31.4795 -31.4472 -31.4397
   -31.4366 -31.4363 -31.4223 -31.4176 -31.4132 -31.4127 -31.4073 -31.3996
   -31.3972 -31.3800 -31.3769 -31.3747 -31.3600 -31.3569 -31.3071 -31.3066
   -31.3007 -31.2342 -30.6482 -30.6479 -30.5645 -30.5643 -30.5250 -30.5248
   -17.9923 -17.6440 -15.6742 -15.5890 -15.5680 -15.4130 -15.3614 -15.3348
   -15.3238 -15.2086 -15.1661 -15.1471 -15.1324 -15.1105 -15.0723 -15.0627
   -15.0559 -14.9927 -14.9724 -14.9635 -14.9376 -14.8836 -14.8761 -14.8681
   -14.8604 -14.8105 -14.8066 -14.7671 -14.7159 -14.7124 -14.6372 -13.1598
   -12.8291 -12.8291  -9.4057  -6.3355  -5.9053  -5.6581  -4.2333  -2.9233
    -2.8468  -2.8362  -2.8297  -2.7014  -2.6263  -2.5509  -2.5287  -2.5076
    -2.4212  -2.4094  -2.3786  -2.3535  -2.3236  -2.2847  -2.2470  -2.2406
    -2.2045  -2.1960  -2.1801  -2.1635  -2.1419  -2.1266  -2.0926  -2.0819
    -2.0685  -2.0246  -1.9985  -1.9846  -1.9633  -1.9430  -1.9351  -1.9165
    -1.8419  -1.7514  -1.7269  -1.6417  -1.5725  -1.5705  -1.5644  -1.5027
    -1.4593  -1.4209  -1.3958  -1.3788  -1.2394  -1.1682  -1.1240  -1.1097
    -1.0951  -0.9643  -0.9581  -0.8821  -0.8595  -0.8531  -0.7598  -0.7150
    -0.6764  -0.6695  -0.5828  -0.5707  -0.4948  -0.3964  -0.3744  -0.3606
    -0.3155  -0.3137  -0.2762  -0.2633  -0.1669  -0.1314  -0.1087  -0.0975
    -0.0808  -0.0393   0.1114   0.1607   0.1672   0.3000   0.3320   0.4706
     0.5004   0.5646   0.6444   0.6932   0.7456   0.7785   0.8649   0.9397
     0.9429   1.0063   1.0219   1.0880   1.1002   1.3671   2.0365   2.0371
     2.1248   2.1251   3.8852   4.0002   4.0038   4.0331   4.1551   4.1786
     4.2549   4.2825   4.3217   4.3253   4.3831

     the Fermi energy is     3.8012 ev

!    total energy              =   -2977.68383511 Ry
     estimated scf accuracy    <       0.00000005 Ry
     smearing contrib. (-TS)   =      -0.03717729 Ry
     internal energy E=F+TS    =   -2977.64665782 Ry

     The total energy is F=E-TS. E is the sum of the following terms:
     one-electron contribution =  -22681.85152355 Ry
     hartree contribution      =   11438.28651163 Ry
     xc contribution           =    -496.61306739 Ry
     ewald contribution        =    8762.52946210 Ry
     electric field correction =       0.00195940 Ry

     convergence has been achieved in  74 iterations

     Forces acting on atoms (cartesian axes, Ry/au):

     atom    1 type  1   force =     0.00024199   -0.00037904    0.09321481
     atom    2 type  1   force =     0.00002064   -0.00038711   -0.17815841
     atom    3 type  2   force =     0.00004799   -0.00041455   -0.02001615
     atom    4 type  2   force =     0.00001044   -0.00190280    0.05912850
     atom    5 type  2   force =    -0.01035750   -0.00059354    0.00861592
     atom    6 type  2   force =     0.01130363    0.00009690    0.00628420
     atom    7 type  1   force =    -0.00096598    0.00198220   -0.01426125
     atom    8 type  1   force =     0.00097467   -0.00256173   -0.00597799
     atom    9 type  2   force =     0.00016623   -0.00001548    0.00008349
     atom   10 type  2   force =    -0.00230994    0.00309655    0.00261502
     atom   11 type  2   force =     0.00042965   -0.00043081   -0.00057097
     atom   12 type  2   force =     0.00002324   -0.00041081   -0.00057760
     atom   13 type  1   force =     0.00033313   -0.00027373   -0.00019227
     atom   14 type  1   force =     0.00005031   -0.00008635   -0.00006254
     atom   15 type  2   force =    -0.00000098    0.00060712   -0.00005290
     atom   16 type  2   force =     0.00030564    0.00027450   -0.00014361
     atom   17 type  2   force =     0.00039896    0.00023633    0.00036355
     atom   18 type  2   force =    -0.00052342    0.00020061   -0.00009944
     atom   19 type  1   force =    -0.00011848    0.00007652    0.00030858
     atom   20 type  1   force =    -0.00009876   -0.00010757    0.00057083
     atom   21 type  2   force =     0.00011831   -0.00011222    0.10400377
     atom   22 type  2   force =     0.00017987   -0.00027969    0.00058512
     atom   23 type  2   force =    -0.07027826   -0.00019327   -0.02685665
     atom   24 type  2   force =     0.07025742    0.00025133   -0.02685929
     atom   25 type  1   force =     0.00017215   -0.00030576    0.09240574
     atom   26 type  1   force =     0.00005675   -0.00054604   -0.17848254
     atom   27 type  2   force =     0.00008133   -0.00021526   -0.01908060
     atom   28 type  2   force =     0.00005866   -0.00173204    0.05854718
     atom   29 type  2   force =    -0.01102755   -0.00114242    0.00945062
     atom   30 type  2   force =     0.01188297   -0.00069857    0.00723350
     atom   31 type  1   force =    -0.00088067    0.00646339   -0.01492149
     atom   32 type  1   force =     0.00101878    0.00220411   -0.00637747
     atom   33 type  2   force =     0.00025843    0.00009353    0.00001381
     atom   34 type  2   force =    -0.00214621   -0.00243781   -0.00031242
     atom   35 type  2   force =     0.00028957    0.00012604   -0.00001242
     atom   36 type  2   force =     0.00024404    0.00003753    0.00050534
     atom   37 type  1   force =    -0.00010072    0.00002480   -0.00003783
     atom   38 type  1   force =     0.00015150   -0.00007154    0.00000445
     atom   39 type  2   force =    -0.00010631   -0.00021956    0.00039721
     atom   40 type  2   force =    -0.00014360    0.00008535    0.00003640
     atom   41 type  2   force =    -0.00042903    0.00015020    0.00025884
     atom   42 type  2   force =     0.00024632   -0.00009002   -0.00014763
     atom   43 type  1   force =     0.00040832    0.00029393   -0.00008405
     atom   44 type  1   force =    -0.00004819   -0.00018867   -0.00001259
     atom   45 type  2   force =     0.00012354   -0.00011080    0.10393975
     atom   46 type  2   force =    -0.07024866   -0.00013114   -0.02679729
     atom   47 type  2   force =     0.07023623    0.00027640   -0.02686402
     atom   48 type  3   force =    -0.00104594    0.00028129   -0.00106521
     atom   49 type  3   force =     0.00011098   -0.00010766   -0.00089034
     atom   50 type  4   force =     0.00238279   -0.00315139    0.00177993
     atom   51 type  5   force =    -0.00028469    0.00016934    0.00077998
     atom   52 type  5   force =    -0.00217877    0.00321089   -0.00153811
     atom   53 type  5   force =     0.00050734    0.00000427   -0.00018292
     atom   54 type  5   force =     0.00007596   -0.00010437    0.00000937
     atom   55 type  5   force =     0.00030715    0.00034665   -0.00027491
     atom   56 type  5   force =    -0.00040304   -0.00078709    0.00053792
     atom   57 type  2   force =    -0.00097583   -0.00063395    0.00085412
     atom   58 type  5   force =     0.00007031   -0.00026089   -0.00017743
     atom   59 type  5   force =     0.00112731    0.00049394   -0.00143967

     Total force =     0.366293     Total SCF correction =     0.000531
  @ DRIVER MODE: Message from server: STATUS
  @ DRIVER MODE: Message from server: GETFORCE
  @ DRIVER MODE: Returning v,forces,stress,ensemble

     Writing output data file ./calc.save/
  @ DRIVER MODE: Message from server: EXIT
  @ DRIVE MODE: Exiting

     General routines

     Parallel routines

   This run was terminated on:   1:32:38  16Sep2021

   JOB DONE.