     Program PWSCF v.6.7GPU starts on 16Sep2021 at  0:44: 3

     R & G space division:  proc/nbgrp/npool/nimage =      10
     Reading input from /storage/home/hcoda1/3/ntian30/research/carbon/CxH_vib/H2O_calc/ads_slab/CH2N2HH2O_a/out_0028/pw.inp
Warning: card &CELL ignored
Warning: card   CELL_DYNAMICS='IPI', ignored
Warning: card / ignored

     Current dimensions of program PWSCF are:
     Max number of different atomic species (ntypx) = 10
     Max number of k-points (npk) =  40000
     Max angular momentum in pseudopotentials (lmaxx) =  3
     Presently no symmetry can be used with electric field

     Message from routine cell_base_init:
     DEPRECATED: use true lattice parameter, not A to a.u. conversion factor

     IMPORTANT: XC functional enforced from input :
     Exchange-correlation= BEEF-VDW
                           (   1   4  43  14   2   0   0)
     Any further DFT definition will be discarded
     Please, verify this is what you really want

  @ DRIVER MODE: Connecting to
 qe_1139763_2852606.sched-torque.pace.gatech.eduskjb18f5_scratch
  using UNIX socket
  @ DRIVER MODE: Message from server: STATUS
  @ DRIVER MODE: Message from server: INIT
  @ DRIVER MODE: Receiving replica           0          -1
  @ DRIVER MODE: Receiving encoded integer          25
  @ DRIVER MODE:  SCF:  T  FORCE:  T  STRESS:  F  VC:  F  ENSEMBLE:  F
  @ DRIVER MODE:  SCF:  T  FORCE:  T  STRESS:  F  VC:  F  ENSEMBLE:  F

     Using Slab Decomposition

     bravais-lattice index     =            0
     lattice parameter (alat)  =       1.8897  a.u.
     unit-cell volume          =    6658.9804 (a.u.)^3
     number of atoms/cell      =           56
     number of atomic types    =            5
     number of electrons       =       403.00
     number of Kohn-Sham states=          211
     kinetic-energy cutoff     =      29.3995  Ry
     charge density cutoff     =     293.9946  Ry
     scf convergence threshold =      7.3E-08
     mixing beta               =       0.0500
     number of iterations used =            8  plain     mixing
     Exchange-correlation= BEEF-VDW
                           (   1   4  43  14   2   0   0)

     celldm(1)=   1.889726  celldm(2)=   0.000000  celldm(3)=   0.000000
     celldm(4)=   0.000000  celldm(5)=   0.000000  celldm(6)=   0.000000

     crystal axes: (cart. coord. in units of alat)
               a(1) = (   6.579727   0.000000   0.000000 )
               a(2) = (  -0.000775   5.961596   0.000000 )
               a(3) = (   0.000000   0.000000  25.155947 )

     reciprocal axes: (cart. coord. in units 2 pi/alat)
               b(1) = (  0.151982  0.000020  0.000000 )
               b(2) = (  0.000000  0.167740  0.000000 )
               b(3) = (  0.000000  0.000000  0.039752 )

     PseudoPot. # 1 for Ti read from file:
     /storage/coda1/p-amedford6/0/shared/rich_project_chbe-medford/medford-share/data/pseudos_module/espresso/nninc/pbe/van/Ti.UPF
     MD5 check sum: 8e4df49b7f0d34bbd5052bf3f5ea0213
     Pseudo is Ultrasoft, Zval = 12.0
     Generated by new atomic code, or converted to UPF format
     Using radial grid of  851 points,  6 beta functions with:
                l(1) =   0
                l(2) =   0
                l(3) =   1
                l(4) =   1
                l(5) =   2
                l(6) =   2
     Q(r) pseudized with  8 coefficients,  rinner =    1.000   1.000   1.000
                                                       1.000   1.000

     PseudoPot. # 2 for O  read from file:
     /storage/coda1/p-amedford6/0/shared/rich_project_chbe-medford/medford-share/data/pseudos_module/espresso/nninc/pbe/van/O.UPF
     MD5 check sum: 78c19812648e8988a0fe644b0f25305e
     Pseudo is Ultrasoft, Zval =  6.0
     Generated by new atomic code, or converted to UPF format
     Using radial grid of  737 points,  4 beta functions with:
                l(1) =   0
                l(2) =   0
                l(3) =   1
                l(4) =   1
     Q(r) pseudized with  8 coefficients,  rinner =    0.800   0.800   0.800

     PseudoPot. # 3 for N  read from file:
     /storage/coda1/p-amedford6/0/shared/rich_project_chbe-medford/medford-share/data/pseudos_module/espresso/nninc/pbe/van/N.UPF
     MD5 check sum: 90d10febe142ad51ac9d5be1deb811c4
     Pseudo is Ultrasoft, Zval =  5.0
     Generated by new atomic code, or converted to UPF format
     Using radial grid of  729 points,  4 beta functions with:
                l(1) =   0
                l(2) =   0
                l(3) =   1
                l(4) =   1
     Q(r) pseudized with  8 coefficients,  rinner =    0.800   0.800   0.800

     PseudoPot. # 4 for C  read from file:
     /storage/coda1/p-amedford6/0/shared/rich_project_chbe-medford/medford-share/data/pseudos_module/espresso/nninc/pbe/van/C.UPF
     MD5 check sum: 1a69bf6b8db32088f5b2163dbdb77a27
     Pseudo is Ultrasoft, Zval =  4.0
     Generated by new atomic code, or converted to UPF format
     Using radial grid of  721 points,  4 beta functions with:
                l(1) =   0
                l(2) =   0
                l(3) =   1
                l(4) =   1
     Q(r) pseudized with  8 coefficients,  rinner =    0.800   0.800   0.800

     PseudoPot. # 5 for H  read from file:
     /storage/coda1/p-amedford6/0/shared/rich_project_chbe-medford/medford-share/data/pseudos_module/espresso/nninc/pbe/van/H.UPF
     MD5 check sum: b5ee9d7bfd3a09ee7748110bda690ff7
     Pseudo is Ultrasoft, Zval =  1.0
     Generated by new atomic code, or converted to UPF format
     Using radial grid of  615 points,  1 beta functions with:
                l(1) =   0
     Q(r) pseudized with  8 coefficients,  rinner =    0.800

     atomic species   valence    mass     pseudopotential
        Ti1           12.00    47.86700     Ti( 1.00)
        O1             6.00    15.99900     O ( 1.00)
        N1             5.00    14.00700     N ( 1.00)
        C1             4.00    12.01100     C ( 1.00)
        H1             1.00     1.00800     H ( 1.00)

     No symmetry found

   Cartesian axes

     site n.     atom                  positions (alat units)
         1           Ti1 tau(   1) = (   0.0004258   2.9801865   6.0000000  )
         2           Ti1 tau(   2) = (   3.2906075   1.4906267   6.0002472  )
         3           O1  tau(   3) = (   0.0006271   0.0005054   7.9858123  )
         4           O1  tau(   4) = (   3.2906025   0.0005020   7.3038282  )
         5           O1  tau(   5) = (   4.5942328   1.4918067   9.2879030  )
         6           O1  tau(   6) = (   1.9868534   1.4903216   9.2879459  )
         7           Ti1 tau(   7) = (   3.2907910   2.8959150   9.1758416  )
         8           Ti1 tau(   8) = (   0.0015273   1.4827037   9.2680791  )
         9           O1  tau(   9) = (   3.2932810   5.9556063  11.3276769  )
        10           O1  tau(  10) = (   0.0116148   5.9584955  10.6183126  )
        11           O1  tau(  11) = (   1.2966828   1.5020869  12.6141357  )
        12           O1  tau(  12) = (   5.2995835   1.4923495  12.6341875  )
        13           Ti1 tau(  13) = (   6.5470072   2.9473109  12.5798724  )
        14           Ti1 tau(  14) = (   3.2302912   1.4573256  12.5082679  )
        15           O1  tau(  15) = (   0.0525813   0.0137714  14.6435187  )
        16           O1  tau(  16) = (   3.2708393   0.0302713  13.9228694  )
        17           O1  tau(  17) = (   4.5627544   1.5900677  16.0055000  )
        18           O1  tau(  18) = (   2.0437599   1.5040777  16.0764052  )
        19           Ti1 tau(  19) = (   3.3063064   2.9825517  15.6619520  )
        20           Ti1 tau(  20) = (   6.5607061   1.3194196  15.9785141  )
        21           O1  tau(  21) = (   3.2904802   0.0005063   4.7018136  )
        22           O1  tau(  22) = (   6.3855286   5.9589440  17.1610702  )
        23           O1  tau(  23) = (   1.3043587   1.4918075   6.0039043  )
        24           O1  tau(  24) = (   5.2767064   1.4903225   6.0039473  )
        25           Ti1 tau(  25) = (   0.0000382   5.9609847   6.0000000  )
        26           Ti1 tau(  26) = (   3.2902200   4.4714249   6.0002472  )
        27           O1  tau(  27) = (   0.0002396   2.9813036   7.9858123  )
        28           O1  tau(  28) = (   3.2902150   2.9813002   7.3038282  )
        29           O1  tau(  29) = (   4.5938453   4.4726049   9.2879030  )
        30           O1  tau(  30) = (   1.9864658   4.4711199   9.2879459  )
        31           Ti1 tau(  31) = (   3.2891106   5.8743827   9.1763621  )
        32           Ti1 tau(  32) = (   0.0006254   4.4649316   9.2693709  )
        33           O1  tau(  33) = (   3.2946552   2.9814125  11.3288906  )
        34           O1  tau(  34) = (   0.0092240   2.9805883  10.6323155  )
        35           O1  tau(  35) = (   1.2978438   4.4726441  12.6233041  )
        36           O1  tau(  36) = (   5.2969606   4.4732664  12.6435870  )
        37           Ti1 tau(  37) = (   6.5415350   5.9305516  12.5357152  )
        38           Ti1 tau(  38) = (   3.2303862   4.4559975  12.4807118  )
        39           O1  tau(  39) = (   0.0164246   2.9899045  14.7829194  )
        40           O1  tau(  40) = (   3.2688228   2.9752494  13.8698570  )
        41           O1  tau(  41) = (   4.5210259   4.4573316  15.9082071  )
        42           O1  tau(  42) = (   2.0412773   4.4882057  16.0214637  )
        43           Ti1 tau(  43) = (   3.2233344   5.9452837  15.7820064  )
        44           Ti1 tau(  44) = (   6.5355943   4.4735413  15.8975681  )
        45           O1  tau(  45) = (   3.2900926   2.9813045   4.7018136  )
        46           O1  tau(  46) = (   1.3039711   4.4726057   6.0039043  )
        47           O1  tau(  47) = (   5.2763189   4.4711207   6.0039473  )
        48           N1  tau(  48) = (   0.2167872   2.3688911  18.0161765  )
        49           C1  tau(  49) = (   0.4968348   1.8934616  19.1878903  )
        50           H1  tau(  50) = (   0.5617972   2.5522217  20.0513624  )
        51           H1  tau(  51) = (   0.6371857   0.8299532  19.2874115  )
        52           N1  tau(  52) = (   6.5661014   3.6486027  17.7750644  )
        53           H1  tau(  53) = (   0.0713089   4.2532688  18.5884219  )
        54           O1  tau(  54) = (   3.6608114   5.9026821  18.0962282  )
        55           H1  tau(  55) = (   4.6425638   0.0038819  18.0438526  )
        56           H1  tau(  56) = (   3.3558581   0.7595698  18.5153002  )

     number of k points=    10  Fermi-Dirac smearing, width (Ry)=  0.0073
                       cart. coord. in units 2pi/alat
        k(    1) = (   0.0000000   0.0000000   0.0000000), wk =   0.1250000
        k(    2) = (   0.0000000   0.0419351   0.0000000), wk =   0.2500000
        k(    3) = (   0.0000000  -0.0838702   0.0000000), wk =   0.1250000
        k(    4) = (   0.0379955   0.0000049   0.0000000), wk =   0.2500000
        k(    5) = (   0.0379955   0.0419400   0.0000000), wk =   0.2500000
        k(    6) = (   0.0379955  -0.0838652   0.0000000), wk =   0.2500000
        k(    7) = (   0.0379955  -0.0419301   0.0000000), wk =   0.2500000
        k(    8) = (  -0.0759910  -0.0000099   0.0000000), wk =   0.1250000
        k(    9) = (  -0.0759910   0.0419252   0.0000000), wk =   0.2500000
        k(   10) = (  -0.0759910  -0.0838800   0.0000000), wk =   0.1250000

     Initial potential from superposition of free atoms

     starting charge  386.99914, renormalised to  403.00000

     negative rho (up, down):  1.554E-02 0.000E+00

     %%%%%%%%%%%%%%%%%%%%%%%%%%%%%%%%%%%%%%%%%%%%%%%%%%%%%%%%%%%%%%%%%%%%%%%%
     %                                                                      %
     % You are using vdW-DF, which was implemented by the Thonhauser group. %
     % Please cite the following two papers that made this development      %
     % possible and the two reviews that describe the various versions:     %
     %                                                                      %
     %   T. Thonhauser et al., PRL 115, 136402 (2015).                      %
     %   T. Thonhauser et al., PRB 76, 125112 (2007).                       %
     %   K. Berland et al., Rep. Prog. Phys. 78, 066501 (2015).             %
     %   D.C. Langreth et al., J. Phys.: Condens. Matter 21, 084203 (2009). %
     %                                                                      %
     %                                                                      %
     % If you are calculating the stress with vdW-DF, please also cite:     %
     %                                                                      %
     %   R. Sabatini et al., J. Phys.: Condens. Matter 24, 424209 (2012).   %
     %                                                                      %
     %%%%%%%%%%%%%%%%%%%%%%%%%%%%%%%%%%%%%%%%%%%%%%%%%%%%%%%%%%%%%%%%%%%%%%%%

     Adding external electric field

     Computed dipole along edir(3) :
        Dipole              -12.7952 Ry au,        -32.5221 Debye
        Dipole field         -0.0241 Ry au,

        Potential amp.        2.2383 Ry
        Total length         46.3494 bohr

     Starting wfcs are  305 atomic wfcs
  @ DRIVER MODE: Message from server: STATUS
  @ DRIVER MODE: Message from server: POSDATA
  @ DRIVER MODE: Reading and sharing cell
  @ DRIVER MODE: Reading and sharing positions
  @ DRIVER MODE: Received positions

     Self-consistent Calculation

     iteration #  1     ecut=    29.40 Ry     beta= 0.05
     Davidson diagonalization with overlap
     c_bands:  3 eigenvalues not converged
     c_bands:  3 eigenvalues not converged
     c_bands:  3 eigenvalues not converged
     c_bands:  5 eigenvalues not converged
     c_bands:  1 eigenvalues not converged
     c_bands:  1 eigenvalues not converged
     c_bands:  4 eigenvalues not converged
     c_bands:  3 eigenvalues not converged
     ethr =  1.00E-05,  avg # of iterations = 27.5

[...]

     total energy              =   -2369.04088742 Ry
     estimated scf accuracy    <    6884.65977769 Ry

     iteration #  2     ecut=    29.40 Ry     beta= 0.05
     Davidson diagonalization with overlap
     ethr =  1.00E-02,  avg # of iterations = 24.8

[...]

     iteration # 47     ecut=    29.40 Ry     beta= 0.05
     Davidson diagonalization with overlap
     c_bands:  1 eigenvalues not converged
     ethr =  3.77E-07,  avg # of iterations = 12.3

[...]

     total energy              =   -2973.98313978 Ry
     estimated scf accuracy    <       0.00000009 Ry

     iteration # 68     ecut=    29.40 Ry     beta= 0.05
     Davidson diagonalization with overlap
     ethr =  2.25E-11,  avg # of iterations =  2.5

     negative rho (up, down):  1.542E-02 0.000E+00

     Adding external electric field

     Computed dipole along edir(3) :
        Dipole                0.9359 Ry au,          2.3788 Debye
        Dipole field          0.0018 Ry au,

        Potential amp.       -0.1637 Ry
        Total length         46.3494 bohr

     End of self-consistent calculation

          k = 0.0000 0.0000 0.0000 ( 18029 PWs)   bands (ev):

   -55.6062 -55.5782 -55.5721 -55.5402 -55.4876 -55.4762 -55.4460 -55.4237
   -55.3897 -55.3853 -55.3512 -55.3280 -55.0342 -54.9831 -54.5861 -54.5520
   -32.1222 -32.0904 -31.9784 -31.9235 -31.9100 -31.8980 -31.8765 -31.8637
   -31.8506 -31.8098 -31.7586 -31.7547 -31.7264 -31.7259 -31.7221 -31.7122
   -31.7076 -31.7043 -31.7011 -31.6989 -31.6683 -31.6635 -31.6546 -31.6270
   -31.6175 -31.6166 -31.6093 -31.6060 -31.5911 -31.5827 -31.5655 -31.5523
   -31.5399 -31.5336 -31.5283 -31.4987 -31.4960 -31.2979 -31.2584 -31.2346
   -31.1822 -31.1393 -30.9929 -30.9050 -30.8826 -30.8100 -30.7235 -30.6121
   -18.6680 -17.8085 -16.3260 -16.0838 -15.8439 -15.7670 -15.7347 -15.5211
   -15.4181 -15.3626 -15.2272 -15.1782 -15.1647 -15.1447 -15.1197 -15.0850
   -15.0592 -15.0459 -15.0387 -15.0223 -14.9969 -14.9702 -14.9498 -14.9460
   -14.9050 -14.8362 -14.7667 -14.7411 -14.6792 -14.6670 -14.2281 -13.0875
   -12.9710 -12.0888  -7.8551  -6.4522  -5.3030  -4.4974  -3.6999  -3.5618
    -3.5143  -3.4645  -3.4566  -3.2667  -3.1844  -3.0506  -2.8901  -2.8338
    -2.7707  -2.7327  -2.6870  -2.6327  -2.5906  -2.4854  -2.4491  -2.4190
    -2.4038  -2.3584  -2.3534  -2.3485  -2.2862  -2.2509  -2.1728  -2.1465
    -2.0655  -1.9970  -1.9691  -1.9429  -1.9204  -1.9046  -1.9023  -1.8507
    -1.8494  -1.8475  -1.7763  -1.7338  -1.6526  -1.6065  -1.5490  -1.4143
    -1.3702  -1.2595  -1.2141  -1.0928  -1.0888  -1.0675  -1.0417  -1.0027
    -0.9955  -0.8712  -0.7858  -0.7355  -0.7014  -0.6392  -0.5381  -0.5173
    -0.4257  -0.4217  -0.3666  -0.3537  -0.3383  -0.3089  -0.2297  -0.1198
    -0.0996  -0.0385   0.0109   0.0738   0.1173   0.1420   0.1783   0.2295
     0.2535   0.2944   0.3196   0.3323   0.3653   0.4024   0.4252   0.5032
     0.5751   0.6255   0.6747   0.7139   0.7189   0.8972   1.0091   1.0482
     1.1786   1.1832   1.3697   1.4373   1.5076   1.6291   2.0074   2.0531
     2.2029   3.5016   3.6151   3.6396   3.6496   3.7529   3.8867   3.9691
     4.0097   4.0342   4.0730

[...]

          k = 0.0380-0.0419 0.0000 ( 17876 PWs)   bands (ev):

[...]

          k =-0.0760-0.0000 0.0000 ( 17886 PWs)   bands (ev):

[...]

          k =-0.0760-0.0839 0.0000 ( 17948 PWs)   bands (ev):

   -55.5893 -55.5889 -55.5655 -55.5526 -55.4785 -55.4741 -55.4550 -55.4070
   -55.4059 -55.3709 -55.3658 -55.3299 -55.0274 -54.9898 -54.5692 -54.5688
   -31.9386 -31.9133 -31.9057 -31.9055 -31.8836 -31.8832 -31.8184 -31.8137
   -31.8054 -31.8005 -31.7816 -31.7317 -31.7279 -31.7247 -31.7156 -31.7141
   -31.7119 -31.7091 -31.7084 -31.7067 -31.7050 -31.6925 -31.6833 -31.6686
   -31.6659 -31.6614 -31.6398 -31.6110 -31.6100 -31.6005 -31.5917 -31.5875
   -31.5844 -31.5834 -31.5819 -31.5369 -31.5111 -31.2863 -31.2609 -31.2555
   -31.2386 -31.1829 -30.8954 -30.8952 -30.8059 -30.8055 -30.7668 -30.7667
   -18.6660 -17.7946 -15.7669 -15.6740 -15.5870 -15.5449 -15.4662 -15.4479
   -15.3938 -15.3287 -15.2904 -15.2721 -15.2306 -15.2015 -15.1574 -15.1452
   -15.1372 -15.1137 -15.0897 -15.0653 -15.0542 -15.0481 -15.0433 -15.0300
   -14.9964 -14.9646 -14.9278 -14.9240 -14.8954 -14.6531 -14.5793 -13.0729
   -13.0728 -12.0398  -7.7774  -6.4462  -5.3683  -4.5677  -3.1825  -3.0548
    -2.8747  -2.8422  -2.7837  -2.7424  -2.7352  -2.6809  -2.5566  -2.5475
    -2.5171  -2.4523  -2.4287  -2.4256  -2.4171  -2.4131  -2.3920  -2.3553
    -2.3544  -2.3001  -2.2910  -2.2796  -2.2742  -2.2559  -2.2388  -2.2356
    -2.2120  -2.1659  -2.1517  -2.1354  -2.0275  -1.9266  -1.8707  -1.8339
    -1.8024  -1.7550  -1.7501  -1.7298  -1.7142  -1.6761  -1.6601  -1.6040
    -1.4901  -1.4109  -1.3265  -1.2944  -1.2662  -1.1948  -1.1504  -1.0863
    -1.0453  -1.0397  -0.9567  -0.8422  -0.8291  -0.7918  -0.7635  -0.6868
    -0.6587  -0.6263  -0.5655  -0.5585  -0.5323  -0.5046  -0.4742  -0.3756
    -0.3569  -0.3508  -0.3216  -0.3125  -0.3009  -0.2625  -0.1842  -0.0882
    -0.0158  -0.0100   0.0958   0.2250   0.3205   0.4520   0.4805   0.5296
     0.5802   0.6059   0.6990   0.7068   0.7346   0.7970   0.8384   0.9065
     0.9321   0.9470   1.0243   1.0378   1.8012   1.8024   1.8731   1.8732
     2.1460   3.8658   3.8943   3.9149   3.9600   4.0372   4.0611   4.0619
     4.0680   4.1841   4.1918

     the Fermi energy is     3.5204 ev

!    total energy              =   -2973.98316086 Ry
     estimated scf accuracy    <       0.00000007 Ry
     smearing contrib. (-TS)   =      -0.02040449 Ry
     internal energy E=F+TS    =   -2973.96275637 Ry

     The total energy is F=E-TS. E is the sum of the following terms:
     one-electron contribution =  -24204.26021293 Ry
     hartree contribution      =   12196.82668173 Ry
     xc contribution           =    -494.25587032 Ry
     ewald contribution        =    9527.72499220 Ry
     electric field correction =       0.00165295 Ry

     convergence has been achieved in  68 iterations

     Forces acting on atoms (cartesian axes, Ry/au):

     atom    1 type  1   force =    -0.00006687   -0.00019400    0.09555214
     atom    2 type  1   force =     0.00002825   -0.00034707   -0.17555261
     atom    3 type  2   force =     0.00009523   -0.00012645   -0.02314872
     atom    4 type  2   force =     0.00000676   -0.00139070    0.05289477
     atom    5 type  2   force =    -0.01000343   -0.00075510    0.00325598
     atom    6 type  2   force =     0.01153350   -0.00009678    0.00283054
     atom    7 type  1   force =     0.00046209    0.00028111   -0.00662153
     atom    8 type  1   force =     0.00028970    0.00537450    0.01757801
     atom    9 type  2   force =    -0.00015064   -0.00015585   -0.00038364
     atom   10 type  2   force =    -0.00346631    0.00074725   -0.01265304
     atom   11 type  2   force =    -0.00081882   -0.00033039    0.00010016
     atom   12 type  2   force =     0.00033448   -0.00017333    0.00010434
     atom   13 type  1   force =    -0.00025956    0.00039691   -0.00021595
     atom   14 type  1   force =     0.00021944    0.00004020    0.00068759
     atom   15 type  2   force =    -0.00013925    0.00025645   -0.00038488
     atom   16 type  2   force =    -0.00003904   -0.00020765   -0.00005842
     atom   17 type  2   force =     0.00049371   -0.00014635   -0.00004794
     atom   18 type  2   force =    -0.00021790   -0.00039996    0.00001046
     atom   19 type  1   force =    -0.00012168    0.00000360    0.00021839
     atom   20 type  1   force =     0.00048336   -0.00034522   -0.00047358
     atom   21 type  2   force =     0.00007054    0.00003396    0.10315296
     atom   22 type  2   force =    -0.00004610    0.00163577   -0.00011072
     atom   23 type  2   force =    -0.07161440   -0.00013516   -0.02752572
     atom   24 type  2   force =     0.07154127    0.00036630   -0.02756606
     atom   25 type  1   force =     0.00018595   -0.00009094    0.09521716
     atom   26 type  1   force =     0.00008802   -0.00040303   -0.17572140
     atom   27 type  2   force =     0.00011165   -0.00024179   -0.02207073
     atom   28 type  2   force =     0.00002832   -0.00099182    0.05229581
     atom   29 type  2   force =    -0.01015274    0.00037214    0.00285984
     atom   30 type  2   force =     0.01155460    0.00074689    0.00248182
     atom   31 type  1   force =     0.00027949    0.00393637   -0.01130408
     atom   32 type  1   force =     0.00045697   -0.00673625    0.01786575
     atom   33 type  2   force =    -0.00008073    0.00004804   -0.00018986
     atom   34 type  2   force =    -0.00395661    0.00073428   -0.01213599
     atom   35 type  2   force =    -0.00021784    0.00007849   -0.00016663
     atom   36 type  2   force =    -0.00000033    0.00002906   -0.00007780
     atom   37 type  1   force =    -0.00004033   -0.00041878    0.00034845
     atom   38 type  1   force =     0.00006213    0.00001026    0.00041143
     atom   39 type  2   force =     0.00035934   -0.00038199    0.00035264
     atom   40 type  2   force =    -0.00050333    0.00025685   -0.00008742
     atom   41 type  2   force =    -0.00013333    0.00013242   -0.00030311
     atom   42 type  2   force =     0.00062571    0.00028377    0.00002180
     atom   43 type  1   force =    -0.00016601   -0.00050357   -0.00024458
     atom   44 type  1   force =    -0.00006761    0.00013710   -0.00002813
     atom   45 type  2   force =     0.00007162   -0.00000266    0.10311181
     atom   46 type  2   force =    -0.07161398   -0.00003860   -0.02749771
     atom   47 type  2   force =     0.07154644    0.00035185   -0.02758831
     atom   48 type  3   force =    -0.00181980    0.01196915   -0.00253590
     atom   49 type  4   force =     0.00004438    0.00215154   -0.00130691
     atom   50 type  5   force =     0.00040300   -0.00041647    0.00060293
     atom   51 type  5   force =     0.00045740   -0.00048764   -0.00003237
     atom   52 type  3   force =     0.00163555   -0.02110888   -0.00218118
     atom   53 type  5   force =     0.00130506    0.00599543    0.00617797
     atom   54 type  2   force =    -0.00065410   -0.00128749   -0.00041562
     atom   55 type  5   force =     0.00180268   -0.00002334    0.00005302
     atom   56 type  5   force =    -0.00022591    0.00156756    0.00044477

     Total force =     0.365637     Total SCF correction =     0.000756
  @ DRIVER MODE: Message from server: STATUS
  @ DRIVER MODE: Message from server: GETFORCE
  @ DRIVER MODE: Returning v,forces,stress,ensemble

     Writing output data file ./calc.save/
  @ DRIVER MODE: Message from server: EXIT
  @ DRIVE MODE: Exiting

     General routines

     Parallel routines

   This run was terminated on:   1: 3: 4  16Sep2021

   JOB DONE.