     Program PWSCF v.6.7GPU starts on 18Oct2021 at 14:39:19

     R & G space division:  proc/nbgrp/npool/nimage =       8
     Reading input from /storage/home/hcoda1/3/ntian30/research/carbon/CxH_vib/Thiel_calc/ads_slab/HNNH_perslab/out_0006/pw.inp
Warning: card &CELL ignored
Warning: card   CELL_DYNAMICS='IPI', ignored
Warning: card / ignored

     Current dimensions of program PWSCF are:
     Max number of different atomic species (ntypx) = 10
     Max number of k-points (npk) =  40000
     Max angular momentum in pseudopotentials (lmaxx) =  3
     Presently no symmetry can be used with electric field

     Message from routine cell_base_init:
     DEPRECATED: use true lattice parameter, not A to a.u. conversion factor

     IMPORTANT: XC functional enforced from input :
     Exchange-correlation= BEEF-VDW
                           (   1   4  43  14   2   0   0)
     Any further DFT definition will be discarded
     Please, verify this is what you really want

  @ DRIVER MODE: Connecting to
 qe_1139763_3255131.sched-torque.pace.gatech.educedtesz6_scratch
  using UNIX socket
  @ DRIVER MODE: Message from server: STATUS
  @ DRIVER MODE: Message from server: INIT
  @ DRIVER MODE: Receiving replica           0          -1
  @ DRIVER MODE: Receiving encoded integer          25
  @ DRIVER MODE:  SCF:  T  FORCE:  T  STRESS:  F  VC:  F  ENSEMBLE:  F
  @ DRIVER MODE:  SCF:  T  FORCE:  T  STRESS:  F  VC:  F  ENSEMBLE:  F

     Using Slab Decomposition

     bravais-lattice index     =            0
     lattice parameter (alat)  =       1.8897  a.u.
     unit-cell volume          =    9988.4706 (a.u.)^3
     number of atoms/cell      =           57
     number of atomic types    =            4
     number of electrons       =       438.00
     number of Kohn-Sham states=          229
     kinetic-energy cutoff     =      29.3995  Ry
     charge density cutoff     =     293.9946  Ry
     scf convergence threshold =      7.3E-08
     mixing beta               =       0.0500
     number of iterations used =            8  plain     mixing
     Exchange-correlation= BEEF-VDW
                           (   1   4  43  14   2   0   0)

     celldm(1)=   1.889726  celldm(2)=   0.000000  celldm(3)=   0.000000
     celldm(4)=   0.000000  celldm(5)=   0.000000  celldm(6)=   0.000000

     crystal axes: (cart. coord. in units of alat)
               a(1) = (   6.579727   0.000000   0.000000 )
               a(2) = (  -0.001163   8.942395   0.000000 )
               a(3) = (   0.000000   0.000000  25.155947 )

     reciprocal axes: (cart. coord. in units 2 pi/alat)
               b(1) = (  0.151982  0.000020  0.000000 )
               b(2) = (  0.000000  0.111827  0.000000 )
               b(3) = (  0.000000  0.000000  0.039752 )

     PseudoPot. # 1 for O  read from file:
     /storage/coda1/p-amedford6/0/shared/rich_project_chbe-medford/medford-share/data/pseudos_module/espresso/nninc/pbe/van/O.UPF
     MD5 check sum: 78c19812648e8988a0fe644b0f25305e
     Pseudo is Ultrasoft, Zval =  6.0
     Generated by new atomic code, or converted to UPF format
     Using radial grid of  737 points,  4 beta functions with:
                l(1) =   0
                l(2) =   0
                l(3) =   1
                l(4) =   1
     Q(r) pseudized with  8 coefficients,  rinner =    0.800   0.800   0.800

     PseudoPot. # 2 for Ti read from file:
     /storage/coda1/p-amedford6/0/shared/rich_project_chbe-medford/medford-share/data/pseudos_module/espresso/nninc/pbe/van/Ti.UPF
     MD5 check sum: 8e4df49b7f0d34bbd5052bf3f5ea0213
     Pseudo is Ultrasoft, Zval = 12.0
     Generated by new atomic code, or converted to UPF format
     Using radial grid of  851 points,  6 beta functions with:
                l(1) =   0
                l(2) =   0
                l(3) =   1
                l(4) =   1
                l(5) =   2
                l(6) =   2
     Q(r) pseudized with  8 coefficients,  rinner =    1.000   1.000   1.000
                                                       1.000   1.000

     PseudoPot. # 3 for H  read from file:
     /storage/coda1/p-amedford6/0/shared/rich_project_chbe-medford/medford-share/data/pseudos_module/espresso/nninc/pbe/van/H.UPF
     MD5 check sum: b5ee9d7bfd3a09ee7748110bda690ff7
     Pseudo is Ultrasoft, Zval =  1.0
     Generated by new atomic code, or converted to UPF format
     Using radial grid of  615 points,  1 beta functions with:
                l(1) =   0
     Q(r) pseudized with  8 coefficients,  rinner =    0.800

     PseudoPot. # 4 for N  read from file:
     /storage/coda1/p-amedford6/0/shared/rich_project_chbe-medford/medford-share/data/pseudos_module/espresso/nninc/pbe/van/N.UPF
     MD5 check sum: 90d10febe142ad51ac9d5be1deb811c4
     Pseudo is Ultrasoft, Zval =  5.0
     Generated by new atomic code, or converted to UPF format
     Using radial grid of  729 points,  4 beta functions with:
                l(1) =   0
                l(2) =   0
                l(3) =   1
                l(4) =   1
     Q(r) pseudized with  8 coefficients,  rinner =    0.800   0.800   0.800

     atomic species   valence    mass     pseudopotential
        O1             6.00    15.99900     O ( 1.00)
        Ti1           12.00    47.86700     Ti( 1.00)
        H1             1.00     1.00800     H ( 1.00)
        N1             5.00    14.00700     N ( 1.00)

     No symmetry found

   Cartesian axes

     site n.     atom                  positions (alat units)
         1           O1  tau(   1) = (   0.0007354   0.0005023  10.5931620  )
         2           O1  tau(   2) = (   3.2896598   8.9340738  13.9086047  )
         3           O1  tau(   3) = (   6.5779785   8.9335072  17.2267929  )
         4           O1  tau(   4) = (   0.0006271   0.0005054   7.9858123  )
         5           O1  tau(   5) = (   3.2892818   8.9168625  11.1887994  )
         6           O1  tau(   6) = (   0.0000953   0.0200859  14.6187425  )
         7           O1  tau(   7) = (   1.9868534   1.4903216   9.2879459  )
         8           O1  tau(   8) = (   5.2299496   1.5903429  12.5639559  )
         9           O1  tau(   9) = (   2.0057315   1.6103507  16.0678580  )
        10           Ti1 tau(  10) = (   0.0007404   1.4906270   9.2895810  )
        11           Ti1 tau(  11) = (   3.2903845   1.3415648  12.5012035  )
        12           Ti1 tau(  12) = (   0.0001950   1.2451541  15.9845895  )
        13           O1  tau(  13) = (   4.5942328   1.4918067   9.2879030  )
        14           O1  tau(  14) = (   1.3504490   1.5899334  12.5641350  )
        15           O1  tau(  15) = (   4.5723762   1.6092463  16.0679920  )
        16           Ti1 tau(  16) = (   3.2902859   2.9801868   9.2893338  )
        17           Ti1 tau(  17) = (  -0.0000381   2.8017340  12.4757424  )
        18           Ti1 tau(  18) = (   3.2890522   2.9119407  15.7046117  )
        19           O1  tau(  19) = (   0.0003479   2.9813005  10.5931620  )
        20           O1  tau(  20) = (   3.2896940   2.9634103  13.8950687  )
        21           O1  tau(  21) = (   0.0002396   2.9813036   7.9858123  )
        22           O1  tau(  22) = (   3.2899864   2.9652420  11.1892519  )
        23           O1  tau(  23) = (  -0.0000843   3.0239999  14.5506518  )
        24           O1  tau(  24) = (   1.9864658   4.4711199   9.2879459  )
        25           O1  tau(  25) = (   5.2265999   4.6000300  12.5825491  )
        26           O1  tau(  26) = (   2.0173024   4.5375175  16.0298170  )
        27           Ti1 tau(  27) = (   0.0003529   4.4714252   9.2895810  )
        28           Ti1 tau(  28) = (   3.2900658   4.3228872  12.5050252  )
        29           Ti1 tau(  29) = (   0.0015352   4.3959346  15.6897578  )
        30           O1  tau(  30) = (   4.5938453   4.4726049   9.2879030  )
        31           O1  tau(  31) = (   1.3532953   4.6000771  12.5829012  )
        32           O1  tau(  32) = (   4.5620845   4.5358613  16.0300787  )
        33           Ti1 tau(  33) = (   3.2898983   5.9609850   9.2893338  )
        34           Ti1 tau(  34) = (  -0.0003676   5.8120669  12.4544080  )
        35           Ti1 tau(  35) = (   3.2921900   5.8807914  15.7090278  )
        36           O1  tau(  36) = (  -0.0000397   5.9620987  10.5931620  )
        37           O1  tau(  37) = (   3.2903388   5.9631658  13.9136923  )
        38           O1  tau(  38) = (  -0.0000761   5.9602876  17.3216368  )
        39           O1  tau(  39) = (  -0.0001480   5.9621018   7.9858123  )
        40           O1  tau(  40) = (   3.2896813   5.9437884  11.1873515  )
        41           O1  tau(  41) = (  -0.0004454   6.0514558  14.6911356  )
        42           O1  tau(  42) = (   1.9860782   7.4519181   9.2879459  )
        43           O1  tau(  43) = (   5.2331690   7.5528723  12.5749626  )
        44           O1  tau(  44) = (   2.0197658   7.5481525  16.0489791  )
        45           Ti1 tau(  45) = (  -0.0000347   7.4522234   9.2895810  )
        46           Ti1 tau(  46) = (   3.2899396   7.3045924  12.4973202  )
        47           Ti1 tau(  47) = (   0.0022254   7.3576980  16.0878887  )
        48           O1  tau(  48) = (   4.5934577   7.4534031   9.2879030  )
        49           O1  tau(  49) = (   1.3462119   7.5526743  12.5754142  )
        50           O1  tau(  50) = (   4.5579802   7.5455642  16.0489991  )
        51           Ti1 tau(  51) = (   3.2895107   8.9417832   9.2893338  )
        52           Ti1 tau(  52) = (  -0.0004108   8.7719052  12.5005688  )
        53           Ti1 tau(  53) = (   3.2909707   8.8596889  15.7095313  )
        54           H1  tau(  54) = (   6.5770345   5.6246256  18.2415160  )
        55           N1  tau(  55) = (   6.5773047   3.3138987  18.5316601  )
        56           N1  tau(  56) = (   6.5788436   3.1068121  17.3210979  )
        57           H1  tau(  57) = (   6.5767427   2.4184016  19.0716447  )

     number of k points=    10  Fermi-Dirac smearing, width (Ry)=  0.0073
                       cart. coord. in units 2pi/alat
        k(    1) = (   0.0000000   0.0000000   0.0000000), wk =   0.1250000
        k(    2) = (   0.0000000   0.0279567   0.0000000), wk =   0.2500000
        k(    3) = (   0.0000000  -0.0559134   0.0000000), wk =   0.1250000
        k(    4) = (   0.0379955   0.0000049   0.0000000), wk =   0.2500000
        k(    5) = (   0.0379955   0.0279617   0.0000000), wk =   0.2500000
        k(    6) = (   0.0379955  -0.0559085   0.0000000), wk =   0.2500000
        k(    7) = (   0.0379955  -0.0279518   0.0000000), wk =   0.2500000
        k(    8) = (  -0.0759910  -0.0000099   0.0000000), wk =   0.1250000
        k(    9) = (  -0.0759910   0.0279468   0.0000000), wk =   0.2500000
        k(   10) = (  -0.0759910  -0.0559233   0.0000000), wk =   0.1250000

     Initial potential from superposition of free atoms

     starting charge  419.99912, renormalised to  438.00000

     negative rho (up, down):  3.864E-02 0.000E+00

     %%%%%%%%%%%%%%%%%%%%%%%%%%%%%%%%%%%%%%%%%%%%%%%%%%%%%%%%%%%%%%%%%%%%%%%%
     %                                                                      %
     % You are using vdW-DF, which was implemented by the Thonhauser group. %
     % Please cite the following two papers that made this development      %
     % possible and the two reviews that describe the various versions:     %
     %                                                                      %
     %   T. Thonhauser et al., PRL 115, 136402 (2015).                      %
     %   T. Thonhauser et al., PRB 76, 125112 (2007).                       %
     %   K. Berland et al., Rep. Prog. Phys. 78, 066501 (2015).             %
     %   D.C. Langreth et al., J. Phys.: Condens. Matter 21, 084203 (2009). %
     %                                                                      %
     %                                                                      %
     % If you are calculating the stress with vdW-DF, please also cite:     %
     %                                                                      %
     %   R. Sabatini et al., J. Phys.: Condens. Matter 24, 424209 (2012).   %
     %                                                                      %
     %%%%%%%%%%%%%%%%%%%%%%%%%%%%%%%%%%%%%%%%%%%%%%%%%%%%%%%%%%%%%%%%%%%%%%%%

     Adding external electric field

     Computed dipole along edir(3) :
        Dipole               -4.5415 Ry au,        -11.5433 Debye
        Dipole field         -0.0057 Ry au,

        Potential amp.        0.5296 Ry
        Total length         46.3494 bohr

     Starting wfcs are  330 atomic wfcs
  @ DRIVER MODE: Message from server: STATUS
  @ DRIVER MODE: Message from server: POSDATA
  @ DRIVER MODE: Reading and sharing cell
  @ DRIVER MODE: Reading and sharing positions
  @ DRIVER MODE: Received positions

     Self-consistent Calculation

     iteration #  1     ecut=    29.40 Ry     beta= 0.05
     Davidson diagonalization with overlap
     c_bands:  3 eigenvalues not converged
     c_bands:  5 eigenvalues not converged
     c_bands:  3 eigenvalues not converged
     c_bands:  5 eigenvalues not converged
     c_bands:  5 eigenvalues not converged
     c_bands:  1 eigenvalues not converged
     c_bands:  2 eigenvalues not converged
     ethr =  1.00E-05,  avg # of iterations = 22.7

[...]

     total energy              =   -3289.09839888 Ry
     estimated scf accuracy    <      58.35990577 Ry

     iteration #  2     ecut=    29.40 Ry     beta= 0.05
     Davidson diagonalization with overlap
     ethr =  1.00E-02,  avg # of iterations =  5.5

[...]

     iteration # 32     ecut=    29.40 Ry     beta= 0.05
     Davidson diagonalization with overlap
     c_bands:  1 eigenvalues not converged
     c_bands:  1 eigenvalues not converged
     c_bands:  1 eigenvalues not converged
     ethr =  2.14E-06,  avg # of iterations = 14.0

[...]

     total energy              =   -3290.76646590 Ry
     estimated scf accuracy    <       0.00000012 Ry

     iteration # 54     ecut=    29.40 Ry     beta= 0.05
     Davidson diagonalization with overlap
     ethr =  2.64E-11,  avg # of iterations =  7.0

     negative rho (up, down):  3.653E-02 0.000E+00

     Adding external electric field

     Computed dipole along edir(3) :
        Dipole                1.2106 Ry au,          3.0771 Debye
        Dipole field          0.0015 Ry au,

        Potential amp.       -0.1412 Ry
        Total length         46.3494 bohr

     End of self-consistent calculation

          k = 0.0000 0.0000 0.0000 ( 26871 PWs)   bands (ev):

   -57.9797 -57.9749 -57.9701 -57.9552 -57.9526 -57.9150 -57.8523 -57.8115
   -57.7877 -57.7784 -57.7078 -57.6858 -57.6535 -57.3897 -57.3650 -56.9196
   -56.8964 -56.8823 -34.3718 -34.3661 -34.3652 -34.3544 -34.3517 -34.3187
   -34.3083 -34.3003 -34.2986 -34.2916 -34.2519 -34.2454 -34.1910 -34.1859
   -34.1766 -34.1751 -34.1604 -34.1539 -34.1490 -34.1459 -34.1248 -34.1048
   -34.0957 -34.0772 -34.0752 -34.0698 -34.0652 -34.0387 -34.0196 -33.9724
   -33.9714 -33.9613 -33.9441 -33.9366 -33.9326 -33.9279 -33.9002 -33.8761
   -33.8658 -33.8219 -33.6871 -33.6699 -33.6311 -33.6055 -33.5771 -33.2415
   -33.2339 -33.2248 -33.2186 -33.2123 -33.1410 -33.0821 -33.0664 -32.9388
   -20.7909 -19.3339 -18.8116 -18.4121 -18.2258 -18.2097 -18.2008 -18.1434
   -18.0672 -18.0636 -17.8827 -17.7927 -17.7702 -17.7439 -17.7257 -17.6926
   -17.6351 -17.6157 -17.5949 -17.5853 -17.5648 -17.5595 -17.4810 -17.4168
   -17.3914 -17.3844 -17.3767 -17.3731 -17.3032 -17.2178 -17.1274 -17.0686
   -17.0347 -15.3840 -15.3305 -15.3252 -11.2620  -7.6261  -7.1642  -6.1346
    -5.9232  -5.8582  -5.7828  -5.4331  -5.4214  -5.4179  -5.3527  -5.3316
    -5.2952  -5.2823  -5.2321  -5.2122  -5.2116  -5.1835  -5.1082  -5.0853
    -5.0587  -4.9827  -4.9368  -4.9056  -4.8555  -4.8419  -4.7426  -4.7412
    -4.7178  -4.7156  -4.7033  -4.6841  -4.6350  -4.6272  -4.5331  -4.5142
    -4.4715  -4.3524  -4.3287  -4.2690  -4.2525  -4.2231  -4.1394  -4.0764
    -4.0650  -4.0469  -4.0122  -3.9804  -3.9456  -3.9123  -3.8620  -3.7810
    -3.7179  -3.6795  -3.5668  -3.5105  -3.4763  -3.4541  -3.3745  -3.3555
    -3.3157  -3.2439  -3.1966  -3.1559  -3.1203  -3.1181  -3.0828  -2.9852
    -2.9778  -2.9005  -2.8185  -2.7922  -2.7135  -2.7024  -2.6946  -2.6773
    -2.6579  -2.6299  -2.6012  -2.5715  -2.4926  -2.4772  -2.4538  -2.4004
    -2.2927  -2.2759  -2.2723  -2.2550  -2.2501  -2.1845  -2.0857  -1.9760
    -1.9752  -1.9679  -1.8244  -1.7975  -1.7447  -1.7413  -1.6929  -1.6224
    -1.5659  -1.1761  -0.9377  -0.6517  -0.6192  -0.6107  -0.3724  -0.3626
    -0.2444   0.0055   0.9977   1.2667   1.3467   1.4341   1.4838   1.4894
     1.6155   1.6377   1.6709   1.7139   1.7238

[...]

          k = 0.0380-0.0280 0.0000 ( 26873 PWs)   bands (ev):

[...]

          k =-0.0760-0.0000 0.0000 ( 26902 PWs)   bands (ev):

[...]

          k =-0.0760-0.0559 0.0000 ( 26868 PWs)   bands (ev):

   -57.9738 -57.9724 -57.9707 -57.9698 -57.9454 -57.9157 -57.8520 -57.8073
   -57.7961 -57.7739 -57.7057 -57.6892 -57.6524 -57.3899 -57.3648 -56.9158
   -56.9036 -56.8789 -34.4461 -34.4329 -34.3761 -34.3668 -34.3332 -34.3121
   -34.3086 -34.2974 -34.2699 -34.2620 -34.2239 -34.2021 -34.1998 -34.1638
   -34.1629 -34.1617 -34.1608 -34.1420 -34.1218 -34.1197 -34.1150 -34.1047
   -34.1045 -34.0654 -34.0624 -34.0529 -34.0327 -34.0275 -34.0049 -33.9989
   -33.9930 -33.9925 -33.9794 -33.9761 -33.9487 -33.9319 -33.9274 -33.8762
   -33.8590 -33.7768 -33.7285 -33.6731 -33.6326 -33.6074 -33.5784 -33.3181
   -33.2433 -33.2319 -33.2087 -33.1265 -33.1118 -33.0534 -33.0418 -33.0283
   -20.7899 -19.3272 -18.5044 -18.4918 -18.1786 -18.1092 -18.0755 -18.0443
   -18.0045 -17.9689 -17.9390 -17.9265 -17.8978 -17.8030 -17.7941 -17.7230
   -17.6986 -17.6758 -17.6626 -17.6344 -17.5996 -17.5956 -17.5820 -17.4740
   -17.4630 -17.3799 -17.3614 -17.3185 -17.2616 -17.2169 -17.1160 -17.1032
   -17.0027 -15.3865 -15.3788 -15.2650 -11.2595  -7.6078  -7.1477  -5.7634
    -5.7575  -5.7226  -5.6979  -5.6387  -5.3691  -5.3429  -5.2156  -5.2115
    -5.2037  -5.1710  -5.1501  -5.1096  -5.0935  -5.0815  -5.0692  -5.0642
    -4.9989  -4.9961  -4.9436  -4.9128  -4.8661  -4.8594  -4.8506  -4.7943
    -4.7695  -4.7325  -4.7269  -4.6922  -4.5718  -4.5514  -4.5271  -4.4863
    -4.4502  -4.4321  -4.3494  -4.2914  -4.2240  -4.1116  -4.0883  -4.0834
    -4.0284  -3.9859  -3.9258  -3.8759  -3.7216  -3.6854  -3.6601  -3.5946
    -3.5664  -3.5523  -3.5365  -3.5154  -3.5012  -3.4487  -3.4434  -3.3893
    -3.3533  -3.3248  -3.3053  -3.2128  -3.1629  -3.1296  -3.0904  -3.0717
    -3.0613  -3.0500  -3.0230  -3.0162  -3.0147  -2.9497  -2.9398  -2.8987
    -2.8537  -2.7664  -2.7365  -2.6975  -2.6394  -2.5347  -2.5161  -2.4650
    -2.4469  -2.3934  -2.2099  -2.1958  -2.1790  -2.1354  -2.0886  -2.0496
    -2.0409  -2.0207  -1.9730  -1.8640  -1.7300  -1.7108  -1.5497  -1.4815
    -1.4742  -1.4534  -1.2520  -0.8351  -0.5508  -0.5227  -0.5175  -0.3758
    -0.3725   0.0076   1.1579   1.1824   1.2492   1.3208   1.3565   1.3647
     1.3851   1.4881   1.4915   1.5937   1.6590

     the Fermi energy is     1.0968 ev

!    total energy              =   -3290.76654131 Ry
     estimated scf accuracy    <       0.00000006 Ry
     smearing contrib. (-TS)   =      -0.03255708 Ry
     internal energy E=F+TS    =   -3290.73398423 Ry

     The total energy is F=E-TS. E is the sum of the following terms:
     one-electron contribution =  -34498.51091329 Ry
     hartree contribution      =   17310.64604573 Ry
     xc contribution           =    -540.50453305 Ry
     ewald contribution        =   14437.63357255 Ry
     electric field correction =       0.00184383 Ry

     convergence has been achieved in  54 iterations

     Forces acting on atoms (cartesian axes, Ry/au):

     atom    1 type  1   force =    -0.00000255    0.00295808    0.06149424
     atom    2 type  1   force =     0.00005582    0.00056925   -0.00874172
     atom    3 type  1   force =     0.00000847   -0.00443719    0.00123537
     atom    4 type  1   force =     0.00004988   -0.00105756    0.10518601
     atom    5 type  1   force =     0.00005081   -0.00000929    0.01002927
     atom    6 type  1   force =    -0.00003379   -0.00419500    0.00690027
     atom    7 type  1   force =     0.07080601   -0.00018306   -0.02970222
     atom    8 type  1   force =     0.00422204   -0.02881975    0.00201091
     atom    9 type  1   force =     0.00641449   -0.02307740    0.00268854
     atom   10 type  2   force =    -0.00005419   -0.00530904   -0.17416902
     atom   11 type  2   force =    -0.00025241    0.02022245   -0.00524302
     atom   12 type  2   force =    -0.00005875    0.02577691   -0.00811993
     atom   13 type  1   force =    -0.07089907   -0.00063123   -0.02964252
     atom   14 type  1   force =    -0.00451607   -0.02852445    0.00198884
     atom   15 type  1   force =    -0.00630611   -0.02313194    0.00266007
     atom   16 type  2   force =     0.00011121   -0.00199798    0.06351379
     atom   17 type  2   force =     0.00047031    0.03497603    0.00374999
     atom   18 type  2   force =    -0.00005938    0.01826740   -0.00078555
     atom   19 type  1   force =    -0.00001189    0.00864930    0.05613964
     atom   20 type  1   force =     0.00004142    0.00030031   -0.00814610
     atom   21 type  1   force =     0.00004734    0.00236277    0.10557228
     atom   22 type  1   force =     0.00004574   -0.00046157    0.00965984
     atom   23 type  1   force =    -0.00001487   -0.00191390    0.00323975
     atom   24 type  1   force =     0.06932750   -0.00029022   -0.02956407
     atom   25 type  1   force =     0.00471129   -0.02809763    0.00243748
     atom   26 type  1   force =     0.00621612   -0.01517909   -0.00034497
     atom   27 type  2   force =    -0.00005441   -0.00797414   -0.18328276
     atom   28 type  2   force =    -0.00026852    0.02039930   -0.00597125
     atom   29 type  2   force =    -0.00009260    0.02385197    0.00559376
     atom   30 type  1   force =    -0.06942348   -0.00074336   -0.02951003
     atom   31 type  1   force =    -0.00498186   -0.02780403    0.00240595
     atom   32 type  1   force =    -0.00595083   -0.01504004   -0.00033759
     atom   33 type  2   force =     0.00007851   -0.00101270    0.06381895
     atom   34 type  2   force =     0.00047526    0.03462574    0.00493867
     atom   35 type  2   force =    -0.00012627    0.02155724    0.00154980
     atom   36 type  1   force =    -0.00001275    0.00376645    0.05850612
     atom   37 type  1   force =     0.00004775   -0.00064390   -0.00669815
     atom   38 type  1   force =    -0.00004223   -0.00709886    0.01609535
     atom   39 type  1   force =     0.00005365   -0.00051170    0.10667422
     atom   40 type  1   force =     0.00004817   -0.00050087    0.00898188
     atom   41 type  1   force =    -0.00000744   -0.00421659   -0.00098208
     atom   42 type  1   force =     0.06973225   -0.00119656   -0.03000095
     atom   43 type  1   force =     0.00450010   -0.02931071    0.00147748
     atom   44 type  1   force =     0.00995249   -0.02499151    0.00502499
     atom   45 type  2   force =    -0.00006816    0.00911624   -0.17964439
     atom   46 type  2   force =    -0.00025374    0.02119230   -0.00515193
     atom   47 type  2   force =    -0.00012633    0.02431657   -0.00956143
     atom   48 type  1   force =    -0.06983015   -0.00164856   -0.02995059
     atom   49 type  1   force =    -0.00478205   -0.02900419    0.00144710
     atom   50 type  1   force =    -0.00969967   -0.02489388    0.00504848
     atom   51 type  2   force =     0.00011403   -0.00178791    0.06381932
     atom   52 type  2   force =     0.00047733    0.03633682    0.00329581
     atom   53 type  2   force =    -0.00015026    0.03616505    0.00381273
     atom   54 type  3   force =     0.00004421    0.00452778   -0.01737669
     atom   55 type  4   force =    -0.00000059    0.00282561    0.00015322
     atom   56 type  4   force =     0.00000572   -0.00583965    0.00158930
     atom   57 type  3   force =    -0.00002748   -0.00122812    0.00018751

     Total force =     0.454006     Total SCF correction =     0.000588
  @ DRIVER MODE: Message from server: STATUS
  @ DRIVER MODE: Message from server: GETFORCE
  @ DRIVER MODE: Returning v,forces,stress,ensemble

     Writing output data file ./calc.save/
  @ DRIVER MODE: Message from server: EXIT
  @ DRIVE MODE: Exiting

     General routines

     Parallel routines

   This run was terminated on:  15: 8:48  18Oct2021

   JOB DONE.