     Program PWSCF v.6.7GPU starts on 15Jul2021 at 23: 9:10

     R & G space division:  proc/nbgrp/npool/nimage =      16
     Reading input from /storage/home/hcoda1/3/ntian30/research/carbon/15Jul_vib/ads_slab/CH3N_a/out_0017/pw.inp
Warning: card &CELL ignored
Warning: card   CELL_DYNAMICS='IPI', ignored
Warning: card / ignored

     Current dimensions of program PWSCF are:
     Max number of different atomic species (ntypx) = 10
     Max number of k-points (npk) =  40000
     Max angular momentum in pseudopotentials (lmaxx) =  3
     Presently no symmetry can be used with electric field

     Message from routine cell_base_init:
     DEPRECATED: use true lattice parameter, not A to a.u. conversion factor

     IMPORTANT: XC functional enforced from input :
     Exchange-correlation= BEEF-VDW
                           (   1   4  43  14   2   0   0)
     Any further DFT definition will be discarded
     Please, verify this is what you really want

  @ DRIVER MODE: Connecting to
 qe_1139763_2351643.sched-torque.pace.gatech.edulyk0af92_scratch
  using UNIX socket
  @ DRIVER MODE: Message from server: STATUS
  @ DRIVER MODE: Message from server: INIT
  @ DRIVER MODE: Receiving replica           0          -1
  @ DRIVER MODE: Receiving encoded integer          25
  @ DRIVER MODE:  SCF:  T  FORCE:  T  STRESS:  F  VC:  F  ENSEMBLE:  F
  @ DRIVER MODE:  SCF:  T  FORCE:  T  STRESS:  F  VC:  F  ENSEMBLE:  F

     Using Slab Decomposition

     bravais-lattice index     =            0
     lattice parameter (alat)  =       1.8897  a.u.
     unit-cell volume          =    6658.9804 (a.u.)^3
     number of atoms/cell      =           52
     number of atomic types    =            5
     number of electrons       =       390.00
     number of Kohn-Sham states=          205
     kinetic-energy cutoff     =      29.3995  Ry
     charge density cutoff     =     293.9946  Ry
     scf convergence threshold =      7.3E-08
     mixing beta               =       0.0500
     number of iterations used =            8  plain     mixing
     Exchange-correlation= BEEF-VDW
                           (   1   4  43  14   2   0   0)

     celldm(1)=   1.889726  celldm(2)=   0.000000  celldm(3)=   0.000000
     celldm(4)=   0.000000  celldm(5)=   0.000000  celldm(6)=   0.000000

     crystal axes: (cart. coord. in units of alat)
               a(1) = (   6.579727   0.000000   0.000000 )
               a(2) = (  -0.000775   5.961596   0.000000 )
               a(3) = (   0.000000   0.000000  25.155947 )

     reciprocal axes: (cart. coord. in units 2 pi/alat)
               b(1) = (  0.151982  0.000020  0.000000 )
               b(2) = (  0.000000  0.167740  0.000000 )
               b(3) = (  0.000000  0.000000  0.039752 )

     PseudoPot. # 1 for Ti read from file:
     /storage/coda1/p-amedford6/0/shared/rich_project_chbe-medford/medford-share/data/pseudos_module/espresso/nninc/pbe/van/Ti.UPF
     MD5 check sum: 8e4df49b7f0d34bbd5052bf3f5ea0213
     Pseudo is Ultrasoft, Zval = 12.0
     Generated by new atomic code, or converted to UPF format
     Using radial grid of  851 points,  6 beta functions with:
                l(1) =   0
                l(2) =   0
                l(3) =   1
                l(4) =   1
                l(5) =   2
                l(6) =   2
     Q(r) pseudized with  8 coefficients,  rinner =    1.000   1.000   1.000
                                                       1.000   1.000

     PseudoPot. # 2 for O  read from file:
     /storage/coda1/p-amedford6/0/shared/rich_project_chbe-medford/medford-share/data/pseudos_module/espresso/nninc/pbe/van/O.UPF
     MD5 check sum: 78c19812648e8988a0fe644b0f25305e
     Pseudo is Ultrasoft, Zval =  6.0
     Generated by new atomic code, or converted to UPF format
     Using radial grid of  737 points,  4 beta functions with:
                l(1) =   0
                l(2) =   0
                l(3) =   1
                l(4) =   1
     Q(r) pseudized with  8 coefficients,  rinner =    0.800   0.800   0.800

     PseudoPot. # 3 for N  read from file:
     /storage/coda1/p-amedford6/0/shared/rich_project_chbe-medford/medford-share/data/pseudos_module/espresso/nninc/pbe/van/N.UPF
     MD5 check sum: 90d10febe142ad51ac9d5be1deb811c4
     Pseudo is Ultrasoft, Zval =  5.0
     Generated by new atomic code, or converted to UPF format
     Using radial grid of  729 points,  4 beta functions with:
                l(1) =   0
                l(2) =   0
                l(3) =   1
                l(4) =   1
     Q(r) pseudized with  8 coefficients,  rinner =    0.800   0.800   0.800

     PseudoPot. # 4 for C  read from file:
     /storage/coda1/p-amedford6/0/shared/rich_project_chbe-medford/medford-share/data/pseudos_module/espresso/nninc/pbe/van/C.UPF
     MD5 check sum: 1a69bf6b8db32088f5b2163dbdb77a27
     Pseudo is Ultrasoft, Zval =  4.0
     Generated by new atomic code, or converted to UPF format
     Using radial grid of  721 points,  4 beta functions with:
                l(1) =   0
                l(2) =   0
                l(3) =   1
                l(4) =   1
     Q(r) pseudized with  8 coefficients,  rinner =    0.800   0.800   0.800

     PseudoPot. # 5 for H  read from file:
     /storage/coda1/p-amedford6/0/shared/rich_project_chbe-medford/medford-share/data/pseudos_module/espresso/nninc/pbe/van/H.UPF
     MD5 check sum: b5ee9d7bfd3a09ee7748110bda690ff7
     Pseudo is Ultrasoft, Zval =  1.0
     Generated by new atomic code, or converted to UPF format
     Using radial grid of  615 points,  1 beta functions with:
                l(1) =   0
     Q(r) pseudized with  8 coefficients,  rinner =    0.800

     atomic species   valence    mass     pseudopotential
        Ti1           12.00    47.86700     Ti( 1.00)
        O1             6.00    15.99900     O ( 1.00)
        N1             5.00    14.00700     N ( 1.00)
        C1             4.00    12.01100     C ( 1.00)
        H1             1.00     1.00800     H ( 1.00)

     Starting magnetic structure
     atomic species   magnetization
        Ti1          0.000
        O1           0.000
        N1           0.000
        C1           0.025
        H1           0.000

     No symmetry found

   Cartesian axes

     site n.     atom                  positions (alat units)
         1           Ti1 tau(   1) = (   0.0004258   2.9801865   6.0000000  )
         2           Ti1 tau(   2) = (   3.2906075   1.4906267   6.0002472  )
         3           O1  tau(   3) = (   0.0006271   0.0005054   7.9858123  )
         4           O1  tau(   4) = (   3.2906025   0.0005020   7.3038282  )
         5           O1  tau(   5) = (   4.5942328   1.4918067   9.2879030  )
         6           O1  tau(   6) = (   1.9868534   1.4903216   9.2879459  )
         7           Ti1 tau(   7) = (   3.2907910   2.8959150   9.1758416  )
         8           Ti1 tau(   8) = (   0.0015273   1.4827037   9.2680791  )
         9           O1  tau(   9) = (   3.2848820   0.0184509  11.2968037  )
        10           O1  tau(  10) = (   0.0116148   5.9584955  10.6183126  )
        11           O1  tau(  11) = (   1.3164307   1.5202202  12.6152053  )
        12           O1  tau(  12) = (   5.2938533   1.5248534  12.6363518  )
        13           Ti1 tau(  13) = (   6.4693392   3.0155455  12.7604093  )
        14           Ti1 tau(  14) = (   3.1621140   1.5165027  12.4659144  )
        15           O1  tau(  15) = (   0.0250032   0.0426882  14.5925537  )
        16           O1  tau(  16) = (   3.2896737   0.0171256  13.8799622  )
        17           O1  tau(  17) = (   4.5365032   1.4993634  16.0438468  )
        18           O1  tau(  18) = (   2.0814567   1.5015292  16.0591106  )
        19           Ti1 tau(  19) = (   3.3082904   2.9956922  15.6854367  )
        20           Ti1 tau(  20) = (   0.0032501   1.4479889  16.1249605  )
        21           O1  tau(  21) = (   3.2904802   0.0005063   4.7018136  )
        22           O1  tau(  22) = (   0.0161699   0.0004382  17.1970091  )
        23           O1  tau(  23) = (   1.3043587   1.4918075   6.0039043  )
        24           O1  tau(  24) = (   5.2767064   1.4903225   6.0039473  )
        25           Ti1 tau(  25) = (   0.0000382   5.9609847   6.0000000  )
        26           Ti1 tau(  26) = (   3.2902200   4.4714249   6.0002472  )
        27           O1  tau(  27) = (   0.0002396   2.9813036   7.9858123  )
        28           O1  tau(  28) = (   3.2902150   2.9813002   7.3038282  )
        29           O1  tau(  29) = (   4.5938453   4.4726049   9.2879030  )
        30           O1  tau(  30) = (   1.9864658   4.4711199   9.2879459  )
        31           Ti1 tau(  31) = (   3.2891106   5.8743827   9.1763621  )
        32           Ti1 tau(  32) = (   0.0006254   4.4649316   9.2693709  )
        33           O1  tau(  33) = (   3.2855107   2.9994495  11.2959752  )
        34           O1  tau(  34) = (   0.0092240   2.9805883  10.6323155  )
        35           O1  tau(  35) = (   1.3179678   4.4860142  12.6155112  )
        36           O1  tau(  36) = (   5.2920789   4.4901865  12.6316709  )
        37           Ti1 tau(  37) = (   6.5050993   0.0355131  12.7707974  )
        38           Ti1 tau(  38) = (   3.1594757   4.4963870  12.4672366  )
        39           O1  tau(  39) = (   6.5726527   3.0227966  14.6583025  )
        40           O1  tau(  40) = (   3.2932321   2.9979836  13.8792693  )
        41           O1  tau(  41) = (   4.5322310   4.4839795  16.0418810  )
        42           O1  tau(  42) = (   2.0800586   4.4799519  16.0553745  )
        43           Ti1 tau(  43) = (   3.2910362   0.0127607  15.6894215  )
        44           Ti1 tau(  44) = (   0.0049462   4.4269923  16.0943486  )
        45           O1  tau(  45) = (   3.2900926   2.9813045   4.7018136  )
        46           O1  tau(  46) = (   1.3039711   4.4726057   6.0039043  )
        47           O1  tau(  47) = (   5.2763189   4.4711207   6.0039473  )
        48           N1  tau(  48) = (   0.0596666   2.9942962  17.3216073  )
        49           C1  tau(  49) = (   0.3918855   2.9774893  18.7266025  )
        50           H1  tau(  50) = (   0.0017595   3.8652167  19.2243835  )
        51           H1  tau(  51) = (   0.0043965   2.0815098  19.2200810  )
        52           H1  tau(  52) = (   1.4843755   2.9788857  18.8581259  )

     number of k points=    10  Fermi-Dirac smearing, width (Ry)=  0.0073
                       cart. coord. in units 2pi/alat
        k(    1) = (   0.0000000   0.0000000   0.0000000), wk =   0.0625000
        k(    2) = (   0.0000000   0.0419351   0.0000000), wk =   0.1250000
        k(    3) = (   0.0000000  -0.0838702   0.0000000), wk =   0.0625000
        k(    4) = (   0.0379955   0.0000049   0.0000000), wk =   0.1250000
        k(    5) = (   0.0379955   0.0419400   0.0000000), wk =   0.1250000
        k(    6) = (   0.0379955  -0.0838652   0.0000000), wk =   0.1250000
        k(    7) = (   0.0379955  -0.0419301   0.0000000), wk =   0.1250000
        k(    8) = (  -0.0759910  -0.0000099   0.0000000), wk =   0.0625000
        k(    9) = (  -0.0759910   0.0419252   0.0000000), wk =   0.1250000
        k(   10) = (  -0.0759910  -0.0838800   0.0000000), wk =   0.0625000

     Initial potential from superposition of free atoms

     starting charge  373.99917, renormalised to  390.00000

     negative rho (up, down):  8.652E-03 8.659E-03

     %%%%%%%%%%%%%%%%%%%%%%%%%%%%%%%%%%%%%%%%%%%%%%%%%%%%%%%%%%%%%%%%%%%%%%%%
     %                                                                      %
     % You are using vdW-DF, which was implemented by the Thonhauser group. %
     % Please cite the following two papers that made this development      %
     % possible and the two reviews that describe the various versions:     %
     %                                                                      %
     %   T. Thonhauser et al., PRL 115, 136402 (2015).                      %
     %   T. Thonhauser et al., PRB 76, 125112 (2007).                       %
     %   K. Berland et al., Rep. Prog. Phys. 78, 066501 (2015).             %
     %   D.C. Langreth et al., J. Phys.: Condens. Matter 21, 084203 (2009). %
     %                                                                      %
     %                                                                      %
     % If you are calculating the stress with vdW-DF, please also cite:     %
     %                                                                      %
     %   R. Sabatini et al., J. Phys.: Condens. Matter 24, 424209 (2012).   %
     %                                                                      %
     %%%%%%%%%%%%%%%%%%%%%%%%%%%%%%%%%%%%%%%%%%%%%%%%%%%%%%%%%%%%%%%%%%%%%%%%

     Adding external electric field

     Computed dipole along edir(3) :
        Dipole               -4.6255 Ry au,        -11.7568 Debye
        Dipole field         -0.0087 Ry au,

        Potential amp.        0.8092 Ry
        Total length         46.3494 bohr

[...]

     Starting wfcs are  295 atomic wfcs
  @ DRIVER MODE: Message from server: STATUS
  @ DRIVER MODE: Message from server: POSDATA
  @ DRIVER MODE: Reading and sharing cell
  @ DRIVER MODE: Reading and sharing positions
  @ DRIVER MODE: Received positions

     Self-consistent Calculation

     iteration #  1     ecut=    29.40 Ry     beta= 0.05
     Davidson diagonalization with overlap
     c_bands:  3 eigenvalues not converged
     c_bands:  3 eigenvalues not converged
     c_bands:  2 eigenvalues not converged
     c_bands:  4 eigenvalues not converged
     c_bands:  4 eigenvalues not converged
     c_bands:  2 eigenvalues not converged
     c_bands:  2 eigenvalues not converged
     c_bands:  2 eigenvalues not converged
     c_bands:  4 eigenvalues not converged
     c_bands:  3 eigenvalues not converged
     c_bands:  2 eigenvalues not converged
     c_bands:  4 eigenvalues not converged
     c_bands:  4 eigenvalues not converged
     c_bands:  2 eigenvalues not converged
     c_bands:  3 eigenvalues not converged
     c_bands:  3 eigenvalues not converged
     ethr =  1.00E-05,  avg # of iterations = 19.7

[...]

     total energy              =   -2877.51731669 Ry
     estimated scf accuracy    <     480.15222230 Ry

     total magnetization       =     0.13 Bohr mag/cell
     absolute magnetization    =     0.16 Bohr mag/cell

     iteration #  2     ecut=    29.40 Ry     beta= 0.05
     Davidson diagonalization with overlap
     ethr =  1.00E-02,  avg # of iterations = 13.7

[...]

     iteration # 59     ecut=    29.40 Ry     beta= 0.05
     Davidson diagonalization with overlap
     c_bands:  1 eigenvalues not converged
     ethr =  8.48E-10,  avg # of iterations =  4.3

[...]

     total energy              =   -2919.13335739 Ry
     estimated scf accuracy    <       0.00000008 Ry

[...]

     iteration # 72     ecut=    29.40 Ry     beta= 0.05
     Davidson diagonalization with overlap
     ethr =  1.94E-11,  avg # of iterations =  5.0

     negative rho (up, down):  8.894E-03 8.894E-03

[...]

     Adding external electric field

     Computed dipole along edir(3) :
        Dipole                0.2516 Ry au,          0.6395 Debye
        Dipole field          0.0005 Ry au,

        Potential amp.       -0.0440 Ry
        Total length         46.3494 bohr

     Magnetic moment per site  (integrated on atomic sphere of radius R)
     atom   1 (R=0.743)  charge=  8.0712  magn=  0.0001
     atom   2 (R=0.743)  charge=  8.0673  magn=  0.0001
     atom   3 (R=0.743)  charge=  5.0508  magn= -0.0000
     atom   4 (R=0.743)  charge=  5.0897  magn=  0.0000
     atom   5 (R=0.743)  charge=  5.0526  magn=  0.0000
     atom   6 (R=0.743)  charge=  5.0540  magn=  0.0000
     atom   7 (R=0.743)  charge=  8.0606  magn= -0.0000
     atom   8 (R=0.743)  charge=  8.0480  magn= -0.0000
     atom   9 (R=0.743)  charge=  5.0677  magn= -0.0000
     atom  10 (R=0.743)  charge=  4.9973  magn=  0.0001
     atom  11 (R=0.743)  charge=  5.0556  magn=  0.0000
     atom  12 (R=0.743)  charge=  5.0584  magn=  0.0000
     atom  13 (R=0.743)  charge=  8.0594  magn= -0.0000
     atom  14 (R=0.743)  charge=  8.0663  magn= -0.0000
     atom  15 (R=0.743)  charge=  5.0445  magn=  0.0000
     atom  16 (R=0.743)  charge=  5.0715  magn=  0.0000
     atom  17 (R=0.743)  charge=  5.0432  magn=  0.0000
     atom  18 (R=0.743)  charge=  5.0420  magn=  0.0000
     atom  19 (R=0.743)  charge=  8.0873  magn= -0.0000
     atom  20 (R=0.743)  charge=  8.0866  magn=  0.0000
     atom  21 (R=0.743)  charge=  4.9345  magn= -0.0003
     atom  22 (R=0.743)  charge=  5.0263  magn= -0.0000
     atom  23 (R=0.743)  charge=  5.0425  magn= -0.0001
     atom  24 (R=0.743)  charge=  5.0426  magn= -0.0001
     atom  25 (R=0.743)  charge=  8.0712  magn=  0.0001
     atom  26 (R=0.743)  charge=  8.0673  magn=  0.0001
     atom  27 (R=0.743)  charge=  5.0507  magn= -0.0000
     atom  28 (R=0.743)  charge=  5.0899  magn=  0.0000
     atom  29 (R=0.743)  charge=  5.0534  magn=  0.0000
     atom  30 (R=0.743)  charge=  5.0547  magn=  0.0000
     atom  31 (R=0.743)  charge=  8.0608  magn= -0.0000
     atom  32 (R=0.743)  charge=  8.0482  magn= -0.0000
     atom  33 (R=0.743)  charge=  5.0679  magn=  0.0000
     atom  34 (R=0.743)  charge=  4.9963  magn=  0.0000
     atom  35 (R=0.743)  charge=  5.0558  magn=  0.0000
     atom  36 (R=0.743)  charge=  5.0580  magn=  0.0000
     atom  37 (R=0.743)  charge=  8.0670  magn= -0.0000
     atom  38 (R=0.743)  charge=  8.0667  magn= -0.0000
     atom  39 (R=0.743)  charge=  5.0387  magn=  0.0000
     atom  40 (R=0.743)  charge=  5.0730  magn=  0.0000
     atom  41 (R=0.743)  charge=  5.0440  magn=  0.0000
     atom  42 (R=0.743)  charge=  5.0430  magn=  0.0000
     atom  43 (R=0.743)  charge=  8.0878  magn= -0.0000
     atom  44 (R=0.743)  charge=  8.0856  magn=  0.0000
     atom  45 (R=0.743)  charge=  4.9345  magn= -0.0003
     atom  46 (R=0.743)  charge=  5.0425  magn= -0.0000
     atom  47 (R=0.743)  charge=  5.0426  magn= -0.0000
     atom  48 (R=0.596)  charge=  2.7579  magn= -0.0001
     atom  49 (R=0.450)  charge=  0.8478  magn=  0.0000
     atom  50 (R=0.450)  charge=  0.5103  magn= -0.0000
     atom  51 (R=0.450)  charge=  0.5076  magn= -0.0000
     atom  52 (R=0.450)  charge=  0.5020  magn= -0.0000

     End of self-consistent calculation

 ------ SPIN UP ------------

          k = 0.0000 0.0000 0.0000 ( 18029 PWs)   bands (ev):

   -56.8980 -56.8644 -56.0105 -56.0011 -55.9755 -55.9686 -55.8610 -55.8252
   -55.6437 -55.6085 -55.5600 -55.5373 -55.5261 -55.4398 -54.9942 -54.9416
   -33.3253 -33.1720 -33.1439 -33.0742 -32.9832 -32.9514 -32.4838 -32.4747
   -32.4038 -32.2963 -32.2507 -32.2240 -32.2088 -32.1849 -32.1520 -32.1489
   -32.1416 -32.1393 -32.1151 -32.1078 -32.1007 -32.0692 -32.0432 -32.0280
   -32.0142 -31.9972 -31.9887 -31.9652 -31.9519 -31.8984 -31.8752 -31.8743
   -31.7824 -31.7811 -31.7705 -31.7127 -31.7098 -31.6871 -31.6675 -31.6459
   -31.6216 -31.5763 -31.5166 -31.2373 -31.2188 -31.1911 -31.1629 -31.0442
   -17.0595 -16.6199 -16.3891 -16.2587 -16.1874 -16.1368 -16.0892 -15.9626
   -15.8912 -15.8878 -15.8506 -15.8113 -15.7434 -15.6039 -15.5065 -15.4470
   -15.4038 -15.2840 -15.2268 -15.1902 -15.1825 -15.1517 -15.1318 -14.9337
   -14.9112 -14.8153 -14.7988 -14.6746 -14.4480 -14.0577 -13.9476 -13.0933
    -7.8089  -4.6259  -4.1161  -3.8734  -3.7909  -3.6804  -3.6732  -3.5914
    -3.4770  -3.4261  -3.3806  -3.2649  -3.2608  -3.1196  -3.1150  -3.0723
    -3.0658  -3.0309  -2.9971  -2.9497  -2.8973  -2.8914  -2.8872  -2.7371
    -2.6367  -2.5676  -2.5442  -2.5271  -2.4993  -2.4074  -2.4021  -2.3871
    -2.3836  -2.2886  -2.1388  -2.1295  -2.0946  -2.0584  -2.0547  -2.0113
    -2.0012  -1.8441  -1.8008  -1.6840  -1.6722  -1.6376  -1.5712  -1.5676
    -1.4519  -1.3961  -1.3500  -1.3051  -1.1980  -1.1529  -1.1241  -1.0358
    -0.9748  -0.9378  -0.9192  -0.8998  -0.7926  -0.7849  -0.7689  -0.6778
    -0.6719  -0.6215  -0.5321  -0.5095  -0.5075  -0.4168  -0.4088  -0.3106
    -0.2760  -0.2234  -0.1933  -0.1135  -0.0827   0.0214   0.0604   0.0754
     0.2056   0.2207   0.2788   0.3460   0.4026   0.4462   0.4623   0.4967
     0.5058   0.5987   0.7067   0.7088   0.8200   0.8576   1.0154   1.0542
     1.3512   1.3608   2.0249   2.3775   2.5382   2.8363   3.0314   3.1441
     3.3542   3.3681   3.3737   3.5542   3.6022

[...]

          k =-0.0760-0.0000 0.0000 ( 17886 PWs)   bands (ev):

[...]

 ------ SPIN DOWN ----------

[...]

          k = 0.0380-0.0419 0.0000 ( 17876 PWs)   bands (ev):

[...]

          k =-0.0760-0.0839 0.0000 ( 17948 PWs)   bands (ev):

   -56.8810 -56.8805 -55.9945 -55.9901 -55.9858 -55.9854 -55.8461 -55.8401
   -55.6288 -55.6235 -55.5426 -55.5424 -55.5342 -55.4430 -54.9873 -54.9482
   -33.1575 -33.1572 -33.1420 -33.1418 -33.0270 -33.0266 -32.3136 -32.3112
   -32.2987 -32.2934 -32.2408 -32.2393 -32.1967 -32.1962 -32.1956 -32.1921
   -32.1842 -32.1817 -32.1806 -32.1787 -32.0978 -32.0927 -32.0465 -32.0427
   -31.9804 -31.9725 -31.9111 -31.9052 -31.8869 -31.8868 -31.8652 -31.8275
   -31.8261 -31.7917 -31.7679 -31.7677 -31.7589 -31.7287 -31.7286 -31.7076
   -31.6847 -31.6481 -31.3820 -31.3014 -31.2154 -31.1836 -31.1694 -31.1284
   -16.4077 -16.4057 -16.3740 -16.3737 -16.1027 -16.0991 -16.0497 -16.0476
   -15.8759 -15.8681 -15.6634 -15.6542 -15.6480 -15.6443 -15.5165 -15.5095
   -15.4457 -15.4328 -15.3448 -15.3380 -15.2766 -15.2703 -15.2342 -15.2127
   -14.8952 -14.8893 -14.7668 -14.7538 -14.6036 -14.0520 -14.0520 -13.1101
    -7.7997  -3.5066  -3.5058  -3.4396  -3.4386  -3.3138  -3.3070  -3.2382
    -3.2376  -3.1312  -3.1274  -3.0957  -3.0029  -2.9899  -2.9866  -2.9757
    -2.9706  -2.8337  -2.8315  -2.8189  -2.8040  -2.7526  -2.7502  -2.7325
    -2.6551  -2.6395  -2.6084  -2.5642  -2.4642  -2.4477  -2.4316  -2.4045
    -2.3464  -2.3352  -2.3211  -2.2754  -2.2563  -2.1525  -2.1050  -2.0623
    -1.9423  -1.9397  -1.9299  -1.9128  -1.7652  -1.7282  -1.6972  -1.6904
    -1.6817  -1.6323  -1.5404  -1.5322  -1.3975  -1.3928  -1.3212  -1.2380
    -1.2193  -1.1904  -1.0583  -1.0109  -0.9785  -0.9720  -0.9524  -0.9233
    -0.8950  -0.8681  -0.7230  -0.7043  -0.6796  -0.6420  -0.6293  -0.5758
    -0.5264  -0.4463  -0.3669  -0.3660  -0.2855  -0.2415  -0.1772  -0.0948
    -0.0831  -0.0768   0.2036   0.2814   0.3735   0.4583   0.5210   0.5848
     0.6081   0.6735   0.7059   0.8430   0.8461   0.8622   0.8625   0.9303
     0.9350   1.3325   1.9187   2.9516   2.9519   3.0194   3.0198   3.3434
     3.3489   3.4584   3.4679   3.5835   3.5855

     the Fermi energy is     2.2123 ev

!    total energy              =   -2919.13336874 Ry
     estimated scf accuracy    <       0.00000005 Ry
     smearing contrib. (-TS)   =      -0.00464991 Ry
     internal energy E=F+TS    =   -2919.12871883 Ry

     The total energy is F=E-TS. E is the sum of the following terms:
     one-electron contribution =  -24579.62436661 Ry
     hartree contribution      =   12374.01484611 Ry
     xc contribution           =    -479.90414791 Ry
     ewald contribution        =    9766.38483010 Ry
     electric field correction =       0.00011947 Ry

     total magnetization       =    -0.00 Bohr mag/cell
     absolute magnetization    =     0.00 Bohr mag/cell

     convergence has been achieved in  72 iterations

     Forces acting on atoms (cartesian axes, Ry/au):

     atom    1 type  1   force =    -0.00003309   -0.00046295    0.12459214
     atom    2 type  1   force =    -0.00012320   -0.00053810   -0.16054057
     atom    3 type  2   force =     0.00016235   -0.00014428   -0.06867411
     atom    4 type  2   force =    -0.00004241   -0.00017676    0.02746036
     atom    5 type  2   force =    -0.01663695    0.00229162   -0.00876472
     atom    6 type  2   force =     0.01809842    0.00295963   -0.00971267
     atom    7 type  1   force =     0.00056901   -0.00364706    0.02220866
     atom    8 type  1   force =    -0.00015538   -0.00290703    0.11214923
     atom    9 type  2   force =     0.00048022   -0.00002666   -0.00028246
     atom   10 type  2   force =    -0.00266026    0.00368881   -0.07362446
     atom   11 type  2   force =     0.00131294   -0.00057767   -0.00043294
     atom   12 type  2   force =    -0.00058545   -0.00105427   -0.00078732
     atom   13 type  1   force =     0.00031670   -0.00065584    0.00065848
     atom   14 type  1   force =    -0.00082742   -0.00054642    0.00002895
     atom   15 type  2   force =    -0.00028570   -0.00011891   -0.00001489
     atom   16 type  2   force =     0.00028755    0.00012220   -0.00052980
     atom   17 type  2   force =     0.00021363   -0.00020010   -0.00016170
     atom   18 type  2   force =    -0.00042245   -0.00035875   -0.00046705
     atom   19 type  1   force =     0.00062296   -0.00036685   -0.00016017
     atom   20 type  1   force =    -0.00011952   -0.00013904   -0.00021294
     atom   21 type  2   force =     0.00005639   -0.00006171    0.09973784
     atom   22 type  2   force =     0.00008279   -0.00040282    0.00066824
     atom   23 type  2   force =    -0.07926049   -0.00009166   -0.03246712
     atom   24 type  2   force =     0.07913534    0.00035742   -0.03249136
     atom   25 type  1   force =     0.00000441   -0.00050549    0.12408344
     atom   26 type  1   force =    -0.00015760   -0.00044858   -0.16061626
     atom   27 type  2   force =     0.00029523   -0.00031727   -0.06768700
     atom   28 type  2   force =    -0.00002439   -0.00001496    0.02722569
     atom   29 type  2   force =    -0.01710036    0.00187008   -0.00887305
     atom   30 type  2   force =     0.01843975    0.00225727   -0.00976626
     atom   31 type  1   force =     0.00058514   -0.00094101    0.02173882
     atom   32 type  1   force =    -0.00011391    0.00053281    0.11259781
     atom   33 type  2   force =     0.00026359   -0.00063940   -0.00046720
     atom   34 type  2   force =    -0.00273155    0.00315691   -0.07279188
     atom   35 type  2   force =    -0.00109053    0.00023276    0.00016446
     atom   36 type  2   force =     0.00082330    0.00009066    0.00027503
     atom   37 type  1   force =    -0.00008573   -0.00003660   -0.00018534
     atom   38 type  1   force =     0.00088625   -0.00026842   -0.00016098
     atom   39 type  2   force =    -0.00009857   -0.00052599    0.00004083
     atom   40 type  2   force =     0.00007943   -0.00012222   -0.00011145
     atom   41 type  2   force =     0.00019784   -0.00044749   -0.00009908
     atom   42 type  2   force =    -0.00000128   -0.00011432   -0.00058618
     atom   43 type  1   force =     0.00015220    0.00070079    0.00064118
     atom   44 type  1   force =    -0.00056895   -0.00071688   -0.00035867
     atom   45 type  2   force =     0.00004453   -0.00006656    0.09975996
     atom   46 type  2   force =    -0.07926689   -0.00004486   -0.03246046
     atom   47 type  2   force =     0.07914535    0.00040054   -0.03248093
     atom   48 type  3   force =     0.00091632   -0.00129110   -0.00027261
     atom   49 type  4   force =     0.00144697   -0.00302416   -0.00289484
     atom   50 type  5   force =    -0.00133086    0.00360015    0.00404058
     atom   51 type  5   force =    -0.00010856   -0.00003925    0.00065358
     atom   52 type  5   force =    -0.00078713   -0.00022024    0.00041117

     Total force =     0.425644     Total SCF correction =     0.000531
  @ DRIVER MODE: Message from server: STATUS
  @ DRIVER MODE: Message from server: GETFORCE
  @ DRIVER MODE: Returning v,forces,stress,ensemble

     Writing output data file ./calc.save/
  @ DRIVER MODE: Message from server: EXIT
  @ DRIVE MODE: Exiting

     General routines

     Parallel routines

   This run was terminated on:  23:35:55  15Jul2021

   JOB DONE.