     Program PWSCF v.6.7GPU starts on  4Aug2021 at 10:31: 1

     R & G space division:  proc/nbgrp/npool/nimage =      16
     Reading input from /storage/home/hcoda1/3/ntian30/research/carbon/02Aug_vib_paired/ads_slab/CH3NN_b/out_0017/pw.inp
Warning: card &CELL ignored
Warning: card   CELL_DYNAMICS='IPI', ignored
Warning: card / ignored

     Current dimensions of program PWSCF are:
     Max number of different atomic species (ntypx) = 10
     Max number of k-points (npk) =  40000
     Max angular momentum in pseudopotentials (lmaxx) =  3
     Presently no symmetry can be used with electric field

     Message from routine cell_base_init:
     DEPRECATED: use true lattice parameter, not A to a.u. conversion factor

     IMPORTANT: XC functional enforced from input :
     Exchange-correlation= BEEF-VDW
                           (   1   4  43  14   2   0   0)
     Any further DFT definition will be discarded
     Please, verify this is what you really want

  @ DRIVER MODE: Connecting to
 qe_1139763_2492023.sched-torque.pace.gatech.eduk5xhrydf_scratch
  using UNIX socket
  @ DRIVER MODE: Message from server: STATUS
  @ DRIVER MODE: Message from server: INIT
  @ DRIVER MODE: Receiving replica           0          -1
  @ DRIVER MODE: Receiving encoded integer          25
  @ DRIVER MODE:  SCF:  T  FORCE:  T  STRESS:  F  VC:  F  ENSEMBLE:  F
  @ DRIVER MODE:  SCF:  T  FORCE:  T  STRESS:  F  VC:  F  ENSEMBLE:  F

     Using Slab Decomposition

     bravais-lattice index     =            0
     lattice parameter (alat)  =       1.8897  a.u.
     unit-cell volume          =    6658.9804 (a.u.)^3
     number of atoms/cell      =           53
     number of atomic types    =            5
     number of electrons       =       395.00
     number of Kohn-Sham states=          207
     kinetic-energy cutoff     =      29.3995  Ry
     charge density cutoff     =     293.9946  Ry
     scf convergence threshold =      7.3E-08
     mixing beta               =       0.0500
     number of iterations used =            8  plain     mixing
     Exchange-correlation= BEEF-VDW
                           (   1   4  43  14   2   0   0)

     celldm(1)=   1.889726  celldm(2)=   0.000000  celldm(3)=   0.000000
     celldm(4)=   0.000000  celldm(5)=   0.000000  celldm(6)=   0.000000

     crystal axes: (cart. coord. in units of alat)
               a(1) = (   6.579727   0.000000   0.000000 )
               a(2) = (  -0.000775   5.961596   0.000000 )
               a(3) = (   0.000000   0.000000  25.155947 )

     reciprocal axes: (cart. coord. in units 2 pi/alat)
               b(1) = (  0.151982  0.000020  0.000000 )
               b(2) = (  0.000000  0.167740  0.000000 )
               b(3) = (  0.000000  0.000000  0.039752 )

     PseudoPot. # 1 for Ti read from file:
     /storage/coda1/p-amedford6/0/shared/rich_project_chbe-medford/medford-share/data/pseudos_module/espresso/nninc/pbe/van/Ti.UPF
     MD5 check sum: 8e4df49b7f0d34bbd5052bf3f5ea0213
     Pseudo is Ultrasoft, Zval = 12.0
     Generated by new atomic code, or converted to UPF format
     Using radial grid of  851 points,  6 beta functions with:
                l(1) =   0
                l(2) =   0
                l(3) =   1
                l(4) =   1
                l(5) =   2
                l(6) =   2
     Q(r) pseudized with  8 coefficients,  rinner =    1.000   1.000   1.000
                                                       1.000   1.000

     PseudoPot. # 2 for O  read from file:
     /storage/coda1/p-amedford6/0/shared/rich_project_chbe-medford/medford-share/data/pseudos_module/espresso/nninc/pbe/van/O.UPF
     MD5 check sum: 78c19812648e8988a0fe644b0f25305e
     Pseudo is Ultrasoft, Zval =  6.0
     Generated by new atomic code, or converted to UPF format
     Using radial grid of  737 points,  4 beta functions with:
                l(1) =   0
                l(2) =   0
                l(3) =   1
                l(4) =   1
     Q(r) pseudized with  8 coefficients,  rinner =    0.800   0.800   0.800

     PseudoPot. # 3 for N  read from file:
     /storage/coda1/p-amedford6/0/shared/rich_project_chbe-medford/medford-share/data/pseudos_module/espresso/nninc/pbe/van/N.UPF
     MD5 check sum: 90d10febe142ad51ac9d5be1deb811c4
     Pseudo is Ultrasoft, Zval =  5.0
     Generated by new atomic code, or converted to UPF format
     Using radial grid of  729 points,  4 beta functions with:
                l(1) =   0
                l(2) =   0
                l(3) =   1
                l(4) =   1
     Q(r) pseudized with  8 coefficients,  rinner =    0.800   0.800   0.800

     PseudoPot. # 4 for C  read from file:
     /storage/coda1/p-amedford6/0/shared/rich_project_chbe-medford/medford-share/data/pseudos_module/espresso/nninc/pbe/van/C.UPF
     MD5 check sum: 1a69bf6b8db32088f5b2163dbdb77a27
     Pseudo is Ultrasoft, Zval =  4.0
     Generated by new atomic code, or converted to UPF format
     Using radial grid of  721 points,  4 beta functions with:
                l(1) =   0
                l(2) =   0
                l(3) =   1
                l(4) =   1
     Q(r) pseudized with  8 coefficients,  rinner =    0.800   0.800   0.800

     PseudoPot. # 5 for H  read from file:
     /storage/coda1/p-amedford6/0/shared/rich_project_chbe-medford/medford-share/data/pseudos_module/espresso/nninc/pbe/van/H.UPF
     MD5 check sum: b5ee9d7bfd3a09ee7748110bda690ff7
     Pseudo is Ultrasoft, Zval =  1.0
     Generated by new atomic code, or converted to UPF format
     Using radial grid of  615 points,  1 beta functions with:
                l(1) =   0
     Q(r) pseudized with  8 coefficients,  rinner =    0.800

     atomic species   valence    mass     pseudopotential
        Ti1           12.00    47.86700     Ti( 1.00)
        O1             6.00    15.99900     O ( 1.00)
        N1             5.00    14.00700     N ( 1.00)
        C1             4.00    12.01100     C ( 1.00)
        H1             1.00     1.00800     H ( 1.00)

     No symmetry found

   Cartesian axes

     site n.     atom                  positions (alat units)
         1           Ti1 tau(   1) = (   0.0004258   2.9801865   6.0000000  )
         2           Ti1 tau(   2) = (   3.2906075   1.4906267   6.0002472  )
         3           O1  tau(   3) = (   0.0006271   0.0005054   7.9858123  )
         4           O1  tau(   4) = (   3.2906025   0.0005020   7.3038282  )
         5           O1  tau(   5) = (   4.5942328   1.4918067   9.2879030  )
         6           O1  tau(   6) = (   1.9868534   1.4903216   9.2879459  )
         7           Ti1 tau(   7) = (   3.2907910   2.8959150   9.1758416  )
         8           Ti1 tau(   8) = (   0.0015273   1.4827037   9.2680791  )
         9           O1  tau(   9) = (   3.2846693   5.9452209  11.3340492  )
        10           O1  tau(  10) = (   0.0116148   5.9584955  10.6183126  )
        11           O1  tau(  11) = (   1.2834543   1.4847615  12.6293855  )
        12           O1  tau(  12) = (   5.2674731   1.4768263  12.6150299  )
        13           Ti1 tau(  13) = (   0.0515077   3.0114797  12.6524288  )
        14           Ti1 tau(  14) = (   3.3730355   1.4714245  12.4820590  )
        15           O1  tau(  15) = (   6.5599962   0.0037305  14.6029173  )
        16           O1  tau(  16) = (   3.2800597   5.9387738  13.9271036  )
        17           O1  tau(  17) = (   4.5186125   1.4654914  16.0451899  )
        18           O1  tau(  18) = (   2.0258539   1.4687252  16.0523685  )
        19           Ti1 tau(  19) = (   3.2649076   2.9492218  15.6988400  )
        20           Ti1 tau(  20) = (   6.5508048   1.3556675  15.8025096  )
        21           O1  tau(  21) = (   3.2904802   0.0005063   4.7018136  )
        22           O1  tau(  22) = (   6.5741700   5.9536011  17.1303138  )
        23           O1  tau(  23) = (   1.3043587   1.4918075   6.0039043  )
        24           O1  tau(  24) = (   5.2767064   1.4903225   6.0039473  )
        25           Ti1 tau(  25) = (   0.0000382   5.9609847   6.0000000  )
        26           Ti1 tau(  26) = (   3.2902200   4.4714249   6.0002472  )
        27           O1  tau(  27) = (   0.0002396   2.9813036   7.9858123  )
        28           O1  tau(  28) = (   3.2902150   2.9813002   7.3038282  )
        29           O1  tau(  29) = (   4.5938453   4.4726049   9.2879030  )
        30           O1  tau(  30) = (   1.9864658   4.4711199   9.2879459  )
        31           Ti1 tau(  31) = (   3.2891106   5.8743827   9.1763621  )
        32           Ti1 tau(  32) = (   0.0006254   4.4649316   9.2693709  )
        33           O1  tau(  33) = (   3.2861826   2.9668924  11.3320306  )
        34           O1  tau(  34) = (   0.0092240   2.9805883  10.6323155  )
        35           O1  tau(  35) = (   1.2809698   4.4658153  12.6346578  )
        36           O1  tau(  36) = (   5.2715881   4.4563464  12.6201172  )
        37           Ti1 tau(  37) = (   0.0635592   0.0233401  12.5351680  )
        38           Ti1 tau(  38) = (   3.3726470   4.4512063  12.4842852  )
        39           O1  tau(  39) = (   6.5700678   2.9603531  14.7052597  )
        40           O1  tau(  40) = (   3.2800127   2.9650284  13.9044324  )
        41           O1  tau(  41) = (   4.5221929   4.4260918  16.0817388  )
        42           O1  tau(  42) = (   2.0277389   4.4301665  16.0727494  )
        43           Ti1 tau(  43) = (   3.2617617   5.9330256  15.7261539  )
        44           Ti1 tau(  44) = (   6.5423007   4.4542687  16.1498850  )
        45           O1  tau(  45) = (   3.2900926   2.9813045   4.7018136  )
        46           O1  tau(  46) = (   1.3039711   4.4726057   6.0039043  )
        47           O1  tau(  47) = (   5.2763189   4.4711207   6.0039473  )
        48           N1  tau(  48) = (   2.8794700   5.9070534  18.9683957  )
        49           C1  tau(  49) = (   6.5502552   3.0456858  17.8350167  )
        50           H1  tau(  50) = (   5.8927902   3.7356694  18.3776660  )
        51           H1  tau(  51) = (   6.1439290   2.0579341  18.0513002  )
        52           H1  tau(  52) = (   0.9604482   3.0913269  18.2919552  )
        53           N1  tau(  53) = (   2.0963344   5.7764004  19.7355773  )

     number of k points=    10  Fermi-Dirac smearing, width (Ry)=  0.0073
                       cart. coord. in units 2pi/alat
        k(    1) = (   0.0000000   0.0000000   0.0000000), wk =   0.1250000
        k(    2) = (   0.0000000   0.0419351   0.0000000), wk =   0.2500000
        k(    3) = (   0.0000000  -0.0838702   0.0000000), wk =   0.1250000
        k(    4) = (   0.0379955   0.0000049   0.0000000), wk =   0.2500000
        k(    5) = (   0.0379955   0.0419400   0.0000000), wk =   0.2500000
        k(    6) = (   0.0379955  -0.0838652   0.0000000), wk =   0.2500000
        k(    7) = (   0.0379955  -0.0419301   0.0000000), wk =   0.2500000
        k(    8) = (  -0.0759910  -0.0000099   0.0000000), wk =   0.1250000
        k(    9) = (  -0.0759910   0.0419252   0.0000000), wk =   0.2500000
        k(   10) = (  -0.0759910  -0.0838800   0.0000000), wk =   0.1250000

     Initial potential from superposition of free atoms

     starting charge  378.99916, renormalised to  395.00000

     negative rho (up, down):  1.681E-02 0.000E+00

     %%%%%%%%%%%%%%%%%%%%%%%%%%%%%%%%%%%%%%%%%%%%%%%%%%%%%%%%%%%%%%%%%%%%%%%%
     %                                                                      %
     % You are using vdW-DF, which was implemented by the Thonhauser group. %
     % Please cite the following two papers that made this development      %
     % possible and the two reviews that describe the various versions:     %
     %                                                                      %
     %   T. Thonhauser et al., PRL 115, 136402 (2015).                      %
     %   T. Thonhauser et al., PRB 76, 125112 (2007).                       %
     %   K. Berland et al., Rep. Prog. Phys. 78, 066501 (2015).             %
     %   D.C. Langreth et al., J. Phys.: Condens. Matter 21, 084203 (2009). %
     %                                                                      %
     %                                                                      %
     % If you are calculating the stress with vdW-DF, please also cite:     %
     %                                                                      %
     %   R. Sabatini et al., J. Phys.: Condens. Matter 24, 424209 (2012).   %
     %                                                                      %
     %%%%%%%%%%%%%%%%%%%%%%%%%%%%%%%%%%%%%%%%%%%%%%%%%%%%%%%%%%%%%%%%%%%%%%%%

     Adding external electric field

     Computed dipole along edir(3) :
        Dipole               -8.8656 Ry au,        -22.5341 Debye
        Dipole field         -0.0167 Ry au,

        Potential amp.        1.5509 Ry
        Total length         46.3494 bohr

     Starting wfcs are  299 atomic wfcs
  @ DRIVER MODE: Message from server: STATUS
  @ DRIVER MODE: Message from server: POSDATA
  @ DRIVER MODE: Reading and sharing cell
  @ DRIVER MODE: Reading and sharing positions
  @ DRIVER MODE: Received positions

     Self-consistent Calculation

     iteration #  1     ecut=    29.40 Ry     beta= 0.05
     Davidson diagonalization with overlap
     c_bands:  2 eigenvalues not converged
     c_bands:  1 eigenvalues not converged
     c_bands:  1 eigenvalues not converged
     c_bands:  3 eigenvalues not converged
     c_bands:  3 eigenvalues not converged
     c_bands:  1 eigenvalues not converged
     c_bands:  1 eigenvalues not converged
     ethr =  1.00E-05,  avg # of iterations = 19.2

[...]

     total energy              =   -2623.98187881 Ry
     estimated scf accuracy    <    3510.38368667 Ry

[...]

     iteration #  3     ecut=    29.40 Ry     beta= 0.05
     Davidson diagonalization with overlap
     ethr =  1.00E-02,  avg # of iterations = 15.2

[...]

     iteration # 59     ecut=    29.40 Ry     beta= 0.05
     Davidson diagonalization with overlap
     c_bands:  1 eigenvalues not converged
     ethr =  2.22E-09,  avg # of iterations = 10.2

[...]

     total energy              =   -2939.21029371 Ry
     estimated scf accuracy    <       0.00000021 Ry

     iteration # 68     ecut=    29.40 Ry     beta= 0.05
     Davidson diagonalization with overlap
     ethr =  5.26E-11,  avg # of iterations =  8.7

     negative rho (up, down):  1.664E-02 0.000E+00

     Adding external electric field

     Computed dipole along edir(3) :
        Dipole                0.4579 Ry au,          1.1640 Debye
        Dipole field          0.0009 Ry au,

        Potential amp.       -0.0801 Ry
        Total length         46.3494 bohr

     End of self-consistent calculation

          k = 0.0000 0.0000 0.0000 ( 18029 PWs)   bands (ev):

   -56.0386 -56.0287 -56.0045 -55.9922 -55.9299 -55.8956 -55.8736 -55.8515
   -55.8448 -55.8116 -55.8108 -55.7778 -55.6069 -55.4879 -55.0159 -54.9818
   -32.5835 -32.5208 -32.3920 -32.3783 -32.3449 -32.3443 -32.3315 -32.3020
   -32.2808 -32.2604 -32.2530 -32.2366 -32.2091 -32.1907 -32.1812 -32.1681
   -32.1573 -32.1427 -32.1270 -32.1012 -32.0984 -32.0956 -32.0676 -32.0496
   -32.0454 -32.0425 -32.0329 -32.0290 -32.0157 -32.0139 -32.0059 -31.9883
   -31.9855 -31.9794 -31.9642 -31.9479 -31.9233 -31.8920 -31.8187 -31.7676
   -31.7024 -31.5943 -31.4230 -31.3346 -31.3122 -31.2397 -31.1532 -31.0422
   -20.9790 -16.7853 -16.5147 -16.2947 -16.1937 -16.1693 -16.0441 -15.8820
   -15.7587 -15.7112 -15.6100 -15.6008 -15.5743 -15.5521 -15.5380 -15.5271
   -15.4910 -15.4803 -15.4630 -15.4522 -15.4021 -15.3922 -15.3739 -15.2761
   -15.2193 -15.1733 -15.1594 -15.0939 -15.0420 -14.6803 -13.5183 -13.4019
    -9.1532  -6.2273  -4.1609  -4.1324  -4.1136  -3.9986  -3.9444  -3.9036
    -3.8763  -3.6579  -3.5869  -3.2907  -3.2294  -3.2098  -3.1951  -3.1645
    -3.0254  -2.9868  -2.9435  -2.8803  -2.8563  -2.8411  -2.8172  -2.8072
    -2.7894  -2.7571  -2.7216  -2.7104  -2.6525  -2.6057  -2.5308  -2.4530
    -2.4348  -2.3544  -2.3393  -2.3115  -2.2810  -2.2717  -2.2665  -2.2394
    -2.2126  -2.2041  -2.0150  -1.9927  -1.9303  -1.8333  -1.8097  -1.6455
    -1.5780  -1.4961  -1.4851  -1.4660  -1.4477  -1.4288  -1.3379  -1.1986
    -1.1770  -1.1552  -1.1058  -1.0448  -1.0110  -0.9159  -0.8835  -0.8068
    -0.7997  -0.7761  -0.7130  -0.6602  -0.5268  -0.4947  -0.4836  -0.4396
    -0.3940  -0.3319  -0.3163  -0.2562  -0.1903  -0.1809  -0.1050  -0.0754
    -0.0690  -0.0533  -0.0320   0.0030   0.0168   0.1429   0.1659   0.2524
     0.2929   0.3816   0.5137   0.6203   0.6468   0.7142   0.9320   1.0062
     1.1040   1.1273   1.1983   1.5776   1.6232   3.1000   3.1836   3.2315
     3.2423   3.3291   3.3465   3.5490   3.5772   3.6081   3.6443

[...]

          k = 0.0380-0.0419 0.0000 ( 17876 PWs)   bands (ev):

[...]

          k =-0.0760-0.0000 0.0000 ( 17886 PWs)   bands (ev):

[...]

          k =-0.0760-0.0839 0.0000 ( 17948 PWs)   bands (ev):

   -56.0222 -56.0208 -56.0134 -56.0073 -55.9239 -55.8875 -55.8794 -55.8595
   -55.8290 -55.8262 -55.7962 -55.7933 -55.6048 -55.4898 -54.9988 -54.9987
   -32.3899 -32.3839 -32.3366 -32.3357 -32.3175 -32.3163 -32.3044 -32.2924
   -32.2474 -32.2311 -32.2290 -32.2267 -32.1931 -32.1708 -32.1685 -32.1570
   -32.1501 -32.1417 -32.1406 -32.1400 -32.1343 -32.1311 -32.1217 -32.1056
   -32.0774 -32.0763 -32.0739 -32.0475 -32.0291 -32.0279 -32.0265 -32.0249
   -32.0103 -32.0090 -32.0063 -32.0000 -31.9717 -31.8774 -31.8209 -31.7706
   -31.7426 -31.6458 -31.3249 -31.3248 -31.2359 -31.2357 -31.1965 -31.1964
   -20.9789 -16.2234 -16.1920 -16.0003 -15.9532 -15.9479 -15.9367 -15.8468
   -15.7390 -15.7334 -15.7322 -15.6621 -15.6396 -15.6315 -15.5789 -15.5762
   -15.5657 -15.5546 -15.5495 -15.5009 -15.4931 -15.4765 -15.4671 -15.4103
   -15.3548 -15.3505 -15.3417 -15.1437 -15.0288 -14.9637 -13.5040 -13.5035
    -9.1668  -6.2283  -4.1442  -4.1207  -3.5163  -3.4764  -3.2646  -3.1993
    -3.1852  -3.1128  -2.9791  -2.9649  -2.9372  -2.9311  -2.9163  -2.8855
    -2.8713  -2.8521  -2.8457  -2.8277  -2.8138  -2.7887  -2.7526  -2.7452
    -2.7396  -2.7079  -2.6907  -2.6675  -2.6586  -2.6387  -2.6322  -2.5984
    -2.5739  -2.5541  -2.5462  -2.4227  -2.2808  -2.2365  -2.1835  -2.1673
    -2.1657  -2.1308  -2.1006  -2.0903  -2.0665  -2.0213  -1.8684  -1.7665
    -1.7413  -1.7125  -1.6681  -1.6283  -1.5726  -1.4385  -1.4250  -1.3974
    -1.3411  -1.3275  -1.2795  -1.2649  -1.2492  -1.1692  -1.1366  -1.0827
    -1.0109  -0.9995  -0.9927  -0.9373  -0.8831  -0.8081  -0.7992  -0.7595
    -0.7181  -0.6787  -0.6451  -0.6189  -0.5507  -0.5152  -0.3996  -0.3461
    -0.1144  -0.0736   0.0095   0.0535   0.1068   0.1501   0.1608   0.2792
     0.2817   0.3023   0.3868   0.3967   0.4889   0.5079   0.5190   0.7185
     1.2157   1.3699   1.3708   1.4426   1.4432   3.3826   3.3958   3.4215
     3.4672   3.6013   3.6101   3.6288   3.6309   3.7566   3.7782

     the Fermi energy is     3.0965 ev

!    total energy              =   -2939.21031103 Ry
     estimated scf accuracy    <       0.00000006 Ry
     smearing contrib. (-TS)   =      -0.02183722 Ry
     internal energy E=F+TS    =   -2939.18847381 Ry

     The total energy is F=E-TS. E is the sum of the following terms:
     one-electron contribution =  -24056.68735724 Ry
     hartree contribution      =   12113.90134565 Ry
     xc contribution           =    -484.94079467 Ry
     ewald contribution        =    9488.53793669 Ry
     electric field correction =       0.00039576 Ry

     convergence has been achieved in  68 iterations

     Forces acting on atoms (cartesian axes, Ry/au):

     atom    1 type  1   force =     0.00024108   -0.00019397    0.09664718
     atom    2 type  1   force =    -0.00017379   -0.00055172   -0.17532206
     atom    3 type  2   force =    -0.00000990   -0.00004874   -0.02515168
     atom    4 type  2   force =     0.00006922   -0.00152110    0.05289806
     atom    5 type  2   force =    -0.01232719   -0.00156238    0.00379672
     atom    6 type  2   force =     0.01380671   -0.00083668    0.00222358
     atom    7 type  1   force =    -0.00114141    0.00042349   -0.01135358
     atom    8 type  1   force =     0.00079384    0.01677508    0.02866213
     atom    9 type  2   force =     0.00010741   -0.00020948   -0.00001766
     atom   10 type  2   force =    -0.00174097    0.00057295   -0.01856662
     atom   11 type  2   force =    -0.00020420   -0.00004913   -0.00013801
     atom   12 type  2   force =     0.00001286   -0.00000404   -0.00001085
     atom   13 type  1   force =     0.00012968   -0.00028273   -0.00022326
     atom   14 type  1   force =    -0.00009919    0.00033101    0.00028704
     atom   15 type  2   force =    -0.00021445   -0.00008142   -0.00102461
     atom   16 type  2   force =     0.00000039   -0.00022927   -0.00033545
     atom   17 type  2   force =     0.00036024    0.00030745    0.00030268
     atom   18 type  2   force =    -0.00051836    0.00000439   -0.00006720
     atom   19 type  1   force =    -0.00044136   -0.00011664   -0.00007245
     atom   20 type  1   force =    -0.00010929    0.00086748    0.00022127
     atom   21 type  2   force =     0.00013331    0.00001158    0.10320199
     atom   22 type  2   force =     0.00009021   -0.00048959   -0.00014265
     atom   23 type  2   force =    -0.07148707   -0.00011518   -0.02774318
     atom   24 type  2   force =     0.07148069    0.00030819   -0.02772439
     atom   25 type  1   force =     0.00011877   -0.00017115    0.09645097
     atom   26 type  1   force =    -0.00007712   -0.00020463   -0.17540611
     atom   27 type  2   force =     0.00008764   -0.00016525   -0.02394152
     atom   28 type  2   force =     0.00008813   -0.00126499    0.05295946
     atom   29 type  2   force =    -0.01251550    0.00044169    0.00363827
     atom   30 type  2   force =     0.01394685    0.00084884    0.00204883
     atom   31 type  1   force =    -0.00128941    0.00339371   -0.01271985
     atom   32 type  1   force =     0.00074548   -0.01754381    0.02977844
     atom   33 type  2   force =     0.00017224    0.00017363   -0.00008484
     atom   34 type  2   force =    -0.00105375    0.00009284   -0.02243179
     atom   35 type  2   force =     0.00009038    0.00021755    0.00005957
     atom   36 type  2   force =     0.00010115    0.00009922    0.00020325
     atom   37 type  1   force =    -0.00012540    0.00038117   -0.00020948
     atom   38 type  1   force =    -0.00017379    0.00026619    0.00032003
     atom   39 type  2   force =     0.00006856    0.00022678    0.00045987
     atom   40 type  2   force =    -0.00003001   -0.00000614   -0.00000485
     atom   41 type  2   force =     0.00040888   -0.00024629    0.00012137
     atom   42 type  2   force =     0.00011625   -0.00021472    0.00016048
     atom   43 type  1   force =    -0.00005285   -0.00023652    0.00020192
     atom   44 type  1   force =     0.00010223   -0.00004018    0.00035612
     atom   45 type  2   force =     0.00011015   -0.00001466    0.10322845
     atom   46 type  2   force =    -0.07147779   -0.00011842   -0.02770880
     atom   47 type  2   force =     0.07148767    0.00036502   -0.02773552
     atom   48 type  3   force =    -0.00141283    0.00013272   -0.00080555
     atom   49 type  4   force =    -0.00046288   -0.00189767   -0.00048502
     atom   50 type  5   force =     0.00035078    0.00017706    0.00075565
     atom   51 type  5   force =    -0.00115408   -0.00030986   -0.00035908
     atom   52 type  5   force =     0.00117664    0.00175930    0.00020340
     atom   53 type  3   force =     0.00189513    0.00054901    0.00059934

     Total force =     0.368778     Total SCF correction =     0.000425
  @ DRIVER MODE: Message from server: STATUS
  @ DRIVER MODE: Message from server: GETFORCE
  @ DRIVER MODE: Returning v,forces,stress,ensemble

     Writing output data file ./calc.save/
  @ DRIVER MODE: Message from server: EXIT
  @ DRIVE MODE: Exiting

     General routines

     Parallel routines

   This run was terminated on:  10:45:17   4Aug2021

   JOB DONE.