     Program PWSCF v.6.7GPU starts on 16Jul2021 at  2:39:19

     R & G space division:  proc/nbgrp/npool/nimage =      16
     Reading input from /storage/home/hcoda1/3/ntian30/research/carbon/15Jul_vib/ads_slab/CH3N2H_a/out_0014/pw.inp
Warning: card &CELL ignored
Warning: card   CELL_DYNAMICS='IPI', ignored
Warning: card / ignored

     Current dimensions of program PWSCF are:
     Max number of different atomic species (ntypx) = 10
     Max number of k-points (npk) =  40000
     Max angular momentum in pseudopotentials (lmaxx) =  3
     Presently no symmetry can be used with electric field

     Message from routine cell_base_init:
     DEPRECATED: use true lattice parameter, not A to a.u. conversion factor

     IMPORTANT: XC functional enforced from input :
     Exchange-correlation= BEEF-VDW
                           (   1   4  43  14   2   0   0)
     Any further DFT definition will be discarded
     Please, verify this is what you really want

  @ DRIVER MODE: Connecting to
 qe_1139763_2351646.sched-torque.pace.gatech.edu__dvh6vf_scratch
  using UNIX socket
  @ DRIVER MODE: Message from server: STATUS
  @ DRIVER MODE: Message from server: INIT
  @ DRIVER MODE: Receiving replica           0          -1
  @ DRIVER MODE: Receiving encoded integer          25
  @ DRIVER MODE:  SCF:  T  FORCE:  T  STRESS:  F  VC:  F  ENSEMBLE:  F
  @ DRIVER MODE:  SCF:  T  FORCE:  T  STRESS:  F  VC:  F  ENSEMBLE:  F

     Using Slab Decomposition

     bravais-lattice index     =            0
     lattice parameter (alat)  =       1.8897  a.u.
     unit-cell volume          =    6658.9804 (a.u.)^3
     number of atoms/cell      =           54
     number of atomic types    =            5
     number of electrons       =       396.00
     number of Kohn-Sham states=          208
     kinetic-energy cutoff     =      29.3995  Ry
     charge density cutoff     =     293.9946  Ry
     scf convergence threshold =      7.3E-08
     mixing beta               =       0.0500
     number of iterations used =            8  plain     mixing
     Exchange-correlation= BEEF-VDW
                           (   1   4  43  14   2   0   0)

     celldm(1)=   1.889726  celldm(2)=   0.000000  celldm(3)=   0.000000
     celldm(4)=   0.000000  celldm(5)=   0.000000  celldm(6)=   0.000000

     crystal axes: (cart. coord. in units of alat)
               a(1) = (   6.579727   0.000000   0.000000 )
               a(2) = (  -0.000775   5.961596   0.000000 )
               a(3) = (   0.000000   0.000000  25.155947 )

     reciprocal axes: (cart. coord. in units 2 pi/alat)
               b(1) = (  0.151982  0.000020  0.000000 )
               b(2) = (  0.000000  0.167740  0.000000 )
               b(3) = (  0.000000  0.000000  0.039752 )

     PseudoPot. # 1 for Ti read from file:
     /storage/coda1/p-amedford6/0/shared/rich_project_chbe-medford/medford-share/data/pseudos_module/espresso/nninc/pbe/van/Ti.UPF
     MD5 check sum: 8e4df49b7f0d34bbd5052bf3f5ea0213
     Pseudo is Ultrasoft, Zval = 12.0
     Generated by new atomic code, or converted to UPF format
     Using radial grid of  851 points,  6 beta functions with:
                l(1) =   0
                l(2) =   0
                l(3) =   1
                l(4) =   1
                l(5) =   2
                l(6) =   2
     Q(r) pseudized with  8 coefficients,  rinner =    1.000   1.000   1.000
                                                       1.000   1.000

     PseudoPot. # 2 for O  read from file:
     /storage/coda1/p-amedford6/0/shared/rich_project_chbe-medford/medford-share/data/pseudos_module/espresso/nninc/pbe/van/O.UPF
     MD5 check sum: 78c19812648e8988a0fe644b0f25305e
     Pseudo is Ultrasoft, Zval =  6.0
     Generated by new atomic code, or converted to UPF format
     Using radial grid of  737 points,  4 beta functions with:
                l(1) =   0
                l(2) =   0
                l(3) =   1
                l(4) =   1
     Q(r) pseudized with  8 coefficients,  rinner =    0.800   0.800   0.800

     PseudoPot. # 3 for N  read from file:
     /storage/coda1/p-amedford6/0/shared/rich_project_chbe-medford/medford-share/data/pseudos_module/espresso/nninc/pbe/van/N.UPF
     MD5 check sum: 90d10febe142ad51ac9d5be1deb811c4
     Pseudo is Ultrasoft, Zval =  5.0
     Generated by new atomic code, or converted to UPF format
     Using radial grid of  729 points,  4 beta functions with:
                l(1) =   0
                l(2) =   0
                l(3) =   1
                l(4) =   1
     Q(r) pseudized with  8 coefficients,  rinner =    0.800   0.800   0.800

     PseudoPot. # 4 for C  read from file:
     /storage/coda1/p-amedford6/0/shared/rich_project_chbe-medford/medford-share/data/pseudos_module/espresso/nninc/pbe/van/C.UPF
     MD5 check sum: 1a69bf6b8db32088f5b2163dbdb77a27
     Pseudo is Ultrasoft, Zval =  4.0
     Generated by new atomic code, or converted to UPF format
     Using radial grid of  721 points,  4 beta functions with:
                l(1) =   0
                l(2) =   0
                l(3) =   1
                l(4) =   1
     Q(r) pseudized with  8 coefficients,  rinner =    0.800   0.800   0.800

     PseudoPot. # 5 for H  read from file:
     /storage/coda1/p-amedford6/0/shared/rich_project_chbe-medford/medford-share/data/pseudos_module/espresso/nninc/pbe/van/H.UPF
     MD5 check sum: b5ee9d7bfd3a09ee7748110bda690ff7
     Pseudo is Ultrasoft, Zval =  1.0
     Generated by new atomic code, or converted to UPF format
     Using radial grid of  615 points,  1 beta functions with:
                l(1) =   0
     Q(r) pseudized with  8 coefficients,  rinner =    0.800

     atomic species   valence    mass     pseudopotential
        Ti1           12.00    47.86700     Ti( 1.00)
        O1             6.00    15.99900     O ( 1.00)
        N1             5.00    14.00700     N ( 1.00)
        C1             4.00    12.01100     C ( 1.00)
        H1             1.00     1.00800     H ( 1.00)

     Starting magnetic structure
     atomic species   magnetization
        Ti1          0.000
        O1           0.000
        N1           0.000
        C1           0.025
        H1           0.000

     No symmetry found

   Cartesian axes

     site n.     atom                  positions (alat units)
         1           Ti1 tau(   1) = (   0.0004258   2.9801865   6.0000000  )
         2           Ti1 tau(   2) = (   3.2906075   1.4906267   6.0002472  )
         3           O1  tau(   3) = (   0.0006271   0.0005054   7.9858123  )
         4           O1  tau(   4) = (   3.2906025   0.0005020   7.3038282  )
         5           O1  tau(   5) = (   4.5942328   1.4918067   9.2879030  )
         6           O1  tau(   6) = (   1.9868534   1.4903216   9.2879459  )
         7           Ti1 tau(   7) = (   3.2907910   2.8959150   9.1758416  )
         8           Ti1 tau(   8) = (   0.0015273   1.4827037   9.2680791  )
         9           O1  tau(   9) = (   3.3106937   0.0084137  11.2927479  )
        10           O1  tau(  10) = (   0.0116148   5.9584955  10.6183126  )
        11           O1  tau(  11) = (   1.3255326   1.5151957  12.5859258  )
        12           O1  tau(  12) = (   5.3246634   1.4871208  12.6441624  )
        13           Ti1 tau(  13) = (   6.5358624   2.9940264  12.7507449  )
        14           Ti1 tau(  14) = (   3.1828407   1.5032771  12.4528579  )
        15           O1  tau(  15) = (   0.1336207   0.0073438  14.6266748  )
        16           O1  tau(  16) = (   3.2550344   0.0288700  13.8306396  )
        17           O1  tau(  17) = (   4.6334483   1.5013943  15.9792279  )
        18           O1  tau(  18) = (   2.1409664   1.5470880  15.9954950  )
        19           Ti1 tau(  19) = (   3.4798582   3.0305884  15.6593850  )
        20           Ti1 tau(  20) = (   0.1386493   1.3724552  15.8613965  )
        21           O1  tau(  21) = (   3.2904802   0.0005063   4.7018136  )
        22           O1  tau(  22) = (   0.1429122   0.0333940  17.1908172  )
        23           O1  tau(  23) = (   1.3043587   1.4918075   6.0039043  )
        24           O1  tau(  24) = (   5.2767064   1.4903225   6.0039473  )
        25           Ti1 tau(  25) = (   0.0000382   5.9609847   6.0000000  )
        26           Ti1 tau(  26) = (   3.2902200   4.4714249   6.0002472  )
        27           O1  tau(  27) = (   0.0002396   2.9813036   7.9858123  )
        28           O1  tau(  28) = (   3.2902150   2.9813002   7.3038282  )
        29           O1  tau(  29) = (   4.5938453   4.4726049   9.2879030  )
        30           O1  tau(  30) = (   1.9864658   4.4711199   9.2879459  )
        31           Ti1 tau(  31) = (   3.2891106   5.8743827   9.1763621  )
        32           Ti1 tau(  32) = (   0.0006254   4.4649316   9.2693709  )
        33           O1  tau(  33) = (   3.3137399   2.9960163  11.2943833  )
        34           O1  tau(  34) = (   0.0092240   2.9805883  10.6323155  )
        35           O1  tau(  35) = (   1.3234708   4.4688006  12.5930975  )
        36           O1  tau(  36) = (   5.3222282   4.4932535  12.6449723  )
        37           Ti1 tau(  37) = (   6.5041614   0.0053836  12.5833808  )
        38           Ti1 tau(  38) = (   3.1843229   4.4812189  12.4522442  )
        39           O1  tau(  39) = (   0.0584892   2.9792810  14.6723703  )
        40           O1  tau(  40) = (   3.3232524   2.9928384  13.8523860  )
        41           O1  tau(  41) = (   4.6237859   4.5837569  15.7472905  )
        42           O1  tau(  42) = (   2.1882403   4.4693611  16.1038286  )
        43           Ti1 tau(  43) = (   3.3015484   0.0242660  15.6383815  )
        44           Ti1 tau(  44) = (   0.0181797   4.4930750  16.1931172  )
        45           O1  tau(  45) = (   3.2900926   2.9813045   4.7018136  )
        46           O1  tau(  46) = (   1.3039711   4.4726057   6.0039043  )
        47           O1  tau(  47) = (   5.2763189   4.4711207   6.0039473  )
        48           N1  tau(  48) = (   0.2677213   2.8760844  17.5655548  )
        49           C1  tau(  49) = (   1.2271684   2.7639891  18.6598760  )
        50           H1  tau(  50) = (   1.3030054   3.7106696  19.2072709  )
        51           H1  tau(  51) = (   0.8976878   1.9730418  19.3402421  )
        52           H1  tau(  52) = (   2.2102292   2.4972526  18.2850250  )
        53           N1  tau(  53) = (   5.6732178   3.4927010  17.8452151  )
        54           H1  tau(  54) = (   5.7345573   4.0058295  18.7343860  )

     number of k points=    10  Fermi-Dirac smearing, width (Ry)=  0.0073
                       cart. coord. in units 2pi/alat
        k(    1) = (   0.0000000   0.0000000   0.0000000), wk =   0.0625000
        k(    2) = (   0.0000000   0.0419351   0.0000000), wk =   0.1250000
        k(    3) = (   0.0000000  -0.0838702   0.0000000), wk =   0.0625000
        k(    4) = (   0.0379955   0.0000049   0.0000000), wk =   0.1250000
        k(    5) = (   0.0379955   0.0419400   0.0000000), wk =   0.1250000
        k(    6) = (   0.0379955  -0.0838652   0.0000000), wk =   0.1250000
        k(    7) = (   0.0379955  -0.0419301   0.0000000), wk =   0.1250000
[...]
     %                                                                      %
     % You are using vdW-DF, which was implemented by the Thonhauser group. %
     % Please cite the following two papers that made this development      %
     % possible and the two reviews that describe the various versions:     %
     %                                                                      %
     %   T. Thonhauser et al., PRL 115, 136402 (2015).                      %
     %   T. Thonhauser et al., PRB 76, 125112 (2007).                       %
     %   K. Berland et al., Rep. Prog. Phys. 78, 066501 (2015).             %
     %   D.C. Langreth et al., J. Phys.: Condens. Matter 21, 084203 (2009). %
     %                                                                      %
     %                                                                      %
     % If you are calculating the stress with vdW-DF, please also cite:     %
     %                                                                      %
     %   R. Sabatini et al., J. Phys.: Condens. Matter 24, 424209 (2012).   %
     %                                                                      %
     %%%%%%%%%%%%%%%%%%%%%%%%%%%%%%%%%%%%%%%%%%%%%%%%%%%%%%%%%%%%%%%%%%%%%%%%

     Adding external electric field

     Computed dipole along edir(3) :
        Dipole               -8.2222 Ry au,        -20.8988 Debye
        Dipole field         -0.0155 Ry au,

        Potential amp.        1.4384 Ry
        Total length         46.3494 bohr

[...]

     Starting wfcs are  300 atomic wfcs
  @ DRIVER MODE: Message from server: STATUS
  @ DRIVER MODE: Message from server: POSDATA
  @ DRIVER MODE: Reading and sharing cell
  @ DRIVER MODE: Reading and sharing positions
  @ DRIVER MODE: Received positions

     Self-consistent Calculation

     iteration #  1     ecut=    29.40 Ry     beta= 0.05
     Davidson diagonalization with overlap
     c_bands:  1 eigenvalues not converged
     c_bands:  1 eigenvalues not converged
     c_bands:  1 eigenvalues not converged
     c_bands:  1 eigenvalues not converged
     c_bands:  4 eigenvalues not converged
     c_bands:  1 eigenvalues not converged
     c_bands:  4 eigenvalues not converged
     c_bands:  2 eigenvalues not converged
     c_bands:  1 eigenvalues not converged
     c_bands:  1 eigenvalues not converged
     c_bands:  1 eigenvalues not converged
     c_bands:  1 eigenvalues not converged
     c_bands:  1 eigenvalues not converged
     c_bands:  1 eigenvalues not converged
     c_bands:  4 eigenvalues not converged
     c_bands:  1 eigenvalues not converged
     c_bands:  4 eigenvalues not converged
     c_bands:  2 eigenvalues not converged
     c_bands:  1 eigenvalues not converged
     c_bands:  1 eigenvalues not converged
     ethr =  1.00E-05,  avg # of iterations = 20.0

[...]

     total energy              =   -2607.57586311 Ry
     estimated scf accuracy    <    3675.43135797 Ry

     total magnetization       =     0.00 Bohr mag/cell
     absolute magnetization    =     0.03 Bohr mag/cell

[...]

     iteration #  3     ecut=    29.40 Ry     beta= 0.05
     Davidson diagonalization with overlap
     ethr =  1.00E-02,  avg # of iterations = 14.0

[...]

     iteration #121     ecut=    29.40 Ry     beta= 0.05
     Davidson diagonalization with overlap
     ethr =  1.96E-11,  avg # of iterations =  6.3

[...]

     total energy              =   -2940.35274317 Ry
     estimated scf accuracy    <       0.00000009 Ry

[...]

     iteration #122     ecut=    29.40 Ry     beta= 0.05
     Davidson diagonalization with overlap
     c_bands:  2 eigenvalues not converged
     c_bands:  2 eigenvalues not converged
     ethr =  1.96E-11,  avg # of iterations = 15.0

     negative rho (up, down):  8.757E-03 8.757E-03

[...]

     Adding external electric field

     Computed dipole along edir(3) :
        Dipole                0.7375 Ry au,          1.8744 Debye
        Dipole field          0.0014 Ry au,

        Potential amp.       -0.1290 Ry
        Total length         46.3494 bohr

     Magnetic moment per site  (integrated on atomic sphere of radius R)
     atom   1 (R=0.746)  charge=  8.1023  magn= -0.0078
     atom   2 (R=0.746)  charge=  8.0882  magn= -0.0004
     atom   3 (R=0.746)  charge=  5.0689  magn=  0.0005
     atom   4 (R=0.746)  charge=  5.1051  magn=  0.0001
     atom   5 (R=0.746)  charge=  5.0706  magn=  0.0001
     atom   6 (R=0.746)  charge=  5.0718  magn=  0.0001
     atom   7 (R=0.746)  charge=  8.0835  magn= -0.0002
     atom   8 (R=0.746)  charge=  8.0700  magn= -0.0013
     atom   9 (R=0.746)  charge=  5.0893  magn=  0.0000
     atom  10 (R=0.746)  charge=  5.0576  magn=  0.0001
     atom  11 (R=0.746)  charge=  5.0764  magn=  0.0000
     atom  12 (R=0.746)  charge=  5.0718  magn=  0.0001
     atom  13 (R=0.746)  charge=  8.0706  magn= -0.0001
     atom  14 (R=0.746)  charge=  8.0890  magn= -0.0001
     atom  15 (R=0.746)  charge=  5.0553  magn=  0.0000
     atom  16 (R=0.746)  charge=  5.0987  magn=  0.0000
     atom  17 (R=0.746)  charge=  5.0495  magn=  0.0000
     atom  18 (R=0.746)  charge=  5.0673  magn=  0.0000
     atom  19 (R=0.746)  charge=  8.1077  magn= -0.0000
     atom  20 (R=0.746)  charge=  8.0960  magn= -0.0000
     atom  21 (R=0.746)  charge=  4.9490  magn=  0.0004
     atom  22 (R=0.746)  charge=  5.0409  magn= -0.0000
     atom  23 (R=0.746)  charge=  5.0611  magn=  0.0010
     atom  24 (R=0.746)  charge=  5.0612  magn=  0.0010
     atom  25 (R=0.746)  charge=  8.1022  magn= -0.0078
     atom  26 (R=0.746)  charge=  8.0882  magn= -0.0004
     atom  27 (R=0.746)  charge=  5.0670  magn=  0.0006
     atom  28 (R=0.746)  charge=  5.1052  magn=  0.0001
     atom  29 (R=0.746)  charge=  5.0714  magn=  0.0001
     atom  30 (R=0.746)  charge=  5.0726  magn=  0.0001
     atom  31 (R=0.746)  charge=  8.0844  magn= -0.0002
     atom  32 (R=0.746)  charge=  8.0704  magn= -0.0012
     atom  33 (R=0.746)  charge=  5.0889  magn=  0.0000
     atom  34 (R=0.746)  charge=  5.0199  magn=  0.0001
     atom  35 (R=0.746)  charge=  5.0760  magn=  0.0000
     atom  36 (R=0.746)  charge=  5.0724  magn=  0.0000
     atom  37 (R=0.746)  charge=  8.0776  magn= -0.0002
     atom  38 (R=0.746)  charge=  8.0890  magn= -0.0001
     atom  39 (R=0.746)  charge=  5.0527  magn=  0.0000
     atom  40 (R=0.746)  charge=  5.0891  magn=  0.0000
     atom  41 (R=0.746)  charge=  5.0851  magn=  0.0000
     atom  42 (R=0.746)  charge=  5.0438  magn= -0.0000
     atom  43 (R=0.746)  charge=  8.1144  magn= -0.0000
     atom  44 (R=0.746)  charge=  8.1352  magn= -0.0001
     atom  45 (R=0.746)  charge=  4.9490  magn=  0.0003
     atom  46 (R=0.746)  charge=  5.0611  magn=  0.0010
     atom  47 (R=0.746)  charge=  5.0612  magn=  0.0010
     atom  48 (R=0.424)  charge=  1.3499  magn= -0.0000
     atom  49 (R=0.448)  charge=  0.8421  magn= -0.0000
     atom  50 (R=0.424)  charge=  0.4500  magn=  0.0000
     atom  51 (R=0.424)  charge=  0.4491  magn= -0.0000
     atom  52 (R=0.424)  charge=  0.4560  magn=  0.0000
     atom  53 (R=0.424)  charge=  1.3504  magn= -0.0001
     atom  54 (R=0.424)  charge=  0.4592  magn= -0.0000

     End of self-consistent calculation

 ------ SPIN UP ------------

          k = 0.0000 0.0000 0.0000 ( 18029 PWs)   bands (ev):

   -56.0152 -55.9812 -55.8040 -55.7651 -55.7236 -55.6891 -55.6632 -55.6390
   -55.6290 -55.6043 -55.5754 -55.4956 -55.2409 -54.9187 -54.8847 -54.7886
   -32.4860 -32.3460 -32.3082 -32.2853 -32.1897 -32.1685 -32.1659 -32.1285
   -32.1087 -32.0987 -32.0743 -32.0448 -32.0211 -31.9815 -31.9746 -31.9728
   -31.9405 -31.9306 -31.9195 -31.8948 -31.8865 -31.8688 -31.8625 -31.8586
   -31.8391 -31.8370 -31.8285 -31.8244 -31.8179 -31.8013 -31.7937 -31.7930
   -31.7759 -31.7516 -31.6918 -31.6647 -31.6162 -31.4674 -31.4643 -31.3221
   -31.2425 -31.2196 -31.2059 -31.1392 -31.0532 -30.9929 -30.9421 -30.9128
   -17.3080 -16.5590 -16.3686 -16.0785 -15.9273 -15.9075 -15.7883 -15.6914
   -15.6140 -15.5149 -15.4608 -15.4064 -15.3951 -15.3686 -15.3100 -15.2881
   -15.2467 -15.2292 -15.1866 -15.1758 -15.1299 -15.1086 -15.0854 -15.0510
   -14.9863 -14.9159 -14.9034 -14.7468 -14.6076 -14.4547 -13.4203 -13.3054
   -11.5495  -8.3364  -5.0191  -4.0080  -3.9453  -3.8754  -3.8364  -3.7738
    -3.6925  -3.4410  -3.4168  -3.3572  -3.0704  -3.0230  -2.9990  -2.9944
    -2.8965  -2.7569  -2.7264  -2.6664  -2.6608  -2.6400  -2.6201  -2.6033
    -2.5461  -2.4900  -2.4731  -2.4309  -2.2972  -2.2711  -2.2672  -2.2452
    -2.1751  -2.1659  -2.1013  -2.0839  -2.0611  -2.0428  -2.0056  -1.8726
    -1.8390  -1.7742  -1.6926  -1.6040  -1.5242  -1.4882  -1.4001  -1.3862
    -1.3393  -1.2606  -1.2538  -1.1778  -1.1456  -1.0692  -1.0444  -1.0068
    -0.8982  -0.8709  -0.8123  -0.7554  -0.7107  -0.6975  -0.6560  -0.6316
    -0.6257  -0.6112  -0.5982  -0.4034  -0.3743  -0.2312  -0.1854  -0.1607
    -0.1202  -0.0974  -0.0388  -0.0156  -0.0100   0.0292   0.0476   0.0908
     0.1465   0.1613   0.1873   0.2810   0.3131   0.3679   0.4943   0.5078
     0.5958   0.6627   0.7689   0.7813   0.8328   0.9644   1.0601   1.0823
     1.1033   1.3085   1.4136   1.6670   1.7098   3.0251   3.1757   3.2764
     3.3765   3.4960   3.5707   3.6136   3.7838   3.8218   3.8642   3.9292

[...]

          k =-0.0760-0.0000 0.0000 ( 17886 PWs)   bands (ev):

[...]

 ------ SPIN DOWN ----------

[...]

          k = 0.0380-0.0419 0.0000 ( 17876 PWs)   bands (ev):

[...]

          k =-0.0760-0.0839 0.0000 ( 17948 PWs)   bands (ev):

   -56.0141 -56.0120 -55.7920 -55.7772 -55.7124 -55.7049 -55.6482 -55.6447
   -55.6260 -55.6181 -55.5715 -55.4994 -55.2405 -54.9025 -54.9023 -54.7893
   -32.3114 -32.3098 -32.3079 -32.3070 -32.1536 -32.1415 -32.1385 -32.1363
   -32.0500 -32.0373 -32.0272 -32.0246 -32.0175 -32.0139 -31.9709 -31.9654
   -31.9555 -31.9434 -31.9126 -31.9032 -31.8910 -31.8865 -31.8817 -31.8805
   -31.8751 -31.8715 -31.8557 -31.8500 -31.8437 -31.8406 -31.8355 -31.8170
   -31.7969 -31.7943 -31.7644 -31.7058 -31.6068 -31.4700 -31.4639 -31.2561
   -31.2334 -31.2333 -31.1360 -31.1357 -31.0971 -31.0970 -31.0052 -30.9171
   -17.2889 -15.9759 -15.9475 -15.8398 -15.8203 -15.7321 -15.7187 -15.6037
   -15.5960 -15.5834 -15.5170 -15.4710 -15.4605 -15.3785 -15.3517 -15.3403
   -15.3158 -15.3061 -15.2996 -15.2887 -15.2760 -15.1967 -15.1914 -15.1890
   -15.1138 -15.0911 -14.9050 -14.8617 -14.6637 -14.6181 -13.4072 -13.4068
   -11.5531  -8.3163  -5.0255  -3.9098  -3.8274  -3.2780  -3.2420  -3.0265
    -3.0004  -2.9800  -2.9508  -2.7659  -2.7521  -2.7459  -2.7285  -2.7155
    -2.6783  -2.6592  -2.6460  -2.5803  -2.5707  -2.5506  -2.5457  -2.5353
    -2.5169  -2.5014  -2.4935  -2.4742  -2.4592  -2.4143  -2.3601  -2.3377
    -2.2874  -2.1933  -2.0869  -2.0431  -2.0294  -2.0214  -1.9984  -1.9893
    -1.9485  -1.9358  -1.8499  -1.6651  -1.6179  -1.5571  -1.5511  -1.5406
    -1.4840  -1.4275  -1.3880  -1.3115  -1.2443  -1.1920  -1.1627  -1.1384
    -1.1036  -1.0372  -0.9709  -0.9512  -0.9386  -0.9094  -0.9061  -0.8875
    -0.8097  -0.7263  -0.6856  -0.6555  -0.6328  -0.6186  -0.6029  -0.5801
    -0.4733  -0.4050  -0.3572  -0.3118  -0.2694  -0.2274  -0.1088  -0.0940
     0.1007   0.1666   0.1917   0.2705   0.3674   0.3931   0.4037   0.4680
     0.5430   0.6057   0.6404   0.6950   0.7101   0.7314   0.7984   1.0140
     1.0690   1.4777   1.4793   1.5283   1.5293   2.9890   3.6690   3.6743
     3.6787   3.6878   3.7109   3.7353   3.7866   3.8220   3.9231   3.9440

     the Fermi energy is     3.1353 ev

!    total energy              =   -2940.35274357 Ry
     estimated scf accuracy    <       0.00000006 Ry
     smearing contrib. (-TS)   =      -0.01867832 Ry
     internal energy E=F+TS    =   -2940.33406526 Ry

     The total energy is F=E-TS. E is the sum of the following terms:
     one-electron contribution =  -24661.66645606 Ry
     hartree contribution      =   12419.97305221 Ry
     xc contribution           =    -486.05062722 Ry
     ewald contribution        =    9787.40893950 Ry
     electric field correction =       0.00102631 Ry

     total magnetization       =    -0.02 Bohr mag/cell
     absolute magnetization    =     0.04 Bohr mag/cell

     convergence has been achieved in 122 iterations

     Forces acting on atoms (cartesian axes, Ry/au):

     atom    1 type  1   force =     0.00023613   -0.00036446    0.10151879
     atom    2 type  1   force =     0.00001345   -0.00086329   -0.17140786
     atom    3 type  2   force =     0.00029148    0.00021810   -0.03325365
     atom    4 type  2   force =     0.00003273   -0.00078879    0.04482180
     atom    5 type  2   force =    -0.01194276   -0.00021286   -0.00232420
     atom    6 type  2   force =     0.01437687    0.00038099   -0.00112399
     atom    7 type  1   force =     0.00140257   -0.00131406   -0.00429321
     atom    8 type  1   force =    -0.00077079    0.02219918    0.05619961
     atom    9 type  2   force =     0.00002930   -0.00032631    0.00045546
     atom   10 type  2   force =    -0.00266446    0.00207193   -0.02593982
     atom   11 type  2   force =     0.00003140    0.00024643   -0.00005813
     atom   12 type  2   force =     0.00008338    0.00073566    0.00001958
     atom   13 type  1   force =    -0.00003415    0.00014331    0.00025680
     atom   14 type  1   force =     0.00028487    0.00030088    0.00001585
     atom   15 type  2   force =     0.00020041   -0.00022350   -0.00000827
     atom   16 type  2   force =    -0.00002393   -0.00013678    0.00075272
     atom   17 type  2   force =    -0.00009701   -0.00077675    0.00001876
     atom   18 type  2   force =     0.00050941   -0.00073371    0.00022321
     atom   19 type  1   force =    -0.00012647   -0.00051769    0.00023586
     atom   20 type  1   force =     0.00002367    0.00007484   -0.00016259
     atom   21 type  2   force =     0.00006457   -0.00001117    0.10210854
     atom   22 type  2   force =    -0.00001551   -0.00029701    0.00030905
     atom   23 type  2   force =    -0.07328230   -0.00015919   -0.02888072
     atom   24 type  2   force =     0.07323427    0.00033504   -0.02892829
     atom   25 type  1   force =    -0.00026924   -0.00029775    0.10194893
     atom   26 type  1   force =     0.00003334   -0.00020204   -0.17140382
     atom   27 type  2   force =     0.00036520   -0.00023010   -0.03196723
     atom   28 type  2   force =     0.00009323   -0.00057210    0.04544165
     atom   29 type  2   force =    -0.01209055    0.00212713   -0.00288076
     atom   30 type  2   force =     0.01440358    0.00228833   -0.00162219
     atom   31 type  1   force =     0.00158604    0.00092572   -0.00559917
     atom   32 type  1   force =    -0.00059632   -0.02476114    0.05723085
     atom   33 type  2   force =     0.00015242    0.00035915    0.00061681
     atom   34 type  2   force =    -0.00420686    0.00211950   -0.04832324
     atom   35 type  2   force =     0.00062245   -0.00058430    0.00001102
     atom   36 type  2   force =    -0.00040992   -0.00074706    0.00013851
     atom   37 type  1   force =     0.00005992    0.00062027   -0.00002592
     atom   38 type  1   force =     0.00004156   -0.00011500   -0.00011685
     atom   39 type  2   force =     0.00018494   -0.00002265   -0.00067824
     atom   40 type  2   force =    -0.00008390   -0.00003193   -0.00035056
     atom   41 type  2   force =     0.00006222    0.00048362   -0.00006699
     atom   42 type  2   force =     0.00001673    0.00036884    0.00070579
     atom   43 type  1   force =    -0.00025523   -0.00007764    0.00017231
     atom   44 type  1   force =    -0.00001188    0.00017234    0.00024783
     atom   45 type  2   force =     0.00004710   -0.00004729    0.10216860
     atom   46 type  2   force =    -0.07328983   -0.00009330   -0.02885157
     atom   47 type  2   force =     0.07324331    0.00028102   -0.02888961
     atom   48 type  3   force =    -0.00005087    0.00113848    0.00123776
     atom   49 type  4   force =     0.00149948   -0.00021157    0.00005529
     atom   50 type  5   force =    -0.00194816   -0.00059182   -0.00055852
     atom   51 type  5   force =    -0.00051152   -0.00010087    0.00069609
     atom   52 type  5   force =    -0.00034394   -0.00136504   -0.00030588
     atom   53 type  3   force =    -0.00019301   -0.00039312    0.00086216
     atom   54 type  5   force =    -0.00000744   -0.00042045   -0.00044832

     Total force =     0.377793     Total SCF correction =     0.000327
  @ DRIVER MODE: Message from server: STATUS
  @ DRIVER MODE: Message from server: GETFORCE
  @ DRIVER MODE: Returning v,forces,stress,ensemble

     Writing output data file ./calc.save/
  @ DRIVER MODE: Message from server: EXIT
  @ DRIVE MODE: Exiting

     General routines

     Parallel routines

   This run was terminated on:   3:27:50  16Jul2021

   JOB DONE.