     Program PWSCF v.6.7GPU starts on 15Sep2021 at 18:49:20

     R & G space division:  proc/nbgrp/npool/nimage =      10
     Reading input from /storage/home/hcoda1/3/ntian30/research/carbon/CxH_vib/H2O_calc/ads_slab/CH2NH2O_a/out_0010/pw.inp
Warning: card &CELL ignored
Warning: card   CELL_DYNAMICS='IPI', ignored
Warning: card / ignored

     Current dimensions of program PWSCF are:
     Max number of different atomic species (ntypx) = 10
     Max number of k-points (npk) =  40000
     Max angular momentum in pseudopotentials (lmaxx) =  3
     Presently no symmetry can be used with electric field

     Message from routine cell_base_init:
     DEPRECATED: use true lattice parameter, not A to a.u. conversion factor

     IMPORTANT: XC functional enforced from input :
     Exchange-correlation= BEEF-VDW
                           (   1   4  43  14   2   0   0)
     Any further DFT definition will be discarded
     Please, verify this is what you really want

  @ DRIVER MODE: Connecting to
 qe_1139763_2852607.sched-torque.pace.gatech.eduq87nyzpp_scratch
  using UNIX socket
  @ DRIVER MODE: Message from server: STATUS
  @ DRIVER MODE: Message from server: INIT
  @ DRIVER MODE: Receiving replica           0          -1
  @ DRIVER MODE: Receiving encoded integer          25
  @ DRIVER MODE:  SCF:  T  FORCE:  T  STRESS:  F  VC:  F  ENSEMBLE:  F
  @ DRIVER MODE:  SCF:  T  FORCE:  T  STRESS:  F  VC:  F  ENSEMBLE:  F

     Using Slab Decomposition

     bravais-lattice index     =            0
     lattice parameter (alat)  =       1.8897  a.u.
     unit-cell volume          =    6658.9804 (a.u.)^3
     number of atoms/cell      =           54
     number of atomic types    =            5
     number of electrons       =       397.00
     number of Kohn-Sham states=          208
     kinetic-energy cutoff     =      29.3995  Ry
     charge density cutoff     =     293.9946  Ry
     scf convergence threshold =      7.3E-08
     mixing beta               =       0.0500
     number of iterations used =            8  plain     mixing
     Exchange-correlation= BEEF-VDW
                           (   1   4  43  14   2   0   0)

     celldm(1)=   1.889726  celldm(2)=   0.000000  celldm(3)=   0.000000
     celldm(4)=   0.000000  celldm(5)=   0.000000  celldm(6)=   0.000000

     crystal axes: (cart. coord. in units of alat)
               a(1) = (   6.579727   0.000000   0.000000 )
               a(2) = (  -0.000775   5.961596   0.000000 )
               a(3) = (   0.000000   0.000000  25.155947 )

     reciprocal axes: (cart. coord. in units 2 pi/alat)
               b(1) = (  0.151982  0.000020  0.000000 )
               b(2) = (  0.000000  0.167740  0.000000 )
               b(3) = (  0.000000  0.000000  0.039752 )

     PseudoPot. # 1 for Ti read from file:
     /storage/coda1/p-amedford6/0/shared/rich_project_chbe-medford/medford-share/data/pseudos_module/espresso/nninc/pbe/van/Ti.UPF
     MD5 check sum: 8e4df49b7f0d34bbd5052bf3f5ea0213
     Pseudo is Ultrasoft, Zval = 12.0
     Generated by new atomic code, or converted to UPF format
     Using radial grid of  851 points,  6 beta functions with:
                l(1) =   0
                l(2) =   0
                l(3) =   1
                l(4) =   1
                l(5) =   2
                l(6) =   2
     Q(r) pseudized with  8 coefficients,  rinner =    1.000   1.000   1.000
                                                       1.000   1.000

     PseudoPot. # 2 for O  read from file:
     /storage/coda1/p-amedford6/0/shared/rich_project_chbe-medford/medford-share/data/pseudos_module/espresso/nninc/pbe/van/O.UPF
     MD5 check sum: 78c19812648e8988a0fe644b0f25305e
     Pseudo is Ultrasoft, Zval =  6.0
     Generated by new atomic code, or converted to UPF format
     Using radial grid of  737 points,  4 beta functions with:
                l(1) =   0
                l(2) =   0
                l(3) =   1
                l(4) =   1
     Q(r) pseudized with  8 coefficients,  rinner =    0.800   0.800   0.800

     PseudoPot. # 3 for N  read from file:
     /storage/coda1/p-amedford6/0/shared/rich_project_chbe-medford/medford-share/data/pseudos_module/espresso/nninc/pbe/van/N.UPF
     MD5 check sum: 90d10febe142ad51ac9d5be1deb811c4
     Pseudo is Ultrasoft, Zval =  5.0
     Generated by new atomic code, or converted to UPF format
     Using radial grid of  729 points,  4 beta functions with:
                l(1) =   0
                l(2) =   0
                l(3) =   1
                l(4) =   1
     Q(r) pseudized with  8 coefficients,  rinner =    0.800   0.800   0.800

     PseudoPot. # 4 for C  read from file:
     /storage/coda1/p-amedford6/0/shared/rich_project_chbe-medford/medford-share/data/pseudos_module/espresso/nninc/pbe/van/C.UPF
     MD5 check sum: 1a69bf6b8db32088f5b2163dbdb77a27
     Pseudo is Ultrasoft, Zval =  4.0
     Generated by new atomic code, or converted to UPF format
     Using radial grid of  721 points,  4 beta functions with:
                l(1) =   0
                l(2) =   0
                l(3) =   1
                l(4) =   1
     Q(r) pseudized with  8 coefficients,  rinner =    0.800   0.800   0.800

     PseudoPot. # 5 for H  read from file:
     /storage/coda1/p-amedford6/0/shared/rich_project_chbe-medford/medford-share/data/pseudos_module/espresso/nninc/pbe/van/H.UPF
     MD5 check sum: b5ee9d7bfd3a09ee7748110bda690ff7
     Pseudo is Ultrasoft, Zval =  1.0
     Generated by new atomic code, or converted to UPF format
     Using radial grid of  615 points,  1 beta functions with:
                l(1) =   0
     Q(r) pseudized with  8 coefficients,  rinner =    0.800

     atomic species   valence    mass     pseudopotential
        Ti1           12.00    47.86700     Ti( 1.00)
        O1             6.00    15.99900     O ( 1.00)
        N1             5.00    14.00700     N ( 1.00)
        C1             4.00    12.01100     C ( 1.00)
        H1             1.00     1.00800     H ( 1.00)

     No symmetry found

   Cartesian axes

     site n.     atom                  positions (alat units)
         1           Ti1 tau(   1) = (   0.0004258   2.9801865   6.0000000  )
         2           Ti1 tau(   2) = (   3.2906075   1.4906267   6.0002472  )
         3           O1  tau(   3) = (   0.0006271   0.0005054   7.9858123  )
         4           O1  tau(   4) = (   3.2906025   0.0005020   7.3038282  )
         5           O1  tau(   5) = (   4.5942328   1.4918067   9.2879030  )
         6           O1  tau(   6) = (   1.9868534   1.4903216   9.2879459  )
         7           Ti1 tau(   7) = (   3.2907910   2.8959150   9.1758416  )
         8           Ti1 tau(   8) = (   0.0015273   1.4827037   9.2680791  )
         9           O1  tau(   9) = (   3.3024300   0.0156651  11.3362489  )
        10           O1  tau(  10) = (   0.0116148   5.9584955  10.6183126  )
        11           O1  tau(  11) = (   1.3202942   1.5021919  12.6211084  )
        12           O1  tau(  12) = (   5.3089492   1.4933221  12.6244093  )
        13           Ti1 tau(  13) = (   6.5318549   2.9554166  12.6004298  )
        14           Ti1 tau(  14) = (   3.2163550   1.4959796  12.4995714  )
        15           O1  tau(  15) = (   0.0198598   0.0281632  14.6562685  )
        16           O1  tau(  16) = (   3.3115091   0.0214956  13.9462002  )
        17           O1  tau(  17) = (   4.5768415   1.5604546  16.0171077  )
        18           O1  tau(  18) = (   2.0579415   1.5629007  16.0064375  )
        19           Ti1 tau(  19) = (   3.3180608   3.0267156  15.6839788  )
        20           Ti1 tau(  20) = (   0.0373526   1.5614015  15.8096867  )
        21           O1  tau(  21) = (   3.2904802   0.0005063   4.7018136  )
        22           O1  tau(  22) = (   0.0417102   0.0258274  17.2400240  )
        23           O1  tau(  23) = (   1.3043587   1.4918075   6.0039043  )
        24           O1  tau(  24) = (   5.2767064   1.4903225   6.0039473  )
        25           Ti1 tau(  25) = (   0.0000382   5.9609847   6.0000000  )
        26           Ti1 tau(  26) = (   3.2902200   4.4714249   6.0002472  )
        27           O1  tau(  27) = (   0.0002396   2.9813036   7.9858123  )
        28           O1  tau(  28) = (   3.2902150   2.9813002   7.3038282  )
        29           O1  tau(  29) = (   4.5938453   4.4726049   9.2879030  )
        30           O1  tau(  30) = (   1.9864658   4.4711199   9.2879459  )
        31           Ti1 tau(  31) = (   3.2891106   5.8743827   9.1763621  )
        32           Ti1 tau(  32) = (   0.0006254   4.4649316   9.2693709  )
        33           O1  tau(  33) = (   3.2972593   2.9937737  11.3378417  )
        34           O1  tau(  34) = (   0.0092240   2.9805883  10.6323155  )
        35           O1  tau(  35) = (   1.3143161   4.4928581  12.6237603  )
        36           O1  tau(  36) = (   5.3098643   4.4818631  12.6293382  )
        37           Ti1 tau(  37) = (   6.5333161   5.9285706  12.5502982  )
        38           Ti1 tau(  38) = (   3.2144982   4.4885123  12.4917375  )
        39           O1  tau(  39) = (   0.0198576   2.9709144  14.6477637  )
        40           O1  tau(  40) = (   3.3145585   3.0140958  13.8917140  )
        41           O1  tau(  41) = (   4.5688195   4.4932876  16.0791699  )
        42           O1  tau(  42) = (   2.0650477   4.4875755  16.0663885  )
        43           Ti1 tau(  43) = (   3.3331689   0.0560974  15.7812046  )
        44           Ti1 tau(  44) = (   0.0348837   4.6827776  16.0884590  )
        45           O1  tau(  45) = (   3.2900926   2.9813045   4.7018136  )
        46           O1  tau(  46) = (   1.3039711   4.4726057   6.0039043  )
        47           O1  tau(  47) = (   5.2763189   4.4711207   6.0039473  )
        48           N1  tau(  48) = (   0.0359943   2.9709886  17.3934402  )
        49           C1  tau(  49) = (   0.0487696   2.8643938  18.6443550  )
        50           H1  tau(  50) = (   0.0551173   3.7295775  19.3121947  )
        51           H1  tau(  51) = (   0.0550652   1.8705629  19.1311967  )
        52           O1  tau(  52) = (   3.2796845   0.1561466  18.1797653  )
        53           H1  tau(  53) = (   4.0301203   5.5808867  18.4795516  )
        54           H1  tau(  54) = (   2.4663764   5.6445902  18.4210942  )

     number of k points=    10  Fermi-Dirac smearing, width (Ry)=  0.0073
                       cart. coord. in units 2pi/alat
        k(    1) = (   0.0000000   0.0000000   0.0000000), wk =   0.1250000
        k(    2) = (   0.0000000   0.0419351   0.0000000), wk =   0.2500000
        k(    3) = (   0.0000000  -0.0838702   0.0000000), wk =   0.1250000
        k(    4) = (   0.0379955   0.0000049   0.0000000), wk =   0.2500000
        k(    5) = (   0.0379955   0.0419400   0.0000000), wk =   0.2500000
        k(    6) = (   0.0379955  -0.0838652   0.0000000), wk =   0.2500000
        k(    7) = (   0.0379955  -0.0419301   0.0000000), wk =   0.2500000
        k(    8) = (  -0.0759910  -0.0000099   0.0000000), wk =   0.1250000
        k(    9) = (  -0.0759910   0.0419252   0.0000000), wk =   0.2500000
        k(   10) = (  -0.0759910  -0.0838800   0.0000000), wk =   0.1250000

     Initial potential from superposition of free atoms

     starting charge  380.99916, renormalised to  397.00000

     negative rho (up, down):  1.695E-02 0.000E+00

     %%%%%%%%%%%%%%%%%%%%%%%%%%%%%%%%%%%%%%%%%%%%%%%%%%%%%%%%%%%%%%%%%%%%%%%%
     %                                                                      %
     % You are using vdW-DF, which was implemented by the Thonhauser group. %
     % Please cite the following two papers that made this development      %
     % possible and the two reviews that describe the various versions:     %
     %                                                                      %
     %   T. Thonhauser et al., PRL 115, 136402 (2015).                      %
     %   T. Thonhauser et al., PRB 76, 125112 (2007).                       %
     %   K. Berland et al., Rep. Prog. Phys. 78, 066501 (2015).             %
     %   D.C. Langreth et al., J. Phys.: Condens. Matter 21, 084203 (2009). %
     %                                                                      %
     %                                                                      %
     % If you are calculating the stress with vdW-DF, please also cite:     %
     %                                                                      %
     %   R. Sabatini et al., J. Phys.: Condens. Matter 24, 424209 (2012).   %
     %                                                                      %
     %%%%%%%%%%%%%%%%%%%%%%%%%%%%%%%%%%%%%%%%%%%%%%%%%%%%%%%%%%%%%%%%%%%%%%%%

     Adding external electric field

     Computed dipole along edir(3) :
        Dipole               -9.2265 Ry au,        -23.4513 Debye
        Dipole field         -0.0174 Ry au,

        Potential amp.        1.6140 Ry
        Total length         46.3494 bohr

     Starting wfcs are  300 atomic wfcs
  @ DRIVER MODE: Message from server: STATUS
  @ DRIVER MODE: Message from server: POSDATA
  @ DRIVER MODE: Reading and sharing cell
  @ DRIVER MODE: Reading and sharing positions
  @ DRIVER MODE: Received positions

     Self-consistent Calculation

     iteration #  1     ecut=    29.40 Ry     beta= 0.05
     Davidson diagonalization with overlap
     c_bands:  1 eigenvalues not converged
     c_bands:  1 eigenvalues not converged
     c_bands:  1 eigenvalues not converged
     c_bands:  1 eigenvalues not converged
     c_bands:  1 eigenvalues not converged
     c_bands:  1 eigenvalues not converged
     c_bands:  1 eigenvalues not converged
     ethr =  1.00E-05,  avg # of iterations = 19.0

[...]

     total energy              =   -2550.55468127 Ry
     estimated scf accuracy    <    4467.35162932 Ry

     iteration #  2     ecut=    29.40 Ry     beta= 0.05
     Davidson diagonalization with overlap
     ethr =  1.00E-02,  avg # of iterations = 24.8

[...]

     iteration # 49     ecut=    29.40 Ry     beta= 0.05
     Davidson diagonalization with overlap
     c_bands:  3 eigenvalues not converged
     c_bands:  2 eigenvalues not converged
     ethr =  2.26E-07,  avg # of iterations = 16.5

[...]

     total energy              =   -2952.76124441 Ry
     estimated scf accuracy    <       0.00000011 Ry

     iteration # 68     ecut=    29.40 Ry     beta= 0.05
     Davidson diagonalization with overlap
     ethr =  2.81E-11,  avg # of iterations =  3.8

     negative rho (up, down):  1.682E-02 0.000E+00

     Adding external electric field

     Computed dipole along edir(3) :
        Dipole                1.0241 Ry au,          2.6031 Debye
        Dipole field          0.0019 Ry au,

        Potential amp.       -0.1792 Ry
        Total length         46.3494 bohr

     End of self-consistent calculation

          k = 0.0000 0.0000 0.0000 ( 18029 PWs)   bands (ev):

   -55.6869 -55.6557 -55.6528 -55.6276 -55.6198 -55.5348 -55.5009 -55.4998
   -55.4689 -55.4669 -55.4635 -55.4298 -55.2154 -54.9951 -54.6665 -54.6325
   -32.1999 -32.1700 -32.0418 -32.0380 -31.9993 -31.9796 -31.9602 -31.9537
   -31.9307 -31.8904 -31.8815 -31.8512 -31.8391 -31.8384 -31.8337 -31.8133
   -31.7919 -31.7851 -31.7822 -31.7493 -31.7440 -31.7367 -31.7032 -31.6918
   -31.6917 -31.6902 -31.6804 -31.6630 -31.6626 -31.6548 -31.6491 -31.6405
   -31.6320 -31.6308 -31.6170 -31.6091 -31.5758 -31.4639 -31.4111 -31.2688
   -31.2475 -31.2098 -31.0737 -30.9852 -30.9628 -30.8904 -30.8039 -30.6929
   -19.1475 -16.4035 -16.1609 -15.9434 -15.8437 -15.8067 -15.6088 -15.5065
   -15.4194 -15.3097 -15.2452 -15.2242 -15.2189 -15.1983 -15.1877 -15.1463
   -15.1331 -15.1289 -15.1092 -15.0920 -15.0391 -15.0290 -15.0214 -14.9324
   -14.8586 -14.8238 -14.8166 -14.8063 -14.7917 -14.7454 -14.2992 -13.1686
   -13.0521  -7.4999  -6.9576  -4.2695  -3.8222  -3.7475  -3.6427  -3.5940
    -3.5529  -3.4110  -3.3484  -3.2607  -3.1454  -2.9338  -2.8744  -2.8347
    -2.8068  -2.7459  -2.5956  -2.5512  -2.4995  -2.4899  -2.4782  -2.4652
    -2.4377  -2.4229  -2.3271  -2.2861  -2.2401  -2.2293  -2.0901  -2.0774
    -2.0499  -2.0002  -1.9660  -1.9524  -1.9472  -1.9351  -1.9210  -1.8979
    -1.8726  -1.7701  -1.6800  -1.6109  -1.4991  -1.4542  -1.4067  -1.3093
    -1.3018  -1.2319  -1.1538  -1.1411  -1.1170  -1.0875  -1.0791  -0.9645
    -0.8588  -0.8449  -0.7450  -0.6917  -0.6088  -0.5798  -0.5253  -0.4792
    -0.4501  -0.4465  -0.4303  -0.3795  -0.2365  -0.2103  -0.1727  -0.0929
    -0.0341  -0.0225   0.0219   0.0631   0.1169   0.1419   0.1969   0.2051
     0.2385   0.2826   0.2861   0.3049   0.3223   0.3475   0.5219   0.5628
     0.5745   0.6506   0.6599   0.8277   0.8406   0.9675   1.0779   1.2826
     1.3559   1.4421   1.5481   1.6493   1.9271   1.9728   3.4414   3.5331
     3.5757   3.6065   3.6854   3.6888   3.8994   3.9160   3.9376   4.0207

[...]

          k = 0.0380-0.0419 0.0000 ( 17876 PWs)   bands (ev):

[...]

          k =-0.0760-0.0000 0.0000 ( 17886 PWs)   bands (ev):

[...]

          k =-0.0760-0.0839 0.0000 ( 17948 PWs)   bands (ev):

   -55.6702 -55.6694 -55.6387 -55.6366 -55.6256 -55.5202 -55.5144 -55.4839
   -55.4834 -55.4706 -55.4479 -55.4455 -55.2142 -54.9961 -54.6495 -54.6493
   -32.0122 -31.9977 -31.9855 -31.9849 -31.9654 -31.9646 -31.9220 -31.9165
   -31.9039 -31.8814 -31.8730 -31.8514 -31.8345 -31.8200 -31.8056 -31.8023
   -31.7991 -31.7956 -31.7897 -31.7890 -31.7868 -31.7840 -31.7723 -31.7379
   -31.7306 -31.7187 -31.7084 -31.6846 -31.6834 -31.6783 -31.6735 -31.6704
   -31.6635 -31.6607 -31.6578 -31.6555 -31.5846 -31.4674 -31.4058 -31.3424
   -31.2492 -31.2312 -30.9756 -30.9754 -30.8866 -30.8864 -30.8472 -30.8472
   -19.1467 -15.8550 -15.7567 -15.6421 -15.6115 -15.5604 -15.4958 -15.4836
   -15.4168 -15.3719 -15.3687 -15.2991 -15.2921 -15.2588 -15.2489 -15.2144
   -15.2138 -15.2071 -15.1565 -15.1436 -15.1280 -15.1258 -15.1192 -15.0425
   -15.0070 -15.0020 -14.9940 -14.9104 -14.8370 -14.7697 -14.4581 -13.1540
   -13.1538  -7.4968  -6.9505  -4.2418  -3.5295  -3.4435  -3.1398  -2.9695
    -2.8839  -2.8177  -2.7925  -2.7675  -2.6170  -2.5956  -2.5424  -2.5386
    -2.5147  -2.5123  -2.5082  -2.4897  -2.4824  -2.4571  -2.4309  -2.3902
    -2.3645  -2.3579  -2.3457  -2.3330  -2.3088  -2.2960  -2.2870  -2.2393
    -2.2368  -2.2179  -2.1252  -2.0546  -1.9108  -1.8923  -1.8492  -1.8278
    -1.8150  -1.7810  -1.7546  -1.7371  -1.6846  -1.6061  -1.5130  -1.4206
    -1.3798  -1.3674  -1.3014  -1.2822  -1.1900  -1.1651  -1.0898  -1.0703
    -0.9928  -0.9740  -0.8838  -0.8409  -0.8207  -0.7860  -0.7530  -0.7412
    -0.7102  -0.6543  -0.6422  -0.5902  -0.5646  -0.5005  -0.4382  -0.4173
    -0.4055  -0.3688  -0.3492  -0.3233  -0.1840  -0.1525  -0.1380  -0.0985
     0.0388   0.0715   0.2796   0.3663   0.3873   0.4655   0.5165   0.5976
     0.6214   0.6299   0.6465   0.6823   0.7736   0.8451   0.8565   0.8891
     0.9895   1.4940   1.7195   1.7204   1.7926   1.7927   3.7311   3.7744
     3.8099   3.8320   3.9279   3.9594   3.9804   3.9824   4.0342   4.1140

     the Fermi energy is     3.4450 ev

!    total energy              =   -2952.76127856 Ry
     estimated scf accuracy    <       0.00000004 Ry
     smearing contrib. (-TS)   =      -0.02155344 Ry
     internal energy E=F+TS    =   -2952.73972512 Ry

     The total energy is F=E-TS. E is the sum of the following terms:
     one-electron contribution =  -24472.78842694 Ry
     hartree contribution      =   12327.51429380 Ry
     xc contribution           =    -488.06477650 Ry
     ewald contribution        =    9680.59720522 Ry
     electric field correction =       0.00197929 Ry

     convergence has been achieved in  68 iterations

     Forces acting on atoms (cartesian axes, Ry/au):

     atom    1 type  1   force =    -0.00000748   -0.00029150    0.09611367
     atom    2 type  1   force =     0.00007782   -0.00045021   -0.17560450
     atom    3 type  2   force =     0.00011155   -0.00005033   -0.02420848
     atom    4 type  2   force =     0.00000760   -0.00136838    0.05327109
     atom    5 type  2   force =    -0.01132348    0.00005524    0.00283954
     atom    6 type  2   force =     0.01307322    0.00040010    0.00284556
     atom    7 type  1   force =     0.00079543    0.00047906   -0.00792227
     atom    8 type  1   force =     0.00007748    0.00681983    0.02440174
     atom    9 type  2   force =    -0.00025311   -0.00080423    0.00032734
     atom   10 type  2   force =    -0.00265973    0.00235623   -0.01480400
     atom   11 type  2   force =    -0.00020546   -0.00011702   -0.00055340
     atom   12 type  2   force =     0.00054497   -0.00002055   -0.00062306
     atom   13 type  1   force =    -0.00055892   -0.00160479    0.00046826
     atom   14 type  1   force =     0.00044657   -0.00021966   -0.00029016
     atom   15 type  2   force =     0.00000372   -0.00049819   -0.00074359
     atom   16 type  2   force =    -0.00005580   -0.00043018   -0.00029264
     atom   17 type  2   force =    -0.00101336   -0.00069031    0.00004191
     atom   18 type  2   force =     0.00143585   -0.00044293    0.00009253
     atom   19 type  1   force =    -0.00038398    0.00062494    0.00009206
     atom   20 type  1   force =     0.00040355   -0.00091758   -0.00028608
     atom   21 type  2   force =     0.00005224   -0.00001651    0.10322184
     atom   22 type  2   force =    -0.00008770   -0.00030955    0.00095670
     atom   23 type  2   force =    -0.07150583   -0.00012667   -0.02769713
     atom   24 type  2   force =     0.07142325    0.00035271   -0.02777318
     atom   25 type  1   force =     0.00018014   -0.00025916    0.09584062
     atom   26 type  1   force =     0.00006040   -0.00033297   -0.17581797
     atom   27 type  2   force =     0.00014652   -0.00004143   -0.02328925
     atom   28 type  2   force =     0.00000935   -0.00107008    0.05287961
     atom   29 type  2   force =    -0.01166375    0.00075168    0.00297948
     atom   30 type  2   force =     0.01329380    0.00126305    0.00300571
     atom   31 type  1   force =     0.00071014    0.00395040   -0.01082758
     atom   32 type  1   force =     0.00010022   -0.00902016    0.02488179
     atom   33 type  2   force =    -0.00007274    0.00061095   -0.00011995
     atom   34 type  2   force =    -0.00202698    0.00169497   -0.02185738
     atom   35 type  2   force =     0.00004517   -0.00025653   -0.00026343
     atom   36 type  2   force =    -0.00006558   -0.00006668   -0.00059978
     atom   37 type  1   force =    -0.00029381    0.00156707    0.00004245
     atom   38 type  1   force =     0.00053178    0.00040775    0.00020477
     atom   39 type  2   force =    -0.00009243   -0.00009287   -0.00125104
     atom   40 type  2   force =     0.00012759    0.00012138    0.00034665
     atom   41 type  2   force =     0.00008380   -0.00021414    0.00005189
     atom   42 type  2   force =     0.00048589   -0.00030035    0.00010609
     atom   43 type  1   force =    -0.00104875   -0.00060869    0.00045305
     atom   44 type  1   force =     0.00038973    0.00018632   -0.00006117
     atom   45 type  2   force =     0.00004446   -0.00005571    0.10321258
     atom   46 type  2   force =    -0.07152872   -0.00005888   -0.02771588
     atom   47 type  2   force =     0.07144220    0.00037371   -0.02777746
     atom   48 type  3   force =    -0.00035806    0.00302150   -0.00188068
     atom   49 type  4   force =    -0.00013764   -0.02083572    0.00153196
     atom   50 type  5   force =    -0.00010812    0.00833202    0.00404097
     atom   51 type  5   force =    -0.00020339    0.00883708   -0.00192465
     atom   52 type  2   force =     0.00153012    0.00039208   -0.00038570
     atom   53 type  5   force =    -0.00046576   -0.00039705   -0.00004724
     atom   54 type  5   force =    -0.00151400   -0.00062905    0.00036777

     Total force =     0.367841     Total SCF correction =     0.000504
  @ DRIVER MODE: Message from server: STATUS
  @ DRIVER MODE: Message from server: GETFORCE
  @ DRIVER MODE: Returning v,forces,stress,ensemble

     Writing output data file ./calc.save/
  @ DRIVER MODE: Message from server: EXIT
  @ DRIVE MODE: Exiting

     General routines

     Parallel routines

   This run was terminated on:  19: 8:51  15Sep2021

   JOB DONE.