     Program PWSCF v.6.7GPU starts on  9Sep2021 at  6:22:25

     R & G space division:  proc/nbgrp/npool/nimage =      10
     Reading input from /storage/home/hcoda1/3/ntian30/research/carbon/CxH_vib/CH2_calc/ads_slab/CH2NNHHH_a/out_0025/pw.inp
Warning: card &CELL ignored
Warning: card   CELL_DYNAMICS='IPI', ignored
Warning: card / ignored

     Current dimensions of program PWSCF are:
     Max number of different atomic species (ntypx) = 10
     Max number of k-points (npk) =  40000
     Max angular momentum in pseudopotentials (lmaxx) =  3
     Presently no symmetry can be used with electric field

     Message from routine cell_base_init:
     DEPRECATED: use true lattice parameter, not A to a.u. conversion factor

     IMPORTANT: XC functional enforced from input :
     Exchange-correlation= BEEF-VDW
                           (   1   4  43  14   2   0   0)
     Any further DFT definition will be discarded
     Please, verify this is what you really want

  @ DRIVER MODE: Connecting to
 qe_1139763_2767390.sched-torque.pace.gatech.edum6otfeel_scratch
  using UNIX socket
  @ DRIVER MODE: Message from server: STATUS
  @ DRIVER MODE: Message from server: INIT
  @ DRIVER MODE: Receiving replica           0          -1
  @ DRIVER MODE: Receiving encoded integer          25
  @ DRIVER MODE:  SCF:  T  FORCE:  T  STRESS:  F  VC:  F  ENSEMBLE:  F
  @ DRIVER MODE:  SCF:  T  FORCE:  T  STRESS:  F  VC:  F  ENSEMBLE:  F

     Using Slab Decomposition

     bravais-lattice index     =            0
     lattice parameter (alat)  =       1.8897  a.u.
     unit-cell volume          =    6658.9804 (a.u.)^3
     number of atoms/cell      =           55
     number of atomic types    =            5
     number of electrons       =       397.00
     number of Kohn-Sham states=          208
     kinetic-energy cutoff     =      29.3995  Ry
     charge density cutoff     =     293.9946  Ry
     scf convergence threshold =      7.3E-08
     mixing beta               =       0.0500
     number of iterations used =            8  plain     mixing
     Exchange-correlation= BEEF-VDW
                           (   1   4  43  14   2   0   0)

     celldm(1)=   1.889726  celldm(2)=   0.000000  celldm(3)=   0.000000
     celldm(4)=   0.000000  celldm(5)=   0.000000  celldm(6)=   0.000000

     crystal axes: (cart. coord. in units of alat)
               a(1) = (   6.579727   0.000000   0.000000 )
               a(2) = (  -0.000775   5.961596   0.000000 )
               a(3) = (   0.000000   0.000000  25.155947 )

     reciprocal axes: (cart. coord. in units 2 pi/alat)
               b(1) = (  0.151982  0.000020  0.000000 )
               b(2) = (  0.000000  0.167740  0.000000 )
               b(3) = (  0.000000  0.000000  0.039752 )

     PseudoPot. # 1 for Ti read from file:
     /storage/coda1/p-amedford6/0/shared/rich_project_chbe-medford/medford-share/data/pseudos_module/espresso/nninc/pbe/van/Ti.UPF
     MD5 check sum: 8e4df49b7f0d34bbd5052bf3f5ea0213
     Pseudo is Ultrasoft, Zval = 12.0
     Generated by new atomic code, or converted to UPF format
     Using radial grid of  851 points,  6 beta functions with:
                l(1) =   0
                l(2) =   0
                l(3) =   1
                l(4) =   1
                l(5) =   2
                l(6) =   2
     Q(r) pseudized with  8 coefficients,  rinner =    1.000   1.000   1.000
                                                       1.000   1.000

     PseudoPot. # 2 for O  read from file:
     /storage/coda1/p-amedford6/0/shared/rich_project_chbe-medford/medford-share/data/pseudos_module/espresso/nninc/pbe/van/O.UPF
     MD5 check sum: 78c19812648e8988a0fe644b0f25305e
     Pseudo is Ultrasoft, Zval =  6.0
     Generated by new atomic code, or converted to UPF format
     Using radial grid of  737 points,  4 beta functions with:
                l(1) =   0
                l(2) =   0
                l(3) =   1
                l(4) =   1
     Q(r) pseudized with  8 coefficients,  rinner =    0.800   0.800   0.800

     PseudoPot. # 3 for N  read from file:
     /storage/coda1/p-amedford6/0/shared/rich_project_chbe-medford/medford-share/data/pseudos_module/espresso/nninc/pbe/van/N.UPF
     MD5 check sum: 90d10febe142ad51ac9d5be1deb811c4
     Pseudo is Ultrasoft, Zval =  5.0
     Generated by new atomic code, or converted to UPF format
     Using radial grid of  729 points,  4 beta functions with:
                l(1) =   0
                l(2) =   0
                l(3) =   1
                l(4) =   1
     Q(r) pseudized with  8 coefficients,  rinner =    0.800   0.800   0.800

     PseudoPot. # 4 for C  read from file:
     /storage/coda1/p-amedford6/0/shared/rich_project_chbe-medford/medford-share/data/pseudos_module/espresso/nninc/pbe/van/C.UPF
     MD5 check sum: 1a69bf6b8db32088f5b2163dbdb77a27
     Pseudo is Ultrasoft, Zval =  4.0
     Generated by new atomic code, or converted to UPF format
     Using radial grid of  721 points,  4 beta functions with:
                l(1) =   0
                l(2) =   0
                l(3) =   1
                l(4) =   1
     Q(r) pseudized with  8 coefficients,  rinner =    0.800   0.800   0.800

     PseudoPot. # 5 for H  read from file:
     /storage/coda1/p-amedford6/0/shared/rich_project_chbe-medford/medford-share/data/pseudos_module/espresso/nninc/pbe/van/H.UPF
     MD5 check sum: b5ee9d7bfd3a09ee7748110bda690ff7
     Pseudo is Ultrasoft, Zval =  1.0
     Generated by new atomic code, or converted to UPF format
     Using radial grid of  615 points,  1 beta functions with:
                l(1) =   0
     Q(r) pseudized with  8 coefficients,  rinner =    0.800

     atomic species   valence    mass     pseudopotential
        Ti1           12.00    47.86700     Ti( 1.00)
        O1             6.00    15.99900     O ( 1.00)
        N1             5.00    14.00700     N ( 1.00)
        C1             4.00    12.01100     C ( 1.00)
        H1             1.00     1.00800     H ( 1.00)

     No symmetry found

   Cartesian axes

     site n.     atom                  positions (alat units)
         1           Ti1 tau(   1) = (   0.0004258   2.9801865   6.0000000  )
         2           Ti1 tau(   2) = (   3.2906075   1.4906267   6.0002472  )
         3           O1  tau(   3) = (   0.0006271   0.0005054   7.9858123  )
         4           O1  tau(   4) = (   3.2906025   0.0005020   7.3038282  )
         5           O1  tau(   5) = (   4.5942328   1.4918067   9.2879030  )
         6           O1  tau(   6) = (   1.9868534   1.4903216   9.2879459  )
         7           Ti1 tau(   7) = (   3.2907910   2.8959150   9.1758416  )
         8           Ti1 tau(   8) = (   0.0015273   1.4827037   9.2680791  )
         9           O1  tau(   9) = (   3.2797308   5.9473376  11.3602069  )
        10           O1  tau(  10) = (   0.0116148   5.9584955  10.6183126  )
        11           O1  tau(  11) = (   1.2902197   1.4970218  12.6485984  )
        12           O1  tau(  12) = (   5.2825647   1.4998509  12.6204812  )
        13           Ti1 tau(  13) = (   6.5707130   2.9731531  12.5352273  )
        14           Ti1 tau(  14) = (   3.2824754   1.4851695  12.4964603  )
        15           O1  tau(  15) = (   6.5335774   0.0914421  14.6722524  )
        16           O1  tau(  16) = (   3.3157438   0.0180770  13.9903400  )
        17           O1  tau(  17) = (   4.5084513   1.5196572  16.2619966  )
        18           O1  tau(  18) = (   2.0062152   1.4815140  16.1839734  )
        19           Ti1 tau(  19) = (   3.2259906   2.9465836  15.7211513  )
        20           Ti1 tau(  20) = (   6.5090593   1.4075841  16.1508600  )
        21           O1  tau(  21) = (   3.2904802   0.0005063   4.7018136  )
        22           O1  tau(  22) = (   6.5630310   5.8123487  17.2302531  )
        23           O1  tau(  23) = (   1.3043587   1.4918075   6.0039043  )
        24           O1  tau(  24) = (   5.2767064   1.4903225   6.0039473  )
        25           Ti1 tau(  25) = (   0.0000382   5.9609847   6.0000000  )
        26           Ti1 tau(  26) = (   3.2902200   4.4714249   6.0002472  )
        27           O1  tau(  27) = (   0.0002396   2.9813036   7.9858123  )
        28           O1  tau(  28) = (   3.2902150   2.9813002   7.3038282  )
        29           O1  tau(  29) = (   4.5938453   4.4726049   9.2879030  )
        30           O1  tau(  30) = (   1.9864658   4.4711199   9.2879459  )
        31           Ti1 tau(  31) = (   3.2891106   5.8743827   9.1763621  )
        32           Ti1 tau(  32) = (   0.0006254   4.4649316   9.2693709  )
        33           O1  tau(  33) = (   3.2783824   2.9878764  11.3535400  )
        34           O1  tau(  34) = (   0.0092240   2.9805883  10.6323155  )
        35           O1  tau(  35) = (   1.2857266   4.4729298  12.7006550  )
        36           O1  tau(  36) = (   5.2845514   4.4687958  12.6640455  )
        37           Ti1 tau(  37) = (   6.5734551   0.0101047  12.5124135  )
        38           Ti1 tau(  38) = (   3.2852174   4.4611384  12.5175569  )
        39           O1  tau(  39) = (   6.5279837   2.9480221  14.9030702  )
        40           O1  tau(  40) = (   3.2956390   2.9588503  13.9390168  )
        41           O1  tau(  41) = (   4.4992944   4.4159585  16.2207858  )
        42           O1  tau(  42) = (   2.0104883   4.4624356  16.0673450  )
        43           Ti1 tau(  43) = (   3.2790961   0.0058003  15.7788240  )
        44           Ti1 tau(  44) = (   0.0606790   4.6093333  15.7554573  )
        45           O1  tau(  45) = (   3.2900926   2.9813045   4.7018136  )
        46           O1  tau(  46) = (   1.3039711   4.4726057   6.0039043  )
        47           O1  tau(  47) = (   5.2763189   4.4711207   6.0039473  )
        48           N1  tau(  48) = (   0.0403274   2.7191540  18.0026804  )
        49           C1  tau(  49) = (   0.9398849   2.4944932  18.9664025  )
        50           H1  tau(  50) = (   0.9073005   3.0183022  19.9142263  )
        51           H1  tau(  51) = (   1.7098349   1.7704235  18.7615287  )
        52           N1  tau(  52) = (   5.5665855   3.6054979  18.4816711  )
        53           H1  tau(  53) = (   5.9881759   4.5320851  18.7147717  )
        54           H1  tau(  54) = (   4.9344470   3.8465857  17.6610935  )
        55           H1  tau(  55) = (   5.0674124   3.1947177  19.2767304  )

     number of k points=    10  Fermi-Dirac smearing, width (Ry)=  0.0073
                       cart. coord. in units 2pi/alat
        k(    1) = (   0.0000000   0.0000000   0.0000000), wk =   0.1250000
        k(    2) = (   0.0000000   0.0419351   0.0000000), wk =   0.2500000
        k(    3) = (   0.0000000  -0.0838702   0.0000000), wk =   0.1250000
        k(    4) = (   0.0379955   0.0000049   0.0000000), wk =   0.2500000
        k(    5) = (   0.0379955   0.0419400   0.0000000), wk =   0.2500000
        k(    6) = (   0.0379955  -0.0838652   0.0000000), wk =   0.2500000
        k(    7) = (   0.0379955  -0.0419301   0.0000000), wk =   0.2500000
        k(    8) = (  -0.0759910  -0.0000099   0.0000000), wk =   0.1250000
        k(    9) = (  -0.0759910   0.0419252   0.0000000), wk =   0.2500000
        k(   10) = (  -0.0759910  -0.0838800   0.0000000), wk =   0.1250000

     Initial potential from superposition of free atoms

     starting charge  380.99914, renormalised to  397.00000

     negative rho (up, down):  1.589E-02 0.000E+00

     %%%%%%%%%%%%%%%%%%%%%%%%%%%%%%%%%%%%%%%%%%%%%%%%%%%%%%%%%%%%%%%%%%%%%%%%
     %                                                                      %
     % You are using vdW-DF, which was implemented by the Thonhauser group. %
     % Please cite the following two papers that made this development      %
     % possible and the two reviews that describe the various versions:     %
     %                                                                      %
     %   T. Thonhauser et al., PRL 115, 136402 (2015).                      %
     %   T. Thonhauser et al., PRB 76, 125112 (2007).                       %
     %   K. Berland et al., Rep. Prog. Phys. 78, 066501 (2015).             %
     %   D.C. Langreth et al., J. Phys.: Condens. Matter 21, 084203 (2009). %
     %                                                                      %
     %                                                                      %
     % If you are calculating the stress with vdW-DF, please also cite:     %
     %                                                                      %
     %   R. Sabatini et al., J. Phys.: Condens. Matter 24, 424209 (2012).   %
     %                                                                      %
     %%%%%%%%%%%%%%%%%%%%%%%%%%%%%%%%%%%%%%%%%%%%%%%%%%%%%%%%%%%%%%%%%%%%%%%%

     Adding external electric field

     Computed dipole along edir(3) :
        Dipole              -10.3122 Ry au,        -26.2111 Debye
        Dipole field         -0.0195 Ry au,

        Potential amp.        1.8040 Ry
        Total length         46.3494 bohr

     Starting wfcs are  301 atomic wfcs
  @ DRIVER MODE: Message from server: STATUS
  @ DRIVER MODE: Message from server: POSDATA
  @ DRIVER MODE: Reading and sharing cell
  @ DRIVER MODE: Reading and sharing positions
  @ DRIVER MODE: Received positions

     Self-consistent Calculation

     iteration #  1     ecut=    29.40 Ry     beta= 0.05
     Davidson diagonalization with overlap
     c_bands:  3 eigenvalues not converged
     c_bands:  2 eigenvalues not converged
     c_bands:  3 eigenvalues not converged
     c_bands:  2 eigenvalues not converged
     c_bands:  3 eigenvalues not converged
     c_bands:  2 eigenvalues not converged
     c_bands:  3 eigenvalues not converged
     c_bands:  2 eigenvalues not converged
     c_bands:  2 eigenvalues not converged
     c_bands:  3 eigenvalues not converged
     ethr =  1.00E-05,  avg # of iterations = 20.0

[...]

     total energy              =   -2480.06574922 Ry
     estimated scf accuracy    <    5159.09036559 Ry

     iteration #  2     ecut=    29.40 Ry     beta= 0.05
     Davidson diagonalization with overlap
     ethr =  1.00E-02,  avg # of iterations = 22.3

[...]

     iteration # 68     ecut=    29.40 Ry     beta= 0.05
     Davidson diagonalization with overlap
     c_bands:  1 eigenvalues not converged
     ethr =  4.22E-11,  avg # of iterations = 14.7

[...]

     total energy              =   -2941.49070409 Ry
     estimated scf accuracy    <       0.00000016 Ry

     iteration # 69     ecut=    29.40 Ry     beta= 0.05
     Davidson diagonalization with overlap
     ethr =  4.12E-11,  avg # of iterations =  9.0

     negative rho (up, down):  1.343E-02 0.000E+00

     Adding external electric field

     Computed dipole along edir(3) :
        Dipole                1.3663 Ry au,          3.4728 Debye
        Dipole field          0.0026 Ry au,

        Potential amp.       -0.2390 Ry
        Total length         46.3494 bohr

     End of self-consistent calculation

          k = 0.0000 0.0000 0.0000 ( 18029 PWs)   bands (ev):

   -55.2819 -55.2428 -55.2428 -55.2087 -55.1572 -55.1552 -55.1186 -55.0919
   -55.0747 -55.0737 -55.0572 -55.0405 -54.9538 -54.7874 -54.2609 -54.2269
   -31.8540 -31.7335 -31.6436 -31.6085 -31.5817 -31.5792 -31.5768 -31.5324
   -31.5296 -31.4896 -31.4879 -31.4872 -31.4542 -31.4522 -31.4382 -31.4167
   -31.4012 -31.3965 -31.3922 -31.3907 -31.3550 -31.3495 -31.3360 -31.3225
   -31.2997 -31.2945 -31.2881 -31.2843 -31.2719 -31.2685 -31.2586 -31.2488
   -31.2420 -31.2366 -31.2070 -31.2027 -31.1955 -31.1835 -31.1448 -31.1022
   -31.0583 -30.9291 -30.6698 -30.5770 -30.5548 -30.4862 -30.3995 -30.2886
   -19.1892 -16.1232 -15.8608 -15.7329 -15.5416 -15.4757 -15.3799 -15.2421
   -15.1907 -15.1292 -15.0804 -15.0401 -15.0269 -14.9613 -14.9042 -14.8160
   -14.8143 -14.7986 -14.7870 -14.7750 -14.7721 -14.7098 -14.7069 -14.6798
   -14.6653 -14.6551 -14.5142 -14.4303 -14.3689 -14.2920 -14.0247 -12.7637
   -12.6465  -9.1249  -7.8271  -7.0755  -5.9887  -3.8407  -3.4610  -3.2882
    -3.2421  -3.2013  -3.1766  -3.0079  -2.9262  -2.6589  -2.5908  -2.5512
    -2.5037  -2.4924  -2.4668  -2.2955  -2.2640  -2.2247  -2.1879  -2.1641
    -2.1245  -2.0967  -2.0806  -2.0515  -2.0381  -2.0360  -1.8534  -1.7834
    -1.7587  -1.6985  -1.6843  -1.6665  -1.6091  -1.5801  -1.5671  -1.5647
    -1.5417  -1.5244  -1.5013  -1.4591  -1.3742  -1.2804  -1.2365  -1.2142
    -1.1015  -1.0382  -0.9131  -0.8696  -0.8565  -0.8293  -0.7575  -0.6910
    -0.6636  -0.6277  -0.4874  -0.4829  -0.3984  -0.3899  -0.3161  -0.2988
    -0.2590  -0.2129  -0.1021  -0.0682  -0.0469   0.0049   0.0683   0.0907
     0.1721   0.2265   0.2831   0.2970   0.3766   0.4162   0.4547   0.4759
     0.5633   0.6046   0.6641   0.6705   0.7077   0.7109   0.7361   0.8229
     0.8360   0.8555   0.8965   1.0659   1.2668   1.3183   1.3387   1.6715
     1.6909   1.7616   1.9469   2.3363   2.3838   3.8194   3.8849   3.9554
     3.9698   3.9801   4.0517   4.0970   4.2868   4.3158   4.3188   4.3396

[...]

          k = 0.0380-0.0419 0.0000 ( 17876 PWs)   bands (ev):

[...]

          k =-0.0760-0.0000 0.0000 ( 17886 PWs)   bands (ev):

[...]

          k =-0.0760-0.0839 0.0000 ( 17948 PWs)   bands (ev):

   -55.2698 -55.2547 -55.2258 -55.2256 -55.1534 -55.1433 -55.1305 -55.0782
   -55.0756 -55.0727 -55.0575 -55.0572 -54.9522 -54.7888 -54.2440 -54.2437
   -31.6635 -31.6505 -31.5764 -31.5487 -31.5486 -31.5450 -31.5178 -31.5178
   -31.4902 -31.4820 -31.4773 -31.4735 -31.4190 -31.4102 -31.4100 -31.4066
   -31.4047 -31.4004 -31.3938 -31.3784 -31.3664 -31.3559 -31.3515 -31.3452
   -31.3450 -31.3426 -31.3414 -31.3257 -31.3091 -31.3060 -31.2897 -31.2870
   -31.2821 -31.2807 -31.2805 -31.2490 -31.2378 -31.2369 -31.1621 -31.0892
   -31.0592 -31.0066 -30.5676 -30.5674 -30.4823 -30.4823 -30.4430 -30.4428
   -19.1854 -15.5883 -15.5117 -15.4559 -15.3654 -15.2882 -15.2683 -15.2584
   -15.2247 -15.1580 -15.1348 -15.0701 -15.0350 -14.9894 -14.9865 -14.9712
   -14.8865 -14.8674 -14.8522 -14.8480 -14.7871 -14.7857 -14.7587 -14.7363
   -14.7297 -14.7259 -14.6262 -14.6252 -14.4609 -14.4341 -14.2106 -12.7481
   -12.7480  -9.1115  -7.8376  -7.0591  -5.9992  -3.8642  -2.8497  -2.7630
    -2.6735  -2.5171  -2.4801  -2.4700  -2.4154  -2.3240  -2.2979  -2.2847
    -2.2644  -2.2572  -2.1845  -2.1795  -2.1354  -2.1137  -2.1026  -2.0969
    -2.0632  -2.0508  -2.0356  -1.9995  -1.9910  -1.9761  -1.9402  -1.9212
    -1.8964  -1.8690  -1.8550  -1.8253  -1.7014  -1.6725  -1.6283  -1.5641
    -1.5412  -1.4746  -1.4694  -1.3667  -1.3552  -1.3441  -1.3031  -1.2893
    -1.2711  -1.1058  -1.0613  -1.0261  -1.0147  -1.0087  -0.8531  -0.8364
    -0.7685  -0.7526  -0.7376  -0.6613  -0.6196  -0.6040  -0.5236  -0.4838
    -0.4538  -0.4337  -0.2910  -0.2785  -0.2533  -0.2385  -0.2320  -0.1392
    -0.1188  -0.0828  -0.0488  -0.0107   0.0057   0.0650   0.2180   0.2448
     0.2820   0.4258   0.4412   0.5267   0.5745   0.7012   0.7658   0.7679
     0.8491   0.9193   1.0210   1.0335   1.0532   1.1388   1.1851   1.1899
     1.1911   2.1196   2.1204   2.2038   2.2041   3.6962   3.9586   4.0814
     4.0876   4.1298   4.2526   4.3361   4.3599   4.3977   4.4004   4.4736

     the Fermi energy is     3.8743 ev

!    total energy              =   -2941.49073428 Ry
     estimated scf accuracy    <       0.00000007 Ry
     smearing contrib. (-TS)   =      -0.04231362 Ry
     internal energy E=F+TS    =   -2941.44842066 Ry

     The total energy is F=E-TS. E is the sum of the following terms:
     one-electron contribution =  -23921.84763169 Ry
     hartree contribution      =   12054.12272962 Ry
     xc contribution           =    -486.85799010 Ry
     ewald contribution        =    9413.13094858 Ry
     electric field correction =       0.00352293 Ry

     convergence has been achieved in  69 iterations

     Forces acting on atoms (cartesian axes, Ry/au):

     atom    1 type  1   force =     0.00017468   -0.00017333    0.09402659
     atom    2 type  1   force =    -0.00004271   -0.00042339   -0.17753829
     atom    3 type  2   force =     0.00006515   -0.00005509   -0.02098658
     atom    4 type  2   force =     0.00001568   -0.00180151    0.05732996
     atom    5 type  2   force =    -0.01087941   -0.00090453    0.00783457
     atom    6 type  2   force =     0.01208933   -0.00033712    0.00623051
     atom    7 type  1   force =    -0.00066027    0.00289263   -0.01528492
     atom    8 type  1   force =     0.00059841    0.00235775    0.00236751
     atom    9 type  2   force =    -0.00010529    0.00013134    0.00091792
     atom   10 type  2   force =    -0.00165722   -0.00050961   -0.00381574
     atom   11 type  2   force =    -0.00005113   -0.00023730    0.00019417
     atom   12 type  2   force =    -0.00019350   -0.00039708    0.00026225
     atom   13 type  1   force =     0.00041101    0.00108751    0.00063794
     atom   14 type  1   force =     0.00019645   -0.00062782    0.00037245
     atom   15 type  2   force =    -0.00018095    0.00040331    0.00047740
     atom   16 type  2   force =    -0.00017795   -0.00023171   -0.00122134
     atom   17 type  2   force =     0.00006973   -0.00026684    0.00017600
     atom   18 type  2   force =    -0.00085211   -0.00030003    0.00016731
     atom   19 type  1   force =    -0.00049085    0.00126133   -0.00052825
     atom   20 type  1   force =    -0.00039139    0.00139694   -0.00123419
     atom   21 type  2   force =     0.00010700   -0.00003987    0.10374418
     atom   22 type  2   force =     0.00004077   -0.00010797    0.00094585
     atom   23 type  2   force =    -0.07063542   -0.00018807   -0.02705727
     atom   24 type  2   force =     0.07057705    0.00028608   -0.02709545
     atom   25 type  1   force =     0.00014594   -0.00023419    0.09335860
     atom   26 type  1   force =    -0.00001857   -0.00036709   -0.17776783
     atom   27 type  2   force =     0.00010604   -0.00038991   -0.02000362
     atom   28 type  2   force =     0.00003269   -0.00146883    0.05681160
     atom   29 type  2   force =    -0.01077033   -0.00066134    0.00675103
     atom   30 type  2   force =     0.01188502   -0.00016740    0.00510778
     atom   31 type  1   force =    -0.00063684    0.00411063   -0.01559341
     atom   32 type  1   force =     0.00067085   -0.00281441    0.00213948
     atom   33 type  2   force =     0.00015295   -0.00021927   -0.00059147
     atom   34 type  2   force =    -0.00109263    0.00273443   -0.00202861
     atom   35 type  2   force =     0.00008864    0.00020076    0.00008307
     atom   36 type  2   force =    -0.00032856    0.00033887   -0.00008834
     atom   37 type  1   force =     0.00046137   -0.00008508    0.00034615
     atom   38 type  1   force =     0.00009554    0.00088854    0.00016738
     atom   39 type  2   force =    -0.00001915   -0.00096173    0.00035531
     atom   40 type  2   force =    -0.00024397   -0.00044522    0.00060516
     atom   41 type  2   force =    -0.00042779    0.00021236   -0.00085272
     atom   42 type  2   force =     0.00015908    0.00000468    0.00023909
     atom   43 type  1   force =     0.00012654   -0.00166384    0.00091812
     atom   44 type  1   force =    -0.00015874   -0.00101259   -0.00134718
     atom   45 type  2   force =     0.00009302   -0.00008272    0.10374379
     atom   46 type  2   force =    -0.07065783   -0.00008578   -0.02706455
     atom   47 type  2   force =     0.07060576    0.00029614   -0.02710427
     atom   48 type  3   force =    -0.00460697    0.00059006   -0.00062654
     atom   49 type  4   force =    -0.00149917    0.00084284    0.00188146
     atom   50 type  5   force =     0.00091666    0.00006208   -0.00090505
     atom   51 type  5   force =    -0.00026919    0.00057797   -0.00037171
     atom   52 type  3   force =     0.01892666    0.00344963    0.00138545
     atom   53 type  5   force =    -0.00347577   -0.00523671   -0.00178760
     atom   54 type  5   force =    -0.00449967    0.00048007   -0.00241351
     atom   55 type  5   force =    -0.00378863   -0.00210857    0.00373036

     Total force =     0.366371     Total SCF correction =     0.000760
  @ DRIVER MODE: Message from server: STATUS
  @ DRIVER MODE: Message from server: GETFORCE
  @ DRIVER MODE: Returning v,forces,stress,ensemble

     Writing output data file ./calc.save/
  @ DRIVER MODE: Message from server: EXIT
  @ DRIVE MODE: Exiting

     General routines

     Parallel routines

   This run was terminated on:   6:40:43   9Sep2021

   JOB DONE.