     Program PWSCF v.6.7GPU starts on 18Oct2021 at 20:49:19

     R & G space division:  proc/nbgrp/npool/nimage =       8
     Reading input from /storage/home/hcoda1/3/ntian30/research/carbon/CxH_vib/Thiel_calc/ads_slab/NH2NHH_perslab/out_0020/pw.inp
Warning: card &CELL ignored
Warning: card   CELL_DYNAMICS='IPI', ignored
Warning: card / ignored

     Current dimensions of program PWSCF are:
     Max number of different atomic species (ntypx) = 10
     Max number of k-points (npk) =  40000
     Max angular momentum in pseudopotentials (lmaxx) =  3
     Presently no symmetry can be used with electric field

     Message from routine cell_base_init:
     DEPRECATED: use true lattice parameter, not A to a.u. conversion factor

     IMPORTANT: XC functional enforced from input :
     Exchange-correlation= BEEF-VDW
                           (   1   4  43  14   2   0   0)
     Any further DFT definition will be discarded
     Please, verify this is what you really want

  @ DRIVER MODE: Connecting to
 qe_1139763_3255134.sched-torque.pace.gatech.edu7831qg1r_scratch
  using UNIX socket
  @ DRIVER MODE: Message from server: STATUS
  @ DRIVER MODE: Message from server: INIT
  @ DRIVER MODE: Receiving replica           0          -1
  @ DRIVER MODE: Receiving encoded integer          25
  @ DRIVER MODE:  SCF:  T  FORCE:  T  STRESS:  F  VC:  F  ENSEMBLE:  F
  @ DRIVER MODE:  SCF:  T  FORCE:  T  STRESS:  F  VC:  F  ENSEMBLE:  F

     Using Slab Decomposition

     bravais-lattice index     =            0
     lattice parameter (alat)  =       1.8897  a.u.
     unit-cell volume          =    9988.4706 (a.u.)^3
     number of atoms/cell      =           59
     number of atomic types    =            4
     number of electrons       =       440.00
     number of Kohn-Sham states=          230
     kinetic-energy cutoff     =      29.3995  Ry
     charge density cutoff     =     293.9946  Ry
     scf convergence threshold =      7.3E-08
     mixing beta               =       0.0500
     number of iterations used =            8  plain     mixing
     Exchange-correlation= BEEF-VDW
                           (   1   4  43  14   2   0   0)

     celldm(1)=   1.889726  celldm(2)=   0.000000  celldm(3)=   0.000000
     celldm(4)=   0.000000  celldm(5)=   0.000000  celldm(6)=   0.000000

     crystal axes: (cart. coord. in units of alat)
               a(1) = (   6.579727   0.000000   0.000000 )
               a(2) = (  -0.001163   8.942395   0.000000 )
               a(3) = (   0.000000   0.000000  25.155947 )

     reciprocal axes: (cart. coord. in units 2 pi/alat)
               b(1) = (  0.151982  0.000020  0.000000 )
               b(2) = (  0.000000  0.111827  0.000000 )
               b(3) = (  0.000000  0.000000  0.039752 )

     PseudoPot. # 1 for O  read from file:
     /storage/coda1/p-amedford6/0/shared/rich_project_chbe-medford/medford-share/data/pseudos_module/espresso/nninc/pbe/van/O.UPF
     MD5 check sum: 78c19812648e8988a0fe644b0f25305e
     Pseudo is Ultrasoft, Zval =  6.0
     Generated by new atomic code, or converted to UPF format
     Using radial grid of  737 points,  4 beta functions with:
                l(1) =   0
                l(2) =   0
                l(3) =   1
                l(4) =   1
     Q(r) pseudized with  8 coefficients,  rinner =    0.800   0.800   0.800

     PseudoPot. # 2 for Ti read from file:
     /storage/coda1/p-amedford6/0/shared/rich_project_chbe-medford/medford-share/data/pseudos_module/espresso/nninc/pbe/van/Ti.UPF
     MD5 check sum: 8e4df49b7f0d34bbd5052bf3f5ea0213
     Pseudo is Ultrasoft, Zval = 12.0
     Generated by new atomic code, or converted to UPF format
     Using radial grid of  851 points,  6 beta functions with:
                l(1) =   0
                l(2) =   0
                l(3) =   1
                l(4) =   1
                l(5) =   2
                l(6) =   2
     Q(r) pseudized with  8 coefficients,  rinner =    1.000   1.000   1.000
                                                       1.000   1.000

     PseudoPot. # 3 for H  read from file:
     /storage/coda1/p-amedford6/0/shared/rich_project_chbe-medford/medford-share/data/pseudos_module/espresso/nninc/pbe/van/H.UPF
     MD5 check sum: b5ee9d7bfd3a09ee7748110bda690ff7
     Pseudo is Ultrasoft, Zval =  1.0
     Generated by new atomic code, or converted to UPF format
     Using radial grid of  615 points,  1 beta functions with:
                l(1) =   0
     Q(r) pseudized with  8 coefficients,  rinner =    0.800

     PseudoPot. # 4 for N  read from file:
     /storage/coda1/p-amedford6/0/shared/rich_project_chbe-medford/medford-share/data/pseudos_module/espresso/nninc/pbe/van/N.UPF
     MD5 check sum: 90d10febe142ad51ac9d5be1deb811c4
     Pseudo is Ultrasoft, Zval =  5.0
     Generated by new atomic code, or converted to UPF format
     Using radial grid of  729 points,  4 beta functions with:
                l(1) =   0
                l(2) =   0
                l(3) =   1
                l(4) =   1
     Q(r) pseudized with  8 coefficients,  rinner =    0.800   0.800   0.800

     atomic species   valence    mass     pseudopotential
        O1             6.00    15.99900     O ( 1.00)
        Ti1           12.00    47.86700     Ti( 1.00)
        H1             1.00     1.00800     H ( 1.00)
        N1             5.00    14.00700     N ( 1.00)

     No symmetry found

   Cartesian axes

     site n.     atom                  positions (alat units)
         1           O1  tau(   1) = (   0.0007354   0.0005023  10.5931620  )
         2           O1  tau(   2) = (   3.2887669   8.9343558  13.7857904  )
         3           O1  tau(   3) = (  -0.0004435   8.9037079  17.1656601  )
         4           O1  tau(   4) = (   0.0006271   0.0005054   7.9858123  )
         5           O1  tau(   5) = (   3.2907596   0.0056730  11.1454013  )
         6           O1  tau(   6) = (   0.0000918   8.9024801  14.5153886  )
         7           O1  tau(   7) = (   1.9868534   1.4903216   9.2879459  )
         8           O1  tau(   8) = (   5.2129768   1.5767634  12.5412193  )
         9           O1  tau(   9) = (   2.0410104   1.4081166  15.9738913  )
        10           Ti1 tau(  10) = (   0.0007404   1.4906270   9.2895810  )
        11           Ti1 tau(  11) = (   3.2923993   1.3029312  12.4395176  )
        12           Ti1 tau(  12) = (   6.5786190   1.6682186  16.0479855  )
        13           O1  tau(  13) = (   4.5942328   1.4918067   9.2879030  )
        14           O1  tau(  14) = (   1.3693608   1.5763615  12.5409223  )
        15           O1  tau(  15) = (   4.5388119   1.4066068  15.9736107  )
        16           Ti1 tau(  16) = (   3.2902859   2.9801868   9.2893338  )
        17           Ti1 tau(  17) = (   0.0025983   2.7818652  12.5490862  )
        18           Ti1 tau(  18) = (   3.2890997   3.0957086  15.6341045  )
        19           O1  tau(  19) = (   0.0003479   2.9813005  10.5931620  )
        20           O1  tau(  20) = (   3.2906043   2.9558292  13.7911244  )
        21           O1  tau(  21) = (   0.0002396   2.9813036   7.9858123  )
        22           O1  tau(  22) = (   3.2907828   2.9846389  11.1656624  )
        23           O1  tau(  23) = (   0.0000664   2.9755257  14.5967958  )
        24           O1  tau(  24) = (   1.9864658   4.4711199   9.2879459  )
        25           O1  tau(  25) = (   5.2254851   4.5442098  12.5530165  )
        26           O1  tau(  26) = (   2.0413797   4.3804877  15.9810922  )
        27           Ti1 tau(  27) = (   0.0003529   4.4714252   9.2895810  )
        28           Ti1 tau(  28) = (   3.2927641   4.3249026  12.5337624  )
        29           Ti1 tau(  29) = (  -0.0001393   4.3779101  16.0758329  )
        30           O1  tau(  30) = (   4.5938453   4.4726049   9.2879030  )
        31           O1  tau(  31) = (   1.3554856   4.5423027  12.5528228  )
        32           O1  tau(  32) = (   4.5375453   4.3808357  15.9816482  )
        33           Ti1 tau(  33) = (   3.2898983   5.9609850   9.2893338  )
        34           Ti1 tau(  34) = (   0.0022780   5.7553130  12.5179661  )
        35           Ti1 tau(  35) = (   3.2911749   6.0723021  16.2828521  )
        36           O1  tau(  36) = (  -0.0000397   5.9620987  10.5931620  )
        37           O1  tau(  37) = (   3.2898444   5.9099340  13.7874885  )
        38           O1  tau(  38) = (  -0.0002305   5.9963729  17.1613877  )
        39           O1  tau(  39) = (  -0.0001480   5.9621018   7.9858123  )
        40           O1  tau(  40) = (   3.2898933   5.9403142  11.1650959  )
        41           O1  tau(  41) = (   0.0001730   6.0398540  14.5337486  )
        42           O1  tau(  42) = (   1.9860782   7.4519181   9.2879459  )
        43           O1  tau(  43) = (   5.2203866   7.5240042  12.5266709  )
        44           O1  tau(  44) = (   2.0308607   7.4363189  15.9936472  )
        45           Ti1 tau(  45) = (  -0.0000347   7.4522234   9.2895810  )
        46           Ti1 tau(  46) = (   3.2897547   7.2013570  12.5904776  )
        47           Ti1 tau(  47) = (  -0.0001197   7.5007381  15.6461876  )
        48           O1  tau(  48) = (   4.5934577   7.4534031   9.2879030  )
        49           O1  tau(  49) = (   1.3580612   7.5226468  12.5263262  )
        50           O1  tau(  50) = (   4.5486487   7.4363691  15.9933312  )
        51           Ti1 tau(  51) = (   3.2895107   8.9417832   9.2893338  )
        52           Ti1 tau(  52) = (  -0.0005051   8.7269297  12.4809553  )
        53           Ti1 tau(  53) = (   3.2886672   0.0795926  15.6360096  )
        54           H1  tau(  54) = (   6.5784023   6.0277306  18.1241331  )
        55           H1  tau(  55) = (   6.5784455   8.8634660  18.1266539  )
        56           N1  tau(  56) = (   6.5791914   3.0063145  17.2269018  )
        57           N1  tau(  57) = (   3.3002358   5.9939226  18.1904466  )
        58           H1  tau(  58) = (   3.2886139   5.1344262  18.7255412  )
        59           H1  tau(  59) = (   3.2892998   6.7958846  18.8069972  )

     number of k points=    10  Fermi-Dirac smearing, width (Ry)=  0.0073
                       cart. coord. in units 2pi/alat
        k(    1) = (   0.0000000   0.0000000   0.0000000), wk =   0.1250000
        k(    2) = (   0.0000000   0.0279567   0.0000000), wk =   0.2500000
        k(    3) = (   0.0000000  -0.0559134   0.0000000), wk =   0.1250000
        k(    4) = (   0.0379955   0.0000049   0.0000000), wk =   0.2500000
        k(    5) = (   0.0379955   0.0279617   0.0000000), wk =   0.2500000
        k(    6) = (   0.0379955  -0.0559085   0.0000000), wk =   0.2500000
        k(    7) = (   0.0379955  -0.0279518   0.0000000), wk =   0.2500000
        k(    8) = (  -0.0759910  -0.0000099   0.0000000), wk =   0.1250000
        k(    9) = (  -0.0759910   0.0279468   0.0000000), wk =   0.2500000
        k(   10) = (  -0.0759910  -0.0559233   0.0000000), wk =   0.1250000

     Initial potential from superposition of free atoms

     starting charge  421.99910, renormalised to  440.00000

     negative rho (up, down):  3.748E-02 0.000E+00

     %%%%%%%%%%%%%%%%%%%%%%%%%%%%%%%%%%%%%%%%%%%%%%%%%%%%%%%%%%%%%%%%%%%%%%%%
     %                                                                      %
     % You are using vdW-DF, which was implemented by the Thonhauser group. %
     % Please cite the following two papers that made this development      %
     % possible and the two reviews that describe the various versions:     %
     %                                                                      %
     %   T. Thonhauser et al., PRL 115, 136402 (2015).                      %
     %   T. Thonhauser et al., PRB 76, 125112 (2007).                       %
     %   K. Berland et al., Rep. Prog. Phys. 78, 066501 (2015).             %
     %   D.C. Langreth et al., J. Phys.: Condens. Matter 21, 084203 (2009). %
     %                                                                      %
     %                                                                      %
     % If you are calculating the stress with vdW-DF, please also cite:     %
     %                                                                      %
     %   R. Sabatini et al., J. Phys.: Condens. Matter 24, 424209 (2012).   %
     %                                                                      %
     %%%%%%%%%%%%%%%%%%%%%%%%%%%%%%%%%%%%%%%%%%%%%%%%%%%%%%%%%%%%%%%%%%%%%%%%

     Adding external electric field

     Computed dipole along edir(3) :
        Dipole               -3.9322 Ry au,         -9.9948 Debye
        Dipole field         -0.0049 Ry au,

        Potential amp.        0.4586 Ry
        Total length         46.3494 bohr

     Starting wfcs are  332 atomic wfcs
  @ DRIVER MODE: Message from server: STATUS
  @ DRIVER MODE: Message from server: POSDATA
  @ DRIVER MODE: Reading and sharing cell
  @ DRIVER MODE: Reading and sharing positions
  @ DRIVER MODE: Received positions

     Self-consistent Calculation

     iteration #  1     ecut=    29.40 Ry     beta= 0.05
     Davidson diagonalization with overlap
     c_bands:  2 eigenvalues not converged
     c_bands:  3 eigenvalues not converged
     c_bands:  5 eigenvalues not converged
     c_bands:  4 eigenvalues not converged
     c_bands:  1 eigenvalues not converged
     c_bands:  4 eigenvalues not converged
     c_bands:  5 eigenvalues not converged
     c_bands:  4 eigenvalues not converged
     c_bands:  3 eigenvalues not converged
     ethr =  1.00E-05,  avg # of iterations = 19.8

[...]

     total energy              =   -3294.69841936 Ry
     estimated scf accuracy    <      19.95550907 Ry

     iteration #  2     ecut=    29.40 Ry     beta= 0.05
     Davidson diagonalization with overlap
     ethr =  4.54E-03,  avg # of iterations =  1.5

[...]

     iteration # 26     ecut=    29.40 Ry     beta= 0.05
     Davidson diagonalization with overlap
     c_bands:  1 eigenvalues not converged
     ethr =  9.36E-07,  avg # of iterations =  7.2

[...]

     total energy              =   -3293.27276364 Ry
     estimated scf accuracy    <       0.00000009 Ry

     iteration # 58     ecut=    29.40 Ry     beta= 0.05
     Davidson diagonalization with overlap
     ethr =  2.00E-11,  avg # of iterations =  5.0

     negative rho (up, down):  3.595E-02 0.000E+00

     Adding external electric field

     Computed dipole along edir(3) :
        Dipole                1.3185 Ry au,          3.3512 Debye
        Dipole field          0.0017 Ry au,

        Potential amp.       -0.1538 Ry
        Total length         46.3494 bohr

     End of self-consistent calculation

          k = 0.0000 0.0000 0.0000 ( 26871 PWs)   bands (ev):

   -58.2799 -58.2566 -58.2512 -58.2265 -58.1670 -57.7780 -57.7740 -57.7543
   -57.6694 -57.5722 -57.5685 -57.5460 -57.3361 -56.8619 -56.8379 -56.8212
   -56.7387 -56.6386 -34.6899 -34.6504 -34.6176 -34.6021 -34.5978 -34.5965
   -34.5472 -34.4927 -34.4552 -34.4115 -34.4054 -34.3892 -34.3842 -34.3639
   -34.3165 -34.1922 -34.1413 -34.1348 -34.1261 -34.1216 -34.0766 -34.0549
   -34.0540 -34.0136 -34.0010 -33.9576 -33.9561 -33.8580 -33.8533 -33.8264
   -33.8192 -33.8036 -33.7689 -33.7574 -33.7508 -33.7327 -33.6841 -33.5761
   -33.5445 -33.2339 -33.2066 -33.1885 -33.1718 -33.1657 -33.1486 -33.0699
   -33.0569 -33.0115 -32.9930 -32.9838 -32.9508 -32.8881 -32.8705 -32.7666
   -18.9499 -18.8273 -18.7367 -18.3607 -18.3011 -18.1684 -18.1113 -18.1044
   -18.0109 -17.9418 -17.7180 -17.6700 -17.6582 -17.6335 -17.5378 -17.5250
   -17.5158 -17.4838 -17.4594 -17.4534 -17.3509 -17.3135 -17.2990 -17.2942
   -17.2626 -17.1841 -17.1346 -17.0395 -17.0065 -17.0041 -16.8346 -16.7946
   -15.3387 -15.2977 -15.2890 -15.2479 -11.6039  -6.9830  -6.8107  -6.6981
    -6.1800  -5.9694  -5.7728  -5.6107  -5.5135  -5.4469  -5.3771  -5.3104
    -5.2755  -5.2542  -5.2031  -5.1629  -5.0628  -5.0545  -4.9619  -4.9058
    -4.8763  -4.8450  -4.7666  -4.7444  -4.7281  -4.6787  -4.6179  -4.6083
    -4.5692  -4.4938  -4.4853  -4.4706  -4.4320  -4.4260  -4.3716  -4.2826
    -4.1942  -4.1637  -4.1538  -4.1129  -4.0407  -4.0314  -4.0085  -3.9815
    -3.9749  -3.9447  -3.8683  -3.8424  -3.7360  -3.6447  -3.6155  -3.6001
    -3.5114  -3.4298  -3.3731  -3.3468  -3.1724  -3.1458  -3.1029  -3.0394
    -3.0289  -2.9673  -2.9440  -2.9199  -2.8906  -2.8680  -2.8034  -2.7943
    -2.7933  -2.7730  -2.7482  -2.7009  -2.6511  -2.6304  -2.5681  -2.5384
    -2.5239  -2.4995  -2.4544  -2.4343  -2.3190  -2.2686  -2.2563  -2.2375
    -2.2321  -2.1529  -2.0754  -2.0177  -1.9990  -1.8717  -1.8664  -1.7511
    -1.7083  -1.7024  -1.6492  -1.5764  -1.5307  -1.4831  -1.3720  -1.2407
    -1.1753  -1.0927  -1.0280  -0.7641  -0.6708  -0.5549  -0.5479  -0.5348
    -0.5151  -0.3667  -0.3523  -0.2559   0.9954   1.1314   1.2894   1.3127
     1.5131   1.6011   1.6244   1.6667   1.7662   1.8169

[...]

          k = 0.0380-0.0280 0.0000 ( 26873 PWs)   bands (ev):

[...]

          k =-0.0760-0.0000 0.0000 ( 26902 PWs)   bands (ev):

[...]

          k =-0.0760-0.0559 0.0000 ( 26868 PWs)   bands (ev):

   -58.2735 -58.2689 -58.2452 -58.2264 -58.1671 -57.7776 -57.7739 -57.7547
   -57.6692 -57.5721 -57.5694 -57.5452 -57.3361 -56.8587 -56.8439 -56.8183
   -56.7387 -56.6386 -34.7181 -34.6928 -34.6510 -34.6233 -34.5918 -34.5060
   -34.4915 -34.4326 -34.4276 -34.4179 -34.4100 -34.4064 -34.4016 -34.3655
   -34.3639 -34.2324 -34.1728 -34.1587 -34.1290 -34.1213 -34.0605 -34.0078
   -33.9938 -33.9894 -33.9667 -33.9587 -33.9260 -33.9009 -33.8833 -33.8751
   -33.8307 -33.8032 -33.7690 -33.7550 -33.7496 -33.7336 -33.6860 -33.5758
   -33.5492 -33.2490 -33.2208 -33.2076 -33.1938 -33.1691 -33.0594 -33.0563
   -33.0392 -32.9836 -32.9816 -32.9737 -32.9587 -32.9513 -32.8885 -32.7736
   -18.9097 -18.7523 -18.6280 -18.4709 -18.2344 -18.1317 -17.9702 -17.8867
   -17.8624 -17.8596 -17.8440 -17.7445 -17.7385 -17.7030 -17.6456 -17.6188
   -17.6080 -17.6038 -17.5547 -17.5516 -17.3567 -17.3471 -17.2920 -17.2505
   -17.2262 -17.2038 -17.1037 -17.1022 -17.0318 -16.9570 -16.8535 -16.7704
   -15.3493 -15.3387 -15.2483 -15.2277 -11.6008  -6.9235  -6.8338  -6.6988
    -5.9556  -5.7458  -5.7183  -5.6690  -5.3507  -5.2968  -5.1958  -5.1678
    -5.1292  -5.1128  -5.0724  -5.0704  -5.0004  -4.9562  -4.9423  -4.9153
    -4.9011  -4.8714  -4.8409  -4.8162  -4.7538  -4.7496  -4.7348  -4.6913
    -4.6442  -4.5594  -4.5365  -4.5182  -4.4676  -4.4284  -4.2539  -4.2077
    -4.1815  -4.1667  -4.0807  -4.0561  -3.9795  -3.9496  -3.9060  -3.8302
    -3.7357  -3.6882  -3.6385  -3.5832  -3.5576  -3.5270  -3.5215  -3.4689
    -3.4405  -3.3909  -3.3585  -3.3528  -3.3019  -3.2452  -3.1991  -3.1803
    -3.1542  -3.1492  -3.1261  -3.1002  -3.0697  -3.0470  -3.0425  -2.9845
    -2.9368  -2.9240  -2.8494  -2.8175  -2.7635  -2.7103  -2.6866  -2.6306
    -2.6235  -2.5696  -2.5639  -2.4996  -2.4714  -2.4230  -2.4101  -2.3388
    -2.1601  -2.0959  -1.9911  -1.9464  -1.9355  -1.8664  -1.8330  -1.8207
    -1.6812  -1.6707  -1.6076  -1.6045  -1.5794  -1.3674  -1.3399  -1.3038
    -1.2737  -1.2354  -1.2023  -1.0899  -0.7977  -0.7098  -0.6737  -0.4841
    -0.4621  -0.4180  -0.3872  -0.3728   1.0405   1.2089   1.2773   1.3585
     1.3796   1.4218   1.4517   1.6378   1.6690   1.7005

     the Fermi energy is     0.3952 ev

!    total energy              =   -3293.27281037 Ry
     estimated scf accuracy    <       0.00000005 Ry
     smearing contrib. (-TS)   =      -0.00047469 Ry
     internal energy E=F+TS    =   -3293.27233568 Ry

     The total energy is F=E-TS. E is the sum of the following terms:
     one-electron contribution =  -34645.89246644 Ry
     hartree contribution      =   17387.47642557 Ry
     xc contribution           =    -542.12970332 Ry
     ewald contribution        =   14507.27122155 Ry
     electric field correction =       0.00218697 Ry

     convergence has been achieved in  58 iterations

     Forces acting on atoms (cartesian axes, Ry/au):

     atom    1 type  1   force =     0.00002241    0.00609035    0.04336873
     atom    2 type  1   force =    -0.00000539   -0.00403802   -0.00308802
     atom    3 type  1   force =     0.00004058    0.00280849   -0.00207873
     atom    4 type  1   force =     0.00005103   -0.00044870    0.10161842
     atom    5 type  1   force =    -0.00000577    0.00013276    0.00748389
     atom    6 type  1   force =     0.00000980    0.00311698    0.00046112
     atom    7 type  1   force =     0.07785439    0.00122648   -0.03551403
     atom    8 type  1   force =     0.00794591   -0.02606185    0.00025056
     atom    9 type  1   force =     0.00929063    0.01907699    0.00057186
     atom   10 type  2   force =    -0.00007807    0.00812325   -0.15939938
     atom   11 type  2   force =    -0.00006985    0.02227250   -0.00327243
     atom   12 type  2   force =     0.00001130   -0.02373855   -0.00519646
     atom   13 type  1   force =    -0.07794567    0.00076075   -0.03550567
     atom   14 type  1   force =    -0.00807267   -0.02593867    0.00026650
     atom   15 type  1   force =    -0.00940891    0.01915559    0.00060496
     atom   16 type  2   force =     0.00010185    0.00152621    0.07238346
     atom   17 type  2   force =     0.00009233    0.03130253    0.00148142
     atom   18 type  2   force =     0.00010858   -0.02629382    0.00307791
     atom   19 type  1   force =     0.00005202    0.00277965    0.05723289
     atom   20 type  1   force =     0.00000024   -0.00178614    0.00096411
     atom   21 type  1   force =     0.00005028   -0.00089334    0.10053639
     atom   22 type  1   force =     0.00000360   -0.00255757    0.00650679
     atom   23 type  1   force =    -0.00002405    0.00311043    0.00435357
     atom   24 type  1   force =     0.07897323    0.00059827   -0.03632909
     atom   25 type  1   force =     0.00960968   -0.02997538    0.00063131
     atom   26 type  1   force =     0.01026373    0.01570987    0.00411532
     atom   27 type  2   force =    -0.00007776   -0.00570621   -0.15462262
     atom   28 type  2   force =     0.00001647    0.02797110   -0.00279082
     atom   29 type  2   force =    -0.00003616   -0.01129579   -0.01282846
     atom   30 type  1   force =    -0.07905930    0.00019537   -0.03633400
     atom   31 type  1   force =    -0.00969676   -0.02981127    0.00063713
     atom   32 type  1   force =    -0.01028417    0.01544037    0.00387193
     atom   33 type  2   force =     0.00012463   -0.00295764    0.07719657
     atom   34 type  2   force =     0.00003703    0.03528259    0.00330724
     atom   35 type  2   force =     0.00054760   -0.01751682   -0.00027208
     atom   36 type  1   force =     0.00008284    0.00417165    0.05151828
     atom   37 type  1   force =    -0.00001688   -0.00284017   -0.00285119
     atom   38 type  1   force =     0.00033360    0.00202412    0.00346006
     atom   39 type  1   force =     0.00004185    0.00293677    0.10094774
     atom   40 type  1   force =    -0.00000543   -0.00195274    0.00748230
     atom   41 type  1   force =    -0.00000027    0.00063465    0.00073627
     atom   42 type  1   force =     0.07838007    0.00162706   -0.03443323
     atom   43 type  1   force =     0.00608041   -0.02323848   -0.00032675
     atom   44 type  1   force =     0.01011233    0.01569265   -0.00645373
     atom   45 type  2   force =    -0.00004583   -0.00740372   -0.16393062
     atom   46 type  2   force =    -0.00002412    0.01846762    0.00058224
     atom   47 type  2   force =    -0.00009766   -0.01468684    0.01690332
     atom   48 type  1   force =    -0.07848732    0.00118391   -0.03441907
     atom   49 type  1   force =    -0.00607099   -0.02326438   -0.00031822
     atom   50 type  1   force =    -0.01009680    0.01595483   -0.00691257
     atom   51 type  2   force =     0.00011587   -0.00344659    0.06019430
     atom   52 type  2   force =     0.00004891    0.02831707    0.00341095
     atom   53 type  2   force =     0.00017041   -0.02106919    0.00087076
     atom   54 type  3   force =    -0.00023375    0.00068737   -0.00179162
     atom   55 type  3   force =    -0.00004899   -0.00074456   -0.00042300
     atom   56 type  4   force =    -0.00002002    0.00037068    0.00162186
     atom   57 type  4   force =    -0.00082809   -0.00078462    0.00067047
     atom   58 type  3   force =     0.00004444   -0.00037871   -0.00040626
     atom   59 type  3   force =     0.00012261    0.00008085    0.00017744

     Total force =     0.434759     Total SCF correction =     0.000781
  @ DRIVER MODE: Message from server: STATUS
  @ DRIVER MODE: Message from server: GETFORCE
  @ DRIVER MODE: Returning v,forces,stress,ensemble

     Writing output data file ./calc.save/
  @ DRIVER MODE: Message from server: EXIT
  @ DRIVE MODE: Exiting

     General routines

     Parallel routines

   This run was terminated on:  21:17: 2  18Oct2021

   JOB DONE.