     Program PWSCF v.6.7GPU starts on  3Aug2021 at  9:29:24

     R & G space division:  proc/nbgrp/npool/nimage =      16
     Reading input from /storage/home/hcoda1/3/ntian30/research/carbon/02Aug_vib_paired/ads_slab/CH3NH3NH3_a/out_0001/pw.inp
Warning: card &CELL ignored
Warning: card   CELL_DYNAMICS='IPI', ignored
Warning: card / ignored

     Current dimensions of program PWSCF are:
     Max number of different atomic species (ntypx) = 10
     Max number of k-points (npk) =  40000
     Max angular momentum in pseudopotentials (lmaxx) =  3
     Presently no symmetry can be used with electric field

     Message from routine cell_base_init:
     DEPRECATED: use true lattice parameter, not A to a.u. conversion factor

     IMPORTANT: XC functional enforced from input :
     Exchange-correlation= BEEF-VDW
                           (   1   4  43  14   2   0   0)
     Any further DFT definition will be discarded
     Please, verify this is what you really want

  @ DRIVER MODE: Connecting to
 qe_1139763_2490221.sched-torque.pace.gatech.edu7s9vbekc_scratch
  using UNIX socket
  @ DRIVER MODE: Message from server: STATUS
  @ DRIVER MODE: Message from server: INIT
  @ DRIVER MODE: Receiving replica           0          -1
  @ DRIVER MODE: Receiving encoded integer          25
  @ DRIVER MODE:  SCF:  T  FORCE:  T  STRESS:  F  VC:  F  ENSEMBLE:  F
  @ DRIVER MODE:  SCF:  T  FORCE:  T  STRESS:  F  VC:  F  ENSEMBLE:  F

     Using Slab Decomposition

     bravais-lattice index     =            0
     lattice parameter (alat)  =       1.8897  a.u.
     unit-cell volume          =    6658.9804 (a.u.)^3
     number of atoms/cell      =           59
     number of atomic types    =            5
     number of electrons       =       401.00
     number of Kohn-Sham states=          210
     kinetic-energy cutoff     =      29.3995  Ry
     charge density cutoff     =     293.9946  Ry
     scf convergence threshold =      7.3E-08
     mixing beta               =       0.0500
     number of iterations used =            8  plain     mixing
     Exchange-correlation= BEEF-VDW
                           (   1   4  43  14   2   0   0)

     celldm(1)=   1.889726  celldm(2)=   0.000000  celldm(3)=   0.000000
     celldm(4)=   0.000000  celldm(5)=   0.000000  celldm(6)=   0.000000

     crystal axes: (cart. coord. in units of alat)
               a(1) = (   6.579727   0.000000   0.000000 )
               a(2) = (  -0.000775   5.961596   0.000000 )
               a(3) = (   0.000000   0.000000  25.155947 )

     reciprocal axes: (cart. coord. in units 2 pi/alat)
               b(1) = (  0.151982  0.000020  0.000000 )
               b(2) = (  0.000000  0.167740  0.000000 )
               b(3) = (  0.000000  0.000000  0.039752 )

     PseudoPot. # 1 for Ti read from file:
     /storage/coda1/p-amedford6/0/shared/rich_project_chbe-medford/medford-share/data/pseudos_module/espresso/nninc/pbe/van/Ti.UPF
     MD5 check sum: 8e4df49b7f0d34bbd5052bf3f5ea0213
     Pseudo is Ultrasoft, Zval = 12.0
     Generated by new atomic code, or converted to UPF format
     Using radial grid of  851 points,  6 beta functions with:
                l(1) =   0
                l(2) =   0
                l(3) =   1
                l(4) =   1
                l(5) =   2
                l(6) =   2
     Q(r) pseudized with  8 coefficients,  rinner =    1.000   1.000   1.000
                                                       1.000   1.000

     PseudoPot. # 2 for O  read from file:
     /storage/coda1/p-amedford6/0/shared/rich_project_chbe-medford/medford-share/data/pseudos_module/espresso/nninc/pbe/van/O.UPF
     MD5 check sum: 78c19812648e8988a0fe644b0f25305e
     Pseudo is Ultrasoft, Zval =  6.0
     Generated by new atomic code, or converted to UPF format
     Using radial grid of  737 points,  4 beta functions with:
                l(1) =   0
                l(2) =   0
                l(3) =   1
                l(4) =   1
     Q(r) pseudized with  8 coefficients,  rinner =    0.800   0.800   0.800

     PseudoPot. # 3 for C  read from file:
     /storage/coda1/p-amedford6/0/shared/rich_project_chbe-medford/medford-share/data/pseudos_module/espresso/nninc/pbe/van/C.UPF
     MD5 check sum: 1a69bf6b8db32088f5b2163dbdb77a27
     Pseudo is Ultrasoft, Zval =  4.0
     Generated by new atomic code, or converted to UPF format
     Using radial grid of  721 points,  4 beta functions with:
                l(1) =   0
                l(2) =   0
                l(3) =   1
                l(4) =   1
     Q(r) pseudized with  8 coefficients,  rinner =    0.800   0.800   0.800

     PseudoPot. # 4 for H  read from file:
     /storage/coda1/p-amedford6/0/shared/rich_project_chbe-medford/medford-share/data/pseudos_module/espresso/nninc/pbe/van/H.UPF
     MD5 check sum: b5ee9d7bfd3a09ee7748110bda690ff7
     Pseudo is Ultrasoft, Zval =  1.0
     Generated by new atomic code, or converted to UPF format
     Using radial grid of  615 points,  1 beta functions with:
                l(1) =   0
     Q(r) pseudized with  8 coefficients,  rinner =    0.800

     PseudoPot. # 5 for N  read from file:
     /storage/coda1/p-amedford6/0/shared/rich_project_chbe-medford/medford-share/data/pseudos_module/espresso/nninc/pbe/van/N.UPF
     MD5 check sum: 90d10febe142ad51ac9d5be1deb811c4
     Pseudo is Ultrasoft, Zval =  5.0
     Generated by new atomic code, or converted to UPF format
     Using radial grid of  729 points,  4 beta functions with:
                l(1) =   0
                l(2) =   0
                l(3) =   1
                l(4) =   1
     Q(r) pseudized with  8 coefficients,  rinner =    0.800   0.800   0.800

     atomic species   valence    mass     pseudopotential
        Ti1           12.00    47.86700     Ti( 1.00)
        O1             6.00    15.99900     O ( 1.00)
        C1             4.00    12.01100     C ( 1.00)
        H1             1.00     1.00800     H ( 1.00)
        N1             5.00    14.00700     N ( 1.00)

     No symmetry found

   Cartesian axes

     site n.     atom                  positions (alat units)
         1           Ti1 tau(   1) = (   0.0004258   2.9801865   6.0000000  )
         2           Ti1 tau(   2) = (   3.2906075   1.4906267   6.0002472  )
         3           O1  tau(   3) = (   0.0006271   0.0005054   7.9858123  )
         4           O1  tau(   4) = (   3.2906025   0.0005020   7.3038282  )
         5           O1  tau(   5) = (   4.5942328   1.4918067   9.2879030  )
         6           O1  tau(   6) = (   1.9868534   1.4903216   9.2879459  )
         7           Ti1 tau(   7) = (   3.2907910   2.8959150   9.1758416  )
         8           Ti1 tau(   8) = (   0.0015273   1.4827037   9.2680791  )
         9           O1  tau(   9) = (   3.3006472   5.9526327  11.3326431  )
        10           O1  tau(  10) = (   0.0116148   5.9584955  10.6183126  )
        11           O1  tau(  11) = (   1.2986171   1.4856602  12.6180737  )
        12           O1  tau(  12) = (   5.2832837   1.4869688  12.6136912  )
        13           Ti1 tau(  13) = (   0.0716907   2.9700601  12.6329626  )
        14           Ti1 tau(  14) = (   3.3921379   1.4824266  12.4783935  )
        15           O1  tau(  15) = (   0.0098915   0.0277142  14.6273811  )
        16           O1  tau(  16) = (   3.2980527   0.0034327  13.9214941  )
        17           O1  tau(  17) = (   4.5491770   1.5035522  16.0668258  )
        18           O1  tau(  18) = (   2.0540802   1.5011373  16.0688643  )
        19           Ti1 tau(  19) = (   3.2973159   2.9845483  15.7023000  )
        20           Ti1 tau(  20) = (   6.5754392   1.4353193  15.8239573  )
        21           O1  tau(  21) = (   3.2904802   0.0005063   4.7018136  )
        22           O1  tau(  22) = (   0.0048264   5.9571524  17.1588256  )
        23           O1  tau(  23) = (   1.3043587   1.4918075   6.0039043  )
        24           O1  tau(  24) = (   5.2767064   1.4903225   6.0039473  )
        25           Ti1 tau(  25) = (   0.0000382   5.9609847   6.0000000  )
        26           Ti1 tau(  26) = (   3.2902200   4.4714249   6.0002472  )
        27           O1  tau(  27) = (   0.0002396   2.9813036   7.9858123  )
        28           O1  tau(  28) = (   3.2902150   2.9813002   7.3038282  )
        29           O1  tau(  29) = (   4.5938453   4.4726049   9.2879030  )
        30           O1  tau(  30) = (   1.9864658   4.4711199   9.2879459  )
        31           Ti1 tau(  31) = (   3.2891106   5.8743827   9.1763621  )
        32           Ti1 tau(  32) = (   0.0006254   4.4649316   9.2693709  )
        33           O1  tau(  33) = (   3.3024910   2.9811918  11.3312481  )
        34           O1  tau(  34) = (   0.0092240   2.9805883  10.6323155  )
        35           O1  tau(  35) = (   1.2967186   4.4682081  12.6345707  )
        36           O1  tau(  36) = (   5.2888097   4.4704914  12.6297389  )
        37           Ti1 tau(  37) = (   0.0778612   5.9457776  12.5489457  )
        38           Ti1 tau(  38) = (   3.3928769   4.4622707  12.4864817  )
        39           O1  tau(  39) = (   0.0140712   2.9461142  14.6842920  )
        40           O1  tau(  40) = (   3.2991745   2.9776924  13.9065265  )
        41           O1  tau(  41) = (   4.5418516   4.4678888  16.0645815  )
        42           O1  tau(  42) = (   2.0574864   4.4691885  16.0636024  )
        43           Ti1 tau(  43) = (   3.2861726   0.0051191  15.7195692  )
        44           Ti1 tau(  44) = (   6.5761434   4.5285208  16.1368719  )
        45           O1  tau(  45) = (   3.2900926   2.9813045   4.7018136  )
        46           O1  tau(  46) = (   1.3039711   4.4726057   6.0039043  )
        47           O1  tau(  47) = (   5.2763189   4.4711207   6.0039473  )
        48           C1  tau(  48) = (   0.0075971   3.0427671  17.7901079  )
        49           H1  tau(  49) = (   5.6823727   3.3959267  18.2745233  )
        50           H1  tau(  50) = (   0.1100020   1.9921885  18.0671921  )
        51           H1  tau(  51) = (   0.8707680   3.5346006  18.2680029  )
        52           N1  tau(  52) = (   6.1495222   1.5591847  21.8098380  )
        53           H1  tau(  53) = (   6.1793786   2.4848735  21.3946126  )
        54           H1  tau(  54) = (   6.2462200   0.9013766  21.0428083  )
        55           H1  tau(  55) = (   5.2088654   1.4380024  22.1828036  )
        56           N1  tau(  56) = (   2.8510371   0.9663425  23.1735989  )
        57           H1  tau(  57) = (   2.8683653   5.9129692  23.1556095  )
        58           H1  tau(  58) = (   1.9074079   1.2374795  22.9038124  )
        59           H1  tau(  59) = (   2.9640119   1.2328864  24.1466208  )

     number of k points=    10  Fermi-Dirac smearing, width (Ry)=  0.0073
                       cart. coord. in units 2pi/alat
        k(    1) = (   0.0000000   0.0000000   0.0000000), wk =   0.1250000
        k(    2) = (   0.0000000   0.0419351   0.0000000), wk =   0.2500000
        k(    3) = (   0.0000000  -0.0838702   0.0000000), wk =   0.1250000
        k(    4) = (   0.0379955   0.0000049   0.0000000), wk =   0.2500000
[...]
     /storage/coda1/p-amedford6/0/shared/rich_project_chbe-medford/medford-share/data/pseudos_module/espresso/nninc/pbe/van/N.UPF
     MD5 check sum: 90d10febe142ad51ac9d5be1deb811c4
     Pseudo is Ultrasoft, Zval =  5.0
     Generated by new atomic code, or converted to UPF format
     Using radial grid of  729 points,  4 beta functions with:
                l(1) =   0
                l(2) =   0
                l(3) =   1
                l(4) =   1
     Q(r) pseudized with  8 coefficients,  rinner =    0.800   0.800   0.800

     atomic species   valence    mass     pseudopotential
        Ti1           12.00    47.86700     Ti( 1.00)
        O1             6.00    15.99900     O ( 1.00)
        C1             4.00    12.01100     C ( 1.00)
        H1             1.00     1.00800     H ( 1.00)
        N1             5.00    14.00700     N ( 1.00)

     No symmetry found

   Cartesian axes

     site n.     atom                  positions (alat units)
         1           Ti1 tau(   1) = (   0.0004258   2.9801865   6.0000000  )
         2           Ti1 tau(   2) = (   3.2906075   1.4906267   6.0002472  )
         3           O1  tau(   3) = (   0.0006271   0.0005054   7.9858123  )
         4           O1  tau(   4) = (   3.2906025   0.0005020   7.3038282  )
         5           O1  tau(   5) = (   4.5942328   1.4918067   9.2879030  )
         6           O1  tau(   6) = (   1.9868534   1.4903216   9.2879459  )
         7           Ti1 tau(   7) = (   3.2907910   2.8959150   9.1758416  )
         8           Ti1 tau(   8) = (   0.0015273   1.4827037   9.2680791  )
         9           O1  tau(   9) = (   3.3006472   5.9526327  11.3326431  )
        10           O1  tau(  10) = (   0.0116148   5.9584955  10.6183126  )
        11           O1  tau(  11) = (   1.2986171   1.4856602  12.6180737  )
        12           O1  tau(  12) = (   5.2832837   1.4869688  12.6136912  )
        13           Ti1 tau(  13) = (   0.0716907   2.9700601  12.6329626  )
        14           Ti1 tau(  14) = (   3.3921379   1.4824266  12.4783935  )
        15           O1  tau(  15) = (   0.0098915   0.0277142  14.6273811  )
        16           O1  tau(  16) = (   3.2980527   0.0034327  13.9214941  )
        17           O1  tau(  17) = (   4.5491770   1.5035522  16.0668258  )
        18           O1  tau(  18) = (   2.0540802   1.5011373  16.0688643  )
        19           Ti1 tau(  19) = (   3.2973159   2.9845483  15.7023000  )
        20           Ti1 tau(  20) = (   6.5754392   1.4353193  15.8239573  )
        21           O1  tau(  21) = (   3.2904802   0.0005063   4.7018136  )
        22           O1  tau(  22) = (   0.0048264   5.9571524  17.1588256  )
        23           O1  tau(  23) = (   1.3043587   1.4918075   6.0039043  )
        24           O1  tau(  24) = (   5.2767064   1.4903225   6.0039473  )
        25           Ti1 tau(  25) = (   0.0000382   5.9609847   6.0000000  )
        26           Ti1 tau(  26) = (   3.2902200   4.4714249   6.0002472  )
        27           O1  tau(  27) = (   0.0002396   2.9813036   7.9858123  )
        28           O1  tau(  28) = (   3.2902150   2.9813002   7.3038282  )
        29           O1  tau(  29) = (   4.5938453   4.4726049   9.2879030  )
        30           O1  tau(  30) = (   1.9864658   4.4711199   9.2879459  )
        31           Ti1 tau(  31) = (   3.2891106   5.8743827   9.1763621  )
        32           Ti1 tau(  32) = (   0.0006254   4.4649316   9.2693709  )
        33           O1  tau(  33) = (   3.3024910   2.9811918  11.3312481  )
        34           O1  tau(  34) = (   0.0092240   2.9805883  10.6323155  )
        35           O1  tau(  35) = (   1.2967186   4.4682081  12.6345707  )
        36           O1  tau(  36) = (   5.2888097   4.4704914  12.6297389  )
        37           Ti1 tau(  37) = (   0.0778612   5.9457776  12.5489457  )
        38           Ti1 tau(  38) = (   3.3928769   4.4622707  12.4864817  )
        39           O1  tau(  39) = (   0.0140712   2.9461142  14.6842920  )
        40           O1  tau(  40) = (   3.2991745   2.9776924  13.9065265  )
        41           O1  tau(  41) = (   4.5418516   4.4678888  16.0645815  )
        42           O1  tau(  42) = (   2.0574864   4.4691885  16.0636024  )
        43           Ti1 tau(  43) = (   3.2861726   0.0051191  15.7195692  )
        44           Ti1 tau(  44) = (   6.5761434   4.5285208  16.1368719  )
        45           O1  tau(  45) = (   3.2900926   2.9813045   4.7018136  )
        46           O1  tau(  46) = (   1.3039711   4.4726057   6.0039043  )
        47           O1  tau(  47) = (   5.2763189   4.4711207   6.0039473  )
        48           C1  tau(  48) = (   0.0175971   3.0427671  17.7901079  )
        49           H1  tau(  49) = (   5.6823727   3.3959267  18.2745233  )
        50           H1  tau(  50) = (   0.1100020   1.9921885  18.0771921  )
        51           H1  tau(  51) = (   0.8707680   3.5346006  18.2680029  )
        52           N1  tau(  52) = (   6.1495222   1.5591847  21.8098380  )
        53           H1  tau(  53) = (   6.1793786   2.4848735  21.3946126  )
        54           H1  tau(  54) = (   6.2462200   0.9013766  21.0428083  )
        55           H1  tau(  55) = (   5.2088654   1.4380024  22.1828036  )
        56           N1  tau(  56) = (   2.8510371   0.9663425  23.1735989  )
        57           H1  tau(  57) = (   2.8683653   5.9129692  23.1556095  )
        58           H1  tau(  58) = (   1.9074079   1.2374795  22.9038124  )
        59           H1  tau(  59) = (   2.9640119   1.2328864  24.1466208  )

     number of k points=    10  Fermi-Dirac smearing, width (Ry)=  0.0073
                       cart. coord. in units 2pi/alat
        k(    1) = (   0.0000000   0.0000000   0.0000000), wk =   0.1250000
        k(    2) = (   0.0000000   0.0419351   0.0000000), wk =   0.2500000
        k(    3) = (   0.0000000  -0.0838702   0.0000000), wk =   0.1250000
        k(    4) = (   0.0379955   0.0000049   0.0000000), wk =   0.2500000
        k(    5) = (   0.0379955   0.0419400   0.0000000), wk =   0.2500000
        k(    6) = (   0.0379955  -0.0838652   0.0000000), wk =   0.2500000
        k(    7) = (   0.0379955  -0.0419301   0.0000000), wk =   0.2500000
        k(    8) = (  -0.0759910  -0.0000099   0.0000000), wk =   0.1250000
        k(    9) = (  -0.0759910   0.0419252   0.0000000), wk =   0.2500000
        k(   10) = (  -0.0759910  -0.0838800   0.0000000), wk =   0.1250000

     Initial potential from superposition of free atoms

     starting charge  384.99911, renormalised to  401.00000

[...]

     %%%%%%%%%%%%%%%%%%%%%%%%%%%%%%%%%%%%%%%%%%%%%%%%%%%%%%%%%%%%%%%%%%%%%%%%
     %                                                                      %
     % You are using vdW-DF, which was implemented by the Thonhauser group. %
     % Please cite the following two papers that made this development      %
     % possible and the two reviews that describe the various versions:     %
     %                                                                      %
     %   T. Thonhauser et al., PRL 115, 136402 (2015).                      %
     %   T. Thonhauser et al., PRB 76, 125112 (2007).                       %
     %   K. Berland et al., Rep. Prog. Phys. 78, 066501 (2015).             %
     %   D.C. Langreth et al., J. Phys.: Condens. Matter 21, 084203 (2009). %
     %                                                                      %
     %                                                                      %
     % If you are calculating the stress with vdW-DF, please also cite:     %
     %                                                                      %
     %   R. Sabatini et al., J. Phys.: Condens. Matter 24, 424209 (2012).   %
     %                                                                      %
     %%%%%%%%%%%%%%%%%%%%%%%%%%%%%%%%%%%%%%%%%%%%%%%%%%%%%%%%%%%%%%%%%%%%%%%%

[...]

     Starting wfcs are  305 atomic wfcs
  @ DRIVER MODE: Message from server: STATUS
  @ DRIVER MODE: Message from server: POSDATA
  @ DRIVER MODE: Reading and sharing cell
  @ DRIVER MODE: Reading and sharing positions
  @ DRIVER MODE: Received positions

     Self-consistent Calculation

[...]

     iteration # 65     ecut=    29.40 Ry     beta= 0.05
     Davidson diagonalization with overlap
     c_bands:  1 eigenvalues not converged
     ethr =  2.98E-10,  avg # of iterations = 12.3

[...]

     total energy              =   -2946.58248999 Ry
     estimated scf accuracy    <       0.00000008 Ry

     iteration # 70     ecut=    29.40 Ry     beta= 0.05
     Davidson diagonalization with overlap
     ethr =  1.94E-11,  avg # of iterations =  2.0

     negative rho (up, down):  6.996E-03 0.000E+00

     Adding external electric field

     Computed dipole along edir(3) :
        Dipole                0.3162 Ry au,          0.8037 Debye
        Dipole field          0.0006 Ry au,

        Potential amp.       -0.0553 Ry
        Total length         46.3494 bohr

     End of self-consistent calculation

[...]

          k = 0.0380-0.0419 0.0000 ( 17876 PWs)   bands (ev):

[...]

          k =-0.0760-0.0839 0.0000 ( 17948 PWs)   bands (ev):

   -55.9805 -55.9793 -55.9730 -55.9639 -55.8697 -55.8430 -55.8401 -55.8243
   -55.7883 -55.7857 -55.7551 -55.7526 -55.6097 -55.3941 -54.9605 -54.9604
   -32.3486 -32.3400 -32.2951 -32.2944 -32.2755 -32.2745 -32.2586 -32.2497
   -32.2033 -32.1915 -32.1853 -32.1826 -32.1448 -32.1289 -32.1272 -32.1179
   -32.1074 -32.1000 -32.0998 -32.0988 -32.0933 -32.0904 -32.0697 -32.0598
   -32.0406 -32.0377 -32.0283 -32.0113 -31.9882 -31.9873 -31.9858 -31.9840
   -31.9694 -31.9680 -31.9649 -31.9609 -31.9320 -31.8551 -31.8300 -31.6824
   -31.6713 -31.5757 -31.2863 -31.2862 -31.1976 -31.1975 -31.1581 -31.1581
   -16.1749 -16.1555 -15.9478 -15.9111 -15.9081 -15.8989 -15.7872 -15.7021
   -15.6921 -15.6914 -15.6091 -15.5967 -15.5806 -15.5363 -15.5322 -15.5229
   -15.5133 -15.5012 -15.4580 -15.4531 -15.4342 -15.4266 -15.3448 -15.3144
   -15.3106 -15.2725 -15.1402 -15.0088 -14.8602 -13.4664 -13.4662 -13.0004
   -12.9678  -9.1124  -3.4670  -3.4413  -3.1911  -3.1549  -3.1456  -3.1164
    -3.0815  -3.0623  -2.9913  -2.9433  -2.9211  -2.8946  -2.8799  -2.8753
    -2.8390  -2.8266  -2.8165  -2.8049  -2.7865  -2.7523  -2.7435  -2.7111
    -2.6997  -2.6795  -2.6665  -2.6513  -2.6255  -2.6121  -2.5992  -2.5742
    -2.5623  -2.5448  -2.5248  -2.5005  -2.4167  -2.2297  -2.1999  -2.1352
    -2.1261  -2.0956  -2.0841  -2.0605  -2.0462  -2.0279  -1.9805  -1.8281
    -1.7259  -1.6998  -1.6719  -1.5964  -1.5760  -1.5285  -1.4142  -1.3796
    -1.3522  -1.3257  -1.2764  -1.2252  -1.2077  -1.1841  -1.1157  -1.1021
    -1.0240  -0.9811  -0.9585  -0.9541  -0.8891  -0.8464  -0.7644  -0.7591
    -0.7149  -0.6795  -0.6320  -0.5918  -0.5871  -0.5000  -0.4744  -0.3578
    -0.3031  -0.0431   0.0073   0.0579   0.0839   0.1427   0.1925   0.2078
     0.3169   0.3212   0.3586   0.4013   0.4421   0.5297   0.5489   0.5837
     0.7298   1.2965   1.4071   1.4077   1.4809   1.4813   1.9494   1.9662
     3.4250   3.4401   3.4706   3.5030   3.6444   3.6483   3.6697   3.6715
     3.7977   3.8219

     the Fermi energy is     3.1376 ev

!    total energy              =   -2946.58251178 Ry
     estimated scf accuracy    <       0.00000005 Ry
     smearing contrib. (-TS)   =      -0.02178993 Ry
     internal energy E=F+TS    =   -2946.56072185 Ry

     The total energy is F=E-TS. E is the sum of the following terms:
     one-electron contribution =  -22199.13632187 Ry
     hartree contribution      =   11188.57450112 Ry
     xc contribution           =    -489.84463374 Ry
     ewald contribution        =    8553.84554394 Ry
     electric field correction =       0.00018869 Ry

     convergence has been achieved in  70 iterations

     Forces acting on atoms (cartesian axes, Ry/au):

     atom    1 type  1   force =     0.00012854   -0.00025846    0.09669094
     atom    2 type  1   force =    -0.00014070   -0.00055315   -0.17510686
     atom    3 type  2   force =    -0.00000061   -0.00002778   -0.02500291
     atom    4 type  2   force =     0.00007481   -0.00144102    0.05269618
     atom    5 type  2   force =    -0.01209640   -0.00083672    0.00340000
     atom    6 type  2   force =     0.01400964   -0.00015227    0.00290888
     atom    7 type  1   force =    -0.00082457    0.00069148   -0.01135468
     atom    8 type  1   force =     0.00025769    0.01148917    0.02859479
     atom    9 type  2   force =    -0.00010118    0.00008983   -0.00000197
     atom   10 type  2   force =    -0.00085051    0.00076574   -0.01660450
     atom   11 type  2   force =    -0.00031067    0.00009480    0.00003128
     atom   12 type  2   force =    -0.00000415    0.00020363    0.00005157
     atom   13 type  1   force =    -0.00011690   -0.00019556    0.00009193
     atom   14 type  1   force =    -0.00022222    0.00000686   -0.00003791
     atom   15 type  2   force =    -0.00002948   -0.00019899   -0.00002659
     atom   16 type  2   force =    -0.00012191   -0.00004610    0.00001441
     atom   17 type  2   force =    -0.00008711   -0.00017607   -0.00003472
     atom   18 type  2   force =    -0.00013161   -0.00019902   -0.00004424
     atom   19 type  1   force =    -0.00000142   -0.00029146    0.00015092
     atom   20 type  1   force =     0.00012965   -0.00008769    0.00053216
     atom   21 type  2   force =     0.00006374    0.00000976    0.10293597
     atom   22 type  2   force =    -0.00011181   -0.00017576   -0.00052412
     atom   23 type  2   force =    -0.07140961   -0.00010266   -0.02772401
     atom   24 type  2   force =     0.07136900    0.00030232   -0.02775780
     atom   25 type  1   force =     0.00001206   -0.00030281    0.09646796
     atom   26 type  1   force =    -0.00018324   -0.00027359   -0.17528343
     atom   27 type  2   force =     0.00009175   -0.00019676   -0.02390546
     atom   28 type  2   force =     0.00011397   -0.00119982    0.05273414
     atom   29 type  2   force =    -0.01212839    0.00045580    0.00288336
     atom   30 type  2   force =     0.01396082    0.00080045    0.00242806
     atom   31 type  1   force =    -0.00076688    0.00311500   -0.01227229
     atom   32 type  1   force =     0.00027526   -0.01311706    0.02917538
     atom   33 type  2   force =    -0.00009640   -0.00003243    0.00005370
     atom   34 type  2   force =    -0.00028717    0.00077284   -0.02205958
     atom   35 type  2   force =    -0.00016115    0.00008398   -0.00004711
     atom   36 type  2   force =    -0.00010486    0.00020520   -0.00003586
     atom   37 type  1   force =    -0.00001838   -0.00031834   -0.00020365
     atom   38 type  1   force =     0.00002731    0.00000620    0.00000604
     atom   39 type  2   force =    -0.00008315    0.00013681    0.00027717
     atom   40 type  2   force =    -0.00013373   -0.00000934   -0.00007789
     atom   41 type  2   force =     0.00004530   -0.00021658    0.00002612
     atom   42 type  2   force =    -0.00022396   -0.00021717    0.00018976
     atom   43 type  1   force =     0.00030398   -0.00008061   -0.00017444
     atom   44 type  1   force =     0.00019720   -0.00017518    0.00016658
     atom   45 type  2   force =     0.00006287   -0.00007030    0.10292515
     atom   46 type  2   force =    -0.07142404   -0.00008985   -0.02773258
     atom   47 type  2   force =     0.07138134    0.00037113   -0.02774343
     atom   48 type  3   force =     0.00009205   -0.00319034    0.00176940
     atom   49 type  4   force =    -0.00016798    0.00097697    0.00010443
     atom   50 type  4   force =    -0.00031900    0.00260311   -0.00193277
     atom   51 type  4   force =     0.00008820    0.00085651    0.00026332
     atom   52 type  5   force =    -0.00053843   -0.00029946    0.00144783
     atom   53 type  4   force =     0.00008247    0.00056398   -0.00047454
     atom   54 type  4   force =    -0.00043558   -0.00042330   -0.00133734
     atom   55 type  4   force =     0.00063828    0.00023440   -0.00049532
     atom   56 type  5   force =     0.00069889    0.00037047   -0.00064195
     atom   57 type  4   force =     0.00005339   -0.00031849    0.00032621
     atom   58 type  4   force =    -0.00049203   -0.00004149   -0.00057667
     atom   59 type  4   force =    -0.00003296    0.00010920   -0.00012901

     Total force =     0.367752     Total SCF correction =     0.000575
  @ DRIVER MODE: Message from server: STATUS
  @ DRIVER MODE: Message from server: GETFORCE
  @ DRIVER MODE: Returning v,forces,stress,ensemble

     Writing output data file ./calc.save/
  @ DRIVER MODE: Message from server: EXIT
  @ DRIVE MODE: Exiting

     General routines

     Parallel routines

   This run was terminated on:  15:38:39   3Aug2021

   JOB DONE.