     Program PWSCF v.6.7GPU starts on  9Sep2021 at  4:58:47

     R & G space division:  proc/nbgrp/npool/nimage =      10
     Reading input from /storage/home/hcoda1/3/ntian30/research/carbon/CxH_vib/CH3_calc/ads_slab/CH3NHNH2_a/out_0022/pw.inp
Warning: card &CELL ignored
Warning: card   CELL_DYNAMICS='IPI', ignored
Warning: card / ignored

     Current dimensions of program PWSCF are:
     Max number of different atomic species (ntypx) = 10
     Max number of k-points (npk) =  40000
     Max angular momentum in pseudopotentials (lmaxx) =  3
     Presently no symmetry can be used with electric field

     Message from routine cell_base_init:
     DEPRECATED: use true lattice parameter, not A to a.u. conversion factor

     IMPORTANT: XC functional enforced from input :
     Exchange-correlation= BEEF-VDW
                           (   1   4  43  14   2   0   0)
     Any further DFT definition will be discarded
     Please, verify this is what you really want

  @ DRIVER MODE: Connecting to
 qe_1139763_2767398.sched-torque.pace.gatech.edu6ff_11ax_scratch
  using UNIX socket
  @ DRIVER MODE: Message from server: STATUS
  @ DRIVER MODE: Message from server: INIT
  @ DRIVER MODE: Receiving replica           0          -1
  @ DRIVER MODE: Receiving encoded integer          25
  @ DRIVER MODE:  SCF:  T  FORCE:  T  STRESS:  F  VC:  F  ENSEMBLE:  F
  @ DRIVER MODE:  SCF:  T  FORCE:  T  STRESS:  F  VC:  F  ENSEMBLE:  F

     Using Slab Decomposition

     bravais-lattice index     =            0
     lattice parameter (alat)  =       1.8897  a.u.
     unit-cell volume          =    6658.9804 (a.u.)^3
     number of atoms/cell      =           56
     number of atomic types    =            5
     number of electrons       =       398.00
     number of Kohn-Sham states=          209
     kinetic-energy cutoff     =      29.3995  Ry
     charge density cutoff     =     293.9946  Ry
     scf convergence threshold =      7.3E-08
     mixing beta               =       0.0500
     number of iterations used =            8  plain     mixing
     Exchange-correlation= BEEF-VDW
                           (   1   4  43  14   2   0   0)

     celldm(1)=   1.889726  celldm(2)=   0.000000  celldm(3)=   0.000000
     celldm(4)=   0.000000  celldm(5)=   0.000000  celldm(6)=   0.000000

     crystal axes: (cart. coord. in units of alat)
               a(1) = (   6.579727   0.000000   0.000000 )
               a(2) = (  -0.000775   5.961596   0.000000 )
               a(3) = (   0.000000   0.000000  25.155947 )

     reciprocal axes: (cart. coord. in units 2 pi/alat)
               b(1) = (  0.151982  0.000020  0.000000 )
               b(2) = (  0.000000  0.167740  0.000000 )
               b(3) = (  0.000000  0.000000  0.039752 )

     PseudoPot. # 1 for Ti read from file:
     /storage/coda1/p-amedford6/0/shared/rich_project_chbe-medford/medford-share/data/pseudos_module/espresso/nninc/pbe/van/Ti.UPF
     MD5 check sum: 8e4df49b7f0d34bbd5052bf3f5ea0213
     Pseudo is Ultrasoft, Zval = 12.0
     Generated by new atomic code, or converted to UPF format
     Using radial grid of  851 points,  6 beta functions with:
                l(1) =   0
                l(2) =   0
                l(3) =   1
                l(4) =   1
                l(5) =   2
                l(6) =   2
     Q(r) pseudized with  8 coefficients,  rinner =    1.000   1.000   1.000
                                                       1.000   1.000

     PseudoPot. # 2 for O  read from file:
     /storage/coda1/p-amedford6/0/shared/rich_project_chbe-medford/medford-share/data/pseudos_module/espresso/nninc/pbe/van/O.UPF
     MD5 check sum: 78c19812648e8988a0fe644b0f25305e
     Pseudo is Ultrasoft, Zval =  6.0
     Generated by new atomic code, or converted to UPF format
     Using radial grid of  737 points,  4 beta functions with:
                l(1) =   0
                l(2) =   0
                l(3) =   1
                l(4) =   1
     Q(r) pseudized with  8 coefficients,  rinner =    0.800   0.800   0.800

     PseudoPot. # 3 for N  read from file:
     /storage/coda1/p-amedford6/0/shared/rich_project_chbe-medford/medford-share/data/pseudos_module/espresso/nninc/pbe/van/N.UPF
     MD5 check sum: 90d10febe142ad51ac9d5be1deb811c4
     Pseudo is Ultrasoft, Zval =  5.0
     Generated by new atomic code, or converted to UPF format
     Using radial grid of  729 points,  4 beta functions with:
                l(1) =   0
                l(2) =   0
                l(3) =   1
                l(4) =   1
     Q(r) pseudized with  8 coefficients,  rinner =    0.800   0.800   0.800

     PseudoPot. # 4 for C  read from file:
     /storage/coda1/p-amedford6/0/shared/rich_project_chbe-medford/medford-share/data/pseudos_module/espresso/nninc/pbe/van/C.UPF
     MD5 check sum: 1a69bf6b8db32088f5b2163dbdb77a27
     Pseudo is Ultrasoft, Zval =  4.0
     Generated by new atomic code, or converted to UPF format
     Using radial grid of  721 points,  4 beta functions with:
                l(1) =   0
                l(2) =   0
                l(3) =   1
                l(4) =   1
     Q(r) pseudized with  8 coefficients,  rinner =    0.800   0.800   0.800

     PseudoPot. # 5 for H  read from file:
     /storage/coda1/p-amedford6/0/shared/rich_project_chbe-medford/medford-share/data/pseudos_module/espresso/nninc/pbe/van/H.UPF
     MD5 check sum: b5ee9d7bfd3a09ee7748110bda690ff7
     Pseudo is Ultrasoft, Zval =  1.0
     Generated by new atomic code, or converted to UPF format
     Using radial grid of  615 points,  1 beta functions with:
                l(1) =   0
     Q(r) pseudized with  8 coefficients,  rinner =    0.800

     atomic species   valence    mass     pseudopotential
        Ti1           12.00    47.86700     Ti( 1.00)
        O1             6.00    15.99900     O ( 1.00)
        N1             5.00    14.00700     N ( 1.00)
        C1             4.00    12.01100     C ( 1.00)
        H1             1.00     1.00800     H ( 1.00)

     No symmetry found

   Cartesian axes

     site n.     atom                  positions (alat units)
         1           Ti1 tau(   1) = (   0.0004258   2.9801865   6.0000000  )
         2           Ti1 tau(   2) = (   3.2906075   1.4906267   6.0002472  )
         3           O1  tau(   3) = (   0.0006271   0.0005054   7.9858123  )
         4           O1  tau(   4) = (   3.2906025   0.0005020   7.3038282  )
         5           O1  tau(   5) = (   4.5942328   1.4918067   9.2879030  )
         6           O1  tau(   6) = (   1.9868534   1.4903216   9.2879459  )
         7           Ti1 tau(   7) = (   3.2907910   2.8959150   9.1758416  )
         8           Ti1 tau(   8) = (   0.0015273   1.4827037   9.2680791  )
         9           O1  tau(   9) = (   3.2714441   0.0289406  11.3813764  )
        10           O1  tau(  10) = (   0.0116148   5.9584955  10.6183126  )
        11           O1  tau(  11) = (   1.2692032   1.5162281  12.7122965  )
        12           O1  tau(  12) = (   5.2779133   1.5159715  12.6811497  )
        13           Ti1 tau(  13) = (   6.5579218   3.0031650  12.5037829  )
        14           Ti1 tau(  14) = (   3.2791490   1.5128154  12.5375672  )
        15           O1  tau(  15) = (   6.5208524   5.8954130  14.6845636  )
        16           O1  tau(  16) = (   3.2849572   0.0099931  14.0031570  )
        17           O1  tau(  17) = (   4.4884262   1.5607690  16.1641467  )
        18           O1  tau(  18) = (   1.9729656   1.5430890  16.0903287  )
        19           Ti1 tau(  19) = (   3.2372663   3.0309179  15.7728032  )
        20           Ti1 tau(  20) = (   6.5553692   1.3539605  15.8053163  )
        21           O1  tau(  21) = (   3.2904802   0.0005063   4.7018136  )
        22           O1  tau(  22) = (   6.5123495   0.2165906  17.2215032  )
        23           O1  tau(  23) = (   1.3043587   1.4918075   6.0039043  )
        24           O1  tau(  24) = (   5.2767064   1.4903225   6.0039473  )
        25           Ti1 tau(  25) = (   0.0000382   5.9609847   6.0000000  )
        26           Ti1 tau(  26) = (   3.2902200   4.4714249   6.0002472  )
        27           O1  tau(  27) = (   0.0002396   2.9813036   7.9858123  )
        28           O1  tau(  28) = (   3.2902150   2.9813002   7.3038282  )
        29           O1  tau(  29) = (   4.5938453   4.4726049   9.2879030  )
        30           O1  tau(  30) = (   1.9864658   4.4711199   9.2879459  )
        31           Ti1 tau(  31) = (   3.2891106   5.8743827   9.1763621  )
        32           Ti1 tau(  32) = (   0.0006254   4.4649316   9.2693709  )
        33           O1  tau(  33) = (   3.2699379   2.9911670  11.3762017  )
        34           O1  tau(  34) = (   0.0092240   2.9805883  10.6323155  )
        35           O1  tau(  35) = (   1.2730946   4.4825978  12.6662957  )
        36           O1  tau(  36) = (   5.2742290   4.4829497  12.6320226  )
        37           Ti1 tau(  37) = (   6.5783117   0.0079037  12.5026730  )
        38           Ti1 tau(  38) = (   3.2784283   4.4905194  12.5286134  )
        39           O1  tau(  39) = (   6.5033290   3.0824797  14.9867588  )
        40           O1  tau(  40) = (   3.2824109   3.0350539  13.9807796  )
        41           O1  tau(  41) = (   4.4804250   4.5097483  16.2808085  )
        42           O1  tau(  42) = (   1.9642025   4.5165872  16.2225063  )
        43           Ti1 tau(  43) = (   3.2609991   0.0502580  15.7998297  )
        44           Ti1 tau(  44) = (   6.5501253   4.5826093  16.0954727  )
        45           O1  tau(  45) = (   3.2900926   2.9813045   4.7018136  )
        46           O1  tau(  46) = (   1.3039711   4.4726057   6.0039043  )
        47           O1  tau(  47) = (   5.2763189   4.4711207   6.0039473  )
        48           N1  tau(  48) = (   0.8845045   3.2634721  19.1145209  )
        49           N1  tau(  49) = (   6.3504243   3.3997271  18.1887592  )
        50           C1  tau(  50) = (   1.2927081   4.5631590  19.6429350  )
        51           H1  tau(  51) = (   0.4658632   5.1329972  20.1056819  )
        52           H1  tau(  52) = (   2.0600825   4.3818216  20.3958833  )
        53           H1  tau(  53) = (   1.7018904   5.1738364  18.8453250  )
        54           H1  tau(  54) = (   0.5628611   2.6866381  19.8888112  )
        55           H1  tau(  55) = (   5.6051421   3.9827062  18.5884547  )
        56           H1  tau(  56) = (   5.9567982   2.4624696  18.0937858  )

     number of k points=    10  Fermi-Dirac smearing, width (Ry)=  0.0073
                       cart. coord. in units 2pi/alat
        k(    1) = (   0.0000000   0.0000000   0.0000000), wk =   0.1250000
        k(    2) = (   0.0000000   0.0419351   0.0000000), wk =   0.2500000
        k(    3) = (   0.0000000  -0.0838702   0.0000000), wk =   0.1250000
        k(    4) = (   0.0379955   0.0000049   0.0000000), wk =   0.2500000
        k(    5) = (   0.0379955   0.0419400   0.0000000), wk =   0.2500000
        k(    6) = (   0.0379955  -0.0838652   0.0000000), wk =   0.2500000
        k(    7) = (   0.0379955  -0.0419301   0.0000000), wk =   0.2500000
        k(    8) = (  -0.0759910  -0.0000099   0.0000000), wk =   0.1250000
        k(    9) = (  -0.0759910   0.0419252   0.0000000), wk =   0.2500000
        k(   10) = (  -0.0759910  -0.0838800   0.0000000), wk =   0.1250000

     Initial potential from superposition of free atoms

     starting charge  381.99914, renormalised to  398.00000

     negative rho (up, down):  1.416E-02 0.000E+00

     %%%%%%%%%%%%%%%%%%%%%%%%%%%%%%%%%%%%%%%%%%%%%%%%%%%%%%%%%%%%%%%%%%%%%%%%
     %                                                                      %
     % You are using vdW-DF, which was implemented by the Thonhauser group. %
     % Please cite the following two papers that made this development      %
     % possible and the two reviews that describe the various versions:     %
     %                                                                      %
     %   T. Thonhauser et al., PRL 115, 136402 (2015).                      %
     %   T. Thonhauser et al., PRB 76, 125112 (2007).                       %
     %   K. Berland et al., Rep. Prog. Phys. 78, 066501 (2015).             %
     %   D.C. Langreth et al., J. Phys.: Condens. Matter 21, 084203 (2009). %
     %                                                                      %
     %                                                                      %
     % If you are calculating the stress with vdW-DF, please also cite:     %
     %                                                                      %
     %   R. Sabatini et al., J. Phys.: Condens. Matter 24, 424209 (2012).   %
     %                                                                      %
     %%%%%%%%%%%%%%%%%%%%%%%%%%%%%%%%%%%%%%%%%%%%%%%%%%%%%%%%%%%%%%%%%%%%%%%%

     Adding external electric field

     Computed dipole along edir(3) :
        Dipole              -11.7171 Ry au,        -29.7818 Debye
        Dipole field         -0.0221 Ry au,

        Potential amp.        2.0497 Ry
        Total length         46.3494 bohr

     Starting wfcs are  302 atomic wfcs
  @ DRIVER MODE: Message from server: STATUS
  @ DRIVER MODE: Message from server: POSDATA
  @ DRIVER MODE: Reading and sharing cell
  @ DRIVER MODE: Reading and sharing positions
  @ DRIVER MODE: Received positions

     Self-consistent Calculation

     iteration #  1     ecut=    29.40 Ry     beta= 0.05
     Davidson diagonalization with overlap
     c_bands:  3 eigenvalues not converged
     c_bands:  1 eigenvalues not converged
     c_bands:  1 eigenvalues not converged
     c_bands:  4 eigenvalues not converged
     c_bands:  1 eigenvalues not converged
     c_bands:  4 eigenvalues not converged
     c_bands:  5 eigenvalues not converged
     c_bands:  2 eigenvalues not converged
     ethr =  1.00E-05,  avg # of iterations = 21.9

[...]

     total energy              =   -2424.57241265 Ry
     estimated scf accuracy    <    5830.28969000 Ry

     iteration #  2     ecut=    29.40 Ry     beta= 0.05
     Davidson diagonalization with overlap
     ethr =  1.00E-02,  avg # of iterations = 22.7

[...]

     iteration # 85     ecut=    29.40 Ry     beta= 0.05
     Davidson diagonalization with overlap
     c_bands:  2 eigenvalues not converged
     ethr =  1.18E-10,  avg # of iterations = 10.1

[...]

     total energy              =   -2942.84391736 Ry
     estimated scf accuracy    <       0.00000012 Ry

     iteration # 86     ecut=    29.40 Ry     beta= 0.05
     Davidson diagonalization with overlap
     ethr =  3.12E-11,  avg # of iterations =  9.5

     negative rho (up, down):  1.512E-02 0.000E+00

     Adding external electric field

     Computed dipole along edir(3) :
        Dipole                1.4940 Ry au,          3.7973 Debye
        Dipole field          0.0028 Ry au,

        Potential amp.       -0.2613 Ry
        Total length         46.3494 bohr

     End of self-consistent calculation

          k = 0.0000 0.0000 0.0000 ( 18029 PWs)   bands (ev):

   -55.2029 -55.1657 -55.1550 -55.1260 -55.1209 -55.0840 -55.0811 -55.0462
   -55.0270 -55.0139 -54.9927 -54.9877 -54.9540 -54.8572 -54.1872 -54.1532
   -31.7692 -31.6528 -31.6479 -31.5692 -31.5163 -31.5151 -31.5123 -31.4938
   -31.4440 -31.4403 -31.4125 -31.4103 -31.4000 -31.3830 -31.3701 -31.3643
   -31.3573 -31.3475 -31.3402 -31.3234 -31.3076 -31.3049 -31.2729 -31.2692
   -31.2587 -31.2579 -31.2391 -31.2298 -31.2122 -31.2116 -31.2072 -31.1866
   -31.1863 -31.1831 -31.1763 -31.1737 -31.1404 -31.1306 -31.1160 -31.0991
   -31.0705 -31.0511 -30.5969 -30.5021 -30.4801 -30.4131 -30.3263 -30.2156
   -17.9618 -16.0364 -15.7740 -15.6287 -15.5165 -15.4051 -15.2857 -15.2549
   -15.1351 -15.0590 -14.9251 -14.8988 -14.8763 -14.8528 -14.8410 -14.8283
   -14.7525 -14.7460 -14.7301 -14.7017 -14.6998 -14.6546 -14.6449 -14.6055
   -14.5805 -14.5592 -14.4547 -14.3664 -14.2924 -14.0758 -13.4391 -12.6901
   -12.5726  -9.7034  -6.5983  -6.0899  -4.5843  -3.3746  -3.2411  -3.2266
    -3.1393  -3.1050  -3.0972  -2.9992  -2.9503  -2.7932  -2.6507  -2.6252
    -2.4941  -2.4191  -2.4027  -2.3783  -2.2485  -2.2134  -2.1622  -2.1232
    -2.0639  -2.0337  -2.0097  -1.9941  -1.9629  -1.9538  -1.9288  -1.8398
    -1.7801  -1.6873  -1.6699  -1.6026  -1.5945  -1.5618  -1.5407  -1.4954
    -1.4851  -1.4355  -1.4282  -1.4156  -1.3957  -1.2674  -1.2242  -1.1143
    -1.0532  -0.9655  -0.8447  -0.8046  -0.7907  -0.6999  -0.6910  -0.6592
    -0.5826  -0.5795  -0.5488  -0.4405  -0.3756  -0.3120  -0.2531  -0.2267
    -0.1935  -0.1162  -0.0254   0.0108   0.0276   0.0506   0.1509   0.1859
     0.2416   0.3084   0.3199   0.3332   0.4127   0.4540   0.5292   0.5657
     0.5834   0.6721   0.6985   0.7264   0.7269   0.7647   0.7790   0.8186
     0.8673   0.8941   0.9805   1.0396   1.1016   1.3463   1.3988   1.4049
     1.7310   1.7388   1.8352   2.0187   2.4118   2.4602   3.8936   3.9624
     4.0382   4.0431   4.0656   4.1294   4.3673   4.3904   4.3993   4.4015
     4.4281

[...]

          k = 0.0380-0.0419 0.0000 ( 17876 PWs)   bands (ev):

[...]

          k =-0.0760-0.0000 0.0000 ( 17886 PWs)   bands (ev):

[...]

          k =-0.0760-0.0839 0.0000 ( 17948 PWs)   bands (ev):

   -55.1891 -55.1793 -55.1380 -55.1377 -55.1247 -55.0797 -55.0667 -55.0606
   -55.0182 -55.0112 -55.0081 -54.9712 -54.9707 -54.8584 -54.1703 -54.1700
   -31.5773 -31.5762 -31.5695 -31.4848 -31.4630 -31.4628 -31.4598 -31.4292
   -31.4292 -31.4138 -31.4029 -31.4013 -31.3925 -31.3668 -31.3575 -31.3446
   -31.3437 -31.3399 -31.3366 -31.3308 -31.3290 -31.3230 -31.2840 -31.2807
   -31.2805 -31.2791 -31.2614 -31.2601 -31.2577 -31.2574 -31.2527 -31.2443
   -31.2413 -31.2243 -31.2210 -31.2049 -31.2042 -31.2014 -31.1519 -31.1515
   -31.1270 -31.0749 -30.4929 -30.4926 -30.4095 -30.4092 -30.3698 -30.3696
   -17.9586 -15.5614 -15.4314 -15.4023 -15.2458 -15.2097 -15.1763 -15.1630
   -15.0421 -15.0049 -14.9800 -14.9707 -14.9531 -14.9127 -14.9071 -14.9002
   -14.8297 -14.8105 -14.8063 -14.7840 -14.7257 -14.7167 -14.7128 -14.7053
   -14.6547 -14.6511 -14.5705 -14.5603 -14.5571 -14.3772 -13.4425 -12.6740
   -12.6740  -9.7196  -6.5824  -6.0899  -4.5627  -3.2127  -2.9534  -2.6938
    -2.6890  -2.6609  -2.4598  -2.3971  -2.3664  -2.3610  -2.2636  -2.2270
    -2.2026  -2.1990  -2.1337  -2.1190  -2.0882  -2.0581  -2.0419  -2.0281
    -2.0124  -1.9983  -1.9728  -1.9353  -1.9273  -1.9190  -1.8872  -1.8654
    -1.8424  -1.8201  -1.8066  -1.7882  -1.7622  -1.7398  -1.6031  -1.5714
    -1.5009  -1.4582  -1.4146  -1.4103  -1.3386  -1.3021  -1.2520  -1.2398
    -1.2227  -1.0830  -1.0245  -0.9738  -0.9538  -0.9428  -0.8138  -0.7997
    -0.7267  -0.7089  -0.6926  -0.6179  -0.5671  -0.5288  -0.5152  -0.4220
    -0.4064  -0.3401  -0.2380  -0.2153  -0.2013  -0.1607  -0.1577  -0.1104
    -0.1034  -0.0193   0.0250   0.0600   0.0709   0.1066   0.2995   0.3154
     0.3255   0.4785   0.4943   0.6360   0.6796   0.7460   0.8049   0.8438
     0.9055   0.9427   1.0503   1.0847   1.1006   1.1081   1.1702   1.1821
     1.2449   1.2557   2.1913   2.1919   2.2801   2.2803   4.0396   4.1470
     4.1546   4.1962   4.3161   4.3465   4.4086   4.4359   4.4776   4.4807
     4.5408

     the Fermi energy is     3.9570 ev

!    total energy              =   -2942.84392448 Ry
     estimated scf accuracy    <       0.00000003 Ry
     smearing contrib. (-TS)   =      -0.03707656 Ry
     internal energy E=F+TS    =   -2942.80684792 Ry

     The total energy is F=E-TS. E is the sum of the following terms:
     one-electron contribution =  -23366.61671293 Ry
     hartree contribution      =   11777.47686956 Ry
     xc contribution           =    -487.73698408 Ry
     ewald contribution        =    9134.06576763 Ry
     electric field correction =       0.00421189 Ry

     convergence has been achieved in  86 iterations

     Forces acting on atoms (cartesian axes, Ry/au):

     atom    1 type  1   force =     0.00017305   -0.00033317    0.09328109
     atom    2 type  1   force =    -0.00006054   -0.00042119   -0.17822764
     atom    3 type  2   force =     0.00002719   -0.00032218   -0.02003455
     atom    4 type  2   force =     0.00002188   -0.00183293    0.05923842
     atom    5 type  2   force =    -0.01045938   -0.00026627    0.00863966
     atom    6 type  2   force =     0.01147351    0.00040523    0.00645388
     atom    7 type  1   force =    -0.00099902    0.00212834   -0.01399744
     atom    8 type  1   force =     0.00081786   -0.00094262   -0.00573486
     atom    9 type  2   force =    -0.00009996    0.00012639   -0.00002135
     atom   10 type  2   force =    -0.00185318    0.00411318    0.00026822
     atom   11 type  2   force =    -0.00006543   -0.00064221    0.00028239
     atom   12 type  2   force =    -0.00001149   -0.00041315    0.00053764
     atom   13 type  1   force =     0.00003916    0.00009991    0.00031509
     atom   14 type  1   force =    -0.00037354    0.00000344    0.00007150
     atom   15 type  2   force =     0.00052222    0.00023411   -0.00032837
     atom   16 type  2   force =     0.00032108   -0.00035179   -0.00007088
     atom   17 type  2   force =    -0.00058414   -0.00001706   -0.00001510
     atom   18 type  2   force =     0.00053640   -0.00018545    0.00002771
     atom   19 type  1   force =    -0.00001873   -0.00052638    0.00021260
     atom   20 type  1   force =     0.00068623    0.00010415    0.00093016
     atom   21 type  2   force =     0.00012301   -0.00012610    0.10402782
     atom   22 type  2   force =    -0.00039013    0.00022378   -0.00029057
     atom   23 type  2   force =    -0.07026267   -0.00021903   -0.02685482
     atom   24 type  2   force =     0.07025405    0.00021843   -0.02688018
     atom   25 type  1   force =     0.00008011   -0.00032039    0.09259581
     atom   26 type  1   force =    -0.00003026   -0.00059507   -0.17834833
     atom   27 type  2   force =     0.00012994   -0.00016671   -0.01908882
     atom   28 type  2   force =     0.00004919   -0.00163394    0.05859597
     atom   29 type  2   force =    -0.01106049   -0.00056083    0.00932245
     atom   30 type  2   force =     0.01198147   -0.00002220    0.00721029
     atom   31 type  1   force =    -0.00092992    0.00646422   -0.01506320
     atom   32 type  1   force =     0.00086145    0.00101547   -0.00587461
     atom   33 type  2   force =     0.00017313   -0.00057236   -0.00005066
     atom   34 type  2   force =    -0.00185813   -0.00052305   -0.00049143
     atom   35 type  2   force =    -0.00044990    0.00006398   -0.00043742
     atom   36 type  2   force =     0.00035100   -0.00011699    0.00017746
     atom   37 type  1   force =    -0.00051580   -0.00025499    0.00018617
     atom   38 type  1   force =    -0.00004678   -0.00014681   -0.00009465
     atom   39 type  2   force =     0.00029878   -0.00059996   -0.00000995
     atom   40 type  2   force =    -0.00060315   -0.00051152    0.00025068
     atom   41 type  2   force =    -0.00022684   -0.00073878   -0.00068887
     atom   42 type  2   force =     0.00046417   -0.00010098   -0.00012549
     atom   43 type  1   force =     0.00022983   -0.00021845   -0.00017804
     atom   44 type  1   force =     0.00054536    0.00006917    0.00082088
     atom   45 type  2   force =     0.00013469   -0.00014156    0.10398443
     atom   46 type  2   force =    -0.07026642   -0.00016448   -0.02682779
     atom   47 type  2   force =     0.07023580    0.00025781   -0.02688402
     atom   48 type  3   force =     0.00032346    0.00260309    0.00025309
     atom   49 type  3   force =    -0.00025233   -0.00104446   -0.00008757
     atom   50 type  4   force =    -0.00254826    0.00191081    0.00166211
     atom   51 type  5   force =     0.00263544   -0.00282878   -0.00136195
     atom   52 type  5   force =     0.00019116   -0.00016585   -0.00013266
     atom   53 type  5   force =     0.00124577    0.00007761   -0.00145877
     atom   54 type  5   force =    -0.00004331   -0.00179892    0.00073755
     atom   55 type  5   force =     0.00014109   -0.00055969   -0.00014486
     atom   56 type  5   force =    -0.00105771    0.00026722   -0.00027822

     Total force =     0.366351     Total SCF correction =     0.000420
  @ DRIVER MODE: Message from server: STATUS
  @ DRIVER MODE: Message from server: GETFORCE
  @ DRIVER MODE: Returning v,forces,stress,ensemble

     Writing output data file ./calc.save/
  @ DRIVER MODE: Message from server: EXIT
  @ DRIVE MODE: Exiting

     General routines

     Parallel routines

   This run was terminated on:   5:21: 9   9Sep2021

   JOB DONE.