     Program PWSCF v.6.7GPU starts on 23Sep2021 at  6:11:25

     R & G space division:  proc/nbgrp/npool/nimage =      10
     Reading input from /storage/home/hcoda1/3/ntian30/research/carbon/CxH_vib/H2O_calc/ads_slab/CH3NNH3HO_a/out_0040/pw.inp
Warning: card &CELL ignored
Warning: card   CELL_DYNAMICS='IPI', ignored
Warning: card / ignored

     Current dimensions of program PWSCF are:
     Max number of different atomic species (ntypx) = 10
     Max number of k-points (npk) =  40000
     Max angular momentum in pseudopotentials (lmaxx) =  3
     Presently no symmetry can be used with electric field

     Message from routine cell_base_init:
     DEPRECATED: use true lattice parameter, not A to a.u. conversion factor

     IMPORTANT: XC functional enforced from input :
     Exchange-correlation= BEEF-VDW
                           (   1   4  43  14   2   0   0)
     Any further DFT definition will be discarded
     Please, verify this is what you really want

  @ DRIVER MODE: Connecting to
 qe_1139763_2937318.sched-torque.pace.gatech.eduque0wk18_scratch
  using UNIX socket
  @ DRIVER MODE: Message from server: STATUS
  @ DRIVER MODE: Message from server: INIT
  @ DRIVER MODE: Receiving replica           0          -1
  @ DRIVER MODE: Receiving encoded integer          25
  @ DRIVER MODE:  SCF:  T  FORCE:  T  STRESS:  F  VC:  F  ENSEMBLE:  F
  @ DRIVER MODE:  SCF:  T  FORCE:  T  STRESS:  F  VC:  F  ENSEMBLE:  F

     Using Slab Decomposition

     bravais-lattice index     =            0
     lattice parameter (alat)  =       1.8897  a.u.
     unit-cell volume          =    6658.9804 (a.u.)^3
     number of atoms/cell      =           58
     number of atomic types    =            5
     number of electrons       =       405.00
     number of Kohn-Sham states=          212
     kinetic-energy cutoff     =      29.3995  Ry
     charge density cutoff     =     293.9946  Ry
     scf convergence threshold =      7.3E-08
     mixing beta               =       0.0500
     number of iterations used =            8  plain     mixing
     Exchange-correlation= BEEF-VDW
                           (   1   4  43  14   2   0   0)

     celldm(1)=   1.889726  celldm(2)=   0.000000  celldm(3)=   0.000000
     celldm(4)=   0.000000  celldm(5)=   0.000000  celldm(6)=   0.000000

     crystal axes: (cart. coord. in units of alat)
               a(1) = (   6.579727   0.000000   0.000000 )
               a(2) = (  -0.000775   5.961596   0.000000 )
               a(3) = (   0.000000   0.000000  25.155947 )

     reciprocal axes: (cart. coord. in units 2 pi/alat)
               b(1) = (  0.151982  0.000020  0.000000 )
               b(2) = (  0.000000  0.167740  0.000000 )
               b(3) = (  0.000000  0.000000  0.039752 )

     PseudoPot. # 1 for Ti read from file:
     /storage/coda1/p-amedford6/0/shared/rich_project_chbe-medford/medford-share/data/pseudos_module/espresso/nninc/pbe/van/Ti.UPF
     MD5 check sum: 8e4df49b7f0d34bbd5052bf3f5ea0213
     Pseudo is Ultrasoft, Zval = 12.0
     Generated by new atomic code, or converted to UPF format
     Using radial grid of  851 points,  6 beta functions with:
                l(1) =   0
                l(2) =   0
                l(3) =   1
                l(4) =   1
                l(5) =   2
                l(6) =   2
     Q(r) pseudized with  8 coefficients,  rinner =    1.000   1.000   1.000
                                                       1.000   1.000

     PseudoPot. # 2 for O  read from file:
     /storage/coda1/p-amedford6/0/shared/rich_project_chbe-medford/medford-share/data/pseudos_module/espresso/nninc/pbe/van/O.UPF
     MD5 check sum: 78c19812648e8988a0fe644b0f25305e
     Pseudo is Ultrasoft, Zval =  6.0
     Generated by new atomic code, or converted to UPF format
     Using radial grid of  737 points,  4 beta functions with:
                l(1) =   0
                l(2) =   0
                l(3) =   1
                l(4) =   1
     Q(r) pseudized with  8 coefficients,  rinner =    0.800   0.800   0.800

     PseudoPot. # 3 for N  read from file:
     /storage/coda1/p-amedford6/0/shared/rich_project_chbe-medford/medford-share/data/pseudos_module/espresso/nninc/pbe/van/N.UPF
     MD5 check sum: 90d10febe142ad51ac9d5be1deb811c4
     Pseudo is Ultrasoft, Zval =  5.0
     Generated by new atomic code, or converted to UPF format
     Using radial grid of  729 points,  4 beta functions with:
                l(1) =   0
                l(2) =   0
                l(3) =   1
                l(4) =   1
     Q(r) pseudized with  8 coefficients,  rinner =    0.800   0.800   0.800

     PseudoPot. # 4 for C  read from file:
     /storage/coda1/p-amedford6/0/shared/rich_project_chbe-medford/medford-share/data/pseudos_module/espresso/nninc/pbe/van/C.UPF
     MD5 check sum: 1a69bf6b8db32088f5b2163dbdb77a27
     Pseudo is Ultrasoft, Zval =  4.0
     Generated by new atomic code, or converted to UPF format
     Using radial grid of  721 points,  4 beta functions with:
                l(1) =   0
                l(2) =   0
                l(3) =   1
                l(4) =   1
     Q(r) pseudized with  8 coefficients,  rinner =    0.800   0.800   0.800

     PseudoPot. # 5 for H  read from file:
     /storage/coda1/p-amedford6/0/shared/rich_project_chbe-medford/medford-share/data/pseudos_module/espresso/nninc/pbe/van/H.UPF
     MD5 check sum: b5ee9d7bfd3a09ee7748110bda690ff7
     Pseudo is Ultrasoft, Zval =  1.0
     Generated by new atomic code, or converted to UPF format
     Using radial grid of  615 points,  1 beta functions with:
                l(1) =   0
     Q(r) pseudized with  8 coefficients,  rinner =    0.800

     atomic species   valence    mass     pseudopotential
        Ti1           12.00    47.86700     Ti( 1.00)
        O1             6.00    15.99900     O ( 1.00)
        N1             5.00    14.00700     N ( 1.00)
        C1             4.00    12.01100     C ( 1.00)
        H1             1.00     1.00800     H ( 1.00)

     No symmetry found

   Cartesian axes

     site n.     atom                  positions (alat units)
         1           Ti1 tau(   1) = (   0.0004258   2.9801865   6.0000000  )
         2           Ti1 tau(   2) = (   3.2906075   1.4906267   6.0002472  )
         3           O1  tau(   3) = (   0.0006271   0.0005054   7.9858123  )
         4           O1  tau(   4) = (   3.2906025   0.0005020   7.3038282  )
         5           O1  tau(   5) = (   4.5942328   1.4918067   9.2879030  )
         6           O1  tau(   6) = (   1.9868534   1.4903216   9.2879459  )
         7           Ti1 tau(   7) = (   3.2907910   2.8959150   9.1758416  )
         8           Ti1 tau(   8) = (   0.0015273   1.4827037   9.2680791  )
         9           O1  tau(   9) = (   3.2949357   5.9297256  11.2770696  )
        10           O1  tau(  10) = (   0.0116148   5.9584955  10.6183126  )
        11           O1  tau(  11) = (   1.2901270   1.4659759  12.6218969  )
        12           O1  tau(  12) = (   5.3029181   1.4690452  12.6271982  )
        13           Ti1 tau(  13) = (   6.5637346   3.0486055  12.7052252  )
        14           Ti1 tau(  14) = (   3.3207578   1.2909511  12.6638180  )
        15           O1  tau(  15) = (   0.0081040   5.9567798  14.6379979  )
        16           O1  tau(  16) = (   3.2944190   0.0149942  13.8863584  )
        17           O1  tau(  17) = (   4.5334936   1.5584448  16.0391558  )
        18           O1  tau(  18) = (   2.0244848   1.5379376  16.0854781  )
        19           Ti1 tau(  19) = (   3.2579824   3.0118882  15.6538344  )
        20           Ti1 tau(  20) = (   6.4918182   1.5199401  15.8876453  )
        21           O1  tau(  21) = (   3.2904802   0.0005063   4.7018136  )
        22           O1  tau(  22) = (   6.5166677   0.0216046  17.1949088  )
        23           O1  tau(  23) = (   1.3043587   1.4918075   6.0039043  )
        24           O1  tau(  24) = (   5.2767064   1.4903225   6.0039473  )
        25           Ti1 tau(  25) = (   0.0000382   5.9609847   6.0000000  )
        26           Ti1 tau(  26) = (   3.2902200   4.4714249   6.0002472  )
        27           O1  tau(  27) = (   0.0002396   2.9813036   7.9858123  )
        28           O1  tau(  28) = (   3.2902150   2.9813002   7.3038282  )
        29           O1  tau(  29) = (   4.5938453   4.4726049   9.2879030  )
        30           O1  tau(  30) = (   1.9864658   4.4711199   9.2879459  )
        31           Ti1 tau(  31) = (   3.2891106   5.8743827   9.1763621  )
        32           Ti1 tau(  32) = (   0.0006254   4.4649316   9.2693709  )
        33           O1  tau(  33) = (   3.2959121   3.0085915  11.2438341  )
        34           O1  tau(  34) = (   0.0092240   2.9805883  10.6323155  )
        35           O1  tau(  35) = (   1.2849535   4.4488585  12.6204231  )
        36           O1  tau(  36) = (   5.2878833   4.4365118  12.6243745  )
        37           Ti1 tau(  37) = (   0.0500071   0.0677371  12.6535751  )
        38           Ti1 tau(  38) = (   3.3027700   4.3871210  12.4110406  )
        39           O1  tau(  39) = (   6.5685058   2.9535060  14.6525041  )
        40           O1  tau(  40) = (   3.2696111   2.9719761  13.8704823  )
        41           O1  tau(  41) = (   4.5209813   4.4409030  16.0696701  )
        42           O1  tau(  42) = (   2.0131998   4.4599944  16.0916020  )
        43           Ti1 tau(  43) = (   3.2138439   0.0230873  16.3295100  )
        44           Ti1 tau(  44) = (   6.5234412   4.6200706  16.0754176  )
        45           O1  tau(  45) = (   3.2900926   2.9813045   4.7018136  )
        46           O1  tau(  46) = (   1.3039711   4.4726057   6.0039043  )
        47           O1  tau(  47) = (   5.2763189   4.4711207   6.0039473  )
        48           N1  tau(  48) = (   0.0251376   2.9556585  17.3246074  )
        49           N1  tau(  49) = (   6.3772498   2.5461882  22.2688425  )
        50           C1  tau(  50) = (   0.2111848   2.8484408  18.7116211  )
        51           H1  tau(  51) = (   0.3920758   3.8074029  19.2116250  )
        52           H1  tau(  52) = (   5.9044209   2.3708277  19.1722604  )
        53           H1  tau(  53) = (   1.0233575   2.1342068  18.9364007  )
        54           H1  tau(  54) = (   6.0930523   3.2389774  22.9628454  )
        55           H1  tau(  55) = (   0.2277240   1.7755739  22.7685771  )
        56           H1  tau(  56) = (   0.5282093   2.9785696  21.7129995  )
        57           O1  tau(  57) = (   3.3838229   0.0530270  18.1522483  )
        58           H1  tau(  58) = (   4.2718821   5.8932998  18.5223319  )

     number of k points=    10  Fermi-Dirac smearing, width (Ry)=  0.0073
                       cart. coord. in units 2pi/alat
        k(    1) = (   0.0000000   0.0000000   0.0000000), wk =   0.1250000
        k(    2) = (   0.0000000   0.0419351   0.0000000), wk =   0.2500000
        k(    3) = (   0.0000000  -0.0838702   0.0000000), wk =   0.1250000
        k(    4) = (   0.0379955   0.0000049   0.0000000), wk =   0.2500000
        k(    5) = (   0.0379955   0.0419400   0.0000000), wk =   0.2500000
        k(    6) = (   0.0379955  -0.0838652   0.0000000), wk =   0.2500000
        k(    7) = (   0.0379955  -0.0419301   0.0000000), wk =   0.2500000
        k(    8) = (  -0.0759910  -0.0000099   0.0000000), wk =   0.1250000
        k(    9) = (  -0.0759910   0.0419252   0.0000000), wk =   0.2500000
        k(   10) = (  -0.0759910  -0.0838800   0.0000000), wk =   0.1250000

     Initial potential from superposition of free atoms

     starting charge  388.99913, renormalised to  405.00000

     negative rho (up, down):  7.824E-03 0.000E+00

     %%%%%%%%%%%%%%%%%%%%%%%%%%%%%%%%%%%%%%%%%%%%%%%%%%%%%%%%%%%%%%%%%%%%%%%%
     %                                                                      %
     % You are using vdW-DF, which was implemented by the Thonhauser group. %
     % Please cite the following two papers that made this development      %
     % possible and the two reviews that describe the various versions:     %
     %                                                                      %
     %   T. Thonhauser et al., PRL 115, 136402 (2015).                      %
     %   T. Thonhauser et al., PRB 76, 125112 (2007).                       %
     %   K. Berland et al., Rep. Prog. Phys. 78, 066501 (2015).             %
     %   D.C. Langreth et al., J. Phys.: Condens. Matter 21, 084203 (2009). %
     %                                                                      %
     %                                                                      %
     % If you are calculating the stress with vdW-DF, please also cite:     %
     %                                                                      %
     %   R. Sabatini et al., J. Phys.: Condens. Matter 24, 424209 (2012).   %
     %                                                                      %
     %%%%%%%%%%%%%%%%%%%%%%%%%%%%%%%%%%%%%%%%%%%%%%%%%%%%%%%%%%%%%%%%%%%%%%%%

     Adding external electric field

     Computed dipole along edir(3) :
        Dipole              -15.1933 Ry au,        -38.6176 Debye
        Dipole field         -0.0287 Ry au,

        Potential amp.        2.6578 Ry
        Total length         46.3494 bohr

     Starting wfcs are  307 atomic wfcs
  @ DRIVER MODE: Message from server: STATUS
  @ DRIVER MODE: Message from server: POSDATA
  @ DRIVER MODE: Reading and sharing cell
  @ DRIVER MODE: Reading and sharing positions
  @ DRIVER MODE: Received positions

     Self-consistent Calculation

     iteration #  1     ecut=    29.40 Ry     beta= 0.05
     Davidson diagonalization with overlap
     c_bands:  4 eigenvalues not converged
     c_bands:  1 eigenvalues not converged
     c_bands:  1 eigenvalues not converged
     c_bands:  2 eigenvalues not converged
     c_bands:  1 eigenvalues not converged
     c_bands:  2 eigenvalues not converged
     ethr =  1.00E-05,  avg # of iterations = 31.5

[...]

     total energy              =   -2295.09166791 Ry
     estimated scf accuracy    <    7743.71978512 Ry

     iteration #  2     ecut=    29.40 Ry     beta= 0.05
     Davidson diagonalization with overlap
     ethr =  1.00E-02,  avg # of iterations = 22.6

[...]

     iteration # 46     ecut=    29.40 Ry     beta= 0.05
     Davidson diagonalization with overlap
     c_bands:  1 eigenvalues not converged
     ethr =  4.15E-06,  avg # of iterations = 10.1

[...]

     total energy              =   -2976.42347523 Ry
     estimated scf accuracy    <       0.00000009 Ry

     iteration # 84     ecut=    29.40 Ry     beta= 0.05
     Davidson diagonalization with overlap
     ethr =  2.10E-11,  avg # of iterations =  5.1

     negative rho (up, down):  9.578E-03 0.000E+00

     Adding external electric field

     Computed dipole along edir(3) :
        Dipole                0.6330 Ry au,          1.6089 Debye
        Dipole field          0.0012 Ry au,

        Potential amp.       -0.1107 Ry
        Total length         46.3494 bohr

     End of self-consistent calculation

          k = 0.0000 0.0000 0.0000 ( 18029 PWs)   bands (ev):

   -56.5658 -56.5322 -55.6414 -55.6063 -55.4257 -55.3591 -55.2307 -55.1170
   -55.0831 -55.0354 -55.0035 -54.9690 -54.9109 -54.8172 -54.7458 -54.6137
   -32.9845 -32.8363 -32.8082 -32.7452 -32.6550 -32.6116 -32.1232 -31.9005
   -31.8617 -31.8402 -31.7856 -31.7778 -31.7525 -31.6590 -31.6387 -31.5940
   -31.5623 -31.5464 -31.5225 -31.5102 -31.5048 -31.4946 -31.4641 -31.4627
   -31.4395 -31.4208 -31.3555 -31.3209 -31.2987 -31.2927 -31.2406 -31.2330
   -31.2162 -31.1944 -31.1818 -31.1666 -31.1594 -31.1292 -31.1237 -31.0919
   -31.0475 -31.0030 -31.0021 -30.9809 -30.9479 -30.8879 -30.8512 -30.8008
   -16.6691 -16.1111 -16.0877 -15.8823 -15.7598 -15.7545 -15.7113 -15.6426
   -15.4734 -15.4048 -15.3762 -15.3151 -15.1709 -15.0552 -14.9580 -14.7782
   -14.7045 -14.6993 -14.6804 -14.6729 -14.6560 -14.6351 -14.5761 -14.5176
   -14.4752 -14.4103 -14.3668 -14.2208 -14.0202 -13.9950 -13.9279 -13.6144
   -13.5075 -13.5028  -7.7376  -4.2446  -4.0318  -3.9789  -3.6983  -3.5778
    -3.4051  -3.2526  -3.2020  -3.1439  -3.0846  -3.0752  -2.9276  -2.9259
    -2.9141  -2.9071  -2.8291  -2.7704  -2.7056  -2.6187  -2.6031  -2.5085
    -2.4618  -2.3025  -2.2765  -2.1755  -2.1034  -2.0980  -2.0317  -2.0089
    -1.9617  -1.9166  -1.9072  -1.8725  -1.8289  -1.7821  -1.7636  -1.6524
    -1.6449  -1.5798  -1.5733  -1.5506  -1.4372  -1.4172  -1.3473  -1.2021
    -1.1808  -1.1775  -1.1303  -1.1130  -1.0313  -0.9352  -0.8680  -0.8414
    -0.7853  -0.6968  -0.6501  -0.6284  -0.5559  -0.5364  -0.4623  -0.4187
    -0.4056  -0.3852  -0.3432  -0.2287  -0.1419  -0.1091  -0.0552  -0.0299
     0.0028   0.0298   0.0489   0.0976   0.1673   0.2532   0.2742   0.4129
     0.4650   0.5018   0.5774   0.6117   0.6181   0.7073   0.7388   0.7684
     0.8149   0.8896   0.9041   0.9050   0.9641   1.0481   1.1028   1.1570
     1.1670   1.2031   1.2113   1.2621   1.3507   1.3713   1.4406   1.4956
     1.8195   1.8818   2.4840   2.7286   2.9001   3.1769   3.3689   3.6723
     3.7146   3.7324   3.7326   4.1534

[...]

          k = 0.0380-0.0419 0.0000 ( 17876 PWs)   bands (ev):

[...]

          k =-0.0760-0.0000 0.0000 ( 17886 PWs)   bands (ev):

[...]

          k =-0.0760-0.0839 0.0000 ( 17948 PWs)   bands (ev):

   -56.5496 -56.5483 -55.6290 -55.6185 -55.4210 -55.3637 -55.2299 -55.1006
   -55.0994 -55.0305 -55.0041 -54.9736 -54.9093 -54.8157 -54.7474 -54.6150
   -32.8228 -32.8212 -32.8025 -32.8011 -32.6993 -32.6982 -31.9477 -31.9386
   -31.8235 -31.8182 -31.8123 -31.8106 -31.7204 -31.6776 -31.6523 -31.6392
   -31.5896 -31.5878 -31.5016 -31.4744 -31.4647 -31.4531 -31.4522 -31.3697
   -31.3503 -31.3206 -31.3192 -31.3017 -31.2946 -31.2847 -31.2808 -31.2803
   -31.2520 -31.2330 -31.2152 -31.2003 -31.1964 -31.1585 -31.1582 -31.1023
   -31.0910 -31.0505 -31.0068 -30.9954 -30.9593 -30.9526 -30.8533 -30.8362
   -16.0756 -16.0275 -16.0257 -15.9822 -15.9806 -15.7188 -15.7143 -15.4640
   -15.4347 -15.2554 -15.1515 -15.1274 -15.0840 -15.0423 -14.9712 -14.9170
   -14.8873 -14.8554 -14.8293 -14.7672 -14.7374 -14.6328 -14.6001 -14.5526
   -14.5163 -14.4544 -14.4135 -14.3643 -14.1769 -14.1333 -13.9272 -13.6120
   -13.6114 -13.5276  -7.7368  -4.0443  -3.9773  -3.6894  -3.1586  -3.1035
    -3.0992  -3.0667  -3.0595  -2.9741  -2.8529  -2.8498  -2.7547  -2.6477
    -2.6213  -2.5983  -2.5378  -2.5284  -2.4283  -2.3785  -2.3737  -2.3594
    -2.3231  -2.2935  -2.2870  -2.2271  -2.0886  -2.0726  -2.0233  -1.9693
    -1.8948  -1.8863  -1.8770  -1.8402  -1.7986  -1.7732  -1.7622  -1.7350
    -1.7303  -1.7258  -1.6164  -1.5114  -1.4641  -1.3705  -1.3663  -1.3574
    -1.3195  -1.2924  -1.2590  -1.2525  -1.2237  -1.1436  -1.1175  -1.0477
    -0.9340  -0.9161  -0.8743  -0.8259  -0.7222  -0.7039  -0.6143  -0.5779
    -0.5666  -0.5072  -0.4782  -0.4621  -0.4040  -0.3647  -0.2330  -0.1932
    -0.1816  -0.1647  -0.1423  -0.1061  -0.0449   0.0165   0.0484   0.0504
     0.1549   0.2546   0.3425   0.4117   0.4210   0.4442   0.5307   0.6360
     0.6772   0.7018   0.7502   0.8738   0.9916   1.0212   1.1267   1.1531
     1.1621   1.2630   1.2809   1.2860   1.3060   1.3152   1.3502   1.4167
     1.4775   1.7642   2.3169   3.3211   3.3242   3.3824   3.3881   3.6988
     3.7011   3.8123   3.8174   4.1443

     the Fermi energy is     2.3939 ev

!    total energy              =   -2976.42348157 Ry
     estimated scf accuracy    <       0.00000003 Ry
     smearing contrib. (-TS)   =      -0.01083971 Ry
     internal energy E=F+TS    =   -2976.41264186 Ry

     The total energy is F=E-TS. E is the sum of the following terms:
     one-electron contribution =  -22707.46951239 Ry
     hartree contribution      =   11450.08832708 Ry
     xc contribution           =    -495.33764668 Ry
     ewald contribution        =    8776.30543398 Ry
     electric field correction =       0.00075616 Ry

     convergence has been achieved in  84 iterations

     Forces acting on atoms (cartesian axes, Ry/au):

     atom    1 type  1   force =     0.00002324   -0.00052017    0.12631402
     atom    2 type  1   force =    -0.00009452    0.00041461   -0.15468918
     atom    3 type  2   force =     0.00002730    0.00002676   -0.06829716
     atom    4 type  2   force =     0.00005939   -0.00010835    0.01705237
     atom    5 type  2   force =    -0.00487811   -0.00242613   -0.01324825
     atom    6 type  2   force =     0.00656032   -0.00180449   -0.01376598
     atom    7 type  1   force =    -0.00029200   -0.00661616    0.05921461
     atom    8 type  1   force =     0.00038259    0.00687064    0.10029439
     atom    9 type  2   force =    -0.00002277    0.00066504    0.00130768
     atom   10 type  2   force =    -0.00261388   -0.00001609   -0.06338432
     atom   11 type  2   force =     0.00044604   -0.00068744   -0.00028027
     atom   12 type  2   force =    -0.00086046   -0.00112670   -0.00109305
     atom   13 type  1   force =    -0.00029947    0.00071454   -0.00138233
     atom   14 type  1   force =    -0.00033092   -0.00039464   -0.00023603
     atom   15 type  2   force =    -0.00065740   -0.00038708   -0.00059012
     atom   16 type  2   force =     0.00019588    0.00092766   -0.00030386
     atom   17 type  2   force =     0.00079060    0.00008682   -0.00054866
     atom   18 type  2   force =    -0.00023479   -0.00015644   -0.00003617
     atom   19 type  1   force =    -0.00020598   -0.00011714   -0.00093618
     atom   20 type  1   force =     0.00069127    0.00084374   -0.00047564
     atom   21 type  2   force =     0.00006244    0.00015569    0.09781284
     atom   22 type  2   force =     0.00041387   -0.00032990    0.00142215
     atom   23 type  2   force =    -0.08275605    0.00005483   -0.03312365
     atom   24 type  2   force =     0.08269838    0.00050312   -0.03320059
     atom   25 type  1   force =     0.00006712   -0.00035584    0.12646243
     atom   26 type  1   force =    -0.00011319   -0.00149895   -0.15486639
     atom   27 type  2   force =     0.00011481   -0.00046827   -0.06667156
     atom   28 type  2   force =     0.00004834    0.00167269    0.01199107
     atom   29 type  2   force =    -0.00343156    0.00422258   -0.01622078
     atom   30 type  2   force =     0.00506038    0.00456607   -0.01662233
     atom   31 type  1   force =    -0.00015931    0.00217105    0.04255031
     atom   32 type  1   force =     0.00044359   -0.00893820    0.10086907
     atom   33 type  2   force =    -0.00048496   -0.00013481   -0.00039416
     atom   34 type  2   force =    -0.00212631   -0.00026246   -0.07624939
     atom   35 type  2   force =    -0.00009728    0.00069899    0.00086280
     atom   36 type  2   force =    -0.00049711    0.00051502    0.00038869
     atom   37 type  1   force =     0.00042964    0.00061018   -0.00017112
     atom   38 type  1   force =    -0.00041995   -0.00066846   -0.00067274
     atom   39 type  2   force =     0.00044800   -0.00032661   -0.00041282
     atom   40 type  2   force =     0.00036888   -0.00062858   -0.00002120
     atom   41 type  2   force =     0.00026703    0.00049076   -0.00003746
     atom   42 type  2   force =    -0.00020603   -0.00018548    0.00011713
     atom   43 type  1   force =     0.00051598    0.00136001   -0.00097491
     atom   44 type  1   force =    -0.00025396   -0.00104932    0.00082713
     atom   45 type  2   force =     0.00009270   -0.00001415    0.09766000
     atom   46 type  2   force =    -0.08280412    0.00003726   -0.03317598
     atom   47 type  2   force =     0.08271219    0.00045636   -0.03318250
     atom   48 type  3   force =     0.00001577    0.00039933    0.00038816
     atom   49 type  3   force =    -0.00310048    0.00816982    0.00479494
     atom   50 type  4   force =     0.00075415    0.00036793    0.00059212
     atom   51 type  5   force =    -0.00000422   -0.00029049   -0.00056364
     atom   52 type  5   force =     0.00009690    0.00090933   -0.00055971
     atom   53 type  5   force =    -0.00018163    0.00033041    0.00039890
     atom   54 type  5   force =     0.00300723   -0.00861037   -0.00624373
     atom   55 type  5   force =     0.00013832    0.00091941    0.00111282
     atom   56 type  5   force =     0.00046886   -0.00046796   -0.00028710
     atom   57 type  2   force =    -0.00182453   -0.00056852    0.00035464
     atom   58 type  5   force =     0.00154979   -0.00000145    0.00013070

     Total force =     0.420938     Total SCF correction =     0.000366
  @ DRIVER MODE: Message from server: STATUS
  @ DRIVER MODE: Message from server: GETFORCE
  @ DRIVER MODE: Returning v,forces,stress,ensemble

     Writing output data file ./calc.save/
  @ DRIVER MODE: Message from server: EXIT
  @ DRIVE MODE: Exiting

     General routines

     Parallel routines

   This run was terminated on:   6:32:51  23Sep2021

   JOB DONE.