     Program PWSCF v.6.7GPU starts on 26Jul2021 at 20:53: 5

     R & G space division:  proc/nbgrp/npool/nimage =      16
     Reading input from /storage/home/hcoda1/3/ntian30/research/carbon/15Jul_vib/ads_slab/CH3NHHH_a/out_0003/pw.inp
Warning: card &CELL ignored
Warning: card   CELL_DYNAMICS='IPI', ignored
Warning: card / ignored

     Current dimensions of program PWSCF are:
     Max number of different atomic species (ntypx) = 10
     Max number of k-points (npk) =  40000
     Max angular momentum in pseudopotentials (lmaxx) =  3
     Presently no symmetry can be used with electric field

     Message from routine cell_base_init:
     DEPRECATED: use true lattice parameter, not A to a.u. conversion factor

     IMPORTANT: XC functional enforced from input :
     Exchange-correlation= BEEF-VDW
                           (   1   4  43  14   2   0   0)
     Any further DFT definition will be discarded
     Please, verify this is what you really want

  @ DRIVER MODE: Connecting to
 qe_1139763_2431568.sched-torque.pace.gatech.eduw6q8tskl_scratch
  using UNIX socket
  @ DRIVER MODE: Message from server: STATUS
  @ DRIVER MODE: Message from server: INIT
  @ DRIVER MODE: Receiving replica           0          -1
  @ DRIVER MODE: Receiving encoded integer          25
  @ DRIVER MODE:  SCF:  T  FORCE:  T  STRESS:  F  VC:  F  ENSEMBLE:  F
  @ DRIVER MODE:  SCF:  T  FORCE:  T  STRESS:  F  VC:  F  ENSEMBLE:  F

     Using Slab Decomposition

     bravais-lattice index     =            0
     lattice parameter (alat)  =       1.8897  a.u.
     unit-cell volume          =    6658.9804 (a.u.)^3
     number of atoms/cell      =           55
     number of atomic types    =            5
     number of electrons       =       393.00
     number of Kohn-Sham states=          206
     kinetic-energy cutoff     =      29.3995  Ry
     charge density cutoff     =     293.9946  Ry
     scf convergence threshold =      7.3E-08
     mixing beta               =       0.0500
     number of iterations used =            8  plain     mixing
     Exchange-correlation= BEEF-VDW
                           (   1   4  43  14   2   0   0)

     celldm(1)=   1.889726  celldm(2)=   0.000000  celldm(3)=   0.000000
     celldm(4)=   0.000000  celldm(5)=   0.000000  celldm(6)=   0.000000

     crystal axes: (cart. coord. in units of alat)
               a(1) = (   6.579727   0.000000   0.000000 )
               a(2) = (  -0.000775   5.961596   0.000000 )
               a(3) = (   0.000000   0.000000  25.155947 )

     reciprocal axes: (cart. coord. in units 2 pi/alat)
               b(1) = (  0.151982  0.000020  0.000000 )
               b(2) = (  0.000000  0.167740  0.000000 )
               b(3) = (  0.000000  0.000000  0.039752 )

     PseudoPot. # 1 for Ti read from file:
     /storage/coda1/p-amedford6/0/shared/rich_project_chbe-medford/medford-share/data/pseudos_module/espresso/nninc/pbe/van/Ti.UPF
     MD5 check sum: 8e4df49b7f0d34bbd5052bf3f5ea0213
     Pseudo is Ultrasoft, Zval = 12.0
     Generated by new atomic code, or converted to UPF format
     Using radial grid of  851 points,  6 beta functions with:
                l(1) =   0
                l(2) =   0
                l(3) =   1
                l(4) =   1
                l(5) =   2
                l(6) =   2
     Q(r) pseudized with  8 coefficients,  rinner =    1.000   1.000   1.000
                                                       1.000   1.000

     PseudoPot. # 2 for O  read from file:
     /storage/coda1/p-amedford6/0/shared/rich_project_chbe-medford/medford-share/data/pseudos_module/espresso/nninc/pbe/van/O.UPF
     MD5 check sum: 78c19812648e8988a0fe644b0f25305e
     Pseudo is Ultrasoft, Zval =  6.0
     Generated by new atomic code, or converted to UPF format
     Using radial grid of  737 points,  4 beta functions with:
                l(1) =   0
                l(2) =   0
                l(3) =   1
                l(4) =   1
     Q(r) pseudized with  8 coefficients,  rinner =    0.800   0.800   0.800

     PseudoPot. # 3 for N  read from file:
     /storage/coda1/p-amedford6/0/shared/rich_project_chbe-medford/medford-share/data/pseudos_module/espresso/nninc/pbe/van/N.UPF
     MD5 check sum: 90d10febe142ad51ac9d5be1deb811c4
     Pseudo is Ultrasoft, Zval =  5.0
     Generated by new atomic code, or converted to UPF format
     Using radial grid of  729 points,  4 beta functions with:
                l(1) =   0
                l(2) =   0
                l(3) =   1
                l(4) =   1
     Q(r) pseudized with  8 coefficients,  rinner =    0.800   0.800   0.800

     PseudoPot. # 4 for C  read from file:
     /storage/coda1/p-amedford6/0/shared/rich_project_chbe-medford/medford-share/data/pseudos_module/espresso/nninc/pbe/van/C.UPF
     MD5 check sum: 1a69bf6b8db32088f5b2163dbdb77a27
     Pseudo is Ultrasoft, Zval =  4.0
     Generated by new atomic code, or converted to UPF format
     Using radial grid of  721 points,  4 beta functions with:
                l(1) =   0
                l(2) =   0
                l(3) =   1
                l(4) =   1
     Q(r) pseudized with  8 coefficients,  rinner =    0.800   0.800   0.800

     PseudoPot. # 5 for H  read from file:
     /storage/coda1/p-amedford6/0/shared/rich_project_chbe-medford/medford-share/data/pseudos_module/espresso/nninc/pbe/van/H.UPF
     MD5 check sum: b5ee9d7bfd3a09ee7748110bda690ff7
     Pseudo is Ultrasoft, Zval =  1.0
     Generated by new atomic code, or converted to UPF format
     Using radial grid of  615 points,  1 beta functions with:
                l(1) =   0
     Q(r) pseudized with  8 coefficients,  rinner =    0.800

     atomic species   valence    mass     pseudopotential
        Ti1           12.00    47.86700     Ti( 1.00)
        O1             6.00    15.99900     O ( 1.00)
        N1             5.00    14.00700     N ( 1.00)
        C1             4.00    12.01100     C ( 1.00)
        H1             1.00     1.00800     H ( 1.00)

     Starting magnetic structure
     atomic species   magnetization
        Ti1          0.000
        O1           0.000
        N1           0.040
        C1           0.025
        H1           0.000

     No symmetry found

   Cartesian axes

     site n.     atom                  positions (alat units)
         1           Ti1 tau(   1) = (   0.0004258   2.9801865   6.0000000  )
         2           Ti1 tau(   2) = (   3.2906075   1.4906267   6.0002472  )
         3           O1  tau(   3) = (   0.0006271   0.0005054   7.9858123  )
         4           O1  tau(   4) = (   3.2906025   0.0005020   7.3038282  )
         5           O1  tau(   5) = (   4.5942328   1.4918067   9.2879030  )
         6           O1  tau(   6) = (   1.9868534   1.4903216   9.2879459  )
         7           Ti1 tau(   7) = (   3.2907910   2.8959150   9.1758416  )
         8           Ti1 tau(   8) = (   0.0015273   1.4827037   9.2680791  )
         9           O1  tau(   9) = (   3.2636084   5.9406443  11.4082010  )
        10           O1  tau(  10) = (   0.0116148   5.9584955  10.6183126  )
        11           O1  tau(  11) = (   1.2642105   1.4849797  12.6947803  )
        12           O1  tau(  12) = (   5.2691575   1.4821021  12.6650678  )
        13           Ti1 tau(  13) = (   6.5574234   2.9640577  12.4921542  )
        14           Ti1 tau(  14) = (   3.2619390   1.4709553  12.5527290  )
        15           O1  tau(  15) = (   6.5247406   5.9594380  14.6832748  )
        16           O1  tau(  16) = (   3.2695906   5.9428997  14.0562986  )
        17           O1  tau(  17) = (   4.5175969   1.4707097  16.2986306  )
        18           O1  tau(  18) = (   1.9406912   1.4777946  16.2473769  )
        19           Ti1 tau(  19) = (   3.2491105   2.9422209  15.8109686  )
        20           Ti1 tau(  20) = (   6.5361480   1.3378720  15.9626387  )
        21           O1  tau(  21) = (   3.2904802   0.0005063   4.7018136  )
        22           O1  tau(  22) = (   6.5280740   5.8897732  17.4332532  )
        23           O1  tau(  23) = (   1.3043587   1.4918075   6.0039043  )
        24           O1  tau(  24) = (   5.2767064   1.4903225   6.0039473  )
        25           Ti1 tau(  25) = (   0.0000382   5.9609847   6.0000000  )
        26           Ti1 tau(  26) = (   3.2902200   4.4714249   6.0002472  )
        27           O1  tau(  27) = (   0.0002396   2.9813036   7.9858123  )
        28           O1  tau(  28) = (   3.2902150   2.9813002   7.3038282  )
        29           O1  tau(  29) = (   4.5938453   4.4726049   9.2879030  )
        30           O1  tau(  30) = (   1.9864658   4.4711199   9.2879459  )
        31           Ti1 tau(  31) = (   3.2891106   5.8743827   9.1763621  )
        32           Ti1 tau(  32) = (   0.0006254   4.4649316   9.2693709  )
        33           O1  tau(  33) = (   3.2649920   2.9642658  11.3997388  )
        34           O1  tau(  34) = (   0.0092240   2.9805883  10.6323155  )
        35           O1  tau(  35) = (   1.2634527   4.4478426  12.7061968  )
        36           O1  tau(  36) = (   5.2693862   4.4495813  12.6755241  )
        37           Ti1 tau(  37) = (   6.5522441   5.9483113  12.5008436  )
        38           Ti1 tau(  38) = (   3.2626494   4.4468850  12.5575576  )
        39           O1  tau(  39) = (   6.4970557   2.9363996  15.0046851  )
        40           O1  tau(  40) = (   3.2722650   2.9529576  14.0194401  )
        41           O1  tau(  41) = (   4.5170401   4.4205294  16.2730734  )
        42           O1  tau(  42) = (   1.9466746   4.4191161  16.2235312  )
        43           Ti1 tau(  43) = (   3.2419262   5.9323414  15.8513663  )
        44           Ti1 tau(  44) = (   6.5549466   4.5556212  15.8889459  )
        45           O1  tau(  45) = (   3.2900926   2.9813045   4.7018136  )
        46           O1  tau(  46) = (   1.3039711   4.4726057   6.0039043  )
        47           O1  tau(  47) = (   5.2763189   4.4711207   6.0039473  )
        48           N1  tau(  48) = (   4.8657738   4.5698987  19.4796958  )
        49           C1  tau(  49) = (   5.7271871   3.4329544  19.8049648  )
        50           H1  tau(  50) = (   6.3241292   3.1721029  18.9298488  )
        51           H1  tau(  51) = (   6.4229137   3.7195585  20.5942015  )
        52           H1  tau(  52) = (   5.1874390   2.5328885  20.1195193  )
        53           H1  tau(  53) = (   5.9066942   5.7389963  18.1772939  )
        54           H1  tau(  54) = (   4.2103208   4.3266459  18.7469397  )
        55           H1  tau(  55) = (   4.3187305   4.8545830  20.2870342  )

     number of k points=    10  Fermi-Dirac smearing, width (Ry)=  0.0073
                       cart. coord. in units 2pi/alat
        k(    1) = (   0.0000000   0.0000000   0.0000000), wk =   0.0625000
        k(    2) = (   0.0000000   0.0419351   0.0000000), wk =   0.1250000
        k(    3) = (   0.0000000  -0.0838702   0.0000000), wk =   0.0625000
        k(    4) = (   0.0379955   0.0000049   0.0000000), wk =   0.1250000
        k(    5) = (   0.0379955   0.0419400   0.0000000), wk =   0.1250000
        k(    6) = (   0.0379955  -0.0838652   0.0000000), wk =   0.1250000
[...]

     Initial potential from superposition of free atoms

     starting charge  376.99914, renormalised to  393.00000

     negative rho (up, down):  6.651E-03 6.652E-03

     %%%%%%%%%%%%%%%%%%%%%%%%%%%%%%%%%%%%%%%%%%%%%%%%%%%%%%%%%%%%%%%%%%%%%%%%
     %                                                                      %
     % You are using vdW-DF, which was implemented by the Thonhauser group. %
     % Please cite the following two papers that made this development      %
     % possible and the two reviews that describe the various versions:     %
     %                                                                      %
     %   T. Thonhauser et al., PRL 115, 136402 (2015).                      %
     %   T. Thonhauser et al., PRB 76, 125112 (2007).                       %
     %   K. Berland et al., Rep. Prog. Phys. 78, 066501 (2015).             %
     %   D.C. Langreth et al., J. Phys.: Condens. Matter 21, 084203 (2009). %
     %                                                                      %
     %                                                                      %
     % If you are calculating the stress with vdW-DF, please also cite:     %
     %                                                                      %
     %   R. Sabatini et al., J. Phys.: Condens. Matter 24, 424209 (2012).   %
     %                                                                      %
     %%%%%%%%%%%%%%%%%%%%%%%%%%%%%%%%%%%%%%%%%%%%%%%%%%%%%%%%%%%%%%%%%%%%%%%%

     Adding external electric field

     Computed dipole along edir(3) :
        Dipole               -9.4918 Ry au,        -24.1257 Debye
        Dipole field         -0.0179 Ry au,

        Potential amp.        1.6604 Ry
        Total length         46.3494 bohr

[...]

     Starting wfcs are  298 atomic wfcs
  @ DRIVER MODE: Message from server: STATUS
  @ DRIVER MODE: Message from server: POSDATA
  @ DRIVER MODE: Reading and sharing cell
  @ DRIVER MODE: Reading and sharing positions
  @ DRIVER MODE: Received positions

     Self-consistent Calculation

     iteration #  1     ecut=    29.40 Ry     beta= 0.05
     Davidson diagonalization with overlap
     c_bands:  2 eigenvalues not converged
     c_bands:  1 eigenvalues not converged
     c_bands:  2 eigenvalues not converged
     c_bands:  3 eigenvalues not converged
     c_bands:  3 eigenvalues not converged
     c_bands:  1 eigenvalues not converged
     c_bands:  2 eigenvalues not converged
     c_bands:  1 eigenvalues not converged
     c_bands:  2 eigenvalues not converged
     c_bands:  3 eigenvalues not converged
     c_bands:  3 eigenvalues not converged
     c_bands:  1 eigenvalues not converged
     ethr =  1.00E-05,  avg # of iterations = 18.9

[...]

     total energy              =   -2620.49738278 Ry
     estimated scf accuracy    <    3389.65798067 Ry

     total magnetization       =     0.00 Bohr mag/cell
     absolute magnetization    =     0.01 Bohr mag/cell

[...]

     iteration #  3     ecut=    29.40 Ry     beta= 0.05
     Davidson diagonalization with overlap
     ethr =  1.00E-02,  avg # of iterations = 15.2

[...]

     iteration #220     ecut=    29.40 Ry     beta= 0.05
     Davidson diagonalization with overlap
     ethr =  2.01E-11,  avg # of iterations =  3.6

[...]

     total energy              =   -2922.77417229 Ry
     estimated scf accuracy    <       0.00000008 Ry

[...]

     iteration #221     ecut=    29.40 Ry     beta= 0.05
     Davidson diagonalization with overlap
     c_bands:  1 eigenvalues not converged
     c_bands:  1 eigenvalues not converged
     ethr =  1.99E-11,  avg # of iterations = 14.5

     negative rho (up, down):  7.246E-03 7.243E-03

[...]

     Adding external electric field

     Computed dipole along edir(3) :
        Dipole                1.4022 Ry au,          3.5639 Debye
        Dipole field          0.0026 Ry au,

        Potential amp.       -0.2453 Ry
        Total length         46.3494 bohr

     Magnetic moment per site  (integrated on atomic sphere of radius R)
     atom   1 (R=0.739)  charge=  8.0547  magn= -0.0110
     atom   2 (R=0.739)  charge=  8.0362  magn= -0.0005
     atom   3 (R=0.405)  charge=  2.0075  magn=  0.0006
     atom   4 (R=0.405)  charge=  2.0190  magn=  0.0001
     atom   5 (R=0.405)  charge=  2.0104  magn=  0.0001
     atom   6 (R=0.405)  charge=  2.0107  magn=  0.0001
     atom   7 (R=0.739)  charge=  8.0371  magn= -0.0008
     atom   8 (R=0.739)  charge=  8.0393  magn= -0.0092
     atom   9 (R=0.405)  charge=  2.0112  magn=  0.0001
     atom  10 (R=0.405)  charge=  2.0118  magn=  0.0003
     atom  11 (R=0.405)  charge=  2.0092  magn=  0.0001
     atom  12 (R=0.405)  charge=  2.0092  magn=  0.0001
     atom  13 (R=0.739)  charge=  8.0499  magn= -0.0022
     atom  14 (R=0.739)  charge=  8.0432  magn= -0.0010
     atom  15 (R=0.405)  charge=  2.0128  magn=  0.0000
     atom  16 (R=0.405)  charge=  2.0108  magn=  0.0001
     atom  17 (R=0.405)  charge=  2.0009  magn=  0.0000
     atom  18 (R=0.405)  charge=  2.0012  magn=  0.0000
     atom  19 (R=0.739)  charge=  8.0824  magn= -0.0004
     atom  20 (R=0.739)  charge=  8.1004  magn= -0.0001
     atom  21 (R=0.405)  charge=  1.9825  magn=  0.0002
     atom  22 (R=0.405)  charge=  2.0201  magn=  0.0000
     atom  23 (R=0.405)  charge=  2.0078  magn=  0.0005
     atom  24 (R=0.405)  charge=  2.0078  magn=  0.0005
     atom  25 (R=0.739)  charge=  8.0548  magn= -0.0110
     atom  26 (R=0.739)  charge=  8.0362  magn= -0.0005
     atom  27 (R=0.405)  charge=  2.0075  magn=  0.0006
     atom  28 (R=0.405)  charge=  2.0191  magn=  0.0001
     atom  29 (R=0.405)  charge=  2.0107  magn=  0.0001
     atom  30 (R=0.405)  charge=  2.0109  magn=  0.0001
     atom  31 (R=0.739)  charge=  8.0372  magn= -0.0008
     atom  32 (R=0.739)  charge=  8.0393  magn= -0.0092
     atom  33 (R=0.405)  charge=  2.0120  magn=  0.0001
     atom  34 (R=0.405)  charge=  2.0122  magn=  0.0003
     atom  35 (R=0.405)  charge=  2.0082  magn=  0.0001
     atom  36 (R=0.405)  charge=  2.0092  magn=  0.0001
     atom  37 (R=0.739)  charge=  8.0419  magn= -0.0023
     atom  38 (R=0.739)  charge=  8.0432  magn= -0.0010
     atom  39 (R=0.405)  charge=  2.0116  magn=  0.0000
     atom  40 (R=0.405)  charge=  2.0126  magn=  0.0000
     atom  41 (R=0.405)  charge=  2.0020  magn=  0.0000
     atom  42 (R=0.405)  charge=  2.0020  magn=  0.0000
     atom  43 (R=0.739)  charge=  8.0813  magn= -0.0005
     atom  44 (R=0.739)  charge=  8.1023  magn= -0.0000
     atom  45 (R=0.405)  charge=  1.9825  magn=  0.0002
     atom  46 (R=0.405)  charge=  2.0078  magn=  0.0005
     atom  47 (R=0.405)  charge=  2.0078  magn=  0.0005
     atom  48 (R=0.418)  charge=  1.3254  magn=  0.0000
     atom  49 (R=0.450)  charge=  0.8502  magn=  0.0000
     atom  50 (R=0.405)  charge=  0.4138  magn= -0.0000
     atom  51 (R=0.405)  charge=  0.4140  magn= -0.0000
     atom  52 (R=0.405)  charge=  0.4131  magn= -0.0000
     atom  53 (R=0.405)  charge=  0.3971  magn=  0.0000
     atom  54 (R=0.405)  charge=  0.4226  magn= -0.0000
     atom  55 (R=0.405)  charge=  0.4234  magn= -0.0000

     End of self-consistent calculation

 ------ SPIN UP ------------

          k = 0.0000 0.0000 0.0000 ( 18029 PWs)   bands (ev):

   -55.3092 -55.2734 -55.2486 -55.2144 -55.1719 -55.1491 -55.1485 -55.1376
   -55.1147 -55.0776 -55.0743 -55.0437 -55.0326 -54.9746 -54.3013 -54.2673
   -31.8765 -31.7483 -31.6901 -31.6609 -31.6371 -31.6163 -31.5840 -31.5515
   -31.5470 -31.5348 -31.5160 -31.5056 -31.4910 -31.4767 -31.4665 -31.4591
   -31.4477 -31.4366 -31.4002 -31.3998 -31.3982 -31.3812 -31.3694 -31.3547
   -31.3531 -31.3137 -31.3041 -31.3039 -31.3038 -31.2881 -31.2809 -31.2804
   -31.2759 -31.2737 -31.2608 -31.2579 -31.2260 -31.2038 -31.2015 -31.1877
   -31.1829 -31.1082 -30.7116 -30.6148 -30.5930 -30.5273 -30.4405 -30.3302
   -16.8273 -16.1488 -15.8927 -15.7718 -15.6631 -15.6149 -15.5223 -15.4429
   -15.3590 -15.2586 -15.1974 -15.0922 -15.0573 -15.0177 -15.0031 -14.9840
   -14.9571 -14.8771 -14.8662 -14.8554 -14.8301 -14.8121 -14.7833 -14.7748
   -14.7678 -14.7283 -14.6917 -14.5787 -14.4883 -14.4033 -12.8053 -12.6876
   -10.0067  -5.8623  -4.7470  -4.4528  -3.5438  -3.4779  -3.3441  -3.2394
    -3.2055  -3.1981  -3.0763  -2.8936  -2.7985  -2.7712  -2.6764  -2.6303
    -2.5343  -2.5308  -2.4908  -2.3905  -2.3524  -2.3258  -2.2428  -2.2158
    -2.1696  -2.1184  -2.1085  -2.1053  -2.0847  -2.0446  -2.0057  -1.8869
    -1.8016  -1.7800  -1.7064  -1.6902  -1.6841  -1.6557  -1.6128  -1.5930
    -1.5444  -1.5273  -1.4866  -1.4182  -1.3563  -1.2748  -1.2375  -1.2007
    -0.9949  -0.9658  -0.9154  -0.9127  -0.8846  -0.8161  -0.7868  -0.7570
    -0.6904  -0.6885  -0.6600  -0.5537  -0.5109  -0.3897  -0.3194  -0.2400
    -0.1184  -0.1050  -0.0809  -0.0315  -0.0080   0.0516   0.1118   0.1483
     0.1876   0.2005   0.2877   0.3180   0.3956   0.4126   0.4577   0.5106
     0.5295   0.5538   0.5803   0.5881   0.6168   0.6328   0.6662   0.7335
     0.7651   0.8667   0.9154   1.1989   1.2846   1.5933   1.6170   1.7203
     1.9016   2.2984   2.3480   3.7931   3.8486   3.8870   3.9324   3.9441
     4.0193   4.1455   4.2886   4.3034   4.3094   4.3169

[...]

          k =-0.0760-0.0000 0.0000 ( 17886 PWs)   bands (ev):

[...]

 ------ SPIN DOWN ----------

[...]

          k = 0.0380-0.0419 0.0000 ( 17876 PWs)   bands (ev):

[...]

          k =-0.0760-0.0839 0.0000 ( 17948 PWs)   bands (ev):

   -55.2941 -55.2912 -55.2510 -55.2500 -55.1589 -55.1578 -55.1452 -55.1352
   -55.1310 -55.0785 -55.0773 -55.0747 -55.0257 -54.9817 -54.2853 -54.2851
   -31.6849 -31.6799 -31.5898 -31.5840 -31.5717 -31.5710 -31.5586 -31.5427
   -31.5418 -31.5115 -31.5064 -31.5047 -31.4910 -31.4651 -31.4610 -31.4603
   -31.4353 -31.4334 -31.4266 -31.4048 -31.3885 -31.3860 -31.3723 -31.3717
   -31.3695 -31.3659 -31.3653 -31.3532 -31.3515 -31.3451 -31.3413 -31.3249
   -31.3222 -31.3133 -31.3103 -31.2951 -31.2665 -31.2575 -31.2555 -31.2450
   -31.2278 -31.1745 -30.6068 -30.6067 -30.5247 -30.5246 -30.4849 -30.4849
   -16.7659 -15.8215 -15.6160 -15.5415 -15.5005 -15.4056 -15.3316 -15.3009
   -15.2909 -15.2778 -15.1518 -15.1236 -15.1137 -15.0855 -15.0541 -15.0294
   -15.0256 -14.9908 -14.9336 -14.9275 -14.9197 -14.9114 -14.8476 -14.8393
   -14.8356 -14.8288 -14.7626 -14.7602 -14.6789 -14.6769 -12.7880 -12.7880
   -10.0162  -5.8627  -4.8735  -4.4343  -3.5596  -2.8253  -2.7975  -2.7450
    -2.6934  -2.6151  -2.5287  -2.5014  -2.4650  -2.4078  -2.3552  -2.3077
    -2.3056  -2.2698  -2.2504  -2.2315  -2.1878  -2.1662  -2.1437  -2.1255
    -2.1108  -2.0571  -2.0544  -2.0453  -2.0207  -1.9866  -1.9691  -1.9558
    -1.9397  -1.9213  -1.8959  -1.8766  -1.7336  -1.7127  -1.6721  -1.5547
    -1.5370  -1.5335  -1.5004  -1.4567  -1.4320  -1.4245  -1.3504  -1.3433
    -1.3111  -1.1538  -1.0813  -1.0795  -1.0562  -1.0322  -0.9372  -0.8857
    -0.8454  -0.7953  -0.7195  -0.6883  -0.6695  -0.5970  -0.5701  -0.4787
    -0.3891  -0.3625  -0.3542  -0.2764  -0.2749  -0.2418  -0.2287  -0.1597
    -0.0998  -0.0477  -0.0438  -0.0402   0.0888   0.1257   0.2059   0.3200
     0.4005   0.4089   0.4614   0.5204   0.6203   0.6521   0.6834   0.7873
     0.7892   0.9759   0.9793   1.0279   1.0428   1.1228   1.1279   2.0749
     2.0756   2.1680   2.1682   3.7594   3.9427   3.9966   4.0684   4.0943
     4.1923   4.2747   4.3084   4.3402   4.3610   4.3666

     the Fermi energy is     3.8531 ev

!    total energy              =   -2922.77417242 Ry
     estimated scf accuracy    <       0.00000007 Ry
     smearing contrib. (-TS)   =      -0.04550026 Ry
     internal energy E=F+TS    =   -2922.72867216 Ry

     The total energy is F=E-TS. E is the sum of the following terms:
     one-electron contribution =  -23201.76693373 Ry
     hartree contribution      =   11691.15969438 Ry
     xc contribution           =    -482.55456694 Ry
     ewald contribution        =    9070.42942392 Ry
     electric field correction =       0.00371021 Ry

     total magnetization       =    -0.07 Bohr mag/cell
     absolute magnetization    =     0.09 Bohr mag/cell

     convergence has been achieved in 221 iterations

     Forces acting on atoms (cartesian axes, Ry/au):

     atom    1 type  1   force =     0.00017279   -0.00008638    0.09305004
     atom    2 type  1   force =     0.00001947   -0.00015667   -0.17887324
     atom    3 type  2   force =     0.00002287   -0.00029742   -0.02022519
     atom    4 type  2   force =    -0.00000225   -0.00223936    0.06098633
     atom    5 type  2   force =    -0.01150406   -0.00127816    0.01054233
     atom    6 type  2   force =     0.01241670   -0.00058528    0.00810661
     atom    7 type  1   force =    -0.00122410    0.00344090   -0.01491236
     atom    8 type  1   force =     0.00123370   -0.00358414   -0.00843828
     atom    9 type  2   force =     0.00001162   -0.00005227   -0.00025570
     atom   10 type  2   force =    -0.00281497   -0.00048037    0.00154342
     atom   11 type  2   force =     0.00012350   -0.00023242   -0.00028200
     atom   12 type  2   force =    -0.00000206    0.00009054   -0.00009364
     atom   13 type  1   force =    -0.00019477   -0.00032132   -0.00064359
     atom   14 type  1   force =    -0.00005446   -0.00005622    0.00022406
     atom   15 type  2   force =    -0.00011391   -0.00024126   -0.00013802
     atom   16 type  2   force =     0.00032886    0.00035475   -0.00009985
     atom   17 type  2   force =     0.00079017    0.00027334   -0.00024604
     atom   18 type  2   force =     0.00009087   -0.00028473   -0.00005747
     atom   19 type  1   force =     0.00026059    0.00043276   -0.00042660
     atom   20 type  1   force =     0.00011815    0.00012050    0.00046926
     atom   21 type  2   force =     0.00012708   -0.00002989    0.10426875
     atom   22 type  2   force =    -0.00061886    0.00014034    0.00038348
     atom   23 type  2   force =    -0.06991189   -0.00011121   -0.02678784
     atom   24 type  2   force =     0.06988384    0.00034988   -0.02678737
     atom   25 type  1   force =     0.00018331   -0.00019471    0.09236145
     atom   26 type  1   force =    -0.00006507   -0.00035401   -0.17903926
     atom   27 type  2   force =     0.00004192   -0.00025610   -0.01895934
     atom   28 type  2   force =     0.00006380   -0.00192867    0.06024149
     atom   29 type  2   force =    -0.01169439   -0.00162240    0.01033984
     atom   30 type  2   force =     0.01247945   -0.00120673    0.00786835
     atom   31 type  1   force =    -0.00101886    0.00609854   -0.01577684
     atom   32 type  1   force =     0.00118514    0.00333726   -0.00865364
     atom   33 type  2   force =     0.00002721    0.00020354   -0.00024445
     atom   34 type  2   force =    -0.00240807   -0.00053767    0.00060299
     atom   35 type  2   force =     0.00000680    0.00000358    0.00006063
     atom   36 type  2   force =     0.00002874   -0.00007029    0.00037337
     atom   37 type  1   force =     0.00035012   -0.00005297   -0.00007949
     atom   38 type  1   force =    -0.00035457   -0.00031760    0.00048379
     atom   39 type  2   force =     0.00036425   -0.00014288    0.00060705
     atom   40 type  2   force =     0.00025184   -0.00017411    0.00005506
     atom   41 type  2   force =     0.00004767    0.00039634   -0.00040968
     atom   42 type  2   force =     0.00049921    0.00023606   -0.00018185
     atom   43 type  1   force =     0.00023919   -0.00020211   -0.00041615
     atom   44 type  1   force =     0.00013630   -0.00130272    0.00062809
     atom   45 type  2   force =     0.00011938   -0.00004941    0.10421945
     atom   46 type  2   force =    -0.06992349   -0.00004841   -0.02677652
     atom   47 type  2   force =     0.06991100    0.00035346   -0.02679651
     atom   48 type  3   force =    -0.00314380    0.01126002    0.00380723
     atom   49 type  4   force =     0.00222212   -0.00436392    0.00002768
     atom   50 type  5   force =     0.00049703   -0.00039553   -0.00000770
     atom   51 type  5   force =    -0.00068685   -0.00013743    0.00022646
     atom   52 type  5   force =     0.00077984   -0.00142111    0.00063202
     atom   53 type  5   force =     0.00022391    0.00062952   -0.00115371
     atom   54 type  5   force =    -0.00184550   -0.00205728   -0.00312859
     atom   55 type  5   force =     0.00232347   -0.00084823   -0.00221831

     Total force =     0.367939     Total SCF correction =     0.000134
  @ DRIVER MODE: Message from server: STATUS
  @ DRIVER MODE: Message from server: GETFORCE
  @ DRIVER MODE: Returning v,forces,stress,ensemble

     Writing output data file ./calc.save/
  @ DRIVER MODE: Message from server: EXIT
  @ DRIVE MODE: Exiting

     General routines

     Parallel routines

   This run was terminated on:  22:19:18  26Jul2021

   JOB DONE.