     Program PWSCF v.6.7GPU starts on 15Sep2021 at 17:45:11

     R & G space division:  proc/nbgrp/npool/nimage =      10
     Reading input from /storage/home/hcoda1/3/ntian30/research/carbon/CxH_vib/H2O_calc/ads_slab/CH2N2H2O_b/out_0007/pw.inp
Warning: card &CELL ignored
Warning: card   CELL_DYNAMICS='IPI', ignored
Warning: card / ignored

     Current dimensions of program PWSCF are:
     Max number of different atomic species (ntypx) = 10
     Max number of k-points (npk) =  40000
     Max angular momentum in pseudopotentials (lmaxx) =  3
     Presently no symmetry can be used with electric field

     Message from routine cell_base_init:
     DEPRECATED: use true lattice parameter, not A to a.u. conversion factor

     IMPORTANT: XC functional enforced from input :
     Exchange-correlation= BEEF-VDW
                           (   1   4  43  14   2   0   0)
     Any further DFT definition will be discarded
     Please, verify this is what you really want

  @ DRIVER MODE: Connecting to
 qe_1139763_2852605.sched-torque.pace.gatech.edull_k_dq8_scratch
  using UNIX socket
  @ DRIVER MODE: Message from server: STATUS
  @ DRIVER MODE: Message from server: INIT
  @ DRIVER MODE: Receiving replica           0          -1
  @ DRIVER MODE: Receiving encoded integer          25
  @ DRIVER MODE:  SCF:  T  FORCE:  T  STRESS:  F  VC:  F  ENSEMBLE:  F
  @ DRIVER MODE:  SCF:  T  FORCE:  T  STRESS:  F  VC:  F  ENSEMBLE:  F

     Using Slab Decomposition

     bravais-lattice index     =            0
     lattice parameter (alat)  =       1.8897  a.u.
     unit-cell volume          =    6658.9804 (a.u.)^3
     number of atoms/cell      =           55
     number of atomic types    =            5
     number of electrons       =       402.00
     number of Kohn-Sham states=          211
     kinetic-energy cutoff     =      29.3995  Ry
     charge density cutoff     =     293.9946  Ry
     scf convergence threshold =      7.3E-08
     mixing beta               =       0.0500
     number of iterations used =            8  plain     mixing
     Exchange-correlation= BEEF-VDW
                           (   1   4  43  14   2   0   0)

     celldm(1)=   1.889726  celldm(2)=   0.000000  celldm(3)=   0.000000
     celldm(4)=   0.000000  celldm(5)=   0.000000  celldm(6)=   0.000000

     crystal axes: (cart. coord. in units of alat)
               a(1) = (   6.579727   0.000000   0.000000 )
               a(2) = (  -0.000775   5.961596   0.000000 )
               a(3) = (   0.000000   0.000000  25.155947 )

     reciprocal axes: (cart. coord. in units 2 pi/alat)
               b(1) = (  0.151982  0.000020  0.000000 )
               b(2) = (  0.000000  0.167740  0.000000 )
               b(3) = (  0.000000  0.000000  0.039752 )

     PseudoPot. # 1 for Ti read from file:
     /storage/coda1/p-amedford6/0/shared/rich_project_chbe-medford/medford-share/data/pseudos_module/espresso/nninc/pbe/van/Ti.UPF
     MD5 check sum: 8e4df49b7f0d34bbd5052bf3f5ea0213
     Pseudo is Ultrasoft, Zval = 12.0
     Generated by new atomic code, or converted to UPF format
     Using radial grid of  851 points,  6 beta functions with:
                l(1) =   0
                l(2) =   0
                l(3) =   1
                l(4) =   1
                l(5) =   2
                l(6) =   2
     Q(r) pseudized with  8 coefficients,  rinner =    1.000   1.000   1.000
                                                       1.000   1.000

     PseudoPot. # 2 for O  read from file:
     /storage/coda1/p-amedford6/0/shared/rich_project_chbe-medford/medford-share/data/pseudos_module/espresso/nninc/pbe/van/O.UPF
     MD5 check sum: 78c19812648e8988a0fe644b0f25305e
     Pseudo is Ultrasoft, Zval =  6.0
     Generated by new atomic code, or converted to UPF format
     Using radial grid of  737 points,  4 beta functions with:
                l(1) =   0
                l(2) =   0
                l(3) =   1
                l(4) =   1
     Q(r) pseudized with  8 coefficients,  rinner =    0.800   0.800   0.800

     PseudoPot. # 3 for N  read from file:
     /storage/coda1/p-amedford6/0/shared/rich_project_chbe-medford/medford-share/data/pseudos_module/espresso/nninc/pbe/van/N.UPF
     MD5 check sum: 90d10febe142ad51ac9d5be1deb811c4
     Pseudo is Ultrasoft, Zval =  5.0
     Generated by new atomic code, or converted to UPF format
     Using radial grid of  729 points,  4 beta functions with:
                l(1) =   0
                l(2) =   0
                l(3) =   1
                l(4) =   1
     Q(r) pseudized with  8 coefficients,  rinner =    0.800   0.800   0.800

     PseudoPot. # 4 for C  read from file:
     /storage/coda1/p-amedford6/0/shared/rich_project_chbe-medford/medford-share/data/pseudos_module/espresso/nninc/pbe/van/C.UPF
     MD5 check sum: 1a69bf6b8db32088f5b2163dbdb77a27
     Pseudo is Ultrasoft, Zval =  4.0
     Generated by new atomic code, or converted to UPF format
     Using radial grid of  721 points,  4 beta functions with:
                l(1) =   0
                l(2) =   0
                l(3) =   1
                l(4) =   1
     Q(r) pseudized with  8 coefficients,  rinner =    0.800   0.800   0.800

     PseudoPot. # 5 for H  read from file:
     /storage/coda1/p-amedford6/0/shared/rich_project_chbe-medford/medford-share/data/pseudos_module/espresso/nninc/pbe/van/H.UPF
     MD5 check sum: b5ee9d7bfd3a09ee7748110bda690ff7
     Pseudo is Ultrasoft, Zval =  1.0
     Generated by new atomic code, or converted to UPF format
     Using radial grid of  615 points,  1 beta functions with:
                l(1) =   0
     Q(r) pseudized with  8 coefficients,  rinner =    0.800

     atomic species   valence    mass     pseudopotential
        Ti1           12.00    47.86700     Ti( 1.00)
        O1             6.00    15.99900     O ( 1.00)
        N1             5.00    14.00700     N ( 1.00)
        C1             4.00    12.01100     C ( 1.00)
        H1             1.00     1.00800     H ( 1.00)

     No symmetry found

   Cartesian axes

     site n.     atom                  positions (alat units)
         1           Ti1 tau(   1) = (   0.0004258   2.9801865   6.0000000  )
         2           Ti1 tau(   2) = (   3.2906075   1.4906267   6.0002472  )
         3           O1  tau(   3) = (   0.0006271   0.0005054   7.9858123  )
         4           O1  tau(   4) = (   3.2906025   0.0005020   7.3038282  )
         5           O1  tau(   5) = (   4.5942328   1.4918067   9.2879030  )
         6           O1  tau(   6) = (   1.9868534   1.4903216   9.2879459  )
         7           Ti1 tau(   7) = (   3.2907910   2.8959150   9.1758416  )
         8           Ti1 tau(   8) = (   0.0015273   1.4827037   9.2680791  )
         9           O1  tau(   9) = (   3.2934429   5.9466490  11.3040654  )
        10           O1  tau(  10) = (   0.0116148   5.9584955  10.6183126  )
        11           O1  tau(  11) = (   1.2867109   1.4782735  12.6190062  )
        12           O1  tau(  12) = (   5.2776945   1.4764076  12.5976694  )
        13           Ti1 tau(  13) = (   0.0846880   2.9559742  12.7004455  )
        14           Ti1 tau(  14) = (   3.4192946   1.4610250  12.4797112  )
        15           O1  tau(  15) = (   0.0040618   5.9510889  14.6015872  )
        16           O1  tau(  16) = (   3.2972055   5.9566395  13.8969661  )
        17           O1  tau(  17) = (   4.5327346   1.5242580  16.0225792  )
        18           O1  tau(  18) = (   2.0474321   1.5095568  15.9818283  )
        19           Ti1 tau(  19) = (   3.2830006   2.9631064  15.6531525  )
        20           Ti1 tau(  20) = (   6.5418150   1.5417905  15.9635021  )
        21           O1  tau(  21) = (   3.2904802   0.0005063   4.7018136  )
        22           O1  tau(  22) = (   0.0063621   0.0138944  17.1794403  )
        23           O1  tau(  23) = (   1.3043587   1.4918075   6.0039043  )
        24           O1  tau(  24) = (   5.2767064   1.4903225   6.0039473  )
        25           Ti1 tau(  25) = (   0.0000382   5.9609847   6.0000000  )
        26           Ti1 tau(  26) = (   3.2902200   4.4714249   6.0002472  )
        27           O1  tau(  27) = (   0.0002396   2.9813036   7.9858123  )
        28           O1  tau(  28) = (   3.2902150   2.9813002   7.3038282  )
        29           O1  tau(  29) = (   4.5938453   4.4726049   9.2879030  )
        30           O1  tau(  30) = (   1.9864658   4.4711199   9.2879459  )
        31           Ti1 tau(  31) = (   3.2891106   5.8743827   9.1763621  )
        32           Ti1 tau(  32) = (   0.0006254   4.4649316   9.2693709  )
        33           O1  tau(  33) = (   3.2987291   2.9703105  11.3060640  )
        34           O1  tau(  34) = (   0.0092240   2.9805883  10.6323155  )
        35           O1  tau(  35) = (   1.2872851   4.4534926  12.6272766  )
        36           O1  tau(  36) = (   5.2800973   4.4624318  12.6062822  )
        37           Ti1 tau(  37) = (   0.1009857   5.9355968  12.6779778  )
        38           Ti1 tau(  38) = (   3.4194502   4.4581092  12.4739500  )
        39           O1  tau(  39) = (   6.5579784   2.9468049  14.6267102  )
        40           O1  tau(  40) = (   3.2950467   2.9662764  13.8528306  )
        41           O1  tau(  41) = (   4.5369278   4.4531499  15.9976687  )
        42           O1  tau(  42) = (   2.0426393   4.4597293  15.9709435  )
        43           Ti1 tau(  43) = (   3.2485613   5.9322867  15.7552632  )
        44           Ti1 tau(  44) = (   6.5504849   4.5932964  16.0494500  )
        45           O1  tau(  45) = (   3.2900926   2.9813045   4.7018136  )
        46           O1  tau(  46) = (   1.3039711   4.4726057   6.0039043  )
        47           O1  tau(  47) = (   5.2763189   4.4711207   6.0039473  )
        48           N1  tau(  48) = (   0.6156314   2.9572148  18.5116157  )
        49           N1  tau(  49) = (   0.0770375   2.9660652  17.3203775  )
        50           C1  tau(  50) = (   6.5561155   3.1780822  19.6039678  )
        51           H1  tau(  51) = (   5.4868456   3.3930584  19.6151425  )
        52           H1  tau(  52) = (   0.5344647   3.1546629  20.5288580  )
        53           O1  tau(  53) = (   3.2552377   5.9566958  18.1335742  )
        54           H1  tau(  54) = (   4.0211122   0.5273114  18.4085372  )
        55           H1  tau(  55) = (   2.4596908   0.4732500  18.4230009  )

     number of k points=    10  Fermi-Dirac smearing, width (Ry)=  0.0073
                       cart. coord. in units 2pi/alat
        k(    1) = (   0.0000000   0.0000000   0.0000000), wk =   0.1250000
        k(    2) = (   0.0000000   0.0419351   0.0000000), wk =   0.2500000
        k(    3) = (   0.0000000  -0.0838702   0.0000000), wk =   0.1250000
        k(    4) = (   0.0379955   0.0000049   0.0000000), wk =   0.2500000
        k(    5) = (   0.0379955   0.0419400   0.0000000), wk =   0.2500000
        k(    6) = (   0.0379955  -0.0838652   0.0000000), wk =   0.2500000
        k(    7) = (   0.0379955  -0.0419301   0.0000000), wk =   0.2500000
        k(    8) = (  -0.0759910  -0.0000099   0.0000000), wk =   0.1250000
        k(    9) = (  -0.0759910   0.0419252   0.0000000), wk =   0.2500000
        k(   10) = (  -0.0759910  -0.0838800   0.0000000), wk =   0.1250000

     Initial potential from superposition of free atoms

     starting charge  385.99915, renormalised to  402.00000

     negative rho (up, down):  1.463E-02 0.000E+00

     %%%%%%%%%%%%%%%%%%%%%%%%%%%%%%%%%%%%%%%%%%%%%%%%%%%%%%%%%%%%%%%%%%%%%%%%
     %                                                                      %
     % You are using vdW-DF, which was implemented by the Thonhauser group. %
     % Please cite the following two papers that made this development      %
     % possible and the two reviews that describe the various versions:     %
     %                                                                      %
     %   T. Thonhauser et al., PRL 115, 136402 (2015).                      %
     %   T. Thonhauser et al., PRB 76, 125112 (2007).                       %
     %   K. Berland et al., Rep. Prog. Phys. 78, 066501 (2015).             %
     %   D.C. Langreth et al., J. Phys.: Condens. Matter 21, 084203 (2009). %
     %                                                                      %
     %                                                                      %
     % If you are calculating the stress with vdW-DF, please also cite:     %
     %                                                                      %
     %   R. Sabatini et al., J. Phys.: Condens. Matter 24, 424209 (2012).   %
     %                                                                      %
     %%%%%%%%%%%%%%%%%%%%%%%%%%%%%%%%%%%%%%%%%%%%%%%%%%%%%%%%%%%%%%%%%%%%%%%%

     Adding external electric field

     Computed dipole along edir(3) :
        Dipole              -11.9608 Ry au,        -30.4013 Debye
        Dipole field         -0.0226 Ry au,

        Potential amp.        2.0924 Ry
        Total length         46.3494 bohr

     Starting wfcs are  304 atomic wfcs
  @ DRIVER MODE: Message from server: STATUS
  @ DRIVER MODE: Message from server: POSDATA
  @ DRIVER MODE: Reading and sharing cell
  @ DRIVER MODE: Reading and sharing positions
  @ DRIVER MODE: Received positions

     Self-consistent Calculation

     iteration #  1     ecut=    29.40 Ry     beta= 0.05
     Davidson diagonalization with overlap
     c_bands:  3 eigenvalues not converged
     c_bands:  1 eigenvalues not converged
     c_bands:  5 eigenvalues not converged
     c_bands:  3 eigenvalues not converged
     c_bands:  3 eigenvalues not converged
     c_bands:  2 eigenvalues not converged
     c_bands:  4 eigenvalues not converged
     c_bands:  4 eigenvalues not converged
     c_bands:  3 eigenvalues not converged
     ethr =  1.00E-05,  avg # of iterations = 21.6

[...]

     total energy              =   -2415.34040192 Ry
     estimated scf accuracy    <    6284.09025468 Ry

     iteration #  2     ecut=    29.40 Ry     beta= 0.05
     Davidson diagonalization with overlap
     ethr =  1.00E-02,  avg # of iterations = 23.4

[...]

     iteration # 46     ecut=    29.40 Ry     beta= 0.05
     Davidson diagonalization with overlap
     c_bands:  3 eigenvalues not converged
     c_bands:  1 eigenvalues not converged
     ethr =  2.64E-06,  avg # of iterations = 10.4

[...]

     total energy              =   -2972.73818547 Ry
     estimated scf accuracy    <       0.00000010 Ry

     iteration # 70     ecut=    29.40 Ry     beta= 0.05
     Davidson diagonalization with overlap
     ethr =  2.41E-11,  avg # of iterations =  6.0

     negative rho (up, down):  1.529E-02 0.000E+00

     Adding external electric field

     Computed dipole along edir(3) :
        Dipole                0.6682 Ry au,          1.6984 Debye
        Dipole field          0.0013 Ry au,

        Potential amp.       -0.1169 Ry
        Total length         46.3494 bohr

     End of self-consistent calculation

          k = 0.0000 0.0000 0.0000 ( 18029 PWs)   bands (ev):

   -56.1269 -56.0930 -55.6615 -55.6276 -55.5690 -55.5407 -55.5346 -55.5053
   -55.4183 -55.3704 -55.3299 -55.2606 -54.9418 -54.9079 -54.8573 -54.8169
   -32.5784 -32.4180 -32.3904 -32.2871 -32.2023 -32.1942 -32.1288 -32.0736
   -32.0553 -31.9046 -31.8775 -31.8768 -31.8415 -31.8397 -31.8259 -31.7919
   -31.7806 -31.7748 -31.7648 -31.7636 -31.7583 -31.7221 -31.7201 -31.7110
   -31.6804 -31.6729 -31.6613 -31.6481 -31.6289 -31.5985 -31.5405 -31.5383
   -31.5086 -31.4821 -31.4532 -31.4206 -31.3874 -31.3418 -31.2710 -31.2476
   -31.1594 -31.1022 -31.0741 -31.0697 -31.0553 -31.0304 -30.9629 -30.9426
   -18.6770 -17.4342 -16.4458 -16.2232 -15.9893 -15.7501 -15.6946 -15.5853
   -15.5730 -15.5599 -15.4522 -15.4297 -15.3766 -15.2682 -15.1996 -15.1657
   -15.1072 -15.1014 -15.0736 -14.9781 -14.9638 -14.9493 -14.9364 -14.8603
   -14.8241 -14.7981 -14.6932 -14.6279 -14.5574 -14.5327 -14.2306 -13.4422
   -13.3289 -11.6330  -6.5442  -6.4381  -4.3973  -3.9472  -3.9070  -3.7242
    -3.5607  -3.4591  -3.3311  -3.3114  -3.1866  -3.0729  -2.9474  -2.8892
    -2.8658  -2.8124  -2.7797  -2.7702  -2.6428  -2.6046  -2.5610  -2.5370
    -2.5059  -2.4284  -2.4198  -2.3660  -2.3163  -2.2836  -2.1808  -2.1437
    -2.1031  -2.0855  -2.0637  -2.0174  -1.9842  -1.9637  -1.9501  -1.9362
    -1.8913  -1.8026  -1.7549  -1.6572  -1.5995  -1.5050  -1.4549  -1.4468
    -1.3730  -1.2822  -1.1684  -1.1528  -1.0796  -1.0383  -0.9979  -0.9685
    -0.8909  -0.8804  -0.8130  -0.7709  -0.7039  -0.6498  -0.6174  -0.5989
    -0.5737  -0.4758  -0.4262  -0.3447  -0.2892  -0.2349  -0.2110  -0.1220
    -0.0914  -0.0592  -0.0339   0.0232   0.0636   0.0835   0.1032   0.1277
     0.1623   0.1881   0.3061   0.3583   0.3720   0.4072   0.4330   0.5420
     0.6022   0.6756   0.7355   0.7781   0.8777   0.8953   0.9395   1.0632
     1.0787   1.0802   1.1438   1.2983   1.6178   1.6383   1.6792   1.7835
     2.9429   3.1021   3.2190   3.4426   3.5388   3.5758   3.8450   3.9533
     3.9842   3.9965   4.0192

[...]

          k = 0.0380-0.0419 0.0000 ( 17876 PWs)   bands (ev):

[...]

          k =-0.0760-0.0000 0.0000 ( 17886 PWs)   bands (ev):

[...]

          k =-0.0760-0.0839 0.0000 ( 17948 PWs)   bands (ev):

   -56.1099 -56.1098 -55.6467 -55.6422 -55.5548 -55.5488 -55.5244 -55.5214
   -55.4163 -55.3605 -55.3397 -55.2625 -54.9249 -54.9247 -54.8479 -54.8262
   -32.4036 -32.4033 -32.3943 -32.3943 -32.2389 -32.2388 -31.9534 -31.9481
   -31.8984 -31.8954 -31.8925 -31.8702 -31.8371 -31.8322 -31.8134 -31.8122
   -31.7940 -31.7909 -31.7696 -31.7639 -31.7579 -31.7528 -31.7510 -31.7451
   -31.7097 -31.6717 -31.6654 -31.6595 -31.6329 -31.6220 -31.5870 -31.5730
   -31.5646 -31.5294 -31.5147 -31.4615 -31.2682 -31.2605 -31.2603 -31.1559
   -31.1557 -31.1541 -31.1169 -31.1168 -31.0619 -31.0506 -31.0409 -31.0237
   -18.6760 -17.4283 -15.8211 -15.8158 -15.7471 -15.7442 -15.6725 -15.6107
   -15.5135 -15.5098 -15.4639 -15.3748 -15.2966 -15.2784 -15.2084 -15.2021
   -15.2000 -15.1913 -15.1240 -15.1135 -15.0738 -15.0509 -15.0263 -15.0222
   -14.9925 -14.9700 -14.7575 -14.7008 -14.6365 -14.5614 -14.4043 -13.4316
   -13.4315 -11.6381  -6.5307  -6.4414  -4.3519  -3.8967  -3.1290  -3.0188
    -2.9408  -2.9298  -2.9016  -2.8091  -2.7588  -2.7358  -2.7129  -2.6928
    -2.6179  -2.6079  -2.5562  -2.5506  -2.5154  -2.4994  -2.4448  -2.4337
    -2.4243  -2.4186  -2.3701  -2.3337  -2.3293  -2.3186  -2.2936  -2.2244
    -2.1621  -2.1229  -2.0860  -2.0789  -2.0763  -2.0125  -1.9864  -1.9530
    -1.9062  -1.9018  -1.8659  -1.8150  -1.6841  -1.6734  -1.5403  -1.4745
    -1.4552  -1.3697  -1.3251  -1.2923  -1.2155  -1.1704  -1.1397  -1.0300
    -1.0086  -0.9784  -0.9609  -0.9328  -0.9260  -0.8823  -0.7736  -0.7526
    -0.7168  -0.7111  -0.6333  -0.6029  -0.5527  -0.5330  -0.5187  -0.4759
    -0.4559  -0.3726  -0.3498  -0.2929  -0.2413  -0.1984  -0.1489  -0.0955
    -0.0077   0.0543   0.1086   0.1947   0.2029   0.2129   0.4148   0.4203
     0.5240   0.6065   0.7339   0.7591   0.7736   0.8783   0.9186   0.9423
     0.9708   1.1320   1.1732   1.4643   1.4660   1.4955   1.4959   1.7328
     2.8834   3.6360   3.6362   3.6726   3.6739   3.9093   3.9125   3.9617
     3.9689   4.0251   4.0492

     the Fermi energy is     3.0433 ev

!    total energy              =   -2972.73820442 Ry
     estimated scf accuracy    <       0.00000005 Ry
     smearing contrib. (-TS)   =      -0.01261191 Ry
     internal energy E=F+TS    =   -2972.72559251 Ry

     The total energy is F=E-TS. E is the sum of the following terms:
     one-electron contribution =  -24071.23223703 Ry
     hartree contribution      =   12129.21463202 Ry
     xc contribution           =    -493.17308777 Ry
     ewald contribution        =    9462.46425773 Ry
     electric field correction =       0.00084255 Ry

     convergence has been achieved in  70 iterations

     Forces acting on atoms (cartesian axes, Ry/au):

     atom    1 type  1   force =     0.00012813   -0.00030075    0.10888736
     atom    2 type  1   force =    -0.00011428   -0.00041019   -0.16767194
     atom    3 type  2   force =    -0.00015722   -0.00001020   -0.04402067
     atom    4 type  2   force =     0.00004894   -0.00074728    0.03923819
     atom    5 type  2   force =    -0.01328338    0.00016687   -0.00461724
     atom    6 type  2   force =     0.01488215    0.00104064   -0.00544106
     atom    7 type  1   force =    -0.00092947   -0.00252180    0.01187374
     atom    8 type  1   force =     0.00124901    0.00153987    0.07769931
     atom    9 type  2   force =    -0.00006213   -0.00015114   -0.00038266
     atom   10 type  2   force =    -0.00115876    0.00039155   -0.05142590
     atom   11 type  2   force =    -0.00005486    0.00035880    0.00003576
     atom   12 type  2   force =    -0.00003059    0.00024685    0.00000139
     atom   13 type  1   force =     0.00045452    0.00000881    0.00046804
     atom   14 type  1   force =    -0.00023292   -0.00008438    0.00033474
     atom   15 type  2   force =    -0.00019213   -0.00016219   -0.00011697
     atom   16 type  2   force =     0.00012333    0.00002298   -0.00024465
     atom   17 type  2   force =    -0.00103549    0.00016129   -0.00052462
     atom   18 type  2   force =    -0.00009521    0.00048881    0.00005567
     atom   19 type  1   force =     0.00056340   -0.00011495    0.00035586
     atom   20 type  1   force =    -0.00061534    0.00054223    0.00039016
     atom   21 type  2   force =     0.00007829    0.00005644    0.10123975
     atom   22 type  2   force =     0.00002645   -0.00000441   -0.00009115
     atom   23 type  2   force =    -0.07510916   -0.00002546   -0.03018161
     atom   24 type  2   force =     0.07508324    0.00042896   -0.03017735
     atom   25 type  1   force =     0.00021601   -0.00028684    0.10854653
     atom   26 type  1   force =    -0.00009516   -0.00045271   -0.16769016
     atom   27 type  2   force =    -0.00001894   -0.00025558   -0.04302031
     atom   28 type  2   force =     0.00011463   -0.00046947    0.03860178
     atom   29 type  2   force =    -0.01360277    0.00095049   -0.00484887
     atom   30 type  2   force =     0.01513603    0.00121088   -0.00572450
     atom   31 type  1   force =    -0.00125422    0.00050117    0.00757327
     atom   32 type  1   force =     0.00133229   -0.00408935    0.07813034
     atom   33 type  2   force =    -0.00006579    0.00012340   -0.00041306
     atom   34 type  2   force =    -0.00138551    0.00035011   -0.05748159
     atom   35 type  2   force =     0.00001277   -0.00049495   -0.00010673
     atom   36 type  2   force =    -0.00037909   -0.00022410   -0.00019953
     atom   37 type  1   force =    -0.00006433   -0.00001992    0.00018809
     atom   38 type  1   force =    -0.00019819    0.00022320    0.00005491
     atom   39 type  2   force =     0.00002315    0.00001272   -0.00101599
     atom   40 type  2   force =    -0.00001106    0.00028634    0.00005759
     atom   41 type  2   force =    -0.00039710    0.00007518   -0.00027136
     atom   42 type  2   force =    -0.00064800   -0.00011772    0.00009473
     atom   43 type  1   force =     0.00051175    0.00070589    0.00037225
     atom   44 type  1   force =    -0.00036289   -0.00020269    0.00064831
     atom   45 type  2   force =     0.00006854    0.00003756    0.10118675
     atom   46 type  2   force =    -0.07509706    0.00004319   -0.03014141
     atom   47 type  2   force =     0.07507315    0.00047658   -0.03015367
     atom   48 type  3   force =    -0.00243388    0.00002722   -0.00303719
     atom   49 type  3   force =     0.00411061    0.00030403    0.00323893
     atom   50 type  4   force =    -0.00003906    0.00008771   -0.00018561
     atom   51 type  5   force =     0.00028903    0.00044824   -0.00010289
     atom   52 type  5   force =    -0.00011684   -0.00010612    0.00010102
     atom   53 type  2   force =     0.00040660    0.00057338    0.00032811
     atom   54 type  5   force =    -0.00082188   -0.00088436   -0.00018822
     atom   55 type  5   force =     0.00013067    0.00024515   -0.00022567

     Total force =     0.390736     Total SCF correction =     0.000641
  @ DRIVER MODE: Message from server: STATUS
  @ DRIVER MODE: Message from server: GETFORCE
  @ DRIVER MODE: Returning v,forces,stress,ensemble

     Writing output data file ./calc.save/
  @ DRIVER MODE: Message from server: EXIT
  @ DRIVE MODE: Exiting

     General routines

     Parallel routines

   This run was terminated on:  18: 3:34  15Sep2021

   JOB DONE.