     Program PWSCF v.6.7GPU starts on 16Sep2021 at  2:47:28

     R & G space division:  proc/nbgrp/npool/nimage =      10
     Reading input from /storage/home/hcoda1/3/ntian30/research/carbon/CxH_vib/H2O_calc/ads_slab/CH2NHHH2O_a/out_0033/pw.inp
Warning: card &CELL ignored
Warning: card   CELL_DYNAMICS='IPI', ignored
Warning: card / ignored

     Current dimensions of program PWSCF are:
     Max number of different atomic species (ntypx) = 10
     Max number of k-points (npk) =  40000
     Max angular momentum in pseudopotentials (lmaxx) =  3
     Presently no symmetry can be used with electric field

     Message from routine cell_base_init:
     DEPRECATED: use true lattice parameter, not A to a.u. conversion factor

     IMPORTANT: XC functional enforced from input :
     Exchange-correlation= BEEF-VDW
                           (   1   4  43  14   2   0   0)
     Any further DFT definition will be discarded
     Please, verify this is what you really want

  @ DRIVER MODE: Connecting to
 qe_1139763_2852609.sched-torque.pace.gatech.eduzum7va7i_scratch
  using UNIX socket
  @ DRIVER MODE: Message from server: STATUS
  @ DRIVER MODE: Message from server: INIT
  @ DRIVER MODE: Receiving replica           0          -1
  @ DRIVER MODE: Receiving encoded integer          25
  @ DRIVER MODE:  SCF:  T  FORCE:  T  STRESS:  F  VC:  F  ENSEMBLE:  F
  @ DRIVER MODE:  SCF:  T  FORCE:  T  STRESS:  F  VC:  F  ENSEMBLE:  F

     Using Slab Decomposition

     bravais-lattice index     =            0
     lattice parameter (alat)  =       1.8897  a.u.
     unit-cell volume          =    6658.9804 (a.u.)^3
     number of atoms/cell      =           56
     number of atomic types    =            5
     number of electrons       =       399.00
     number of Kohn-Sham states=          209
     kinetic-energy cutoff     =      29.3995  Ry
     charge density cutoff     =     293.9946  Ry
     scf convergence threshold =      7.3E-08
     mixing beta               =       0.0500
     number of iterations used =            8  plain     mixing
     Exchange-correlation= BEEF-VDW
                           (   1   4  43  14   2   0   0)

     celldm(1)=   1.889726  celldm(2)=   0.000000  celldm(3)=   0.000000
     celldm(4)=   0.000000  celldm(5)=   0.000000  celldm(6)=   0.000000

     crystal axes: (cart. coord. in units of alat)
               a(1) = (   6.579727   0.000000   0.000000 )
               a(2) = (  -0.000775   5.961596   0.000000 )
               a(3) = (   0.000000   0.000000  25.155947 )

     reciprocal axes: (cart. coord. in units 2 pi/alat)
               b(1) = (  0.151982  0.000020  0.000000 )
               b(2) = (  0.000000  0.167740  0.000000 )
               b(3) = (  0.000000  0.000000  0.039752 )

     PseudoPot. # 1 for Ti read from file:
     /storage/coda1/p-amedford6/0/shared/rich_project_chbe-medford/medford-share/data/pseudos_module/espresso/nninc/pbe/van/Ti.UPF
     MD5 check sum: 8e4df49b7f0d34bbd5052bf3f5ea0213
     Pseudo is Ultrasoft, Zval = 12.0
     Generated by new atomic code, or converted to UPF format
     Using radial grid of  851 points,  6 beta functions with:
                l(1) =   0
                l(2) =   0
                l(3) =   1
                l(4) =   1
                l(5) =   2
                l(6) =   2
     Q(r) pseudized with  8 coefficients,  rinner =    1.000   1.000   1.000
                                                       1.000   1.000

     PseudoPot. # 2 for O  read from file:
     /storage/coda1/p-amedford6/0/shared/rich_project_chbe-medford/medford-share/data/pseudos_module/espresso/nninc/pbe/van/O.UPF
     MD5 check sum: 78c19812648e8988a0fe644b0f25305e
     Pseudo is Ultrasoft, Zval =  6.0
     Generated by new atomic code, or converted to UPF format
     Using radial grid of  737 points,  4 beta functions with:
                l(1) =   0
                l(2) =   0
                l(3) =   1
                l(4) =   1
     Q(r) pseudized with  8 coefficients,  rinner =    0.800   0.800   0.800

     PseudoPot. # 3 for N  read from file:
     /storage/coda1/p-amedford6/0/shared/rich_project_chbe-medford/medford-share/data/pseudos_module/espresso/nninc/pbe/van/N.UPF
     MD5 check sum: 90d10febe142ad51ac9d5be1deb811c4
     Pseudo is Ultrasoft, Zval =  5.0
     Generated by new atomic code, or converted to UPF format
     Using radial grid of  729 points,  4 beta functions with:
                l(1) =   0
                l(2) =   0
                l(3) =   1
                l(4) =   1
     Q(r) pseudized with  8 coefficients,  rinner =    0.800   0.800   0.800

     PseudoPot. # 4 for C  read from file:
     /storage/coda1/p-amedford6/0/shared/rich_project_chbe-medford/medford-share/data/pseudos_module/espresso/nninc/pbe/van/C.UPF
     MD5 check sum: 1a69bf6b8db32088f5b2163dbdb77a27
     Pseudo is Ultrasoft, Zval =  4.0
     Generated by new atomic code, or converted to UPF format
     Using radial grid of  721 points,  4 beta functions with:
                l(1) =   0
                l(2) =   0
                l(3) =   1
                l(4) =   1
     Q(r) pseudized with  8 coefficients,  rinner =    0.800   0.800   0.800

     PseudoPot. # 5 for H  read from file:
     /storage/coda1/p-amedford6/0/shared/rich_project_chbe-medford/medford-share/data/pseudos_module/espresso/nninc/pbe/van/H.UPF
     MD5 check sum: b5ee9d7bfd3a09ee7748110bda690ff7
     Pseudo is Ultrasoft, Zval =  1.0
     Generated by new atomic code, or converted to UPF format
     Using radial grid of  615 points,  1 beta functions with:
                l(1) =   0
     Q(r) pseudized with  8 coefficients,  rinner =    0.800

     atomic species   valence    mass     pseudopotential
        Ti1           12.00    47.86700     Ti( 1.00)
        O1             6.00    15.99900     O ( 1.00)
        N1             5.00    14.00700     N ( 1.00)
        C1             4.00    12.01100     C ( 1.00)
        H1             1.00     1.00800     H ( 1.00)

     No symmetry found

   Cartesian axes

     site n.     atom                  positions (alat units)
         1           Ti1 tau(   1) = (   0.0004258   2.9801865   6.0000000  )
         2           Ti1 tau(   2) = (   3.2906075   1.4906267   6.0002472  )
         3           O1  tau(   3) = (   0.0006271   0.0005054   7.9858123  )
         4           O1  tau(   4) = (   3.2906025   0.0005020   7.3038282  )
         5           O1  tau(   5) = (   4.5942328   1.4918067   9.2879030  )
         6           O1  tau(   6) = (   1.9868534   1.4903216   9.2879459  )
         7           Ti1 tau(   7) = (   3.2907910   2.8959150   9.1758416  )
         8           Ti1 tau(   8) = (   0.0015273   1.4827037   9.2680791  )
         9           O1  tau(   9) = (   3.2861202   0.0128588  11.3777969  )
        10           O1  tau(  10) = (   0.0116148   5.9584955  10.6183126  )
        11           O1  tau(  11) = (   1.2831632   1.4993340  12.6921085  )
        12           O1  tau(  12) = (   5.2921761   1.5015178  12.6679780  )
        13           Ti1 tau(  13) = (   0.0111066   2.9912061  12.5123142  )
        14           Ti1 tau(  14) = (   3.3187119   1.4875497  12.5412637  )
        15           O1  tau(  15) = (   6.5416963   5.9006142  14.6662030  )
        16           O1  tau(  16) = (   3.3066524   0.0016155  14.0179881  )
        17           O1  tau(  17) = (   4.5377470   1.5714702  16.1207712  )
        18           O1  tau(  18) = (   1.9925948   1.5577299  16.0387284  )
        19           Ti1 tau(  19) = (   3.2598466   3.0207798  15.7337896  )
        20           Ti1 tau(  20) = (   0.0086319   1.3133152  15.8444473  )
        21           O1  tau(  21) = (   3.2904802   0.0005063   4.7018136  )
        22           O1  tau(  22) = (   6.5660721   0.1678205  17.2271563  )
        23           O1  tau(  23) = (   1.3043587   1.4918075   6.0039043  )
        24           O1  tau(  24) = (   5.2767064   1.4903225   6.0039473  )
        25           Ti1 tau(  25) = (   0.0000382   5.9609847   6.0000000  )
        26           Ti1 tau(  26) = (   3.2902200   4.4714249   6.0002472  )
        27           O1  tau(  27) = (   0.0002396   2.9813036   7.9858123  )
        28           O1  tau(  28) = (   3.2902150   2.9813002   7.3038282  )
        29           O1  tau(  29) = (   4.5938453   4.4726049   9.2879030  )
        30           O1  tau(  30) = (   1.9864658   4.4711199   9.2879459  )
        31           Ti1 tau(  31) = (   3.2891106   5.8743827   9.1763621  )
        32           Ti1 tau(  32) = (   0.0006254   4.4649316   9.2693709  )
        33           O1  tau(  33) = (   3.2870289   2.9785969  11.3746142  )
        34           O1  tau(  34) = (   0.0092240   2.9805883  10.6323155  )
        35           O1  tau(  35) = (   1.2865429   4.4729593  12.6568099  )
        36           O1  tau(  36) = (   5.2907978   4.4713399  12.6331247  )
        37           Ti1 tau(  37) = (   0.0245089   0.0029545  12.5000319  )
        38           Ti1 tau(  38) = (   3.3192338   4.4773935  12.5310228  )
        39           O1  tau(  39) = (   6.5398775   3.0461246  14.9162120  )
        40           O1  tau(  40) = (   3.2968145   3.0151409  13.9465962  )
        41           O1  tau(  41) = (   4.5189833   4.4812017  16.2068643  )
        42           O1  tau(  42) = (   1.9905864   4.4756957  16.1679402  )
        43           Ti1 tau(  43) = (   3.3140030   0.0507474  15.8534526  )
        44           Ti1 tau(  44) = (   0.0184218   4.5194176  15.9927436  )
        45           O1  tau(  45) = (   3.2900926   2.9813045   4.7018136  )
        46           O1  tau(  46) = (   1.3039711   4.4726057   6.0039043  )
        47           O1  tau(  47) = (   5.2763189   4.4711207   6.0039473  )
        48           N1  tau(  48) = (   6.2908993   3.4294391  18.1752670  )
        49           C1  tau(  49) = (   0.7550536   3.1452864  19.0745941  )
        50           H1  tau(  50) = (   1.1396299   3.9643166  19.6610198  )
        51           H1  tau(  51) = (   1.3301158   2.2513941  18.9084762  )
        52           H1  tau(  52) = (   5.7550451   4.2450011  18.4501662  )
        53           H1  tau(  53) = (   5.6463078   2.6397838  18.0429669  )
        54           O1  tau(  54) = (   3.1180431   0.1968263  18.2683150  )
        55           H1  tau(  55) = (   3.8687171   5.7182160  18.6922429  )
        56           H1  tau(  56) = (   2.3371514   5.6040609  18.4451484  )

     number of k points=    10  Fermi-Dirac smearing, width (Ry)=  0.0073
                       cart. coord. in units 2pi/alat
        k(    1) = (   0.0000000   0.0000000   0.0000000), wk =   0.1250000
        k(    2) = (   0.0000000   0.0419351   0.0000000), wk =   0.2500000
        k(    3) = (   0.0000000  -0.0838702   0.0000000), wk =   0.1250000
        k(    4) = (   0.0379955   0.0000049   0.0000000), wk =   0.2500000
        k(    5) = (   0.0379955   0.0419400   0.0000000), wk =   0.2500000
        k(    6) = (   0.0379955  -0.0838652   0.0000000), wk =   0.2500000
        k(    7) = (   0.0379955  -0.0419301   0.0000000), wk =   0.2500000
        k(    8) = (  -0.0759910  -0.0000099   0.0000000), wk =   0.1250000
        k(    9) = (  -0.0759910   0.0419252   0.0000000), wk =   0.2500000
        k(   10) = (  -0.0759910  -0.0838800   0.0000000), wk =   0.1250000

     Initial potential from superposition of free atoms

     starting charge  382.99914, renormalised to  399.00000

     negative rho (up, down):  1.613E-02 0.000E+00

     %%%%%%%%%%%%%%%%%%%%%%%%%%%%%%%%%%%%%%%%%%%%%%%%%%%%%%%%%%%%%%%%%%%%%%%%
     %                                                                      %
     % You are using vdW-DF, which was implemented by the Thonhauser group. %
     % Please cite the following two papers that made this development      %
     % possible and the two reviews that describe the various versions:     %
     %                                                                      %
     %   T. Thonhauser et al., PRL 115, 136402 (2015).                      %
     %   T. Thonhauser et al., PRB 76, 125112 (2007).                       %
     %   K. Berland et al., Rep. Prog. Phys. 78, 066501 (2015).             %
     %   D.C. Langreth et al., J. Phys.: Condens. Matter 21, 084203 (2009). %
     %                                                                      %
     %                                                                      %
     % If you are calculating the stress with vdW-DF, please also cite:     %
     %                                                                      %
     %   R. Sabatini et al., J. Phys.: Condens. Matter 24, 424209 (2012).   %
     %                                                                      %
     %%%%%%%%%%%%%%%%%%%%%%%%%%%%%%%%%%%%%%%%%%%%%%%%%%%%%%%%%%%%%%%%%%%%%%%%

     Adding external electric field

     Computed dipole along edir(3) :
        Dipole              -11.3169 Ry au,        -28.7647 Debye
        Dipole field         -0.0214 Ry au,

        Potential amp.        1.9797 Ry
        Total length         46.3494 bohr

     Starting wfcs are  302 atomic wfcs
  @ DRIVER MODE: Message from server: STATUS
  @ DRIVER MODE: Message from server: POSDATA
  @ DRIVER MODE: Reading and sharing cell
  @ DRIVER MODE: Reading and sharing positions
  @ DRIVER MODE: Received positions

     Self-consistent Calculation

     iteration #  1     ecut=    29.40 Ry     beta= 0.05
     Davidson diagonalization with overlap
     c_bands:  3 eigenvalues not converged
     c_bands:  2 eigenvalues not converged
     c_bands:  1 eigenvalues not converged
     c_bands:  5 eigenvalues not converged
     c_bands:  1 eigenvalues not converged
     c_bands:  1 eigenvalues not converged
     c_bands:  1 eigenvalues not converged
     c_bands:  2 eigenvalues not converged
     c_bands:  3 eigenvalues not converged
     ethr =  1.00E-05,  avg # of iterations = 24.0

[...]

     total energy              =   -2437.57861804 Ry
     estimated scf accuracy    <    5825.85480874 Ry

     iteration #  2     ecut=    29.40 Ry     beta= 0.05
     Davidson diagonalization with overlap
     ethr =  1.00E-02,  avg # of iterations = 26.9

[...]

     iteration # 83     ecut=    29.40 Ry     beta= 0.05
     Davidson diagonalization with overlap
     c_bands:  1 eigenvalues not converged
     ethr =  2.84E-10,  avg # of iterations = 13.3

[...]

     total energy              =   -2955.08675890 Ry
     estimated scf accuracy    <       0.00000009 Ry

     iteration # 88     ecut=    29.40 Ry     beta= 0.05
     Davidson diagonalization with overlap
     ethr =  2.14E-11,  avg # of iterations =  5.9

     negative rho (up, down):  1.530E-02 0.000E+00

     Adding external electric field

     Computed dipole along edir(3) :
        Dipole                0.9582 Ry au,          2.4355 Debye
        Dipole field          0.0018 Ry au,

        Potential amp.       -0.1676 Ry
        Total length         46.3494 bohr

     End of self-consistent calculation

          k = 0.0000 0.0000 0.0000 ( 18029 PWs)   bands (ev):

   -55.5423 -55.5088 -55.5057 -55.4880 -55.4747 -55.4262 -55.3899 -55.3705
   -55.3535 -55.3408 -55.3356 -55.3072 -55.2960 -55.1139 -54.5352 -54.5012
   -32.0982 -32.0010 -31.9145 -31.8994 -31.8751 -31.8593 -31.8455 -31.8406
   -31.7978 -31.7626 -31.7569 -31.7537 -31.7438 -31.7195 -31.7140 -31.6933
   -31.6837 -31.6810 -31.6695 -31.6611 -31.6399 -31.6224 -31.6053 -31.5992
   -31.5701 -31.5660 -31.5619 -31.5589 -31.5565 -31.5441 -31.5349 -31.5279
   -31.5237 -31.5185 -31.5079 -31.4960 -31.4842 -31.4688 -31.4676 -31.4517
   -31.3393 -31.2949 -30.9444 -30.8506 -30.8285 -30.7608 -30.6741 -30.5632
   -19.2386 -16.3907 -16.2998 -16.0858 -15.9210 -15.8428 -15.7459 -15.6055
   -15.5339 -15.4233 -15.3871 -15.2283 -15.2040 -15.1974 -15.1623 -15.1455
   -15.1059 -15.0876 -15.0587 -15.0470 -15.0455 -15.0236 -14.9870 -14.9831
   -14.9408 -14.9277 -14.8686 -14.7724 -14.7044 -14.6404 -14.3293 -13.0373
   -12.9199  -9.1964  -7.0109  -6.5470  -4.5929  -3.7158  -3.5847  -3.5607
    -3.5014  -3.4473  -3.4059  -3.2988  -3.0689  -3.0218  -2.9776  -2.9302
    -2.8102  -2.7392  -2.7349  -2.6557  -2.5801  -2.5382  -2.4839  -2.4747
    -2.3968  -2.3629  -2.3452  -2.3219  -2.2784  -2.2507  -2.2092  -2.1178
    -2.0970  -2.0188  -1.9894  -1.9449  -1.9413  -1.8935  -1.8755  -1.8368
    -1.8358  -1.8260  -1.8050  -1.7677  -1.7250  -1.6697  -1.5785  -1.5516
    -1.3852  -1.2739  -1.2089  -1.1816  -1.1290  -1.0974  -1.0318  -0.9837
    -0.9701  -0.9334  -0.8665  -0.7638  -0.6982  -0.6855  -0.6255  -0.5342
    -0.4762  -0.4384  -0.3563  -0.3303  -0.3117  -0.3063  -0.2429  -0.1746
    -0.1280  -0.0541  -0.0378   0.0179   0.0404   0.0900   0.1214   0.1882
     0.2440   0.2840   0.3359   0.3902   0.3919   0.4068   0.4418   0.4434
     0.5433   0.5555   0.5777   0.6784   0.7776   0.9646   1.0635   1.0983
     1.3960   1.4116   1.4880   1.6723   2.0637   2.1117   3.5183   3.5488
     3.6327   3.6881   3.6970   3.7267   3.7834   4.0368   4.0483   4.0703
     4.0833

[...]

          k = 0.0380-0.0419 0.0000 ( 17876 PWs)   bands (ev):

[...]

          k =-0.0760-0.0000 0.0000 ( 17886 PWs)   bands (ev):

[...]

          k =-0.0760-0.0839 0.0000 ( 17948 PWs)   bands (ev):

   -55.5278 -55.5200 -55.4918 -55.4916 -55.4858 -55.4139 -55.4022 -55.3558
   -55.3555 -55.3497 -55.3243 -55.3239 -55.2942 -55.1157 -54.5183 -54.5180
   -31.9099 -31.8976 -31.8162 -31.8159 -31.7993 -31.7983 -31.7877 -31.7832
   -31.7831 -31.7669 -31.7556 -31.7484 -31.7310 -31.7133 -31.6941 -31.6883
   -31.6851 -31.6830 -31.6784 -31.6717 -31.6690 -31.6592 -31.6314 -31.6304
   -31.6114 -31.6112 -31.6085 -31.5989 -31.5879 -31.5795 -31.5691 -31.5633
   -31.5543 -31.5540 -31.5513 -31.5419 -31.5126 -31.5040 -31.5035 -31.4815
   -31.3787 -31.3423 -30.8413 -30.8411 -30.7570 -30.7568 -30.7175 -30.7174
   -19.2377 -16.3075 -15.8837 -15.7842 -15.6542 -15.5712 -15.5486 -15.4753
   -15.4173 -15.3835 -15.3275 -15.3042 -15.2906 -15.2750 -15.2403 -15.2143
   -15.1946 -15.1513 -15.1340 -15.1158 -15.0846 -15.0593 -15.0483 -15.0431
   -15.0374 -15.0029 -14.9985 -14.9133 -14.9039 -14.9004 -14.5716 -13.0215
   -13.0214  -9.1954  -7.0426  -6.4869  -4.5756  -3.5492  -3.0923  -3.0476
    -2.9934  -2.8537  -2.7938  -2.7281  -2.6925  -2.6494  -2.5991  -2.5654
    -2.5474  -2.4963  -2.4886  -2.4235  -2.4080  -2.3927  -2.3742  -2.3707
    -2.3622  -2.3250  -2.2901  -2.2763  -2.2694  -2.2601  -2.2465  -2.1996
    -2.1842  -2.1529  -2.1434  -2.1098  -2.0806  -2.0509  -1.9379  -1.9051
    -1.8807  -1.8168  -1.7522  -1.7464  -1.6651  -1.6433  -1.5872  -1.5834
    -1.5641  -1.5254  -1.3980  -1.2916  -1.2802  -1.2294  -1.1965  -1.1726
    -1.1099  -1.0593  -1.0046  -1.0018  -0.9118  -0.8645  -0.8386  -0.7363
    -0.7060  -0.6982  -0.5813  -0.5564  -0.5179  -0.5067  -0.5005  -0.4411
    -0.4336  -0.4091  -0.3272  -0.3084  -0.2813  -0.2697  -0.2074  -0.0469
    -0.0161   0.0282   0.1560   0.1947   0.3588   0.3896   0.4216   0.5279
     0.5730   0.6204   0.6250   0.7479   0.7578   0.8450   0.8557   0.8742
     0.9102   0.9219   1.8448   1.8462   1.9317   1.9318   3.5351   3.7776
     3.8434   3.8508   3.8880   4.0241   4.0680   4.1266   4.1299   4.1396
     4.1583

     the Fermi energy is     3.6051 ev

!    total energy              =   -2955.08676697 Ry
     estimated scf accuracy    <       0.00000006 Ry
     smearing contrib. (-TS)   =      -0.04072970 Ry
     internal energy E=F+TS    =   -2955.04603728 Ry

     The total energy is F=E-TS. E is the sum of the following terms:
     one-electron contribution =  -23873.26995296 Ry
     hartree contribution      =   12028.82228941 Ry
     xc contribution           =    -489.72714766 Ry
     ewald contribution        =    9379.12704129 Ry
     electric field correction =       0.00173265 Ry

     convergence has been achieved in  88 iterations

     Forces acting on atoms (cartesian axes, Ry/au):

     atom    1 type  1   force =    -0.00000327   -0.00025776    0.09339346
     atom    2 type  1   force =    -0.00016125   -0.00039776   -0.17807460
     atom    3 type  2   force =     0.00001252   -0.00034806   -0.02033998
     atom    4 type  2   force =    -0.00003634   -0.00190300    0.05857580
     atom    5 type  2   force =    -0.01017787   -0.00085446    0.00745240
     atom    6 type  2   force =     0.01151604   -0.00018177    0.00625270
     atom    7 type  1   force =    -0.00076539    0.00202521   -0.01054846
     atom    8 type  1   force =     0.00031618    0.00073257   -0.00333348
     atom    9 type  2   force =     0.00024101    0.00042438    0.00014340
     atom   10 type  2   force =    -0.00108348    0.00267606   -0.00405706
     atom   11 type  2   force =    -0.00027868    0.00005370    0.00002274
     atom   12 type  2   force =    -0.00003384   -0.00002809    0.00012724
     atom   13 type  1   force =     0.00075317    0.00071922    0.00040168
     atom   14 type  1   force =    -0.00093882   -0.00011662   -0.00008798
     atom   15 type  2   force =    -0.00011346   -0.00025040    0.00061456
     atom   16 type  2   force =     0.00031848    0.00056017    0.00002820
     atom   17 type  2   force =     0.00019243   -0.00030242    0.00032840
     atom   18 type  2   force =     0.00058570    0.00021140    0.00007836
     atom   19 type  1   force =    -0.00078001   -0.00055705    0.00010821
     atom   20 type  1   force =     0.00027546   -0.00044294   -0.00061120
     atom   21 type  2   force =     0.00002128   -0.00011589    0.10391800
     atom   22 type  2   force =    -0.00005862   -0.00136209    0.00074053
     atom   23 type  2   force =    -0.07056971   -0.00021139   -0.02694421
     atom   24 type  2   force =     0.07038929    0.00022715   -0.02699054
     atom   25 type  1   force =     0.00003432   -0.00022002    0.09300306
     atom   26 type  1   force =    -0.00023742   -0.00043920   -0.17804039
     atom   27 type  2   force =     0.00006973   -0.00024748   -0.01932434
     atom   28 type  2   force =     0.00002306   -0.00162754    0.05767231
     atom   29 type  2   force =    -0.01076346   -0.00046517    0.00808222
     atom   30 type  2   force =     0.01198118   -0.00007754    0.00684319
     atom   31 type  1   force =    -0.00063654    0.00608892   -0.01378345
     atom   32 type  1   force =     0.00028447   -0.00084900   -0.00339199
     atom   33 type  2   force =     0.00014311    0.00006793    0.00000201
     atom   34 type  2   force =    -0.00051091   -0.00107395   -0.00266152
     atom   35 type  2   force =    -0.00041437    0.00006147    0.00004414
     atom   36 type  2   force =     0.00005061    0.00001602    0.00026259
     atom   37 type  1   force =     0.00083258   -0.00082379    0.00022448
     atom   38 type  1   force =    -0.00088754    0.00033800   -0.00054126
     atom   39 type  2   force =    -0.00022984   -0.00018790   -0.00011896
     atom   40 type  2   force =     0.00033036    0.00013820    0.00042659
     atom   41 type  2   force =     0.00003776   -0.00023484   -0.00009287
     atom   42 type  2   force =     0.00052174   -0.00012924   -0.00045298
     atom   43 type  1   force =    -0.00106400   -0.00004112    0.00036443
     atom   44 type  1   force =     0.00120059   -0.00058874   -0.00036888
     atom   45 type  2   force =     0.00000857   -0.00012267    0.10391376
     atom   46 type  2   force =    -0.07056574   -0.00017545   -0.02692264
     atom   47 type  2   force =     0.07038982    0.00026697   -0.02699203
     atom   48 type  3   force =    -0.00468585   -0.00988980   -0.00106473
     atom   49 type  4   force =     0.00091323    0.00184687   -0.00007201
     atom   50 type  5   force =    -0.00045922   -0.00089901   -0.00050649
     atom   51 type  5   force =     0.00020590    0.00005034    0.00027615
     atom   52 type  5   force =    -0.00054218   -0.00088953   -0.00028875
     atom   53 type  5   force =     0.00567870    0.00973533    0.00202885
     atom   54 type  2   force =    -0.00000232    0.00021825    0.00026061
     atom   55 type  5   force =    -0.00066617   -0.00023697   -0.00011178
     atom   56 type  5   force =    -0.00066100    0.00009053    0.00013252

     Total force =     0.366177     Total SCF correction =     0.000641
  @ DRIVER MODE: Message from server: STATUS
  @ DRIVER MODE: Message from server: GETFORCE
  @ DRIVER MODE: Returning v,forces,stress,ensemble

     Writing output data file ./calc.save/
  @ DRIVER MODE: Message from server: EXIT
  @ DRIVE MODE: Exiting

     General routines

     Parallel routines

   This run was terminated on:   3: 8:51  16Sep2021

   JOB DONE.