     Program PWSCF v.6.7GPU starts on 15Sep2021 at 19:10:36

     R & G space division:  proc/nbgrp/npool/nimage =      10
     Reading input from /storage/home/hcoda1/3/ntian30/research/carbon/CxH_vib/H2O_calc/ads_slab/CHNH2O_a/out_0011/pw.inp
Warning: card &CELL ignored
Warning: card   CELL_DYNAMICS='IPI', ignored
Warning: card / ignored

     Current dimensions of program PWSCF are:
     Max number of different atomic species (ntypx) = 10
     Max number of k-points (npk) =  40000
     Max angular momentum in pseudopotentials (lmaxx) =  3
     Presently no symmetry can be used with electric field

     Message from routine cell_base_init:
     DEPRECATED: use true lattice parameter, not A to a.u. conversion factor

     IMPORTANT: XC functional enforced from input :
     Exchange-correlation= BEEF-VDW
                           (   1   4  43  14   2   0   0)
     Any further DFT definition will be discarded
     Please, verify this is what you really want

  @ DRIVER MODE: Connecting to
 qe_1139763_2852627.sched-torque.pace.gatech.eduyplwy_lt_scratch
  using UNIX socket
  @ DRIVER MODE: Message from server: STATUS
  @ DRIVER MODE: Message from server: INIT
  @ DRIVER MODE: Receiving replica           0          -1
  @ DRIVER MODE: Receiving encoded integer          25
  @ DRIVER MODE:  SCF:  T  FORCE:  T  STRESS:  F  VC:  F  ENSEMBLE:  F
  @ DRIVER MODE:  SCF:  T  FORCE:  T  STRESS:  F  VC:  F  ENSEMBLE:  F

     Using Slab Decomposition

     bravais-lattice index     =            0
     lattice parameter (alat)  =       1.8897  a.u.
     unit-cell volume          =    6658.9804 (a.u.)^3
     number of atoms/cell      =           53
     number of atomic types    =            5
     number of electrons       =       396.00
     number of Kohn-Sham states=          208
     kinetic-energy cutoff     =      29.3995  Ry
     charge density cutoff     =     293.9946  Ry
     scf convergence threshold =      7.3E-08
     mixing beta               =       0.0500
     number of iterations used =            8  plain     mixing
     Exchange-correlation= BEEF-VDW
                           (   1   4  43  14   2   0   0)

     celldm(1)=   1.889726  celldm(2)=   0.000000  celldm(3)=   0.000000
     celldm(4)=   0.000000  celldm(5)=   0.000000  celldm(6)=   0.000000

     crystal axes: (cart. coord. in units of alat)
               a(1) = (   6.579727   0.000000   0.000000 )
               a(2) = (  -0.000775   5.961596   0.000000 )
               a(3) = (   0.000000   0.000000  25.155947 )

     reciprocal axes: (cart. coord. in units 2 pi/alat)
               b(1) = (  0.151982  0.000020  0.000000 )
               b(2) = (  0.000000  0.167740  0.000000 )
               b(3) = (  0.000000  0.000000  0.039752 )

     PseudoPot. # 1 for Ti read from file:
     /storage/coda1/p-amedford6/0/shared/rich_project_chbe-medford/medford-share/data/pseudos_module/espresso/nninc/pbe/van/Ti.UPF
     MD5 check sum: 8e4df49b7f0d34bbd5052bf3f5ea0213
     Pseudo is Ultrasoft, Zval = 12.0
     Generated by new atomic code, or converted to UPF format
     Using radial grid of  851 points,  6 beta functions with:
                l(1) =   0
                l(2) =   0
                l(3) =   1
                l(4) =   1
                l(5) =   2
                l(6) =   2
     Q(r) pseudized with  8 coefficients,  rinner =    1.000   1.000   1.000
                                                       1.000   1.000

     PseudoPot. # 2 for O  read from file:
     /storage/coda1/p-amedford6/0/shared/rich_project_chbe-medford/medford-share/data/pseudos_module/espresso/nninc/pbe/van/O.UPF
     MD5 check sum: 78c19812648e8988a0fe644b0f25305e
     Pseudo is Ultrasoft, Zval =  6.0
     Generated by new atomic code, or converted to UPF format
     Using radial grid of  737 points,  4 beta functions with:
                l(1) =   0
                l(2) =   0
                l(3) =   1
                l(4) =   1
     Q(r) pseudized with  8 coefficients,  rinner =    0.800   0.800   0.800

     PseudoPot. # 3 for N  read from file:
     /storage/coda1/p-amedford6/0/shared/rich_project_chbe-medford/medford-share/data/pseudos_module/espresso/nninc/pbe/van/N.UPF
     MD5 check sum: 90d10febe142ad51ac9d5be1deb811c4
     Pseudo is Ultrasoft, Zval =  5.0
     Generated by new atomic code, or converted to UPF format
     Using radial grid of  729 points,  4 beta functions with:
                l(1) =   0
                l(2) =   0
                l(3) =   1
                l(4) =   1
     Q(r) pseudized with  8 coefficients,  rinner =    0.800   0.800   0.800

     PseudoPot. # 4 for C  read from file:
     /storage/coda1/p-amedford6/0/shared/rich_project_chbe-medford/medford-share/data/pseudos_module/espresso/nninc/pbe/van/C.UPF
     MD5 check sum: 1a69bf6b8db32088f5b2163dbdb77a27
     Pseudo is Ultrasoft, Zval =  4.0
     Generated by new atomic code, or converted to UPF format
     Using radial grid of  721 points,  4 beta functions with:
                l(1) =   0
                l(2) =   0
                l(3) =   1
                l(4) =   1
     Q(r) pseudized with  8 coefficients,  rinner =    0.800   0.800   0.800

     PseudoPot. # 5 for H  read from file:
     /storage/coda1/p-amedford6/0/shared/rich_project_chbe-medford/medford-share/data/pseudos_module/espresso/nninc/pbe/van/H.UPF
     MD5 check sum: b5ee9d7bfd3a09ee7748110bda690ff7
     Pseudo is Ultrasoft, Zval =  1.0
     Generated by new atomic code, or converted to UPF format
     Using radial grid of  615 points,  1 beta functions with:
                l(1) =   0
     Q(r) pseudized with  8 coefficients,  rinner =    0.800

     atomic species   valence    mass     pseudopotential
        Ti1           12.00    47.86700     Ti( 1.00)
        O1             6.00    15.99900     O ( 1.00)
        N1             5.00    14.00700     N ( 1.00)
        C1             4.00    12.01100     C ( 1.00)
        H1             1.00     1.00800     H ( 1.00)

     No symmetry found

   Cartesian axes

     site n.     atom                  positions (alat units)
         1           Ti1 tau(   1) = (   0.0004258   2.9801865   6.0000000  )
         2           Ti1 tau(   2) = (   3.2906075   1.4906267   6.0002472  )
         3           O1  tau(   3) = (   0.0006271   0.0005054   7.9858123  )
         4           O1  tau(   4) = (   3.2906025   0.0005020   7.3038282  )
         5           O1  tau(   5) = (   4.5942328   1.4918067   9.2879030  )
         6           O1  tau(   6) = (   1.9868534   1.4903216   9.2879459  )
         7           Ti1 tau(   7) = (   3.2907910   2.8959150   9.1758416  )
         8           Ti1 tau(   8) = (   0.0015273   1.4827037   9.2680791  )
         9           O1  tau(   9) = (   3.3001320   0.0223556  11.3750156  )
        10           O1  tau(  10) = (   0.0116148   5.9584955  10.6183126  )
        11           O1  tau(  11) = (   1.2984793   1.5070296  12.6822906  )
        12           O1  tau(  12) = (   5.3053048   1.5066133  12.6782214  )
        13           Ti1 tau(  13) = (   0.0240538   2.9928608  12.5236668  )
        14           Ti1 tau(  14) = (   3.3205759   1.5163330  12.5292614  )
        15           O1  tau(  15) = (   0.0116174   5.9170763  14.6754219  )
        16           O1  tau(  16) = (   3.3074613   5.9602333  14.0123823  )
        17           O1  tau(  17) = (   4.5729729   1.5428591  16.1031931  )
        18           O1  tau(  18) = (   2.0357456   1.5455963  16.0959954  )
        19           Ti1 tau(  19) = (   3.3038618   3.0179751  15.7376193  )
        20           Ti1 tau(  20) = (   0.0182819   1.3639466  15.8252938  )
        21           O1  tau(  21) = (   3.2904802   0.0005063   4.7018136  )
        22           O1  tau(  22) = (   0.0233993   0.1148627  17.2261141  )
        23           O1  tau(  23) = (   1.3043587   1.4918075   6.0039043  )
        24           O1  tau(  24) = (   5.2767064   1.4903225   6.0039473  )
        25           Ti1 tau(  25) = (   0.0000382   5.9609847   6.0000000  )
        26           Ti1 tau(  26) = (   3.2902200   4.4714249   6.0002472  )
        27           O1  tau(  27) = (   0.0002396   2.9813036   7.9858123  )
        28           O1  tau(  28) = (   3.2902150   2.9813002   7.3038282  )
        29           O1  tau(  29) = (   4.5938453   4.4726049   9.2879030  )
        30           O1  tau(  30) = (   1.9864658   4.4711199   9.2879459  )
        31           Ti1 tau(  31) = (   3.2891106   5.8743827   9.1763621  )
        32           Ti1 tau(  32) = (   0.0006254   4.4649316   9.2693709  )
        33           O1  tau(  33) = (   3.3008157   2.9919736  11.3713264  )
        34           O1  tau(  34) = (   0.0092240   2.9805883  10.6323155  )
        35           O1  tau(  35) = (   1.3007438   4.4795902  12.6508594  )
        36           O1  tau(  36) = (   5.3032704   4.4808111  12.6474791  )
        37           Ti1 tau(  37) = (   0.0257871   0.0021926  12.5000826  )
        38           Ti1 tau(  38) = (   3.3207303   4.5031034  12.5344522  )
        39           O1  tau(  39) = (   0.0087802   3.0322157  14.9253570  )
        40           O1  tau(  40) = (   3.3068524   3.0154938  13.9499554  )
        41           O1  tau(  41) = (   4.5633958   4.4699756  16.2119971  )
        42           O1  tau(  42) = (   2.0378630   4.4655417  16.1963084  )
        43           Ti1 tau(  43) = (   3.3121544   0.0541299  15.8353365  )
        44           Ti1 tau(  44) = (   0.0163097   4.5868159  16.0488687  )
        45           O1  tau(  45) = (   3.2900926   2.9813045   4.7018136  )
        46           O1  tau(  46) = (   1.3039711   4.4726057   6.0039043  )
        47           O1  tau(  47) = (   5.2763189   4.4711207   6.0039473  )
        48           N1  tau(  48) = (   0.0062226   3.2377968  17.9635855  )
        49           C1  tau(  49) = (   6.5597590   2.5083335  18.8457918  )
        50           H1  tau(  50) = (   6.5336154   1.7992569  19.6484373  )
        51           O1  tau(  51) = (   3.2480284   5.9531242  18.4006015  )
        52           H1  tau(  52) = (   3.9795166   5.3132839  18.3896481  )
        53           H1  tau(  53) = (   2.4340588   5.4237150  18.3412978  )

     number of k points=    10  Fermi-Dirac smearing, width (Ry)=  0.0073
                       cart. coord. in units 2pi/alat
        k(    1) = (   0.0000000   0.0000000   0.0000000), wk =   0.1250000
        k(    2) = (   0.0000000   0.0419351   0.0000000), wk =   0.2500000
        k(    3) = (   0.0000000  -0.0838702   0.0000000), wk =   0.1250000
        k(    4) = (   0.0379955   0.0000049   0.0000000), wk =   0.2500000
        k(    5) = (   0.0379955   0.0419400   0.0000000), wk =   0.2500000
        k(    6) = (   0.0379955  -0.0838652   0.0000000), wk =   0.2500000
        k(    7) = (   0.0379955  -0.0419301   0.0000000), wk =   0.2500000
        k(    8) = (  -0.0759910  -0.0000099   0.0000000), wk =   0.1250000
        k(    9) = (  -0.0759910   0.0419252   0.0000000), wk =   0.2500000
        k(   10) = (  -0.0759910  -0.0838800   0.0000000), wk =   0.1250000

     Initial potential from superposition of free atoms

     starting charge  379.99917, renormalised to  396.00000

     negative rho (up, down):  1.670E-02 0.000E+00

     %%%%%%%%%%%%%%%%%%%%%%%%%%%%%%%%%%%%%%%%%%%%%%%%%%%%%%%%%%%%%%%%%%%%%%%%
     %                                                                      %
     % You are using vdW-DF, which was implemented by the Thonhauser group. %
     % Please cite the following two papers that made this development      %
     % possible and the two reviews that describe the various versions:     %
     %                                                                      %
     %   T. Thonhauser et al., PRL 115, 136402 (2015).                      %
     %   T. Thonhauser et al., PRB 76, 125112 (2007).                       %
     %   K. Berland et al., Rep. Prog. Phys. 78, 066501 (2015).             %
     %   D.C. Langreth et al., J. Phys.: Condens. Matter 21, 084203 (2009). %
     %                                                                      %
     %                                                                      %
     % If you are calculating the stress with vdW-DF, please also cite:     %
     %                                                                      %
     %   R. Sabatini et al., J. Phys.: Condens. Matter 24, 424209 (2012).   %
     %                                                                      %
     %%%%%%%%%%%%%%%%%%%%%%%%%%%%%%%%%%%%%%%%%%%%%%%%%%%%%%%%%%%%%%%%%%%%%%%%

     Adding external electric field

     Computed dipole along edir(3) :
        Dipole               -9.4906 Ry au,        -24.1227 Debye
        Dipole field         -0.0179 Ry au,

        Potential amp.        1.6602 Ry
        Total length         46.3494 bohr

     Starting wfcs are  299 atomic wfcs
  @ DRIVER MODE: Message from server: STATUS
  @ DRIVER MODE: Message from server: POSDATA
  @ DRIVER MODE: Reading and sharing cell
  @ DRIVER MODE: Reading and sharing positions
  @ DRIVER MODE: Received positions

     Self-consistent Calculation

     iteration #  1     ecut=    29.40 Ry     beta= 0.05
     Davidson diagonalization with overlap
     c_bands:  1 eigenvalues not converged
     c_bands:  1 eigenvalues not converged
     c_bands:  2 eigenvalues not converged
     c_bands:  3 eigenvalues not converged
     c_bands:  3 eigenvalues not converged
     c_bands:  2 eigenvalues not converged
     c_bands:  3 eigenvalues not converged
     c_bands:  1 eigenvalues not converged
     c_bands:  2 eigenvalues not converged
     c_bands:  2 eigenvalues not converged
     ethr =  1.00E-05,  avg # of iterations = 20.0

[...]

     total energy              =   -2563.40078051 Ry
     estimated scf accuracy    <    4341.59718204 Ry

     iteration #  2     ecut=    29.40 Ry     beta= 0.05
     Davidson diagonalization with overlap
     ethr =  1.00E-02,  avg # of iterations = 24.7

[...]

     iteration # 76     ecut=    29.40 Ry     beta= 0.05
     Davidson diagonalization with overlap
     c_bands:  1 eigenvalues not converged
     ethr =  3.30E-11,  avg # of iterations = 15.7

[...]

     total energy              =   -2951.44710062 Ry
     estimated scf accuracy    <       0.00000012 Ry

     iteration # 78     ecut=    29.40 Ry     beta= 0.05
     Davidson diagonalization with overlap
     ethr =  3.12E-11,  avg # of iterations =  8.4

     negative rho (up, down):  1.632E-02 0.000E+00

     Adding external electric field

     Computed dipole along edir(3) :
        Dipole                1.4969 Ry au,          3.8046 Debye
        Dipole field          0.0028 Ry au,

        Potential amp.       -0.2619 Ry
        Total length         46.3494 bohr

     End of self-consistent calculation

          k = 0.0000 0.0000 0.0000 ( 18029 PWs)   bands (ev):

   -55.3056 -55.2697 -55.2689 -55.2348 -55.2165 -55.1841 -55.1468 -55.1281
   -55.1145 -55.0973 -55.0935 -55.0834 -55.0637 -55.0032 -54.2934 -54.2593
   -31.8655 -31.7605 -31.7075 -31.6730 -31.6250 -31.6169 -31.6025 -31.6015
   -31.5581 -31.5238 -31.5166 -31.5134 -31.4917 -31.4775 -31.4545 -31.4506
   -31.4473 -31.4441 -31.4270 -31.4209 -31.3934 -31.3819 -31.3818 -31.3639
   -31.3576 -31.3341 -31.3289 -31.3261 -31.3160 -31.3149 -31.3132 -31.2946
   -31.2869 -31.2804 -31.2765 -31.2545 -31.2417 -31.2309 -31.2254 -31.2110
   -31.2074 -31.1215 -30.7025 -30.6088 -30.5867 -30.5189 -30.4321 -30.3213
   -18.9245 -17.4382 -16.1129 -15.8584 -15.7069 -15.6058 -15.5047 -15.3649
   -15.3093 -15.1996 -15.1337 -14.9933 -14.9597 -14.9432 -14.9227 -14.9199
   -14.8742 -14.8455 -14.8400 -14.8066 -14.8035 -14.7777 -14.7414 -14.7326
   -14.7020 -14.6862 -14.6442 -14.5319 -14.4621 -14.3990 -14.1115 -12.7959
   -12.6786  -8.9359  -6.6536  -4.6295  -3.4920  -3.4507  -3.3172  -3.2486
    -3.2122  -3.2042  -3.1698  -3.0513  -3.0269  -2.7714  -2.7109  -2.6545
    -2.5630  -2.4900  -2.4792  -2.4391  -2.3115  -2.2687  -2.2301  -2.1620
    -2.1426  -2.1146  -2.0918  -2.0824  -2.0259  -2.0186  -1.9919  -1.8756
    -1.8398  -1.7677  -1.7187  -1.7000  -1.6471  -1.6255  -1.5945  -1.5944
    -1.5902  -1.5463  -1.5451  -1.4923  -1.4771  -1.3733  -1.3300  -1.1421
    -1.0514  -0.9909  -0.9445  -0.8779  -0.8638  -0.7896  -0.7525  -0.6997
    -0.6922  -0.6354  -0.5159  -0.4276  -0.4096  -0.3766  -0.2888  -0.2544
    -0.1952  -0.1779  -0.0864  -0.0744  -0.0672  -0.0628   0.0677   0.1187
     0.1983   0.2016   0.2544   0.2747   0.3501   0.3668   0.4360   0.4758
     0.5298   0.5760   0.6325   0.6404   0.6646   0.6861   0.7013   0.7923
     0.8051   0.8301   0.9072   1.0431   1.2285   1.3057   1.3257   1.6368
     1.6572   1.7293   1.9141   2.3050   2.3530   3.7880   3.8667   3.9294
     3.9388   3.9491   4.0240   4.2705   4.2876   4.2886   4.3040   4.3300

[...]

          k = 0.0380-0.0419 0.0000 ( 17876 PWs)   bands (ev):

[...]

          k =-0.0760-0.0000 0.0000 ( 17886 PWs)   bands (ev):

[...]

          k =-0.0760-0.0839 0.0000 ( 17948 PWs)   bands (ev):

   -55.2892 -55.2859 -55.2518 -55.2518 -55.2142 -55.1727 -55.1581 -55.1129
   -55.1116 -55.1082 -55.0856 -55.0812 -55.0800 -55.0061 -54.2765 -54.2761
   -31.6743 -31.6663 -31.6298 -31.5756 -31.5756 -31.5618 -31.5535 -31.5434
   -31.5434 -31.5168 -31.5062 -31.5038 -31.4940 -31.4623 -31.4453 -31.4410
   -31.4372 -31.4345 -31.4327 -31.4263 -31.4215 -31.3895 -31.3865 -31.3858
   -31.3714 -31.3714 -31.3702 -31.3690 -31.3523 -31.3455 -31.3396 -31.3391
   -31.3262 -31.3217 -31.3099 -31.3085 -31.3065 -31.2695 -31.2611 -31.2600
   -31.2192 -31.2125 -30.5995 -30.5992 -30.5152 -30.5149 -30.4756 -30.4754
   -18.9236 -17.4337 -15.6519 -15.5439 -15.4337 -15.3135 -15.3055 -15.2492
   -15.2026 -15.1223 -15.0827 -15.0678 -15.0480 -15.0351 -15.0016 -15.0014
   -14.9781 -14.9028 -14.8921 -14.8819 -14.8588 -14.8167 -14.8061 -14.8034
   -14.7862 -14.7606 -14.7565 -14.6617 -14.6587 -14.5692 -14.4488 -12.7801
   -12.7800  -8.9338  -6.6467  -4.6168  -3.3956  -3.3085  -2.9419  -2.8106
    -2.7678  -2.6759  -2.5249  -2.4959  -2.4254  -2.4190  -2.3526  -2.2994
    -2.2852  -2.2684  -2.1830  -2.1672  -2.1566  -2.1433  -2.1302  -2.1042
    -2.0791  -2.0320  -2.0303  -2.0279  -2.0181  -1.9993  -1.9626  -1.9417
    -1.9039  -1.8937  -1.8719  -1.8276  -1.7871  -1.7713  -1.7506  -1.6429
    -1.6195  -1.5092  -1.5045  -1.4051  -1.4008  -1.3777  -1.3479  -1.3383
    -1.2734  -1.2063  -1.0510  -1.0415  -1.0109  -0.9344  -0.9248  -0.8662
    -0.8555  -0.7717  -0.7557  -0.7286  -0.6315  -0.6015  -0.4969  -0.4834
    -0.4758  -0.3416  -0.3340  -0.2784  -0.2653  -0.2626  -0.1973  -0.1891
    -0.1826  -0.1021  -0.0668  -0.0396  -0.0283   0.0239   0.2110   0.2400
     0.2679   0.3926   0.4357   0.5790   0.6706   0.6778   0.7489   0.8127
     0.8292   0.8905   0.9890   1.0025   1.0523   1.0886   1.1369   1.1526
     1.1628   2.0864   2.0874   2.1730   2.1730   3.9033   4.0063   4.0693
     4.1210   4.1382   4.2237   4.3090   4.3375   4.3703   4.3723   4.4521

     the Fermi energy is     3.8458 ev

!    total energy              =   -2951.44711025 Ry
     estimated scf accuracy    <       0.00000003 Ry
     smearing contrib. (-TS)   =      -0.03728260 Ry
     internal energy E=F+TS    =   -2951.40982764 Ry

     The total energy is F=E-TS. E is the sum of the following terms:
     one-electron contribution =  -24063.22364291 Ry
     hartree contribution      =   12124.76306861 Ry
     xc contribution           =    -487.24036272 Ry
     ewald contribution        =    9474.28688108 Ry
     electric field correction =       0.00422830 Ry

     convergence has been achieved in  78 iterations

     Forces acting on atoms (cartesian axes, Ry/au):

     atom    1 type  1   force =    -0.00003544   -0.00026253    0.09356199
     atom    2 type  1   force =    -0.00016623   -0.00044235   -0.17787537
     atom    3 type  2   force =     0.00002514   -0.00025562   -0.02077414
     atom    4 type  2   force =    -0.00003171   -0.00179987    0.05842800
     atom    5 type  2   force =    -0.01030543   -0.00058148    0.00699012
     atom    6 type  2   force =     0.01196992    0.00005330    0.00670082
     atom    7 type  1   force =    -0.00013213    0.00222908   -0.01163502
     atom    8 type  1   force =    -0.00007230    0.00221259   -0.00162142
     atom    9 type  2   force =     0.00007356    0.00060982    0.00062409
     atom   10 type  2   force =    -0.00107306    0.00321721   -0.00389034
     atom   11 type  2   force =     0.00035670   -0.00030396   -0.00026158
     atom   12 type  2   force =    -0.00038916   -0.00030880   -0.00013589
     atom   13 type  1   force =     0.00000321    0.00014972    0.00007220
     atom   14 type  1   force =    -0.00000543   -0.00046864    0.00037287
     atom   15 type  2   force =    -0.00024508   -0.00056837    0.00088669
     atom   16 type  2   force =    -0.00001979    0.00044550    0.00035027
     atom   17 type  2   force =     0.00029188   -0.00018907   -0.00004814
     atom   18 type  2   force =    -0.00006826   -0.00022900   -0.00028215
     atom   19 type  1   force =    -0.00041554   -0.00122355   -0.00054699
     atom   20 type  1   force =     0.00013642   -0.00017771   -0.00148009
     atom   21 type  2   force =    -0.00001351   -0.00011917    0.10390263
     atom   22 type  2   force =    -0.00001704    0.00048860   -0.00008759
     atom   23 type  2   force =    -0.07054325   -0.00021033   -0.02695263
     atom   24 type  2   force =     0.07033606    0.00022508   -0.02700522
     atom   25 type  1   force =    -0.00000963   -0.00027166    0.09311294
     atom   26 type  1   force =    -0.00019774   -0.00052373   -0.17814298
     atom   27 type  2   force =     0.00007092   -0.00021465   -0.01969957
     atom   28 type  2   force =     0.00001731   -0.00155483    0.05763408
     atom   29 type  2   force =    -0.01084182   -0.00007776    0.00742548
     atom   30 type  2   force =     0.01236753    0.00026016    0.00710662
     atom   31 type  1   force =    -0.00009153    0.00571912   -0.01416234
     atom   32 type  1   force =    -0.00008504   -0.00260891   -0.00140642
     atom   33 type  2   force =     0.00010926   -0.00051619    0.00035356
     atom   34 type  2   force =    -0.00048327   -0.00029811   -0.00095525
     atom   35 type  2   force =    -0.00034289   -0.00018285   -0.00028120
     atom   36 type  2   force =     0.00034971   -0.00030523   -0.00007473
     atom   37 type  1   force =     0.00011321   -0.00042016    0.00043370
     atom   38 type  1   force =    -0.00003298   -0.00060782   -0.00035189
     atom   39 type  2   force =     0.00001373    0.00026462    0.00046733
     atom   40 type  2   force =    -0.00007639   -0.00014067    0.00006450
     atom   41 type  2   force =     0.00025301    0.00011364    0.00061971
     atom   42 type  2   force =    -0.00001497    0.00020555    0.00063817
     atom   43 type  1   force =    -0.00044323    0.00058511   -0.00082684
     atom   44 type  1   force =     0.00031395    0.00046585   -0.00112496
     atom   45 type  2   force =    -0.00002207   -0.00014790    0.10387598
     atom   46 type  2   force =    -0.07051858   -0.00016368   -0.02694335
     atom   47 type  2   force =     0.07032130    0.00026952   -0.02700097
     atom   48 type  3   force =     0.00076566    0.02160490   -0.02717728
     atom   49 type  4   force =    -0.00115110   -0.02951533    0.03698483
     atom   50 type  5   force =     0.00018201    0.00586591   -0.00909390
     atom   51 type  2   force =     0.00028532    0.00048350   -0.00028780
     atom   52 type  5   force =    -0.00001826   -0.00058590   -0.00036039
     atom   53 type  5   force =    -0.00049293   -0.00019298   -0.00012018

     Total force =     0.370694     Total SCF correction =     0.000599
  @ DRIVER MODE: Message from server: STATUS
  @ DRIVER MODE: Message from server: GETFORCE
  @ DRIVER MODE: Returning v,forces,stress,ensemble

     Writing output data file ./calc.save/
  @ DRIVER MODE: Message from server: EXIT
  @ DRIVE MODE: Exiting

     General routines

     Parallel routines

   This run was terminated on:  19:30:27  15Sep2021

   JOB DONE.