     Program PWSCF v.6.7GPU starts on 23Sep2021 at  0:57:52

     R & G space division:  proc/nbgrp/npool/nimage =      10
     Reading input from /storage/home/hcoda1/3/ntian30/research/carbon/CxH_vib/H2O_calc/ads_slab/CHNHNH2H2O_b/out_0025/pw.inp
Warning: card &CELL ignored
Warning: card   CELL_DYNAMICS='IPI', ignored
Warning: card / ignored

     Current dimensions of program PWSCF are:
     Max number of different atomic species (ntypx) = 10
     Max number of k-points (npk) =  40000
     Max angular momentum in pseudopotentials (lmaxx) =  3
     Presently no symmetry can be used with electric field

     Message from routine cell_base_init:
     DEPRECATED: use true lattice parameter, not A to a.u. conversion factor

     IMPORTANT: XC functional enforced from input :
     Exchange-correlation= BEEF-VDW
                           (   1   4  43  14   2   0   0)
     Any further DFT definition will be discarded
     Please, verify this is what you really want

  @ DRIVER MODE: Connecting to
 qe_1139763_2937312.sched-torque.pace.gatech.edu0n3wq3ac_scratch
  using UNIX socket
  @ DRIVER MODE: Message from server: STATUS
  @ DRIVER MODE: Message from server: INIT
  @ DRIVER MODE: Receiving replica           0          -1
  @ DRIVER MODE: Receiving encoded integer          25
  @ DRIVER MODE:  SCF:  T  FORCE:  T  STRESS:  F  VC:  F  ENSEMBLE:  F
  @ DRIVER MODE:  SCF:  T  FORCE:  T  STRESS:  F  VC:  F  ENSEMBLE:  F

     Using Slab Decomposition

     bravais-lattice index     =            0
     lattice parameter (alat)  =       1.8897  a.u.
     unit-cell volume          =    6658.9804 (a.u.)^3
     number of atoms/cell      =           57
     number of atomic types    =            5
     number of electrons       =       404.00
     number of Kohn-Sham states=          212
     kinetic-energy cutoff     =      29.3995  Ry
     charge density cutoff     =     293.9946  Ry
     scf convergence threshold =      7.3E-08
     mixing beta               =       0.0500
     number of iterations used =            8  plain     mixing
     Exchange-correlation= BEEF-VDW
                           (   1   4  43  14   2   0   0)

     celldm(1)=   1.889726  celldm(2)=   0.000000  celldm(3)=   0.000000
     celldm(4)=   0.000000  celldm(5)=   0.000000  celldm(6)=   0.000000

     crystal axes: (cart. coord. in units of alat)
               a(1) = (   6.579727   0.000000   0.000000 )
               a(2) = (  -0.000775   5.961596   0.000000 )
               a(3) = (   0.000000   0.000000  25.155947 )

     reciprocal axes: (cart. coord. in units 2 pi/alat)
               b(1) = (  0.151982  0.000020  0.000000 )
               b(2) = (  0.000000  0.167740  0.000000 )
               b(3) = (  0.000000  0.000000  0.039752 )

     PseudoPot. # 1 for Ti read from file:
     /storage/coda1/p-amedford6/0/shared/rich_project_chbe-medford/medford-share/data/pseudos_module/espresso/nninc/pbe/van/Ti.UPF
     MD5 check sum: 8e4df49b7f0d34bbd5052bf3f5ea0213
     Pseudo is Ultrasoft, Zval = 12.0
     Generated by new atomic code, or converted to UPF format
     Using radial grid of  851 points,  6 beta functions with:
                l(1) =   0
                l(2) =   0
                l(3) =   1
                l(4) =   1
                l(5) =   2
                l(6) =   2
     Q(r) pseudized with  8 coefficients,  rinner =    1.000   1.000   1.000
                                                       1.000   1.000

     PseudoPot. # 2 for O  read from file:
     /storage/coda1/p-amedford6/0/shared/rich_project_chbe-medford/medford-share/data/pseudos_module/espresso/nninc/pbe/van/O.UPF
     MD5 check sum: 78c19812648e8988a0fe644b0f25305e
     Pseudo is Ultrasoft, Zval =  6.0
     Generated by new atomic code, or converted to UPF format
     Using radial grid of  737 points,  4 beta functions with:
                l(1) =   0
                l(2) =   0
                l(3) =   1
                l(4) =   1
     Q(r) pseudized with  8 coefficients,  rinner =    0.800   0.800   0.800

     PseudoPot. # 3 for N  read from file:
     /storage/coda1/p-amedford6/0/shared/rich_project_chbe-medford/medford-share/data/pseudos_module/espresso/nninc/pbe/van/N.UPF
     MD5 check sum: 90d10febe142ad51ac9d5be1deb811c4
     Pseudo is Ultrasoft, Zval =  5.0
     Generated by new atomic code, or converted to UPF format
     Using radial grid of  729 points,  4 beta functions with:
                l(1) =   0
                l(2) =   0
                l(3) =   1
                l(4) =   1
     Q(r) pseudized with  8 coefficients,  rinner =    0.800   0.800   0.800

     PseudoPot. # 4 for C  read from file:
     /storage/coda1/p-amedford6/0/shared/rich_project_chbe-medford/medford-share/data/pseudos_module/espresso/nninc/pbe/van/C.UPF
     MD5 check sum: 1a69bf6b8db32088f5b2163dbdb77a27
     Pseudo is Ultrasoft, Zval =  4.0
     Generated by new atomic code, or converted to UPF format
     Using radial grid of  721 points,  4 beta functions with:
                l(1) =   0
                l(2) =   0
                l(3) =   1
                l(4) =   1
     Q(r) pseudized with  8 coefficients,  rinner =    0.800   0.800   0.800

     PseudoPot. # 5 for H  read from file:
     /storage/coda1/p-amedford6/0/shared/rich_project_chbe-medford/medford-share/data/pseudos_module/espresso/nninc/pbe/van/H.UPF
     MD5 check sum: b5ee9d7bfd3a09ee7748110bda690ff7
     Pseudo is Ultrasoft, Zval =  1.0
     Generated by new atomic code, or converted to UPF format
     Using radial grid of  615 points,  1 beta functions with:
                l(1) =   0
     Q(r) pseudized with  8 coefficients,  rinner =    0.800

     atomic species   valence    mass     pseudopotential
        Ti1           12.00    47.86700     Ti( 1.00)
        O1             6.00    15.99900     O ( 1.00)
        N1             5.00    14.00700     N ( 1.00)
        C1             4.00    12.01100     C ( 1.00)
        H1             1.00     1.00800     H ( 1.00)

     No symmetry found

   Cartesian axes

     site n.     atom                  positions (alat units)
         1           Ti1 tau(   1) = (   0.0004258   2.9801865   6.0000000  )
         2           Ti1 tau(   2) = (   3.2906075   1.4906267   6.0002472  )
         3           O1  tau(   3) = (   0.0006271   0.0005054   7.9858123  )
         4           O1  tau(   4) = (   3.2906025   0.0005020   7.3038282  )
         5           O1  tau(   5) = (   4.5942328   1.4918067   9.2879030  )
         6           O1  tau(   6) = (   1.9868534   1.4903216   9.2879459  )
         7           Ti1 tau(   7) = (   3.2907910   2.8959150   9.1758416  )
         8           Ti1 tau(   8) = (   0.0015273   1.4827037   9.2680791  )
         9           O1  tau(   9) = (   3.3066417   5.9496923  11.3845403  )
        10           O1  tau(  10) = (   0.0116148   5.9584955  10.6183126  )
        11           O1  tau(  11) = (   1.3010148   1.4986442  12.6442229  )
        12           O1  tau(  12) = (   5.3085967   1.5001388  12.6592367  )
        13           Ti1 tau(  13) = (   0.0282779   2.9853959  12.5065338  )
        14           Ti1 tau(  14) = (   3.3279724   1.4707331  12.5413945  )
        15           O1  tau(  15) = (   0.0378505   0.0859181  14.6860672  )
        16           O1  tau(  16) = (   3.3018867   0.0259462  14.0338077  )
        17           O1  tau(  17) = (   4.5998927   1.5484098  16.1661054  )
        18           O1  tau(  18) = (   2.0454451   1.5021798  16.2221046  )
        19           Ti1 tau(  19) = (   3.3206312   2.9825829  15.7321521  )
        20           Ti1 tau(  20) = (   0.0140791   1.4435866  15.9983415  )
        21           O1  tau(  21) = (   3.2904802   0.0005063   4.7018136  )
        22           O1  tau(  22) = (   6.5273045   5.8164216  17.2577718  )
        23           O1  tau(  23) = (   1.3043587   1.4918075   6.0039043  )
        24           O1  tau(  24) = (   5.2767064   1.4903225   6.0039473  )
        25           Ti1 tau(  25) = (   0.0000382   5.9609847   6.0000000  )
        26           Ti1 tau(  26) = (   3.2902200   4.4714249   6.0002472  )
        27           O1  tau(  27) = (   0.0002396   2.9813036   7.9858123  )
        28           O1  tau(  28) = (   3.2902150   2.9813002   7.3038282  )
        29           O1  tau(  29) = (   4.5938453   4.4726049   9.2879030  )
        30           O1  tau(  30) = (   1.9864658   4.4711199   9.2879459  )
        31           Ti1 tau(  31) = (   3.2891106   5.8743827   9.1763621  )
        32           Ti1 tau(  32) = (   0.0006254   4.4649316   9.2693709  )
        33           O1  tau(  33) = (   3.3068470   2.9864458  11.3814114  )
        34           O1  tau(  34) = (   0.0092240   2.9805883  10.6323155  )
        35           O1  tau(  35) = (   1.2982948   4.4740332  12.6840172  )
        36           O1  tau(  36) = (   5.3097620   4.4704985  12.6972095  )
        37           Ti1 tau(  37) = (   0.0348817   0.0130325  12.4954113  )
        38           Ti1 tau(  38) = (   3.3270268   4.4633798  12.5435021  )
        39           O1  tau(  39) = (   0.0563025   2.9439880  14.9425960  )
        40           O1  tau(  40) = (   3.2900316   2.9661073  13.9503945  )
        41           O1  tau(  41) = (   4.5967999   4.4093095  16.0633277  )
        42           O1  tau(  42) = (   2.0412097   4.4536800  16.1303113  )
        43           Ti1 tau(  43) = (   3.2964201   5.9600488  15.8742613  )
        44           Ti1 tau(  44) = (   0.0241369   4.6516137  15.8518307  )
        45           O1  tau(  45) = (   3.2900926   2.9813045   4.7018136  )
        46           O1  tau(  46) = (   1.3039711   4.4726057   6.0039043  )
        47           O1  tau(  47) = (   5.2763189   4.4711207   6.0039473  )
        48           N1  tau(  48) = (   1.4509408   2.7109095  18.7602185  )
        49           N1  tau(  49) = (   0.0917387   2.5303350  18.2207845  )
        50           C1  tau(  50) = (   1.9503960   3.7723240  19.2784661  )
        51           H1  tau(  51) = (   1.1612915   4.5273475  19.4152495  )
        52           H1  tau(  52) = (   2.0108952   1.9183395  18.4664618  )
        53           H1  tau(  53) = (   6.1377449   3.3539424  18.4987646  )
        54           H1  tau(  54) = (   6.2616785   1.7135167  18.6767212  )
        55           O1  tau(  55) = (   3.7012217   5.9496235  18.2853534  )
        56           H1  tau(  56) = (   4.6684668   5.8470116  18.1670174  )
        57           H1  tau(  57) = (   3.3852657   5.1278045  18.7338684  )

     number of k points=    10  Fermi-Dirac smearing, width (Ry)=  0.0073
                       cart. coord. in units 2pi/alat
        k(    1) = (   0.0000000   0.0000000   0.0000000), wk =   0.1250000
        k(    2) = (   0.0000000   0.0419351   0.0000000), wk =   0.2500000
        k(    3) = (   0.0000000  -0.0838702   0.0000000), wk =   0.1250000
        k(    4) = (   0.0379955   0.0000049   0.0000000), wk =   0.2500000
        k(    5) = (   0.0379955   0.0419400   0.0000000), wk =   0.2500000
        k(    6) = (   0.0379955  -0.0838652   0.0000000), wk =   0.2500000
        k(    7) = (   0.0379955  -0.0419301   0.0000000), wk =   0.2500000
        k(    8) = (  -0.0759910  -0.0000099   0.0000000), wk =   0.1250000
        k(    9) = (  -0.0759910   0.0419252   0.0000000), wk =   0.2500000
        k(   10) = (  -0.0759910  -0.0838800   0.0000000), wk =   0.1250000

     Initial potential from superposition of free atoms

     starting charge  387.99913, renormalised to  404.00000

     negative rho (up, down):  1.598E-02 0.000E+00

     %%%%%%%%%%%%%%%%%%%%%%%%%%%%%%%%%%%%%%%%%%%%%%%%%%%%%%%%%%%%%%%%%%%%%%%%
     %                                                                      %
     % You are using vdW-DF, which was implemented by the Thonhauser group. %
     % Please cite the following two papers that made this development      %
     % possible and the two reviews that describe the various versions:     %
     %                                                                      %
     %   T. Thonhauser et al., PRL 115, 136402 (2015).                      %
     %   T. Thonhauser et al., PRB 76, 125112 (2007).                       %
     %   K. Berland et al., Rep. Prog. Phys. 78, 066501 (2015).             %
     %   D.C. Langreth et al., J. Phys.: Condens. Matter 21, 084203 (2009). %
     %                                                                      %
     %                                                                      %
     % If you are calculating the stress with vdW-DF, please also cite:     %
     %                                                                      %
     %   R. Sabatini et al., J. Phys.: Condens. Matter 24, 424209 (2012).   %
     %                                                                      %
     %%%%%%%%%%%%%%%%%%%%%%%%%%%%%%%%%%%%%%%%%%%%%%%%%%%%%%%%%%%%%%%%%%%%%%%%

     Adding external electric field

     Computed dipole along edir(3) :
        Dipole              -14.3585 Ry au,        -36.4957 Debye
        Dipole field         -0.0271 Ry au,

        Potential amp.        2.5118 Ry
        Total length         46.3494 bohr

     Starting wfcs are  306 atomic wfcs
  @ DRIVER MODE: Message from server: STATUS
  @ DRIVER MODE: Message from server: POSDATA
  @ DRIVER MODE: Reading and sharing cell
  @ DRIVER MODE: Reading and sharing positions
  @ DRIVER MODE: Received positions

     Self-consistent Calculation

     iteration #  1     ecut=    29.40 Ry     beta= 0.05
     Davidson diagonalization with overlap
     c_bands:  3 eigenvalues not converged
     c_bands:  4 eigenvalues not converged
     c_bands:  4 eigenvalues not converged
     c_bands:  4 eigenvalues not converged
     c_bands:  5 eigenvalues not converged
     c_bands:  3 eigenvalues not converged
     c_bands:  2 eigenvalues not converged
     c_bands:  4 eigenvalues not converged
     ethr =  1.00E-05,  avg # of iterations = 21.9

[...]

     total energy              =   -2220.92144768 Ry
     estimated scf accuracy    <    8587.38607292 Ry

     iteration #  2     ecut=    29.40 Ry     beta= 0.05
     Davidson diagonalization with overlap
     ethr =  1.00E-02,  avg # of iterations = 29.3

[...]

     iteration # 72     ecut=    29.40 Ry     beta= 0.05
     Davidson diagonalization with overlap
     c_bands:  1 eigenvalues not converged
     ethr =  3.80E-10,  avg # of iterations =  9.4

[...]

     total energy              =   -2975.10523761 Ry
     estimated scf accuracy    <       0.00000018 Ry

     iteration # 78     ecut=    29.40 Ry     beta= 0.05
     Davidson diagonalization with overlap
     ethr =  4.45E-11,  avg # of iterations =  7.4

     negative rho (up, down):  1.579E-02 0.000E+00

     Adding external electric field

     Computed dipole along edir(3) :
        Dipole                1.0254 Ry au,          2.6064 Debye
        Dipole field          0.0019 Ry au,

        Potential amp.       -0.1794 Ry
        Total length         46.3494 bohr

     End of self-consistent calculation

          k = 0.0000 0.0000 0.0000 ( 18029 PWs)   bands (ev):

   -55.3846 -55.3488 -55.3446 -55.3105 -55.3073 -55.3016 -55.2665 -55.2312
   -55.2161 -55.1812 -55.1744 -55.1591 -55.1407 -55.1117 -54.3762 -54.3421
   -31.9436 -31.8795 -31.8373 -31.7561 -31.7073 -31.7046 -31.6803 -31.6775
   -31.6334 -31.5976 -31.5905 -31.5892 -31.5822 -31.5786 -31.5606 -31.5586
   -31.5339 -31.5259 -31.5230 -31.5116 -31.4973 -31.4907 -31.4719 -31.4671
   -31.4587 -31.4457 -31.4451 -31.4163 -31.4019 -31.3982 -31.3950 -31.3728
   -31.3690 -31.3649 -31.3614 -31.3402 -31.3291 -31.3171 -31.3023 -31.3021
   -31.2920 -31.2855 -30.7857 -30.6912 -30.6691 -30.6019 -30.5151 -30.4043
   -18.8930 -18.4537 -16.2192 -15.9720 -15.8359 -15.7313 -15.5941 -15.4959
   -15.3867 -15.2735 -15.2504 -15.1567 -15.0823 -15.0783 -15.0410 -15.0155
   -14.9530 -14.9316 -14.9078 -14.9018 -14.8872 -14.8770 -14.8405 -14.8296
   -14.7969 -14.7858 -14.7684 -14.6501 -14.6259 -14.5511 -14.4805 -14.3439
   -12.8783 -12.7608  -9.8750  -6.9978  -6.3768  -6.0840  -4.4393  -3.7388
    -3.5432  -3.4095  -3.3311  -3.3030  -3.2848  -3.1533  -3.0592  -2.9010
    -2.8623  -2.8061  -2.6729  -2.5971  -2.5906  -2.5026  -2.4303  -2.4069
    -2.3739  -2.2647  -2.2584  -2.2088  -2.1914  -2.1683  -2.1590  -2.1123
    -2.0664  -2.0392  -1.9540  -1.8526  -1.8086  -1.7890  -1.7526  -1.7300
    -1.7253  -1.6816  -1.6754  -1.6515  -1.6129  -1.5886  -1.5432  -1.4311
    -1.3892  -1.2310  -1.1936  -1.0393  -1.0187  -0.9794  -0.9592  -0.9237
    -0.8929  -0.8765  -0.8615  -0.7714  -0.7132  -0.6471  -0.5829  -0.4919
    -0.4816  -0.4074  -0.3819  -0.3169  -0.2293  -0.1846  -0.1750  -0.1501
    -0.1468  -0.0331   0.0118   0.0721   0.0907   0.1480   0.1639   0.1861
     0.2561   0.3097   0.3791   0.4099   0.4889   0.5071   0.5423   0.5514
     0.5838   0.5943   0.6705   0.6852   0.7135   0.8162   0.9137   1.0063
     1.2165   1.2192   1.2493   1.5517   1.5538   1.6471   1.8305   2.2234
     2.2719   3.7054   3.7838   3.8333   3.8509   3.8554   3.9403   4.1949
     4.2092   4.2218   4.2280   4.2688

[...]

          k = 0.0380-0.0419 0.0000 ( 17876 PWs)   bands (ev):

[...]

          k =-0.0760-0.0000 0.0000 ( 17886 PWs)   bands (ev):

[...]

          k =-0.0760-0.0839 0.0000 ( 17948 PWs)   bands (ev):

   -55.3677 -55.3654 -55.3275 -55.3274 -55.3044 -55.3007 -55.2528 -55.2449
   -55.2018 -55.1951 -55.1610 -55.1584 -55.1568 -55.1134 -54.3592 -54.3590
   -31.7942 -31.7560 -31.7419 -31.6525 -31.6523 -31.6378 -31.6259 -31.6186
   -31.6185 -31.5978 -31.5927 -31.5895 -31.5666 -31.5589 -31.5469 -31.5331
   -31.5300 -31.5273 -31.5234 -31.5154 -31.5106 -31.5086 -31.5075 -31.4998
   -31.4679 -31.4665 -31.4474 -31.4472 -31.4469 -31.4418 -31.4392 -31.4347
   -31.4253 -31.4139 -31.4081 -31.3913 -31.3896 -31.3799 -31.3384 -31.3374
   -31.3368 -31.3181 -30.6818 -30.6817 -30.5982 -30.5981 -30.5586 -30.5585
   -18.8872 -18.4560 -15.8388 -15.6521 -15.5008 -15.4290 -15.4087 -15.3255
   -15.2700 -15.2667 -15.1936 -15.1757 -15.1632 -15.1417 -15.1319 -15.0847
   -15.0475 -15.0109 -14.9921 -14.9695 -14.9263 -14.9037 -14.9021 -14.8953
   -14.8876 -14.8472 -14.8420 -14.8387 -14.7471 -14.7452 -14.7091 -14.5603
   -12.8623 -12.8622  -9.8842  -6.9865  -6.3520  -6.0601  -4.4520  -3.6682
    -3.0215  -2.9102  -2.8996  -2.6706  -2.6524  -2.5914  -2.5789  -2.4909
    -2.4752  -2.4146  -2.3910  -2.3409  -2.3179  -2.2801  -2.2663  -2.2446
    -2.2235  -2.2098  -2.1832  -2.1671  -2.1503  -2.1306  -2.1195  -2.1082
    -2.0529  -2.0474  -2.0383  -2.0131  -1.9900  -1.9539  -1.9440  -1.9279
    -1.7722  -1.7563  -1.7349  -1.5996  -1.5953  -1.5614  -1.5211  -1.4935
    -1.4355  -1.4270  -1.3988  -1.3399  -1.1465  -1.1359  -1.1237  -1.1060
    -1.0350  -0.9790  -0.9652  -0.9474  -0.8937  -0.8155  -0.7820  -0.7291
    -0.6411  -0.5882  -0.5788  -0.5529  -0.4317  -0.4086  -0.3661  -0.3482
    -0.3319  -0.2975  -0.2960  -0.2385  -0.1858  -0.1504  -0.1275  -0.1132
    -0.0762   0.0785   0.1304   0.1469   0.2610   0.2905   0.4686   0.5114
     0.5331   0.6382   0.7215   0.7495   0.7639   0.8893   0.9115   0.9140
     0.9822   1.0044   1.0645   1.0702   1.2059   2.0032   2.0045   2.0917
     2.0919   3.8305   3.9532   3.9976   4.0333   4.1092   4.1621   4.2191
     4.2783   4.2899   4.2933   4.3607

     the Fermi energy is     3.7674 ev

!    total energy              =   -2975.10524695 Ry
     estimated scf accuracy    <       0.00000006 Ry
     smearing contrib. (-TS)   =      -0.03672018 Ry
     internal energy E=F+TS    =   -2975.06852677 Ry

     The total energy is F=E-TS. E is the sum of the following terms:
     one-electron contribution =  -23505.51690353 Ry
     hartree contribution      =   11848.78415545 Ry
     xc contribution           =    -494.92243695 Ry
     ewald contribution        =    9176.58467390 Ry
     electric field correction =       0.00198435 Ry

     convergence has been achieved in  78 iterations

     Forces acting on atoms (cartesian axes, Ry/au):

     atom    1 type  1   force =     0.00003215   -0.00025360    0.09308605
     atom    2 type  1   force =    -0.00018838   -0.00032205   -0.17840145
     atom    3 type  2   force =     0.00006232   -0.00016450   -0.02024246
     atom    4 type  2   force =     0.00001749   -0.00202951    0.05925970
     atom    5 type  2   force =    -0.01032693   -0.00110271    0.00809397
     atom    6 type  2   force =     0.01217058   -0.00054673    0.00817422
     atom    7 type  1   force =     0.00015120    0.00328867   -0.01110986
     atom    8 type  1   force =    -0.00030241    0.00052473   -0.00561910
     atom    9 type  2   force =     0.00004125    0.00017890   -0.00015183
     atom   10 type  2   force =    -0.00146389   -0.00003039   -0.00171645
     atom   11 type  2   force =     0.00038044   -0.00003961   -0.00005534
     atom   12 type  2   force =    -0.00009877    0.00010187   -0.00008464
     atom   13 type  1   force =    -0.00009490   -0.00017266   -0.00023623
     atom   14 type  1   force =    -0.00021416   -0.00035904    0.00036633
     atom   15 type  2   force =     0.00006758   -0.00048756    0.00009280
     atom   16 type  2   force =     0.00021858    0.00009287    0.00025479
     atom   17 type  2   force =     0.00037261   -0.00018227    0.00014335
     atom   18 type  2   force =    -0.00012816   -0.00012927   -0.00009516
     atom   19 type  1   force =    -0.00026549   -0.00048965    0.00007116
     atom   20 type  1   force =     0.00008786    0.00030074    0.00047620
     atom   21 type  2   force =    -0.00000359   -0.00007206    0.10401400
     atom   22 type  2   force =    -0.00006279   -0.00002264   -0.00004775
     atom   23 type  2   force =    -0.07033924   -0.00016445   -0.02683825
     atom   24 type  2   force =     0.07020810    0.00028258   -0.02691606
     atom   25 type  1   force =     0.00002186   -0.00015729    0.09275080
     atom   26 type  1   force =    -0.00015687   -0.00039717   -0.17834933
     atom   27 type  2   force =     0.00011208   -0.00031150   -0.01918136
     atom   28 type  2   force =     0.00004587   -0.00163769    0.05841106
     atom   29 type  2   force =    -0.01028442   -0.00064285    0.00730140
     atom   30 type  2   force =     0.01201910   -0.00031157    0.00743624
     atom   31 type  1   force =     0.00007733    0.00514859   -0.01465153
     atom   32 type  1   force =    -0.00014034   -0.00051331   -0.00596057
     atom   33 type  2   force =     0.00012718   -0.00039463   -0.00023738
     atom   34 type  2   force =    -0.00078530    0.00260314   -0.00104282
     atom   35 type  2   force =    -0.00007019   -0.00010852   -0.00011833
     atom   36 type  2   force =     0.00023633    0.00000929   -0.00014465
     atom   37 type  1   force =    -0.00043874    0.00008370    0.00003848
     atom   38 type  1   force =    -0.00003055   -0.00024551   -0.00022090
     atom   39 type  2   force =    -0.00030171   -0.00020101   -0.00016083
     atom   40 type  2   force =    -0.00013580   -0.00005910   -0.00004034
     atom   41 type  2   force =    -0.00014075   -0.00014267    0.00035203
     atom   42 type  2   force =    -0.00008044   -0.00025644    0.00015196
     atom   43 type  1   force =     0.00002869   -0.00026502    0.00015189
     atom   44 type  1   force =    -0.00001097   -0.00004721    0.00013626
     atom   45 type  2   force =     0.00001029   -0.00010994    0.10398669
     atom   46 type  2   force =    -0.07036646   -0.00011344   -0.02686068
     atom   47 type  2   force =     0.07021366    0.00032198   -0.02692027
     atom   48 type  3   force =    -0.00617009    0.00691772    0.00227600
     atom   49 type  3   force =    -0.00180893    0.00007778    0.00038218
     atom   50 type  4   force =     0.00084680    0.00039700    0.00044485
     atom   51 type  5   force =     0.00006302   -0.00078391   -0.00054668
     atom   52 type  5   force =     0.00692150   -0.00689097   -0.00204168
     atom   53 type  5   force =    -0.00026144   -0.00004664   -0.00008549
     atom   54 type  5   force =     0.00017187    0.00055237   -0.00003514
     atom   55 type  2   force =     0.00011547   -0.00022112    0.00059942
     atom   56 type  5   force =     0.00021075   -0.00038289   -0.00042050
     atom   57 type  5   force =    -0.00036024   -0.00007281    0.00008121

     Total force =     0.366468     Total SCF correction =     0.000612
  @ DRIVER MODE: Message from server: STATUS
  @ DRIVER MODE: Message from server: GETFORCE
  @ DRIVER MODE: Returning v,forces,stress,ensemble

     Writing output data file ./calc.save/
  @ DRIVER MODE: Message from server: EXIT
  @ DRIVE MODE: Exiting

     General routines

     Parallel routines

   This run was terminated on:   1:20: 1  23Sep2021

   JOB DONE.