     Program PWSCF v.6.7GPU starts on 24Sep2021 at  4:18:35

     R & G space division:  proc/nbgrp/npool/nimage =       8
     Reading input from /storage/home/hcoda1/3/ntian30/research/carbon/CxH_vib/H2O_calc/ads_slab/CH2NHNH2HO_a/out_0039/pw.inp
Warning: card &CELL ignored
Warning: card   CELL_DYNAMICS='IPI', ignored
Warning: card / ignored

     Current dimensions of program PWSCF are:
     Max number of different atomic species (ntypx) = 10
     Max number of k-points (npk) =  40000
     Max angular momentum in pseudopotentials (lmaxx) =  3
     Presently no symmetry can be used with electric field

     Message from routine cell_base_init:
     DEPRECATED: use true lattice parameter, not A to a.u. conversion factor

     IMPORTANT: XC functional enforced from input :
     Exchange-correlation= BEEF-VDW
                           (   1   4  43  14   2   0   0)
     Any further DFT definition will be discarded
     Please, verify this is what you really want

  @ DRIVER MODE: Connecting to
 qe_1139763_2947313.sched-torque.pace.gatech.eduq_j3nl1o_scratch
  using UNIX socket
  @ DRIVER MODE: Message from server: STATUS
  @ DRIVER MODE: Message from server: INIT
  @ DRIVER MODE: Receiving replica           0          -1
  @ DRIVER MODE: Receiving encoded integer          25
  @ DRIVER MODE:  SCF:  T  FORCE:  T  STRESS:  F  VC:  F  ENSEMBLE:  F
  @ DRIVER MODE:  SCF:  T  FORCE:  T  STRESS:  F  VC:  F  ENSEMBLE:  F

     Using Slab Decomposition

     bravais-lattice index     =            0
     lattice parameter (alat)  =       1.8897  a.u.
     unit-cell volume          =    6658.9804 (a.u.)^3
     number of atoms/cell      =           57
     number of atomic types    =            5
     number of electrons       =       404.00
     number of Kohn-Sham states=          212
     kinetic-energy cutoff     =      29.3995  Ry
     charge density cutoff     =     293.9946  Ry
     scf convergence threshold =      7.3E-08
     mixing beta               =       0.0500
     number of iterations used =            8  plain     mixing
     Exchange-correlation= BEEF-VDW
                           (   1   4  43  14   2   0   0)

     celldm(1)=   1.889726  celldm(2)=   0.000000  celldm(3)=   0.000000
     celldm(4)=   0.000000  celldm(5)=   0.000000  celldm(6)=   0.000000

     crystal axes: (cart. coord. in units of alat)
               a(1) = (   6.579727   0.000000   0.000000 )
               a(2) = (  -0.000775   5.961596   0.000000 )
               a(3) = (   0.000000   0.000000  25.155947 )

     reciprocal axes: (cart. coord. in units 2 pi/alat)
               b(1) = (  0.151982  0.000020  0.000000 )
               b(2) = (  0.000000  0.167740  0.000000 )
               b(3) = (  0.000000  0.000000  0.039752 )

     PseudoPot. # 1 for Ti read from file:
     /storage/coda1/p-amedford6/0/shared/rich_project_chbe-medford/medford-share/data/pseudos_module/espresso/nninc/pbe/van/Ti.UPF
     MD5 check sum: 8e4df49b7f0d34bbd5052bf3f5ea0213
     Pseudo is Ultrasoft, Zval = 12.0
     Generated by new atomic code, or converted to UPF format
     Using radial grid of  851 points,  6 beta functions with:
                l(1) =   0
                l(2) =   0
                l(3) =   1
                l(4) =   1
                l(5) =   2
                l(6) =   2
     Q(r) pseudized with  8 coefficients,  rinner =    1.000   1.000   1.000
                                                       1.000   1.000

     PseudoPot. # 2 for O  read from file:
     /storage/coda1/p-amedford6/0/shared/rich_project_chbe-medford/medford-share/data/pseudos_module/espresso/nninc/pbe/van/O.UPF
     MD5 check sum: 78c19812648e8988a0fe644b0f25305e
     Pseudo is Ultrasoft, Zval =  6.0
     Generated by new atomic code, or converted to UPF format
     Using radial grid of  737 points,  4 beta functions with:
                l(1) =   0
                l(2) =   0
                l(3) =   1
                l(4) =   1
     Q(r) pseudized with  8 coefficients,  rinner =    0.800   0.800   0.800

     PseudoPot. # 3 for N  read from file:
     /storage/coda1/p-amedford6/0/shared/rich_project_chbe-medford/medford-share/data/pseudos_module/espresso/nninc/pbe/van/N.UPF
     MD5 check sum: 90d10febe142ad51ac9d5be1deb811c4
     Pseudo is Ultrasoft, Zval =  5.0
     Generated by new atomic code, or converted to UPF format
     Using radial grid of  729 points,  4 beta functions with:
                l(1) =   0
                l(2) =   0
                l(3) =   1
                l(4) =   1
     Q(r) pseudized with  8 coefficients,  rinner =    0.800   0.800   0.800

     PseudoPot. # 4 for C  read from file:
     /storage/coda1/p-amedford6/0/shared/rich_project_chbe-medford/medford-share/data/pseudos_module/espresso/nninc/pbe/van/C.UPF
     MD5 check sum: 1a69bf6b8db32088f5b2163dbdb77a27
     Pseudo is Ultrasoft, Zval =  4.0
     Generated by new atomic code, or converted to UPF format
     Using radial grid of  721 points,  4 beta functions with:
                l(1) =   0
                l(2) =   0
                l(3) =   1
                l(4) =   1
     Q(r) pseudized with  8 coefficients,  rinner =    0.800   0.800   0.800

     PseudoPot. # 5 for H  read from file:
     /storage/coda1/p-amedford6/0/shared/rich_project_chbe-medford/medford-share/data/pseudos_module/espresso/nninc/pbe/van/H.UPF
     MD5 check sum: b5ee9d7bfd3a09ee7748110bda690ff7
     Pseudo is Ultrasoft, Zval =  1.0
     Generated by new atomic code, or converted to UPF format
     Using radial grid of  615 points,  1 beta functions with:
                l(1) =   0
     Q(r) pseudized with  8 coefficients,  rinner =    0.800

     atomic species   valence    mass     pseudopotential
        Ti1           12.00    47.86700     Ti( 1.00)
        O1             6.00    15.99900     O ( 1.00)
        N1             5.00    14.00700     N ( 1.00)
        C1             4.00    12.01100     C ( 1.00)
        H1             1.00     1.00800     H ( 1.00)

     No symmetry found

   Cartesian axes

     site n.     atom                  positions (alat units)
         1           Ti1 tau(   1) = (   0.0004258   2.9801865   6.0000000  )
         2           Ti1 tau(   2) = (   3.2906075   1.4906267   6.0002472  )
         3           O1  tau(   3) = (   0.0006271   0.0005054   7.9858123  )
         4           O1  tau(   4) = (   3.2906025   0.0005020   7.3038282  )
         5           O1  tau(   5) = (   4.5942328   1.4918067   9.2879030  )
         6           O1  tau(   6) = (   1.9868534   1.4903216   9.2879459  )
         7           Ti1 tau(   7) = (   3.2907910   2.8959150   9.1758416  )
         8           Ti1 tau(   8) = (   0.0015273   1.4827037   9.2680791  )
         9           O1  tau(   9) = (   3.2769995   5.9424463  11.3879711  )
        10           O1  tau(  10) = (   0.0116148   5.9584955  10.6183126  )
        11           O1  tau(  11) = (   1.2559300   1.4809235  12.6914295  )
        12           O1  tau(  12) = (   5.2914439   1.4888754  12.6824943  )
        13           Ti1 tau(  13) = (   6.5693074   2.9549812  12.5071532  )
        14           Ti1 tau(  14) = (   3.2720578   1.2926143  12.7373905  )
        15           O1  tau(  15) = (   6.5263330   5.9075480  14.6758232  )
        16           O1  tau(  16) = (   3.2750150   0.0724425  14.0538047  )
        17           O1  tau(  17) = (   4.5404297   1.6145126  16.1214498  )
        18           O1  tau(  18) = (   1.9612862   1.5681812  16.1371236  )
        19           Ti1 tau(  19) = (   3.2615978   3.0295928  15.7214328  )
        20           Ti1 tau(  20) = (   6.4910920   1.3289874  15.8500745  )
        21           O1  tau(  21) = (   3.2904802   0.0005063   4.7018136  )
        22           O1  tau(  22) = (   6.5149858   0.1606772  17.2625446  )
        23           O1  tau(  23) = (   1.3043587   1.4918075   6.0039043  )
        24           O1  tau(  24) = (   5.2767064   1.4903225   6.0039473  )
        25           Ti1 tau(  25) = (   0.0000382   5.9609847   6.0000000  )
        26           Ti1 tau(  26) = (   3.2902200   4.4714249   6.0002472  )
        27           O1  tau(  27) = (   0.0002396   2.9813036   7.9858123  )
        28           O1  tau(  28) = (   3.2902150   2.9813002   7.3038282  )
        29           O1  tau(  29) = (   4.5938453   4.4726049   9.2879030  )
        30           O1  tau(  30) = (   1.9864658   4.4711199   9.2879459  )
        31           Ti1 tau(  31) = (   3.2891106   5.8743827   9.1763621  )
        32           Ti1 tau(  32) = (   0.0006254   4.4649316   9.2693709  )
        33           O1  tau(  33) = (   3.2749377   2.9871965  11.3337082  )
        34           O1  tau(  34) = (   0.0092240   2.9805883  10.6323155  )
        35           O1  tau(  35) = (   1.2597673   4.4587344  12.6634223  )
        36           O1  tau(  36) = (   5.2866262   4.4511231  12.6493885  )
        37           Ti1 tau(  37) = (   6.5604603   5.9292220  12.4937940  )
        38           Ti1 tau(  38) = (   3.2724722   4.3622713  12.4512132  )
        39           O1  tau(  39) = (   6.5737517   3.0258615  14.9025115  )
        40           O1  tau(  40) = (   3.2593133   3.0063273  13.9441864  )
        41           O1  tau(  41) = (   4.5441350   4.4310557  16.1689449  )
        42           O1  tau(  42) = (   1.9655774   4.4762250  16.2070539  )
        43           Ti1 tau(  43) = (   3.1776431   0.0563557  16.2565842  )
        44           Ti1 tau(  44) = (   6.5216753   4.5226504  15.9439936  )
        45           O1  tau(  45) = (   3.2900926   2.9813045   4.7018136  )
        46           O1  tau(  46) = (   1.3039711   4.4726057   6.0039043  )
        47           O1  tau(  47) = (   5.2763189   4.4711207   6.0039473  )
        48           N1  tau(  48) = (   0.8157702   2.5297039  18.7633901  )
        49           N1  tau(  49) = (   6.4302604   3.3580032  18.1334362  )
        50           C1  tau(  50) = (   1.9549655   3.0231469  19.2293773  )
        51           H1  tau(  51) = (   2.0901252   4.0892486  19.3254668  )
        52           H1  tau(  52) = (   2.7239663   2.3052050  19.4587972  )
        53           H1  tau(  53) = (   0.7490178   1.5515861  18.4517582  )
        54           H1  tau(  54) = (   6.4535031   4.2729477  18.5696568  )
        55           H1  tau(  55) = (   5.5068980   2.9516776  18.2836589  )
        56           O1  tau(  56) = (   3.3967406   0.0908776  18.1493316  )
        57           H1  tau(  57) = (   4.3453859   0.1513423  18.3540861  )

     number of k points=    10  Fermi-Dirac smearing, width (Ry)=  0.0073
                       cart. coord. in units 2pi/alat
        k(    1) = (   0.0000000   0.0000000   0.0000000), wk =   0.1250000
        k(    2) = (   0.0000000   0.0419351   0.0000000), wk =   0.2500000
        k(    3) = (   0.0000000  -0.0838702   0.0000000), wk =   0.1250000
        k(    4) = (   0.0379955   0.0000049   0.0000000), wk =   0.2500000
        k(    5) = (   0.0379955   0.0419400   0.0000000), wk =   0.2500000
        k(    6) = (   0.0379955  -0.0838652   0.0000000), wk =   0.2500000
        k(    7) = (   0.0379955  -0.0419301   0.0000000), wk =   0.2500000
        k(    8) = (  -0.0759910  -0.0000099   0.0000000), wk =   0.1250000
        k(    9) = (  -0.0759910   0.0419252   0.0000000), wk =   0.2500000
        k(   10) = (  -0.0759910  -0.0838800   0.0000000), wk =   0.1250000

     Initial potential from superposition of free atoms

     starting charge  387.99913, renormalised to  404.00000

     negative rho (up, down):  1.608E-02 0.000E+00

     %%%%%%%%%%%%%%%%%%%%%%%%%%%%%%%%%%%%%%%%%%%%%%%%%%%%%%%%%%%%%%%%%%%%%%%%
     %                                                                      %
     % You are using vdW-DF, which was implemented by the Thonhauser group. %
     % Please cite the following two papers that made this development      %
     % possible and the two reviews that describe the various versions:     %
     %                                                                      %
     %   T. Thonhauser et al., PRL 115, 136402 (2015).                      %
     %   T. Thonhauser et al., PRB 76, 125112 (2007).                       %
     %   K. Berland et al., Rep. Prog. Phys. 78, 066501 (2015).             %
     %   D.C. Langreth et al., J. Phys.: Condens. Matter 21, 084203 (2009). %
     %                                                                      %
     %                                                                      %
     % If you are calculating the stress with vdW-DF, please also cite:     %
     %                                                                      %
     %   R. Sabatini et al., J. Phys.: Condens. Matter 24, 424209 (2012).   %
     %                                                                      %
     %%%%%%%%%%%%%%%%%%%%%%%%%%%%%%%%%%%%%%%%%%%%%%%%%%%%%%%%%%%%%%%%%%%%%%%%

     Adding external electric field

     Computed dipole along edir(3) :
        Dipole              -13.8429 Ry au,        -35.1851 Debye
        Dipole field         -0.0261 Ry au,

        Potential amp.        2.4216 Ry
        Total length         46.3494 bohr

     Starting wfcs are  306 atomic wfcs
  @ DRIVER MODE: Message from server: STATUS
  @ DRIVER MODE: Message from server: POSDATA
  @ DRIVER MODE: Reading and sharing cell
  @ DRIVER MODE: Reading and sharing positions
  @ DRIVER MODE: Received positions

     Self-consistent Calculation

     iteration #  1     ecut=    29.40 Ry     beta= 0.05
     Davidson diagonalization with overlap
     c_bands:  1 eigenvalues not converged
     c_bands:  2 eigenvalues not converged
     c_bands:  1 eigenvalues not converged
     c_bands:  1 eigenvalues not converged
     c_bands:  1 eigenvalues not converged
     c_bands:  2 eigenvalues not converged
     c_bands:  5 eigenvalues not converged
     c_bands:  3 eigenvalues not converged
     ethr =  1.00E-05,  avg # of iterations = 32.8

[...]

     total energy              =   -2231.86854838 Ry
     estimated scf accuracy    <    8426.17026620 Ry

     iteration #  2     ecut=    29.40 Ry     beta= 0.05
     Davidson diagonalization with overlap
     ethr =  1.00E-02,  avg # of iterations = 28.5

[...]

     iteration # 99     ecut=    29.40 Ry     beta= 0.05
     Davidson diagonalization with overlap
     c_bands:  2 eigenvalues not converged
     ethr =  3.87E-11,  avg # of iterations = 17.5

[...]

     total energy              =   -2975.15002137 Ry
     estimated scf accuracy    <       0.00000013 Ry

     iteration #101     ecut=    29.40 Ry     beta= 0.05
     Davidson diagonalization with overlap
     ethr =  3.11E-11,  avg # of iterations = 11.9

     negative rho (up, down):  1.524E-02 0.000E+00

     Adding external electric field

     Computed dipole along edir(3) :
        Dipole                1.1784 Ry au,          2.9953 Debye
        Dipole field          0.0022 Ry au,

        Potential amp.       -0.2062 Ry
        Total length         46.3494 bohr

     End of self-consistent calculation

          k = 0.0000 0.0000 0.0000 ( 18029 PWs)   bands (ev):

   -55.4169 -55.3345 -55.3005 -55.2299 -55.1918 -55.1808 -55.1659 -55.1647
   -55.1498 -55.1302 -55.1019 -55.0307 -55.0221 -54.9964 -54.3287 -54.2947
   -31.8225 -31.7721 -31.7435 -31.7157 -31.6689 -31.6684 -31.6334 -31.6243
   -31.6208 -31.6085 -31.5799 -31.5420 -31.5046 -31.4875 -31.4716 -31.4639
   -31.4470 -31.4442 -31.4431 -31.4086 -31.3921 -31.3806 -31.3748 -31.3713
   -31.3666 -31.3606 -31.3571 -31.3353 -31.3296 -31.3263 -31.3263 -31.3027
   -31.2945 -31.2908 -31.2787 -31.2545 -31.2358 -31.2327 -31.2105 -31.2003
   -31.1965 -31.1936 -30.7358 -30.6468 -30.6245 -30.5530 -30.4665 -30.3549
   -19.3885 -16.2697 -16.0497 -15.8841 -15.6688 -15.6226 -15.5323 -15.3701
   -15.2579 -15.1876 -15.0782 -15.0034 -14.9294 -14.8946 -14.8855 -14.8719
   -14.8666 -14.8156 -14.8067 -14.7928 -14.7831 -14.7748 -14.7717 -14.7311
   -14.6969 -14.6487 -14.6211 -14.4935 -14.4551 -14.4185 -14.2935 -14.2752
   -12.8275 -12.7107 -10.2004  -7.8258  -6.5843  -5.3991  -4.1971  -3.8070
    -3.6634  -3.3926  -3.2841  -3.2525  -3.1892  -3.1575  -2.9030  -2.8036
    -2.7847  -2.6485  -2.5298  -2.4831  -2.4225  -2.3521  -2.3205  -2.2974
    -2.2723  -2.2158  -2.1522  -2.1383  -2.1246  -2.0483  -2.0437  -1.9687
    -1.9201  -1.9075  -1.8025  -1.7299  -1.6987  -1.6856  -1.6741  -1.6575
    -1.6326  -1.6256  -1.6018  -1.5399  -1.4740  -1.4652  -1.3998  -1.3734
    -1.1026  -1.0371  -0.9720  -0.9424  -0.8658  -0.8285  -0.8099  -0.7863
    -0.7430  -0.7398  -0.7204  -0.6580  -0.5603  -0.5050  -0.4739  -0.4552
    -0.4026  -0.2887  -0.2684  -0.1582  -0.1289  -0.1215  -0.0832  -0.0346
     0.0066   0.0458   0.1081   0.1777   0.2285   0.2789   0.3112   0.3370
     0.3775   0.4131   0.4729   0.5505   0.5744   0.6189   0.6490   0.6692
     0.6787   0.7355   0.7524   0.8402   0.9212   0.9326   1.0312   1.0623
     1.1130   1.2975   1.3342   1.6335   1.6797   1.6978   1.8863   2.2675
     2.3139   3.7326   3.8570   3.8871   3.8973   3.9357   3.9694   4.0250
     4.2200   4.2313   4.3429   4.4226

[...]

          k = 0.0380-0.0419 0.0000 ( 17876 PWs)   bands (ev):

[...]

          k =-0.0760-0.0000 0.0000 ( 17886 PWs)   bands (ev):

[...]

          k =-0.0760-0.0839 0.0000 ( 17948 PWs)   bands (ev):

   -55.4160 -55.3176 -55.3173 -55.2186 -55.2029 -55.1784 -55.1668 -55.1472
   -55.1469 -55.1435 -55.1087 -55.0242 -55.0194 -55.0076 -54.3121 -54.3112
   -31.6844 -31.6746 -31.6563 -31.6377 -31.6376 -31.6215 -31.6098 -31.6096
   -31.5686 -31.5375 -31.5218 -31.4967 -31.4873 -31.4790 -31.4675 -31.4545
   -31.4530 -31.4476 -31.4445 -31.4374 -31.4371 -31.4274 -31.4118 -31.4038
   -31.3997 -31.3821 -31.3679 -31.3676 -31.3613 -31.3589 -31.3539 -31.3439
   -31.3295 -31.3255 -31.3242 -31.3207 -31.2854 -31.2851 -31.2465 -31.2392
   -31.2145 -31.2060 -30.6376 -30.6368 -30.5491 -30.5479 -30.5102 -30.5094
   -19.3839 -16.2405 -15.7542 -15.4860 -15.3608 -15.3489 -15.2276 -15.2112
   -15.1489 -15.1410 -15.1115 -15.0982 -15.0874 -15.0435 -15.0146 -14.9311
   -14.9155 -14.8747 -14.8712 -14.8254 -14.8232 -14.8216 -14.7997 -14.7782
   -14.7723 -14.7473 -14.7375 -14.6842 -14.6708 -14.5336 -14.4426 -14.3986
   -12.8127 -12.8121 -10.1718  -7.7917  -6.5768  -5.4824  -4.1561  -3.8257
    -3.6233  -2.8415  -2.6988  -2.5973  -2.4873  -2.4552  -2.4066  -2.3574
    -2.3439  -2.3123  -2.2402  -2.2121  -2.1970  -2.1610  -2.1597  -2.1367
    -2.1268  -2.1072  -2.0787  -2.0591  -2.0492  -2.0427  -2.0157  -2.0001
    -1.9860  -1.9604  -1.9328  -1.9119  -1.8984  -1.8907  -1.8400  -1.7346
    -1.6461  -1.5672  -1.5309  -1.5052  -1.4928  -1.4463  -1.4329  -1.4210
    -1.3858  -1.3623  -1.2277  -1.2057  -1.0684  -1.0126  -0.9787  -0.9326
    -0.8790  -0.8703  -0.8540  -0.8138  -0.7738  -0.6410  -0.6102  -0.5756
    -0.5099  -0.4444  -0.3573  -0.3431  -0.3191  -0.3018  -0.2661  -0.2468
    -0.2326  -0.2027  -0.1732  -0.0948  -0.0611  -0.0490  -0.0301   0.0688
     0.1682   0.2080   0.2724   0.3422   0.3830   0.4080   0.4370   0.6217
     0.6514   0.7949   0.8034   0.8080   0.9533   0.9536   1.0021   1.0516
     1.0807   1.1229   1.1519   1.1665   1.2016   2.0566   2.0650   2.1341
     2.1343   3.7695   3.9348   4.1579   4.1804   4.2388   4.2501   4.2809
     4.3066   4.3358   4.3763   4.3960

     the Fermi energy is     3.7824 ev

!    total energy              =   -2975.15002265 Ry
     estimated scf accuracy    <       0.00000006 Ry
     smearing contrib. (-TS)   =      -0.03328811 Ry
     internal energy E=F+TS    =   -2975.11673454 Ry

     The total energy is F=E-TS. E is the sum of the following terms:
     one-electron contribution =  -23379.86326871 Ry
     hartree contribution      =   11787.18120620 Ry
     xc contribution           =    -494.91032323 Ry
     ewald contribution        =    9112.47303050 Ry
     electric field correction =       0.00262070 Ry

     convergence has been achieved in 101 iterations

     Forces acting on atoms (cartesian axes, Ry/au):

     atom    1 type  1   force =     0.00028393   -0.00019755    0.09345117
     atom    2 type  1   force =    -0.00005402    0.00053164   -0.17635328
     atom    3 type  2   force =     0.00004458   -0.00029574   -0.02071042
     atom    4 type  2   force =     0.00001695   -0.00222341    0.05687155
     atom    5 type  2   force =    -0.00785176   -0.00263423    0.00512559
     atom    6 type  2   force =     0.00891884   -0.00211755    0.00324522
     atom    7 type  1   force =    -0.00078018   -0.00333475    0.00576032
     atom    8 type  1   force =     0.00086506    0.00108163   -0.00173935
     atom    9 type  2   force =    -0.00018678    0.00015195    0.00005435
     atom   10 type  2   force =    -0.00341761    0.00105741   -0.00644708
     atom   11 type  2   force =     0.00019299   -0.00013539    0.00030558
     atom   12 type  2   force =    -0.00012651   -0.00023043    0.00002818
     atom   13 type  1   force =     0.00000373   -0.00006417   -0.00020251
     atom   14 type  1   force =     0.00053327   -0.00037478   -0.00024890
     atom   15 type  2   force =    -0.00002890   -0.00101484   -0.00048542
     atom   16 type  2   force =     0.00021189    0.00061188    0.00085273
     atom   17 type  2   force =    -0.00129681    0.00037111   -0.00040256
     atom   18 type  2   force =     0.00134924    0.00001418   -0.00071684
     atom   19 type  1   force =     0.00005754    0.00059110   -0.00001525
     atom   20 type  1   force =     0.00053860    0.00002218   -0.00046822
     atom   21 type  2   force =     0.00011622    0.00005357    0.10363709
     atom   22 type  2   force =     0.00010086    0.00021338    0.00039089
     atom   23 type  2   force =    -0.07137520   -0.00017789   -0.02701197
     atom   24 type  2   force =     0.07137218    0.00027118   -0.02704276
     atom   25 type  1   force =     0.00007577   -0.00017889    0.09322585
     atom   26 type  1   force =     0.00008537   -0.00126049   -0.17655642
     atom   27 type  2   force =     0.00007782   -0.00014916   -0.01947280
     atom   28 type  2   force =     0.00001859   -0.00060066    0.05223599
     atom   29 type  2   force =    -0.00742229    0.00176865    0.00488584
     atom   30 type  2   force =     0.00835271    0.00235345    0.00298954
     atom   31 type  1   force =    -0.00097861    0.00885456   -0.00436010
     atom   32 type  1   force =     0.00094366   -0.00222268   -0.00240183
     atom   33 type  2   force =    -0.00022315   -0.00135019   -0.00064505
     atom   34 type  2   force =    -0.00214248   -0.00210215   -0.00764981
     atom   35 type  2   force =    -0.00001234    0.00016375    0.00026048
     atom   36 type  2   force =     0.00017452    0.00015799    0.00019932
     atom   37 type  1   force =     0.00002793   -0.00031007    0.00015509
     atom   38 type  1   force =     0.00035408    0.00047861    0.00018687
     atom   39 type  2   force =     0.00000194    0.00079704   -0.00020888
     atom   40 type  2   force =     0.00021336   -0.00016439    0.00038370
     atom   41 type  2   force =    -0.00046041   -0.00013526    0.00019435
     atom   42 type  2   force =     0.00082472   -0.00025926    0.00004874
     atom   43 type  1   force =     0.00037596   -0.00065450   -0.00009802
     atom   44 type  1   force =     0.00006800    0.00108047    0.00035402
     atom   45 type  2   force =     0.00010289   -0.00008950    0.10339402
     atom   46 type  2   force =    -0.07141485   -0.00002654   -0.02704545
     atom   47 type  2   force =     0.07139398    0.00038911   -0.02707809
     atom   48 type  3   force =    -0.00085213   -0.00112049   -0.00024399
     atom   49 type  3   force =    -0.00007848   -0.01147139   -0.00468391
     atom   50 type  4   force =     0.00058450    0.00055665    0.00009179
     atom   51 type  5   force =     0.00054462   -0.00090964   -0.00047327
     atom   52 type  5   force =    -0.00009708    0.00010682   -0.00009831
     atom   53 type  5   force =    -0.00005839    0.00050297    0.00003573
     atom   54 type  5   force =     0.00007101    0.01336425    0.00523037
     atom   55 type  5   force =     0.00007037    0.00004634    0.00022887
     atom   56 type  2   force =     0.00071663    0.00090106   -0.00019205
     atom   57 type  5   force =    -0.00082631   -0.00068692   -0.00077069

     Total force =     0.363645     Total SCF correction =     0.001052
  @ DRIVER MODE: Message from server: STATUS
  @ DRIVER MODE: Message from server: GETFORCE
  @ DRIVER MODE: Returning v,forces,stress,ensemble

     Writing output data file ./calc.save/
  @ DRIVER MODE: Message from server: EXIT
  @ DRIVE MODE: Exiting

     General routines

     Parallel routines

   This run was terminated on:   4:51:49  24Sep2021

   JOB DONE.