     Program PWSCF v.6.7GPU starts on  2Aug2021 at 20:13:12

     R & G space division:  proc/nbgrp/npool/nimage =      16
     Reading input from /storage/home/hcoda1/3/ntian30/research/carbon/02Aug_vib_paired/ads_slab/CH3N2H_a/out_0030/pw.inp
Warning: card &CELL ignored
Warning: card   CELL_DYNAMICS='IPI', ignored
Warning: card / ignored

     Current dimensions of program PWSCF are:
     Max number of different atomic species (ntypx) = 10
     Max number of k-points (npk) =  40000
     Max angular momentum in pseudopotentials (lmaxx) =  3
     Presently no symmetry can be used with electric field

     Message from routine cell_base_init:
     DEPRECATED: use true lattice parameter, not A to a.u. conversion factor

     IMPORTANT: XC functional enforced from input :
     Exchange-correlation= BEEF-VDW
                           (   1   4  43  14   2   0   0)
     Any further DFT definition will be discarded
     Please, verify this is what you really want

  @ DRIVER MODE: Connecting to
 qe_1139763_2482535.sched-torque.pace.gatech.edu4f1u3z1k_scratch
  using UNIX socket
  @ DRIVER MODE: Message from server: STATUS
  @ DRIVER MODE: Message from server: INIT
  @ DRIVER MODE: Receiving replica           0          -1
  @ DRIVER MODE: Receiving encoded integer          25
  @ DRIVER MODE:  SCF:  T  FORCE:  T  STRESS:  F  VC:  F  ENSEMBLE:  F
  @ DRIVER MODE:  SCF:  T  FORCE:  T  STRESS:  F  VC:  F  ENSEMBLE:  F

     Using Slab Decomposition

     bravais-lattice index     =            0
     lattice parameter (alat)  =       1.8897  a.u.
     unit-cell volume          =    6658.9804 (a.u.)^3
     number of atoms/cell      =           54
     number of atomic types    =            5
     number of electrons       =       396.00
     number of Kohn-Sham states=          208
     kinetic-energy cutoff     =      29.3995  Ry
     charge density cutoff     =     293.9946  Ry
     scf convergence threshold =      7.3E-08
     mixing beta               =       0.0500
     number of iterations used =            8  plain     mixing
     Exchange-correlation= BEEF-VDW
                           (   1   4  43  14   2   0   0)

     celldm(1)=   1.889726  celldm(2)=   0.000000  celldm(3)=   0.000000
     celldm(4)=   0.000000  celldm(5)=   0.000000  celldm(6)=   0.000000

     crystal axes: (cart. coord. in units of alat)
               a(1) = (   6.579727   0.000000   0.000000 )
               a(2) = (  -0.000775   5.961596   0.000000 )
               a(3) = (   0.000000   0.000000  25.155947 )

     reciprocal axes: (cart. coord. in units 2 pi/alat)
               b(1) = (  0.151982  0.000020  0.000000 )
               b(2) = (  0.000000  0.167740  0.000000 )
               b(3) = (  0.000000  0.000000  0.039752 )

     PseudoPot. # 1 for Ti read from file:
     /storage/coda1/p-amedford6/0/shared/rich_project_chbe-medford/medford-share/data/pseudos_module/espresso/nninc/pbe/van/Ti.UPF
     MD5 check sum: 8e4df49b7f0d34bbd5052bf3f5ea0213
     Pseudo is Ultrasoft, Zval = 12.0
     Generated by new atomic code, or converted to UPF format
     Using radial grid of  851 points,  6 beta functions with:
                l(1) =   0
                l(2) =   0
                l(3) =   1
                l(4) =   1
                l(5) =   2
                l(6) =   2
     Q(r) pseudized with  8 coefficients,  rinner =    1.000   1.000   1.000
                                                       1.000   1.000

     PseudoPot. # 2 for O  read from file:
     /storage/coda1/p-amedford6/0/shared/rich_project_chbe-medford/medford-share/data/pseudos_module/espresso/nninc/pbe/van/O.UPF
     MD5 check sum: 78c19812648e8988a0fe644b0f25305e
     Pseudo is Ultrasoft, Zval =  6.0
     Generated by new atomic code, or converted to UPF format
     Using radial grid of  737 points,  4 beta functions with:
                l(1) =   0
                l(2) =   0
                l(3) =   1
                l(4) =   1
     Q(r) pseudized with  8 coefficients,  rinner =    0.800   0.800   0.800

     PseudoPot. # 3 for N  read from file:
     /storage/coda1/p-amedford6/0/shared/rich_project_chbe-medford/medford-share/data/pseudos_module/espresso/nninc/pbe/van/N.UPF
     MD5 check sum: 90d10febe142ad51ac9d5be1deb811c4
     Pseudo is Ultrasoft, Zval =  5.0
     Generated by new atomic code, or converted to UPF format
     Using radial grid of  729 points,  4 beta functions with:
                l(1) =   0
                l(2) =   0
                l(3) =   1
                l(4) =   1
     Q(r) pseudized with  8 coefficients,  rinner =    0.800   0.800   0.800

     PseudoPot. # 4 for C  read from file:
     /storage/coda1/p-amedford6/0/shared/rich_project_chbe-medford/medford-share/data/pseudos_module/espresso/nninc/pbe/van/C.UPF
     MD5 check sum: 1a69bf6b8db32088f5b2163dbdb77a27
     Pseudo is Ultrasoft, Zval =  4.0
     Generated by new atomic code, or converted to UPF format
     Using radial grid of  721 points,  4 beta functions with:
                l(1) =   0
                l(2) =   0
                l(3) =   1
                l(4) =   1
     Q(r) pseudized with  8 coefficients,  rinner =    0.800   0.800   0.800

     PseudoPot. # 5 for H  read from file:
     /storage/coda1/p-amedford6/0/shared/rich_project_chbe-medford/medford-share/data/pseudos_module/espresso/nninc/pbe/van/H.UPF
     MD5 check sum: b5ee9d7bfd3a09ee7748110bda690ff7
     Pseudo is Ultrasoft, Zval =  1.0
     Generated by new atomic code, or converted to UPF format
     Using radial grid of  615 points,  1 beta functions with:
                l(1) =   0
     Q(r) pseudized with  8 coefficients,  rinner =    0.800

     atomic species   valence    mass     pseudopotential
        Ti1           12.00    47.86700     Ti( 1.00)
        O1             6.00    15.99900     O ( 1.00)
        N1             5.00    14.00700     N ( 1.00)
        C1             4.00    12.01100     C ( 1.00)
        H1             1.00     1.00800     H ( 1.00)

     No symmetry found

   Cartesian axes

     site n.     atom                  positions (alat units)
         1           Ti1 tau(   1) = (   0.0004258   2.9801865   6.0000000  )
         2           Ti1 tau(   2) = (   3.2906075   1.4906267   6.0002472  )
         3           O1  tau(   3) = (   0.0006271   0.0005054   7.9858123  )
         4           O1  tau(   4) = (   3.2906025   0.0005020   7.3038282  )
         5           O1  tau(   5) = (   4.5942328   1.4918067   9.2879030  )
         6           O1  tau(   6) = (   1.9868534   1.4903216   9.2879459  )
         7           Ti1 tau(   7) = (   3.2907910   2.8959150   9.1758416  )
         8           Ti1 tau(   8) = (   0.0015273   1.4827037   9.2680791  )
         9           O1  tau(   9) = (   3.3106937   0.0084137  11.2927479  )
        10           O1  tau(  10) = (   0.0116148   5.9584955  10.6183126  )
        11           O1  tau(  11) = (   1.3255326   1.5151957  12.5859258  )
        12           O1  tau(  12) = (   5.3246634   1.4871208  12.6441624  )
        13           Ti1 tau(  13) = (   6.5358624   2.9940264  12.7507449  )
        14           Ti1 tau(  14) = (   3.1828407   1.5032771  12.4528579  )
        15           O1  tau(  15) = (   0.1336207   0.0073438  14.6266748  )
        16           O1  tau(  16) = (   3.2550344   0.0288700  13.8306396  )
        17           O1  tau(  17) = (   4.6334483   1.5013943  15.9792279  )
        18           O1  tau(  18) = (   2.1409664   1.5470880  15.9954950  )
        19           Ti1 tau(  19) = (   3.4798582   3.0305884  15.6593850  )
        20           Ti1 tau(  20) = (   0.1386493   1.3724552  15.8613965  )
        21           O1  tau(  21) = (   3.2904802   0.0005063   4.7018136  )
        22           O1  tau(  22) = (   0.1429122   0.0333940  17.1908172  )
        23           O1  tau(  23) = (   1.3043587   1.4918075   6.0039043  )
        24           O1  tau(  24) = (   5.2767064   1.4903225   6.0039473  )
        25           Ti1 tau(  25) = (   0.0000382   5.9609847   6.0000000  )
        26           Ti1 tau(  26) = (   3.2902200   4.4714249   6.0002472  )
        27           O1  tau(  27) = (   0.0002396   2.9813036   7.9858123  )
        28           O1  tau(  28) = (   3.2902150   2.9813002   7.3038282  )
        29           O1  tau(  29) = (   4.5938453   4.4726049   9.2879030  )
        30           O1  tau(  30) = (   1.9864658   4.4711199   9.2879459  )
        31           Ti1 tau(  31) = (   3.2891106   5.8743827   9.1763621  )
        32           Ti1 tau(  32) = (   0.0006254   4.4649316   9.2693709  )
        33           O1  tau(  33) = (   3.3137399   2.9960163  11.2943833  )
        34           O1  tau(  34) = (   0.0092240   2.9805883  10.6323155  )
        35           O1  tau(  35) = (   1.3234708   4.4688006  12.5930975  )
        36           O1  tau(  36) = (   5.3222282   4.4932535  12.6449723  )
        37           Ti1 tau(  37) = (   6.5041614   0.0053836  12.5833808  )
        38           Ti1 tau(  38) = (   3.1843229   4.4812189  12.4522442  )
        39           O1  tau(  39) = (   0.0584892   2.9792810  14.6723703  )
        40           O1  tau(  40) = (   3.3232524   2.9928384  13.8523860  )
        41           O1  tau(  41) = (   4.6237859   4.5837569  15.7472905  )
        42           O1  tau(  42) = (   2.1882403   4.4693611  16.1038286  )
        43           Ti1 tau(  43) = (   3.3015484   0.0242660  15.6383815  )
        44           Ti1 tau(  44) = (   0.0181797   4.4930750  16.1931172  )
        45           O1  tau(  45) = (   3.2900926   2.9813045   4.7018136  )
        46           O1  tau(  46) = (   1.3039711   4.4726057   6.0039043  )
        47           O1  tau(  47) = (   5.2763189   4.4711207   6.0039473  )
        48           N1  tau(  48) = (   0.2677213   2.8760844  17.5655548  )
        49           C1  tau(  49) = (   1.2271684   2.7639891  18.6598760  )
        50           H1  tau(  50) = (   1.2930054   3.7106696  19.2072709  )
        51           H1  tau(  51) = (   0.8976878   1.9730418  19.3402421  )
        52           H1  tau(  52) = (   2.2102292   2.4972526  18.2950250  )
        53           N1  tau(  53) = (   5.6732178   3.4927010  17.8452151  )
        54           H1  tau(  54) = (   5.7345573   4.0058295  18.7343860  )

     number of k points=    10  Fermi-Dirac smearing, width (Ry)=  0.0073
                       cart. coord. in units 2pi/alat
        k(    1) = (   0.0000000   0.0000000   0.0000000), wk =   0.1250000
        k(    2) = (   0.0000000   0.0419351   0.0000000), wk =   0.2500000
        k(    3) = (   0.0000000  -0.0838702   0.0000000), wk =   0.1250000
        k(    4) = (   0.0379955   0.0000049   0.0000000), wk =   0.2500000
        k(    5) = (   0.0379955   0.0419400   0.0000000), wk =   0.2500000
        k(    6) = (   0.0379955  -0.0838652   0.0000000), wk =   0.2500000
        k(    7) = (   0.0379955  -0.0419301   0.0000000), wk =   0.2500000
        k(    8) = (  -0.0759910  -0.0000099   0.0000000), wk =   0.1250000
        k(    9) = (  -0.0759910   0.0419252   0.0000000), wk =   0.2500000
        k(   10) = (  -0.0759910  -0.0838800   0.0000000), wk =   0.1250000

     Initial potential from superposition of free atoms

     starting charge  379.99915, renormalised to  396.00000

     negative rho (up, down):  1.686E-02 0.000E+00

     %%%%%%%%%%%%%%%%%%%%%%%%%%%%%%%%%%%%%%%%%%%%%%%%%%%%%%%%%%%%%%%%%%%%%%%%
     %                                                                      %
     % You are using vdW-DF, which was implemented by the Thonhauser group. %
     % Please cite the following two papers that made this development      %
     % possible and the two reviews that describe the various versions:     %
     %                                                                      %
     %   T. Thonhauser et al., PRL 115, 136402 (2015).                      %
     %   T. Thonhauser et al., PRB 76, 125112 (2007).                       %
     %   K. Berland et al., Rep. Prog. Phys. 78, 066501 (2015).             %
     %   D.C. Langreth et al., J. Phys.: Condens. Matter 21, 084203 (2009). %
     %                                                                      %
     %                                                                      %
     % If you are calculating the stress with vdW-DF, please also cite:     %
     %                                                                      %
     %   R. Sabatini et al., J. Phys.: Condens. Matter 24, 424209 (2012).   %
     %                                                                      %
     %%%%%%%%%%%%%%%%%%%%%%%%%%%%%%%%%%%%%%%%%%%%%%%%%%%%%%%%%%%%%%%%%%%%%%%%

     Adding external electric field

     Computed dipole along edir(3) :
        Dipole               -8.2230 Ry au,        -20.9008 Debye
        Dipole field         -0.0155 Ry au,

        Potential amp.        1.4385 Ry
        Total length         46.3494 bohr

     Starting wfcs are  300 atomic wfcs
  @ DRIVER MODE: Message from server: STATUS
  @ DRIVER MODE: Message from server: POSDATA
  @ DRIVER MODE: Reading and sharing cell
  @ DRIVER MODE: Reading and sharing positions
  @ DRIVER MODE: Received positions

     Self-consistent Calculation

     iteration #  1     ecut=    29.40 Ry     beta= 0.05
     Davidson diagonalization with overlap
     c_bands:  1 eigenvalues not converged
     c_bands:  1 eigenvalues not converged
     c_bands:  1 eigenvalues not converged
     c_bands:  1 eigenvalues not converged
     c_bands:  4 eigenvalues not converged
     c_bands:  1 eigenvalues not converged
     c_bands:  5 eigenvalues not converged
     c_bands:  2 eigenvalues not converged
     c_bands:  1 eigenvalues not converged
     ethr =  1.00E-05,  avg # of iterations = 20.0

[...]

     total energy              =   -2607.33555260 Ry
     estimated scf accuracy    <    3677.86480415 Ry

[...]

     iteration #  3     ecut=    29.40 Ry     beta= 0.05
     Davidson diagonalization with overlap
     ethr =  1.00E-02,  avg # of iterations = 13.7

[...]

     iteration # 45     ecut=    29.40 Ry     beta= 0.05
     Davidson diagonalization with overlap
     c_bands:  1 eigenvalues not converged
     c_bands:  2 eigenvalues not converged
     c_bands:  2 eigenvalues not converged
     c_bands:  3 eigenvalues not converged
     c_bands:  1 eigenvalues not converged
     ethr =  6.86E-07,  avg # of iterations = 18.6

[...]

     total energy              =   -2940.35217106 Ry
     estimated scf accuracy    <       0.00000008 Ry

     iteration # 67     ecut=    29.40 Ry     beta= 0.05
     Davidson diagonalization with overlap
     ethr =  2.11E-11,  avg # of iterations =  6.9

     negative rho (up, down):  1.746E-02 0.000E+00

     Adding external electric field

     Computed dipole along edir(3) :
        Dipole                0.7394 Ry au,          1.8793 Debye
        Dipole field          0.0014 Ry au,

        Potential amp.       -0.1293 Ry
        Total length         46.3494 bohr

     End of self-consistent calculation

          k = 0.0000 0.0000 0.0000 ( 18029 PWs)   bands (ev):

   -56.0233 -55.9893 -55.8042 -55.7653 -55.7254 -55.6909 -55.6636 -55.6395
   -55.6294 -55.6048 -55.5756 -55.4959 -55.2411 -54.9196 -54.8856 -54.7893
   -32.4900 -32.3463 -32.3173 -32.2939 -32.1923 -32.1781 -32.1663 -32.1290
   -32.1128 -32.0991 -32.0841 -32.0452 -32.0215 -31.9819 -31.9760 -31.9731
   -31.9421 -31.9310 -31.9200 -31.8966 -31.8871 -31.8695 -31.8642 -31.8592
   -31.8398 -31.8376 -31.8296 -31.8250 -31.8197 -31.8017 -31.7943 -31.7936
   -31.7763 -31.7522 -31.6922 -31.6652 -31.6166 -31.4678 -31.4647 -31.3230
   -31.2437 -31.2208 -31.2067 -31.1404 -31.0544 -30.9938 -30.9430 -30.9138
   -17.3103 -16.5593 -16.3687 -16.0787 -15.9276 -15.9078 -15.7886 -15.6918
   -15.6143 -15.5145 -15.4611 -15.4069 -15.3948 -15.3690 -15.3103 -15.2886
   -15.2471 -15.2297 -15.1871 -15.1763 -15.1304 -15.1084 -15.0859 -15.0511
   -14.9867 -14.9164 -14.9039 -14.7471 -14.6082 -14.4554 -13.4208 -13.3059
   -11.5543  -8.3442  -5.0266  -4.0089  -3.9459  -3.8763  -3.8418  -3.7743
    -3.6931  -3.4421  -3.4183  -3.3580  -3.0711  -3.0235  -2.9995  -2.9949
    -2.8970  -2.7578  -2.7270  -2.6671  -2.6612  -2.6406  -2.6206  -2.6037
    -2.5464  -2.4905  -2.4747  -2.4331  -2.2982  -2.2719  -2.2676  -2.2456
    -2.1755  -2.1665  -2.1021  -2.0845  -2.0617  -2.0434  -2.0061  -1.8731
    -1.8395  -1.7747  -1.6935  -1.6045  -1.5248  -1.4890  -1.4011  -1.3869
    -1.3394  -1.2612  -1.2541  -1.1788  -1.1460  -1.0714  -1.0447  -1.0074
    -0.8988  -0.8711  -0.8131  -0.7553  -0.7108  -0.6975  -0.6563  -0.6318
    -0.6264  -0.6114  -0.5986  -0.4045  -0.3742  -0.2316  -0.1859  -0.1612
    -0.1206  -0.0976  -0.0392  -0.0160  -0.0105   0.0291   0.0472   0.0902
     0.1460   0.1605   0.1867   0.2807   0.3127   0.3676   0.4939   0.5073
     0.5951   0.6623   0.7683   0.7809   0.8322   0.9637   1.0593   1.0805
     1.1027   1.3080   1.4131   1.6667   1.7092   3.0245   3.1701   3.2654
     3.3741   3.4946   3.5701   3.6077   3.7832   3.8210   3.8625   3.9321

[...]

          k = 0.0380-0.0419 0.0000 ( 17876 PWs)   bands (ev):

[...]

          k =-0.0760-0.0000 0.0000 ( 17886 PWs)   bands (ev):

[...]

          k =-0.0760-0.0839 0.0000 ( 17948 PWs)   bands (ev):

   -56.0072 -56.0053 -55.7921 -55.7773 -55.7118 -55.7042 -55.6482 -55.6449
   -55.6261 -55.6181 -55.5717 -55.4997 -55.2405 -54.9026 -54.9024 -54.7898
   -32.3063 -32.3055 -32.3031 -32.3015 -32.1538 -32.1417 -32.1300 -32.1280
   -32.0503 -32.0375 -32.0274 -32.0240 -32.0169 -32.0139 -31.9709 -31.9654
   -31.9557 -31.9436 -31.9130 -31.9029 -31.8907 -31.8863 -31.8816 -31.8804
   -31.8755 -31.8717 -31.8558 -31.8502 -31.8441 -31.8408 -31.8357 -31.8170
   -31.7973 -31.7945 -31.7647 -31.7062 -31.6070 -31.4702 -31.4641 -31.2569
   -31.2337 -31.2335 -31.1364 -31.1361 -31.0975 -31.0974 -31.0058 -30.9177
   -17.2911 -15.9763 -15.9479 -15.8410 -15.8216 -15.7328 -15.7195 -15.6048
   -15.5970 -15.5841 -15.5178 -15.4723 -15.4617 -15.3792 -15.3523 -15.3410
   -15.3166 -15.3068 -15.3003 -15.2893 -15.2761 -15.1974 -15.1922 -15.1894
   -15.1142 -15.0917 -14.9054 -14.8622 -14.6645 -14.6189 -13.4084 -13.4080
   -11.5578  -8.3240  -5.0328  -3.9085  -3.8365  -3.2784  -3.2423  -3.0270
    -3.0008  -2.9804  -2.9514  -2.7665  -2.7526  -2.7464  -2.7289  -2.7159
    -2.6787  -2.6597  -2.6470  -2.5812  -2.5716  -2.5511  -2.5463  -2.5363
    -2.5174  -2.5023  -2.4943  -2.4747  -2.4602  -2.4157  -2.3607  -2.3381
    -2.2876  -2.1936  -2.0890  -2.0437  -2.0300  -2.0219  -1.9989  -1.9898
    -1.9490  -1.9363  -1.8506  -1.6662  -1.6183  -1.5577  -1.5516  -1.5419
    -1.4842  -1.4283  -1.3871  -1.3109  -1.2452  -1.1924  -1.1630  -1.1390
    -1.1040  -1.0376  -0.9714  -0.9518  -0.9391  -0.9104  -0.9070  -0.8888
    -0.8104  -0.7266  -0.6860  -0.6559  -0.6332  -0.6193  -0.6037  -0.5806
    -0.4740  -0.4056  -0.3578  -0.3123  -0.2699  -0.2278  -0.1094  -0.0944
     0.1000   0.1658   0.1910   0.2700   0.3668   0.3921   0.4024   0.4674
     0.5423   0.6052   0.6398   0.6944   0.7094   0.7309   0.7979   1.0119
     1.0682   1.4767   1.4784   1.5273   1.5283   2.9885   3.6707   3.6780
     3.6814   3.6915   3.7124   3.7359   3.7885   3.8231   3.9243   3.9460

     the Fermi energy is     3.1346 ev

!    total energy              =   -2940.35220083 Ry
     estimated scf accuracy    <       0.00000005 Ry
     smearing contrib. (-TS)   =      -0.01868778 Ry
     internal energy E=F+TS    =   -2940.33351305 Ry

     The total energy is F=E-TS. E is the sum of the following terms:
     one-electron contribution =  -24661.18685802 Ry
     hartree contribution      =   12419.72494453 Ry
     xc contribution           =    -486.05238486 Ry
     ewald contribution        =    9787.17975362 Ry
     electric field correction =       0.00103168 Ry

     convergence has been achieved in  67 iterations

     Forces acting on atoms (cartesian axes, Ry/au):

     atom    1 type  1   force =     0.00026373   -0.00036097    0.10152178
     atom    2 type  1   force =     0.00003831   -0.00087027   -0.17135843
     atom    3 type  2   force =     0.00029189    0.00021654   -0.03324920
     atom    4 type  2   force =     0.00003237   -0.00078736    0.04480112
     atom    5 type  2   force =    -0.01196240   -0.00020991   -0.00233091
     atom    6 type  2   force =     0.01439734    0.00038472   -0.00113410
     atom    7 type  1   force =     0.00140120   -0.00128285   -0.00426199
     atom    8 type  1   force =    -0.00078537    0.02218527    0.05622231
     atom    9 type  2   force =     0.00002956   -0.00032652    0.00045330
     atom   10 type  2   force =    -0.00266640    0.00207467   -0.02595734
     atom   11 type  2   force =     0.00002830    0.00024172   -0.00006528
     atom   12 type  2   force =     0.00010141    0.00073298    0.00001168
     atom   13 type  1   force =    -0.00004881    0.00013734    0.00026990
     atom   14 type  1   force =     0.00027974    0.00027692   -0.00000227
     atom   15 type  2   force =     0.00019341   -0.00022764    0.00000139
     atom   16 type  2   force =    -0.00002046   -0.00013707    0.00074248
     atom   17 type  2   force =    -0.00011492   -0.00077774    0.00003480
     atom   18 type  2   force =     0.00052319   -0.00071792    0.00032693
     atom   19 type  1   force =    -0.00017699   -0.00053897    0.00029388
     atom   20 type  1   force =     0.00006048    0.00014456   -0.00016496
     atom   21 type  2   force =     0.00006679   -0.00001152    0.10205530
     atom   22 type  2   force =    -0.00002353   -0.00031749    0.00031449
     atom   23 type  2   force =    -0.07327734   -0.00016530   -0.02888390
     atom   24 type  2   force =     0.07323025    0.00032258   -0.02893555
     atom   25 type  1   force =    -0.00029491   -0.00033165    0.10198665
     atom   26 type  1   force =     0.00002495   -0.00016901   -0.17135766
     atom   27 type  2   force =     0.00036548   -0.00022805   -0.03196731
     atom   28 type  2   force =     0.00009084   -0.00056772    0.04541398
     atom   29 type  2   force =    -0.01211172    0.00213402   -0.00288539
     atom   30 type  2   force =     0.01442434    0.00229276   -0.00163345
     atom   31 type  1   force =     0.00159646    0.00093460   -0.00559408
     atom   32 type  1   force =    -0.00058881   -0.02474255    0.05727781
     atom   33 type  2   force =     0.00015046    0.00035801    0.00061218
     atom   34 type  2   force =    -0.00420791    0.00212249   -0.04834675
     atom   35 type  2   force =     0.00061902   -0.00058585    0.00000049
     atom   36 type  2   force =    -0.00039201   -0.00074565    0.00012790
     atom   37 type  1   force =     0.00005730    0.00060811   -0.00003722
     atom   38 type  1   force =     0.00003096   -0.00013622   -0.00010596
     atom   39 type  2   force =     0.00019054   -0.00002673   -0.00068003
     atom   40 type  2   force =    -0.00008579   -0.00003551   -0.00035510
     atom   41 type  2   force =     0.00006747    0.00047770   -0.00003038
     atom   42 type  2   force =     0.00003294    0.00037406    0.00072273
     atom   43 type  1   force =    -0.00027580   -0.00008505    0.00016149
     atom   44 type  1   force =     0.00000282    0.00012017    0.00024438
     atom   45 type  2   force =     0.00004441   -0.00005049    0.10211382
     atom   46 type  2   force =    -0.07328734   -0.00008506   -0.02885872
     atom   47 type  2   force =     0.07323841    0.00029229   -0.02889639
     atom   48 type  3   force =     0.00048517    0.00033239    0.00017560
     atom   49 type  4   force =    -0.00379878    0.00047090    0.00305744
     atom   50 type  5   force =    -0.00052879   -0.00012456    0.00007546
     atom   51 type  5   force =    -0.00116484   -0.00025969    0.00077636
     atom   52 type  5   force =     0.00333538   -0.00138327   -0.00323489
     atom   53 type  3   force =     0.00013214   -0.00057414    0.00090701
     atom   54 type  5   force =    -0.00001411   -0.00037202   -0.00037544

     Total force =     0.377789     Total SCF correction =     0.000723
  @ DRIVER MODE: Message from server: STATUS
  @ DRIVER MODE: Message from server: GETFORCE
  @ DRIVER MODE: Returning v,forces,stress,ensemble

     Writing output data file ./calc.save/
  @ DRIVER MODE: Message from server: EXIT
  @ DRIVE MODE: Exiting

     General routines

     Parallel routines

   This run was terminated on:  20:28: 4   2Aug2021

   JOB DONE.