     Program PWSCF v.6.7GPU starts on 23Aug2021 at 21:44:41

     R & G space division:  proc/nbgrp/npool/nimage =       6
     Reading input from /storage/home/hcoda1/3/ntian30/research/carbon/CH_vib/ads_slab/CHNHHH_a/out_0017/pw.inp
Warning: card &CELL ignored
Warning: card   CELL_DYNAMICS='IPI', ignored
Warning: card / ignored

     Current dimensions of program PWSCF are:
     Max number of different atomic species (ntypx) = 10
     Max number of k-points (npk) =  40000
     Max angular momentum in pseudopotentials (lmaxx) =  3
     Presently no symmetry can be used with electric field

     Message from routine cell_base_init:
     DEPRECATED: use true lattice parameter, not A to a.u. conversion factor

     IMPORTANT: XC functional enforced from input :
     Exchange-correlation= BEEF-VDW
                           (   1   4  43  14   2   0   0)
     Any further DFT definition will be discarded
     Please, verify this is what you really want

  @ DRIVER MODE: Connecting to
 qe_1139763_2632793.sched-torque.pace.gatech.eduk110plrb_scratch
  using UNIX socket
  @ DRIVER MODE: Message from server: STATUS
  @ DRIVER MODE: Message from server: INIT
  @ DRIVER MODE: Receiving replica           0          -1
  @ DRIVER MODE: Receiving encoded integer          25
  @ DRIVER MODE:  SCF:  T  FORCE:  T  STRESS:  F  VC:  F  ENSEMBLE:  F
  @ DRIVER MODE:  SCF:  T  FORCE:  T  STRESS:  F  VC:  F  ENSEMBLE:  F

     Using Slab Decomposition

     bravais-lattice index     =            0
     lattice parameter (alat)  =       1.8897  a.u.
     unit-cell volume          =    6658.9804 (a.u.)^3
     number of atoms/cell      =           53
     number of atomic types    =            5
     number of electrons       =       391.00
     number of Kohn-Sham states=          205
     kinetic-energy cutoff     =      29.3995  Ry
     charge density cutoff     =     293.9946  Ry
     scf convergence threshold =      7.3E-08
     mixing beta               =       0.0500
     number of iterations used =            8  plain     mixing
     Exchange-correlation= BEEF-VDW
                           (   1   4  43  14   2   0   0)

     celldm(1)=   1.889726  celldm(2)=   0.000000  celldm(3)=   0.000000
     celldm(4)=   0.000000  celldm(5)=   0.000000  celldm(6)=   0.000000

     crystal axes: (cart. coord. in units of alat)
               a(1) = (   6.579727   0.000000   0.000000 )
               a(2) = (  -0.000775   5.961596   0.000000 )
               a(3) = (   0.000000   0.000000  25.155947 )

     reciprocal axes: (cart. coord. in units 2 pi/alat)
               b(1) = (  0.151982  0.000020  0.000000 )
               b(2) = (  0.000000  0.167740  0.000000 )
               b(3) = (  0.000000  0.000000  0.039752 )

     PseudoPot. # 1 for Ti read from file:
     /storage/coda1/p-amedford6/0/shared/rich_project_chbe-medford/medford-share/data/pseudos_module/espresso/nninc/pbe/van/Ti.UPF
     MD5 check sum: 8e4df49b7f0d34bbd5052bf3f5ea0213
     Pseudo is Ultrasoft, Zval = 12.0
     Generated by new atomic code, or converted to UPF format
     Using radial grid of  851 points,  6 beta functions with:
                l(1) =   0
                l(2) =   0
                l(3) =   1
                l(4) =   1
                l(5) =   2
                l(6) =   2
     Q(r) pseudized with  8 coefficients,  rinner =    1.000   1.000   1.000
                                                       1.000   1.000

     PseudoPot. # 2 for O  read from file:
     /storage/coda1/p-amedford6/0/shared/rich_project_chbe-medford/medford-share/data/pseudos_module/espresso/nninc/pbe/van/O.UPF
     MD5 check sum: 78c19812648e8988a0fe644b0f25305e
     Pseudo is Ultrasoft, Zval =  6.0
     Generated by new atomic code, or converted to UPF format
     Using radial grid of  737 points,  4 beta functions with:
                l(1) =   0
                l(2) =   0
                l(3) =   1
                l(4) =   1
     Q(r) pseudized with  8 coefficients,  rinner =    0.800   0.800   0.800

     PseudoPot. # 3 for N  read from file:
     /storage/coda1/p-amedford6/0/shared/rich_project_chbe-medford/medford-share/data/pseudos_module/espresso/nninc/pbe/van/N.UPF
     MD5 check sum: 90d10febe142ad51ac9d5be1deb811c4
     Pseudo is Ultrasoft, Zval =  5.0
     Generated by new atomic code, or converted to UPF format
     Using radial grid of  729 points,  4 beta functions with:
                l(1) =   0
                l(2) =   0
                l(3) =   1
                l(4) =   1
     Q(r) pseudized with  8 coefficients,  rinner =    0.800   0.800   0.800

     PseudoPot. # 4 for C  read from file:
     /storage/coda1/p-amedford6/0/shared/rich_project_chbe-medford/medford-share/data/pseudos_module/espresso/nninc/pbe/van/C.UPF
     MD5 check sum: 1a69bf6b8db32088f5b2163dbdb77a27
     Pseudo is Ultrasoft, Zval =  4.0
     Generated by new atomic code, or converted to UPF format
     Using radial grid of  721 points,  4 beta functions with:
                l(1) =   0
                l(2) =   0
                l(3) =   1
                l(4) =   1
     Q(r) pseudized with  8 coefficients,  rinner =    0.800   0.800   0.800

     PseudoPot. # 5 for H  read from file:
     /storage/coda1/p-amedford6/0/shared/rich_project_chbe-medford/medford-share/data/pseudos_module/espresso/nninc/pbe/van/H.UPF
     MD5 check sum: b5ee9d7bfd3a09ee7748110bda690ff7
     Pseudo is Ultrasoft, Zval =  1.0
     Generated by new atomic code, or converted to UPF format
     Using radial grid of  615 points,  1 beta functions with:
                l(1) =   0
     Q(r) pseudized with  8 coefficients,  rinner =    0.800

     atomic species   valence    mass     pseudopotential
        Ti1           12.00    47.86700     Ti( 1.00)
        O1             6.00    15.99900     O ( 1.00)
        N1             5.00    14.00700     N ( 1.00)
        C1             4.00    12.01100     C ( 1.00)
        H1             1.00     1.00800     H ( 1.00)

     No symmetry found

   Cartesian axes

     site n.     atom                  positions (alat units)
         1           Ti1 tau(   1) = (   0.0004258   2.9801865   6.0000000  )
         2           Ti1 tau(   2) = (   3.2906075   1.4906267   6.0002472  )
         3           O1  tau(   3) = (   0.0006271   0.0005054   7.9858123  )
         4           O1  tau(   4) = (   3.2906025   0.0005020   7.3038282  )
         5           O1  tau(   5) = (   4.5942328   1.4918067   9.2879030  )
         6           O1  tau(   6) = (   1.9868534   1.4903216   9.2879459  )
         7           Ti1 tau(   7) = (   3.2907910   2.8959150   9.1758416  )
         8           Ti1 tau(   8) = (   0.0015273   1.4827037   9.2680791  )
         9           O1  tau(   9) = (   3.3113122   5.9567026  11.3833813  )
        10           O1  tau(  10) = (   0.0116148   5.9584955  10.6183126  )
        11           O1  tau(  11) = (   1.3074368   1.4838846  12.6958875  )
        12           O1  tau(  12) = (   5.3165545   1.4905306  12.6890028  )
        13           Ti1 tau(  13) = (   0.0319163   2.9634337  12.5060949  )
        14           Ti1 tau(  14) = (   3.3348194   1.4676286  12.5406051  )
        15           O1  tau(  15) = (   6.5718004   5.8756060  14.7032446  )
        16           O1  tau(  16) = (   3.3285255   5.9545307  14.0046557  )
        17           O1  tau(  17) = (   4.5620449   1.5282301  16.1894795  )
        18           O1  tau(  18) = (   2.0507131   1.5111456  16.1254446  )
        19           Ti1 tau(  19) = (   3.3090684   3.0029381  15.7706148  )
        20           Ti1 tau(  20) = (   0.0350077   1.2886257  15.8758580  )
        21           O1  tau(  21) = (   3.2904802   0.0005063   4.7018136  )
        22           O1  tau(  22) = (   0.0240991   0.1326893  17.2553962  )
        23           O1  tau(  23) = (   1.3043587   1.4918075   6.0039043  )
        24           O1  tau(  24) = (   5.2767064   1.4903225   6.0039473  )
        25           Ti1 tau(  25) = (   0.0000382   5.9609847   6.0000000  )
        26           Ti1 tau(  26) = (   3.2902200   4.4714249   6.0002472  )
        27           O1  tau(  27) = (   0.0002396   2.9813036   7.9858123  )
        28           O1  tau(  28) = (   3.2902150   2.9813002   7.3038282  )
        29           O1  tau(  29) = (   4.5938453   4.4726049   9.2879030  )
        30           O1  tau(  30) = (   1.9864658   4.4711199   9.2879459  )
        31           Ti1 tau(  31) = (   3.2891106   5.8743827   9.1763621  )
        32           Ti1 tau(  32) = (   0.0006254   4.4649316   9.2693709  )
        33           O1  tau(  33) = (   3.3073171   2.9646269  11.3784001  )
        34           O1  tau(  34) = (   0.0092240   2.9805883  10.6323155  )
        35           O1  tau(  35) = (   1.3112202   4.4579144  12.6624112  )
        36           O1  tau(  36) = (   5.3138049   4.4530836  12.6532163  )
        37           Ti1 tau(  37) = (   0.0383750   5.9352221  12.5084026  )
        38           Ti1 tau(  38) = (   3.3346062   4.4465110  12.5317211  )
        39           O1  tau(  39) = (   0.0124192   3.0170750  14.9941726  )
        40           O1  tau(  40) = (   3.3221393   2.9969786  13.9787254  )
        41           O1  tau(  41) = (   4.5445774   4.4782521  16.2319081  )
        42           O1  tau(  42) = (   2.0501905   4.4790704  16.2078326  )
        43           Ti1 tau(  43) = (   3.3285819   0.0194352  15.8051934  )
        44           Ti1 tau(  44) = (   0.0611752   4.5099810  16.0683830  )
        45           O1  tau(  45) = (   3.2900926   2.9813045   4.7018136  )
        46           O1  tau(  46) = (   1.3039711   4.4726057   6.0039043  )
        47           O1  tau(  47) = (   5.2763189   4.4711207   6.0039473  )
        48           N1  tau(  48) = (   6.2166669   3.4226028  18.2351681  )
        49           C1  tau(  49) = (   0.7325778   3.1430902  19.0455235  )
        50           H1  tau(  50) = (   1.1688338   2.1628109  18.9660543  )
        51           H1  tau(  51) = (   5.7007151   4.2593073  18.4945226  )
        52           H1  tau(  52) = (   5.5741914   2.6425579  18.1107425  )
        53           H1  tau(  53) = (   1.2593429   3.9788434  19.4721980  )

     number of k points=    10  Fermi-Dirac smearing, width (Ry)=  0.0073
                       cart. coord. in units 2pi/alat
        k(    1) = (   0.0000000   0.0000000   0.0000000), wk =   0.1250000
        k(    2) = (   0.0000000   0.0419351   0.0000000), wk =   0.2500000
        k(    3) = (   0.0000000  -0.0838702   0.0000000), wk =   0.1250000
        k(    4) = (   0.0379955   0.0000049   0.0000000), wk =   0.2500000
        k(    5) = (   0.0379955   0.0419400   0.0000000), wk =   0.2500000
        k(    6) = (   0.0379955  -0.0838652   0.0000000), wk =   0.2500000
        k(    7) = (   0.0379955  -0.0419301   0.0000000), wk =   0.2500000
        k(    8) = (  -0.0759910  -0.0000099   0.0000000), wk =   0.1250000
        k(    9) = (  -0.0759910   0.0419252   0.0000000), wk =   0.2500000
        k(   10) = (  -0.0759910  -0.0838800   0.0000000), wk =   0.1250000

     Initial potential from superposition of free atoms

     starting charge  374.99916, renormalised to  391.00000

     negative rho (up, down):  1.698E-02 0.000E+00

     %%%%%%%%%%%%%%%%%%%%%%%%%%%%%%%%%%%%%%%%%%%%%%%%%%%%%%%%%%%%%%%%%%%%%%%%
     %                                                                      %
     % You are using vdW-DF, which was implemented by the Thonhauser group. %
     % Please cite the following two papers that made this development      %
     % possible and the two reviews that describe the various versions:     %
     %                                                                      %
     %   T. Thonhauser et al., PRL 115, 136402 (2015).                      %
     %   T. Thonhauser et al., PRB 76, 125112 (2007).                       %
     %   K. Berland et al., Rep. Prog. Phys. 78, 066501 (2015).             %
     %   D.C. Langreth et al., J. Phys.: Condens. Matter 21, 084203 (2009). %
     %                                                                      %
     %                                                                      %
     % If you are calculating the stress with vdW-DF, please also cite:     %
     %                                                                      %
     %   R. Sabatini et al., J. Phys.: Condens. Matter 24, 424209 (2012).   %
     %                                                                      %
     %%%%%%%%%%%%%%%%%%%%%%%%%%%%%%%%%%%%%%%%%%%%%%%%%%%%%%%%%%%%%%%%%%%%%%%%

     Adding external electric field

     Computed dipole along edir(3) :
        Dipole               -6.8863 Ry au,        -17.5032 Debye
        Dipole field         -0.0130 Ry au,

        Potential amp.        1.2047 Ry
        Total length         46.3494 bohr

     Starting wfcs are  296 atomic wfcs
  @ DRIVER MODE: Message from server: STATUS
  @ DRIVER MODE: Message from server: POSDATA
  @ DRIVER MODE: Reading and sharing cell
  @ DRIVER MODE: Reading and sharing positions
  @ DRIVER MODE: Received positions

     Self-consistent Calculation

     iteration #  1     ecut=    29.40 Ry     beta= 0.05
     Davidson diagonalization with overlap
     c_bands:  1 eigenvalues not converged
     c_bands:  2 eigenvalues not converged
     ethr =  1.00E-05,  avg # of iterations = 15.9

[...]

     total energy              =   -2713.96033038 Ry
     estimated scf accuracy    <    2276.02478405 Ry

     iteration #  2     ecut=    29.40 Ry     beta= 0.05
     Davidson diagonalization with overlap
     ethr =  1.00E-02,  avg # of iterations = 18.7

[...]

     iteration # 78     ecut=    29.40 Ry     beta= 0.05
     Davidson diagonalization with overlap
     c_bands:  1 eigenvalues not converged
     ethr =  8.41E-11,  avg # of iterations = 14.4

[...]

     total energy              =   -2920.25699362 Ry
     estimated scf accuracy    <       0.00000010 Ry

     iteration # 82     ecut=    29.40 Ry     beta= 0.05
     Davidson diagonalization with overlap
     ethr =  2.46E-11,  avg # of iterations = 15.9

     negative rho (up, down):  1.634E-02 0.000E+00

     Adding external electric field

     Computed dipole along edir(3) :
        Dipole                0.8998 Ry au,          2.2870 Debye
        Dipole field          0.0017 Ry au,

        Potential amp.       -0.1574 Ry
        Total length         46.3494 bohr

     End of self-consistent calculation

          k = 0.0000 0.0000 0.0000 ( 18029 PWs)   bands (ev):

   -55.7217 -55.6853 -55.6753 -55.6411 -55.6084 -55.6052 -55.5708 -55.5467
   -55.5387 -55.5123 -55.5071 -55.4735 -55.4519 -55.2895 -54.7066 -54.6726
   -32.2867 -32.1681 -32.0926 -32.0430 -32.0393 -32.0357 -32.0310 -32.0130
   -31.9643 -31.9542 -31.9342 -31.9290 -31.9203 -31.8906 -31.8756 -31.8750
   -31.8603 -31.8465 -31.8426 -31.8278 -31.8228 -31.7895 -31.7824 -31.7771
   -31.7489 -31.7369 -31.7360 -31.7324 -31.7263 -31.7192 -31.7071 -31.7051
   -31.6955 -31.6929 -31.6601 -31.6585 -31.6547 -31.6351 -31.6243 -31.6186
   -31.5093 -31.4622 -31.1161 -31.0216 -30.9995 -30.9324 -30.8456 -30.7348
   -16.6852 -16.5276 -16.2716 -16.1054 -16.0070 -15.9217 -15.7797 -15.7608
   -15.6448 -15.5681 -15.4255 -15.3885 -15.3758 -15.3592 -15.3363 -15.3239
   -15.2698 -15.2641 -15.2431 -15.2190 -15.2146 -15.1666 -15.1634 -15.1230
   -15.0998 -15.0375 -14.9677 -14.8841 -14.8120 -14.4806 -13.2095 -13.0920
    -9.5292  -6.8705  -4.9482  -3.8852  -3.7422  -3.6753  -3.6229  -3.6166
    -3.4723  -3.3011  -3.1539  -3.1322  -3.1008  -2.9906  -2.9266  -2.9123
    -2.8884  -2.7555  -2.7317  -2.6804  -2.6460  -2.5714  -2.5680  -2.5276
    -2.5139  -2.4691  -2.4630  -2.4371  -2.3031  -2.2899  -2.2515  -2.1889
    -2.1292  -2.1271  -2.0706  -2.0528  -2.0132  -2.0045  -1.9928  -1.9513
    -1.9458  -1.9108  -1.8083  -1.7463  -1.6138  -1.5797  -1.4338  -1.3638
    -1.3150  -1.2965  -1.2131  -1.1916  -1.1404  -1.1025  -1.0914  -1.0599
    -0.9464  -0.8602  -0.8094  -0.7549  -0.7220  -0.7063  -0.6171  -0.5243
    -0.5027  -0.4896  -0.4475  -0.3459  -0.3250  -0.2621  -0.2032  -0.1876
    -0.1784  -0.0821  -0.0512   0.0212   0.0721   0.0931   0.1645   0.1904
     0.2093   0.2147   0.2501   0.2611   0.3377   0.3540   0.3786   0.4654
     0.5913   0.8381   0.8866   0.9005   1.2167   1.2207   1.3158   1.4991
     1.8923   1.9406   3.3694   3.3873   3.4510   3.5202   3.5238   3.5884
     3.6110   3.8561   3.8773   3.8847   3.9013

[...]

          k = 0.0380-0.0419 0.0000 ( 17876 PWs)   bands (ev):

[...]

          k =-0.0760-0.0000 0.0000 ( 17886 PWs)   bands (ev):

[...]

          k =-0.0760-0.0839 0.0000 ( 17948 PWs)   bands (ev):

   -55.7065 -55.7003 -55.6582 -55.6580 -55.6039 -55.5886 -55.5873 -55.5430
   -55.5310 -55.5275 -55.4907 -55.4900 -55.4498 -55.2916 -54.6896 -54.6894
   -32.0934 -32.0887 -31.9973 -31.9832 -31.9832 -31.9793 -31.9515 -31.9496
   -31.9495 -31.9334 -31.9268 -31.9178 -31.9125 -31.8720 -31.8686 -31.8633
   -31.8593 -31.8548 -31.8493 -31.8460 -31.8299 -31.8098 -31.8017 -31.8010
   -31.7838 -31.7791 -31.7780 -31.7776 -31.7638 -31.7603 -31.7438 -31.7402
   -31.7397 -31.7248 -31.7233 -31.7205 -31.6729 -31.6709 -31.6697 -31.6303
   -31.5535 -31.5114 -31.0123 -31.0121 -30.9287 -30.9285 -30.8891 -30.8890
   -16.6533 -16.0108 -15.9461 -15.9080 -15.7599 -15.7188 -15.6840 -15.6723
   -15.5489 -15.5170 -15.4961 -15.4760 -15.4399 -15.4260 -15.4194 -15.3666
   -15.3407 -15.3207 -15.3165 -15.3025 -15.2402 -15.2338 -15.2289 -15.2216
   -15.1740 -15.1704 -15.0790 -15.0761 -15.0520 -14.7674 -13.1935 -13.1934
    -9.5312  -6.8522  -4.9273  -3.2163  -3.1980  -3.1624  -3.1348  -2.9797
    -2.9158  -2.9027  -2.8735  -2.8004  -2.7491  -2.7330  -2.6889  -2.6849
    -2.6316  -2.5983  -2.5732  -2.5597  -2.5534  -2.5398  -2.5183  -2.4815
    -2.4532  -2.4513  -2.4424  -2.3965  -2.3704  -2.3598  -2.3218  -2.3156
    -2.3077  -2.2801  -2.2164  -2.1158  -2.0865  -2.0582  -1.9620  -1.9312
    -1.9261  -1.8462  -1.8131  -1.7583  -1.7514  -1.7435  -1.5776  -1.5062
    -1.4701  -1.4668  -1.4443  -1.3171  -1.3024  -1.2240  -1.2003  -1.1875
    -1.0989  -1.0790  -1.0357  -1.0088  -0.9324  -0.9031  -0.8412  -0.7544
    -0.7158  -0.7088  -0.6798  -0.6759  -0.6267  -0.6157  -0.5305  -0.4920
    -0.4571  -0.4467  -0.3984  -0.2131  -0.1966  -0.1660  -0.0274   0.0237
     0.1487   0.1719   0.2330   0.3065   0.3471   0.3906   0.4273   0.5722
     0.5819   0.6147   0.6595   0.6706   0.7287   0.7375   1.6722   1.6727
     1.7604   1.7608   3.3831   3.6303   3.6328   3.6679   3.6906   3.8459
     3.8906   3.9345   3.9560   3.9592   3.9813

     the Fermi energy is     3.4375 ev

!    total energy              =   -2920.25699869 Ry
     estimated scf accuracy    <       0.00000003 Ry
     smearing contrib. (-TS)   =      -0.04245370 Ry
     internal energy E=F+TS    =   -2920.21454499 Ry

     The total energy is F=E-TS. E is the sum of the following terms:
     one-electron contribution =  -24059.75386543 Ry
     hartree contribution      =   12116.06190745 Ry
     xc contribution           =    -480.85789574 Ry
     ewald contribution        =    9504.33378093 Ry
     electric field correction =       0.00152780 Ry

     convergence has been achieved in  82 iterations

     Forces acting on atoms (cartesian axes, Ry/au):

     atom    1 type  1   force =    -0.00001713   -0.00019824    0.09317037
     atom    2 type  1   force =    -0.00011357   -0.00034094   -0.17841490
     atom    3 type  2   force =     0.00009140   -0.00039924   -0.02007413
     atom    4 type  2   force =     0.00004645   -0.00199844    0.05910496
     atom    5 type  2   force =    -0.01019905   -0.00081810    0.00742394
     atom    6 type  2   force =     0.01220542   -0.00042686    0.00773901
     atom    7 type  1   force =     0.00015435    0.00228447   -0.01370122
     atom    8 type  1   force =    -0.00035489   -0.00182863   -0.00452597
     atom    9 type  2   force =    -0.00034243    0.00036669   -0.00022911
     atom   10 type  2   force =    -0.00026763    0.00140846    0.00223958
     atom   11 type  2   force =    -0.00013245    0.00010725   -0.00010713
     atom   12 type  2   force =    -0.00027553   -0.00022586   -0.00061982
     atom   13 type  1   force =    -0.00048302    0.00090378   -0.00022951
     atom   14 type  1   force =    -0.00069531    0.00043266   -0.00048224
     atom   15 type  2   force =     0.00004753   -0.00016367    0.00015009
     atom   16 type  2   force =    -0.00041232   -0.00009553    0.00002259
     atom   17 type  2   force =    -0.00014880   -0.00031006   -0.00045717
     atom   18 type  2   force =    -0.00028555   -0.00015187    0.00049040
     atom   19 type  1   force =    -0.00056734   -0.00007460    0.00004320
     atom   20 type  1   force =    -0.00015124   -0.00028751   -0.00033454
     atom   21 type  2   force =     0.00002519   -0.00006124    0.10399062
     atom   22 type  2   force =    -0.00050235    0.00000907    0.00011547
     atom   23 type  2   force =    -0.07035047   -0.00014728   -0.02687910
     atom   24 type  2   force =     0.07022862    0.00029233   -0.02696413
     atom   25 type  1   force =     0.00002394   -0.00014944    0.09257296
     atom   26 type  1   force =    -0.00014620   -0.00046178   -0.17848646
     atom   27 type  2   force =     0.00015863   -0.00027747   -0.01915713
     atom   28 type  2   force =     0.00005802   -0.00176827    0.05848573
     atom   29 type  2   force =    -0.01067781   -0.00130148    0.00789369
     atom   30 type  2   force =     0.01255288   -0.00083268    0.00816040
     atom   31 type  1   force =     0.00028661    0.00600156   -0.01443068
     atom   32 type  1   force =    -0.00036635    0.00121511   -0.00499604
     atom   33 type  2   force =    -0.00004858   -0.00045781   -0.00007994
     atom   34 type  2   force =     0.00078294   -0.00258042    0.00064178
     atom   35 type  2   force =    -0.00060158   -0.00029224   -0.00012628
     atom   36 type  2   force =     0.00059312    0.00004949    0.00004536
     atom   37 type  1   force =    -0.00046657   -0.00043174    0.00006360
     atom   38 type  1   force =    -0.00026538    0.00035680   -0.00084793
     atom   39 type  2   force =    -0.00062663    0.00034386   -0.00012945
     atom   40 type  2   force =    -0.00015223   -0.00036135   -0.00055823
     atom   41 type  2   force =    -0.00109055    0.00010446   -0.00000814
     atom   42 type  2   force =     0.00008489   -0.00014746    0.00028967
     atom   43 type  1   force =     0.00052629   -0.00002847   -0.00040869
     atom   44 type  1   force =     0.00039706    0.00063900   -0.00003063
     atom   45 type  2   force =     0.00003749   -0.00007663    0.10393833
     atom   46 type  2   force =    -0.07032260   -0.00009298   -0.02685632
     atom   47 type  2   force =     0.07022544    0.00034913   -0.02691390
     atom   48 type  3   force =    -0.00107043    0.00255887   -0.00001800
     atom   49 type  4   force =    -0.00067634   -0.00010038   -0.00018097
     atom   50 type  5   force =     0.00103595    0.00014707    0.00069172
     atom   51 type  5   force =     0.00146148   -0.00104641   -0.00035772
     atom   52 type  5   force =    -0.00005835    0.00060265   -0.00009123
     atom   53 type  5   force =     0.00084499   -0.00023766   -0.00057676

     Total force =     0.366335     Total SCF correction =     0.000687
  @ DRIVER MODE: Message from server: STATUS
  @ DRIVER MODE: Message from server: GETFORCE
  @ DRIVER MODE: Returning v,forces,stress,ensemble

     Writing output data file ./calc.save/
  @ DRIVER MODE: Message from server: EXIT
  @ DRIVE MODE: Exiting

     General routines

     Parallel routines

   This run was terminated on:  22:18:10  23Aug2021

   JOB DONE.