     Program PWSCF v.6.7GPU starts on 16Sep2021 at  5:35:32

     R & G space division:  proc/nbgrp/npool/nimage =      10
     Reading input from /storage/home/hcoda1/3/ntian30/research/carbon/CxH_vib/H2O_calc/ads_slab/CHNHH2O_a/out_0042/pw.inp
Warning: card &CELL ignored
Warning: card   CELL_DYNAMICS='IPI', ignored
Warning: card / ignored

     Current dimensions of program PWSCF are:
     Max number of different atomic species (ntypx) = 10
     Max number of k-points (npk) =  40000
     Max angular momentum in pseudopotentials (lmaxx) =  3
     Presently no symmetry can be used with electric field

     Message from routine cell_base_init:
     DEPRECATED: use true lattice parameter, not A to a.u. conversion factor

     IMPORTANT: XC functional enforced from input :
     Exchange-correlation= BEEF-VDW
                           (   1   4  43  14   2   0   0)
     Any further DFT definition will be discarded
     Please, verify this is what you really want

  @ DRIVER MODE: Connecting to
 qe_1139763_2852628.sched-torque.pace.gatech.edu04xnaerl_scratch
  using UNIX socket
  @ DRIVER MODE: Message from server: STATUS
  @ DRIVER MODE: Message from server: INIT
  @ DRIVER MODE: Receiving replica           0          -1
  @ DRIVER MODE: Receiving encoded integer          25
  @ DRIVER MODE:  SCF:  T  FORCE:  T  STRESS:  F  VC:  F  ENSEMBLE:  F
  @ DRIVER MODE:  SCF:  T  FORCE:  T  STRESS:  F  VC:  F  ENSEMBLE:  F

     Using Slab Decomposition

     bravais-lattice index     =            0
     lattice parameter (alat)  =       1.8897  a.u.
     unit-cell volume          =    6658.9804 (a.u.)^3
     number of atoms/cell      =           54
     number of atomic types    =            5
     number of electrons       =       397.00
     number of Kohn-Sham states=          208
     kinetic-energy cutoff     =      29.3995  Ry
     charge density cutoff     =     293.9946  Ry
     scf convergence threshold =      7.3E-08
     mixing beta               =       0.0500
     number of iterations used =            8  plain     mixing
     Exchange-correlation= BEEF-VDW
                           (   1   4  43  14   2   0   0)

     celldm(1)=   1.889726  celldm(2)=   0.000000  celldm(3)=   0.000000
     celldm(4)=   0.000000  celldm(5)=   0.000000  celldm(6)=   0.000000

     crystal axes: (cart. coord. in units of alat)
               a(1) = (   6.579727   0.000000   0.000000 )
               a(2) = (  -0.000775   5.961596   0.000000 )
               a(3) = (   0.000000   0.000000  25.155947 )

     reciprocal axes: (cart. coord. in units 2 pi/alat)
               b(1) = (  0.151982  0.000020  0.000000 )
               b(2) = (  0.000000  0.167740  0.000000 )
               b(3) = (  0.000000  0.000000  0.039752 )

     PseudoPot. # 1 for Ti read from file:
     /storage/coda1/p-amedford6/0/shared/rich_project_chbe-medford/medford-share/data/pseudos_module/espresso/nninc/pbe/van/Ti.UPF
     MD5 check sum: 8e4df49b7f0d34bbd5052bf3f5ea0213
     Pseudo is Ultrasoft, Zval = 12.0
     Generated by new atomic code, or converted to UPF format
     Using radial grid of  851 points,  6 beta functions with:
                l(1) =   0
                l(2) =   0
                l(3) =   1
                l(4) =   1
                l(5) =   2
                l(6) =   2
     Q(r) pseudized with  8 coefficients,  rinner =    1.000   1.000   1.000
                                                       1.000   1.000

     PseudoPot. # 2 for O  read from file:
     /storage/coda1/p-amedford6/0/shared/rich_project_chbe-medford/medford-share/data/pseudos_module/espresso/nninc/pbe/van/O.UPF
     MD5 check sum: 78c19812648e8988a0fe644b0f25305e
     Pseudo is Ultrasoft, Zval =  6.0
     Generated by new atomic code, or converted to UPF format
     Using radial grid of  737 points,  4 beta functions with:
                l(1) =   0
                l(2) =   0
                l(3) =   1
                l(4) =   1
     Q(r) pseudized with  8 coefficients,  rinner =    0.800   0.800   0.800

     PseudoPot. # 3 for N  read from file:
     /storage/coda1/p-amedford6/0/shared/rich_project_chbe-medford/medford-share/data/pseudos_module/espresso/nninc/pbe/van/N.UPF
     MD5 check sum: 90d10febe142ad51ac9d5be1deb811c4
     Pseudo is Ultrasoft, Zval =  5.0
     Generated by new atomic code, or converted to UPF format
     Using radial grid of  729 points,  4 beta functions with:
                l(1) =   0
                l(2) =   0
                l(3) =   1
                l(4) =   1
     Q(r) pseudized with  8 coefficients,  rinner =    0.800   0.800   0.800

     PseudoPot. # 4 for C  read from file:
     /storage/coda1/p-amedford6/0/shared/rich_project_chbe-medford/medford-share/data/pseudos_module/espresso/nninc/pbe/van/C.UPF
     MD5 check sum: 1a69bf6b8db32088f5b2163dbdb77a27
     Pseudo is Ultrasoft, Zval =  4.0
     Generated by new atomic code, or converted to UPF format
     Using radial grid of  721 points,  4 beta functions with:
                l(1) =   0
                l(2) =   0
                l(3) =   1
                l(4) =   1
     Q(r) pseudized with  8 coefficients,  rinner =    0.800   0.800   0.800

     PseudoPot. # 5 for H  read from file:
     /storage/coda1/p-amedford6/0/shared/rich_project_chbe-medford/medford-share/data/pseudos_module/espresso/nninc/pbe/van/H.UPF
     MD5 check sum: b5ee9d7bfd3a09ee7748110bda690ff7
     Pseudo is Ultrasoft, Zval =  1.0
     Generated by new atomic code, or converted to UPF format
     Using radial grid of  615 points,  1 beta functions with:
                l(1) =   0
     Q(r) pseudized with  8 coefficients,  rinner =    0.800

     atomic species   valence    mass     pseudopotential
        Ti1           12.00    47.86700     Ti( 1.00)
        O1             6.00    15.99900     O ( 1.00)
        N1             5.00    14.00700     N ( 1.00)
        C1             4.00    12.01100     C ( 1.00)
        H1             1.00     1.00800     H ( 1.00)

     No symmetry found

   Cartesian axes

     site n.     atom                  positions (alat units)
         1           Ti1 tau(   1) = (   0.0004258   2.9801865   6.0000000  )
         2           Ti1 tau(   2) = (   3.2906075   1.4906267   6.0002472  )
         3           O1  tau(   3) = (   0.0006271   0.0005054   7.9858123  )
         4           O1  tau(   4) = (   3.2906025   0.0005020   7.3038282  )
         5           O1  tau(   5) = (   4.5942328   1.4918067   9.2879030  )
         6           O1  tau(   6) = (   1.9868534   1.4903216   9.2879459  )
         7           Ti1 tau(   7) = (   3.2907910   2.8959150   9.1758416  )
         8           Ti1 tau(   8) = (   0.0015273   1.4827037   9.2680791  )
         9           O1  tau(   9) = (   3.2914171   5.9475995  11.3455371  )
        10           O1  tau(  10) = (   0.0116148   5.9584955  10.6183126  )
        11           O1  tau(  11) = (   1.3057669   1.4807986  12.6390077  )
        12           O1  tau(  12) = (   5.3035249   1.4749620  12.6227664  )
        13           Ti1 tau(  13) = (   6.5294082   2.9362577  12.6231083  )
        14           Ti1 tau(  14) = (   3.2175537   1.4615748  12.5070279  )
        15           O1  tau(  15) = (   6.5585639   5.9474800  14.6380151  )
        16           O1  tau(  16) = (   3.3125803   5.9531145  13.9695519  )
        17           O1  tau(  17) = (   4.5393379   1.5011389  16.1071157  )
        18           O1  tau(  18) = (   2.0094023   1.5044898  16.0307267  )
        19           Ti1 tau(  19) = (   3.2760958   2.9523363  15.6877793  )
        20           Ti1 tau(  20) = (   0.0277933   1.3451898  16.0452527  )
        21           O1  tau(  21) = (   3.2904802   0.0005063   4.7018136  )
        22           O1  tau(  22) = (   0.0198929   5.9263875  17.1601691  )
        23           O1  tau(  23) = (   1.3043587   1.4918075   6.0039043  )
        24           O1  tau(  24) = (   5.2767064   1.4903225   6.0039473  )
        25           Ti1 tau(  25) = (   0.0000382   5.9609847   6.0000000  )
        26           Ti1 tau(  26) = (   3.2902200   4.4714249   6.0002472  )
        27           O1  tau(  27) = (   0.0002396   2.9813036   7.9858123  )
        28           O1  tau(  28) = (   3.2902150   2.9813002   7.3038282  )
        29           O1  tau(  29) = (   4.5938453   4.4726049   9.2879030  )
        30           O1  tau(  30) = (   1.9864658   4.4711199   9.2879459  )
        31           Ti1 tau(  31) = (   3.2891106   5.8743827   9.1763621  )
        32           Ti1 tau(  32) = (   0.0006254   4.4649316   9.2693709  )
        33           O1  tau(  33) = (   3.2862706   2.9662616  11.3468726  )
        34           O1  tau(  34) = (   0.0092240   2.9805883  10.6323155  )
        35           O1  tau(  35) = (   1.3102706   4.4726941  12.6361575  )
        36           O1  tau(  36) = (   5.3014905   4.4644878  12.6181669  )
        37           Ti1 tau(  37) = (   6.5311680   5.9227251  12.5202533  )
        38           Ti1 tau(  38) = (   3.2191334   4.4553394  12.5017427  )
        39           O1  tau(  39) = (   6.5614274   2.9920157  14.6796082  )
        40           O1  tau(  40) = (   3.3146075   2.9603188  13.8993185  )
        41           O1  tau(  41) = (   4.5484517   4.4144432  16.0509510  )
        42           O1  tau(  42) = (   2.0146171   4.4214036  15.9967612  )
        43           Ti1 tau(  43) = (   3.3303817   5.9274347  15.8100502  )
        44           Ti1 tau(  44) = (   0.0273359   4.4939047  15.8144843  )
        45           O1  tau(  45) = (   3.2900926   2.9813045   4.7018136  )
        46           O1  tau(  46) = (   1.3039711   4.4726057   6.0039043  )
        47           O1  tau(  47) = (   5.2763189   4.4711207   6.0039473  )
        48           N1  tau(  48) = (   6.5134970   2.9613368  17.6459670  )
        49           C1  tau(  49) = (   0.7931072   3.0267964  18.6255283  )
        50           H1  tau(  50) = (   1.8307262   2.9311331  18.2395185  )
        51           H1  tau(  51) = (   5.5494773   3.0666896  17.9713127  )
        52           O1  tau(  52) = (   3.1855344   5.8058271  18.1612476  )
        53           H1  tau(  53) = (   3.8461454   0.3022996  18.7034462  )
        54           H1  tau(  54) = (   2.3120581   0.0053998  18.5633318  )

     number of k points=    10  Fermi-Dirac smearing, width (Ry)=  0.0073
                       cart. coord. in units 2pi/alat
        k(    1) = (   0.0000000   0.0000000   0.0000000), wk =   0.1250000
        k(    2) = (   0.0000000   0.0419351   0.0000000), wk =   0.2500000
        k(    3) = (   0.0000000  -0.0838702   0.0000000), wk =   0.1250000
        k(    4) = (   0.0379955   0.0000049   0.0000000), wk =   0.2500000
        k(    5) = (   0.0379955   0.0419400   0.0000000), wk =   0.2500000
        k(    6) = (   0.0379955  -0.0838652   0.0000000), wk =   0.2500000
        k(    7) = (   0.0379955  -0.0419301   0.0000000), wk =   0.2500000
        k(    8) = (  -0.0759910  -0.0000099   0.0000000), wk =   0.1250000
        k(    9) = (  -0.0759910   0.0419252   0.0000000), wk =   0.2500000
        k(   10) = (  -0.0759910  -0.0838800   0.0000000), wk =   0.1250000

     Initial potential from superposition of free atoms

     starting charge  380.99916, renormalised to  397.00000

     negative rho (up, down):  1.754E-02 0.000E+00

     %%%%%%%%%%%%%%%%%%%%%%%%%%%%%%%%%%%%%%%%%%%%%%%%%%%%%%%%%%%%%%%%%%%%%%%%
     %                                                                      %
     % You are using vdW-DF, which was implemented by the Thonhauser group. %
     % Please cite the following two papers that made this development      %
     % possible and the two reviews that describe the various versions:     %
     %                                                                      %
     %   T. Thonhauser et al., PRL 115, 136402 (2015).                      %
     %   T. Thonhauser et al., PRB 76, 125112 (2007).                       %
     %   K. Berland et al., Rep. Prog. Phys. 78, 066501 (2015).             %
     %   D.C. Langreth et al., J. Phys.: Condens. Matter 21, 084203 (2009). %
     %                                                                      %
     %                                                                      %
     % If you are calculating the stress with vdW-DF, please also cite:     %
     %                                                                      %
     %   R. Sabatini et al., J. Phys.: Condens. Matter 24, 424209 (2012).   %
     %                                                                      %
     %%%%%%%%%%%%%%%%%%%%%%%%%%%%%%%%%%%%%%%%%%%%%%%%%%%%%%%%%%%%%%%%%%%%%%%%

     Adding external electric field

     Computed dipole along edir(3) :
        Dipole               -9.1674 Ry au,        -23.3013 Debye
        Dipole field         -0.0173 Ry au,

        Potential amp.        1.6037 Ry
        Total length         46.3494 bohr

     Starting wfcs are  300 atomic wfcs
  @ DRIVER MODE: Message from server: STATUS
  @ DRIVER MODE: Message from server: POSDATA
  @ DRIVER MODE: Reading and sharing cell
  @ DRIVER MODE: Reading and sharing positions
  @ DRIVER MODE: Received positions

     Self-consistent Calculation

     iteration #  1     ecut=    29.40 Ry     beta= 0.05
     Davidson diagonalization with overlap
     c_bands:  1 eigenvalues not converged
     c_bands:  1 eigenvalues not converged
     c_bands:  1 eigenvalues not converged
     c_bands:  1 eigenvalues not converged
     c_bands:  1 eigenvalues not converged
     c_bands:  1 eigenvalues not converged
     c_bands:  1 eigenvalues not converged
     c_bands:  1 eigenvalues not converged
     c_bands:  1 eigenvalues not converged
     ethr =  1.00E-05,  avg # of iterations = 19.9

[...]

     total energy              =   -2547.27922399 Ry
     estimated scf accuracy    <    4504.92498984 Ry

     iteration #  2     ecut=    29.40 Ry     beta= 0.05
     Davidson diagonalization with overlap
     ethr =  1.00E-02,  avg # of iterations = 24.6

[...]

     iteration # 68     ecut=    29.40 Ry     beta= 0.05
     Davidson diagonalization with overlap
     c_bands:  1 eigenvalues not converged
     ethr =  3.18E-09,  avg # of iterations = 10.6

[...]

     total energy              =   -2952.61569531 Ry
     estimated scf accuracy    <       0.00000009 Ry

     iteration # 80     ecut=    29.40 Ry     beta= 0.05
     Davidson diagonalization with overlap
     ethr =  2.17E-11,  avg # of iterations =  7.7

     negative rho (up, down):  1.615E-02 0.000E+00

     Adding external electric field

     Computed dipole along edir(3) :
        Dipole                0.4088 Ry au,          1.0390 Debye
        Dipole field          0.0008 Ry au,

        Potential amp.       -0.0715 Ry
        Total length         46.3494 bohr

     End of self-consistent calculation

          k = 0.0000 0.0000 0.0000 ( 18029 PWs)   bands (ev):

   -56.0227 -55.9980 -55.9915 -55.9886 -55.9617 -55.8685 -55.8360 -55.8271
   -55.8234 -55.8102 -55.8017 -55.7767 -55.7466 -55.5770 -55.0082 -54.9742
   -32.5438 -32.5066 -32.3997 -32.3679 -32.3349 -32.3149 -32.3056 -32.3002
   -32.2661 -32.2355 -32.2235 -32.2171 -32.2072 -32.1947 -32.1770 -32.1751
   -32.1503 -32.1284 -32.1268 -32.1239 -32.0912 -32.0799 -32.0711 -32.0388
   -32.0280 -32.0264 -32.0225 -32.0185 -32.0156 -32.0101 -31.9953 -31.9844
   -31.9824 -31.9810 -31.9689 -31.9629 -31.9589 -31.9407 -31.9213 -31.8377
   -31.8208 -31.7340 -31.4156 -31.3264 -31.3040 -31.2323 -31.1457 -31.0348
   -19.2147 -16.7551 -16.5149 -16.3397 -16.1998 -16.1691 -15.9524 -15.8508
   -15.7799 -15.7255 -15.6563 -15.6043 -15.5707 -15.5615 -15.5448 -15.5210
   -15.5013 -15.4787 -15.4556 -15.4436 -15.4372 -15.3946 -15.3878 -15.3718
   -15.3531 -15.2463 -15.1831 -15.1587 -15.1135 -15.0904 -14.7363 -13.5102
   -13.3937  -7.8669  -7.0431  -4.1554  -4.0586  -3.9841  -3.9468  -3.9290
    -3.7778  -3.6935  -3.5440  -3.5179  -3.3066  -3.2739  -3.2191  -3.1940
    -3.1324  -3.0707  -2.9753  -2.9315  -2.8549  -2.8389  -2.8263  -2.8035
    -2.7830  -2.7668  -2.7264  -2.6627  -2.5925  -2.5585  -2.4452  -2.4196
    -2.4127  -2.3453  -2.3382  -2.3262  -2.3127  -2.2817  -2.2598  -2.2568
    -2.1854  -2.1530  -2.0827  -2.0309  -1.9697  -1.8515  -1.6998  -1.6383
    -1.5873  -1.5262  -1.5024  -1.4666  -1.4440  -1.4202  -1.3593  -1.3031
    -1.2383  -1.2265  -1.1558  -1.0636  -0.9919  -0.9543  -0.8839  -0.8221
    -0.8005  -0.7726  -0.7643  -0.7556  -0.7067  -0.5340  -0.4779  -0.4643
    -0.4244  -0.3418  -0.3108  -0.3016  -0.2524  -0.2441  -0.2043  -0.1156
    -0.0966  -0.0615  -0.0437  -0.0301   0.0028   0.0222   0.1775   0.1980
     0.2403   0.2619   0.3647   0.4711   0.5376   0.6249   0.7195   0.9382
     1.0143   1.0913   1.2053   1.5864   1.6325   2.7810   3.1056   3.1941
     3.2324   3.2384   3.2726   3.3431   3.5596   3.5906   3.6080   3.6637

[...]

          k = 0.0380-0.0419 0.0000 ( 17876 PWs)   bands (ev):

[...]

          k =-0.0760-0.0000 0.0000 ( 17886 PWs)   bands (ev):

[...]

          k =-0.0760-0.0839 0.0000 ( 17948 PWs)   bands (ev):

   -56.0064 -56.0048 -55.9901 -55.9818 -55.9773 -55.8593 -55.8365 -55.8250
   -55.8194 -55.8175 -55.7942 -55.7931 -55.7451 -55.5785 -54.9912 -54.9910
   -32.3576 -32.3418 -32.3223 -32.3213 -32.3009 -32.2996 -32.2788 -32.2709
   -32.2510 -32.2184 -32.2034 -32.1991 -32.1945 -32.1729 -32.1454 -32.1403
   -32.1355 -32.1335 -32.1319 -32.1301 -32.1295 -32.1264 -32.1258 -32.1242
   -32.0773 -32.0583 -32.0495 -32.0378 -32.0258 -32.0235 -32.0222 -32.0204
   -32.0197 -32.0091 -32.0073 -31.9970 -31.9907 -31.9762 -31.9704 -31.8416
   -31.8259 -31.8209 -31.3168 -31.3166 -31.2285 -31.2282 -31.1891 -31.1890
   -19.2138 -16.2139 -16.0945 -16.0399 -15.9469 -15.9213 -15.9068 -15.8329
   -15.7802 -15.7271 -15.7175 -15.6934 -15.6790 -15.6717 -15.6129 -15.5845
   -15.5604 -15.5494 -15.5058 -15.4932 -15.4852 -15.4715 -15.4694 -15.4633
   -15.4197 -15.3876 -15.3513 -15.3473 -15.2080 -15.0991 -15.0079 -13.4956
   -13.4952  -7.8762  -7.0446  -3.9261  -3.6469  -3.4920  -3.3152  -3.2651
    -3.1655  -3.1534  -3.1225  -3.1021  -2.9930  -2.9334  -2.9207  -2.8990
    -2.8582  -2.8484  -2.8417  -2.8367  -2.8022  -2.8006  -2.7640  -2.7448
    -2.7135  -2.7002  -2.6943  -2.6876  -2.6636  -2.6441  -2.6042  -2.5895
    -2.5734  -2.5430  -2.5064  -2.3725  -2.3033  -2.2257  -2.2182  -2.1783
    -2.1656  -2.1459  -2.1027  -2.0849  -2.0575  -1.9764  -1.9008  -1.7466
    -1.7284  -1.7049  -1.6730  -1.6133  -1.5208  -1.4954  -1.4678  -1.4218
    -1.4047  -1.3463  -1.3254  -1.2951  -1.2392  -1.1771  -1.1399  -1.1122
    -1.0672  -1.0023  -0.9818  -0.9606  -0.9472  -0.8858  -0.7780  -0.7712
    -0.7656  -0.7159  -0.7005  -0.6709  -0.6495  -0.5581  -0.4786  -0.4185
    -0.3218  -0.1576  -0.0772   0.0202   0.0572   0.1020   0.1466   0.1885
     0.2853   0.2873   0.3601   0.3903   0.4082   0.4896   0.5007   0.5238
     0.6843   1.3769   1.3781   1.4519   1.4525   2.8159   3.3631   3.4094
     3.4435   3.4902   3.5929   3.6131   3.6416   3.6434   3.7224   3.7698

     the Fermi energy is     3.1087 ev

!    total energy              =   -2952.61570380 Ry
     estimated scf accuracy    <       0.00000004 Ry
     smearing contrib. (-TS)   =      -0.02582461 Ry
     internal energy E=F+TS    =   -2952.58987919 Ry

     The total energy is F=E-TS. E is the sum of the following terms:
     one-electron contribution =  -24509.00470918 Ry
     hartree contribution      =   12341.71445456 Ry
     xc contribution           =    -487.95880306 Ry
     ewald contribution        =    9702.65886313 Ry
     electric field correction =       0.00031535 Ry

     convergence has been achieved in  80 iterations

     Forces acting on atoms (cartesian axes, Ry/au):

     atom    1 type  1   force =    -0.00003362   -0.00030060    0.09592303
     atom    2 type  1   force =     0.00005512   -0.00047949   -0.17611497
     atom    3 type  2   force =     0.00010312   -0.00009845   -0.02433459
     atom    4 type  2   force =     0.00000957   -0.00163151    0.05389527
     atom    5 type  2   force =    -0.01177465   -0.00141365    0.00392796
     atom    6 type  2   force =     0.01320177   -0.00102247    0.00316998
     atom    7 type  1   force =     0.00034665    0.00068488   -0.00764037
     atom    8 type  1   force =     0.00026765    0.01496265    0.02333575
     atom    9 type  2   force =    -0.00004925    0.00018948    0.00011344
     atom   10 type  2   force =    -0.00219073    0.00049974   -0.01743795
     atom   11 type  2   force =     0.00048083   -0.00026746   -0.00021739
     atom   12 type  2   force =    -0.00085792   -0.00017662    0.00000082
     atom   13 type  1   force =     0.00046946    0.00044590    0.00006751
     atom   14 type  1   force =    -0.00018975    0.00005309    0.00089010
     atom   15 type  2   force =    -0.00013767   -0.00003209   -0.00076238
     atom   16 type  2   force =     0.00001542    0.00051348   -0.00020476
     atom   17 type  2   force =    -0.00049636    0.00024406    0.00009293
     atom   18 type  2   force =     0.00026964    0.00021746   -0.00028797
     atom   19 type  1   force =     0.00063089    0.00056398   -0.00039722
     atom   20 type  1   force =    -0.00047649    0.00028375    0.00004151
     atom   21 type  2   force =     0.00006656   -0.00000419    0.10337092
     atom   22 type  2   force =    -0.00034309   -0.00018958    0.00056296
     atom   23 type  2   force =    -0.07137342   -0.00010648   -0.02763926
     atom   24 type  2   force =     0.07129445    0.00034174   -0.02770883
     atom   25 type  1   force =     0.00023833   -0.00029244    0.09574781
     atom   26 type  1   force =     0.00011475   -0.00030111   -0.17604446
     atom   27 type  2   force =     0.00013980   -0.00028999   -0.02323135
     atom   28 type  2   force =     0.00000277   -0.00132513    0.05364952
     atom   29 type  2   force =    -0.01211966    0.00039561    0.00377393
     atom   30 type  2   force =     0.01350589    0.00100969    0.00301838
     atom   31 type  1   force =     0.00024575    0.00375079   -0.01143645
     atom   32 type  1   force =     0.00044504   -0.01662321    0.02314923
     atom   33 type  2   force =     0.00017693    0.00009804   -0.00032894
     atom   34 type  2   force =    -0.00191193   -0.00010345   -0.02071508
     atom   35 type  2   force =     0.00047005    0.00005986    0.00007225
     atom   36 type  2   force =    -0.00090367   -0.00000658    0.00032918
     atom   37 type  1   force =     0.00081534    0.00004648   -0.00028013
     atom   38 type  1   force =     0.00000211    0.00012033    0.00039979
     atom   39 type  2   force =    -0.00026644    0.00043516   -0.00056656
     atom   40 type  2   force =    -0.00038762   -0.00007613   -0.00021906
     atom   41 type  2   force =    -0.00060268    0.00035961    0.00027300
     atom   42 type  2   force =     0.00006831    0.00018297    0.00008082
     atom   43 type  1   force =     0.00014235   -0.00006611    0.00037256
     atom   44 type  1   force =    -0.00000596   -0.00023885    0.00048830
     atom   45 type  2   force =     0.00006847   -0.00000159    0.10333328
     atom   46 type  2   force =    -0.07135937   -0.00004762   -0.02762076
     atom   47 type  2   force =     0.07128373    0.00038200   -0.02769326
     atom   48 type  3   force =     0.00126851    0.00102014    0.00038717
     atom   49 type  4   force =    -0.00020897   -0.00019504   -0.00050111
     atom   50 type  5   force =    -0.00003689   -0.00060735    0.00016725
     atom   51 type  5   force =     0.00018079   -0.00058944    0.00010999
     atom   52 type  2   force =    -0.00716471    0.00157341    0.00583443
     atom   53 type  5   force =     0.00018729   -0.00035229   -0.00054163
     atom   54 type  5   force =     0.00632350   -0.00159538   -0.00465458

     Total force =     0.368050     Total SCF correction =     0.000574
  @ DRIVER MODE: Message from server: STATUS
  @ DRIVER MODE: Message from server: GETFORCE
  @ DRIVER MODE: Returning v,forces,stress,ensemble

     Writing output data file ./calc.save/
  @ DRIVER MODE: Message from server: EXIT
  @ DRIVE MODE: Exiting

     General routines

     Parallel routines

   This run was terminated on:   5:56:54  16Sep2021

   JOB DONE.