     Program PWSCF v.6.7GPU starts on 18Oct2021 at 11:27:12

     R & G space division:  proc/nbgrp/npool/nimage =       8
     Reading input from /storage/home/hcoda1/3/ntian30/research/carbon/CxH_vib/Thiel_calc/ads_slab/H2O_perslab/out_0000/pw.inp
Warning: card &CELL ignored
Warning: card   CELL_DYNAMICS='IPI', ignored
Warning: card / ignored

     Current dimensions of program PWSCF are:
     Max number of different atomic species (ntypx) = 10
     Max number of k-points (npk) =  40000
     Max angular momentum in pseudopotentials (lmaxx) =  3
     Presently no symmetry can be used with electric field

     Message from routine cell_base_init:
     DEPRECATED: use true lattice parameter, not A to a.u. conversion factor

     IMPORTANT: XC functional enforced from input :
     Exchange-correlation= BEEF-VDW
                           (   1   4  43  14   2   0   0)
     Any further DFT definition will be discarded
     Please, verify this is what you really want

  @ DRIVER MODE: Connecting to
 qe_1139763_3255129.sched-torque.pace.gatech.edunqb98f19_scratch
  using UNIX socket
  @ DRIVER MODE: Message from server: STATUS
  @ DRIVER MODE: Message from server: INIT
  @ DRIVER MODE: Receiving replica           0          -1
  @ DRIVER MODE: Receiving encoded integer          25
  @ DRIVER MODE:  SCF:  T  FORCE:  T  STRESS:  F  VC:  F  ENSEMBLE:  F
  @ DRIVER MODE:  SCF:  T  FORCE:  T  STRESS:  F  VC:  F  ENSEMBLE:  F

     Using Slab Decomposition

     bravais-lattice index     =            0
     lattice parameter (alat)  =       1.8897  a.u.
     unit-cell volume          =    9988.4706 (a.u.)^3
     number of atoms/cell      =           56
     number of atomic types    =            3
     number of electrons       =       434.00
     number of Kohn-Sham states=          227
     kinetic-energy cutoff     =      29.3995  Ry
     charge density cutoff     =     293.9946  Ry
     scf convergence threshold =      7.3E-08
     mixing beta               =       0.0500
     number of iterations used =            8  plain     mixing
     Exchange-correlation= BEEF-VDW
                           (   1   4  43  14   2   0   0)

     celldm(1)=   1.889726  celldm(2)=   0.000000  celldm(3)=   0.000000
     celldm(4)=   0.000000  celldm(5)=   0.000000  celldm(6)=   0.000000

     crystal axes: (cart. coord. in units of alat)
               a(1) = (   6.579727   0.000000   0.000000 )
               a(2) = (  -0.001163   8.942395   0.000000 )
               a(3) = (   0.000000   0.000000  25.155947 )

     reciprocal axes: (cart. coord. in units 2 pi/alat)
               b(1) = (  0.151982  0.000020  0.000000 )
               b(2) = (  0.000000  0.111827  0.000000 )
               b(3) = (  0.000000  0.000000  0.039752 )

     PseudoPot. # 1 for O  read from file:
     /storage/coda1/p-amedford6/0/shared/rich_project_chbe-medford/medford-share/data/pseudos_module/espresso/nninc/pbe/van/O.UPF
     MD5 check sum: 78c19812648e8988a0fe644b0f25305e
     Pseudo is Ultrasoft, Zval =  6.0
     Generated by new atomic code, or converted to UPF format
     Using radial grid of  737 points,  4 beta functions with:
                l(1) =   0
                l(2) =   0
                l(3) =   1
                l(4) =   1
     Q(r) pseudized with  8 coefficients,  rinner =    0.800   0.800   0.800

     PseudoPot. # 2 for Ti read from file:
     /storage/coda1/p-amedford6/0/shared/rich_project_chbe-medford/medford-share/data/pseudos_module/espresso/nninc/pbe/van/Ti.UPF
     MD5 check sum: 8e4df49b7f0d34bbd5052bf3f5ea0213
     Pseudo is Ultrasoft, Zval = 12.0
     Generated by new atomic code, or converted to UPF format
     Using radial grid of  851 points,  6 beta functions with:
                l(1) =   0
                l(2) =   0
                l(3) =   1
                l(4) =   1
                l(5) =   2
                l(6) =   2
     Q(r) pseudized with  8 coefficients,  rinner =    1.000   1.000   1.000
                                                       1.000   1.000

     PseudoPot. # 3 for H  read from file:
     /storage/coda1/p-amedford6/0/shared/rich_project_chbe-medford/medford-share/data/pseudos_module/espresso/nninc/pbe/van/H.UPF
     MD5 check sum: b5ee9d7bfd3a09ee7748110bda690ff7
     Pseudo is Ultrasoft, Zval =  1.0
     Generated by new atomic code, or converted to UPF format
     Using radial grid of  615 points,  1 beta functions with:
                l(1) =   0
     Q(r) pseudized with  8 coefficients,  rinner =    0.800

     atomic species   valence    mass     pseudopotential
        O1             6.00    15.99900     O ( 1.00)
        Ti1           12.00    47.86700     Ti( 1.00)
        H1             1.00     1.00800     H ( 1.00)

     No symmetry found

   Cartesian axes

     site n.     atom                  positions (alat units)
         1           O1  tau(   1) = (   0.0007354   0.0005023  10.5931620  )
         2           O1  tau(   2) = (   3.2893612   8.9201916  13.9062151  )
         3           O1  tau(   3) = (   0.0002691   0.0790924  17.2227650  )
         4           O1  tau(   4) = (   0.0006271   0.0005054   7.9858123  )
         5           O1  tau(   5) = (   3.2896170   8.9270158  11.1935980  )
         6           O1  tau(   6) = (   0.0007608   0.0261718  14.5986889  )
         7           O1  tau(   7) = (   1.9868534   1.4903216   9.2879459  )
         8           O1  tau(   8) = (   5.2355617   1.6099344  12.5867606  )
         9           O1  tau(   9) = (   2.0124575   1.5675184  16.0571645  )
        10           Ti1 tau(  10) = (   0.0007404   1.4906270   9.2895810  )
        11           Ti1 tau(  11) = (   3.2907640   1.3491771  12.5100009  )
        12           Ti1 tau(  12) = (   0.0006031   1.2961793  15.7979744  )
        13           O1  tau(  13) = (   4.5942328   1.4918067   9.2879030  )
        14           O1  tau(  14) = (   1.3450460   1.6097215  12.5866593  )
        15           O1  tau(  15) = (   4.5676758   1.5673980  16.0573758  )
        16           Ti1 tau(  16) = (   3.2902859   2.9801868   9.2893338  )
        17           Ti1 tau(  17) = (   0.0004777   2.8281306  12.4679355  )
        18           Ti1 tau(  18) = (   3.2902893   2.9338596  15.7282337  )
        19           O1  tau(  19) = (   0.0003479   2.9813005  10.5931620  )
        20           O1  tau(  20) = (   3.2902216   2.9696935  13.9120052  )
        21           O1  tau(  21) = (   0.0002396   2.9813036   7.9858123  )
        22           O1  tau(  22) = (   3.2903426   2.9637443  11.1940942  )
        23           O1  tau(  23) = (   0.0000089   3.0257264  14.7503890  )
        24           O1  tau(  24) = (   1.9864658   4.4711199   9.2879459  )
        25           O1  tau(  25) = (   5.2380434   4.5829059  12.5871764  )
        26           O1  tau(  26) = (   2.0235919   4.4928291  16.0795284  )
        27           Ti1 tau(  27) = (   0.0003529   4.4714252   9.2895810  )
        28           Ti1 tau(  28) = (   3.2907575   4.3192581  12.5172651  )
        29           Ti1 tau(  29) = (   0.0001526   4.6228845  15.7176810  )
        30           O1  tau(  30) = (   4.5938453   4.4726049   9.2879030  )
        31           O1  tau(  31) = (   1.3423985   4.5827316  12.5869633  )
        32           O1  tau(  32) = (   4.5556179   4.4928061  16.0795667  )
        33           Ti1 tau(  33) = (   3.2898983   5.9609850   9.2893338  )
        34           Ti1 tau(  34) = (   0.0006865   5.8113799  12.4503846  )
        35           Ti1 tau(  35) = (   3.2896120   5.9162390  15.7228808  )
        36           O1  tau(  36) = (  -0.0000397   5.9620987  10.5931620  )
        37           O1  tau(  37) = (   3.2898440   5.9521707  13.9141460  )
        38           O1  tau(  38) = (  -0.0005676   5.9070897  17.2365434  )
        39           O1  tau(  39) = (  -0.0001480   5.9621018   7.9858123  )
        40           O1  tau(  40) = (   3.2901216   5.9393065  11.1928121  )
        41           O1  tau(  41) = (  -0.0000075   6.0145546  14.6353165  )
        42           O1  tau(  42) = (   1.9860782   7.4519181   9.2879459  )
        43           O1  tau(  43) = (   5.2378119   7.5541029  12.5659338  )
        44           O1  tau(  44) = (   2.0283766   7.4974489  16.0624789  )
        45           Ti1 tau(  45) = (  -0.0000347   7.4522234   9.2895810  )
        46           Ti1 tau(  46) = (   3.2905324   7.3023941  12.5037744  )
        47           Ti1 tau(  47) = (  -0.0004371   7.4148098  16.3042026  )
        48           O1  tau(  48) = (   4.5934577   7.4534031   9.2879030  )
        49           O1  tau(  49) = (   1.3417460   7.5537513  12.5656965  )
        50           O1  tau(  50) = (   4.5502908   7.4974792  16.0621795  )
        51           Ti1 tau(  51) = (   3.2895107   8.9417832   9.2893338  )
        52           Ti1 tau(  52) = (   0.0002358   8.7760030  12.4676047  )
        53           Ti1 tau(  53) = (   3.2893608   8.8775079  15.7094031  )
        54           O1  tau(  54) = (   0.0008562   2.9808021  17.9281668  )
        55           H1  tau(  55) = (   6.5781910   2.2037314  18.5062466  )
        56           H1  tau(  56) = (   6.5786456   3.7766572  18.4802172  )

     number of k points=    10  Fermi-Dirac smearing, width (Ry)=  0.0073
                       cart. coord. in units 2pi/alat
        k(    1) = (   0.0000000   0.0000000   0.0000000), wk =   0.1250000
        k(    2) = (   0.0000000   0.0279567   0.0000000), wk =   0.2500000
        k(    3) = (   0.0000000  -0.0559134   0.0000000), wk =   0.1250000
        k(    4) = (   0.0379955   0.0000049   0.0000000), wk =   0.2500000
        k(    5) = (   0.0379955   0.0279617   0.0000000), wk =   0.2500000
        k(    6) = (   0.0379955  -0.0559085   0.0000000), wk =   0.2500000
        k(    7) = (   0.0379955  -0.0279518   0.0000000), wk =   0.2500000
        k(    8) = (  -0.0759910  -0.0000099   0.0000000), wk =   0.1250000
        k(    9) = (  -0.0759910   0.0279468   0.0000000), wk =   0.2500000
        k(   10) = (  -0.0759910  -0.0559233   0.0000000), wk =   0.1250000

     Initial potential from superposition of free atoms

     starting charge  415.99913, renormalised to  434.00000

     negative rho (up, down):  3.976E-02 0.000E+00

     %%%%%%%%%%%%%%%%%%%%%%%%%%%%%%%%%%%%%%%%%%%%%%%%%%%%%%%%%%%%%%%%%%%%%%%%
     %                                                                      %
     % You are using vdW-DF, which was implemented by the Thonhauser group. %
     % Please cite the following two papers that made this development      %
     % possible and the two reviews that describe the various versions:     %
     %                                                                      %
     %   T. Thonhauser et al., PRL 115, 136402 (2015).                      %
     %   T. Thonhauser et al., PRB 76, 125112 (2007).                       %
     %   K. Berland et al., Rep. Prog. Phys. 78, 066501 (2015).             %
     %   D.C. Langreth et al., J. Phys.: Condens. Matter 21, 084203 (2009). %
     %                                                                      %
     %                                                                      %
     % If you are calculating the stress with vdW-DF, please also cite:     %
     %                                                                      %
     %   R. Sabatini et al., J. Phys.: Condens. Matter 24, 424209 (2012).   %
     %                                                                      %
     %%%%%%%%%%%%%%%%%%%%%%%%%%%%%%%%%%%%%%%%%%%%%%%%%%%%%%%%%%%%%%%%%%%%%%%%

     Adding external electric field

     Computed dipole along edir(3) :
        Dipole               -2.8181 Ry au,         -7.1630 Debye
        Dipole field         -0.0035 Ry au,

        Potential amp.        0.3287 Ry
        Total length         46.3494 bohr

     Starting wfcs are  326 atomic wfcs
  @ DRIVER MODE: Message from server: STATUS
  @ DRIVER MODE: Message from server: POSDATA
  @ DRIVER MODE: Reading and sharing cell
  @ DRIVER MODE: Reading and sharing positions
  @ DRIVER MODE: Received positions

     Self-consistent Calculation

     iteration #  1     ecut=    29.40 Ry     beta= 0.05
     Davidson diagonalization with overlap
     ethr =  1.00E-02,  avg # of iterations =  2.0

[...]

     total energy              =   -3284.08857553 Ry
     estimated scf accuracy    <      15.69358752 Ry

[...]

     iteration #  4     ecut=    29.40 Ry     beta= 0.05
     Davidson diagonalization with overlap
     c_bands:  4 eigenvalues not converged
     c_bands:  4 eigenvalues not converged
     c_bands:  3 eigenvalues not converged
     c_bands:  3 eigenvalues not converged
     c_bands:  5 eigenvalues not converged
     c_bands:  4 eigenvalues not converged
     c_bands:  1 eigenvalues not converged
     ethr =  1.11E-03,  avg # of iterations = 21.5

[...]

     iteration # 42     ecut=    29.40 Ry     beta= 0.05
     Davidson diagonalization with overlap
     c_bands:  1 eigenvalues not converged
     ethr =  3.65E-09,  avg # of iterations = 17.0

[...]

     total energy              =   -3283.10411315 Ry
     estimated scf accuracy    <       0.00000020 Ry

     iteration # 64     ecut=    29.40 Ry     beta= 0.05
     Davidson diagonalization with overlap
     ethr =  2.18E-11,  avg # of iterations =  7.1

     negative rho (up, down):  3.723E-02 0.000E+00

     Adding external electric field

     Computed dipole along edir(3) :
        Dipole                1.2782 Ry au,          3.2489 Debye
        Dipole field          0.0016 Ry au,

        Potential amp.       -0.1491 Ry
        Total length         46.3494 bohr

     End of self-consistent calculation

          k = 0.0000 0.0000 0.0000 ( 26871 PWs)   bands (ev):

   -58.0031 -57.9911 -57.9777 -57.9771 -57.9679 -57.8973 -57.8252 -57.8019
   -57.7971 -57.7890 -57.7665 -57.7424 -57.6147 -57.5752 -57.5058 -57.0238
   -57.0005 -56.9936 -34.3892 -34.3841 -34.3837 -34.3623 -34.3557 -34.3347
   -34.3166 -34.3144 -34.3135 -34.2813 -34.2539 -34.2393 -34.2128 -34.1988
   -34.1955 -34.1864 -34.1705 -34.1521 -34.1274 -34.1208 -34.1127 -34.0999
   -34.0991 -34.0957 -34.0945 -34.0702 -34.0528 -34.0355 -34.0294 -34.0176
   -34.0106 -33.9983 -33.9980 -33.9852 -33.9789 -33.9781 -33.9668 -33.9417
   -33.9380 -33.8733 -33.8159 -33.7857 -33.7744 -33.7691 -33.6467 -33.3395
   -33.3385 -33.3321 -33.3232 -33.3170 -33.2497 -33.1884 -33.1808 -33.0490
   -21.2504 -18.8502 -18.4156 -18.2703 -18.2456 -18.2175 -18.2050 -18.0918
   -18.0886 -17.8260 -17.8064 -17.7922 -17.7839 -17.7128 -17.6854 -17.6831
   -17.6716 -17.6445 -17.6375 -17.6098 -17.6008 -17.5191 -17.5116 -17.4686
   -17.4660 -17.4330 -17.4308 -17.3840 -17.2947 -17.2940 -17.1259 -16.9757
   -16.9083 -15.4897 -15.4331 -15.4289  -9.2631  -6.1818  -6.0156  -5.9186
    -5.8299  -5.7150  -5.4530  -5.4400  -5.3642  -5.3542  -5.3304  -5.2695
    -5.2544  -5.2494  -5.2151  -5.2019  -5.1203  -5.1151  -5.0361  -4.9436
    -4.9391  -4.9359  -4.9097  -4.8661  -4.8303  -4.8117  -4.7887  -4.7656
    -4.7363  -4.6976  -4.6637  -4.6301  -4.6218  -4.4928  -4.3474  -4.3203
    -4.2992  -4.2975  -4.2751  -4.2333  -4.2050  -4.1348  -4.0802  -4.0673
    -4.0446  -3.9965  -3.9417  -3.9193  -3.7813  -3.7502  -3.7209  -3.6970
    -3.5922  -3.5608  -3.5142  -3.3983  -3.3359  -3.3281  -3.2951  -3.2772
    -3.2042  -3.1849  -3.1364  -3.0868  -3.0771  -2.9761  -2.9748  -2.9247
    -2.8759  -2.8017  -2.7684  -2.7625  -2.7509  -2.6945  -2.6861  -2.6589
    -2.6304  -2.6010  -2.5424  -2.5332  -2.4617  -2.4243  -2.4169  -2.3716
    -2.3709  -2.3150  -2.2416  -2.2051  -2.1843  -2.1820  -2.0811  -2.0257
    -1.8593  -1.8547  -1.8424  -1.8301  -1.7494  -1.7035  -1.6366  -1.4633
    -1.2398  -1.0627  -0.7727  -0.7278  -0.7262  -0.4641  -0.4587  -0.3302
     0.9760   1.2249   1.2717   1.4417   1.4433   1.5401   1.5758   1.5911
     1.6743   1.7031   1.7410

[...]

          k = 0.0380-0.0280 0.0000 ( 26873 PWs)   bands (ev):

[...]

          k =-0.0760-0.0000 0.0000 ( 26902 PWs)   bands (ev):

[...]

          k =-0.0760-0.0559 0.0000 ( 26868 PWs)   bands (ev):

   -57.9948 -57.9942 -57.9898 -57.9695 -57.9689 -57.8969 -57.8182 -57.8145
   -57.7909 -57.7868 -57.7709 -57.7407 -57.6143 -57.5759 -57.5055 -57.0179
   -57.0119 -56.9881 -34.4775 -34.4414 -34.3778 -34.3666 -34.3434 -34.3321
   -34.3274 -34.3258 -34.2843 -34.2473 -34.1973 -34.1931 -34.1924 -34.1708
   -34.1647 -34.1504 -34.1441 -34.1436 -34.1369 -34.1314 -34.1308 -34.0844
   -34.0828 -34.0804 -34.0760 -34.0676 -34.0637 -34.0505 -34.0435 -34.0352
   -34.0272 -34.0173 -34.0126 -34.0120 -34.0016 -33.9940 -33.9668 -33.9642
   -33.9402 -33.8235 -33.8212 -33.7917 -33.7741 -33.7675 -33.6827 -33.4275
   -33.3394 -33.3339 -33.3113 -33.2318 -33.2245 -33.1630 -33.1493 -33.1424
   -21.2501 -18.5295 -18.5069 -18.2001 -18.1422 -18.0979 -18.0877 -18.0759
   -18.0247 -17.9221 -17.8664 -17.8644 -17.8135 -17.7845 -17.7797 -17.7274
   -17.7257 -17.7144 -17.7022 -17.6719 -17.6442 -17.6426 -17.5673 -17.4674
   -17.4293 -17.4022 -17.3844 -17.3714 -17.3317 -17.2385 -17.1597 -17.1115
   -16.7922 -15.4891 -15.4842 -15.3688  -9.2665  -5.8325  -5.7861  -5.7681
    -5.7674  -5.6946  -5.3934  -5.2851  -5.2848  -5.2728  -5.1756  -5.1648
    -5.1617  -5.1462  -5.1421  -5.1189  -5.1087  -5.0778  -5.0621  -5.0256
    -5.0104  -4.9451  -4.9254  -4.9171  -4.9036  -4.8796  -4.7463  -4.7429
    -4.6406  -4.6153  -4.5273  -4.5184  -4.5005  -4.4817  -4.4323  -4.3847
    -4.3552  -4.3408  -4.1660  -4.1524  -4.1410  -4.0765  -4.0342  -3.9779
    -3.9737  -3.8792  -3.6770  -3.6534  -3.6514  -3.6450  -3.6296  -3.6280
    -3.5918  -3.5490  -3.5026  -3.4822  -3.4458  -3.4407  -3.4379  -3.3893
    -3.3449  -3.2461  -3.1902  -3.1886  -3.1668  -3.1141  -3.1091  -3.0935
    -3.0739  -3.0536  -3.0258  -2.9427  -2.9109  -2.8894  -2.8472  -2.8371
    -2.7826  -2.7709  -2.7053  -2.5675  -2.5418  -2.5328  -2.5289  -2.4933
    -2.4015  -2.2556  -2.2395  -2.2379  -2.0895  -2.0847  -2.0142  -2.0071
    -1.9761  -1.9590  -1.7873  -1.7771  -1.6930  -1.6457  -1.5950  -1.5770
    -1.5676  -1.3489  -0.9391  -0.6604  -0.6424  -0.6185  -0.4632  -0.4604
     1.1450   1.2151   1.2243   1.3201   1.3257   1.3309   1.3853   1.4540
     1.4992   1.5429   1.7020

     the Fermi energy is     1.0797 ev

!    total energy              =   -3283.10413845 Ry
     estimated scf accuracy    <       0.00000003 Ry
     smearing contrib. (-TS)   =      -0.03226209 Ry
     internal energy E=F+TS    =   -3283.07187636 Ry

     The total energy is F=E-TS. E is the sum of the following terms:
     one-electron contribution =  -34306.61205541 Ry
     hartree contribution      =   17213.51903604 Ry
     xc contribution           =    -537.35184136 Ry
     ewald contribution        =   14347.37092886 Ry
     electric field correction =       0.00205550 Ry

     convergence has been achieved in  64 iterations

     Forces acting on atoms (cartesian axes, Ry/au):

     atom    1 type  1   force =     0.00002640    0.00631247    0.05656049
     atom    2 type  1   force =    -0.00000175    0.00182538   -0.00346698
     atom    3 type  1   force =     0.00000408   -0.00383693   -0.00159526
     atom    4 type  1   force =     0.00005468   -0.00038350    0.10675977
     atom    5 type  1   force =    -0.00001288   -0.00065834    0.00907845
     atom    6 type  1   force =    -0.00001968   -0.00081883    0.00311977
     atom    7 type  1   force =     0.06773264   -0.00026515   -0.02936277
     atom    8 type  1   force =     0.00478357   -0.02830733    0.00276177
     atom    9 type  1   force =     0.01034249   -0.02001551    0.00023790
     atom   10 type  2   force =    -0.00006634   -0.00357956   -0.18209857
     atom   11 type  2   force =    -0.00008620    0.02094116   -0.00710346
     atom   12 type  2   force =     0.00000400    0.01989874   -0.00375353
     atom   13 type  1   force =    -0.06782531   -0.00071244   -0.02935036
     atom   14 type  1   force =    -0.00477677   -0.02828892    0.00276413
     atom   15 type  1   force =    -0.01029962   -0.02001962    0.00025510
     atom   16 type  2   force =     0.00012641   -0.00159775    0.06618871
     atom   17 type  2   force =     0.00007163    0.03606606    0.00426018
     atom   18 type  2   force =    -0.00004490    0.01081794   -0.00275094
     atom   19 type  1   force =     0.00000338    0.00419761    0.06378071
     atom   20 type  1   force =     0.00000227    0.00140310   -0.00552209
     atom   21 type  1   force =     0.00005397    0.00123663    0.10737479
     atom   22 type  1   force =    -0.00000359   -0.00034455    0.00888401
     atom   23 type  1   force =    -0.00000933   -0.00544656    0.00285248
     atom   24 type  1   force =     0.06711670   -0.00042893   -0.02924324
     atom   25 type  1   force =     0.00491521   -0.02900429    0.00284717
     atom   26 type  1   force =     0.00928871    0.00318550   -0.00394454
     atom   27 type  2   force =    -0.00007827   -0.00328065   -0.18660021
     atom   28 type  2   force =    -0.00006059    0.02033547   -0.00732160
     atom   29 type  2   force =    -0.00001114   -0.00160455    0.01308291
     atom   30 type  1   force =    -0.06720619   -0.00089011   -0.02923268
     atom   31 type  1   force =    -0.00492422   -0.02898230    0.00285114
     atom   32 type  1   force =    -0.00923867    0.00318306   -0.00391461
     atom   33 type  2   force =     0.00012674   -0.00176041    0.06631751
     atom   34 type  2   force =     0.00008568    0.03629337    0.00440938
     atom   35 type  2   force =    -0.00002926   -0.00237723    0.00332630
     atom   36 type  1   force =     0.00002172    0.00318670    0.05470270
     atom   37 type  1   force =    -0.00000124    0.00043216   -0.00158151
     atom   38 type  1   force =     0.00000152   -0.00172764   -0.00083520
     atom   39 type  1   force =     0.00005362   -0.00027681    0.10747345
     atom   40 type  1   force =    -0.00001019   -0.00008200    0.00863166
     atom   41 type  1   force =    -0.00001732    0.00331697    0.00091013
     atom   42 type  1   force =     0.06734328   -0.00085430   -0.02897642
     atom   43 type  1   force =     0.00317545   -0.02860481    0.00232412
     atom   44 type  1   force =     0.01105764   -0.01051950    0.00422791
     atom   45 type  2   force =    -0.00009447    0.00336840   -0.18452767
     atom   46 type  2   force =    -0.00008098    0.02071598   -0.00746440
     atom   47 type  2   force =     0.00000134    0.00955174   -0.01313347
     atom   48 type  1   force =    -0.06743414   -0.00130076   -0.02897077
     atom   49 type  1   force =    -0.00317696   -0.02857652    0.00232933
     atom   50 type  1   force =    -0.01102633   -0.01054095    0.00425063
     atom   51 type  2   force =     0.00012550   -0.00089593    0.06685304
     atom   52 type  2   force =     0.00007362    0.03408441    0.00443795
     atom   53 type  2   force =    -0.00003168    0.02443203    0.00627430
     atom   54 type  1   force =     0.00002729    0.00040093   -0.00014618
     atom   55 type  3   force =    -0.00002717   -0.00049587    0.00051161
     atom   56 type  3   force =    -0.00002432    0.00129274    0.00025695

     Total force =     0.454556     Total SCF correction =     0.000515
  @ DRIVER MODE: Message from server: STATUS
  @ DRIVER MODE: Message from server: GETFORCE
  @ DRIVER MODE: Returning v,forces,stress,ensemble

     Writing output data file ./calc.save/
  @ DRIVER MODE: Message from server: EXIT
  @ DRIVE MODE: Exiting

     General routines

     Parallel routines

   This run was terminated on:  11:59: 2  18Oct2021

   JOB DONE.