     Program PWSCF v.6.7GPU starts on  8Sep2021 at 23:30:57

     R & G space division:  proc/nbgrp/npool/nimage =      10
     Reading input from /storage/home/hcoda1/3/ntian30/research/carbon/CxH_vib/CH_calc/ads_slab/CHNH_a/out_0006/pw.inp
Warning: card &CELL ignored
Warning: card   CELL_DYNAMICS='IPI', ignored
Warning: card / ignored

     Current dimensions of program PWSCF are:
     Max number of different atomic species (ntypx) = 10
     Max number of k-points (npk) =  40000
     Max angular momentum in pseudopotentials (lmaxx) =  3
     Presently no symmetry can be used with electric field

     Message from routine cell_base_init:
     DEPRECATED: use true lattice parameter, not A to a.u. conversion factor

     IMPORTANT: XC functional enforced from input :
     Exchange-correlation= BEEF-VDW
                           (   1   4  43  14   2   0   0)
     Any further DFT definition will be discarded
     Please, verify this is what you really want

  @ DRIVER MODE: Connecting to
 qe_1139763_2767380.sched-torque.pace.gatech.eduzojms55l_scratch
  using UNIX socket
  @ DRIVER MODE: Message from server: STATUS
  @ DRIVER MODE: Message from server: INIT
  @ DRIVER MODE: Receiving replica           0          -1
  @ DRIVER MODE: Receiving encoded integer          25
  @ DRIVER MODE:  SCF:  T  FORCE:  T  STRESS:  F  VC:  F  ENSEMBLE:  F
  @ DRIVER MODE:  SCF:  T  FORCE:  T  STRESS:  F  VC:  F  ENSEMBLE:  F

     Using Slab Decomposition

     bravais-lattice index     =            0
     lattice parameter (alat)  =       1.8897  a.u.
     unit-cell volume          =    6658.9804 (a.u.)^3
     number of atoms/cell      =           51
     number of atomic types    =            5
     number of electrons       =       389.00
     number of Kohn-Sham states=          204
     kinetic-energy cutoff     =      29.3995  Ry
     charge density cutoff     =     293.9946  Ry
     scf convergence threshold =      7.3E-08
     mixing beta               =       0.0500
     number of iterations used =            8  plain     mixing
     Exchange-correlation= BEEF-VDW
                           (   1   4  43  14   2   0   0)

     celldm(1)=   1.889726  celldm(2)=   0.000000  celldm(3)=   0.000000
     celldm(4)=   0.000000  celldm(5)=   0.000000  celldm(6)=   0.000000

     crystal axes: (cart. coord. in units of alat)
               a(1) = (   6.579727   0.000000   0.000000 )
               a(2) = (  -0.000775   5.961596   0.000000 )
               a(3) = (   0.000000   0.000000  25.155947 )

     reciprocal axes: (cart. coord. in units 2 pi/alat)
               b(1) = (  0.151982  0.000020  0.000000 )
               b(2) = (  0.000000  0.167740  0.000000 )
               b(3) = (  0.000000  0.000000  0.039752 )

     PseudoPot. # 1 for Ti read from file:
     /storage/coda1/p-amedford6/0/shared/rich_project_chbe-medford/medford-share/data/pseudos_module/espresso/nninc/pbe/van/Ti.UPF
     MD5 check sum: 8e4df49b7f0d34bbd5052bf3f5ea0213
     Pseudo is Ultrasoft, Zval = 12.0
     Generated by new atomic code, or converted to UPF format
     Using radial grid of  851 points,  6 beta functions with:
                l(1) =   0
                l(2) =   0
                l(3) =   1
                l(4) =   1
                l(5) =   2
                l(6) =   2
     Q(r) pseudized with  8 coefficients,  rinner =    1.000   1.000   1.000
                                                       1.000   1.000

     PseudoPot. # 2 for O  read from file:
     /storage/coda1/p-amedford6/0/shared/rich_project_chbe-medford/medford-share/data/pseudos_module/espresso/nninc/pbe/van/O.UPF
     MD5 check sum: 78c19812648e8988a0fe644b0f25305e
     Pseudo is Ultrasoft, Zval =  6.0
     Generated by new atomic code, or converted to UPF format
     Using radial grid of  737 points,  4 beta functions with:
                l(1) =   0
                l(2) =   0
                l(3) =   1
                l(4) =   1
     Q(r) pseudized with  8 coefficients,  rinner =    0.800   0.800   0.800

     PseudoPot. # 3 for N  read from file:
     /storage/coda1/p-amedford6/0/shared/rich_project_chbe-medford/medford-share/data/pseudos_module/espresso/nninc/pbe/van/N.UPF
     MD5 check sum: 90d10febe142ad51ac9d5be1deb811c4
     Pseudo is Ultrasoft, Zval =  5.0
     Generated by new atomic code, or converted to UPF format
     Using radial grid of  729 points,  4 beta functions with:
                l(1) =   0
                l(2) =   0
                l(3) =   1
                l(4) =   1
     Q(r) pseudized with  8 coefficients,  rinner =    0.800   0.800   0.800

     PseudoPot. # 4 for C  read from file:
     /storage/coda1/p-amedford6/0/shared/rich_project_chbe-medford/medford-share/data/pseudos_module/espresso/nninc/pbe/van/C.UPF
     MD5 check sum: 1a69bf6b8db32088f5b2163dbdb77a27
     Pseudo is Ultrasoft, Zval =  4.0
     Generated by new atomic code, or converted to UPF format
     Using radial grid of  721 points,  4 beta functions with:
                l(1) =   0
                l(2) =   0
                l(3) =   1
                l(4) =   1
     Q(r) pseudized with  8 coefficients,  rinner =    0.800   0.800   0.800

     PseudoPot. # 5 for H  read from file:
     /storage/coda1/p-amedford6/0/shared/rich_project_chbe-medford/medford-share/data/pseudos_module/espresso/nninc/pbe/van/H.UPF
     MD5 check sum: b5ee9d7bfd3a09ee7748110bda690ff7
     Pseudo is Ultrasoft, Zval =  1.0
     Generated by new atomic code, or converted to UPF format
     Using radial grid of  615 points,  1 beta functions with:
                l(1) =   0
     Q(r) pseudized with  8 coefficients,  rinner =    0.800

     atomic species   valence    mass     pseudopotential
        Ti1           12.00    47.86700     Ti( 1.00)
        O1             6.00    15.99900     O ( 1.00)
        N1             5.00    14.00700     N ( 1.00)
        C1             4.00    12.01100     C ( 1.00)
        H1             1.00     1.00800     H ( 1.00)

     No symmetry found

   Cartesian axes

     site n.     atom                  positions (alat units)
         1           Ti1 tau(   1) = (   0.0004258   2.9801865   6.0000000  )
         2           Ti1 tau(   2) = (   3.2906075   1.4906267   6.0002472  )
         3           O1  tau(   3) = (   0.0006271   0.0005054   7.9858123  )
         4           O1  tau(   4) = (   3.2906025   0.0005020   7.3038282  )
         5           O1  tau(   5) = (   4.5942328   1.4918067   9.2879030  )
         6           O1  tau(   6) = (   1.9868534   1.4903216   9.2879459  )
         7           Ti1 tau(   7) = (   3.2907910   2.8959150   9.1758416  )
         8           Ti1 tau(   8) = (   0.0015273   1.4827037   9.2680791  )
         9           O1  tau(   9) = (   3.3107583   5.9394213  11.3440837  )
        10           O1  tau(  10) = (   0.0116148   5.9584955  10.6183126  )
        11           O1  tau(  11) = (   1.3209705   1.4681434  12.6387851  )
        12           O1  tau(  12) = (   5.3117763   1.4689694  12.6372993  )
        13           Ti1 tau(  13) = (   6.5586693   2.9297660  12.6634068  )
        14           Ti1 tau(  14) = (   3.2703198   1.4638114  12.4955107  )
        15           O1  tau(  15) = (   0.0083729   5.9498784  14.6531507  )
        16           O1  tau(  16) = (   3.3267446   5.9373244  13.9471573  )
        17           O1  tau(  17) = (   4.5400383   1.4607670  16.1300196  )
        18           O1  tau(  18) = (   2.0562451   1.4605895  16.0859588  )
        19           Ti1 tau(  19) = (   3.3219294   2.9366742  15.7081325  )
        20           Ti1 tau(  20) = (   0.0794022   1.3719971  16.1804440  )
        21           O1  tau(  21) = (   3.2904802   0.0005063   4.7018136  )
        22           O1  tau(  22) = (   0.0048811   5.8540159  17.1722642  )
        23           O1  tau(  23) = (   1.3043587   1.4918075   6.0039043  )
        24           O1  tau(  24) = (   5.2767064   1.4903225   6.0039473  )
        25           Ti1 tau(  25) = (   0.0000382   5.9609847   6.0000000  )
        26           Ti1 tau(  26) = (   3.2902200   4.4714249   6.0002472  )
        27           O1  tau(  27) = (   0.0002396   2.9813036   7.9858123  )
        28           O1  tau(  28) = (   3.2902150   2.9813002   7.3038282  )
        29           O1  tau(  29) = (   4.5938453   4.4726049   9.2879030  )
        30           O1  tau(  30) = (   1.9864658   4.4711199   9.2879459  )
        31           Ti1 tau(  31) = (   3.2891106   5.8743827   9.1763621  )
        32           Ti1 tau(  32) = (   0.0006254   4.4649316   9.2693709  )
        33           O1  tau(  33) = (   3.3036409   2.9595551  11.3414423  )
        34           O1  tau(  34) = (   0.0092240   2.9805883  10.6323155  )
        35           O1  tau(  35) = (   1.3251634   4.4629088  12.6456700  )
        36           O1  tau(  36) = (   5.3099897   4.4533368  12.6426351  )
        37           Ti1 tau(  37) = (   0.0071655   5.9203210  12.5194715  )
        38           Ti1 tau(  38) = (   3.2774562   4.4456010  12.4944480  )
        39           O1  tau(  39) = (   0.0172281   2.9510719  14.7337574  )
        40           O1  tau(  40) = (   3.3230371   2.9488945  13.9167408  )
        41           O1  tau(  41) = (   4.5572773   4.4147185  16.0816828  )
        42           O1  tau(  42) = (   2.0601761   4.4202290  16.0727324  )
        43           Ti1 tau(  43) = (   3.3574729   5.9210026  15.7440268  )
        44           Ti1 tau(  44) = (   0.0706454   4.5402764  15.7844247  )
        45           O1  tau(  45) = (   3.2900926   2.9813045   4.7018136  )
        46           O1  tau(  46) = (   1.3039711   4.4726057   6.0039043  )
        47           O1  tau(  47) = (   5.2763189   4.4711207   6.0039473  )
        48           N1  tau(  48) = (   6.3928749   2.8496863  17.7511295  )
        49           C1  tau(  49) = (   0.6235525   2.6789418  18.7295412  )
        50           H1  tau(  50) = (   1.5351458   2.1120716  18.4733693  )
        51           H1  tau(  51) = (   5.5197072   3.3230476  17.9821812  )

     number of k points=    10  Fermi-Dirac smearing, width (Ry)=  0.0073
                       cart. coord. in units 2pi/alat
        k(    1) = (   0.0000000   0.0000000   0.0000000), wk =   0.1250000
        k(    2) = (   0.0000000   0.0419351   0.0000000), wk =   0.2500000
        k(    3) = (   0.0000000  -0.0838702   0.0000000), wk =   0.1250000
        k(    4) = (   0.0379955   0.0000049   0.0000000), wk =   0.2500000
        k(    5) = (   0.0379955   0.0419400   0.0000000), wk =   0.2500000
        k(    6) = (   0.0379955  -0.0838652   0.0000000), wk =   0.2500000
        k(    7) = (   0.0379955  -0.0419301   0.0000000), wk =   0.2500000
        k(    8) = (  -0.0759910  -0.0000099   0.0000000), wk =   0.1250000
        k(    9) = (  -0.0759910   0.0419252   0.0000000), wk =   0.2500000
        k(   10) = (  -0.0759910  -0.0838800   0.0000000), wk =   0.1250000

     Initial potential from superposition of free atoms

     starting charge  372.99918, renormalised to  389.00000

     negative rho (up, down):  1.910E-02 0.000E+00

     %%%%%%%%%%%%%%%%%%%%%%%%%%%%%%%%%%%%%%%%%%%%%%%%%%%%%%%%%%%%%%%%%%%%%%%%
     %                                                                      %
     % You are using vdW-DF, which was implemented by the Thonhauser group. %
     % Please cite the following two papers that made this development      %
     % possible and the two reviews that describe the various versions:     %
     %                                                                      %
     %   T. Thonhauser et al., PRL 115, 136402 (2015).                      %
     %   T. Thonhauser et al., PRB 76, 125112 (2007).                       %
     %   K. Berland et al., Rep. Prog. Phys. 78, 066501 (2015).             %
     %   D.C. Langreth et al., J. Phys.: Condens. Matter 21, 084203 (2009). %
     %                                                                      %
     %                                                                      %
     % If you are calculating the stress with vdW-DF, please also cite:     %
     %                                                                      %
     %   R. Sabatini et al., J. Phys.: Condens. Matter 24, 424209 (2012).   %
     %                                                                      %
     %%%%%%%%%%%%%%%%%%%%%%%%%%%%%%%%%%%%%%%%%%%%%%%%%%%%%%%%%%%%%%%%%%%%%%%%

     Adding external electric field

     Computed dipole along edir(3) :
        Dipole               -4.7421 Ry au,        -12.0533 Debye
        Dipole field         -0.0089 Ry au,

        Potential amp.        0.8296 Ry
        Total length         46.3494 bohr

     Starting wfcs are  294 atomic wfcs
  @ DRIVER MODE: Message from server: STATUS
  @ DRIVER MODE: Message from server: POSDATA
  @ DRIVER MODE: Reading and sharing cell
  @ DRIVER MODE: Reading and sharing positions
  @ DRIVER MODE: Received positions

     Self-consistent Calculation

     iteration #  1     ecut=    29.40 Ry     beta= 0.05
     Davidson diagonalization with overlap
     c_bands:  4 eigenvalues not converged
     c_bands:  2 eigenvalues not converged
     c_bands:  1 eigenvalues not converged
     c_bands:  4 eigenvalues not converged
     c_bands:  2 eigenvalues not converged
     c_bands:  2 eigenvalues not converged
     c_bands:  2 eigenvalues not converged
     c_bands:  3 eigenvalues not converged
     c_bands:  1 eigenvalues not converged
     c_bands:  2 eigenvalues not converged
     ethr =  1.00E-05,  avg # of iterations = 20.0

[...]

     total energy              =   -2847.48146541 Ry
     estimated scf accuracy    <     788.28347142 Ry

     iteration #  2     ecut=    29.40 Ry     beta= 0.05
     Davidson diagonalization with overlap
     ethr =  1.00E-02,  avg # of iterations = 15.2

[...]

     iteration # 36     ecut=    29.40 Ry     beta= 0.05
     Davidson diagonalization with overlap
     c_bands:  1 eigenvalues not converged
     ethr =  6.03E-08,  avg # of iterations = 13.4

[...]

     total energy              =   -2917.76262333 Ry
     estimated scf accuracy    <       0.00000008 Ry

     iteration # 53     ecut=    29.40 Ry     beta= 0.05
     Davidson diagonalization with overlap
     ethr =  2.03E-11,  avg # of iterations = 12.7

     negative rho (up, down):  1.796E-02 0.000E+00

     Adding external electric field

     Computed dipole along edir(3) :
        Dipole                0.1275 Ry au,          0.3240 Debye
        Dipole field          0.0002 Ry au,

        Potential amp.       -0.0223 Ry
        Total length         46.3494 bohr

     End of self-consistent calculation

          k = 0.0000 0.0000 0.0000 ( 18029 PWs)   bands (ev):

   -56.3174 -56.3116 -56.2811 -56.2775 -56.2139 -56.1786 -56.1537 -56.1375
   -56.1195 -56.1004 -56.0852 -56.0670 -55.9218 -55.7620 -55.2970 -55.2630
   -32.8795 -32.7950 -32.6645 -32.6619 -32.6328 -32.6199 -32.6039 -32.5907
   -32.5541 -32.5490 -32.5266 -32.5237 -32.4958 -32.4641 -32.4632 -32.4529
   -32.4507 -32.4223 -32.4168 -32.4104 -32.3858 -32.3738 -32.3690 -32.3393
   -32.3317 -32.3190 -32.3181 -32.3112 -32.3074 -32.3031 -32.2844 -32.2708
   -32.2687 -32.2561 -32.2525 -32.2224 -32.2221 -32.2093 -32.1344 -32.0464
   -31.9960 -31.8934 -31.7046 -31.6152 -31.5928 -31.5212 -31.4347 -31.3237
   -17.0787 -16.8119 -16.6506 -16.4919 -16.4577 -16.3465 -16.1812 -16.0649
   -16.0295 -16.0037 -15.9189 -15.8970 -15.8883 -15.8608 -15.8507 -15.8333
   -15.8269 -15.7689 -15.7468 -15.7299 -15.7072 -15.6853 -15.6613 -15.6316
   -15.5340 -15.4734 -15.4482 -15.3805 -15.3124 -14.9890 -13.7999 -13.6834
    -8.3291  -4.4440  -4.3762  -4.2675  -4.2220  -4.1805  -3.9641  -3.9373
    -3.8895  -3.6912  -3.5583  -3.5102  -3.4946  -3.4537  -3.4524  -3.2400
    -3.2021  -3.1382  -3.1312  -3.1152  -3.1110  -3.0826  -3.0765  -3.0528
    -3.0087  -2.9318  -2.8638  -2.7666  -2.7353  -2.6770  -2.6583  -2.6270
    -2.5927  -2.5854  -2.5731  -2.5538  -2.5397  -2.5253  -2.4410  -2.3925
    -2.2871  -2.1620  -2.1382  -2.1198  -1.9316  -1.8836  -1.8085  -1.7821
    -1.7540  -1.7464  -1.7094  -1.6250  -1.5563  -1.5175  -1.4480  -1.4423
    -1.3538  -1.3112  -1.2221  -1.1946  -1.1657  -1.0812  -1.0718  -1.0654
    -1.0197  -0.8291  -0.7967  -0.7897  -0.7686  -0.7101  -0.6476  -0.6106
    -0.5539  -0.5264  -0.4852  -0.3994  -0.3916  -0.3591  -0.3366  -0.3209
    -0.2925  -0.2868  -0.0986  -0.0950  -0.0479  -0.0353   0.0456   0.2014
     0.2938   0.3357   0.4071   0.6463   0.7247   0.8010   0.9155   1.2972
     1.3433   2.5564   2.8197   2.8915   2.9077   2.9489   3.0409   3.0545
     3.2712   3.2808   3.3072   3.3263

[...]

          k = 0.0380-0.0419 0.0000 ( 17876 PWs)   bands (ev):

[...]

          k =-0.0760-0.0000 0.0000 ( 17886 PWs)   bands (ev):

[...]

          k =-0.0760-0.0839 0.0000 ( 17948 PWs)   bands (ev):

   -56.3019 -56.2964 -56.2956 -56.2935 -56.2084 -56.1698 -56.1590 -56.1462
   -56.1037 -56.1003 -56.0854 -56.0824 -55.9203 -55.7634 -55.2801 -55.2798
   -32.6860 -32.6791 -32.6109 -32.6095 -32.5942 -32.5902 -32.5885 -32.5800
   -32.5208 -32.5163 -32.5161 -32.5035 -32.4794 -32.4502 -32.4429 -32.4329
   -32.4263 -32.4218 -32.4183 -32.4169 -32.4159 -32.4152 -32.4130 -32.3838
   -32.3813 -32.3631 -32.3492 -32.3406 -32.3279 -32.3171 -32.3156 -32.3074
   -32.3057 -32.2987 -32.2973 -32.2793 -32.2753 -32.2113 -32.1369 -32.0685
   -31.9996 -31.9442 -31.6056 -31.6054 -31.5175 -31.5172 -31.4781 -31.4779
   -16.5251 -16.4844 -16.3148 -16.2517 -16.2410 -16.2275 -16.1877 -16.1098
   -16.0451 -16.0245 -16.0023 -15.9939 -15.9776 -15.9604 -15.8649 -15.8526
   -15.8478 -15.8256 -15.8139 -15.7855 -15.7810 -15.7699 -15.7544 -15.7509
   -15.7160 -15.6413 -15.6370 -15.4210 -15.3299 -15.2667 -13.7853 -13.7849
    -8.3323  -4.1208  -3.8141  -3.7635  -3.6412  -3.5517  -3.4869  -3.4658
    -3.3906  -3.2730  -3.2128  -3.2055  -3.1957  -3.1668  -3.1591  -3.1371
    -3.1266  -3.1148  -3.0724  -3.0527  -3.0370  -3.0279  -2.9993  -2.9876
    -2.9642  -2.9534  -2.9411  -2.9183  -2.8818  -2.8790  -2.8509  -2.8431
    -2.6284  -2.6043  -2.5405  -2.4982  -2.4685  -2.4607  -2.4533  -2.3979
    -2.3744  -2.3563  -2.2591  -2.1952  -2.0390  -2.0214  -2.0129  -1.9756
    -1.9436  -1.8192  -1.7518  -1.7353  -1.6995  -1.6520  -1.6421  -1.5801
    -1.5623  -1.5268  -1.4569  -1.4179  -1.3747  -1.3535  -1.2757  -1.2693
    -1.2397  -1.1864  -1.1092  -1.0843  -1.0669  -1.0545  -0.9992  -0.9602
    -0.9160  -0.8628  -0.7908  -0.6979  -0.6170  -0.4679  -0.4154  -0.3063
    -0.2439  -0.2063  -0.1511  -0.1237  -0.0397  -0.0033  -0.0008   0.0548
     0.0936   0.1960   0.2014   0.2191   0.4468   1.0871   1.0882   1.1626
     1.1633   2.5602   3.0845   3.0974   3.1096   3.1584   3.3168   3.3229
     3.3504   3.3527   3.4399   3.4747

     the Fermi energy is     2.8208 ev

!    total energy              =   -2917.76269922 Ry
     estimated scf accuracy    <       0.00000005 Ry
     smearing contrib. (-TS)   =      -0.02782029 Ry
     internal energy E=F+TS    =   -2917.73487893 Ry

     The total energy is F=E-TS. E is the sum of the following terms:
     one-electron contribution =  -24681.49798080 Ry
     hartree contribution      =   12420.60458285 Ry
     xc contribution           =    -479.09350118 Ry
     ewald contribution        =    9822.25198953 Ry
     electric field correction =       0.00003066 Ry

     convergence has been achieved in  53 iterations

     Forces acting on atoms (cartesian axes, Ry/au):

     atom    1 type  1   force =     0.00013123   -0.00025990    0.09636345
     atom    2 type  1   force =    -0.00006141   -0.00048090   -0.17577406
     atom    3 type  2   force =     0.00009124   -0.00008120   -0.02479952
     atom    4 type  2   force =     0.00006571   -0.00166200    0.05388704
     atom    5 type  2   force =    -0.01234787   -0.00181478    0.00350771
     atom    6 type  2   force =     0.01432737   -0.00152940    0.00391461
     atom    7 type  1   force =     0.00061026    0.00063018   -0.01168487
     atom    8 type  1   force =    -0.00020567    0.02055582    0.02639588
     atom    9 type  2   force =    -0.00055060    0.00047468   -0.00019556
     atom   10 type  2   force =    -0.00145755   -0.00067730   -0.01370554
     atom   11 type  2   force =     0.00035341    0.00027184   -0.00014016
     atom   12 type  2   force =    -0.00049752    0.00054733   -0.00037163
     atom   13 type  1   force =     0.00053001   -0.00032004   -0.00119782
     atom   14 type  1   force =    -0.00115884    0.00109603   -0.00126588
     atom   15 type  2   force =    -0.00000546   -0.00016217    0.00105866
     atom   16 type  2   force =     0.00022960    0.00067410   -0.00017666
     atom   17 type  2   force =    -0.00032903    0.00063409   -0.00053340
     atom   18 type  2   force =     0.00100895    0.00084328    0.00060532
     atom   19 type  1   force =    -0.00039312    0.00061202   -0.00140630
     atom   20 type  1   force =    -0.00013807    0.00050712   -0.00031911
     atom   21 type  2   force =     0.00004972    0.00002133    0.10337708
     atom   22 type  2   force =     0.00035134   -0.00080536    0.00092087
     atom   23 type  2   force =    -0.07129114   -0.00005446   -0.02762585
     atom   24 type  2   force =     0.07125728    0.00033739   -0.02773141
     atom   25 type  1   force =     0.00018925   -0.00036452    0.09605661
     atom   26 type  1   force =     0.00000647   -0.00025898   -0.17593596
     atom   27 type  2   force =     0.00021868   -0.00037255   -0.02358908
     atom   28 type  2   force =     0.00006414   -0.00138409    0.05394718
     atom   29 type  2   force =    -0.01267207    0.00047215    0.00327613
     atom   30 type  2   force =     0.01462244    0.00112772    0.00365631
     atom   31 type  1   force =     0.00071235    0.00352043   -0.01313749
     atom   32 type  1   force =     0.00000694   -0.02243086    0.02628523
     atom   33 type  2   force =     0.00005542   -0.00002119    0.00099685
     atom   34 type  2   force =    -0.00088877   -0.00054818   -0.01865181
     atom   35 type  2   force =    -0.00030542   -0.00024188    0.00022660
     atom   36 type  2   force =     0.00014867   -0.00035150    0.00000470
     atom   37 type  1   force =     0.00039734    0.00062404   -0.00071782
     atom   38 type  1   force =    -0.00130438   -0.00095874   -0.00061576
     atom   39 type  2   force =     0.00001633    0.00110351    0.00020853
     atom   40 type  2   force =    -0.00013704   -0.00011390   -0.00015663
     atom   41 type  2   force =     0.00098164    0.00004590    0.00049683
     atom   42 type  2   force =    -0.00101102   -0.00003868   -0.00012174
     atom   43 type  1   force =    -0.00053385   -0.00013896   -0.00090219
     atom   44 type  1   force =    -0.00013094    0.00116871   -0.00156185
     atom   45 type  2   force =     0.00006454   -0.00001212    0.10335745
     atom   46 type  2   force =    -0.07127672   -0.00006020   -0.02763301
     atom   47 type  2   force =     0.07125157    0.00042943   -0.02769927
     atom   48 type  3   force =    -0.00673561   -0.00046956   -0.01423511
     atom   49 type  4   force =     0.00798243   -0.00153518    0.01049604
     atom   50 type  5   force =    -0.00060086    0.00022009    0.00008324
     atom   51 type  5   force =    -0.00169138    0.00123144    0.00276313

     Total force =     0.369510     Total SCF correction =     0.000436
  @ DRIVER MODE: Message from server: STATUS
  @ DRIVER MODE: Message from server: GETFORCE
  @ DRIVER MODE: Returning v,forces,stress,ensemble

     Writing output data file ./calc.save/
  @ DRIVER MODE: Message from server: EXIT
  @ DRIVE MODE: Exiting

     General routines

     Parallel routines

   This run was terminated on:  23:45: 0   8Sep2021

   JOB DONE.