     Program PWSCF v.6.7GPU starts on 25Aug2021 at  0:53:57

     R & G space division:  proc/nbgrp/npool/nimage =      72
     Reading input from /storage/home/hcoda1/3/ntian30/research/carbon/CH2_vib/ads_slab/CH2NNH3_a/out_0041/pw.inp
Warning: card &CELL ignored
Warning: card   CELL_DYNAMICS='IPI', ignored
Warning: card / ignored

     Current dimensions of program PWSCF are:
     Max number of different atomic species (ntypx) = 10
     Max number of k-points (npk) =  40000
     Max angular momentum in pseudopotentials (lmaxx) =  3
     Presently no symmetry can be used with electric field

     Message from routine cell_base_init:
     DEPRECATED: use true lattice parameter, not A to a.u. conversion factor

     IMPORTANT: XC functional enforced from input :
     Exchange-correlation= BEEF-VDW
                           (   1   4  43  14   2   0   0)
     Any further DFT definition will be discarded
     Please, verify this is what you really want

  @ DRIVER MODE: Connecting to
 qe_1139763_2641442.sched-torque.pace.gatech.edunsx91a2v_scratch
  using UNIX socket
  @ DRIVER MODE: Message from server: STATUS
  @ DRIVER MODE: Message from server: INIT
  @ DRIVER MODE: Receiving replica           0          -1
  @ DRIVER MODE: Receiving encoded integer          25
  @ DRIVER MODE:  SCF:  T  FORCE:  T  STRESS:  F  VC:  F  ENSEMBLE:  F
  @ DRIVER MODE:  SCF:  T  FORCE:  T  STRESS:  F  VC:  F  ENSEMBLE:  F

     Using Slab Decomposition

     bravais-lattice index     =            0
     lattice parameter (alat)  =       1.8897  a.u.
     unit-cell volume          =    6658.9804 (a.u.)^3
     number of atoms/cell      =           55
     number of atomic types    =            5
     number of electrons       =       397.00
     number of Kohn-Sham states=          208
     kinetic-energy cutoff     =      29.3995  Ry
     charge density cutoff     =     293.9946  Ry
     scf convergence threshold =      7.3E-08
     mixing beta               =       0.0500
     number of iterations used =            8  plain     mixing
     Exchange-correlation= BEEF-VDW
                           (   1   4  43  14   2   0   0)

     celldm(1)=   1.889726  celldm(2)=   0.000000  celldm(3)=   0.000000
     celldm(4)=   0.000000  celldm(5)=   0.000000  celldm(6)=   0.000000

     crystal axes: (cart. coord. in units of alat)
               a(1) = (   6.579727   0.000000   0.000000 )
               a(2) = (  -0.000775   5.961596   0.000000 )
               a(3) = (   0.000000   0.000000  25.155947 )

     reciprocal axes: (cart. coord. in units 2 pi/alat)
               b(1) = (  0.151982  0.000020  0.000000 )
               b(2) = (  0.000000  0.167740  0.000000 )
               b(3) = (  0.000000  0.000000  0.039752 )

     PseudoPot. # 1 for Ti read from file:
     /storage/coda1/p-amedford6/0/shared/rich_project_chbe-medford/medford-share/data/pseudos_module/espresso/nninc/pbe/van/Ti.UPF
     MD5 check sum: 8e4df49b7f0d34bbd5052bf3f5ea0213
     Pseudo is Ultrasoft, Zval = 12.0
     Generated by new atomic code, or converted to UPF format
     Using radial grid of  851 points,  6 beta functions with:
                l(1) =   0
                l(2) =   0
                l(3) =   1
                l(4) =   1
                l(5) =   2
                l(6) =   2
     Q(r) pseudized with  8 coefficients,  rinner =    1.000   1.000   1.000
                                                       1.000   1.000

     PseudoPot. # 2 for O  read from file:
     /storage/coda1/p-amedford6/0/shared/rich_project_chbe-medford/medford-share/data/pseudos_module/espresso/nninc/pbe/van/O.UPF
     MD5 check sum: 78c19812648e8988a0fe644b0f25305e
     Pseudo is Ultrasoft, Zval =  6.0
     Generated by new atomic code, or converted to UPF format
     Using radial grid of  737 points,  4 beta functions with:
                l(1) =   0
                l(2) =   0
                l(3) =   1
                l(4) =   1
     Q(r) pseudized with  8 coefficients,  rinner =    0.800   0.800   0.800

     PseudoPot. # 3 for N  read from file:
     /storage/coda1/p-amedford6/0/shared/rich_project_chbe-medford/medford-share/data/pseudos_module/espresso/nninc/pbe/van/N.UPF
     MD5 check sum: 90d10febe142ad51ac9d5be1deb811c4
     Pseudo is Ultrasoft, Zval =  5.0
     Generated by new atomic code, or converted to UPF format
     Using radial grid of  729 points,  4 beta functions with:
                l(1) =   0
                l(2) =   0
                l(3) =   1
                l(4) =   1
     Q(r) pseudized with  8 coefficients,  rinner =    0.800   0.800   0.800

     PseudoPot. # 4 for C  read from file:
     /storage/coda1/p-amedford6/0/shared/rich_project_chbe-medford/medford-share/data/pseudos_module/espresso/nninc/pbe/van/C.UPF
     MD5 check sum: 1a69bf6b8db32088f5b2163dbdb77a27
     Pseudo is Ultrasoft, Zval =  4.0
     Generated by new atomic code, or converted to UPF format
     Using radial grid of  721 points,  4 beta functions with:
                l(1) =   0
                l(2) =   0
                l(3) =   1
                l(4) =   1
     Q(r) pseudized with  8 coefficients,  rinner =    0.800   0.800   0.800

     PseudoPot. # 5 for H  read from file:
     /storage/coda1/p-amedford6/0/shared/rich_project_chbe-medford/medford-share/data/pseudos_module/espresso/nninc/pbe/van/H.UPF
     MD5 check sum: b5ee9d7bfd3a09ee7748110bda690ff7
     Pseudo is Ultrasoft, Zval =  1.0
     Generated by new atomic code, or converted to UPF format
     Using radial grid of  615 points,  1 beta functions with:
                l(1) =   0
     Q(r) pseudized with  8 coefficients,  rinner =    0.800

     atomic species   valence    mass     pseudopotential
        Ti1           12.00    47.86700     Ti( 1.00)
        O1             6.00    15.99900     O ( 1.00)
        N1             5.00    14.00700     N ( 1.00)
        C1             4.00    12.01100     C ( 1.00)
        H1             1.00     1.00800     H ( 1.00)

     No symmetry found

   Cartesian axes

     site n.     atom                  positions (alat units)
         1           Ti1 tau(   1) = (   0.0004258   2.9801865   6.0000000  )
         2           Ti1 tau(   2) = (   3.2906075   1.4906267   6.0002472  )
         3           O1  tau(   3) = (   0.0006271   0.0005054   7.9858123  )
         4           O1  tau(   4) = (   3.2906025   0.0005020   7.3038282  )
         5           O1  tau(   5) = (   4.5942328   1.4918067   9.2879030  )
         6           O1  tau(   6) = (   1.9868534   1.4903216   9.2879459  )
         7           Ti1 tau(   7) = (   3.2907910   2.8959150   9.1758416  )
         8           Ti1 tau(   8) = (   0.0015273   1.4827037   9.2680791  )
         9           O1  tau(   9) = (   3.2870044   0.0008392  11.3329265  )
        10           O1  tau(  10) = (   0.0116148   5.9584955  10.6183126  )
        11           O1  tau(  11) = (   1.3103063   1.4923116  12.6208530  )
        12           O1  tau(  12) = (   5.2933663   1.4849185  12.6124200  )
        13           Ti1 tau(  13) = (   6.5212574   2.9536302  12.6166858  )
        14           Ti1 tau(  14) = (   3.2058376   1.4897313  12.4816367  )
        15           O1  tau(  15) = (   6.5713238   0.0136578  14.6546308  )
        16           O1  tau(  16) = (   3.3039920   0.0133407  13.9274802  )
        17           O1  tau(  17) = (   4.5398155   1.5323753  16.0810081  )
        18           O1  tau(  18) = (   2.0543055   1.5218724  16.0470058  )
        19           Ti1 tau(  19) = (   3.2774803   3.0107093  15.7022328  )
        20           Ti1 tau(  20) = (   6.5342633   1.5374647  15.8423947  )
        21           O1  tau(  21) = (   3.2904802   0.0005063   4.7018136  )
        22           O1  tau(  22) = (   0.0034288   0.0322173  17.2228558  )
        23           O1  tau(  23) = (   1.3043587   1.4918075   6.0039043  )
        24           O1  tau(  24) = (   5.2767064   1.4903225   6.0039473  )
        25           Ti1 tau(  25) = (   0.0000382   5.9609847   6.0000000  )
        26           Ti1 tau(  26) = (   3.2902200   4.4714249   6.0002472  )
        27           O1  tau(  27) = (   0.0002396   2.9813036   7.9858123  )
        28           O1  tau(  28) = (   3.2902150   2.9813002   7.3038282  )
        29           O1  tau(  29) = (   4.5938453   4.4726049   9.2879030  )
        30           O1  tau(  30) = (   1.9864658   4.4711199   9.2879459  )
        31           Ti1 tau(  31) = (   3.2891106   5.8743827   9.1763621  )
        32           Ti1 tau(  32) = (   0.0006254   4.4649316   9.2693709  )
        33           O1  tau(  33) = (   3.2848367   2.9872869  11.3311783  )
        34           O1  tau(  34) = (   0.0092240   2.9805883  10.6323155  )
        35           O1  tau(  35) = (   1.3050274   4.4824158  12.6313026  )
        36           O1  tau(  36) = (   5.2955027   4.4751037  12.6224712  )
        37           Ti1 tau(  37) = (   6.5218534   5.9301143  12.5590122  )
        38           Ti1 tau(  38) = (   3.2037265   4.4702053  12.4865905  )
        39           O1  tau(  39) = (   6.5652647   2.9430126  14.6458727  )
        40           O1  tau(  40) = (   3.3006234   2.9978660  13.9063397  )
        41           O1  tau(  41) = (   4.5289998   4.4870283  16.1192093  )
        42           O1  tau(  42) = (   2.0463452   4.4937679  16.0531255  )
        43           Ti1 tau(  43) = (   3.2679282   0.0255942  15.7259849  )
        44           Ti1 tau(  44) = (   6.5624932   4.6695214  16.1100661  )
        45           O1  tau(  45) = (   3.2900926   2.9813045   4.7018136  )
        46           O1  tau(  46) = (   1.3039711   4.4726057   6.0039043  )
        47           O1  tau(  47) = (   5.2763189   4.4711207   6.0039473  )
        48           N1  tau(  48) = (   0.0665130   2.9625449  17.3937163  )
        49           C1  tau(  49) = (   0.2662726   2.8715582  18.6342609  )
        50           H1  tau(  50) = (   0.3859136   3.7587535  19.2661104  )
        51           H1  tau(  51) = (   0.3502417   1.8926937  19.1273272  )
        52           N1  tau(  52) = (   3.5829462   4.8819607  19.5834040  )
        53           H1  tau(  53) = (   4.1394342   5.6873527  19.8504637  )
        54           H1  tau(  54) = (   4.0752263   4.4438539  18.8013048  )
        55           H1  tau(  55) = (   3.6086599   4.2347498  20.3655469  )

     number of k points=    10  Fermi-Dirac smearing, width (Ry)=  0.0073
                       cart. coord. in units 2pi/alat
        k(    1) = (   0.0000000   0.0000000   0.0000000), wk =   0.1250000
        k(    2) = (   0.0000000   0.0419351   0.0000000), wk =   0.2500000
        k(    3) = (   0.0000000  -0.0838702   0.0000000), wk =   0.1250000
        k(    4) = (   0.0379955   0.0000049   0.0000000), wk =   0.2500000
        k(    5) = (   0.0379955   0.0419400   0.0000000), wk =   0.2500000
        k(    6) = (   0.0379955  -0.0838652   0.0000000), wk =   0.2500000
        k(    7) = (   0.0379955  -0.0419301   0.0000000), wk =   0.2500000
        k(    8) = (  -0.0759910  -0.0000099   0.0000000), wk =   0.1250000
        k(    9) = (  -0.0759910   0.0419252   0.0000000), wk =   0.2500000
        k(   10) = (  -0.0759910  -0.0838800   0.0000000), wk =   0.1250000

     Initial potential from superposition of free atoms

     starting charge  380.99914, renormalised to  397.00000

     negative rho (up, down):  1.455E-02 0.000E+00

     %%%%%%%%%%%%%%%%%%%%%%%%%%%%%%%%%%%%%%%%%%%%%%%%%%%%%%%%%%%%%%%%%%%%%%%%
     %                                                                      %
     % You are using vdW-DF, which was implemented by the Thonhauser group. %
     % Please cite the following two papers that made this development      %
     % possible and the two reviews that describe the various versions:     %
     %                                                                      %
     %   T. Thonhauser et al., PRL 115, 136402 (2015).                      %
     %   T. Thonhauser et al., PRB 76, 125112 (2007).                       %
     %   K. Berland et al., Rep. Prog. Phys. 78, 066501 (2015).             %
     %   D.C. Langreth et al., J. Phys.: Condens. Matter 21, 084203 (2009). %
     %                                                                      %
     %                                                                      %
     % If you are calculating the stress with vdW-DF, please also cite:     %
     %                                                                      %
     %   R. Sabatini et al., J. Phys.: Condens. Matter 24, 424209 (2012).   %
     %                                                                      %
     %%%%%%%%%%%%%%%%%%%%%%%%%%%%%%%%%%%%%%%%%%%%%%%%%%%%%%%%%%%%%%%%%%%%%%%%

     Adding external electric field

     Computed dipole along edir(3) :
        Dipole              -10.1094 Ry au,        -25.6956 Debye
        Dipole field         -0.0191 Ry au,

        Potential amp.        1.7685 Ry
        Total length         46.3494 bohr

     Starting wfcs are  301 atomic wfcs
  @ DRIVER MODE: Message from server: STATUS
  @ DRIVER MODE: Message from server: POSDATA
  @ DRIVER MODE: Reading and sharing cell
  @ DRIVER MODE: Reading and sharing positions
  @ DRIVER MODE: Received positions

     Self-consistent Calculation

     iteration #  1     ecut=    29.40 Ry     beta= 0.05
     Davidson diagonalization with overlap
     c_bands:  2 eigenvalues not converged
     c_bands:  1 eigenvalues not converged
     c_bands:  1 eigenvalues not converged
     c_bands:  1 eigenvalues not converged
     c_bands:  1 eigenvalues not converged
     c_bands:  1 eigenvalues not converged
     c_bands:  1 eigenvalues not converged
     c_bands:  2 eigenvalues not converged
     ethr =  1.00E-05,  avg # of iterations = 19.0

[...]

     total energy              =   -2537.28671288 Ry
     estimated scf accuracy    <    4510.69417704 Ry

     iteration #  2     ecut=    29.40 Ry     beta= 0.05
     Davidson diagonalization with overlap
     ethr =  1.00E-02,  avg # of iterations = 24.4

[...]

     iteration # 60     ecut=    29.40 Ry     beta= 0.05
     Davidson diagonalization with overlap
     c_bands:  1 eigenvalues not converged
     ethr =  2.38E-11,  avg # of iterations = 12.1

[...]

     total energy              =   -2941.70780786 Ry
     estimated scf accuracy    <       0.00000009 Ry

     iteration # 61     ecut=    29.40 Ry     beta= 0.05
     Davidson diagonalization with overlap
     ethr =  2.37E-11,  avg # of iterations =  5.3

     negative rho (up, down):  1.502E-02 0.000E+00

     Adding external electric field

     Computed dipole along edir(3) :
        Dipole                0.8847 Ry au,          2.2486 Debye
        Dipole field          0.0017 Ry au,

        Potential amp.       -0.1548 Ry
        Total length         46.3494 bohr

     End of self-consistent calculation

          k = 0.0000 0.0000 0.0000 ( 18029 PWs)   bands (ev):

   -55.7600 -55.7516 -55.7260 -55.7157 -55.6459 -55.6052 -55.5892 -55.5707
   -55.5688 -55.5348 -55.5327 -55.4991 -55.2793 -55.0272 -54.7371 -54.7031
   -32.3046 -32.2424 -32.1064 -32.0957 -32.0675 -32.0643 -32.0530 -32.0232
   -32.0026 -31.9788 -31.9721 -31.9518 -31.9313 -31.9121 -31.9037 -31.8908
   -31.8769 -31.8642 -31.8496 -31.8170 -31.8146 -31.8118 -31.7705 -31.7636
   -31.7630 -31.7611 -31.7566 -31.7474 -31.7346 -31.7200 -31.7121 -31.7080
   -31.7032 -31.6991 -31.6857 -31.6760 -31.6449 -31.5337 -31.4603 -31.3086
   -31.2811 -31.2346 -31.1442 -31.0559 -31.0334 -30.9609 -30.8744 -30.7634
   -16.5003 -16.2350 -16.0186 -15.9138 -15.8786 -15.7630 -15.5988 -15.4795
   -15.4272 -15.3290 -15.3153 -15.2957 -15.2622 -15.2462 -15.2254 -15.2065
   -15.2015 -15.1841 -15.1706 -15.1190 -15.0962 -15.0590 -14.9617 -14.9323
   -14.8945 -14.8785 -14.8201 -14.8149 -14.6801 -14.3314 -14.0077 -13.2398
   -13.1234  -7.2953  -4.1642  -4.1203  -4.0012  -3.8760  -3.7668  -3.7135
    -3.6651  -3.6050  -3.3991  -3.3086  -3.2834  -2.9873  -2.9414  -2.9264
    -2.9044  -2.8790  -2.6593  -2.6047  -2.5730  -2.5559  -2.5412  -2.5279
    -2.5203  -2.5009  -2.4667  -2.3694  -2.3156  -2.3006  -2.1775  -2.1490
    -2.0886  -2.0718  -2.0252  -2.0103  -1.9973  -1.9927  -1.9642  -1.9479
    -1.9226  -1.8442  -1.7286  -1.5763  -1.5579  -1.5243  -1.4040  -1.3668
    -1.3030  -1.2195  -1.2013  -1.1851  -1.1510  -1.1399  -1.0601  -0.9475
    -0.9071  -0.8985  -0.7952  -0.7551  -0.7350  -0.6309  -0.6073  -0.5390
    -0.5224  -0.5126  -0.4798  -0.3199  -0.2618  -0.2269  -0.1624  -0.1394
    -0.0797  -0.0620  -0.0317   0.0513   0.0991   0.1258   0.1275   0.1764
     0.2149   0.2316   0.2354   0.2504   0.2706   0.4376   0.5135   0.5275
     0.5970   0.6085   0.7710   0.8155   0.8975   1.0000   1.0541   1.2105
     1.2848   1.3743   1.4771   1.6805   1.8560   1.9016   3.3770   3.4603
     3.5088   3.5211   3.6194   3.6604   3.8298   3.8380   3.8484   3.9232

[...]

          k = 0.0380-0.0419 0.0000 ( 17876 PWs)   bands (ev):

[...]

          k =-0.0760-0.0000 0.0000 ( 17886 PWs)   bands (ev):

[...]

          k =-0.0760-0.0839 0.0000 ( 17948 PWs)   bands (ev):

   -55.7434 -55.7425 -55.7343 -55.7328 -55.6399 -55.5949 -55.5897 -55.5860
   -55.5525 -55.5507 -55.5167 -55.5153 -55.2782 -55.0281 -54.7201 -54.7199
   -32.1095 -32.1069 -32.0580 -32.0573 -32.0388 -32.0379 -32.0230 -32.0109
   -31.9583 -31.9543 -31.9497 -31.9456 -31.9110 -31.8842 -31.8829 -31.8795
   -31.8703 -31.8643 -31.8627 -31.8619 -31.8556 -31.8531 -31.8432 -31.8089
   -31.8026 -31.7958 -31.7832 -31.7706 -31.7513 -31.7508 -31.7478 -31.7467
   -31.7313 -31.7305 -31.7255 -31.7227 -31.6430 -31.5361 -31.4568 -31.3753
   -31.2828 -31.2566 -31.0462 -31.0460 -30.9571 -30.9568 -30.9178 -30.9176
   -15.9398 -15.9085 -15.7031 -15.6761 -15.6726 -15.6565 -15.5315 -15.4684
   -15.4551 -15.4529 -15.3892 -15.3690 -15.3321 -15.3047 -15.2904 -15.2802
   -15.2748 -15.2685 -15.2195 -15.2136 -15.1959 -15.1887 -15.0858 -15.0761
   -15.0722 -15.0173 -14.9368 -14.7949 -14.6967 -14.5051 -14.0073 -13.2252
   -13.2251  -7.2918  -4.1856  -4.0671  -4.0346  -3.4398  -3.2296  -3.1923
    -2.9328  -2.9148  -2.9012  -2.8459  -2.6732  -2.6559  -2.6345  -2.6163
    -2.5825  -2.5816  -2.5625  -2.5607  -2.5496  -2.5154  -2.5038  -2.4739
    -2.4363  -2.4260  -2.4143  -2.4132  -2.3828  -2.3730  -2.3344  -2.3049
    -2.2958  -2.2773  -2.2626  -2.0933  -1.9848  -1.9596  -1.8963  -1.8885
    -1.8597  -1.8234  -1.8161  -1.7955  -1.7446  -1.6590  -1.4916  -1.4593
    -1.4410  -1.3787  -1.3616  -1.3105  -1.2307  -1.1567  -1.1346  -1.1292
    -1.0797  -0.9701  -0.9474  -0.9392  -0.8695  -0.8231  -0.8166  -0.7811
    -0.7524  -0.7193  -0.7150  -0.6232  -0.5736  -0.5306  -0.5256  -0.4773
    -0.4099  -0.3987  -0.3701  -0.2610  -0.2382  -0.1807  -0.1464  -0.0362
     0.0272   0.2252   0.2788   0.3153   0.3724   0.4474   0.5297   0.5447
     0.5495   0.5600   0.6156   0.6692   0.7737   0.7825   0.8376   0.9446
     1.0210   1.6051   1.6485   1.6492   1.7214   1.7215   3.6594   3.6711
     3.7100   3.7307   3.8691   3.8843   3.9080   3.9090   3.9610   4.0469

     the Fermi energy is     3.3743 ev

!    total energy              =   -2941.70784914 Ry
     estimated scf accuracy    <       0.00000006 Ry
     smearing contrib. (-TS)   =      -0.02185708 Ry
     internal energy E=F+TS    =   -2941.68599206 Ry

     The total energy is F=E-TS. E is the sum of the following terms:
     one-electron contribution =  -23925.63036774 Ry
     hartree contribution      =   12052.43218934 Ry
     xc contribution           =    -486.75859858 Ry
     ewald contribution        =    9418.26930794 Ry
     electric field correction =       0.00147698 Ry

     convergence has been achieved in  61 iterations

     Forces acting on atoms (cartesian axes, Ry/au):

     atom    1 type  1   force =     0.00002821   -0.00024887    0.09665626
     atom    2 type  1   force =     0.00004004   -0.00058509   -0.17536084
     atom    3 type  2   force =     0.00011547   -0.00004091   -0.02486392
     atom    4 type  2   force =    -0.00000227   -0.00141928    0.05292925
     atom    5 type  2   force =    -0.01227879   -0.00026738    0.00348674
     atom    6 type  2   force =     0.01363465    0.00026411    0.00256350
     atom    7 type  1   force =     0.00031676    0.00058607   -0.01137275
     atom    8 type  1   force =     0.00051941    0.00783717    0.02845030
     atom    9 type  2   force =     0.00020489    0.00041721    0.00050293
     atom   10 type  2   force =    -0.00292139    0.00138458   -0.01556554
     atom   11 type  2   force =     0.00067710   -0.00000813   -0.00001784
     atom   12 type  2   force =    -0.00009002   -0.00013701   -0.00014085
     atom   13 type  1   force =    -0.00018928   -0.00032077    0.00098000
     atom   14 type  1   force =     0.00018624   -0.00008196   -0.00021553
     atom   15 type  2   force =     0.00017673    0.00047762    0.00019877
     atom   16 type  2   force =    -0.00033223   -0.00036278   -0.00027766
     atom   17 type  2   force =    -0.00067934    0.00001697   -0.00046953
     atom   18 type  2   force =     0.00041087    0.00043943   -0.00006959
     atom   19 type  1   force =    -0.00053787   -0.00087549   -0.00027730
     atom   20 type  1   force =     0.00046067    0.00098210   -0.00109730
     atom   21 type  2   force =     0.00005570   -0.00006482    0.10317145
     atom   22 type  2   force =    -0.00078706    0.00004926    0.00062162
     atom   23 type  2   force =    -0.07148973   -0.00014143   -0.02770773
     atom   24 type  2   force =     0.07141510    0.00031759   -0.02778326
     atom   25 type  1   force =     0.00016484   -0.00024861    0.09628534
     atom   26 type  1   force =     0.00009577   -0.00022447   -0.17560528
     atom   27 type  2   force =     0.00017011   -0.00019150   -0.02391413
     atom   28 type  2   force =     0.00000053   -0.00117401    0.05284257
     atom   29 type  2   force =    -0.01241001    0.00039255    0.00318110
     atom   30 type  2   force =     0.01366520    0.00085663    0.00222538
     atom   31 type  1   force =     0.00028628    0.00324262   -0.01196542
     atom   32 type  1   force =     0.00065218   -0.01007042    0.02885292
     atom   33 type  2   force =     0.00024235   -0.00024937    0.00063985
     atom   34 type  2   force =    -0.00237888    0.00102381   -0.02371210
     atom   35 type  2   force =     0.00059512   -0.00070684   -0.00009083
     atom   36 type  2   force =    -0.00016427   -0.00079546    0.00017417
     atom   37 type  1   force =    -0.00017385   -0.00013698    0.00047545
     atom   38 type  1   force =     0.00030151    0.00036760   -0.00067041
     atom   39 type  2   force =    -0.00009702   -0.00074278    0.00118738
     atom   40 type  2   force =     0.00026578   -0.00062323   -0.00010811
     atom   41 type  2   force =    -0.00026792   -0.00062512    0.00003034
     atom   42 type  2   force =    -0.00031336   -0.00024560   -0.00002231
     atom   43 type  1   force =    -0.00053503    0.00077928   -0.00000714
     atom   44 type  1   force =    -0.00012354    0.00012262   -0.00034211
     atom   45 type  2   force =     0.00007292   -0.00006562    0.10319556
     atom   46 type  2   force =    -0.07152323   -0.00008924   -0.02773617
     atom   47 type  2   force =     0.07142829    0.00033595   -0.02779862
     atom   48 type  3   force =    -0.00020127   -0.00065020   -0.00132330
     atom   49 type  4   force =     0.00063773   -0.00098323    0.00085697
     atom   50 type  5   force =    -0.00041634    0.00071340    0.00111161
     atom   51 type  5   force =    -0.00027338    0.00065736   -0.00050758
     atom   52 type  3   force =     0.00309699   -0.00373303   -0.00978525
     atom   53 type  5   force =     0.00164091    0.00061748   -0.00042875
     atom   54 type  5   force =    -0.00415246    0.00436599    0.01134316
     atom   55 type  5   force =     0.00078016   -0.00013778   -0.00272550

     Total force =     0.368422     Total SCF correction =     0.000569
  @ DRIVER MODE: Message from server: STATUS
  @ DRIVER MODE: Message from server: GETFORCE
  @ DRIVER MODE: Returning v,forces,stress,ensemble

     Writing output data file ./calc.save/
  @ DRIVER MODE: Message from server: EXIT
  @ DRIVE MODE: Exiting

     General routines

     Parallel routines

   This run was terminated on:   1:12:27  25Aug2021

   JOB DONE.