     Program PWSCF v.6.7GPU starts on 15Jul2021 at 21:36:13

     R & G space division:  proc/nbgrp/npool/nimage =      16
     Reading input from /storage/home/hcoda1/3/ntian30/research/carbon/15Jul_vib/ads_slab/CH3N_a/out_0013/pw.inp
Warning: card &CELL ignored
Warning: card   CELL_DYNAMICS='IPI', ignored
Warning: card / ignored

     Current dimensions of program PWSCF are:
     Max number of different atomic species (ntypx) = 10
     Max number of k-points (npk) =  40000
     Max angular momentum in pseudopotentials (lmaxx) =  3
     Presently no symmetry can be used with electric field

     Message from routine cell_base_init:
     DEPRECATED: use true lattice parameter, not A to a.u. conversion factor

     IMPORTANT: XC functional enforced from input :
     Exchange-correlation= BEEF-VDW
                           (   1   4  43  14   2   0   0)
     Any further DFT definition will be discarded
     Please, verify this is what you really want

  @ DRIVER MODE: Connecting to
 qe_1139763_2351643.sched-torque.pace.gatech.edu4kn6ylmh_scratch
  using UNIX socket
  @ DRIVER MODE: Message from server: STATUS
  @ DRIVER MODE: Message from server: INIT
  @ DRIVER MODE: Receiving replica           0          -1
  @ DRIVER MODE: Receiving encoded integer          25
  @ DRIVER MODE:  SCF:  T  FORCE:  T  STRESS:  F  VC:  F  ENSEMBLE:  F
  @ DRIVER MODE:  SCF:  T  FORCE:  T  STRESS:  F  VC:  F  ENSEMBLE:  F

     Using Slab Decomposition

     bravais-lattice index     =            0
     lattice parameter (alat)  =       1.8897  a.u.
     unit-cell volume          =    6658.9804 (a.u.)^3
     number of atoms/cell      =           52
     number of atomic types    =            5
     number of electrons       =       390.00
     number of Kohn-Sham states=          205
     kinetic-energy cutoff     =      29.3995  Ry
     charge density cutoff     =     293.9946  Ry
     scf convergence threshold =      7.3E-08
     mixing beta               =       0.0500
     number of iterations used =            8  plain     mixing
     Exchange-correlation= BEEF-VDW
                           (   1   4  43  14   2   0   0)

     celldm(1)=   1.889726  celldm(2)=   0.000000  celldm(3)=   0.000000
     celldm(4)=   0.000000  celldm(5)=   0.000000  celldm(6)=   0.000000

     crystal axes: (cart. coord. in units of alat)
               a(1) = (   6.579727   0.000000   0.000000 )
               a(2) = (  -0.000775   5.961596   0.000000 )
               a(3) = (   0.000000   0.000000  25.155947 )

     reciprocal axes: (cart. coord. in units 2 pi/alat)
               b(1) = (  0.151982  0.000020  0.000000 )
               b(2) = (  0.000000  0.167740  0.000000 )
               b(3) = (  0.000000  0.000000  0.039752 )

     PseudoPot. # 1 for Ti read from file:
     /storage/coda1/p-amedford6/0/shared/rich_project_chbe-medford/medford-share/data/pseudos_module/espresso/nninc/pbe/van/Ti.UPF
     MD5 check sum: 8e4df49b7f0d34bbd5052bf3f5ea0213
     Pseudo is Ultrasoft, Zval = 12.0
     Generated by new atomic code, or converted to UPF format
     Using radial grid of  851 points,  6 beta functions with:
                l(1) =   0
                l(2) =   0
                l(3) =   1
                l(4) =   1
                l(5) =   2
                l(6) =   2
     Q(r) pseudized with  8 coefficients,  rinner =    1.000   1.000   1.000
                                                       1.000   1.000

     PseudoPot. # 2 for O  read from file:
     /storage/coda1/p-amedford6/0/shared/rich_project_chbe-medford/medford-share/data/pseudos_module/espresso/nninc/pbe/van/O.UPF
     MD5 check sum: 78c19812648e8988a0fe644b0f25305e
     Pseudo is Ultrasoft, Zval =  6.0
     Generated by new atomic code, or converted to UPF format
     Using radial grid of  737 points,  4 beta functions with:
                l(1) =   0
                l(2) =   0
                l(3) =   1
                l(4) =   1
     Q(r) pseudized with  8 coefficients,  rinner =    0.800   0.800   0.800

     PseudoPot. # 3 for N  read from file:
     /storage/coda1/p-amedford6/0/shared/rich_project_chbe-medford/medford-share/data/pseudos_module/espresso/nninc/pbe/van/N.UPF
     MD5 check sum: 90d10febe142ad51ac9d5be1deb811c4
     Pseudo is Ultrasoft, Zval =  5.0
     Generated by new atomic code, or converted to UPF format
     Using radial grid of  729 points,  4 beta functions with:
                l(1) =   0
                l(2) =   0
                l(3) =   1
                l(4) =   1
     Q(r) pseudized with  8 coefficients,  rinner =    0.800   0.800   0.800

     PseudoPot. # 4 for C  read from file:
     /storage/coda1/p-amedford6/0/shared/rich_project_chbe-medford/medford-share/data/pseudos_module/espresso/nninc/pbe/van/C.UPF
     MD5 check sum: 1a69bf6b8db32088f5b2163dbdb77a27
     Pseudo is Ultrasoft, Zval =  4.0
     Generated by new atomic code, or converted to UPF format
     Using radial grid of  721 points,  4 beta functions with:
                l(1) =   0
                l(2) =   0
                l(3) =   1
                l(4) =   1
     Q(r) pseudized with  8 coefficients,  rinner =    0.800   0.800   0.800

     PseudoPot. # 5 for H  read from file:
     /storage/coda1/p-amedford6/0/shared/rich_project_chbe-medford/medford-share/data/pseudos_module/espresso/nninc/pbe/van/H.UPF
     MD5 check sum: b5ee9d7bfd3a09ee7748110bda690ff7
     Pseudo is Ultrasoft, Zval =  1.0
     Generated by new atomic code, or converted to UPF format
     Using radial grid of  615 points,  1 beta functions with:
                l(1) =   0
     Q(r) pseudized with  8 coefficients,  rinner =    0.800

     atomic species   valence    mass     pseudopotential
        Ti1           12.00    47.86700     Ti( 1.00)
        O1             6.00    15.99900     O ( 1.00)
        N1             5.00    14.00700     N ( 1.00)
        C1             4.00    12.01100     C ( 1.00)
        H1             1.00     1.00800     H ( 1.00)

     Starting magnetic structure
     atomic species   magnetization
        Ti1          0.000
        O1           0.000
        N1           0.000
        C1           0.025
        H1           0.000

     No symmetry found

   Cartesian axes

     site n.     atom                  positions (alat units)
         1           Ti1 tau(   1) = (   0.0004258   2.9801865   6.0000000  )
         2           Ti1 tau(   2) = (   3.2906075   1.4906267   6.0002472  )
         3           O1  tau(   3) = (   0.0006271   0.0005054   7.9858123  )
         4           O1  tau(   4) = (   3.2906025   0.0005020   7.3038282  )
         5           O1  tau(   5) = (   4.5942328   1.4918067   9.2879030  )
         6           O1  tau(   6) = (   1.9868534   1.4903216   9.2879459  )
         7           Ti1 tau(   7) = (   3.2907910   2.8959150   9.1758416  )
         8           Ti1 tau(   8) = (   0.0015273   1.4827037   9.2680791  )
         9           O1  tau(   9) = (   3.2848820   0.0184509  11.2968037  )
        10           O1  tau(  10) = (   0.0116148   5.9584955  10.6183126  )
        11           O1  tau(  11) = (   1.3164307   1.5202202  12.6152053  )
        12           O1  tau(  12) = (   5.2938533   1.5248534  12.6363518  )
        13           Ti1 tau(  13) = (   6.4693392   3.0155455  12.7604093  )
        14           Ti1 tau(  14) = (   3.1621140   1.5165027  12.4659144  )
        15           O1  tau(  15) = (   0.0250032   0.0426882  14.5925537  )
        16           O1  tau(  16) = (   3.2896737   0.0171256  13.8799622  )
        17           O1  tau(  17) = (   4.5365032   1.4993634  16.0438468  )
        18           O1  tau(  18) = (   2.0814567   1.5015292  16.0591106  )
        19           Ti1 tau(  19) = (   3.3082904   2.9956922  15.6854367  )
        20           Ti1 tau(  20) = (   0.0032501   1.4479889  16.1249605  )
        21           O1  tau(  21) = (   3.2904802   0.0005063   4.7018136  )
        22           O1  tau(  22) = (   0.0161699   0.0004382  17.1970091  )
        23           O1  tau(  23) = (   1.3043587   1.4918075   6.0039043  )
        24           O1  tau(  24) = (   5.2767064   1.4903225   6.0039473  )
        25           Ti1 tau(  25) = (   0.0000382   5.9609847   6.0000000  )
        26           Ti1 tau(  26) = (   3.2902200   4.4714249   6.0002472  )
        27           O1  tau(  27) = (   0.0002396   2.9813036   7.9858123  )
        28           O1  tau(  28) = (   3.2902150   2.9813002   7.3038282  )
        29           O1  tau(  29) = (   4.5938453   4.4726049   9.2879030  )
        30           O1  tau(  30) = (   1.9864658   4.4711199   9.2879459  )
        31           Ti1 tau(  31) = (   3.2891106   5.8743827   9.1763621  )
        32           Ti1 tau(  32) = (   0.0006254   4.4649316   9.2693709  )
        33           O1  tau(  33) = (   3.2855107   2.9994495  11.2959752  )
        34           O1  tau(  34) = (   0.0092240   2.9805883  10.6323155  )
        35           O1  tau(  35) = (   1.3179678   4.4860142  12.6155112  )
        36           O1  tau(  36) = (   5.2920789   4.4901865  12.6316709  )
        37           Ti1 tau(  37) = (   6.5050993   0.0355131  12.7707974  )
        38           Ti1 tau(  38) = (   3.1594757   4.4963870  12.4672366  )
        39           O1  tau(  39) = (   6.5726527   3.0227966  14.6583025  )
        40           O1  tau(  40) = (   3.2932321   2.9979836  13.8792693  )
        41           O1  tau(  41) = (   4.5322310   4.4839795  16.0418810  )
        42           O1  tau(  42) = (   2.0800586   4.4799519  16.0553745  )
        43           Ti1 tau(  43) = (   3.2910362   0.0127607  15.6894215  )
        44           Ti1 tau(  44) = (   0.0049462   4.4269923  16.0943486  )
        45           O1  tau(  45) = (   3.2900926   2.9813045   4.7018136  )
        46           O1  tau(  46) = (   1.3039711   4.4726057   6.0039043  )
        47           O1  tau(  47) = (   5.2763189   4.4711207   6.0039473  )
        48           N1  tau(  48) = (   0.0596666   2.9942962  17.3216073  )
        49           C1  tau(  49) = (   0.3918855   2.9774893  18.7266025  )
        50           H1  tau(  50) = (   6.5714867   3.8652167  19.2343835  )
        51           H1  tau(  51) = (   0.0043965   2.0815098  19.2200810  )
        52           H1  tau(  52) = (   1.4843755   2.9788857  18.8581259  )

     number of k points=    10  Fermi-Dirac smearing, width (Ry)=  0.0073
                       cart. coord. in units 2pi/alat
        k(    1) = (   0.0000000   0.0000000   0.0000000), wk =   0.0625000
        k(    2) = (   0.0000000   0.0419351   0.0000000), wk =   0.1250000
        k(    3) = (   0.0000000  -0.0838702   0.0000000), wk =   0.0625000
        k(    4) = (   0.0379955   0.0000049   0.0000000), wk =   0.1250000
        k(    5) = (   0.0379955   0.0419400   0.0000000), wk =   0.1250000
        k(    6) = (   0.0379955  -0.0838652   0.0000000), wk =   0.1250000
        k(    7) = (   0.0379955  -0.0419301   0.0000000), wk =   0.1250000
        k(    8) = (  -0.0759910  -0.0000099   0.0000000), wk =   0.0625000
        k(    9) = (  -0.0759910   0.0419252   0.0000000), wk =   0.1250000
        k(   10) = (  -0.0759910  -0.0838800   0.0000000), wk =   0.0625000

     Initial potential from superposition of free atoms

     starting charge  373.99917, renormalised to  390.00000

     negative rho (up, down):  8.647E-03 8.653E-03

     %%%%%%%%%%%%%%%%%%%%%%%%%%%%%%%%%%%%%%%%%%%%%%%%%%%%%%%%%%%%%%%%%%%%%%%%
     %                                                                      %
     % You are using vdW-DF, which was implemented by the Thonhauser group. %
     % Please cite the following two papers that made this development      %
     % possible and the two reviews that describe the various versions:     %
     %                                                                      %
     %   T. Thonhauser et al., PRL 115, 136402 (2015).                      %
     %   T. Thonhauser et al., PRB 76, 125112 (2007).                       %
     %   K. Berland et al., Rep. Prog. Phys. 78, 066501 (2015).             %
     %   D.C. Langreth et al., J. Phys.: Condens. Matter 21, 084203 (2009). %
     %                                                                      %
     %                                                                      %
     % If you are calculating the stress with vdW-DF, please also cite:     %
     %                                                                      %
     %   R. Sabatini et al., J. Phys.: Condens. Matter 24, 424209 (2012).   %
     %                                                                      %
     %%%%%%%%%%%%%%%%%%%%%%%%%%%%%%%%%%%%%%%%%%%%%%%%%%%%%%%%%%%%%%%%%%%%%%%%

     Adding external electric field

     Computed dipole along edir(3) :
        Dipole               -4.6263 Ry au,        -11.7589 Debye
        Dipole field         -0.0087 Ry au,

        Potential amp.        0.8093 Ry
        Total length         46.3494 bohr

[...]

     Starting wfcs are  295 atomic wfcs
  @ DRIVER MODE: Message from server: STATUS
  @ DRIVER MODE: Message from server: POSDATA
  @ DRIVER MODE: Reading and sharing cell
  @ DRIVER MODE: Reading and sharing positions
  @ DRIVER MODE: Received positions

     Self-consistent Calculation

     iteration #  1     ecut=    29.40 Ry     beta= 0.05
     Davidson diagonalization with overlap
     c_bands:  3 eigenvalues not converged
     c_bands:  3 eigenvalues not converged
     c_bands:  2 eigenvalues not converged
     c_bands:  4 eigenvalues not converged
     c_bands:  4 eigenvalues not converged
     c_bands:  2 eigenvalues not converged
     c_bands:  2 eigenvalues not converged
     c_bands:  2 eigenvalues not converged
     c_bands:  4 eigenvalues not converged
     c_bands:  3 eigenvalues not converged
     c_bands:  2 eigenvalues not converged
     c_bands:  4 eigenvalues not converged
     c_bands:  4 eigenvalues not converged
     c_bands:  2 eigenvalues not converged
     c_bands:  3 eigenvalues not converged
     c_bands:  3 eigenvalues not converged
     ethr =  1.00E-05,  avg # of iterations = 19.7

[...]

     total energy              =   -2877.00237907 Ry
     estimated scf accuracy    <     485.53269143 Ry

     total magnetization       =     0.13 Bohr mag/cell
     absolute magnetization    =     0.16 Bohr mag/cell

     iteration #  2     ecut=    29.40 Ry     beta= 0.05
     Davidson diagonalization with overlap
     ethr =  1.00E-02,  avg # of iterations = 13.4

[...]

     iteration # 27     ecut=    29.40 Ry     beta= 0.05
     Davidson diagonalization with overlap
     c_bands:  1 eigenvalues not converged
     ethr =  4.63E-07,  avg # of iterations =  7.8

[...]

     total energy              =   -2919.13330236 Ry
     estimated scf accuracy    <       0.00000016 Ry

[...]

     iteration # 54     ecut=    29.40 Ry     beta= 0.05
     Davidson diagonalization with overlap
     ethr =  4.08E-11,  avg # of iterations =  5.9

     negative rho (up, down):  8.886E-03 8.886E-03

[...]

     Adding external electric field

     Computed dipole along edir(3) :
        Dipole                0.2499 Ry au,          0.6353 Debye
        Dipole field          0.0005 Ry au,

        Potential amp.       -0.0437 Ry
        Total length         46.3494 bohr

     Magnetic moment per site  (integrated on atomic sphere of radius R)
     atom   1 (R=0.743)  charge=  8.0712  magn=  0.0000
     atom   2 (R=0.743)  charge=  8.0673  magn= -0.0001
     atom   3 (R=0.743)  charge=  5.0508  magn= -0.0000
     atom   4 (R=0.743)  charge=  5.0897  magn=  0.0000
     atom   5 (R=0.743)  charge=  5.0526  magn=  0.0000
     atom   6 (R=0.743)  charge=  5.0540  magn=  0.0000
     atom   7 (R=0.743)  charge=  8.0606  magn= -0.0000
     atom   8 (R=0.743)  charge=  8.0480  magn= -0.0000
     atom   9 (R=0.743)  charge=  5.0677  magn=  0.0000
     atom  10 (R=0.743)  charge=  4.9973  magn=  0.0000
     atom  11 (R=0.743)  charge=  5.0556  magn=  0.0000
     atom  12 (R=0.743)  charge=  5.0584  magn=  0.0000
     atom  13 (R=0.743)  charge=  8.0594  magn= -0.0000
     atom  14 (R=0.743)  charge=  8.0663  magn= -0.0000
     atom  15 (R=0.743)  charge=  5.0445  magn=  0.0000
     atom  16 (R=0.743)  charge=  5.0715  magn=  0.0000
     atom  17 (R=0.743)  charge=  5.0432  magn=  0.0000
     atom  18 (R=0.743)  charge=  5.0420  magn=  0.0000
     atom  19 (R=0.743)  charge=  8.0873  magn= -0.0000
     atom  20 (R=0.743)  charge=  8.0865  magn= -0.0000
     atom  21 (R=0.743)  charge=  4.9344  magn=  0.0001
     atom  22 (R=0.743)  charge=  5.0263  magn=  0.0000
     atom  23 (R=0.743)  charge=  5.0425  magn= -0.0000
     atom  24 (R=0.743)  charge=  5.0426  magn= -0.0000
     atom  25 (R=0.743)  charge=  8.0712  magn=  0.0000
     atom  26 (R=0.743)  charge=  8.0673  magn= -0.0001
     atom  27 (R=0.743)  charge=  5.0507  magn=  0.0000
     atom  28 (R=0.743)  charge=  5.0899  magn=  0.0000
     atom  29 (R=0.743)  charge=  5.0534  magn=  0.0000
     atom  30 (R=0.743)  charge=  5.0547  magn=  0.0000
     atom  31 (R=0.743)  charge=  8.0608  magn= -0.0000
     atom  32 (R=0.743)  charge=  8.0483  magn= -0.0000
     atom  33 (R=0.743)  charge=  5.0679  magn=  0.0000
     atom  34 (R=0.743)  charge=  4.9963  magn=  0.0000
     atom  35 (R=0.743)  charge=  5.0558  magn=  0.0000
     atom  36 (R=0.743)  charge=  5.0580  magn=  0.0000
     atom  37 (R=0.743)  charge=  8.0669  magn= -0.0000
     atom  38 (R=0.743)  charge=  8.0667  magn= -0.0000
     atom  39 (R=0.743)  charge=  5.0387  magn=  0.0000
     atom  40 (R=0.743)  charge=  5.0730  magn=  0.0000
     atom  41 (R=0.743)  charge=  5.0440  magn=  0.0000
     atom  42 (R=0.743)  charge=  5.0430  magn=  0.0000
     atom  43 (R=0.743)  charge=  8.0878  magn= -0.0000
     atom  44 (R=0.743)  charge=  8.0856  magn=  0.0000
     atom  45 (R=0.743)  charge=  4.9344  magn=  0.0001
     atom  46 (R=0.743)  charge=  5.0425  magn= -0.0000
     atom  47 (R=0.743)  charge=  5.0426  magn= -0.0000
     atom  48 (R=0.596)  charge=  2.7578  magn= -0.0000
     atom  49 (R=0.451)  charge=  0.8542  magn=  0.0001
     atom  50 (R=0.451)  charge=  0.5081  magn= -0.0000
     atom  51 (R=0.451)  charge=  0.5114  magn= -0.0000
     atom  52 (R=0.451)  charge=  0.5056  magn= -0.0000

     End of self-consistent calculation

 ------ SPIN UP ------------

          k = 0.0000 0.0000 0.0000 ( 18029 PWs)   bands (ev):

   -56.8993 -56.8657 -56.0117 -56.0022 -55.9766 -55.9697 -55.8617 -55.8259
   -55.6440 -55.6088 -55.5608 -55.5381 -55.5269 -55.4404 -54.9945 -54.9419
   -33.3266 -33.1733 -33.1452 -33.0756 -32.9845 -32.9526 -32.4848 -32.4758
   -32.4045 -32.2973 -32.2517 -32.2251 -32.2098 -32.1860 -32.1531 -32.1499
   -32.1423 -32.1404 -32.1162 -32.1081 -32.1018 -32.0699 -32.0438 -32.0286
   -32.0149 -31.9979 -31.9890 -31.9655 -31.9527 -31.8993 -31.8755 -31.8752
   -31.7828 -31.7817 -31.7714 -31.7134 -31.7101 -31.6880 -31.6682 -31.6465
   -31.6223 -31.5771 -31.5168 -31.2376 -31.2191 -31.1913 -31.1633 -31.0446
   -17.0608 -16.6208 -16.3899 -16.2601 -16.1883 -16.1382 -16.0903 -15.9629
   -15.8921 -15.8889 -15.8520 -15.8120 -15.7443 -15.6047 -15.5074 -15.4477
   -15.4045 -15.2846 -15.2277 -15.1907 -15.1829 -15.1519 -15.1321 -14.9344
   -14.9119 -14.8163 -14.7990 -14.6754 -14.4478 -14.0593 -13.9493 -13.0870
    -7.7949  -4.6271  -4.1170  -3.8741  -3.7918  -3.6811  -3.6742  -3.5916
    -3.4782  -3.4271  -3.3815  -3.2660  -3.2615  -3.1162  -3.0917  -3.0736
    -3.0667  -3.0271  -2.9967  -2.9503  -2.8994  -2.8921  -2.8883  -2.7382
    -2.6375  -2.5667  -2.5450  -2.5278  -2.5001  -2.4066  -2.4026  -2.3881
    -2.3845  -2.2888  -2.1400  -2.1300  -2.0952  -2.0595  -2.0553  -2.0124
    -2.0015  -1.8447  -1.8011  -1.6844  -1.6729  -1.6383  -1.5721  -1.5687
    -1.4525  -1.3969  -1.3506  -1.3061  -1.1991  -1.1537  -1.1248  -1.0359
    -0.9754  -0.9386  -0.9196  -0.9005  -0.7934  -0.7861  -0.7696  -0.6785
    -0.6726  -0.6223  -0.5327  -0.5103  -0.5083  -0.4175  -0.4093  -0.3101
    -0.2766  -0.2238  -0.1937  -0.1135  -0.0832   0.0215   0.0596   0.0756
     0.2049   0.2204   0.2788   0.3455   0.4018   0.4456   0.4609   0.4959
     0.5048   0.5983   0.7056   0.7079   0.8196   0.8570   1.0136   1.0525
     1.3513   1.3639   2.0232   2.3763   2.5369   2.8351   3.0303   3.1431
     3.3529   3.3667   3.3725   3.5535   3.6012

[...]

          k =-0.0760-0.0000 0.0000 ( 17886 PWs)   bands (ev):

[...]

 ------ SPIN DOWN ----------

[...]

          k = 0.0380-0.0419 0.0000 ( 17876 PWs)   bands (ev):

[...]

          k =-0.0760-0.0839 0.0000 ( 17948 PWs)   bands (ev):

   -56.8825 -56.8821 -55.9956 -55.9913 -55.9868 -55.9864 -55.8468 -55.8409
   -55.6290 -55.6238 -55.5442 -55.5440 -55.5350 -55.4436 -54.9877 -54.9486
   -33.1590 -33.1587 -33.1435 -33.1433 -33.0285 -33.0282 -32.3146 -32.3121
   -32.2997 -32.2944 -32.2417 -32.2402 -32.1976 -32.1970 -32.1966 -32.1929
   -32.1852 -32.1827 -32.1817 -32.1798 -32.0985 -32.0934 -32.0472 -32.0435
   -31.9806 -31.9728 -31.9112 -31.9055 -31.8885 -31.8883 -31.8659 -31.8276
   -31.8264 -31.7924 -31.7694 -31.7692 -31.7596 -31.7302 -31.7301 -31.7083
   -31.6853 -31.6487 -31.3823 -31.3017 -31.2158 -31.1842 -31.1699 -31.1288
   -16.4088 -16.4068 -16.3752 -16.3749 -16.1038 -16.1002 -16.0506 -16.0485
   -15.8767 -15.8689 -15.6644 -15.6552 -15.6488 -15.6452 -15.5173 -15.5104
   -15.4463 -15.4334 -15.3451 -15.3383 -15.2772 -15.2709 -15.2345 -15.2131
   -14.8957 -14.8900 -14.7675 -14.7545 -14.6032 -14.0523 -14.0522 -13.1035
    -7.7855  -3.5078  -3.5070  -3.4406  -3.4397  -3.3146  -3.3078  -3.2394
    -3.2387  -3.1320  -3.1283  -3.0594  -3.0041  -2.9908  -2.9874  -2.9767
    -2.9727  -2.8350  -2.8323  -2.8197  -2.8048  -2.7538  -2.7513  -2.7336
    -2.6558  -2.6401  -2.6089  -2.5648  -2.4646  -2.4483  -2.4314  -2.4049
    -2.3471  -2.3359  -2.3218  -2.2762  -2.2571  -2.1537  -2.1054  -2.0626
    -1.9431  -1.9406  -1.9305  -1.9134  -1.7660  -1.7290  -1.6980  -1.6915
    -1.6824  -1.6329  -1.5414  -1.5332  -1.3984  -1.3937  -1.3217  -1.2386
    -1.2200  -1.1913  -1.0590  -1.0117  -0.9792  -0.9728  -0.9529  -0.9236
    -0.8956  -0.8680  -0.7235  -0.7045  -0.6801  -0.6425  -0.6299  -0.5766
    -0.5271  -0.4470  -0.3677  -0.3667  -0.2854  -0.2407  -0.1778  -0.0947
    -0.0835  -0.0767   0.2031   0.2805   0.3732   0.4578   0.5208   0.5842
     0.6079   0.6732   0.7054   0.8424   0.8456   0.8619   0.8621   0.9296
     0.9343   1.3357   1.9170   2.9502   2.9505   3.0180   3.0184   3.3420
     3.3474   3.4571   3.4665   3.5827   3.5847

     the Fermi energy is     2.2108 ev

!    total energy              =   -2919.13337264 Ry
     estimated scf accuracy    <       0.00000006 Ry
     smearing contrib. (-TS)   =      -0.00464472 Ry
     internal energy E=F+TS    =   -2919.12872792 Ry

     The total energy is F=E-TS. E is the sum of the following terms:
     one-electron contribution =  -24579.09064398 Ry
     hartree contribution      =   12373.73661838 Ry
     xc contribution           =    -479.89863217 Ry
     ewald contribution        =    9766.12381197 Ry
     electric field correction =       0.00011788 Ry

     total magnetization       =     0.00 Bohr mag/cell
     absolute magnetization    =     0.00 Bohr mag/cell

     convergence has been achieved in  54 iterations

     Forces acting on atoms (cartesian axes, Ry/au):

     atom    1 type  1   force =    -0.00002496   -0.00046616    0.12462487
     atom    2 type  1   force =    -0.00012271   -0.00052545   -0.16054566
     atom    3 type  2   force =     0.00016022   -0.00014322   -0.06868488
     atom    4 type  2   force =    -0.00004433   -0.00017633    0.02744816
     atom    5 type  2   force =    -0.01664950    0.00229620   -0.00876249
     atom    6 type  2   force =     0.01810915    0.00296352   -0.00971272
     atom    7 type  1   force =     0.00056534   -0.00364166    0.02222345
     atom    8 type  1   force =    -0.00015555   -0.00290902    0.11215294
     atom    9 type  2   force =     0.00047733   -0.00002788   -0.00027719
     atom   10 type  2   force =    -0.00266141    0.00369000   -0.07365365
     atom   11 type  2   force =     0.00131084   -0.00058259   -0.00043424
     atom   12 type  2   force =    -0.00056299   -0.00105269   -0.00078889
     atom   13 type  1   force =     0.00031902   -0.00065709    0.00069382
     atom   14 type  1   force =    -0.00083855   -0.00054713    0.00003289
     atom   15 type  2   force =    -0.00029132   -0.00011012   -0.00001695
     atom   16 type  2   force =     0.00028434    0.00012007   -0.00054676
     atom   17 type  2   force =     0.00020635   -0.00019378   -0.00017405
     atom   18 type  2   force =    -0.00040153   -0.00035594   -0.00048853
     atom   19 type  1   force =     0.00062644   -0.00036993   -0.00009962
     atom   20 type  1   force =    -0.00010342   -0.00021521   -0.00014739
     atom   21 type  2   force =     0.00005442   -0.00006504    0.09973296
     atom   22 type  2   force =     0.00006080   -0.00035227    0.00051072
     atom   23 type  2   force =    -0.07927428   -0.00009166   -0.03248550
     atom   24 type  2   force =     0.07914715    0.00035829   -0.03250776
     atom   25 type  1   force =     0.00000762   -0.00050120    0.12412307
     atom   26 type  1   force =    -0.00015629   -0.00044126   -0.16062091
     atom   27 type  2   force =     0.00029517   -0.00031743   -0.06769929
     atom   28 type  2   force =    -0.00002373   -0.00001552    0.02721295
     atom   29 type  2   force =    -0.01711222    0.00187492   -0.00887083
     atom   30 type  2   force =     0.01844985    0.00226227   -0.00976607
     atom   31 type  1   force =     0.00058350   -0.00093501    0.02176216
     atom   32 type  1   force =    -0.00011599    0.00053088    0.11260517
     atom   33 type  2   force =     0.00026225   -0.00064155   -0.00046378
     atom   34 type  2   force =    -0.00273064    0.00315727   -0.07282159
     atom   35 type  2   force =    -0.00109380    0.00023190    0.00016243
     atom   36 type  2   force =     0.00084590    0.00008160    0.00027459
     atom   37 type  1   force =    -0.00008867   -0.00003193   -0.00015617
     atom   38 type  1   force =     0.00087402   -0.00026978   -0.00015349
     atom   39 type  2   force =    -0.00009324   -0.00052551    0.00004916
     atom   40 type  2   force =     0.00007425   -0.00012414   -0.00012003
     atom   41 type  2   force =     0.00019250   -0.00045746   -0.00010494
     atom   42 type  2   force =     0.00001500   -0.00013066   -0.00061059
     atom   43 type  1   force =     0.00015643    0.00068983    0.00071882
     atom   44 type  1   force =    -0.00057301   -0.00059999   -0.00026902
     atom   45 type  2   force =     0.00004506   -0.00006854    0.09975254
     atom   46 type  2   force =    -0.07928215   -0.00004362   -0.03247918
     atom   47 type  2   force =     0.07915577    0.00039943   -0.03249887
     atom   48 type  3   force =     0.00085443   -0.00074612    0.00062123
     atom   49 type  4   force =    -0.00308995    0.00293673    0.00187043
     atom   50 type  5   force =     0.00333262   -0.00314254   -0.00159377
     atom   51 type  5   force =     0.00027568   -0.00081205    0.00017152
     atom   52 type  5   force =    -0.00125119    0.00069457    0.00081095

     Total force =     0.425694     Total SCF correction =     0.000727
  @ DRIVER MODE: Message from server: STATUS
  @ DRIVER MODE: Message from server: GETFORCE
  @ DRIVER MODE: Returning v,forces,stress,ensemble

     Writing output data file ./calc.save/
  @ DRIVER MODE: Message from server: EXIT
  @ DRIVE MODE: Exiting

     General routines

     Parallel routines

   This run was terminated on:  21:58:35  15Jul2021

   JOB DONE.