     Program PWSCF v.6.7GPU starts on 12Oct2021 at 15: 8:18

     R & G space division:  proc/nbgrp/npool/nimage =       8
     Reading input from /storage/home/hcoda1/3/ntian30/research/carbon/ACS_vib/ads_slab/H2NNH2/out_0010/pw.inp
Warning: card &CELL ignored
Warning: card   CELL_DYNAMICS='IPI', ignored
Warning: card / ignored

     Current dimensions of program PWSCF are:
     Max number of different atomic species (ntypx) = 10
     Max number of k-points (npk) =  40000
     Max angular momentum in pseudopotentials (lmaxx) =  3
     Presently no symmetry can be used with electric field

     Message from routine cell_base_init:
     DEPRECATED: use true lattice parameter, not A to a.u. conversion factor

     IMPORTANT: XC functional enforced from input :
     Exchange-correlation= BEEF-VDW
                           (   1   4  43  14   2   0   0)
     Any further DFT definition will be discarded
     Please, verify this is what you really want

  @ DRIVER MODE: Connecting to
 qe_1139763_3181310.sched-torque.pace.gatech.eduyq_5ubha_scratch
  using UNIX socket
  @ DRIVER MODE: Message from server: STATUS
  @ DRIVER MODE: Message from server: INIT
  @ DRIVER MODE: Receiving replica           0          -1
  @ DRIVER MODE: Receiving encoded integer          25
  @ DRIVER MODE:  SCF:  T  FORCE:  T  STRESS:  F  VC:  F  ENSEMBLE:  F
  @ DRIVER MODE:  SCF:  T  FORCE:  T  STRESS:  F  VC:  F  ENSEMBLE:  F

     Using Slab Decomposition

     bravais-lattice index     =            0
     lattice parameter (alat)  =       1.8897  a.u.
     unit-cell volume          =    6658.9804 (a.u.)^3
     number of atoms/cell      =           53
     number of atomic types    =            4
     number of electrons       =       392.00
     number of Kohn-Sham states=          206
     kinetic-energy cutoff     =      29.3995  Ry
     charge density cutoff     =     293.9946  Ry
     scf convergence threshold =      7.3E-08
     mixing beta               =       0.0500
     number of iterations used =            8  plain     mixing
     Exchange-correlation= BEEF-VDW
                           (   1   4  43  14   2   0   0)

     celldm(1)=   1.889726  celldm(2)=   0.000000  celldm(3)=   0.000000
     celldm(4)=   0.000000  celldm(5)=   0.000000  celldm(6)=   0.000000

     crystal axes: (cart. coord. in units of alat)
               a(1) = (   6.579727   0.000000   0.000000 )
               a(2) = (  -0.000775   5.961596   0.000000 )
               a(3) = (   0.000000   0.000000  25.155947 )

     reciprocal axes: (cart. coord. in units 2 pi/alat)
               b(1) = (  0.151982  0.000020  0.000000 )
               b(2) = (  0.000000  0.167740  0.000000 )
               b(3) = (  0.000000  0.000000  0.039752 )

     PseudoPot. # 1 for Ti read from file:
     /storage/coda1/p-amedford6/0/shared/rich_project_chbe-medford/medford-share/data/pseudos_module/espresso/nninc/pbe/van/Ti.UPF
     MD5 check sum: 8e4df49b7f0d34bbd5052bf3f5ea0213
     Pseudo is Ultrasoft, Zval = 12.0
     Generated by new atomic code, or converted to UPF format
     Using radial grid of  851 points,  6 beta functions with:
                l(1) =   0
                l(2) =   0
                l(3) =   1
                l(4) =   1
                l(5) =   2
                l(6) =   2
     Q(r) pseudized with  8 coefficients,  rinner =    1.000   1.000   1.000
                                                       1.000   1.000

     PseudoPot. # 2 for O  read from file:
     /storage/coda1/p-amedford6/0/shared/rich_project_chbe-medford/medford-share/data/pseudos_module/espresso/nninc/pbe/van/O.UPF
     MD5 check sum: 78c19812648e8988a0fe644b0f25305e
     Pseudo is Ultrasoft, Zval =  6.0
     Generated by new atomic code, or converted to UPF format
     Using radial grid of  737 points,  4 beta functions with:
                l(1) =   0
                l(2) =   0
                l(3) =   1
                l(4) =   1
     Q(r) pseudized with  8 coefficients,  rinner =    0.800   0.800   0.800

     PseudoPot. # 3 for H  read from file:
     /storage/coda1/p-amedford6/0/shared/rich_project_chbe-medford/medford-share/data/pseudos_module/espresso/nninc/pbe/van/H.UPF
     MD5 check sum: b5ee9d7bfd3a09ee7748110bda690ff7
     Pseudo is Ultrasoft, Zval =  1.0
     Generated by new atomic code, or converted to UPF format
     Using radial grid of  615 points,  1 beta functions with:
                l(1) =   0
     Q(r) pseudized with  8 coefficients,  rinner =    0.800

     PseudoPot. # 4 for N  read from file:
     /storage/coda1/p-amedford6/0/shared/rich_project_chbe-medford/medford-share/data/pseudos_module/espresso/nninc/pbe/van/N.UPF
     MD5 check sum: 90d10febe142ad51ac9d5be1deb811c4
     Pseudo is Ultrasoft, Zval =  5.0
     Generated by new atomic code, or converted to UPF format
     Using radial grid of  729 points,  4 beta functions with:
                l(1) =   0
                l(2) =   0
                l(3) =   1
                l(4) =   1
     Q(r) pseudized with  8 coefficients,  rinner =    0.800   0.800   0.800

     atomic species   valence    mass     pseudopotential
        Ti1           12.00    47.86700     Ti( 1.00)
        O1             6.00    15.99900     O ( 1.00)
        H1             1.00     1.00800     H ( 1.00)
        N1             5.00    14.00700     N ( 1.00)

     No symmetry found

   Cartesian axes

     site n.     atom                  positions (alat units)
         1           Ti1 tau(   1) = (   0.0004258   2.9801865   6.0000000  )
         2           Ti1 tau(   2) = (   3.2906075   1.4906267   6.0002472  )
         3           O1  tau(   3) = (   0.0006271   0.0005054   7.9858123  )
         4           O1  tau(   4) = (   3.2906025   0.0005020   7.3038282  )
         5           O1  tau(   5) = (   4.5942328   1.4918067   9.2879030  )
         6           O1  tau(   6) = (   1.9868534   1.4903216   9.2879459  )
         7           Ti1 tau(   7) = (   3.2907910   2.8959150   9.1758416  )
         8           Ti1 tau(   8) = (   0.0001184   1.4796821   9.2618995  )
         9           O1  tau(   9) = (   3.3033009   5.9571037  11.3689245  )
        10           O1  tau(  10) = (   0.0046093   5.9606512  10.6148452  )
        11           O1  tau(  11) = (   1.3031693   1.4924284  12.6635891  )
        12           O1  tau(  12) = (   5.3048943   1.4931164  12.6630676  )
        13           Ti1 tau(  13) = (   0.0220873   2.9701805  12.5026553  )
        14           Ti1 tau(  14) = (   3.3209497   1.4853901  12.5165241  )
        15           O1  tau(  15) = (   0.0111090   5.9548334  14.6950652  )
        16           O1  tau(  16) = (   3.3059555   5.9578033  13.9930857  )
        17           O1  tau(  17) = (   4.5400856   1.4977043  16.1996482  )
        18           O1  tau(  18) = (   2.0449602   1.5055634  16.1912035  )
        19           Ti1 tau(  19) = (   3.3033294   2.9754315  15.7369611  )
        20           Ti1 tau(  20) = (   0.0669189   1.3514287  15.9855452  )
        21           O1  tau(  21) = (   3.2904802   0.0005063   4.7018136  )
        22           O1  tau(  22) = (   0.0169155   5.9572437  17.2386537  )
        23           O1  tau(  23) = (   1.3043587   1.4918075   6.0039043  )
        24           O1  tau(  24) = (   5.2767064   1.4903225   6.0039473  )
        25           Ti1 tau(  25) = (   0.0000382   5.9609847   6.0000000  )
        26           Ti1 tau(  26) = (   3.2902200   4.4714249   6.0002472  )
        27           O1  tau(  27) = (   0.0002396   2.9813036   7.9858123  )
        28           O1  tau(  28) = (   3.2902150   2.9813002   7.3038282  )
        29           O1  tau(  29) = (   4.5938453   4.4726049   9.2879030  )
        30           O1  tau(  30) = (   1.9864658   4.4711199   9.2879459  )
        31           Ti1 tau(  31) = (   3.2891106   5.8743827   9.1763621  )
        32           Ti1 tau(  32) = (  -0.0005703   4.4645639   9.2621285  )
        33           O1  tau(  33) = (   3.3036452   2.9764387  11.3618117  )
        34           O1  tau(  34) = (   0.0064946   2.9800876  10.6274040  )
        35           O1  tau(  35) = (   1.3025983   4.4627906  12.6614389  )
        36           O1  tau(  36) = (   5.3044333   4.4622094  12.6652126  )
        37           Ti1 tau(  37) = (   0.0242538   5.9517307  12.5043500  )
        38           Ti1 tau(  38) = (   3.3173473   4.4639239  12.5158395  )
        39           O1  tau(  39) = (   0.0133908   2.9741471  14.9664594  )
        40           O1  tau(  40) = (   3.3068033   2.9766936  13.9537582  )
        41           O1  tau(  41) = (   4.5624531   4.4468677  16.1922021  )
        42           O1  tau(  42) = (   2.0658021   4.4533190  16.1937748  )
        43           Ti1 tau(  43) = (   3.3070936   5.9559909  15.7859554  )
        44           Ti1 tau(  44) = (   6.5464735   4.5686029  15.9538643  )
        45           O1  tau(  45) = (   3.2900926   2.9813045   4.7018136  )
        46           O1  tau(  46) = (   1.3039711   4.4726057   6.0039043  )
        47           O1  tau(  47) = (   5.2763189   4.4711207   6.0039473  )
        48           H1  tau(  48) = (   6.1991321   4.2482542  18.7414658  )
        49           H1  tau(  49) = (   1.1283133   3.8495711  18.1715982  )
        50           N1  tau(  50) = (   0.1317752   3.6792193  18.0720352  )
        51           N1  tau(  51) = (   6.4315599   2.2892659  18.0961467  )
        52           H1  tau(  52) = (   5.4285218   2.1347736  18.1483859  )
        53           H1  tau(  53) = (   0.3235236   1.7579878  18.8239140  )

     number of k points=    10  Fermi-Dirac smearing, width (Ry)=  0.0073
                       cart. coord. in units 2pi/alat
        k(    1) = (   0.0000000   0.0000000   0.0000000), wk =   0.1250000
        k(    2) = (   0.0000000   0.0419351   0.0000000), wk =   0.2500000
        k(    3) = (   0.0000000  -0.0838702   0.0000000), wk =   0.1250000
        k(    4) = (   0.0379955   0.0000049   0.0000000), wk =   0.2500000
        k(    5) = (   0.0379955   0.0419400   0.0000000), wk =   0.2500000
        k(    6) = (   0.0379955  -0.0838652   0.0000000), wk =   0.2500000
        k(    7) = (   0.0379955  -0.0419301   0.0000000), wk =   0.2500000
        k(    8) = (  -0.0759910  -0.0000099   0.0000000), wk =   0.1250000
        k(    9) = (  -0.0759910   0.0419252   0.0000000), wk =   0.2500000
        k(   10) = (  -0.0759910  -0.0838800   0.0000000), wk =   0.1250000

     Initial potential from superposition of free atoms

     starting charge  375.99919, renormalised to  392.00000

     negative rho (up, down):  1.864E-02 0.000E+00

     %%%%%%%%%%%%%%%%%%%%%%%%%%%%%%%%%%%%%%%%%%%%%%%%%%%%%%%%%%%%%%%%%%%%%%%%
     %                                                                      %
     % You are using vdW-DF, which was implemented by the Thonhauser group. %
     % Please cite the following two papers that made this development      %
     % possible and the two reviews that describe the various versions:     %
     %                                                                      %
     %   T. Thonhauser et al., PRL 115, 136402 (2015).                      %
     %   T. Thonhauser et al., PRB 76, 125112 (2007).                       %
     %   K. Berland et al., Rep. Prog. Phys. 78, 066501 (2015).             %
     %   D.C. Langreth et al., J. Phys.: Condens. Matter 21, 084203 (2009). %
     %                                                                      %
     %                                                                      %
     % If you are calculating the stress with vdW-DF, please also cite:     %
     %                                                                      %
     %   R. Sabatini et al., J. Phys.: Condens. Matter 24, 424209 (2012).   %
     %                                                                      %
     %%%%%%%%%%%%%%%%%%%%%%%%%%%%%%%%%%%%%%%%%%%%%%%%%%%%%%%%%%%%%%%%%%%%%%%%

     Adding external electric field

     Computed dipole along edir(3) :
        Dipole               -7.0277 Ry au,        -17.8625 Debye
        Dipole field         -0.0133 Ry au,

        Potential amp.        1.2294 Ry
        Total length         46.3494 bohr

     Starting wfcs are  296 atomic wfcs
  @ DRIVER MODE: Message from server: STATUS
  @ DRIVER MODE: Message from server: POSDATA
  @ DRIVER MODE: Reading and sharing cell
  @ DRIVER MODE: Reading and sharing positions
  @ DRIVER MODE: Received positions

     Self-consistent Calculation

     iteration #  1     ecut=    29.40 Ry     beta= 0.05
     Davidson diagonalization with overlap
     c_bands:  1 eigenvalues not converged
     c_bands:  1 eigenvalues not converged
     c_bands:  2 eigenvalues not converged
     c_bands:  1 eigenvalues not converged
     c_bands:  1 eigenvalues not converged
     c_bands:  1 eigenvalues not converged
     ethr =  1.00E-05,  avg # of iterations = 19.6

[...]

     total energy              =   -2685.32330826 Ry
     estimated scf accuracy    <    2688.02440412 Ry

[...]

     iteration #  3     ecut=    29.40 Ry     beta= 0.05
     Davidson diagonalization with overlap
     ethr =  1.00E-02,  avg # of iterations = 15.7

[...]

     iteration # 58     ecut=    29.40 Ry     beta= 0.05
     Davidson diagonalization with overlap
     ethr =  1.62E-08,  avg # of iterations =  6.8

[...]

     total energy              =   -2928.89054980 Ry
     estimated scf accuracy    <       0.00000008 Ry

     iteration # 72     ecut=    29.40 Ry     beta= 0.05
     Davidson diagonalization with overlap
     c_bands:  1 eigenvalues not converged
     c_bands:  1 eigenvalues not converged
     ethr =  2.12E-11,  avg # of iterations = 11.1

     negative rho (up, down):  1.642E-02 0.000E+00

     Adding external electric field

     Computed dipole along edir(3) :
        Dipole                1.6246 Ry au,          4.1293 Debye
        Dipole field          0.0031 Ry au,

        Potential amp.       -0.2842 Ry
        Total length         46.3494 bohr

     End of self-consistent calculation

          k = 0.0000 0.0000 0.0000 ( 18029 PWs)   bands (ev):

   -55.3071 -55.2711 -55.2559 -55.2217 -55.1815 -55.1758 -55.1472 -55.1206
   -55.0995 -55.0892 -55.0860 -55.0811 -55.0554 -55.0265 -54.2850 -54.2510
   -31.8793 -31.7495 -31.6950 -31.6690 -31.6243 -31.6105 -31.6052 -31.5973
   -31.5473 -31.5462 -31.5176 -31.5157 -31.5018 -31.4799 -31.4641 -31.4508
   -31.4446 -31.4253 -31.4191 -31.4076 -31.3983 -31.3724 -31.3708 -31.3600
   -31.3519 -31.3236 -31.3123 -31.3120 -31.3050 -31.2986 -31.2939 -31.2898
   -31.2840 -31.2751 -31.2728 -31.2687 -31.2630 -31.2349 -31.2196 -31.2167
   -31.2011 -31.1308 -30.6943 -30.6005 -30.5785 -30.5108 -30.4240 -30.3130
   -18.6127 -16.1483 -15.8864 -15.7516 -15.5967 -15.5049 -15.4009 -15.3432
   -15.2371 -15.1554 -15.0684 -15.0556 -15.0313 -15.0045 -14.9655 -14.9321
   -14.8474 -14.8427 -14.8198 -14.7997 -14.7981 -14.7499 -14.7408 -14.7224
   -14.7019 -14.6811 -14.5469 -14.4616 -14.3936 -14.1321 -13.3239 -12.7880
   -12.6705  -7.5308  -7.0098  -5.5229  -3.4853  -3.3205  -3.2937  -3.2382
    -3.1997  -3.0596  -2.9457  -2.7259  -2.7015  -2.6218  -2.5868  -2.5388
    -2.5169  -2.4982  -2.3319  -2.3029  -2.2898  -2.2334  -2.1726  -2.1181
    -2.1033  -2.0992  -2.0881  -2.0695  -2.0645  -1.9449  -1.8700  -1.7962
    -1.7325  -1.6996  -1.6628  -1.6542  -1.6353  -1.5953  -1.5876  -1.5573
    -1.5431  -1.4970  -1.4687  -1.3392  -1.2872  -1.2156  -1.0290  -0.9415
    -0.8961  -0.8817  -0.8484  -0.8021  -0.7886  -0.6847  -0.6714  -0.6493
    -0.6043  -0.5407  -0.4844  -0.4335  -0.3638  -0.3047  -0.2959  -0.1920
    -0.0951  -0.0853  -0.0641   0.0330   0.0681   0.1159   0.1948   0.2115
     0.2235   0.3100   0.3523   0.3889   0.4274   0.4517   0.5754   0.6193
     0.6329   0.6471   0.6515   0.6771   0.7035   0.7685   0.7991   0.8684
     0.9939   1.0994   1.1672   1.2656   1.3084   1.6408   1.6444   1.7375
     1.9213   2.3121   2.3590   3.7937   3.8626   3.9367   3.9462   3.9558
     4.0280   4.1133   4.2670   4.2910   4.2991   4.3152

[...]

          k = 0.0380-0.0419 0.0000 ( 17876 PWs)   bands (ev):

[...]

          k =-0.0760-0.0000 0.0000 ( 17886 PWs)   bands (ev):

[...]

          k =-0.0760-0.0839 0.0000 ( 17948 PWs)   bands (ev):

   -55.2892 -55.2888 -55.2390 -55.2384 -55.1716 -55.1644 -55.1642 -55.1052
   -55.1034 -55.1008 -55.0742 -55.0737 -55.0710 -55.0335 -54.2680 -54.2679
   -31.6832 -31.6813 -31.6027 -31.5910 -31.5710 -31.5649 -31.5642 -31.5325
   -31.5308 -31.5107 -31.5080 -31.5062 -31.4999 -31.4447 -31.4418 -31.4387
   -31.4340 -31.4330 -31.4312 -31.4279 -31.3976 -31.3852 -31.3816 -31.3713
   -31.3578 -31.3575 -31.3568 -31.3566 -31.3433 -31.3391 -31.3345 -31.3263
   -31.3190 -31.3146 -31.3031 -31.2991 -31.2990 -31.2902 -31.2707 -31.2560
   -31.2542 -31.2360 -30.5912 -30.5911 -30.5069 -30.5067 -30.4674 -30.4674
   -18.5976 -15.5929 -15.5717 -15.5306 -15.3362 -15.3260 -15.3129 -15.3098
   -15.2072 -15.1927 -15.1206 -15.0959 -15.0488 -15.0290 -15.0133 -15.0118
   -14.9190 -14.8994 -14.8938 -14.8914 -14.8208 -14.8126 -14.8043 -14.7953
   -14.7650 -14.7582 -14.6562 -14.6535 -14.6241 -14.6053 -13.1538 -12.7721
   -12.7720  -7.5303  -7.0351  -5.5746  -3.0535  -2.8607  -2.7870  -2.7112
    -2.5537  -2.5331  -2.4929  -2.3825  -2.3436  -2.3296  -2.3225  -2.2909
    -2.2384  -2.2196  -2.2087  -2.1475  -2.1454  -2.1255  -2.1164  -2.0908
    -2.0791  -2.0356  -2.0269  -2.0080  -1.9705  -1.9540  -1.9297  -1.9049
    -1.8996  -1.8818  -1.8238  -1.7910  -1.6831  -1.6695  -1.6065  -1.5129
    -1.5055  -1.4238  -1.3962  -1.3617  -1.3394  -1.3372  -1.2177  -1.1359
    -1.0818  -1.0503  -1.0434  -0.9344  -0.8979  -0.8161  -0.8030  -0.7897
    -0.7319  -0.6484  -0.6257  -0.6090  -0.5253  -0.4627  -0.4544  -0.3599
    -0.3377  -0.2747  -0.2615  -0.2598  -0.2176  -0.1990  -0.1718  -0.1129
    -0.0769  -0.0398  -0.0180   0.0215   0.2183   0.2391   0.2625   0.3924
     0.5106   0.5325   0.5669   0.6044   0.6989   0.7639   0.8037   0.8501
     0.9005   0.9862   0.9955   1.0902   1.0965   1.1518   1.1584   2.0940
     2.0949   2.1798   2.1807   3.9636   4.0057   4.0660   4.0957   4.1788
     4.3072   4.3228   4.3767   4.3787   4.4450   4.4493

     the Fermi energy is     3.8568 ev

!    total energy              =   -2928.89056258 Ry
     estimated scf accuracy    <       0.00000004 Ry
     smearing contrib. (-TS)   =      -0.03700489 Ry
     internal energy E=F+TS    =   -2928.85355769 Ry

     The total energy is F=E-TS. E is the sum of the following terms:
     one-electron contribution =  -24386.93833588 Ry
     hartree contribution      =   12284.99341027 Ry
     xc contribution           =    -482.74292297 Ry
     ewald contribution        =    9655.82931017 Ry
     electric field correction =       0.00498071 Ry

     convergence has been achieved in  72 iterations

     Forces acting on atoms (cartesian axes, Ry/au):

     atom    1 type  1   force =     0.00007681   -0.00018276    0.09194766
     atom    2 type  1   force =    -0.00017908   -0.00022129   -0.17805800
     atom    3 type  2   force =     0.00000608   -0.00049960   -0.02213428
     atom    4 type  2   force =     0.00002934   -0.00184632    0.05825695
     atom    5 type  2   force =    -0.01042249   -0.00081435    0.00667803
     atom    6 type  2   force =     0.01171819   -0.00036841    0.00700095
     atom    7 type  1   force =    -0.00031560    0.00236933   -0.01477548
     atom    8 type  1   force =     0.00006520    0.00001203    0.00014863
     atom    9 type  2   force =    -0.00010655   -0.00011607   -0.00082690
     atom   10 type  2   force =     0.00012381   -0.00005057    0.00051832
     atom   11 type  2   force =     0.00011663   -0.00006474   -0.00027071
     atom   12 type  2   force =    -0.00032673   -0.00005471   -0.00018381
     atom   13 type  1   force =     0.00006291    0.00019805    0.00013050
     atom   14 type  1   force =    -0.00009653   -0.00010518   -0.00012718
     atom   15 type  2   force =     0.00023158    0.00015262    0.00076441
     atom   16 type  2   force =    -0.00010009    0.00007552   -0.00027405
     atom   17 type  2   force =    -0.00031353   -0.00009363    0.00029404
     atom   18 type  2   force =     0.00063227   -0.00016049    0.00034614
     atom   19 type  1   force =    -0.00003222   -0.00005775    0.00043890
     atom   20 type  1   force =    -0.00080021   -0.00041181    0.00055680
     atom   21 type  2   force =     0.00000678   -0.00002813    0.10388607
     atom   22 type  2   force =     0.00001225    0.00032571   -0.00107284
     atom   23 type  2   force =    -0.07047027   -0.00020270   -0.02663743
     atom   24 type  2   force =     0.07031484    0.00022090   -0.02669386
     atom   25 type  1   force =     0.00003140   -0.00013065    0.09065438
     atom   26 type  1   force =    -0.00018224   -0.00036604   -0.17821368
     atom   27 type  2   force =     0.00000651   -0.00018256   -0.02113574
     atom   28 type  2   force =     0.00006232   -0.00153219    0.05747276
     atom   29 type  2   force =    -0.01049866   -0.00097439    0.00672815
     atom   30 type  2   force =     0.01166476   -0.00039662    0.00703587
     atom   31 type  1   force =    -0.00036513    0.00548688   -0.01571039
     atom   32 type  1   force =     0.00004045    0.00000909    0.00008143
     atom   33 type  2   force =    -0.00010645   -0.00008709   -0.00052960
     atom   34 type  2   force =    -0.00003079    0.00000534    0.00021633
     atom   35 type  2   force =     0.00015861   -0.00021257   -0.00014258
     atom   36 type  2   force =    -0.00037107   -0.00019026   -0.00014109
     atom   37 type  1   force =     0.00003423   -0.00007136    0.00075053
     atom   38 type  1   force =    -0.00016036   -0.00037987   -0.00010106
     atom   39 type  2   force =     0.00000800    0.00003295   -0.00008964
     atom   40 type  2   force =    -0.00039271   -0.00004573   -0.00024890
     atom   41 type  2   force =    -0.00060420    0.00006025    0.00028717
     atom   42 type  2   force =     0.00035125    0.00011408    0.00064044
     atom   43 type  1   force =    -0.00011320   -0.00008248   -0.00021029
     atom   44 type  1   force =     0.00010528    0.00087583    0.00123736
     atom   45 type  2   force =     0.00000755   -0.00004291    0.10385754
     atom   46 type  2   force =    -0.07047562   -0.00002751   -0.02668103
     atom   47 type  2   force =     0.07032660    0.00043612   -0.02671500
     atom   48 type  3   force =    -0.00014223   -0.00072516    0.00017953
     atom   49 type  3   force =    -0.00105926   -0.00282133   -0.00047664
     atom   50 type  4   force =    -0.00021523    0.00186856    0.00142819
     atom   51 type  4   force =     0.00020333    0.00079188    0.00030325
     atom   52 type  3   force =     0.00144137    0.00076134   -0.00005527
     atom   53 type  3   force =     0.00004211   -0.00024925   -0.00033490

     Total force =     0.365020     Total SCF correction =     0.000490
  @ DRIVER MODE: Message from server: STATUS
  @ DRIVER MODE: Message from server: GETFORCE
  @ DRIVER MODE: Returning v,forces,stress,ensemble

     Writing output data file ./calc.save/
  @ DRIVER MODE: Message from server: EXIT
  @ DRIVE MODE: Exiting

     General routines

     Parallel routines

   This run was terminated on:  16: 0:59  12Oct2021

   JOB DONE.