     Program PWSCF v.6.7GPU starts on 23Sep2021 at 12:28:44

     R & G space division:  proc/nbgrp/npool/nimage =       8
     Reading input from /storage/home/hcoda1/3/ntian30/research/carbon/CxH_vib/H2O_calc/ads_slab/CH2OHO_c/out_0036/pw.inp
Warning: card &CELL ignored
Warning: card   CELL_DYNAMICS='IPI', ignored
Warning: card / ignored

     Current dimensions of program PWSCF are:
     Max number of different atomic species (ntypx) = 10
     Max number of k-points (npk) =  40000
     Max angular momentum in pseudopotentials (lmaxx) =  3
     Presently no symmetry can be used with electric field

     Message from routine cell_base_init:
     DEPRECATED: use true lattice parameter, not A to a.u. conversion factor

     IMPORTANT: XC functional enforced from input :
     Exchange-correlation= BEEF-VDW
                           (   1   4  43  14   2   0   0)
     Any further DFT definition will be discarded
     Please, verify this is what you really want

  @ DRIVER MODE: Connecting to
 qe_1139763_2941011.sched-torque.pace.gatech.eduqmbxasr8_scratch
  using UNIX socket
  @ DRIVER MODE: Message from server: STATUS
  @ DRIVER MODE: Message from server: INIT
  @ DRIVER MODE: Receiving replica           0          -1
  @ DRIVER MODE: Receiving encoded integer          25
  @ DRIVER MODE:  SCF:  T  FORCE:  T  STRESS:  F  VC:  F  ENSEMBLE:  F
  @ DRIVER MODE:  SCF:  T  FORCE:  T  STRESS:  F  VC:  F  ENSEMBLE:  F

     Using Slab Decomposition

     bravais-lattice index     =            0
     lattice parameter (alat)  =       1.8897  a.u.
     unit-cell volume          =    6658.9804 (a.u.)^3
     number of atoms/cell      =           53
     number of atomic types    =            4
     number of electrons       =       397.00
     number of Kohn-Sham states=          208
     kinetic-energy cutoff     =      29.3995  Ry
     charge density cutoff     =     293.9946  Ry
     scf convergence threshold =      7.3E-08
     mixing beta               =       0.0500
     number of iterations used =            8  plain     mixing
     Exchange-correlation= BEEF-VDW
                           (   1   4  43  14   2   0   0)

     celldm(1)=   1.889726  celldm(2)=   0.000000  celldm(3)=   0.000000
     celldm(4)=   0.000000  celldm(5)=   0.000000  celldm(6)=   0.000000

     crystal axes: (cart. coord. in units of alat)
               a(1) = (   6.579727   0.000000   0.000000 )
               a(2) = (  -0.000775   5.961596   0.000000 )
               a(3) = (   0.000000   0.000000  25.155947 )

     reciprocal axes: (cart. coord. in units 2 pi/alat)
               b(1) = (  0.151982  0.000020  0.000000 )
               b(2) = (  0.000000  0.167740  0.000000 )
               b(3) = (  0.000000  0.000000  0.039752 )

     PseudoPot. # 1 for O  read from file:
     /storage/coda1/p-amedford6/0/shared/rich_project_chbe-medford/medford-share/data/pseudos_module/espresso/nninc/pbe/van/O.UPF
     MD5 check sum: 78c19812648e8988a0fe644b0f25305e
     Pseudo is Ultrasoft, Zval =  6.0
     Generated by new atomic code, or converted to UPF format
     Using radial grid of  737 points,  4 beta functions with:
                l(1) =   0
                l(2) =   0
                l(3) =   1
                l(4) =   1
     Q(r) pseudized with  8 coefficients,  rinner =    0.800   0.800   0.800

     PseudoPot. # 2 for Ti read from file:
     /storage/coda1/p-amedford6/0/shared/rich_project_chbe-medford/medford-share/data/pseudos_module/espresso/nninc/pbe/van/Ti.UPF
     MD5 check sum: 8e4df49b7f0d34bbd5052bf3f5ea0213
     Pseudo is Ultrasoft, Zval = 12.0
     Generated by new atomic code, or converted to UPF format
     Using radial grid of  851 points,  6 beta functions with:
                l(1) =   0
                l(2) =   0
                l(3) =   1
                l(4) =   1
                l(5) =   2
                l(6) =   2
     Q(r) pseudized with  8 coefficients,  rinner =    1.000   1.000   1.000
                                                       1.000   1.000

     PseudoPot. # 3 for C  read from file:
     /storage/coda1/p-amedford6/0/shared/rich_project_chbe-medford/medford-share/data/pseudos_module/espresso/nninc/pbe/van/C.UPF
     MD5 check sum: 1a69bf6b8db32088f5b2163dbdb77a27
     Pseudo is Ultrasoft, Zval =  4.0
     Generated by new atomic code, or converted to UPF format
     Using radial grid of  721 points,  4 beta functions with:
                l(1) =   0
                l(2) =   0
                l(3) =   1
                l(4) =   1
     Q(r) pseudized with  8 coefficients,  rinner =    0.800   0.800   0.800

     PseudoPot. # 4 for H  read from file:
     /storage/coda1/p-amedford6/0/shared/rich_project_chbe-medford/medford-share/data/pseudos_module/espresso/nninc/pbe/van/H.UPF
     MD5 check sum: b5ee9d7bfd3a09ee7748110bda690ff7
     Pseudo is Ultrasoft, Zval =  1.0
     Generated by new atomic code, or converted to UPF format
     Using radial grid of  615 points,  1 beta functions with:
                l(1) =   0
     Q(r) pseudized with  8 coefficients,  rinner =    0.800

     atomic species   valence    mass     pseudopotential
        O1             6.00    15.99900     O ( 1.00)
        Ti1           12.00    47.86700     Ti( 1.00)
        C1             4.00    12.01100     C ( 1.00)
        H1             1.00     1.00800     H ( 1.00)

     No symmetry found

   Cartesian axes

     site n.     atom                  positions (alat units)
         1           O1  tau(   1) = (   3.2904802   0.0005063   4.7018136  )
         2           O1  tau(   2) = (   3.2900926   2.9813045   4.7018136  )
         3           Ti1 tau(   3) = (   0.0004258   2.9801865   6.0000000  )
         4           Ti1 tau(   4) = (   0.0000382   5.9609847   6.0000000  )
         5           Ti1 tau(   5) = (   3.2906075   1.4906267   6.0002472  )
         6           Ti1 tau(   6) = (   3.2902200   4.4714249   6.0002472  )
         7           O1  tau(   7) = (   1.3043587   1.4918075   6.0039043  )
         8           O1  tau(   8) = (   1.3039711   4.4726057   6.0039043  )
         9           O1  tau(   9) = (   5.2767064   1.4903225   6.0039473  )
        10           O1  tau(  10) = (   5.2763189   4.4711207   6.0039473  )
        11           O1  tau(  11) = (   3.2906025   0.0005020   7.3038282  )
        12           O1  tau(  12) = (   3.2902150   2.9813002   7.3038282  )
        13           O1  tau(  13) = (   0.0006271   0.0005054   7.9858123  )
        14           O1  tau(  14) = (   0.0002396   2.9813036   7.9858123  )
        15           Ti1 tau(  15) = (   3.3202697   0.0919879   9.1698383  )
        16           Ti1 tau(  16) = (   3.3215697   3.0759731   9.1987478  )
        17           Ti1 tau(  17) = (   0.0419684   4.5271873   9.2680259  )
        18           Ti1 tau(  18) = (   0.0391189   1.6041453   9.3419098  )
        19           O1  tau(  19) = (   4.5942328   1.4918067   9.2879030  )
        20           O1  tau(  20) = (   4.5938453   4.4726049   9.2879030  )
        21           O1  tau(  21) = (   1.9868534   1.4903216   9.2879459  )
        22           O1  tau(  22) = (   1.9864658   4.4711199   9.2879459  )
        23           O1  tau(  23) = (   0.0125722   0.0097687  10.5830051  )
        24           O1  tau(  24) = (   0.0081120   2.9918398  10.5664780  )
        25           O1  tau(  25) = (   3.3077729   2.9680546  11.3050536  )
        26           O1  tau(  26) = (   3.3059260   0.0232323  11.3367354  )
        27           Ti1 tau(  27) = (   0.0233359   0.0627999  12.4784840  )
        28           Ti1 tau(  28) = (   3.3058864   4.6637881  12.6801991  )
        29           Ti1 tau(  29) = (   3.3037148   1.5793570  12.4293313  )
        30           Ti1 tau(  30) = (   0.0089448   3.0481173  12.7472709  )
        31           O1  tau(  31) = (   1.2933882   4.4692258  12.6303221  )
        32           O1  tau(  32) = (   1.2985301   1.4993897  12.6236677  )
        33           O1  tau(  33) = (   5.3274268   4.4793405  12.6275207  )
        34           O1  tau(  34) = (   5.3265499   1.4915365  12.6220616  )
        35           O1  tau(  35) = (   3.3295878   2.9786622  13.8932268  )
        36           O1  tau(  36) = (   3.3104420   5.9098017  13.9586718  )
        37           O1  tau(  37) = (   0.0385923   0.0024916  14.6531765  )
        38           O1  tau(  38) = (   0.0086518   2.9873893  14.7004014  )
        39           Ti1 tau(  39) = (   3.3201234   2.9526136  15.6695435  )
        40           Ti1 tau(  40) = (   3.4185286   5.9334276  16.2343674  )
        41           Ti1 tau(  41) = (   0.1049196   4.5923083  15.9423708  )
        42           Ti1 tau(  42) = (   0.0892020   1.3980244  15.8930203  )
        43           O1  tau(  43) = (   4.5900789   4.4270775  16.0984088  )
        44           O1  tau(  44) = (   4.5919070   1.5192920  16.0669747  )
        45           O1  tau(  45) = (   2.0372030   1.5514537  16.0349210  )
        46           O1  tau(  46) = (   2.0392294   4.4021701  16.0428288  )
        47           O1  tau(  47) = (   0.0638787   0.0130652  17.1658208  )
        48           O1  tau(  48) = (   6.5756481   2.9829514  17.4361268  )
        49           C1  tau(  49) = (   6.2652767   2.9703434  18.6584371  )
        50           H1  tau(  50) = (   6.1492679   3.9148029  19.1865895  )
        51           H1  tau(  51) = (   6.0998186   2.0156765  19.1535163  )
        52           O1  tau(  52) = (   3.1909063   0.0039016  18.0657888  )
        53           H1  tau(  53) = (   2.2823347   0.1153277  18.3995531  )

     number of k points=    10  Fermi-Dirac smearing, width (Ry)=  0.0073
                       cart. coord. in units 2pi/alat
        k(    1) = (   0.0000000   0.0000000   0.0000000), wk =   0.1250000
        k(    2) = (   0.0000000   0.0419351   0.0000000), wk =   0.2500000
        k(    3) = (   0.0000000  -0.0838702   0.0000000), wk =   0.1250000
        k(    4) = (   0.0379955   0.0000049   0.0000000), wk =   0.2500000
        k(    5) = (   0.0379955   0.0419400   0.0000000), wk =   0.2500000
        k(    6) = (   0.0379955  -0.0838652   0.0000000), wk =   0.2500000
        k(    7) = (   0.0379955  -0.0419301   0.0000000), wk =   0.2500000
        k(    8) = (  -0.0759910  -0.0000099   0.0000000), wk =   0.1250000
        k(    9) = (  -0.0759910   0.0419252   0.0000000), wk =   0.2500000
        k(   10) = (  -0.0759910  -0.0838800   0.0000000), wk =   0.1250000

     Initial potential from superposition of free atoms

     starting charge  380.99918, renormalised to  397.00000

     negative rho (up, down):  1.768E-02 0.000E+00

     %%%%%%%%%%%%%%%%%%%%%%%%%%%%%%%%%%%%%%%%%%%%%%%%%%%%%%%%%%%%%%%%%%%%%%%%
     %                                                                      %
     % You are using vdW-DF, which was implemented by the Thonhauser group. %
     % Please cite the following two papers that made this development      %
     % possible and the two reviews that describe the various versions:     %
     %                                                                      %
     %   T. Thonhauser et al., PRL 115, 136402 (2015).                      %
     %   T. Thonhauser et al., PRB 76, 125112 (2007).                       %
     %   K. Berland et al., Rep. Prog. Phys. 78, 066501 (2015).             %
     %   D.C. Langreth et al., J. Phys.: Condens. Matter 21, 084203 (2009). %
     %                                                                      %
     %                                                                      %
     % If you are calculating the stress with vdW-DF, please also cite:     %
     %                                                                      %
     %   R. Sabatini et al., J. Phys.: Condens. Matter 24, 424209 (2012).   %
     %                                                                      %
     %%%%%%%%%%%%%%%%%%%%%%%%%%%%%%%%%%%%%%%%%%%%%%%%%%%%%%%%%%%%%%%%%%%%%%%%

     Adding external electric field

     Computed dipole along edir(3) :
        Dipole               -8.4010 Ry au,        -21.3531 Debye
        Dipole field         -0.0159 Ry au,

        Potential amp.        1.4696 Ry
        Total length         46.3494 bohr

     Starting wfcs are  299 atomic wfcs
  @ DRIVER MODE: Message from server: STATUS
  @ DRIVER MODE: Message from server: POSDATA
  @ DRIVER MODE: Reading and sharing cell
  @ DRIVER MODE: Reading and sharing positions
  @ DRIVER MODE: Received positions

     Self-consistent Calculation

     iteration #  1     ecut=    29.40 Ry     beta= 0.05
     Davidson diagonalization with overlap
     c_bands:  1 eigenvalues not converged
     c_bands:  1 eigenvalues not converged
     c_bands:  1 eigenvalues not converged
     c_bands:  1 eigenvalues not converged
     ethr =  1.00E-05,  avg # of iterations = 18.2

[...]

     total energy              =   -2610.75727978 Ry
     estimated scf accuracy    <    3908.91142807 Ry

     iteration #  2     ecut=    29.40 Ry     beta= 0.05
     Davidson diagonalization with overlap
     ethr =  1.00E-02,  avg # of iterations = 23.3

[...]

     iteration # 54     ecut=    29.40 Ry     beta= 0.05
     Davidson diagonalization with overlap
     c_bands:  1 eigenvalues not converged
     c_bands:  1 eigenvalues not converged
     c_bands:  1 eigenvalues not converged
     c_bands:  1 eigenvalues not converged
     ethr =  4.74E-07,  avg # of iterations = 16.8

[...]

     total energy              =   -2963.78476152 Ry
     estimated scf accuracy    <       0.00000009 Ry

     iteration # 74     ecut=    29.40 Ry     beta= 0.05
     Davidson diagonalization with overlap
     ethr =  2.28E-11,  avg # of iterations =  5.2

     negative rho (up, down):  1.716E-02 0.000E+00

     Adding external electric field

     Computed dipole along edir(3) :
        Dipole                0.8877 Ry au,          2.2563 Debye
        Dipole field          0.0017 Ry au,

        Potential amp.       -0.1553 Ry
        Total length         46.3494 bohr

     End of self-consistent calculation

          k = 0.0000 0.0000 0.0000 ( 18029 PWs)   bands (ev):

   -55.9272 -55.8861 -55.7849 -55.7065 -55.6725 -55.6660 -55.6545 -55.5996
   -55.5629 -55.5429 -55.5211 -55.4848 -55.4641 -55.3728 -54.7718 -54.7378
   -32.3793 -32.2463 -32.2212 -32.1849 -32.1837 -32.1344 -32.1231 -32.0858
   -32.0665 -32.0136 -32.0104 -32.0025 -31.9988 -31.9912 -31.9721 -31.9552
   -31.9387 -31.9276 -31.8858 -31.8821 -31.8685 -31.8524 -31.8478 -31.8355
   -31.8081 -31.8039 -31.7764 -31.7697 -31.7674 -31.7569 -31.7447 -31.7390
   -31.7340 -31.7229 -31.6993 -31.6866 -31.6812 -31.6562 -31.6370 -31.6196
   -31.5787 -31.5775 -31.1741 -31.0984 -31.0751 -30.9912 -30.9053 -30.7939
   -20.2047 -16.5509 -16.4205 -16.2499 -16.0596 -15.9661 -15.9042 -15.6903
   -15.6355 -15.5370 -15.4164 -15.3814 -15.3366 -15.3106 -15.2925 -15.2773
   -15.2615 -15.2429 -15.2098 -15.1885 -15.1828 -15.1388 -15.0703 -15.0240
   -15.0151 -14.9759 -14.9169 -14.8752 -14.8372 -14.7982 -14.6215 -13.2726
   -13.1589  -9.4671  -5.7796  -5.7230  -4.1591  -3.7925  -3.7654  -3.7351
    -3.6495  -3.6108  -3.5068  -3.3421  -3.1606  -3.0327  -2.9429  -2.9252
    -2.8862  -2.7736  -2.7227  -2.6909  -2.6469  -2.6184  -2.5997  -2.5574
    -2.5348  -2.4946  -2.4619  -2.4337  -2.3426  -2.3354  -2.2746  -2.2138
    -2.1811  -2.1726  -2.1671  -2.1439  -2.1089  -2.0544  -2.0189  -1.9845
    -1.9469  -1.8288  -1.8116  -1.7959  -1.7237  -1.4818  -1.3517  -1.3114
    -1.2573  -1.2148  -1.1913  -1.1664  -1.1614  -1.1423  -1.1102  -1.0601
    -0.9572  -0.8989  -0.8288  -0.8225  -0.8064  -0.7429  -0.6639  -0.5927
    -0.5517  -0.5240  -0.5005  -0.4252  -0.4244  -0.3512  -0.3204  -0.2486
    -0.1339  -0.0866  -0.0628  -0.0446  -0.0318   0.0216   0.0682   0.1366
     0.1554   0.1716   0.2000   0.2797   0.2897   0.3125   0.3308   0.4269
     0.4911   0.4996   0.5681   0.6601   0.6931   0.7757   0.9035   0.9801
     1.2256   1.2501   1.3354   1.4657   1.8117   1.8557   3.2882   3.3591
     3.3963   3.4972   3.5801   3.5995   3.6776   3.7374   3.8252   3.8690

[...]

          k = 0.0380-0.0419 0.0000 ( 17876 PWs)   bands (ev):

[...]

          k =-0.0760-0.0000 0.0000 ( 17886 PWs)   bands (ev):

[...]

          k =-0.0760-0.0839 0.0000 ( 17948 PWs)   bands (ev):

   -55.9183 -55.8949 -55.7839 -55.6931 -55.6857 -55.6635 -55.6483 -55.6057
   -55.5637 -55.5451 -55.5097 -55.4963 -55.4610 -55.3758 -54.7552 -54.7541
   -32.2153 -32.2044 -32.1847 -32.1786 -32.1563 -32.0572 -32.0450 -32.0436
   -32.0281 -32.0160 -32.0090 -32.0017 -31.9993 -31.9539 -31.9483 -31.9208
   -31.9042 -31.9019 -31.8961 -31.8828 -31.8795 -31.8743 -31.8714 -31.8652
   -31.8555 -31.8419 -31.8185 -31.8092 -31.8018 -31.7985 -31.7715 -31.7606
   -31.7495 -31.7289 -31.7253 -31.7237 -31.7200 -31.7182 -31.6797 -31.6596
   -31.6221 -31.5813 -31.0885 -31.0874 -30.9885 -30.9868 -30.9486 -30.9473
   -20.1988 -16.5134 -15.9336 -15.8791 -15.7293 -15.7026 -15.6589 -15.6040
   -15.5461 -15.5043 -15.4942 -15.4578 -15.4388 -15.4144 -15.3922 -15.3653
   -15.3395 -15.2931 -15.2856 -15.2388 -15.2295 -15.2097 -15.1834 -15.1518
   -15.0980 -15.0849 -15.0644 -15.0332 -15.0121 -14.9233 -14.7583 -13.2624
   -13.2603  -9.4689  -5.7660  -5.7091  -4.1232  -3.7863  -3.1703  -3.0981
    -2.9528  -2.8750  -2.8085  -2.7869  -2.7708  -2.7400  -2.6749  -2.6543
    -2.5996  -2.5947  -2.5864  -2.5762  -2.5618  -2.5192  -2.4900  -2.4749
    -2.4681  -2.4495  -2.4219  -2.4077  -2.3942  -2.3823  -2.3721  -2.3655
    -2.3134  -2.2501  -2.1696  -2.1218  -2.1026  -1.9795  -1.9616  -1.9017
    -1.8889  -1.8816  -1.8503  -1.8463  -1.7735  -1.7187  -1.5646  -1.5476
    -1.5083  -1.4468  -1.4147  -1.3285  -1.3122  -1.2766  -1.2300  -1.2185
    -1.1951  -1.1744  -1.0757  -0.9971  -0.9559  -0.9162  -0.8038  -0.7880
    -0.7727  -0.7088  -0.6870  -0.6776  -0.6695  -0.6050  -0.5433  -0.4953
    -0.4770  -0.4407  -0.4194  -0.3721  -0.3139  -0.2356  -0.1649  -0.0948
    -0.0643   0.0431   0.1219   0.1580   0.2717   0.3283   0.3577   0.3856
     0.4541   0.5099   0.5284   0.6120   0.6827   0.7024   0.7601   0.7930
     0.8324   0.8671   1.6218   1.6348   1.6665   1.6772   3.2515   3.7783
     3.7882   3.8019   3.8208   3.8459   3.8688   3.9548   4.0040   4.0079

     the Fermi energy is     3.2283 ev

!    total energy              =   -2963.78477717 Ry
     estimated scf accuracy    <       0.00000005 Ry
     smearing contrib. (-TS)   =      -0.01873416 Ry
     internal energy E=F+TS    =   -2963.76604301 Ry

     The total energy is F=E-TS. E is the sum of the following terms:
     one-electron contribution =  -24351.58963108 Ry
     hartree contribution      =   12265.93108729 Ry
     xc contribution           =    -489.27061412 Ry
     ewald contribution        =    9611.16162778 Ry
     electric field correction =       0.00148712 Ry

     convergence has been achieved in  74 iterations

     Forces acting on atoms (cartesian axes, Ry/au):

     atom    1 type  1   force =    -0.00006907    0.00012714    0.10167917
     atom    2 type  1   force =    -0.00006704    0.00015744    0.10135706
     atom    3 type  2   force =    -0.00029451   -0.00136326    0.10432599
     atom    4 type  2   force =    -0.00023418    0.00134563    0.11679677
     atom    5 type  2   force =    -0.00034280    0.00600029   -0.16908717
     atom    6 type  2   force =    -0.00007789   -0.00499866   -0.16914935
     atom    7 type  1   force =    -0.07474657    0.00068068   -0.03017425
     atom    8 type  1   force =    -0.07428322   -0.00133389   -0.03017613
     atom    9 type  1   force =     0.07442104    0.00121646   -0.03022165
     atom   10 type  1   force =     0.07409746   -0.00091710   -0.03024202
     atom   11 type  1   force =     0.00083374    0.00106224    0.04728639
     atom   12 type  1   force =     0.00077838    0.00082482    0.04928663
     atom   13 type  1   force =     0.00026542   -0.00563145   -0.03767905
     atom   14 type  1   force =     0.00053915    0.00416736   -0.03207097
     atom   15 type  2   force =    -0.00044399    0.00078517   -0.00016515
     atom   16 type  2   force =    -0.00039141   -0.00081511   -0.00017064
     atom   17 type  2   force =     0.00029436   -0.00003767    0.00051936
     atom   18 type  2   force =     0.00026634    0.00013935    0.00105569
     atom   19 type  1   force =    -0.00989800   -0.00202593    0.00042232
     atom   20 type  1   force =    -0.00988097    0.00493120    0.00133467
     atom   21 type  1   force =     0.01190525   -0.00463515    0.00142772
     atom   22 type  1   force =     0.01107735    0.00174974    0.00190831
     atom   23 type  1   force =    -0.00025006    0.00002576    0.00019738
     atom   24 type  1   force =    -0.00027107    0.00003281   -0.00038386
     atom   25 type  1   force =    -0.00036717   -0.00041206   -0.00038920
     atom   26 type  1   force =    -0.00021449   -0.00006705   -0.00007333
     atom   27 type  2   force =    -0.00031540   -0.00021915   -0.00002718
     atom   28 type  2   force =     0.00016194   -0.00025746    0.00052854
     atom   29 type  2   force =     0.00033614   -0.00039764   -0.00075387
     atom   30 type  2   force =    -0.00016148    0.00029701    0.00014190
     atom   31 type  1   force =     0.00002354    0.00056983    0.00025437
     atom   32 type  1   force =     0.00039950    0.00018760   -0.00005172
     atom   33 type  1   force =    -0.00032367    0.00031387    0.00061956
     atom   34 type  1   force =    -0.00089041    0.00054491    0.00014450
     atom   35 type  1   force =    -0.00045807   -0.00046454   -0.00084264
     atom   36 type  1   force =    -0.00018440   -0.00018138    0.00008364
     atom   37 type  1   force =    -0.00014494   -0.00038292    0.00035987
     atom   38 type  1   force =     0.00039057    0.00030273    0.00008874
     atom   39 type  2   force =    -0.00006267    0.00023820    0.00069940
     atom   40 type  2   force =    -0.00049513   -0.00032550    0.00076117
     atom   41 type  2   force =    -0.00012365    0.00028737    0.00038133
     atom   42 type  2   force =    -0.00023228   -0.00024637    0.00010670
     atom   43 type  1   force =     0.00023224   -0.00010757   -0.00023675
     atom   44 type  1   force =    -0.00045172   -0.00003023   -0.00030777
     atom   45 type  1   force =     0.00077960    0.00004855   -0.00025364
     atom   46 type  1   force =    -0.00036447   -0.00010873   -0.00029023
     atom   47 type  1   force =     0.00020689   -0.00059724    0.00024249
     atom   48 type  1   force =    -0.00018582    0.00022992    0.00010338
     atom   49 type  3   force =    -0.00030012    0.00003064   -0.00008346
     atom   50 type  4   force =    -0.00069982    0.00016473    0.00026445
     atom   51 type  4   force =    -0.00035660   -0.00049089    0.00048621
     atom   52 type  1   force =    -0.00646841    0.00098353    0.00376342
     atom   53 type  4   force =     0.00704260   -0.00139802   -0.00379711

     Total force =     0.368804     Total SCF correction =     0.000656
  @ DRIVER MODE: Message from server: STATUS
  @ DRIVER MODE: Message from server: GETFORCE
  @ DRIVER MODE: Returning v,forces,stress,ensemble

     Writing output data file ./calc.save/
  @ DRIVER MODE: Message from server: EXIT
  @ DRIVE MODE: Exiting

     General routines

     Parallel routines

   This run was terminated on:  12:53:17  23Sep2021

   JOB DONE.