     Program PWSCF v.6.7GPU starts on 18Aug2021 at 17:32:29

     R & G space division:  proc/nbgrp/npool/nimage =       6
     Reading input from /storage/home/hcoda1/3/ntian30/research/carbon/CH3_vib_side_on/ads_slab/CH3_a/out_0017/pw.inp
Warning: card &CELL ignored
Warning: card   CELL_DYNAMICS='IPI', ignored
Warning: card / ignored

     Current dimensions of program PWSCF are:
     Max number of different atomic species (ntypx) = 10
     Max number of k-points (npk) =  40000
     Max angular momentum in pseudopotentials (lmaxx) =  3
     Presently no symmetry can be used with electric field

     Message from routine cell_base_init:
     DEPRECATED: use true lattice parameter, not A to a.u. conversion factor

     IMPORTANT: XC functional enforced from input :
     Exchange-correlation= BEEF-VDW
                           (   1   4  43  14   2   0   0)
     Any further DFT definition will be discarded
     Please, verify this is what you really want

  @ DRIVER MODE: Connecting to
 qe_1139763_2594175.sched-torque.pace.gatech.edun7he6y8o_scratch
  using UNIX socket
  @ DRIVER MODE: Message from server: STATUS
  @ DRIVER MODE: Message from server: INIT
  @ DRIVER MODE: Receiving replica           0          -1
  @ DRIVER MODE: Receiving encoded integer          25
  @ DRIVER MODE:  SCF:  T  FORCE:  T  STRESS:  F  VC:  F  ENSEMBLE:  F
  @ DRIVER MODE:  SCF:  T  FORCE:  T  STRESS:  F  VC:  F  ENSEMBLE:  F

     Using Slab Decomposition

     bravais-lattice index     =            0
     lattice parameter (alat)  =       1.8897  a.u.
     unit-cell volume          =    6658.9804 (a.u.)^3
     number of atoms/cell      =           51
     number of atomic types    =            4
     number of electrons       =       385.00
     number of Kohn-Sham states=          202
     kinetic-energy cutoff     =      29.3995  Ry
     charge density cutoff     =     293.9946  Ry
     scf convergence threshold =      7.3E-08
     mixing beta               =       0.0500
     number of iterations used =            8  plain     mixing
     Exchange-correlation= BEEF-VDW
                           (   1   4  43  14   2   0   0)

     celldm(1)=   1.889726  celldm(2)=   0.000000  celldm(3)=   0.000000
     celldm(4)=   0.000000  celldm(5)=   0.000000  celldm(6)=   0.000000

     crystal axes: (cart. coord. in units of alat)
               a(1) = (   6.579727   0.000000   0.000000 )
               a(2) = (  -0.000775   5.961596   0.000000 )
               a(3) = (   0.000000   0.000000  25.155947 )

     reciprocal axes: (cart. coord. in units 2 pi/alat)
               b(1) = (  0.151982  0.000020  0.000000 )
               b(2) = (  0.000000  0.167740  0.000000 )
               b(3) = (  0.000000  0.000000  0.039752 )

     PseudoPot. # 1 for Ti read from file:
     /storage/coda1/p-amedford6/0/shared/rich_project_chbe-medford/medford-share/data/pseudos_module/espresso/nninc/pbe/van/Ti.UPF
     MD5 check sum: 8e4df49b7f0d34bbd5052bf3f5ea0213
     Pseudo is Ultrasoft, Zval = 12.0
     Generated by new atomic code, or converted to UPF format
     Using radial grid of  851 points,  6 beta functions with:
                l(1) =   0
                l(2) =   0
                l(3) =   1
                l(4) =   1
                l(5) =   2
                l(6) =   2
     Q(r) pseudized with  8 coefficients,  rinner =    1.000   1.000   1.000
                                                       1.000   1.000

     PseudoPot. # 2 for O  read from file:
     /storage/coda1/p-amedford6/0/shared/rich_project_chbe-medford/medford-share/data/pseudos_module/espresso/nninc/pbe/van/O.UPF
     MD5 check sum: 78c19812648e8988a0fe644b0f25305e
     Pseudo is Ultrasoft, Zval =  6.0
     Generated by new atomic code, or converted to UPF format
     Using radial grid of  737 points,  4 beta functions with:
                l(1) =   0
                l(2) =   0
                l(3) =   1
                l(4) =   1
     Q(r) pseudized with  8 coefficients,  rinner =    0.800   0.800   0.800

     PseudoPot. # 3 for C  read from file:
     /storage/coda1/p-amedford6/0/shared/rich_project_chbe-medford/medford-share/data/pseudos_module/espresso/nninc/pbe/van/C.UPF
     MD5 check sum: 1a69bf6b8db32088f5b2163dbdb77a27
     Pseudo is Ultrasoft, Zval =  4.0
     Generated by new atomic code, or converted to UPF format
     Using radial grid of  721 points,  4 beta functions with:
                l(1) =   0
                l(2) =   0
                l(3) =   1
                l(4) =   1
     Q(r) pseudized with  8 coefficients,  rinner =    0.800   0.800   0.800

     PseudoPot. # 4 for H  read from file:
     /storage/coda1/p-amedford6/0/shared/rich_project_chbe-medford/medford-share/data/pseudos_module/espresso/nninc/pbe/van/H.UPF
     MD5 check sum: b5ee9d7bfd3a09ee7748110bda690ff7
     Pseudo is Ultrasoft, Zval =  1.0
     Generated by new atomic code, or converted to UPF format
     Using radial grid of  615 points,  1 beta functions with:
                l(1) =   0
     Q(r) pseudized with  8 coefficients,  rinner =    0.800

     atomic species   valence    mass     pseudopotential
        Ti1           12.00    47.86700     Ti( 1.00)
        O1             6.00    15.99900     O ( 1.00)
        C1             4.00    12.01100     C ( 1.00)
        H1             1.00     1.00800     H ( 1.00)

     No symmetry found

   Cartesian axes

     site n.     atom                  positions (alat units)
         1           Ti1 tau(   1) = (   0.0004258   2.9801865   6.0000000  )
         2           Ti1 tau(   2) = (   3.2906075   1.4906267   6.0002472  )
         3           O1  tau(   3) = (   0.0006271   0.0005054   7.9858123  )
         4           O1  tau(   4) = (   3.2906025   0.0005020   7.3038282  )
         5           O1  tau(   5) = (   4.5942328   1.4918067   9.2879030  )
         6           O1  tau(   6) = (   1.9868534   1.4903216   9.2879459  )
         7           Ti1 tau(   7) = (   3.3226903   2.9514341   9.1576891  )
         8           Ti1 tau(   8) = (   0.0343464   1.5915341   9.3698150  )
         9           O1  tau(   9) = (   3.2914246   5.9565917  11.3520874  )
        10           O1  tau(  10) = (   0.0056322   0.0001635  10.6062760  )
        11           O1  tau(  11) = (   1.2817320   1.4815673  12.6483243  )
        12           O1  tau(  12) = (   5.2831613   1.4908443  12.6423163  )
        13           Ti1 tau(  13) = (   0.0382653   2.9371430  12.8126397  )
        14           Ti1 tau(  14) = (   3.3532929   1.4821923  12.4951370  )
        15           O1  tau(  15) = (   6.5662424   5.9331786  14.6600200  )
        16           O1  tau(  16) = (   3.2816364   5.9551084  13.9465949  )
        17           O1  tau(  17) = (   4.5315606   1.5040344  16.0986503  )
        18           O1  tau(  18) = (   2.0287349   1.4998145  16.0995964  )
        19           Ti1 tau(  19) = (   3.2668404   2.9769305  15.7222481  )
        20           Ti1 tau(  20) = (   6.5415330   1.4777109  16.1743724  )
        21           O1  tau(  21) = (   3.2904802   0.0005063   4.7018136  )
        22           O1  tau(  22) = (   6.5659521   0.0029676  17.1944956  )
        23           O1  tau(  23) = (   1.3043587   1.4918075   6.0039043  )
        24           O1  tau(  24) = (   5.2767064   1.4903225   6.0039473  )
        25           Ti1 tau(  25) = (   0.0000382   5.9609847   6.0000000  )
        26           Ti1 tau(  26) = (   3.2902200   4.4714249   6.0002472  )
        27           O1  tau(  27) = (   0.0002396   2.9813036   7.9858123  )
        28           O1  tau(  28) = (   3.2902150   2.9813002   7.3038282  )
        29           O1  tau(  29) = (   4.5938453   4.4726049   9.2879030  )
        30           O1  tau(  30) = (   1.9864658   4.4711199   9.2879459  )
        31           Ti1 tau(  31) = (   3.3086233   5.9367107   9.1526142  )
        32           Ti1 tau(  32) = (   0.0357814   4.5182409   9.2638332  )
        33           O1  tau(  33) = (   3.2921447   2.9709340  11.3500156  )
        34           O1  tau(  34) = (   0.0064783   2.9842416  10.5732297  )
        35           O1  tau(  35) = (   1.2836142   4.4569143  12.6423601  )
        36           O1  tau(  36) = (   5.2821634   4.4598214  12.6376843  )
        37           Ti1 tau(  37) = (   0.0453433   5.9192801  12.5257453  )
        38           Ti1 tau(  38) = (   3.3504828   4.4607682  12.4868234  )
        39           O1  tau(  39) = (   0.0004961   2.9772524  14.7247240  )
        40           O1  tau(  40) = (   3.2810368   2.9729593  13.9290527  )
        41           O1  tau(  41) = (   4.5304642   4.4591278  16.0913236  )
        42           O1  tau(  42) = (   2.0231910   4.4609068  16.0933517  )
        43           Ti1 tau(  43) = (   3.2586866   5.9546939  15.7393459  )
        44           Ti1 tau(  44) = (   6.5465221   4.6060206  15.8931146  )
        45           O1  tau(  45) = (   3.2900926   2.9813045   4.7018136  )
        46           O1  tau(  46) = (   1.3039711   4.4726057   6.0039043  )
        47           O1  tau(  47) = (   5.2763189   4.4711207   6.0039473  )
        48           C1  tau(  48) = (   6.5676456   2.8990966  17.8516705  )
        49           H1  tau(  49) = (   6.5659762   3.9554521  18.1205428  )
        50           H1  tau(  50) = (   0.8773746   2.4756544  18.3184787  )
        51           H1  tau(  51) = (   5.6845275   2.4719798  18.3396978  )

     number of k points=    10  Fermi-Dirac smearing, width (Ry)=  0.0073
                       cart. coord. in units 2pi/alat
        k(    1) = (   0.0000000   0.0000000   0.0000000), wk =   0.1250000
        k(    2) = (   0.0000000   0.0419351   0.0000000), wk =   0.2500000
        k(    3) = (   0.0000000  -0.0838702   0.0000000), wk =   0.1250000
        k(    4) = (   0.0379955   0.0000049   0.0000000), wk =   0.2500000
        k(    5) = (   0.0379955   0.0419400   0.0000000), wk =   0.2500000
        k(    6) = (   0.0379955  -0.0838652   0.0000000), wk =   0.2500000
        k(    7) = (   0.0379955  -0.0419301   0.0000000), wk =   0.2500000
        k(    8) = (  -0.0759910  -0.0000099   0.0000000), wk =   0.1250000
        k(    9) = (  -0.0759910   0.0419252   0.0000000), wk =   0.2500000
        k(   10) = (  -0.0759910  -0.0838800   0.0000000), wk =   0.1250000

     Initial potential from superposition of free atoms

     starting charge  368.99918, renormalised to  385.00000

     negative rho (up, down):  2.033E-02 0.000E+00

     %%%%%%%%%%%%%%%%%%%%%%%%%%%%%%%%%%%%%%%%%%%%%%%%%%%%%%%%%%%%%%%%%%%%%%%%
     %                                                                      %
     % You are using vdW-DF, which was implemented by the Thonhauser group. %
     % Please cite the following two papers that made this development      %
     % possible and the two reviews that describe the various versions:     %
     %                                                                      %
     %   T. Thonhauser et al., PRL 115, 136402 (2015).                      %
     %   T. Thonhauser et al., PRB 76, 125112 (2007).                       %
     %   K. Berland et al., Rep. Prog. Phys. 78, 066501 (2015).             %
     %   D.C. Langreth et al., J. Phys.: Condens. Matter 21, 084203 (2009). %
     %                                                                      %
     %                                                                      %
     % If you are calculating the stress with vdW-DF, please also cite:     %
     %                                                                      %
     %   R. Sabatini et al., J. Phys.: Condens. Matter 24, 424209 (2012).   %
     %                                                                      %
     %%%%%%%%%%%%%%%%%%%%%%%%%%%%%%%%%%%%%%%%%%%%%%%%%%%%%%%%%%%%%%%%%%%%%%%%

     Adding external electric field

     Computed dipole along edir(3) :
        Dipole               -1.9966 Ry au,         -5.0749 Debye
        Dipole field         -0.0038 Ry au,

        Potential amp.        0.3493 Ry
        Total length         46.3494 bohr

     Starting wfcs are  291 atomic wfcs
  @ DRIVER MODE: Message from server: STATUS
  @ DRIVER MODE: Message from server: POSDATA
  @ DRIVER MODE: Reading and sharing cell
  @ DRIVER MODE: Reading and sharing positions
  @ DRIVER MODE: Received positions

     Self-consistent Calculation

     iteration #  1     ecut=    29.40 Ry     beta= 0.05
     Davidson diagonalization with overlap
     c_bands:  2 eigenvalues not converged
     c_bands:  1 eigenvalues not converged
     c_bands:  3 eigenvalues not converged
     c_bands:  1 eigenvalues not converged
     ethr =  1.00E-05,  avg # of iterations = 18.5

[...]

     total energy              =   -2900.52591725 Ry
     estimated scf accuracy    <      12.60433415 Ry

     iteration #  2     ecut=    29.40 Ry     beta= 0.05
     Davidson diagonalization with overlap
     ethr =  3.27E-03,  avg # of iterations =  1.0

[...]

     iteration # 44     ecut=    29.40 Ry     beta= 0.05
     Davidson diagonalization with overlap
     c_bands:  1 eigenvalues not converged
     ethr =  3.87E-08,  avg # of iterations =  9.5

[...]

     total energy              =   -2899.02574432 Ry
     estimated scf accuracy    <       0.00000009 Ry

     iteration # 57     ecut=    29.40 Ry     beta= 0.05
     Davidson diagonalization with overlap
     ethr =  2.13E-11,  avg # of iterations =  1.5

     negative rho (up, down):  1.951E-02 0.000E+00

     Adding external electric field

     Computed dipole along edir(3) :
        Dipole                0.4669 Ry au,          1.1868 Debye
        Dipole field          0.0009 Ry au,

        Potential amp.       -0.0817 Ry
        Total length         46.3494 bohr

     End of self-consistent calculation

          k = 0.0000 0.0000 0.0000 ( 18029 PWs)   bands (ev):

   -56.2365 -56.2156 -56.1999 -56.1794 -56.1264 -56.1250 -56.0886 -56.0733
   -56.0034 -55.9971 -55.9647 -55.9603 -55.8916 -55.8700 -55.2529 -55.2189
   -32.7801 -32.7040 -32.6035 -32.5745 -32.5416 -32.5274 -32.5038 -32.4734
   -32.4638 -32.4593 -32.4448 -32.4414 -32.4380 -32.3980 -32.3971 -32.3630
   -32.3599 -32.3573 -32.3421 -32.3262 -32.3060 -32.3019 -32.2911 -32.2755
   -32.2739 -32.2540 -32.2495 -32.2395 -32.2319 -32.2249 -32.2170 -32.1891
   -32.1650 -32.1558 -32.1385 -32.1314 -32.1095 -32.0979 -32.0906 -32.0796
   -32.0754 -31.9718 -31.6632 -31.5652 -31.5428 -31.4796 -31.3936 -31.2825
   -16.9844 -16.6856 -16.5416 -16.3927 -16.3649 -16.2460 -16.0641 -15.9284
   -15.9141 -15.8395 -15.8116 -15.8062 -15.7760 -15.7579 -15.7501 -15.7428
   -15.6893 -15.6853 -15.6499 -15.6395 -15.6099 -15.5358 -15.5124 -15.4528
   -15.4113 -15.3546 -15.2596 -15.2312 -15.1977 -13.7539 -13.6355  -9.4979
    -4.3411  -4.1722  -4.1470  -4.1277  -4.0435  -3.8049  -3.7869  -3.5410
    -3.4181  -3.3969  -3.3725  -3.3681  -3.3207  -3.1805  -3.0905  -3.0660
    -3.0628  -3.0508  -3.0223  -3.0169  -2.9835  -2.9799  -2.9497  -2.9259
    -2.8999  -2.7308  -2.6536  -2.6471  -2.5968  -2.5375  -2.5230  -2.5041
    -2.4680  -2.4588  -2.4430  -2.4272  -2.3748  -2.2895  -2.2456  -2.1460
    -2.0665  -2.0360  -1.9447  -1.8542  -1.7795  -1.6885  -1.6615  -1.6358
    -1.5592  -1.5533  -1.4863  -1.4405  -1.4244  -1.3311  -1.2664  -1.2345
    -1.1349  -1.0947  -1.0047  -0.9919  -0.9749  -0.9584  -0.9462  -0.7702
    -0.7214  -0.6987  -0.6904  -0.5705  -0.5575  -0.5323  -0.5011  -0.4428
    -0.4034  -0.3489  -0.3188  -0.2722  -0.2542  -0.2482  -0.2318  -0.2082
    -0.1273  -0.0488  -0.0305   0.0632   0.1150   0.2363   0.3027   0.4080
     0.4949   0.6735   0.7713   0.8202   0.8488   0.9394   1.3611   1.4235
     2.9526   2.9944   3.0192   3.0537   3.0659   3.2231   3.3287   3.4055
     3.4075   3.4473

[...]

          k = 0.0380-0.0419 0.0000 ( 17876 PWs)   bands (ev):

[...]

          k =-0.0760-0.0000 0.0000 ( 17886 PWs)   bands (ev):

[...]

          k =-0.0760-0.0839 0.0000 ( 17948 PWs)   bands (ev):

   -56.2249 -56.2113 -56.1982 -56.1965 -56.1200 -56.1149 -56.0987 -56.0794
   -55.9991 -55.9819 -55.9813 -55.9575 -55.8942 -55.8727 -55.2364 -55.2353
   -32.5837 -32.5810 -32.5275 -32.5168 -32.5129 -32.5095 -32.4952 -32.4883
   -32.4526 -32.4365 -32.4252 -32.4212 -32.3913 -32.3721 -32.3647 -32.3565
   -32.3540 -32.3515 -32.3428 -32.3398 -32.3256 -32.3197 -32.3143 -32.3102
   -32.2992 -32.2988 -32.2970 -32.2765 -32.2425 -32.2407 -32.2354 -32.2271
   -32.2008 -32.1844 -32.1835 -32.1750 -32.1627 -32.1349 -32.1267 -32.1190
   -32.0891 -32.0209 -31.5561 -31.5548 -31.4765 -31.4757 -31.4371 -31.4362
   -16.4196 -16.3946 -16.1654 -16.1561 -16.1483 -16.0838 -15.9986 -15.9768
   -15.9599 -15.9557 -15.9012 -15.8825 -15.8740 -15.8376 -15.7796 -15.7713
   -15.7639 -15.7404 -15.6891 -15.6828 -15.6278 -15.6023 -15.5872 -15.5834
   -15.5651 -15.5608 -15.4630 -15.4202 -15.3861 -13.7378 -13.7357  -9.5136
    -3.7122  -3.6806  -3.4166  -3.3707  -3.3654  -3.2870  -3.2047  -3.1729
    -3.1479  -3.1379  -3.0876  -3.0754  -3.0731  -3.0716  -3.0438  -3.0284
    -3.0057  -2.9923  -2.9876  -2.9754  -2.9298  -2.8658  -2.8574  -2.8570
    -2.8451  -2.7998  -2.7897  -2.7828  -2.7637  -2.7628  -2.7089  -2.5116
    -2.4913  -2.4435  -2.3775  -2.3596  -2.3308  -2.3212  -2.2953  -2.2709
    -2.2064  -2.1379  -2.0191  -1.9792  -1.9559  -1.9411  -1.8873  -1.8377
    -1.7221  -1.6820  -1.6553  -1.6368  -1.5710  -1.4978  -1.4734  -1.4575
    -1.3742  -1.3475  -1.3050  -1.2407  -1.2036  -1.1904  -1.1396  -1.1264
    -1.0404  -0.9802  -0.9447  -0.9048  -0.8902  -0.8570  -0.8085  -0.7576
    -0.7446  -0.6839  -0.6219  -0.5250  -0.3154  -0.2299  -0.2204  -0.1783
    -0.1201  -0.0954   0.0124   0.0467   0.0614   0.1554   0.2215   0.2875
     0.3049   0.3300   0.3977   0.8955   1.1314   1.1323   1.2240   1.2343
     3.1567   3.1669   3.1965   3.2638   3.4101   3.4161   3.4353   3.4410
     3.5336   3.5849

     the Fermi energy is     2.9198 ev

!    total energy              =   -2899.02579085 Ry
     estimated scf accuracy    <       0.00000007 Ry
     smearing contrib. (-TS)   =      -0.02330309 Ry
     internal energy E=F+TS    =   -2899.00248776 Ry

     The total energy is F=E-TS. E is the sum of the following terms:
     one-electron contribution =  -24815.17890497 Ry
     hartree contribution      =   12486.53623083 Ry
     xc contribution           =    -474.70421167 Ry
     ewald contribution        =    9904.34398660 Ry
     electric field correction =       0.00041144 Ry

     convergence has been achieved in  57 iterations

     Forces acting on atoms (cartesian axes, Ry/au):

     atom    1 type  1   force =    -0.00012503   -0.00194030    0.10690984
     atom    2 type  1   force =    -0.00037436    0.00069616   -0.18022594
     atom    3 type  2   force =     0.00035014   -0.00662950   -0.03350744
     atom    4 type  2   force =     0.00056828   -0.00062977    0.04568746
     atom    5 type  2   force =    -0.01960488   -0.00121563    0.00435082
     atom    6 type  2   force =     0.02144074   -0.00006916    0.00423566
     atom    7 type  1   force =    -0.00028808    0.00033893   -0.00014655
     atom    8 type  1   force =    -0.00048890    0.00047174    0.00015256
     atom    9 type  2   force =    -0.00004887   -0.00039265   -0.00056385
     atom   10 type  2   force =     0.00009958    0.00046498   -0.00039039
     atom   11 type  2   force =     0.00016525   -0.00002975   -0.00004815
     atom   12 type  2   force =     0.00024619   -0.00015371   -0.00005145
     atom   13 type  1   force =    -0.00055504    0.00008051    0.00071326
     atom   14 type  1   force =    -0.00057801    0.00015579    0.00002447
     atom   15 type  2   force =    -0.00006119    0.00038216   -0.00031054
     atom   16 type  2   force =    -0.00003765   -0.00003680    0.00050956
     atom   17 type  2   force =    -0.00092397   -0.00091939   -0.00018618
     atom   18 type  2   force =     0.00069250   -0.00074762   -0.00032317
     atom   19 type  1   force =    -0.00012878    0.00047434   -0.00041035
     atom   20 type  1   force =     0.00027676    0.00079707    0.00020316
     atom   21 type  2   force =     0.00000211    0.00003653    0.10434114
     atom   22 type  2   force =    -0.00007952   -0.00023801   -0.00059295
     atom   23 type  2   force =    -0.06876994    0.00084267   -0.02964962
     atom   24 type  2   force =     0.06852532    0.00129622   -0.02972030
     atom   25 type  1   force =    -0.00009838    0.00131053    0.11805585
     atom   26 type  1   force =    -0.00020643   -0.00066000   -0.18054250
     atom   27 type  2   force =     0.00055501    0.00239994   -0.02741426
     atom   28 type  2   force =     0.00072938   -0.00048876    0.04720242
     atom   29 type  2   force =    -0.01934072    0.00075481    0.00375312
     atom   30 type  2   force =     0.01929167    0.00249311    0.00343681
     atom   31 type  1   force =    -0.00007899   -0.00074942    0.00034506
     atom   32 type  1   force =    -0.00042449    0.00003058    0.00036651
     atom   33 type  2   force =    -0.00013565    0.00036465   -0.00075316
     atom   34 type  2   force =    -0.00007728    0.00005334   -0.00014652
     atom   35 type  2   force =     0.00044544    0.00023492   -0.00042965
     atom   36 type  2   force =    -0.00081004    0.00002745   -0.00041889
     atom   37 type  1   force =    -0.00055323    0.00051039    0.00065179
     atom   38 type  1   force =     0.00015032   -0.00042395    0.00034614
     atom   39 type  2   force =    -0.00028184   -0.00014175   -0.00029815
     atom   40 type  2   force =    -0.00004747    0.00077968    0.00061254
     atom   41 type  2   force =    -0.00024389    0.00126349   -0.00019083
     atom   42 type  2   force =     0.00035471    0.00124703   -0.00039711
     atom   43 type  1   force =    -0.00010820    0.00059215   -0.00027577
     atom   44 type  1   force =     0.00033034   -0.00018936    0.00017536
     atom   45 type  2   force =    -0.00000551    0.00006194    0.10434907
     atom   46 type  2   force =    -0.06830622   -0.00103145   -0.02971158
     atom   47 type  2   force =     0.06815625   -0.00065144   -0.02975171
     atom   48 type  3   force =    -0.00481655    0.00098927   -0.00243860
     atom   49 type  4   force =     0.00026253   -0.00087687    0.00005914
     atom   50 type  4   force =     0.00344094   -0.00139665    0.00276909
     atom   51 type  4   force =     0.00151568    0.00046159   -0.00035521

     Total force =     0.377454     Total SCF correction =     0.000554
  @ DRIVER MODE: Message from server: STATUS
  @ DRIVER MODE: Message from server: GETFORCE
  @ DRIVER MODE: Returning v,forces,stress,ensemble

     Writing output data file ./calc.save/
  @ DRIVER MODE: Message from server: EXIT
  @ DRIVE MODE: Exiting

     General routines

     Parallel routines

   This run was terminated on:  17:56: 4  18Aug2021

   JOB DONE.