     Program PWSCF v.6.7GPU starts on 26Sep2021 at 22:10: 2

     R & G space division:  proc/nbgrp/npool/nimage =       8
     Reading input from /storage/home/hcoda1/3/ntian30/research/carbon/CxH_vib/CH_calc/ads_slab/CHONHNH2_b/out_0025/pw.inp
Warning: card &CELL ignored
Warning: card   CELL_DYNAMICS='IPI', ignored
Warning: card / ignored

     Current dimensions of program PWSCF are:
     Max number of different atomic species (ntypx) = 10
     Max number of k-points (npk) =  40000
     Max angular momentum in pseudopotentials (lmaxx) =  3
     Presently no symmetry can be used with electric field

     Message from routine cell_base_init:
     DEPRECATED: use true lattice parameter, not A to a.u. conversion factor

     IMPORTANT: XC functional enforced from input :
     Exchange-correlation= BEEF-VDW
                           (   1   4  43  14   2   0   0)
     Any further DFT definition will be discarded
     Please, verify this is what you really want

  @ DRIVER MODE: Connecting to
 qe_1139763_2982672.sched-torque.pace.gatech.edu35dyeewl_scratch
  using UNIX socket
  @ DRIVER MODE: Message from server: STATUS
  @ DRIVER MODE: Message from server: INIT
  @ DRIVER MODE: Receiving replica           0          -1
  @ DRIVER MODE: Receiving encoded integer          25
  @ DRIVER MODE:  SCF:  T  FORCE:  T  STRESS:  F  VC:  F  ENSEMBLE:  F
  @ DRIVER MODE:  SCF:  T  FORCE:  T  STRESS:  F  VC:  F  ENSEMBLE:  F

     Using Slab Decomposition

     bravais-lattice index     =            0
     lattice parameter (alat)  =       1.8897  a.u.
     unit-cell volume          =    6658.9804 (a.u.)^3
     number of atoms/cell      =           55
     number of atomic types    =            5
     number of electrons       =       402.00
     number of Kohn-Sham states=          211
     kinetic-energy cutoff     =      29.3995  Ry
     charge density cutoff     =     293.9946  Ry
     scf convergence threshold =      7.3E-08
     mixing beta               =       0.0500
     number of iterations used =            8  plain     mixing
     Exchange-correlation= BEEF-VDW
                           (   1   4  43  14   2   0   0)

     celldm(1)=   1.889726  celldm(2)=   0.000000  celldm(3)=   0.000000
     celldm(4)=   0.000000  celldm(5)=   0.000000  celldm(6)=   0.000000

     crystal axes: (cart. coord. in units of alat)
               a(1) = (   6.579727   0.000000   0.000000 )
               a(2) = (  -0.000775   5.961596   0.000000 )
               a(3) = (   0.000000   0.000000  25.155947 )

     reciprocal axes: (cart. coord. in units 2 pi/alat)
               b(1) = (  0.151982  0.000020  0.000000 )
               b(2) = (  0.000000  0.167740  0.000000 )
               b(3) = (  0.000000  0.000000  0.039752 )

     PseudoPot. # 1 for O  read from file:
     /storage/coda1/p-amedford6/0/shared/rich_project_chbe-medford/medford-share/data/pseudos_module/espresso/nninc/pbe/van/O.UPF
     MD5 check sum: 78c19812648e8988a0fe644b0f25305e
     Pseudo is Ultrasoft, Zval =  6.0
     Generated by new atomic code, or converted to UPF format
     Using radial grid of  737 points,  4 beta functions with:
                l(1) =   0
                l(2) =   0
                l(3) =   1
                l(4) =   1
     Q(r) pseudized with  8 coefficients,  rinner =    0.800   0.800   0.800

     PseudoPot. # 2 for Ti read from file:
     /storage/coda1/p-amedford6/0/shared/rich_project_chbe-medford/medford-share/data/pseudos_module/espresso/nninc/pbe/van/Ti.UPF
     MD5 check sum: 8e4df49b7f0d34bbd5052bf3f5ea0213
     Pseudo is Ultrasoft, Zval = 12.0
     Generated by new atomic code, or converted to UPF format
     Using radial grid of  851 points,  6 beta functions with:
                l(1) =   0
                l(2) =   0
                l(3) =   1
                l(4) =   1
                l(5) =   2
                l(6) =   2
     Q(r) pseudized with  8 coefficients,  rinner =    1.000   1.000   1.000
                                                       1.000   1.000

     PseudoPot. # 3 for N  read from file:
     /storage/coda1/p-amedford6/0/shared/rich_project_chbe-medford/medford-share/data/pseudos_module/espresso/nninc/pbe/van/N.UPF
     MD5 check sum: 90d10febe142ad51ac9d5be1deb811c4
     Pseudo is Ultrasoft, Zval =  5.0
     Generated by new atomic code, or converted to UPF format
     Using radial grid of  729 points,  4 beta functions with:
                l(1) =   0
                l(2) =   0
                l(3) =   1
                l(4) =   1
     Q(r) pseudized with  8 coefficients,  rinner =    0.800   0.800   0.800

     PseudoPot. # 4 for H  read from file:
     /storage/coda1/p-amedford6/0/shared/rich_project_chbe-medford/medford-share/data/pseudos_module/espresso/nninc/pbe/van/H.UPF
     MD5 check sum: b5ee9d7bfd3a09ee7748110bda690ff7
     Pseudo is Ultrasoft, Zval =  1.0
     Generated by new atomic code, or converted to UPF format
     Using radial grid of  615 points,  1 beta functions with:
                l(1) =   0
     Q(r) pseudized with  8 coefficients,  rinner =    0.800

     PseudoPot. # 5 for C  read from file:
     /storage/coda1/p-amedford6/0/shared/rich_project_chbe-medford/medford-share/data/pseudos_module/espresso/nninc/pbe/van/C.UPF
     MD5 check sum: 1a69bf6b8db32088f5b2163dbdb77a27
     Pseudo is Ultrasoft, Zval =  4.0
     Generated by new atomic code, or converted to UPF format
     Using radial grid of  721 points,  4 beta functions with:
                l(1) =   0
                l(2) =   0
                l(3) =   1
                l(4) =   1
     Q(r) pseudized with  8 coefficients,  rinner =    0.800   0.800   0.800

     atomic species   valence    mass     pseudopotential
        O1             6.00    15.99900     O ( 1.00)
        Ti1           12.00    47.86700     Ti( 1.00)
        N1             5.00    14.00700     N ( 1.00)
        H1             1.00     1.00800     H ( 1.00)
        C1             4.00    12.01100     C ( 1.00)

     No symmetry found

   Cartesian axes

     site n.     atom                  positions (alat units)
         1           O1  tau(   1) = (   3.2904802   0.0005063   4.7018136  )
         2           O1  tau(   2) = (   3.2900926   2.9813045   4.7018136  )
         3           Ti1 tau(   3) = (   0.0004258   2.9801865   6.0000000  )
         4           Ti1 tau(   4) = (   0.0000382   5.9609847   6.0000000  )
         5           Ti1 tau(   5) = (   3.2906075   1.4906267   6.0002472  )
         6           Ti1 tau(   6) = (   3.2902200   4.4714249   6.0002472  )
         7           O1  tau(   7) = (   1.3043587   1.4918075   6.0039043  )
         8           O1  tau(   8) = (   1.3039711   4.4726057   6.0039043  )
         9           O1  tau(   9) = (   5.2767064   1.4903225   6.0039473  )
        10           O1  tau(  10) = (   5.2763189   4.4711207   6.0039473  )
        11           O1  tau(  11) = (   3.2906025   0.0005020   7.3038282  )
        12           O1  tau(  12) = (   3.2902150   2.9813002   7.3038282  )
        13           O1  tau(  13) = (   0.0006271   0.0005054   7.9858123  )
        14           O1  tau(  14) = (   0.0002396   2.9813036   7.9858123  )
        15           Ti1 tau(  15) = (   3.2907910   2.8959150   9.1758416  )
        16           Ti1 tau(  16) = (   3.2891106   5.8743827   9.1763621  )
        17           Ti1 tau(  17) = (   0.0015273   1.4827037   9.2680791  )
        18           Ti1 tau(  18) = (   0.0006254   4.4649316   9.2693709  )
        19           O1  tau(  19) = (   4.5942328   1.4918067   9.2879030  )
        20           O1  tau(  20) = (   4.5938453   4.4726049   9.2879030  )
        21           O1  tau(  21) = (   1.9868534   1.4903216   9.2879459  )
        22           O1  tau(  22) = (   1.9864658   4.4711199   9.2879459  )
        23           O1  tau(  23) = (   0.0116148   5.9584955  10.6183126  )
        24           O1  tau(  24) = (   0.0092240   2.9805883  10.6323155  )
        25           O1  tau(  25) = (   3.2729272   2.9749101  11.3358637  )
        26           O1  tau(  26) = (   3.2774458   5.9577983  11.3358029  )
        27           Ti1 tau(  27) = (   6.5123228   0.0223980  12.5466522  )
        28           Ti1 tau(  28) = (   6.5139447   2.9993280  12.6164542  )
        29           Ti1 tau(  29) = (   3.1950650   4.4673527  12.4897579  )
        30           Ti1 tau(  30) = (   3.1950454   1.4921031  12.4944583  )
        31           O1  tau(  31) = (   5.2839716   4.4726476  12.6140382  )
        32           O1  tau(  32) = (   1.2968206   4.4781603  12.6268461  )
        33           O1  tau(  33) = (   5.2856119   1.4917077  12.6233973  )
        34           O1  tau(  34) = (   1.2888650   1.4770595  12.6372879  )
        35           O1  tau(  35) = (   3.2788258   2.9629383  13.9230881  )
        36           O1  tau(  36) = (   3.2980453   5.9500611  13.9147740  )
        37           O1  tau(  37) = (   6.5334376   5.9389224  14.6738689  )
        38           O1  tau(  38) = (   6.5776160   3.0156023  14.6540868  )
        39           Ti1 tau(  39) = (   3.2542760   2.9504115  15.7371360  )
        40           Ti1 tau(  40) = (   3.3062714   5.9309079  15.7116640  )
        41           Ti1 tau(  41) = (   6.5650095   1.2976281  16.1142359  )
        42           Ti1 tau(  42) = (   0.0079766   4.4268374  15.8391656  )
        43           O1  tau(  43) = (   2.0280489   1.4492115  16.0660627  )
        44           O1  tau(  44) = (   4.5116609   1.4624326  16.0993158  )
        45           O1  tau(  45) = (   2.0244938   4.4513709  16.0356871  )
        46           O1  tau(  46) = (   4.5113612   4.4342832  16.0730653  )
        47           O1  tau(  47) = (   6.5716746   5.9215154  17.2308814  )
        48           N1  tau(  48) = (   5.9800345   2.9984367  18.5879729  )
        49           H1  tau(  49) = (   4.9797160   2.8240766  18.4383897  )
        50           H1  tau(  50) = (   1.6245422   1.3425840  19.0439533  )
        51           H1  tau(  51) = (   6.0578502   3.9810051  18.8619266  )
        52           N1  tau(  52) = (   2.1303542   1.9713023  19.6616680  )
        53           C1  tau(  53) = (   2.8938676   2.8537551  19.2737185  )
        54           H1  tau(  54) = (   3.3792091   3.5764479  19.9483559  )
        55           O1  tau(  55) = (   6.5521836   2.9666373  17.2729174  )

     number of k points=    10  Fermi-Dirac smearing, width (Ry)=  0.0073
                       cart. coord. in units 2pi/alat
        k(    1) = (   0.0000000   0.0000000   0.0000000), wk =   0.1250000
        k(    2) = (   0.0000000   0.0419351   0.0000000), wk =   0.2500000
        k(    3) = (   0.0000000  -0.0838702   0.0000000), wk =   0.1250000
        k(    4) = (   0.0379955   0.0000049   0.0000000), wk =   0.2500000
        k(    5) = (   0.0379955   0.0419400   0.0000000), wk =   0.2500000
        k(    6) = (   0.0379955  -0.0838652   0.0000000), wk =   0.2500000
        k(    7) = (   0.0379955  -0.0419301   0.0000000), wk =   0.2500000
        k(    8) = (  -0.0759910  -0.0000099   0.0000000), wk =   0.1250000
        k(    9) = (  -0.0759910   0.0419252   0.0000000), wk =   0.2500000
        k(   10) = (  -0.0759910  -0.0838800   0.0000000), wk =   0.1250000

     Initial potential from superposition of free atoms

     starting charge  385.99915, renormalised to  402.00000

     negative rho (up, down):  1.542E-02 0.000E+00

     %%%%%%%%%%%%%%%%%%%%%%%%%%%%%%%%%%%%%%%%%%%%%%%%%%%%%%%%%%%%%%%%%%%%%%%%
     %                                                                      %
     % You are using vdW-DF, which was implemented by the Thonhauser group. %
     % Please cite the following two papers that made this development      %
     % possible and the two reviews that describe the various versions:     %
     %                                                                      %
     %   T. Thonhauser et al., PRL 115, 136402 (2015).                      %
     %   T. Thonhauser et al., PRB 76, 125112 (2007).                       %
     %   K. Berland et al., Rep. Prog. Phys. 78, 066501 (2015).             %
     %   D.C. Langreth et al., J. Phys.: Condens. Matter 21, 084203 (2009). %
     %                                                                      %
     %                                                                      %
     % If you are calculating the stress with vdW-DF, please also cite:     %
     %                                                                      %
     %   R. Sabatini et al., J. Phys.: Condens. Matter 24, 424209 (2012).   %
     %                                                                      %
     %%%%%%%%%%%%%%%%%%%%%%%%%%%%%%%%%%%%%%%%%%%%%%%%%%%%%%%%%%%%%%%%%%%%%%%%

     Adding external electric field

     Computed dipole along edir(3) :
        Dipole              -12.8629 Ry au,        -32.6941 Debye
        Dipole field         -0.0243 Ry au,

        Potential amp.        2.2502 Ry
        Total length         46.3494 bohr

     Starting wfcs are  304 atomic wfcs
  @ DRIVER MODE: Message from server: STATUS
  @ DRIVER MODE: Message from server: POSDATA
  @ DRIVER MODE: Reading and sharing cell
  @ DRIVER MODE: Reading and sharing positions
  @ DRIVER MODE: Received positions

     Self-consistent Calculation

     iteration #  1     ecut=    29.40 Ry     beta= 0.05
     Davidson diagonalization with overlap
     c_bands:  5 eigenvalues not converged
     c_bands:  2 eigenvalues not converged
     c_bands:  2 eigenvalues not converged
     c_bands:  5 eigenvalues not converged
     c_bands:  3 eigenvalues not converged
     c_bands:  3 eigenvalues not converged
     c_bands:  2 eigenvalues not converged
     c_bands:  3 eigenvalues not converged
     c_bands:  1 eigenvalues not converged
     ethr =  1.00E-05,  avg # of iterations = 21.5

[...]

     total energy              =   -2369.76175687 Ry
     estimated scf accuracy    <    6837.20308552 Ry

     iteration #  2     ecut=    29.40 Ry     beta= 0.05
     Davidson diagonalization with overlap
     ethr =  1.00E-02,  avg # of iterations = 23.9

[...]

     iteration # 51     ecut=    29.40 Ry     beta= 0.05
     Davidson diagonalization with overlap
     c_bands:  1 eigenvalues not converged
     ethr =  1.69E-09,  avg # of iterations = 13.0

[...]

     total energy              =   -2972.58409793 Ry
     estimated scf accuracy    <       0.00000016 Ry

     iteration # 65     ecut=    29.40 Ry     beta= 0.05
     Davidson diagonalization with overlap
     ethr =  3.06E-11,  avg # of iterations =  5.1

     negative rho (up, down):  1.520E-02 0.000E+00

     Adding external electric field

     Computed dipole along edir(3) :
        Dipole                0.4678 Ry au,          1.1889 Debye
        Dipole field          0.0009 Ry au,

        Potential amp.       -0.0818 Ry
        Total length         46.3494 bohr

     End of self-consistent calculation

          k = 0.0000 0.0000 0.0000 ( 18029 PWs)   bands (ev):

   -55.8989 -55.8790 -55.8648 -55.8410 -55.7593 -55.7377 -55.7241 -55.7106
   -55.6959 -55.6766 -55.6753 -55.6414 -55.5240 -55.3098 -54.8782 -54.8441
   -32.4241 -32.3816 -32.2576 -32.2095 -32.1973 -32.1916 -32.1750 -32.1656
   -32.1423 -32.1093 -32.0626 -32.0533 -32.0512 -32.0468 -32.0329 -32.0121
   -32.0034 -31.9999 -31.9927 -31.9774 -31.9686 -31.9573 -31.9561 -31.9135
   -31.9068 -31.9015 -31.8999 -31.8893 -31.8772 -31.8754 -31.8704 -31.8511
   -31.8415 -31.8285 -31.8174 -31.8049 -31.7874 -31.7611 -31.7298 -31.5799
   -31.5418 -31.5241 -31.2853 -31.1968 -31.1744 -31.1020 -31.0155 -30.9045
   -18.6547 -16.6193 -16.3692 -16.1248 -16.0454 -16.0109 -15.8588 -15.8177
   -15.7371 -15.6266 -15.5312 -15.4558 -15.4364 -15.4358 -15.3960 -15.3814
   -15.3549 -15.3437 -15.3334 -15.3171 -15.2899 -15.2571 -15.2407 -15.2336
   -15.1421 -15.0663 -15.0334 -14.9831 -14.9789 -14.9565 -14.5632 -13.3802
   -13.2637 -12.2266  -8.1529  -5.3078  -4.9542  -4.4998  -3.9937  -3.8551
    -3.8050  -3.7368  -3.6899  -3.5179  -3.4067  -3.1519  -3.0781  -3.0583
    -3.0353  -2.9880  -2.8808  -2.8069  -2.7101  -2.7038  -2.6998  -2.6683
    -2.6590  -2.6425  -2.5976  -2.5797  -2.5097  -2.4405  -2.4004  -2.2969
    -2.2891  -2.2515  -2.2118  -2.2010  -2.1565  -2.1370  -2.1209  -2.1127
    -2.1016  -2.0634  -2.0019  -1.9176  -1.8854  -1.7985  -1.6910  -1.6134
    -1.5080  -1.4831  -1.3660  -1.3633  -1.3269  -1.2977  -1.2913  -1.2326
    -1.1870  -1.0812  -1.0539  -1.0200  -1.0139  -0.9179  -0.8577  -0.8329
    -0.7692  -0.6961  -0.6697  -0.6581  -0.6473  -0.6124  -0.3962  -0.3547
    -0.3348  -0.3042  -0.2561  -0.2019  -0.1660  -0.1179  -0.0775  -0.0128
    -0.0030   0.0481   0.0717   0.0861   0.1020   0.1128   0.1299   0.2290
     0.3167   0.3554   0.3763   0.4521   0.4578   0.6287   0.6983   0.7571
     0.8707   1.0705   1.1444   1.2297   1.3364   1.7155   1.7613   1.7646
     3.2288   3.2314   3.3228   3.3651   3.3741   3.4741   3.5292   3.6867
     3.7201   3.7532   3.7899

[...]

          k = 0.0380-0.0419 0.0000 ( 17876 PWs)   bands (ev):

[...]

          k =-0.0760-0.0000 0.0000 ( 17886 PWs)   bands (ev):

[...]

          k =-0.0760-0.0839 0.0000 ( 17948 PWs)   bands (ev):

   -55.8823 -55.8813 -55.8663 -55.8535 -55.7456 -55.7378 -55.7285 -55.7049
   -55.6945 -55.6921 -55.6610 -55.6559 -55.5227 -55.3110 -54.8612 -54.8610
   -32.2345 -32.2214 -32.1973 -32.1965 -32.1775 -32.1765 -32.1272 -32.1188
   -32.1018 -32.0925 -32.0531 -32.0442 -32.0255 -32.0178 -32.0140 -32.0112
   -32.0069 -32.0020 -32.0009 -31.9988 -31.9950 -31.9897 -31.9568 -31.9545
   -31.9482 -31.9304 -31.9239 -31.9148 -31.8948 -31.8937 -31.8913 -31.8876
   -31.8854 -31.8754 -31.8720 -31.8694 -31.8633 -31.7586 -31.7329 -31.6507
   -31.5711 -31.5314 -31.1872 -31.1871 -31.0981 -31.0980 -31.0588 -31.0588
   -18.6395 -16.0378 -16.0167 -15.8543 -15.8198 -15.8180 -15.7775 -15.7651
   -15.6889 -15.6089 -15.5890 -15.5843 -15.5002 -15.4814 -15.4687 -15.4356
   -15.4216 -15.4109 -15.4055 -15.3640 -15.3562 -15.3470 -15.3387 -15.3311
   -15.2533 -15.2184 -15.2135 -15.1955 -15.0869 -14.9599 -14.7388 -13.3656
   -13.3654 -12.2392  -8.1531  -5.3022  -4.9595  -4.4263  -3.3244  -3.2918
    -3.1107  -3.0280  -3.0125  -2.9950  -2.8802  -2.8076  -2.8019  -2.7646
    -2.7347  -2.7270  -2.7174  -2.7141  -2.6905  -2.6806  -2.6285  -2.6084
    -2.5938  -2.5706  -2.5569  -2.5544  -2.5246  -2.5111  -2.4725  -2.4519
    -2.4306  -2.4197  -2.3976  -2.3271  -2.2064  -2.1298  -2.0996  -2.0413
    -2.0308  -1.9990  -1.9659  -1.9520  -1.9258  -1.8864  -1.8407  -1.7501
    -1.6433  -1.5891  -1.5874  -1.5005  -1.4639  -1.4073  -1.3822  -1.3268
    -1.2931  -1.2840  -1.2347  -1.1708  -1.1556  -1.0824  -1.0388  -1.0079
    -0.9626  -0.9418  -0.8697  -0.8591  -0.8565  -0.8203  -0.7325  -0.7124
    -0.6607  -0.6540  -0.6273  -0.5714  -0.5522  -0.5210  -0.3976  -0.3747
    -0.2478  -0.1815  -0.0884   0.0581   0.0797   0.1722   0.2132   0.2396
     0.2967   0.3986   0.4154   0.4293   0.4490   0.4798   0.5113   0.6308
     0.6450   0.6802   0.8000   1.5081   1.5085   1.5808   1.5813   1.6101
     3.2168   3.5631   3.5700   3.5902   3.6173   3.7490   3.7510   3.7688
     3.7702   3.9063   3.9225

     the Fermi energy is     3.2335 ev

!    total energy              =   -2972.58412835 Ry
     estimated scf accuracy    <       0.00000007 Ry
     smearing contrib. (-TS)   =      -0.03074073 Ry
     internal energy E=F+TS    =   -2972.55338761 Ry

     The total energy is F=E-TS. E is the sum of the following terms:
     one-electron contribution =  -23744.79810028 Ry
     hartree contribution      =   11963.64525657 Ry
     xc contribution           =    -493.06589211 Ry
     ewald contribution        =    9301.66493529 Ry
     electric field correction =       0.00041292 Ry

     convergence has been achieved in  65 iterations

     Forces acting on atoms (cartesian axes, Ry/au):

     atom    1 type  1   force =     0.00004314   -0.00002893    0.10325090
     atom    2 type  1   force =     0.00004820   -0.00004496    0.10329080
     atom    3 type  2   force =     0.00007700   -0.00022661    0.09625278
     atom    4 type  2   force =    -0.00000906   -0.00029761    0.09606011
     atom    5 type  2   force =     0.00002483   -0.00063045   -0.17554701
     atom    6 type  2   force =    -0.00001773   -0.00023653   -0.17551271
     atom    7 type  1   force =    -0.07154666   -0.00014401   -0.02768920
     atom    8 type  1   force =    -0.07153240   -0.00012473   -0.02766259
     atom    9 type  1   force =     0.07139312    0.00028308   -0.02775580
     atom   10 type  1   force =     0.07137747    0.00031513   -0.02772032
     atom   11 type  1   force =    -0.00005887   -0.00144829    0.05288121
     atom   12 type  1   force =    -0.00002883   -0.00125828    0.05322910
     atom   13 type  1   force =     0.00000621   -0.00000237   -0.02440275
     atom   14 type  1   force =     0.00009888   -0.00023150   -0.02343020
     atom   15 type  2   force =     0.00001912    0.00048997   -0.01061033
     atom   16 type  2   force =     0.00013483    0.00349825   -0.00995040
     atom   17 type  2   force =     0.00070175    0.01062001    0.02598521
     atom   18 type  2   force =     0.00083757   -0.01139853    0.02629245
     atom   19 type  1   force =    -0.01197351   -0.00052174    0.00382377
     atom   20 type  1   force =    -0.01231933   -0.00009632    0.00373958
     atom   21 type  1   force =     0.01294017   -0.00008716    0.00216694
     atom   22 type  1   force =     0.01318553    0.00047867    0.00212066
     atom   23 type  1   force =    -0.00431477    0.00133218   -0.01326190
     atom   24 type  1   force =    -0.00236695    0.00054829   -0.02185656
     atom   25 type  1   force =     0.00024289   -0.00090611    0.00014111
     atom   26 type  1   force =     0.00001721    0.00044156    0.00078309
     atom   27 type  2   force =    -0.00044340    0.00040030    0.00010818
     atom   28 type  2   force =    -0.00069018   -0.00052346    0.00016536
     atom   29 type  2   force =     0.00097347    0.00003555   -0.00010165
     atom   30 type  2   force =     0.00035776   -0.00074046   -0.00009314
     atom   31 type  1   force =     0.00085208    0.00012587    0.00020969
     atom   32 type  1   force =    -0.00043360   -0.00001307    0.00009234
     atom   33 type  1   force =     0.00041991   -0.00037695   -0.00005032
     atom   34 type  1   force =     0.00128038   -0.00021999   -0.00003769
     atom   35 type  1   force =     0.00030693   -0.00029098   -0.00000666
     atom   36 type  1   force =     0.00026328    0.00025295   -0.00057734
     atom   37 type  1   force =     0.00019098   -0.00010659   -0.00084247
     atom   38 type  1   force =     0.00019647    0.00011259   -0.00038544
     atom   39 type  2   force =    -0.00080272    0.00012995   -0.00008629
     atom   40 type  2   force =    -0.00069855    0.00011611    0.00071238
     atom   41 type  2   force =     0.00023246   -0.00021278   -0.00008927
     atom   42 type  2   force =     0.00079476   -0.00010922    0.00055515
     atom   43 type  1   force =     0.00041863    0.00024623   -0.00049228
     atom   44 type  1   force =     0.00014767   -0.00004527   -0.00025843
     atom   45 type  1   force =     0.00044717    0.00020509   -0.00004459
     atom   46 type  1   force =     0.00002888    0.00048761    0.00006906
     atom   47 type  1   force =     0.00006813   -0.00003463   -0.00038982
     atom   48 type  3   force =    -0.00079329    0.00007695   -0.00115349
     atom   49 type  4   force =     0.00070885    0.00040941    0.00023778
     atom   50 type  4   force =    -0.00404495   -0.00466866   -0.00540821
     atom   51 type  4   force =    -0.00019839    0.00068448   -0.00012857
     atom   52 type  3   force =     0.01496800    0.01664125   -0.00002968
     atom   53 type  5   force =    -0.00980626   -0.01135712    0.00493814
     atom   54 type  4   force =    -0.00151899   -0.00140365   -0.00074559
     atom   55 type  1   force =    -0.00020532   -0.00014448   -0.00078509

     Total force =     0.368442     Total SCF correction =     0.000806
  @ DRIVER MODE: Message from server: STATUS
  @ DRIVER MODE: Message from server: GETFORCE
  @ DRIVER MODE: Returning v,forces,stress,ensemble

     Writing output data file ./calc.save/
  @ DRIVER MODE: Message from server: EXIT
  @ DRIVE MODE: Exiting

     General routines

     Parallel routines

   This run was terminated on:  22:31:57  26Sep2021

   JOB DONE.