     Program PWSCF v.6.7GPU starts on 25Aug2021 at  3:49: 0

     R & G space division:  proc/nbgrp/npool/nimage =       6
     Reading input from /storage/home/hcoda1/3/ntian30/research/carbon/CH3_vib_end_on/ads_slab/CH3N_a/out_0028/pw.inp
Warning: card &CELL ignored
Warning: card   CELL_DYNAMICS='IPI', ignored
Warning: card / ignored

     Current dimensions of program PWSCF are:
     Max number of different atomic species (ntypx) = 10
     Max number of k-points (npk) =  40000
     Max angular momentum in pseudopotentials (lmaxx) =  3
     Presently no symmetry can be used with electric field

     Message from routine cell_base_init:
     DEPRECATED: use true lattice parameter, not A to a.u. conversion factor

     IMPORTANT: XC functional enforced from input :
     Exchange-correlation= BEEF-VDW
                           (   1   4  43  14   2   0   0)
     Any further DFT definition will be discarded
     Please, verify this is what you really want

  @ DRIVER MODE: Connecting to
 qe_1139763_2643872.sched-torque.pace.gatech.edu_fg3sc4i_scratch
  using UNIX socket
  @ DRIVER MODE: Message from server: STATUS
  @ DRIVER MODE: Message from server: INIT
  @ DRIVER MODE: Receiving replica           0          -1
  @ DRIVER MODE: Receiving encoded integer          25
  @ DRIVER MODE:  SCF:  T  FORCE:  T  STRESS:  F  VC:  F  ENSEMBLE:  F
  @ DRIVER MODE:  SCF:  T  FORCE:  T  STRESS:  F  VC:  F  ENSEMBLE:  F

     Using Slab Decomposition

     bravais-lattice index     =            0
     lattice parameter (alat)  =       1.8897  a.u.
     unit-cell volume          =    6658.9804 (a.u.)^3
     number of atoms/cell      =           52
     number of atomic types    =            5
     number of electrons       =       390.00
     number of Kohn-Sham states=          205
     kinetic-energy cutoff     =      29.3995  Ry
     charge density cutoff     =     293.9946  Ry
     scf convergence threshold =      7.3E-08
     mixing beta               =       0.0500
     number of iterations used =            8  plain     mixing
     Exchange-correlation= BEEF-VDW
                           (   1   4  43  14   2   0   0)

     celldm(1)=   1.889726  celldm(2)=   0.000000  celldm(3)=   0.000000
     celldm(4)=   0.000000  celldm(5)=   0.000000  celldm(6)=   0.000000

     crystal axes: (cart. coord. in units of alat)
               a(1) = (   6.579727   0.000000   0.000000 )
               a(2) = (  -0.000775   5.961596   0.000000 )
               a(3) = (   0.000000   0.000000  25.155947 )

     reciprocal axes: (cart. coord. in units 2 pi/alat)
               b(1) = (  0.151982  0.000020  0.000000 )
               b(2) = (  0.000000  0.167740  0.000000 )
               b(3) = (  0.000000  0.000000  0.039752 )

     PseudoPot. # 1 for Ti read from file:
     /storage/coda1/p-amedford6/0/shared/rich_project_chbe-medford/medford-share/data/pseudos_module/espresso/nninc/pbe/van/Ti.UPF
     MD5 check sum: 8e4df49b7f0d34bbd5052bf3f5ea0213
     Pseudo is Ultrasoft, Zval = 12.0
     Generated by new atomic code, or converted to UPF format
     Using radial grid of  851 points,  6 beta functions with:
                l(1) =   0
                l(2) =   0
                l(3) =   1
                l(4) =   1
                l(5) =   2
                l(6) =   2
     Q(r) pseudized with  8 coefficients,  rinner =    1.000   1.000   1.000
                                                       1.000   1.000

     PseudoPot. # 2 for O  read from file:
     /storage/coda1/p-amedford6/0/shared/rich_project_chbe-medford/medford-share/data/pseudos_module/espresso/nninc/pbe/van/O.UPF
     MD5 check sum: 78c19812648e8988a0fe644b0f25305e
     Pseudo is Ultrasoft, Zval =  6.0
     Generated by new atomic code, or converted to UPF format
     Using radial grid of  737 points,  4 beta functions with:
                l(1) =   0
                l(2) =   0
                l(3) =   1
                l(4) =   1
     Q(r) pseudized with  8 coefficients,  rinner =    0.800   0.800   0.800

     PseudoPot. # 3 for N  read from file:
     /storage/coda1/p-amedford6/0/shared/rich_project_chbe-medford/medford-share/data/pseudos_module/espresso/nninc/pbe/van/N.UPF
     MD5 check sum: 90d10febe142ad51ac9d5be1deb811c4
     Pseudo is Ultrasoft, Zval =  5.0
     Generated by new atomic code, or converted to UPF format
     Using radial grid of  729 points,  4 beta functions with:
                l(1) =   0
                l(2) =   0
                l(3) =   1
                l(4) =   1
     Q(r) pseudized with  8 coefficients,  rinner =    0.800   0.800   0.800

     PseudoPot. # 4 for C  read from file:
     /storage/coda1/p-amedford6/0/shared/rich_project_chbe-medford/medford-share/data/pseudos_module/espresso/nninc/pbe/van/C.UPF
     MD5 check sum: 1a69bf6b8db32088f5b2163dbdb77a27
     Pseudo is Ultrasoft, Zval =  4.0
     Generated by new atomic code, or converted to UPF format
     Using radial grid of  721 points,  4 beta functions with:
                l(1) =   0
                l(2) =   0
                l(3) =   1
                l(4) =   1
     Q(r) pseudized with  8 coefficients,  rinner =    0.800   0.800   0.800

     PseudoPot. # 5 for H  read from file:
     /storage/coda1/p-amedford6/0/shared/rich_project_chbe-medford/medford-share/data/pseudos_module/espresso/nninc/pbe/van/H.UPF
     MD5 check sum: b5ee9d7bfd3a09ee7748110bda690ff7
     Pseudo is Ultrasoft, Zval =  1.0
     Generated by new atomic code, or converted to UPF format
     Using radial grid of  615 points,  1 beta functions with:
                l(1) =   0
     Q(r) pseudized with  8 coefficients,  rinner =    0.800

     atomic species   valence    mass     pseudopotential
        Ti1           12.00    47.86700     Ti( 1.00)
        O1             6.00    15.99900     O ( 1.00)
        N1             5.00    14.00700     N ( 1.00)
        C1             4.00    12.01100     C ( 1.00)
        H1             1.00     1.00800     H ( 1.00)

     No symmetry found

   Cartesian axes

     site n.     atom                  positions (alat units)
         1           Ti1 tau(   1) = (   0.0004258   2.9801865   6.0000000  )
         2           Ti1 tau(   2) = (   3.2906075   1.4906267   6.0002472  )
         3           O1  tau(   3) = (   0.0006271   0.0005054   7.9858123  )
         4           O1  tau(   4) = (   3.2906025   0.0005020   7.3038282  )
         5           O1  tau(   5) = (   4.5942328   1.4918067   9.2879030  )
         6           O1  tau(   6) = (   1.9868534   1.4903216   9.2879459  )
         7           Ti1 tau(   7) = (   3.2907910   2.8959150   9.1758416  )
         8           Ti1 tau(   8) = (   0.0015273   1.4827037   9.2680791  )
         9           O1  tau(   9) = (   3.3018735   5.9614316  11.2970789  )
        10           O1  tau(  10) = (   0.0116148   5.9584955  10.6183126  )
        11           O1  tau(  11) = (   1.3353665   1.4968727  12.6140821  )
        12           O1  tau(  12) = (   5.3123320   1.5002621  12.6324210  )
        13           Ti1 tau(  13) = (   6.4913169   2.9877414  12.7576577  )
        14           Ti1 tau(  14) = (   3.1819880   1.4874128  12.4666476  )
        15           O1  tau(  15) = (   0.0325390   5.9514364  14.5942808  )
        16           O1  tau(  16) = (   3.3157460   0.0104736  13.8786857  )
        17           O1  tau(  17) = (   4.5538541   1.5308062  16.0536203  )
        18           O1  tau(  18) = (   2.1012647   1.5271178  16.0466835  )
        19           Ti1 tau(  19) = (   3.3239613   3.0121693  15.6870930  )
        20           Ti1 tau(  20) = (   0.0188375   1.6096557  16.0875739  )
        21           O1  tau(  21) = (   3.2904802   0.0005063   4.7018136  )
        22           O1  tau(  22) = (   0.0443345   0.0604659  17.2041813  )
        23           O1  tau(  23) = (   1.3043587   1.4918075   6.0039043  )
        24           O1  tau(  24) = (   5.2767064   1.4903225   6.0039473  )
        25           Ti1 tau(  25) = (   0.0000382   5.9609847   6.0000000  )
        26           Ti1 tau(  26) = (   3.2902200   4.4714249   6.0002472  )
        27           O1  tau(  27) = (   0.0002396   2.9813036   7.9858123  )
        28           O1  tau(  28) = (   3.2902150   2.9813002   7.3038282  )
        29           O1  tau(  29) = (   4.5938453   4.4726049   9.2879030  )
        30           O1  tau(  30) = (   1.9864658   4.4711199   9.2879459  )
        31           Ti1 tau(  31) = (   3.2891106   5.8743827   9.1763621  )
        32           Ti1 tau(  32) = (   0.0006254   4.4649316   9.2693709  )
        33           O1  tau(  33) = (   3.3028429   2.9834257  11.2952420  )
        34           O1  tau(  34) = (   0.0092240   2.9805883  10.6323155  )
        35           O1  tau(  35) = (   1.3370139   4.4664586  12.6123119  )
        36           O1  tau(  36) = (   5.3107101   4.4655690  12.6333123  )
        37           Ti1 tau(  37) = (   6.5188704   0.0058144  12.7695920  )
        38           Ti1 tau(  38) = (   3.1805296   4.4670443  12.4671176  )
        39           O1  tau(  39) = (   0.0099197   2.9765079  14.6559069  )
        40           O1  tau(  40) = (   3.3143426   2.9928857  13.8797190  )
        41           O1  tau(  41) = (   4.5573730   4.5089470  16.0521860  )
        42           O1  tau(  42) = (   2.1018054   4.5121927  16.0508938  )
        43           Ti1 tau(  43) = (   3.3145791   0.0316975  15.6896801  )
        44           Ti1 tau(  44) = (   0.0207397   4.5876961  16.1385408  )
        45           O1  tau(  45) = (   3.2900926   2.9813045   4.7018136  )
        46           O1  tau(  46) = (   1.3039711   4.4726057   6.0039043  )
        47           O1  tau(  47) = (   5.2763189   4.4711207   6.0039473  )
        48           N1  tau(  48) = (   0.0936308   3.0233000  17.3257847  )
        49           C1  tau(  49) = (   0.4281149   3.0137428  18.7308649  )
        50           H1  tau(  50) = (   0.7292188   4.0033843  19.0862330  )
        51           H1  tau(  51) = (   6.1445545   2.6862439  19.3232575  )
        52           H1  tau(  52) = (   1.2401080   2.3140860  18.9332505  )

     number of k points=    10  Fermi-Dirac smearing, width (Ry)=  0.0073
                       cart. coord. in units 2pi/alat
        k(    1) = (   0.0000000   0.0000000   0.0000000), wk =   0.1250000
        k(    2) = (   0.0000000   0.0419351   0.0000000), wk =   0.2500000
        k(    3) = (   0.0000000  -0.0838702   0.0000000), wk =   0.1250000
        k(    4) = (   0.0379955   0.0000049   0.0000000), wk =   0.2500000
        k(    5) = (   0.0379955   0.0419400   0.0000000), wk =   0.2500000
        k(    6) = (   0.0379955  -0.0838652   0.0000000), wk =   0.2500000
        k(    7) = (   0.0379955  -0.0419301   0.0000000), wk =   0.2500000
        k(    8) = (  -0.0759910  -0.0000099   0.0000000), wk =   0.1250000
        k(    9) = (  -0.0759910   0.0419252   0.0000000), wk =   0.2500000
        k(   10) = (  -0.0759910  -0.0838800   0.0000000), wk =   0.1250000

     Initial potential from superposition of free atoms

     starting charge  373.99917, renormalised to  390.00000

     negative rho (up, down):  1.730E-02 0.000E+00

     %%%%%%%%%%%%%%%%%%%%%%%%%%%%%%%%%%%%%%%%%%%%%%%%%%%%%%%%%%%%%%%%%%%%%%%%
     %                                                                      %
     % You are using vdW-DF, which was implemented by the Thonhauser group. %
     % Please cite the following two papers that made this development      %
     % possible and the two reviews that describe the various versions:     %
     %                                                                      %
     %   T. Thonhauser et al., PRL 115, 136402 (2015).                      %
     %   T. Thonhauser et al., PRB 76, 125112 (2007).                       %
     %   K. Berland et al., Rep. Prog. Phys. 78, 066501 (2015).             %
     %   D.C. Langreth et al., J. Phys.: Condens. Matter 21, 084203 (2009). %
     %                                                                      %
     %                                                                      %
     % If you are calculating the stress with vdW-DF, please also cite:     %
     %                                                                      %
     %   R. Sabatini et al., J. Phys.: Condens. Matter 24, 424209 (2012).   %
     %                                                                      %
     %%%%%%%%%%%%%%%%%%%%%%%%%%%%%%%%%%%%%%%%%%%%%%%%%%%%%%%%%%%%%%%%%%%%%%%%

     Adding external electric field

     Computed dipole along edir(3) :
        Dipole               -4.6272 Ry au,        -11.7612 Debye
        Dipole field         -0.0087 Ry au,

        Potential amp.        0.8095 Ry
        Total length         46.3494 bohr

     Starting wfcs are  295 atomic wfcs
  @ DRIVER MODE: Message from server: STATUS
  @ DRIVER MODE: Message from server: POSDATA
  @ DRIVER MODE: Reading and sharing cell
  @ DRIVER MODE: Reading and sharing positions
  @ DRIVER MODE: Received positions

     Self-consistent Calculation

     iteration #  1     ecut=    29.40 Ry     beta= 0.05
     Davidson diagonalization with overlap
     c_bands:  3 eigenvalues not converged
     c_bands:  2 eigenvalues not converged
     c_bands:  2 eigenvalues not converged
     c_bands:  4 eigenvalues not converged
     c_bands:  4 eigenvalues not converged
     c_bands:  2 eigenvalues not converged
     c_bands:  2 eigenvalues not converged
     c_bands:  4 eigenvalues not converged
     ethr =  1.00E-05,  avg # of iterations = 19.7

[...]

     total energy              =   -2877.65180472 Ry
     estimated scf accuracy    <     478.78401441 Ry

     iteration #  2     ecut=    29.40 Ry     beta= 0.05
     Davidson diagonalization with overlap
     ethr =  1.00E-02,  avg # of iterations = 13.5

[...]

     iteration # 45     ecut=    29.40 Ry     beta= 0.05
     Davidson diagonalization with overlap
     c_bands:  1 eigenvalues not converged
     ethr =  2.53E-06,  avg # of iterations =  3.0

[...]

     total energy              =   -2919.13183121 Ry
     estimated scf accuracy    <       0.00000012 Ry

     iteration # 71     ecut=    29.40 Ry     beta= 0.05
     Davidson diagonalization with overlap
     ethr =  3.07E-11,  avg # of iterations =  3.8

     negative rho (up, down):  1.787E-02 0.000E+00

     Adding external electric field

     Computed dipole along edir(3) :
        Dipole                0.2594 Ry au,          0.6593 Debye
        Dipole field          0.0005 Ry au,

        Potential amp.       -0.0454 Ry
        Total length         46.3494 bohr

     End of self-consistent calculation

          k = 0.0000 0.0000 0.0000 ( 18029 PWs)   bands (ev):

   -56.8883 -56.8547 -56.0099 -55.9981 -55.9750 -55.9652 -55.8624 -55.8237
   -55.6458 -55.6105 -55.5521 -55.5483 -55.5182 -55.4389 -54.9669 -54.9199
   -33.3163 -33.1630 -33.1349 -33.0644 -32.9733 -32.9423 -32.4808 -32.4746
   -32.4030 -32.2941 -32.2475 -32.2236 -32.2052 -32.1839 -32.1503 -32.1460
   -32.1415 -32.1391 -32.1134 -32.1101 -32.0994 -32.0694 -32.0432 -32.0293
   -32.0163 -31.9966 -31.9895 -31.9659 -31.9444 -31.8907 -31.8771 -31.8665
   -31.7898 -31.7845 -31.7631 -31.7234 -31.7124 -31.6796 -31.6683 -31.6433
   -31.6247 -31.5687 -31.4968 -31.2175 -31.1921 -31.1710 -31.1409 -31.0256
   -17.0523 -16.6166 -16.3860 -16.2508 -16.1832 -16.1289 -16.0848 -15.9597
   -15.8873 -15.8828 -15.8427 -15.8096 -15.7391 -15.6011 -15.5025 -15.4448
   -15.4010 -15.2819 -15.2238 -15.1895 -15.1834 -15.1443 -15.1295 -14.9328
   -14.9063 -14.8186 -14.7982 -14.6716 -14.4386 -14.0507 -13.9407 -13.0826
    -7.8240  -4.6179  -4.1130  -3.8716  -3.7890  -3.6804  -3.6683  -3.5872
    -3.4690  -3.4218  -3.3755  -3.2594  -3.2555  -3.1095  -3.0973  -3.0639
    -3.0610  -3.0233  -2.9793  -2.9434  -2.9058  -2.8932  -2.8854  -2.7349
    -2.6328  -2.5651  -2.5388  -2.5255  -2.4955  -2.4229  -2.3932  -2.3845
    -2.3807  -2.2744  -2.1306  -2.1282  -2.0961  -2.0542  -2.0524  -2.0131
    -2.0004  -1.8760  -1.7854  -1.6763  -1.6668  -1.6293  -1.5680  -1.5616
    -1.4646  -1.3890  -1.3184  -1.3013  -1.1920  -1.1475  -1.1242  -1.0341
    -0.9730  -0.9356  -0.9124  -0.8964  -0.7934  -0.7776  -0.7696  -0.6760
    -0.6639  -0.6207  -0.5276  -0.5045  -0.4992  -0.4166  -0.4094  -0.3037
    -0.2763  -0.2310  -0.1985  -0.0932  -0.0728   0.0251   0.0619   0.0812
     0.2023   0.2196   0.2801   0.3528   0.4177   0.4343   0.4695   0.5004
     0.5165   0.5951   0.7070   0.7137   0.8185   0.8511   1.0220   1.0608
     1.3474   1.3555   2.0448   2.3863   2.5460   2.8442   3.0338   3.1472
     3.3613   3.3767   3.3819   3.5547   3.6064

[...]

          k = 0.0380-0.0419 0.0000 ( 17876 PWs)   bands (ev):

[...]

          k =-0.0760-0.0000 0.0000 ( 17886 PWs)   bands (ev):

[...]

          k =-0.0760-0.0839 0.0000 ( 17948 PWs)   bands (ev):

   -56.8717 -56.8712 -55.9947 -55.9890 -55.9824 -55.9818 -55.8509 -55.8350
   -55.6311 -55.6251 -55.5455 -55.5351 -55.5350 -55.4417 -54.9589 -54.9277
   -33.1489 -33.1485 -33.1332 -33.1329 -33.0175 -33.0171 -32.3107 -32.3083
   -32.2991 -32.2925 -32.2391 -32.2358 -32.1971 -32.1934 -32.1922 -32.1878
   -32.1843 -32.1814 -32.1792 -32.1776 -32.1012 -32.0887 -32.0500 -32.0378
   -31.9816 -31.9730 -31.9133 -31.9074 -31.8796 -31.8795 -31.8735 -31.8297
   -31.8279 -31.7984 -31.7616 -31.7607 -31.7605 -31.7216 -31.7215 -31.7191
   -31.6845 -31.6450 -31.3616 -31.2841 -31.1887 -31.1614 -31.1495 -31.1078
   -16.4010 -16.3989 -16.3663 -16.3660 -16.0970 -16.0934 -16.0468 -16.0434
   -15.8718 -15.8646 -15.6600 -15.6511 -15.6439 -15.6411 -15.5134 -15.5077
   -15.4440 -15.4298 -15.3416 -15.3391 -15.2764 -15.2704 -15.2315 -15.2118
   -14.9019 -14.8843 -14.7725 -14.7469 -14.5821 -14.0442 -14.0441 -13.0990
    -7.8149  -3.4995  -3.4987  -3.4351  -3.4341  -3.3092  -3.3034  -3.2308
    -3.2300  -3.1280  -3.1243  -3.0729  -3.0043  -2.9853  -2.9821  -2.9712
    -2.9690  -2.8301  -2.8280  -2.8169  -2.8010  -2.7452  -2.7430  -2.7293
    -2.6528  -2.6381  -2.6041  -2.5658  -2.4569  -2.4436  -2.4300  -2.3986
    -2.3431  -2.3298  -2.3163  -2.2747  -2.2519  -2.1629  -2.1082  -2.0547
    -1.9394  -1.9364  -1.9276  -1.9119  -1.7610  -1.7192  -1.6915  -1.6848
    -1.6762  -1.6324  -1.5346  -1.5279  -1.3930  -1.3925  -1.3121  -1.2335
    -1.2162  -1.1860  -1.0559  -1.0156  -0.9790  -0.9708  -0.9431  -0.9232
    -0.9000  -0.8624  -0.7210  -0.7079  -0.6710  -0.6359  -0.6309  -0.5760
    -0.5175  -0.4379  -0.3616  -0.3606  -0.3056  -0.2330  -0.1730  -0.0915
    -0.0783  -0.0736   0.2066   0.2860   0.3786   0.4552   0.5240   0.5770
     0.6119   0.6770   0.7154   0.8479   0.8525   0.8701   0.8704   0.9329
     0.9346   1.3396   1.9342   2.9593   2.9595   3.0266   3.0269   3.3504
     3.3564   3.4645   3.4741   3.5860   3.5883

     the Fermi energy is     2.2249 ev

!    total energy              =   -2919.13184941 Ry
     estimated scf accuracy    <       0.00000005 Ry
     smearing contrib. (-TS)   =      -0.00480362 Ry
     internal energy E=F+TS    =   -2919.12704579 Ry

     The total energy is F=E-TS. E is the sum of the following terms:
     one-electron contribution =  -24569.43075351 Ry
     hartree contribution      =   12368.94147948 Ry
     xc contribution           =    -479.90438955 Ry
     ewald contribution        =    9761.26649083 Ry
     electric field correction =       0.00012697 Ry

     convergence has been achieved in  71 iterations

     Forces acting on atoms (cartesian axes, Ry/au):

     atom    1 type  1   force =     0.00005593   -0.00050154    0.12430053
     atom    2 type  1   force =    -0.00009120   -0.00055787   -0.16064663
     atom    3 type  2   force =     0.00022108   -0.00024137   -0.06813546
     atom    4 type  2   force =    -0.00000088   -0.00032170    0.02756672
     atom    5 type  2   force =    -0.01620979    0.00174685   -0.00937477
     atom    6 type  2   force =     0.01826317    0.00228383   -0.00892706
     atom    7 type  1   force =     0.00112755   -0.00382678    0.02204930
     atom    8 type  1   force =    -0.00061694   -0.00325013    0.11126319
     atom    9 type  2   force =    -0.00010614    0.00138733   -0.00037278
     atom   10 type  2   force =    -0.00190726    0.00178614   -0.07349369
     atom   11 type  2   force =     0.00081881    0.00006232    0.00004987
     atom   12 type  2   force =    -0.00065694    0.00020425    0.00015076
     atom   13 type  1   force =     0.00005463    0.00022698   -0.00034977
     atom   14 type  1   force =    -0.00101320   -0.00024551   -0.00046447
     atom   15 type  2   force =     0.00001083   -0.00029745    0.00003080
     atom   16 type  2   force =    -0.00006069    0.00106812    0.00074457
     atom   17 type  2   force =     0.00007382    0.00013369   -0.00047967
     atom   18 type  2   force =     0.00007835    0.00020403   -0.00007940
     atom   19 type  1   force =     0.00014632    0.00002617   -0.00076276
     atom   20 type  1   force =     0.00032826   -0.00094642    0.00027314
     atom   21 type  2   force =     0.00004230   -0.00006546    0.09975925
     atom   22 type  2   force =     0.00015174   -0.00052402   -0.00012702
     atom   23 type  2   force =    -0.07919936   -0.00006082   -0.03243786
     atom   24 type  2   force =     0.07906452    0.00037362   -0.03246262
     atom   25 type  1   force =     0.00004152   -0.00049797    0.12375573
     atom   26 type  1   force =    -0.00010078   -0.00050193   -0.16066250
     atom   27 type  2   force =     0.00032591   -0.00048084   -0.06718225
     atom   28 type  2   force =     0.00002664   -0.00014165    0.02725829
     atom   29 type  2   force =    -0.01660891    0.00134843   -0.00957820
     atom   30 type  2   force =     0.01855089    0.00165510   -0.00914521
     atom   31 type  1   force =     0.00110350   -0.00129864    0.02159965
     atom   32 type  1   force =    -0.00051897    0.00069341    0.11191185
     atom   33 type  2   force =    -0.00034123   -0.00115339    0.00012996
     atom   34 type  2   force =    -0.00156590    0.00135537   -0.07243065
     atom   35 type  2   force =    -0.00178332   -0.00019966    0.00026650
     atom   36 type  2   force =     0.00068687   -0.00042182   -0.00005229
     atom   37 type  1   force =     0.00072566   -0.00033111    0.00076411
     atom   38 type  1   force =    -0.00016312    0.00052361    0.00022582
     atom   39 type  2   force =     0.00017920   -0.00030662   -0.00040076
     atom   40 type  2   force =     0.00010695   -0.00017202    0.00033279
     atom   41 type  2   force =     0.00001304    0.00045568   -0.00015978
     atom   42 type  2   force =     0.00027014    0.00053519   -0.00004738
     atom   43 type  1   force =     0.00037903    0.00017216   -0.00037271
     atom   44 type  1   force =    -0.00022689    0.00007150    0.00017035
     atom   45 type  2   force =     0.00002554   -0.00007032    0.09977474
     atom   46 type  2   force =    -0.07920772    0.00000148   -0.03243769
     atom   47 type  2   force =     0.07907851    0.00043024   -0.03246379
     atom   48 type  3   force =    -0.00007531   -0.00106050   -0.00091128
     atom   49 type  4   force =    -0.00498194    0.00554710    0.00010258
     atom   50 type  5   force =    -0.00153142    0.00072584    0.00002955
     atom   51 type  5   force =     0.00047370   -0.00004802    0.00026645
     atom   52 type  5   force =     0.00454350   -0.00549488    0.00118195

     Total force =     0.424811     Total SCF correction =     0.000313
  @ DRIVER MODE: Message from server: STATUS
  @ DRIVER MODE: Message from server: GETFORCE
  @ DRIVER MODE: Returning v,forces,stress,ensemble

     Writing output data file ./calc.save/
  @ DRIVER MODE: Message from server: EXIT
  @ DRIVE MODE: Exiting

     General routines

     Parallel routines

   This run was terminated on:   4:16:26  25Aug2021

   JOB DONE.