     Program PWSCF v.6.7GPU starts on 16Sep2021 at  0: 3:13

     R & G space division:  proc/nbgrp/npool/nimage =      10
     Reading input from /storage/home/hcoda1/3/ntian30/research/carbon/CxH_vib/H2O_calc/ads_slab/CHOHH2O_a/out_0025/pw.inp
Warning: card &CELL ignored
Warning: card   CELL_DYNAMICS='IPI', ignored
Warning: card / ignored

     Current dimensions of program PWSCF are:
     Max number of different atomic species (ntypx) = 10
     Max number of k-points (npk) =  40000
     Max angular momentum in pseudopotentials (lmaxx) =  3
     Presently no symmetry can be used with electric field

     Message from routine cell_base_init:
     DEPRECATED: use true lattice parameter, not A to a.u. conversion factor

     IMPORTANT: XC functional enforced from input :
     Exchange-correlation= BEEF-VDW
                           (   1   4  43  14   2   0   0)
     Any further DFT definition will be discarded
     Please, verify this is what you really want

  @ DRIVER MODE: Connecting to
 qe_1139763_2852632.sched-torque.pace.gatech.eduap7mmox__scratch
  using UNIX socket
  @ DRIVER MODE: Message from server: STATUS
  @ DRIVER MODE: Message from server: INIT
  @ DRIVER MODE: Receiving replica           0          -1
  @ DRIVER MODE: Receiving encoded integer          25
  @ DRIVER MODE:  SCF:  T  FORCE:  T  STRESS:  F  VC:  F  ENSEMBLE:  F
  @ DRIVER MODE:  SCF:  T  FORCE:  T  STRESS:  F  VC:  F  ENSEMBLE:  F

     Using Slab Decomposition

     bravais-lattice index     =            0
     lattice parameter (alat)  =       1.8897  a.u.
     unit-cell volume          =    6658.9804 (a.u.)^3
     number of atoms/cell      =           54
     number of atomic types    =            4
     number of electrons       =       398.00
     number of Kohn-Sham states=          209
     kinetic-energy cutoff     =      29.3995  Ry
     charge density cutoff     =     293.9946  Ry
     scf convergence threshold =      7.3E-08
     mixing beta               =       0.0500
     number of iterations used =            8  plain     mixing
     Exchange-correlation= BEEF-VDW
                           (   1   4  43  14   2   0   0)

     celldm(1)=   1.889726  celldm(2)=   0.000000  celldm(3)=   0.000000
     celldm(4)=   0.000000  celldm(5)=   0.000000  celldm(6)=   0.000000

     crystal axes: (cart. coord. in units of alat)
               a(1) = (   6.579727   0.000000   0.000000 )
               a(2) = (  -0.000775   5.961596   0.000000 )
               a(3) = (   0.000000   0.000000  25.155947 )

     reciprocal axes: (cart. coord. in units 2 pi/alat)
               b(1) = (  0.151982  0.000020  0.000000 )
               b(2) = (  0.000000  0.167740  0.000000 )
               b(3) = (  0.000000  0.000000  0.039752 )

     PseudoPot. # 1 for Ti read from file:
     /storage/coda1/p-amedford6/0/shared/rich_project_chbe-medford/medford-share/data/pseudos_module/espresso/nninc/pbe/van/Ti.UPF
     MD5 check sum: 8e4df49b7f0d34bbd5052bf3f5ea0213
     Pseudo is Ultrasoft, Zval = 12.0
     Generated by new atomic code, or converted to UPF format
     Using radial grid of  851 points,  6 beta functions with:
                l(1) =   0
                l(2) =   0
                l(3) =   1
                l(4) =   1
                l(5) =   2
                l(6) =   2
     Q(r) pseudized with  8 coefficients,  rinner =    1.000   1.000   1.000
                                                       1.000   1.000

     PseudoPot. # 2 for O  read from file:
     /storage/coda1/p-amedford6/0/shared/rich_project_chbe-medford/medford-share/data/pseudos_module/espresso/nninc/pbe/van/O.UPF
     MD5 check sum: 78c19812648e8988a0fe644b0f25305e
     Pseudo is Ultrasoft, Zval =  6.0
     Generated by new atomic code, or converted to UPF format
     Using radial grid of  737 points,  4 beta functions with:
                l(1) =   0
                l(2) =   0
                l(3) =   1
                l(4) =   1
     Q(r) pseudized with  8 coefficients,  rinner =    0.800   0.800   0.800

     PseudoPot. # 3 for C  read from file:
     /storage/coda1/p-amedford6/0/shared/rich_project_chbe-medford/medford-share/data/pseudos_module/espresso/nninc/pbe/van/C.UPF
     MD5 check sum: 1a69bf6b8db32088f5b2163dbdb77a27
     Pseudo is Ultrasoft, Zval =  4.0
     Generated by new atomic code, or converted to UPF format
     Using radial grid of  721 points,  4 beta functions with:
                l(1) =   0
                l(2) =   0
                l(3) =   1
                l(4) =   1
     Q(r) pseudized with  8 coefficients,  rinner =    0.800   0.800   0.800

     PseudoPot. # 4 for H  read from file:
     /storage/coda1/p-amedford6/0/shared/rich_project_chbe-medford/medford-share/data/pseudos_module/espresso/nninc/pbe/van/H.UPF
     MD5 check sum: b5ee9d7bfd3a09ee7748110bda690ff7
     Pseudo is Ultrasoft, Zval =  1.0
     Generated by new atomic code, or converted to UPF format
     Using radial grid of  615 points,  1 beta functions with:
                l(1) =   0
     Q(r) pseudized with  8 coefficients,  rinner =    0.800

     atomic species   valence    mass     pseudopotential
        Ti1           12.00    47.86700     Ti( 1.00)
        O1             6.00    15.99900     O ( 1.00)
        C1             4.00    12.01100     C ( 1.00)
        H1             1.00     1.00800     H ( 1.00)

     No symmetry found

   Cartesian axes

     site n.     atom                  positions (alat units)
         1           Ti1 tau(   1) = (   0.0004258   2.9801865   6.0000000  )
         2           Ti1 tau(   2) = (   3.2906075   1.4906267   6.0002472  )
         3           O1  tau(   3) = (   0.0006271   0.0005054   7.9858123  )
         4           O1  tau(   4) = (   3.2906025   0.0005020   7.3038282  )
         5           O1  tau(   5) = (   4.5942328   1.4918067   9.2879030  )
         6           O1  tau(   6) = (   1.9868534   1.4903216   9.2879459  )
         7           Ti1 tau(   7) = (   3.3203992   3.0065636   9.1614972  )
         8           Ti1 tau(   8) = (   0.0364112   1.5055733   9.2692997  )
         9           O1  tau(   9) = (   3.3037507   0.0048223  11.3846665  )
        10           O1  tau(  10) = (   0.0023770   0.0017864  10.5989407  )
        11           O1  tau(  11) = (   1.2986710   1.4943985  12.6419360  )
        12           O1  tau(  12) = (   5.3019195   1.4930987  12.6558330  )
        13           Ti1 tau(  13) = (   0.0201679   2.9954199  12.5459836  )
        14           Ti1 tau(  14) = (   3.3085843   1.4996073  12.5278567  )
        15           O1  tau(  15) = (   0.0306707   0.0063333  14.6434371  )
        16           O1  tau(  16) = (   3.2901280   5.9588824  14.0411263  )
        17           O1  tau(  17) = (   4.5937705   1.5245028  16.1210063  )
        18           O1  tau(  18) = (   2.0412355   1.5396885  16.1535958  )
        19           Ti1 tau(  19) = (   3.3250740   2.9785215  15.7238461  )
        20           Ti1 tau(  20) = (   0.0142243   1.3716099  15.9029131  )
        21           O1  tau(  21) = (   3.2904802   0.0005063   4.7018136  )
        22           O1  tau(  22) = (   0.0234726   5.9563001  17.1693433  )
        23           O1  tau(  23) = (   1.3043587   1.4918075   6.0039043  )
        24           O1  tau(  24) = (   5.2767064   1.4903225   6.0039473  )
        25           Ti1 tau(  25) = (   0.0000382   5.9609847   6.0000000  )
        26           Ti1 tau(  26) = (   3.2902200   4.4714249   6.0002472  )
        27           O1  tau(  27) = (   0.0002396   2.9813036   7.9858123  )
        28           O1  tau(  28) = (   3.2902150   2.9813002   7.3038282  )
        29           O1  tau(  29) = (   4.5938453   4.4726049   9.2879030  )
        30           O1  tau(  30) = (   1.9864658   4.4711199   9.2879459  )
        31           Ti1 tau(  31) = (   3.3166040   0.0254347   9.1556988  )
        32           Ti1 tau(  32) = (   0.0362352   4.4699824   9.2670842  )
        33           O1  tau(  33) = (   3.3035804   2.9865095  11.3763011  )
        34           O1  tau(  34) = (   0.0042610   2.9829788  10.6236548  )
        35           O1  tau(  35) = (   1.2977823   4.4749822  12.6434080  )
        36           O1  tau(  36) = (   5.3021498   4.4756442  12.6578133  )
        37           Ti1 tau(  37) = (   0.0128731   0.0155586  12.4748574  )
        38           Ti1 tau(  38) = (   3.3087006   4.4877506  12.5360639  )
        39           O1  tau(  39) = (   0.0289868   2.9802581  14.8446641  )
        40           O1  tau(  40) = (   3.2975897   2.9808645  13.9396156  )
        41           O1  tau(  41) = (   4.5936103   4.4348319  16.1149158  )
        42           O1  tau(  42) = (   2.0365336   4.4144103  16.1518429  )
        43           Ti1 tau(  43) = (   3.2980932   5.9591119  15.8729608  )
        44           Ti1 tau(  44) = (   0.0070259   4.5936845  15.8821292  )
        45           O1  tau(  45) = (   3.2900926   2.9813045   4.7018136  )
        46           O1  tau(  46) = (   1.3039711   4.4726057   6.0039043  )
        47           O1  tau(  47) = (   5.2763189   4.4711207   6.0039473  )
        48           C1  tau(  48) = (   6.0563806   2.9601134  19.0478501  )
        49           O1  tau(  49) = (   0.1703025   2.9720528  17.8813388  )
        50           H1  tau(  50) = (   5.0099104   2.8626262  18.6876999  )
        51           H1  tau(  51) = (   1.1251272   3.0566160  18.0647747  )
        52           O1  tau(  52) = (   3.2703433   5.9178330  18.2983259  )
        53           H1  tau(  53) = (   4.0549949   5.9397654  18.8787675  )
        54           H1  tau(  54) = (   2.4787048   0.0262026  18.8357284  )

     number of k points=    10  Fermi-Dirac smearing, width (Ry)=  0.0073
                       cart. coord. in units 2pi/alat
        k(    1) = (   0.0000000   0.0000000   0.0000000), wk =   0.1250000
        k(    2) = (   0.0000000   0.0419351   0.0000000), wk =   0.2500000
        k(    3) = (   0.0000000  -0.0838702   0.0000000), wk =   0.1250000
        k(    4) = (   0.0379955   0.0000049   0.0000000), wk =   0.2500000
        k(    5) = (   0.0379955   0.0419400   0.0000000), wk =   0.2500000
        k(    6) = (   0.0379955  -0.0838652   0.0000000), wk =   0.2500000
        k(    7) = (   0.0379955  -0.0419301   0.0000000), wk =   0.2500000
        k(    8) = (  -0.0759910  -0.0000099   0.0000000), wk =   0.1250000
        k(    9) = (  -0.0759910   0.0419252   0.0000000), wk =   0.2500000
        k(   10) = (  -0.0759910  -0.0838800   0.0000000), wk =   0.1250000

     Initial potential from superposition of free atoms

     starting charge  381.99917, renormalised to  398.00000

     negative rho (up, down):  1.670E-02 0.000E+00

     %%%%%%%%%%%%%%%%%%%%%%%%%%%%%%%%%%%%%%%%%%%%%%%%%%%%%%%%%%%%%%%%%%%%%%%%
     %                                                                      %
     % You are using vdW-DF, which was implemented by the Thonhauser group. %
     % Please cite the following two papers that made this development      %
     % possible and the two reviews that describe the various versions:     %
     %                                                                      %
     %   T. Thonhauser et al., PRL 115, 136402 (2015).                      %
     %   T. Thonhauser et al., PRB 76, 125112 (2007).                       %
     %   K. Berland et al., Rep. Prog. Phys. 78, 066501 (2015).             %
     %   D.C. Langreth et al., J. Phys.: Condens. Matter 21, 084203 (2009). %
     %                                                                      %
     %                                                                      %
     % If you are calculating the stress with vdW-DF, please also cite:     %
     %                                                                      %
     %   R. Sabatini et al., J. Phys.: Condens. Matter 24, 424209 (2012).   %
     %                                                                      %
     %%%%%%%%%%%%%%%%%%%%%%%%%%%%%%%%%%%%%%%%%%%%%%%%%%%%%%%%%%%%%%%%%%%%%%%%

     Adding external electric field

     Computed dipole along edir(3) :
        Dipole              -10.5131 Ry au,        -26.7216 Debye
        Dipole field         -0.0198 Ry au,

        Potential amp.        1.8391 Ry
        Total length         46.3494 bohr

     Starting wfcs are  300 atomic wfcs
  @ DRIVER MODE: Message from server: STATUS
  @ DRIVER MODE: Message from server: POSDATA
  @ DRIVER MODE: Reading and sharing cell
  @ DRIVER MODE: Reading and sharing positions
  @ DRIVER MODE: Received positions

     Self-consistent Calculation

     iteration #  1     ecut=    29.40 Ry     beta= 0.05
     Davidson diagonalization with overlap
     c_bands:  2 eigenvalues not converged
     c_bands:  3 eigenvalues not converged
     c_bands:  1 eigenvalues not converged
     c_bands:  4 eigenvalues not converged
     c_bands:  4 eigenvalues not converged
     c_bands:  4 eigenvalues not converged
     c_bands:  1 eigenvalues not converged
     c_bands:  3 eigenvalues not converged
     c_bands:  4 eigenvalues not converged
     ethr =  1.00E-05,  avg # of iterations = 19.9

[...]

     total energy              =   -2479.42816553 Ry
     estimated scf accuracy    <    5441.08530765 Ry

     iteration #  2     ecut=    29.40 Ry     beta= 0.05
     Davidson diagonalization with overlap
     ethr =  1.00E-02,  avg # of iterations = 26.7

[...]

     iteration # 95     ecut=    29.40 Ry     beta= 0.05
     Davidson diagonalization with overlap
     c_bands:  1 eigenvalues not converged
     ethr =  4.32E-10,  avg # of iterations = 15.4

[...]

     total energy              =   -2964.77925028 Ry
     estimated scf accuracy    <       0.00000012 Ry

     iteration #101     ecut=    29.40 Ry     beta= 0.05
     Davidson diagonalization with overlap
     ethr =  2.97E-11,  avg # of iterations = 10.2

     negative rho (up, down):  1.518E-02 0.000E+00

     Adding external electric field

     Computed dipole along edir(3) :
        Dipole                0.7104 Ry au,          1.8057 Debye
        Dipole field          0.0013 Ry au,

        Potential amp.       -0.1243 Ry
        Total length         46.3494 bohr

     End of self-consistent calculation

          k = 0.0000 0.0000 0.0000 ( 18029 PWs)   bands (ev):

   -55.7052 -55.6921 -55.6689 -55.6668 -55.6577 -55.6066 -55.5554 -55.5536
   -55.5412 -55.5209 -55.5080 -55.4866 -55.4857 -55.4741 -54.7724 -54.7383
   -32.2657 -32.1862 -32.1827 -32.0878 -32.0506 -32.0310 -32.0197 -32.0097
   -31.9810 -31.9459 -31.9357 -31.9208 -31.8963 -31.8893 -31.8822 -31.8630
   -31.8457 -31.8452 -31.8419 -31.8344 -31.8183 -31.8073 -31.8071 -31.7975
   -31.7956 -31.7803 -31.7772 -31.7491 -31.7370 -31.7233 -31.7120 -31.7111
   -31.7061 -31.7019 -31.6957 -31.6877 -31.6555 -31.6539 -31.6489 -31.6452
   -31.6188 -31.5625 -31.1841 -31.0828 -31.0611 -31.0004 -30.9140 -30.8029
   -21.1365 -19.2621 -16.5237 -16.2816 -16.1388 -16.0355 -15.9308 -15.7984
   -15.7116 -15.5881 -15.5249 -15.3980 -15.3585 -15.3533 -15.3465 -15.3184
   -15.2958 -15.2738 -15.2499 -15.2092 -15.2048 -15.2012 -15.1722 -15.1599
   -15.1024 -15.0897 -15.0453 -14.9278 -14.8762 -14.8152 -14.4967 -13.2732
   -13.1540 -10.3409  -7.2218  -5.7009  -4.7267  -4.0153  -3.9429  -3.8140
    -3.7176  -3.6489  -3.6115  -3.5431  -3.4641  -3.2611  -3.1305  -3.1227
    -2.9900  -2.9532  -2.9088  -2.8074  -2.7415  -2.6796  -2.6691  -2.5934
    -2.5893  -2.5810  -2.5678  -2.4756  -2.4694  -2.4199  -2.3795  -2.3002
    -2.2645  -2.1473  -2.1167  -2.1078  -2.0640  -2.0481  -2.0415  -2.0290
    -1.9794  -1.9536  -1.9355  -1.9343  -1.7925  -1.7506  -1.6048  -1.4795
    -1.4466  -1.4328  -1.3040  -1.2667  -1.2503  -1.1927  -1.1718  -1.1623
    -1.1233  -1.0424  -0.9594  -0.9342  -0.8627  -0.8199  -0.7157  -0.6216
    -0.5769  -0.5283  -0.5057  -0.4964  -0.4772  -0.4123  -0.3646  -0.2780
    -0.2238  -0.1606  -0.1339  -0.1272  -0.0725  -0.0424   0.0377   0.0842
     0.1187   0.1329   0.2187   0.2331   0.2458   0.2769   0.2793   0.3924
     0.4462   0.5035   0.5098   0.6583   0.8255   0.8507   0.9301   1.1447
     1.2532   1.2552   1.4165   1.4734   1.8382   1.8924   3.3826   3.4527
     3.4872   3.5013   3.5107   3.5884   3.8186   3.8704   3.9020   3.9208
     3.9303

[...]

          k = 0.0380-0.0419 0.0000 ( 17876 PWs)   bands (ev):

[...]

          k =-0.0760-0.0000 0.0000 ( 17886 PWs)   bands (ev):

[...]

          k =-0.0760-0.0839 0.0000 ( 17948 PWs)   bands (ev):

   -55.6896 -55.6842 -55.6770 -55.6727 -55.6651 -55.6004 -55.5598 -55.5401
   -55.5358 -55.5344 -55.4924 -55.4922 -55.4900 -55.4880 -54.7554 -54.7553
   -32.1077 -32.0760 -32.0649 -32.0032 -31.9991 -31.9801 -31.9709 -31.9620
   -31.9599 -31.9354 -31.9342 -31.9094 -31.9003 -31.8718 -31.8582 -31.8566
   -31.8550 -31.8466 -31.8417 -31.8378 -31.8299 -31.8223 -31.8052 -31.8023
   -31.7995 -31.7975 -31.7971 -31.7960 -31.7928 -31.7847 -31.7824 -31.7529
   -31.7385 -31.7380 -31.7225 -31.7136 -31.7117 -31.7062 -31.6810 -31.6762
   -31.6748 -31.6518 -31.0737 -31.0736 -30.9969 -30.9965 -30.9573 -30.9571
   -21.1352 -19.2616 -16.1543 -15.9595 -15.8092 -15.7247 -15.7180 -15.6590
   -15.5788 -15.5376 -15.4916 -15.4800 -15.4695 -15.4353 -15.4254 -15.4141
   -15.3519 -15.3020 -15.2986 -15.2831 -15.2338 -15.2263 -15.2158 -15.2103
   -15.2014 -15.1584 -15.1543 -15.1396 -15.1287 -14.9851 -14.8283 -13.2554
   -13.2547 -10.3442  -7.2194  -5.7040  -4.7054  -3.9449  -3.8702  -3.2346
    -3.2322  -2.9706  -2.9483  -2.8898  -2.8782  -2.8143  -2.7829  -2.7071
    -2.7007  -2.6554  -2.6150  -2.6068  -2.5938  -2.5697  -2.5364  -2.5230
    -2.4811  -2.4716  -2.4454  -2.4401  -2.4218  -2.4058  -2.3808  -2.3749
    -2.3426  -2.3225  -2.3146  -2.3109  -2.2336  -2.1718  -2.0489  -2.0269
    -1.9862  -1.9371  -1.9215  -1.8509  -1.8151  -1.8003  -1.7427  -1.7082
    -1.6816  -1.5086  -1.4968  -1.4763  -1.3851  -1.3525  -1.3406  -1.3109
    -1.2552  -1.2264  -1.2224  -1.1447  -1.0335  -1.0108  -0.9125  -0.8666
    -0.8654  -0.7768  -0.7435  -0.7049  -0.7029  -0.6656  -0.6093  -0.5876
    -0.5305  -0.5248  -0.4772  -0.4566  -0.4331  -0.4021  -0.2293  -0.1743
    -0.1187  -0.0214   0.0074   0.2351   0.2659   0.2730   0.3385   0.3692
     0.4752   0.4967   0.5596   0.5746   0.6757   0.7075   0.7240   0.7289
     0.7752   1.4802   1.6050   1.6076   1.7065   1.7101   3.5318   3.5463
     3.6477   3.6995   3.7370   3.8406   3.8894   3.9216   3.9293   3.9442
     4.0179

     the Fermi energy is     3.4306 ev

!    total energy              =   -2964.77925204 Ry
     estimated scf accuracy    <       0.00000007 Ry
     smearing contrib. (-TS)   =      -0.03745578 Ry
     internal energy E=F+TS    =   -2964.74179626 Ry

     The total energy is F=E-TS. E is the sum of the following terms:
     one-electron contribution =  -24112.40467681 Ry
     hartree contribution      =   12146.41996844 Ry
     xc contribution           =    -490.02121122 Ry
     ewald contribution        =    9491.26317090 Ry
     electric field correction =       0.00095243 Ry

     convergence has been achieved in 101 iterations

     Forces acting on atoms (cartesian axes, Ry/au):

     atom    1 type  1   force =    -0.00035917   -0.00002213    0.09252542
     atom    2 type  1   force =    -0.00032487    0.00121801   -0.18265417
     atom    3 type  2   force =     0.00043388    0.00023186   -0.02456847
     atom    4 type  2   force =     0.00073565    0.00045037    0.05163068
     atom    5 type  2   force =    -0.01464633   -0.00007544    0.00465942
     atom    6 type  2   force =     0.01552979   -0.00056713    0.00541266
     atom    7 type  1   force =    -0.00050045   -0.00017230    0.00007714
     atom    8 type  1   force =     0.00021235    0.00003664    0.00020410
     atom    9 type  2   force =    -0.00016791   -0.00018200   -0.00029424
     atom   10 type  2   force =     0.00006219   -0.00004240    0.00031442
     atom   11 type  2   force =    -0.00031680    0.00020928    0.00004092
     atom   12 type  2   force =     0.00038797    0.00007853   -0.00020269
     atom   13 type  1   force =    -0.00020034   -0.00025646    0.00024570
     atom   14 type  1   force =     0.00012029   -0.00020804   -0.00046546
     atom   15 type  2   force =    -0.00033005    0.00032969   -0.00012939
     atom   16 type  2   force =     0.00008862    0.00001382   -0.00028499
     atom   17 type  2   force =    -0.00015030   -0.00024782    0.00035841
     atom   18 type  2   force =     0.00010510    0.00004898   -0.00046023
     atom   19 type  1   force =    -0.00115481    0.00006771   -0.00031206
     atom   20 type  1   force =     0.00050012    0.00007706    0.00002915
     atom   21 type  2   force =    -0.00009506    0.00005836    0.10491697
     atom   22 type  2   force =    -0.00044080   -0.00001606    0.00039502
     atom   23 type  2   force =    -0.06833866    0.00003064   -0.02693173
     atom   24 type  2   force =     0.06803506    0.00046498   -0.02700812
     atom   25 type  1   force =    -0.00030798   -0.00000961    0.09718784
     atom   26 type  1   force =    -0.00030292   -0.00120460   -0.18269947
     atom   27 type  2   force =     0.00034828    0.00023538   -0.02299083
     atom   28 type  2   force =     0.00081725    0.00042542    0.05201508
     atom   29 type  2   force =    -0.01463165    0.00065098    0.00458925
     atom   30 type  2   force =     0.01565408    0.00040163    0.00531943
     atom   31 type  1   force =    -0.00045801    0.00000611    0.00010259
     atom   32 type  1   force =     0.00020699    0.00007005    0.00018361
     atom   33 type  2   force =    -0.00008110    0.00013402    0.00017906
     atom   34 type  2   force =     0.00001088    0.00001605    0.00016035
     atom   35 type  2   force =    -0.00015121   -0.00030255    0.00012989
     atom   36 type  2   force =     0.00022251   -0.00019861   -0.00009694
     atom   37 type  1   force =    -0.00027538    0.00016776   -0.00045216
     atom   38 type  1   force =     0.00010865    0.00036563   -0.00036748
     atom   39 type  2   force =    -0.00039293   -0.00027778   -0.00021063
     atom   40 type  2   force =     0.00019679   -0.00008394   -0.00003657
     atom   41 type  2   force =    -0.00040083    0.00000083    0.00001257
     atom   42 type  2   force =     0.00032017   -0.00030520   -0.00083440
     atom   43 type  1   force =    -0.00127320   -0.00025766    0.00008385
     atom   44 type  1   force =     0.00050226   -0.00062745    0.00010382
     atom   45 type  2   force =    -0.00006901    0.00005327    0.10481315
     atom   46 type  2   force =    -0.06832408   -0.00060502   -0.02692105
     atom   47 type  2   force =     0.06802719   -0.00014123   -0.02699899
     atom   48 type  3   force =    -0.00004674   -0.00009234   -0.00024349
     atom   49 type  2   force =    -0.00013312   -0.00000895   -0.00006664
     atom   50 type  4   force =     0.00015219    0.00018313   -0.00017299
     atom   51 type  4   force =     0.00019767   -0.00007790   -0.00013403
     atom   52 type  2   force =     0.02730389   -0.00203666    0.00049484
     atom   53 type  4   force =    -0.01283668    0.00022846   -0.00948268
     atom   54 type  4   force =    -0.01356946    0.00176461    0.00883458

     Total force =     0.370202     Total SCF correction =     0.000593
  @ DRIVER MODE: Message from server: STATUS
  @ DRIVER MODE: Message from server: GETFORCE
  @ DRIVER MODE: Returning v,forces,stress,ensemble

     Writing output data file ./calc.save/
  @ DRIVER MODE: Message from server: EXIT
  @ DRIVE MODE: Exiting

     General routines

     Parallel routines

   This run was terminated on:   0:27:34  16Sep2021

   JOB DONE.