     Program PWSCF v.6.7GPU starts on 15Sep2021 at 21:52:24

     R & G space division:  proc/nbgrp/npool/nimage =      10
     Reading input from /storage/home/hcoda1/3/ntian30/research/carbon/CxH_vib/H2O_calc/ads_slab/CHNH2O_a/out_0019/pw.inp
Warning: card &CELL ignored
Warning: card   CELL_DYNAMICS='IPI', ignored
Warning: card / ignored

     Current dimensions of program PWSCF are:
     Max number of different atomic species (ntypx) = 10
     Max number of k-points (npk) =  40000
     Max angular momentum in pseudopotentials (lmaxx) =  3
     Presently no symmetry can be used with electric field

     Message from routine cell_base_init:
     DEPRECATED: use true lattice parameter, not A to a.u. conversion factor

     IMPORTANT: XC functional enforced from input :
     Exchange-correlation= BEEF-VDW
                           (   1   4  43  14   2   0   0)
     Any further DFT definition will be discarded
     Please, verify this is what you really want

  @ DRIVER MODE: Connecting to
 qe_1139763_2852627.sched-torque.pace.gatech.edu8l25smmo_scratch
  using UNIX socket
  @ DRIVER MODE: Message from server: STATUS
  @ DRIVER MODE: Message from server: INIT
  @ DRIVER MODE: Receiving replica           0          -1
  @ DRIVER MODE: Receiving encoded integer          25
  @ DRIVER MODE:  SCF:  T  FORCE:  T  STRESS:  F  VC:  F  ENSEMBLE:  F
  @ DRIVER MODE:  SCF:  T  FORCE:  T  STRESS:  F  VC:  F  ENSEMBLE:  F

     Using Slab Decomposition

     bravais-lattice index     =            0
     lattice parameter (alat)  =       1.8897  a.u.
     unit-cell volume          =    6658.9804 (a.u.)^3
     number of atoms/cell      =           53
     number of atomic types    =            5
     number of electrons       =       396.00
     number of Kohn-Sham states=          208
     kinetic-energy cutoff     =      29.3995  Ry
     charge density cutoff     =     293.9946  Ry
     scf convergence threshold =      7.3E-08
     mixing beta               =       0.0500
     number of iterations used =            8  plain     mixing
     Exchange-correlation= BEEF-VDW
                           (   1   4  43  14   2   0   0)

     celldm(1)=   1.889726  celldm(2)=   0.000000  celldm(3)=   0.000000
     celldm(4)=   0.000000  celldm(5)=   0.000000  celldm(6)=   0.000000

     crystal axes: (cart. coord. in units of alat)
               a(1) = (   6.579727   0.000000   0.000000 )
               a(2) = (  -0.000775   5.961596   0.000000 )
               a(3) = (   0.000000   0.000000  25.155947 )

     reciprocal axes: (cart. coord. in units 2 pi/alat)
               b(1) = (  0.151982  0.000020  0.000000 )
               b(2) = (  0.000000  0.167740  0.000000 )
               b(3) = (  0.000000  0.000000  0.039752 )

     PseudoPot. # 1 for Ti read from file:
     /storage/coda1/p-amedford6/0/shared/rich_project_chbe-medford/medford-share/data/pseudos_module/espresso/nninc/pbe/van/Ti.UPF
     MD5 check sum: 8e4df49b7f0d34bbd5052bf3f5ea0213
     Pseudo is Ultrasoft, Zval = 12.0
     Generated by new atomic code, or converted to UPF format
     Using radial grid of  851 points,  6 beta functions with:
                l(1) =   0
                l(2) =   0
                l(3) =   1
                l(4) =   1
                l(5) =   2
                l(6) =   2
     Q(r) pseudized with  8 coefficients,  rinner =    1.000   1.000   1.000
                                                       1.000   1.000

     PseudoPot. # 2 for O  read from file:
     /storage/coda1/p-amedford6/0/shared/rich_project_chbe-medford/medford-share/data/pseudos_module/espresso/nninc/pbe/van/O.UPF
     MD5 check sum: 78c19812648e8988a0fe644b0f25305e
     Pseudo is Ultrasoft, Zval =  6.0
     Generated by new atomic code, or converted to UPF format
     Using radial grid of  737 points,  4 beta functions with:
                l(1) =   0
                l(2) =   0
                l(3) =   1
                l(4) =   1
     Q(r) pseudized with  8 coefficients,  rinner =    0.800   0.800   0.800

     PseudoPot. # 3 for N  read from file:
     /storage/coda1/p-amedford6/0/shared/rich_project_chbe-medford/medford-share/data/pseudos_module/espresso/nninc/pbe/van/N.UPF
     MD5 check sum: 90d10febe142ad51ac9d5be1deb811c4
     Pseudo is Ultrasoft, Zval =  5.0
     Generated by new atomic code, or converted to UPF format
     Using radial grid of  729 points,  4 beta functions with:
                l(1) =   0
                l(2) =   0
                l(3) =   1
                l(4) =   1
     Q(r) pseudized with  8 coefficients,  rinner =    0.800   0.800   0.800

     PseudoPot. # 4 for C  read from file:
     /storage/coda1/p-amedford6/0/shared/rich_project_chbe-medford/medford-share/data/pseudos_module/espresso/nninc/pbe/van/C.UPF
     MD5 check sum: 1a69bf6b8db32088f5b2163dbdb77a27
     Pseudo is Ultrasoft, Zval =  4.0
     Generated by new atomic code, or converted to UPF format
     Using radial grid of  721 points,  4 beta functions with:
                l(1) =   0
                l(2) =   0
                l(3) =   1
                l(4) =   1
     Q(r) pseudized with  8 coefficients,  rinner =    0.800   0.800   0.800

     PseudoPot. # 5 for H  read from file:
     /storage/coda1/p-amedford6/0/shared/rich_project_chbe-medford/medford-share/data/pseudos_module/espresso/nninc/pbe/van/H.UPF
     MD5 check sum: b5ee9d7bfd3a09ee7748110bda690ff7
     Pseudo is Ultrasoft, Zval =  1.0
     Generated by new atomic code, or converted to UPF format
     Using radial grid of  615 points,  1 beta functions with:
                l(1) =   0
     Q(r) pseudized with  8 coefficients,  rinner =    0.800

     atomic species   valence    mass     pseudopotential
        Ti1           12.00    47.86700     Ti( 1.00)
        O1             6.00    15.99900     O ( 1.00)
        N1             5.00    14.00700     N ( 1.00)
        C1             4.00    12.01100     C ( 1.00)
        H1             1.00     1.00800     H ( 1.00)

     No symmetry found

   Cartesian axes

     site n.     atom                  positions (alat units)
         1           Ti1 tau(   1) = (   0.0004258   2.9801865   6.0000000  )
         2           Ti1 tau(   2) = (   3.2906075   1.4906267   6.0002472  )
         3           O1  tau(   3) = (   0.0006271   0.0005054   7.9858123  )
         4           O1  tau(   4) = (   3.2906025   0.0005020   7.3038282  )
         5           O1  tau(   5) = (   4.5942328   1.4918067   9.2879030  )
         6           O1  tau(   6) = (   1.9868534   1.4903216   9.2879459  )
         7           Ti1 tau(   7) = (   3.2907910   2.8959150   9.1758416  )
         8           Ti1 tau(   8) = (   0.0015273   1.4827037   9.2680791  )
         9           O1  tau(   9) = (   3.3001320   0.0223556  11.3750156  )
        10           O1  tau(  10) = (   0.0116148   5.9584955  10.6183126  )
        11           O1  tau(  11) = (   1.2984793   1.5070296  12.6822906  )
        12           O1  tau(  12) = (   5.3053048   1.5066133  12.6782214  )
        13           Ti1 tau(  13) = (   0.0240538   2.9928608  12.5236668  )
        14           Ti1 tau(  14) = (   3.3205759   1.5163330  12.5292614  )
        15           O1  tau(  15) = (   0.0116174   5.9170763  14.6754219  )
        16           O1  tau(  16) = (   3.3074613   5.9602333  14.0123823  )
        17           O1  tau(  17) = (   4.5729729   1.5428591  16.1031931  )
        18           O1  tau(  18) = (   2.0357456   1.5455963  16.0959954  )
        19           Ti1 tau(  19) = (   3.3038618   3.0179751  15.7376193  )
        20           Ti1 tau(  20) = (   0.0182819   1.3639466  15.8252938  )
        21           O1  tau(  21) = (   3.2904802   0.0005063   4.7018136  )
        22           O1  tau(  22) = (   0.0233993   0.1148627  17.2261141  )
        23           O1  tau(  23) = (   1.3043587   1.4918075   6.0039043  )
        24           O1  tau(  24) = (   5.2767064   1.4903225   6.0039473  )
        25           Ti1 tau(  25) = (   0.0000382   5.9609847   6.0000000  )
        26           Ti1 tau(  26) = (   3.2902200   4.4714249   6.0002472  )
        27           O1  tau(  27) = (   0.0002396   2.9813036   7.9858123  )
        28           O1  tau(  28) = (   3.2902150   2.9813002   7.3038282  )
        29           O1  tau(  29) = (   4.5938453   4.4726049   9.2879030  )
        30           O1  tau(  30) = (   1.9864658   4.4711199   9.2879459  )
        31           Ti1 tau(  31) = (   3.2891106   5.8743827   9.1763621  )
        32           Ti1 tau(  32) = (   0.0006254   4.4649316   9.2693709  )
        33           O1  tau(  33) = (   3.3008157   2.9919736  11.3713264  )
        34           O1  tau(  34) = (   0.0092240   2.9805883  10.6323155  )
        35           O1  tau(  35) = (   1.3007438   4.4795902  12.6508594  )
        36           O1  tau(  36) = (   5.3032704   4.4808111  12.6474791  )
        37           Ti1 tau(  37) = (   0.0257871   0.0021926  12.5000826  )
        38           Ti1 tau(  38) = (   3.3207303   4.5031034  12.5344522  )
        39           O1  tau(  39) = (   0.0087802   3.0322157  14.9253570  )
        40           O1  tau(  40) = (   3.3068524   3.0154938  13.9499554  )
        41           O1  tau(  41) = (   4.5633958   4.4699756  16.2119971  )
        42           O1  tau(  42) = (   2.0378630   4.4655417  16.1963084  )
        43           Ti1 tau(  43) = (   3.3121544   0.0541299  15.8353365  )
        44           Ti1 tau(  44) = (   0.0163097   4.5868159  16.0488687  )
        45           O1  tau(  45) = (   3.2900926   2.9813045   4.7018136  )
        46           O1  tau(  46) = (   1.3039711   4.4726057   6.0039043  )
        47           O1  tau(  47) = (   5.2763189   4.4711207   6.0039473  )
        48           N1  tau(  48) = (   0.0062226   3.2377968  17.9635855  )
        49           C1  tau(  49) = (   6.5597590   2.5083335  18.8557918  )
        50           H1  tau(  50) = (   6.5336154   1.7992569  19.6484373  )
        51           O1  tau(  51) = (   3.2380284   5.9531242  18.4006015  )
        52           H1  tau(  52) = (   3.9795166   5.3132839  18.3896481  )
        53           H1  tau(  53) = (   2.4340588   5.4237150  18.3412978  )

     number of k points=    10  Fermi-Dirac smearing, width (Ry)=  0.0073
                       cart. coord. in units 2pi/alat
        k(    1) = (   0.0000000   0.0000000   0.0000000), wk =   0.1250000
        k(    2) = (   0.0000000   0.0419351   0.0000000), wk =   0.2500000
        k(    3) = (   0.0000000  -0.0838702   0.0000000), wk =   0.1250000
        k(    4) = (   0.0379955   0.0000049   0.0000000), wk =   0.2500000
        k(    5) = (   0.0379955   0.0419400   0.0000000), wk =   0.2500000
        k(    6) = (   0.0379955  -0.0838652   0.0000000), wk =   0.2500000
        k(    7) = (   0.0379955  -0.0419301   0.0000000), wk =   0.2500000
        k(    8) = (  -0.0759910  -0.0000099   0.0000000), wk =   0.1250000
        k(    9) = (  -0.0759910   0.0419252   0.0000000), wk =   0.2500000
        k(   10) = (  -0.0759910  -0.0838800   0.0000000), wk =   0.1250000

     Initial potential from superposition of free atoms

     starting charge  379.99917, renormalised to  396.00000

     negative rho (up, down):  1.669E-02 0.000E+00

     %%%%%%%%%%%%%%%%%%%%%%%%%%%%%%%%%%%%%%%%%%%%%%%%%%%%%%%%%%%%%%%%%%%%%%%%
     %                                                                      %
     % You are using vdW-DF, which was implemented by the Thonhauser group. %
     % Please cite the following two papers that made this development      %
     % possible and the two reviews that describe the various versions:     %
     %                                                                      %
     %   T. Thonhauser et al., PRL 115, 136402 (2015).                      %
     %   T. Thonhauser et al., PRB 76, 125112 (2007).                       %
     %   K. Berland et al., Rep. Prog. Phys. 78, 066501 (2015).             %
     %   D.C. Langreth et al., J. Phys.: Condens. Matter 21, 084203 (2009). %
     %                                                                      %
     %                                                                      %
     % If you are calculating the stress with vdW-DF, please also cite:     %
     %                                                                      %
     %   R. Sabatini et al., J. Phys.: Condens. Matter 24, 424209 (2012).   %
     %                                                                      %
     %%%%%%%%%%%%%%%%%%%%%%%%%%%%%%%%%%%%%%%%%%%%%%%%%%%%%%%%%%%%%%%%%%%%%%%%

     Adding external electric field

     Computed dipole along edir(3) :
        Dipole               -9.4938 Ry au,        -24.1308 Debye
        Dipole field         -0.0179 Ry au,

        Potential amp.        1.6608 Ry
        Total length         46.3494 bohr

     Starting wfcs are  299 atomic wfcs
  @ DRIVER MODE: Message from server: STATUS
  @ DRIVER MODE: Message from server: POSDATA
  @ DRIVER MODE: Reading and sharing cell
  @ DRIVER MODE: Reading and sharing positions
  @ DRIVER MODE: Received positions

     Self-consistent Calculation

     iteration #  1     ecut=    29.40 Ry     beta= 0.05
     Davidson diagonalization with overlap
     c_bands:  1 eigenvalues not converged
     c_bands:  1 eigenvalues not converged
     c_bands:  2 eigenvalues not converged
     c_bands:  3 eigenvalues not converged
     c_bands:  3 eigenvalues not converged
     c_bands:  2 eigenvalues not converged
     c_bands:  3 eigenvalues not converged
     c_bands:  1 eigenvalues not converged
     c_bands:  2 eigenvalues not converged
     c_bands:  2 eigenvalues not converged
     ethr =  1.00E-05,  avg # of iterations = 20.0

[...]

     total energy              =   -2563.41053103 Ry
     estimated scf accuracy    <    4341.72766371 Ry

     iteration #  2     ecut=    29.40 Ry     beta= 0.05
     Davidson diagonalization with overlap
     ethr =  1.00E-02,  avg # of iterations = 24.6

[...]

     iteration # 51     ecut=    29.40 Ry     beta= 0.05
     Davidson diagonalization with overlap
     c_bands:  1 eigenvalues not converged
     ethr =  2.96E-10,  avg # of iterations = 12.0

[...]

     total energy              =   -2951.44714752 Ry
     estimated scf accuracy    <       0.00000021 Ry

     iteration # 55     ecut=    29.40 Ry     beta= 0.05
     Davidson diagonalization with overlap
     ethr =  4.48E-11,  avg # of iterations = 10.5

     negative rho (up, down):  1.630E-02 0.000E+00

     Adding external electric field

     Computed dipole along edir(3) :
        Dipole                1.4821 Ry au,          3.7670 Debye
        Dipole field          0.0028 Ry au,

        Potential amp.       -0.2593 Ry
        Total length         46.3494 bohr

     End of self-consistent calculation

          k = 0.0000 0.0000 0.0000 ( 18029 PWs)   bands (ev):

   -55.3156 -55.2797 -55.2785 -55.2444 -55.2264 -55.1936 -55.1564 -55.1379
   -55.1180 -55.1072 -55.1032 -55.0928 -55.0737 -55.0069 -54.3032 -54.2691
   -31.8753 -31.7702 -31.7105 -31.6824 -31.6345 -31.6266 -31.6121 -31.6113
   -31.5676 -31.5332 -31.5264 -31.5230 -31.5006 -31.4873 -31.4635 -31.4605
   -31.4561 -31.4540 -31.4367 -31.4305 -31.4022 -31.3916 -31.3857 -31.3735
   -31.3673 -31.3386 -31.3374 -31.3356 -31.3245 -31.3230 -31.3216 -31.3044
   -31.2963 -31.2903 -31.2862 -31.2627 -31.2515 -31.2404 -31.2353 -31.2173
   -31.2161 -31.1242 -30.7124 -30.6186 -30.5965 -30.5287 -30.4420 -30.3311
   -18.9215 -17.3407 -16.1212 -15.8666 -15.7135 -15.6129 -15.5140 -15.3724
   -15.3183 -15.2086 -15.1430 -15.0023 -14.9658 -14.9471 -14.9296 -14.9269
   -14.8823 -14.8552 -14.8491 -14.8156 -14.8132 -14.7870 -14.7510 -14.7420
   -14.7117 -14.6959 -14.6494 -14.5409 -14.4717 -14.4086 -14.1123 -12.8058
   -12.6885  -8.9833  -6.6526  -4.6244  -3.4662  -3.4319  -3.3266  -3.2210
    -3.2136  -3.1880  -3.1697  -3.0603  -3.0236  -2.7742  -2.7185  -2.6601
    -2.5708  -2.4984  -2.4869  -2.4474  -2.3194  -2.2768  -2.2365  -2.1679
    -2.1505  -2.1239  -2.1001  -2.0908  -2.0307  -2.0255  -2.0007  -1.8840
    -1.8431  -1.7757  -1.7258  -1.7090  -1.6561  -1.6350  -1.6041  -1.6034
    -1.5981  -1.5528  -1.5519  -1.4970  -1.4853  -1.3801  -1.3390  -1.1506
    -1.0565  -0.9983  -0.9541  -0.8870  -0.8726  -0.7991  -0.7591  -0.7039
    -0.7019  -0.6448  -0.5246  -0.4340  -0.4121  -0.3837  -0.2980  -0.2616
    -0.1999  -0.1832  -0.0956  -0.0827  -0.0762  -0.0686   0.0605   0.1094
     0.1902   0.1959   0.2454   0.2657   0.3439   0.3585   0.4288   0.4671
     0.5229   0.5669   0.6232   0.6315   0.6567   0.6769   0.6935   0.7834
     0.7968   0.8242   0.8984   1.0351   1.2256   1.2960   1.3182   1.6270
     1.6480   1.7194   1.9043   2.2951   2.3432   3.7784   3.8573   3.9196
     3.9291   3.9412   4.0143   4.2609   4.2780   4.2790   4.2942   4.3213

[...]

          k = 0.0380-0.0419 0.0000 ( 17876 PWs)   bands (ev):

[...]

          k =-0.0760-0.0000 0.0000 ( 17886 PWs)   bands (ev):

[...]

          k =-0.0760-0.0839 0.0000 ( 17948 PWs)   bands (ev):

   -55.2992 -55.2958 -55.2615 -55.2613 -55.2241 -55.1822 -55.1677 -55.1227
   -55.1179 -55.1150 -55.0950 -55.0909 -55.0902 -55.0097 -54.2863 -54.2859
   -31.6841 -31.6761 -31.6329 -31.5854 -31.5852 -31.5712 -31.5629 -31.5531
   -31.5528 -31.5264 -31.5158 -31.5134 -31.5037 -31.4717 -31.4551 -31.4507
   -31.4465 -31.4440 -31.4422 -31.4360 -31.4312 -31.3981 -31.3955 -31.3950
   -31.3811 -31.3809 -31.3785 -31.3744 -31.3620 -31.3552 -31.3487 -31.3427
   -31.3360 -31.3313 -31.3200 -31.3182 -31.3116 -31.2787 -31.2707 -31.2701
   -31.2238 -31.2155 -30.6093 -30.6090 -30.5250 -30.5248 -30.4854 -30.4853
   -18.9206 -17.3358 -15.6573 -15.5525 -15.4427 -15.3229 -15.3149 -15.2581
   -15.2105 -15.1301 -15.0889 -15.0764 -15.0558 -15.0415 -15.0107 -15.0069
   -14.9863 -14.9120 -14.9012 -14.8909 -14.8677 -14.8263 -14.8156 -14.8129
   -14.7957 -14.7703 -14.7662 -14.6714 -14.6685 -14.5733 -14.4483 -12.7900
   -12.7900  -8.9812  -6.6457  -4.6112  -3.3332  -3.2551  -2.9271  -2.8193
    -2.7750  -2.6843  -2.5341  -2.5045  -2.4337  -2.4275  -2.3606  -2.3084
    -2.2941  -2.2749  -2.1917  -2.1751  -2.1644  -2.1523  -2.1393  -2.1111
    -2.0880  -2.0405  -2.0374  -2.0358  -2.0269  -2.0058  -1.9703  -1.9506
    -1.9112  -1.9021  -1.8810  -1.8340  -1.7919  -1.7744  -1.7570  -1.6516
    -1.6251  -1.5188  -1.5140  -1.4141  -1.4094  -1.3822  -1.3571  -1.3475
    -1.2793  -1.2124  -1.0604  -1.0509  -1.0184  -0.9403  -0.9283  -0.8712
    -0.8645  -0.7796  -0.7624  -0.7341  -0.6392  -0.6090  -0.5057  -0.4921
    -0.4831  -0.3465  -0.3427  -0.2864  -0.2747  -0.2716  -0.2035  -0.1977
    -0.1915  -0.1104  -0.0760  -0.0490  -0.0379   0.0156   0.2039   0.2310
     0.2611   0.3839   0.4318   0.5718   0.6653   0.6705   0.7410   0.8035
     0.8221   0.8825   0.9796   0.9930   1.0496   1.0797   1.1281   1.1430
     1.1532   2.0766   2.0776   2.1631   2.1632   3.8943   3.9937   4.0610
     4.1116   4.1250   4.2144   4.2993   4.3281   4.3610   4.3628   4.4496

     the Fermi energy is     3.8360 ev

!    total energy              =   -2951.44721363 Ry
     estimated scf accuracy    <       0.00000005 Ry
     smearing contrib. (-TS)   =      -0.03730631 Ry
     internal energy E=F+TS    =   -2951.40990732 Ry

     The total energy is F=E-TS. E is the sum of the following terms:
     one-electron contribution =  -24061.02529204 Ry
     hartree contribution      =   12123.57557041 Ry
     xc contribution           =    -487.22948914 Ry
     ewald contribution        =    9473.26515835 Ry
     electric field correction =       0.00414510 Ry

     convergence has been achieved in  55 iterations

     Forces acting on atoms (cartesian axes, Ry/au):

     atom    1 type  1   force =    -0.00004710   -0.00024676    0.09360038
     atom    2 type  1   force =    -0.00016353   -0.00045430   -0.17784563
     atom    3 type  2   force =     0.00002430   -0.00026497   -0.02076952
     atom    4 type  2   force =    -0.00003102   -0.00180063    0.05842422
     atom    5 type  2   force =    -0.01032736   -0.00057905    0.00698200
     atom    6 type  2   force =     0.01199067    0.00005575    0.00669568
     atom    7 type  1   force =    -0.00013725    0.00223258   -0.01160018
     atom    8 type  1   force =    -0.00007136    0.00225647   -0.00161919
     atom    9 type  2   force =     0.00007301    0.00060225    0.00061278
     atom   10 type  2   force =    -0.00107652    0.00321453   -0.00394605
     atom   11 type  2   force =     0.00035448   -0.00031097   -0.00031150
     atom   12 type  2   force =    -0.00039401   -0.00031624   -0.00018283
     atom   13 type  1   force =     0.00000732    0.00014921    0.00025394
     atom   14 type  1   force =     0.00000689   -0.00047060    0.00041637
     atom   15 type  2   force =    -0.00025973   -0.00068596    0.00066317
     atom   16 type  2   force =    -0.00001533    0.00043864    0.00023665
     atom   17 type  2   force =     0.00001944   -0.00033521   -0.00010901
     atom   18 type  2   force =     0.00015612   -0.00020175   -0.00064351
     atom   19 type  1   force =    -0.00061517   -0.00121303   -0.00021953
     atom   20 type  1   force =     0.00026187   -0.00002478   -0.00081137
     atom   21 type  2   force =    -0.00001591   -0.00011616    0.10390938
     atom   22 type  2   force =    -0.00014967    0.00050385   -0.00051766
     atom   23 type  2   force =    -0.07055624   -0.00021447   -0.02696178
     atom   24 type  2   force =     0.07034775    0.00021852   -0.02701501
     atom   25 type  1   force =    -0.00000761   -0.00027027    0.09315821
     atom   26 type  1   force =    -0.00018411   -0.00052879   -0.17812619
     atom   27 type  2   force =     0.00006930   -0.00020610   -0.01970903
     atom   28 type  2   force =     0.00001735   -0.00155492    0.05763373
     atom   29 type  2   force =    -0.01085724   -0.00007169    0.00742095
     atom   30 type  2   force =     0.01238202    0.00026500    0.00710217
     atom   31 type  1   force =    -0.00009255    0.00574304   -0.01413126
     atom   32 type  1   force =    -0.00008725   -0.00266941   -0.00140478
     atom   33 type  2   force =     0.00010847   -0.00051532    0.00033704
     atom   34 type  2   force =    -0.00048721   -0.00028722   -0.00099623
     atom   35 type  2   force =    -0.00034562   -0.00017700   -0.00032448
     atom   36 type  2   force =     0.00034121   -0.00030000   -0.00011557
     atom   37 type  1   force =     0.00009945   -0.00044199    0.00056112
     atom   38 type  1   force =    -0.00002068   -0.00060011   -0.00027743
     atom   39 type  2   force =    -0.00002815    0.00017068    0.00019338
     atom   40 type  2   force =    -0.00006655   -0.00014019   -0.00002925
     atom   41 type  2   force =     0.00002630    0.00027258    0.00059184
     atom   42 type  2   force =     0.00017267    0.00010705    0.00022275
     atom   43 type  1   force =    -0.00073658    0.00063500   -0.00048688
     atom   44 type  1   force =     0.00048566    0.00040821   -0.00039759
     atom   45 type  2   force =    -0.00002391   -0.00015106    0.10388772
     atom   46 type  2   force =    -0.07053639   -0.00015859   -0.02695121
     atom   47 type  2   force =     0.07033764    0.00027436   -0.02701215
     atom   48 type  3   force =    -0.00004335   -0.00104368    0.00086767
     atom   49 type  4   force =    -0.00008337    0.00036050   -0.00035428
     atom   50 type  5   force =    -0.00004471   -0.00122114   -0.00018610
     atom   51 type  2   force =     0.02527294    0.00041587    0.00035069
     atom   52 type  5   force =    -0.01089328    0.00854902   -0.00007782
     atom   53 type  5   force =    -0.01415612   -0.00930074   -0.00098881

     Total force =     0.367401     Total SCF correction =     0.000784
  @ DRIVER MODE: Message from server: STATUS
  @ DRIVER MODE: Message from server: GETFORCE
  @ DRIVER MODE: Returning v,forces,stress,ensemble

     Writing output data file ./calc.save/
  @ DRIVER MODE: Message from server: EXIT
  @ DRIVE MODE: Exiting

     General routines

     Parallel routines

   This run was terminated on:  22: 7:14  15Sep2021

   JOB DONE.