     Program PWSCF v.6.7GPU starts on 22Sep2021 at 22:48:16

     R & G space division:  proc/nbgrp/npool/nimage =       8
     Reading input from /storage/home/hcoda1/3/ntian30/research/carbon/CxH_vib/H2O_calc/ads_slab/CH2NHHO_a/out_0002/pw.inp
Warning: card &CELL ignored
Warning: card   CELL_DYNAMICS='IPI', ignored
Warning: card / ignored

     Current dimensions of program PWSCF are:
     Max number of different atomic species (ntypx) = 10
     Max number of k-points (npk) =  40000
     Max angular momentum in pseudopotentials (lmaxx) =  3
     Presently no symmetry can be used with electric field

     Message from routine cell_base_init:
     DEPRECATED: use true lattice parameter, not A to a.u. conversion factor

     IMPORTANT: XC functional enforced from input :
     Exchange-correlation= BEEF-VDW
                           (   1   4  43  14   2   0   0)
     Any further DFT definition will be discarded
     Please, verify this is what you really want

  @ DRIVER MODE: Connecting to
 qe_1139763_2941012.sched-torque.pace.gatech.edub_t3lrh7_scratch
  using UNIX socket
  @ DRIVER MODE: Message from server: STATUS
  @ DRIVER MODE: Message from server: INIT
  @ DRIVER MODE: Receiving replica           0          -1
  @ DRIVER MODE: Receiving encoded integer          25
  @ DRIVER MODE:  SCF:  T  FORCE:  T  STRESS:  F  VC:  F  ENSEMBLE:  F
  @ DRIVER MODE:  SCF:  T  FORCE:  T  STRESS:  F  VC:  F  ENSEMBLE:  F

     Using Slab Decomposition

     bravais-lattice index     =            0
     lattice parameter (alat)  =       1.8897  a.u.
     unit-cell volume          =    6658.9804 (a.u.)^3
     number of atoms/cell      =           54
     number of atomic types    =            5
     number of electrons       =       397.00
     number of Kohn-Sham states=          208
     kinetic-energy cutoff     =      29.3995  Ry
     charge density cutoff     =     293.9946  Ry
     scf convergence threshold =      7.3E-08
     mixing beta               =       0.0500
     number of iterations used =            8  plain     mixing
     Exchange-correlation= BEEF-VDW
                           (   1   4  43  14   2   0   0)

     celldm(1)=   1.889726  celldm(2)=   0.000000  celldm(3)=   0.000000
     celldm(4)=   0.000000  celldm(5)=   0.000000  celldm(6)=   0.000000

     crystal axes: (cart. coord. in units of alat)
               a(1) = (   6.579727   0.000000   0.000000 )
               a(2) = (  -0.000775   5.961596   0.000000 )
               a(3) = (   0.000000   0.000000  25.155947 )

     reciprocal axes: (cart. coord. in units 2 pi/alat)
               b(1) = (  0.151982  0.000020  0.000000 )
               b(2) = (  0.000000  0.167740  0.000000 )
               b(3) = (  0.000000  0.000000  0.039752 )

     PseudoPot. # 1 for Ti read from file:
     /storage/coda1/p-amedford6/0/shared/rich_project_chbe-medford/medford-share/data/pseudos_module/espresso/nninc/pbe/van/Ti.UPF
     MD5 check sum: 8e4df49b7f0d34bbd5052bf3f5ea0213
     Pseudo is Ultrasoft, Zval = 12.0
     Generated by new atomic code, or converted to UPF format
     Using radial grid of  851 points,  6 beta functions with:
                l(1) =   0
                l(2) =   0
                l(3) =   1
                l(4) =   1
                l(5) =   2
                l(6) =   2
     Q(r) pseudized with  8 coefficients,  rinner =    1.000   1.000   1.000
                                                       1.000   1.000

     PseudoPot. # 2 for O  read from file:
     /storage/coda1/p-amedford6/0/shared/rich_project_chbe-medford/medford-share/data/pseudos_module/espresso/nninc/pbe/van/O.UPF
     MD5 check sum: 78c19812648e8988a0fe644b0f25305e
     Pseudo is Ultrasoft, Zval =  6.0
     Generated by new atomic code, or converted to UPF format
     Using radial grid of  737 points,  4 beta functions with:
                l(1) =   0
                l(2) =   0
                l(3) =   1
                l(4) =   1
     Q(r) pseudized with  8 coefficients,  rinner =    0.800   0.800   0.800

     PseudoPot. # 3 for N  read from file:
     /storage/coda1/p-amedford6/0/shared/rich_project_chbe-medford/medford-share/data/pseudos_module/espresso/nninc/pbe/van/N.UPF
     MD5 check sum: 90d10febe142ad51ac9d5be1deb811c4
     Pseudo is Ultrasoft, Zval =  5.0
     Generated by new atomic code, or converted to UPF format
     Using radial grid of  729 points,  4 beta functions with:
                l(1) =   0
                l(2) =   0
                l(3) =   1
                l(4) =   1
     Q(r) pseudized with  8 coefficients,  rinner =    0.800   0.800   0.800

     PseudoPot. # 4 for C  read from file:
     /storage/coda1/p-amedford6/0/shared/rich_project_chbe-medford/medford-share/data/pseudos_module/espresso/nninc/pbe/van/C.UPF
     MD5 check sum: 1a69bf6b8db32088f5b2163dbdb77a27
     Pseudo is Ultrasoft, Zval =  4.0
     Generated by new atomic code, or converted to UPF format
     Using radial grid of  721 points,  4 beta functions with:
                l(1) =   0
                l(2) =   0
                l(3) =   1
                l(4) =   1
     Q(r) pseudized with  8 coefficients,  rinner =    0.800   0.800   0.800

     PseudoPot. # 5 for H  read from file:
     /storage/coda1/p-amedford6/0/shared/rich_project_chbe-medford/medford-share/data/pseudos_module/espresso/nninc/pbe/van/H.UPF
     MD5 check sum: b5ee9d7bfd3a09ee7748110bda690ff7
     Pseudo is Ultrasoft, Zval =  1.0
     Generated by new atomic code, or converted to UPF format
     Using radial grid of  615 points,  1 beta functions with:
                l(1) =   0
     Q(r) pseudized with  8 coefficients,  rinner =    0.800

     atomic species   valence    mass     pseudopotential
        Ti1           12.00    47.86700     Ti( 1.00)
        O1             6.00    15.99900     O ( 1.00)
        N1             5.00    14.00700     N ( 1.00)
        C1             4.00    12.01100     C ( 1.00)
        H1             1.00     1.00800     H ( 1.00)

     No symmetry found

   Cartesian axes

     site n.     atom                  positions (alat units)
         1           Ti1 tau(   1) = (   0.0004258   2.9801865   6.0000000  )
         2           Ti1 tau(   2) = (   3.2906075   1.4906267   6.0002472  )
         3           O1  tau(   3) = (   0.0006271   0.0005054   7.9858123  )
         4           O1  tau(   4) = (   3.2906025   0.0005020   7.3038282  )
         5           O1  tau(   5) = (   4.5942328   1.4918067   9.2879030  )
         6           O1  tau(   6) = (   1.9868534   1.4903216   9.2879459  )
         7           Ti1 tau(   7) = (   3.2907910   2.8959150   9.1758416  )
         8           Ti1 tau(   8) = (   0.0015273   1.4827037   9.2680791  )
         9           O1  tau(   9) = (   3.2872377   5.9372537  11.3619719  )
        10           O1  tau(  10) = (   0.0116148   5.9584955  10.6183126  )
        11           O1  tau(  11) = (   1.2678424   1.4880610  12.6451974  )
        12           O1  tau(  12) = (   5.2928823   1.5036634  12.6399001  )
        13           Ti1 tau(  13) = (   6.5521701   2.9315368  12.5404127  )
        14           Ti1 tau(  14) = (   3.2895327   1.2997526  12.7137971  )
        15           O1  tau(  15) = (   6.5477037   0.0845492  14.6505624  )
        16           O1  tau(  16) = (   3.2827468   0.0880329  14.0175491  )
        17           O1  tau(  17) = (   4.5427558   1.5765460  16.1196870  )
        18           O1  tau(  18) = (   1.9971221   1.5491956  16.2097298  )
        19           Ti1 tau(  19) = (   3.2670693   3.0250103  15.6873951  )
        20           Ti1 tau(  20) = (   6.4806419   1.4532933  16.0069425  )
        21           O1  tau(  21) = (   3.2904802   0.0005063   4.7018136  )
        22           O1  tau(  22) = (   6.5100566   5.8635464  17.1664964  )
        23           O1  tau(  23) = (   1.3043587   1.4918075   6.0039043  )
        24           O1  tau(  24) = (   5.2767064   1.4903225   6.0039473  )
        25           Ti1 tau(  25) = (   0.0000382   5.9609847   6.0000000  )
        26           Ti1 tau(  26) = (   3.2902200   4.4714249   6.0002472  )
        27           O1  tau(  27) = (   0.0002396   2.9813036   7.9858123  )
        28           O1  tau(  28) = (   3.2902150   2.9813002   7.3038282  )
        29           O1  tau(  29) = (   4.5938453   4.4726049   9.2879030  )
        30           O1  tau(  30) = (   1.9864658   4.4711199   9.2879459  )
        31           Ti1 tau(  31) = (   3.2891106   5.8743827   9.1763621  )
        32           Ti1 tau(  32) = (   0.0006254   4.4649316   9.2693709  )
        33           O1  tau(  33) = (   3.2826969   3.0075535  11.3127327  )
        34           O1  tau(  34) = (   0.0092240   2.9805883  10.6323155  )
        35           O1  tau(  35) = (   1.2713698   4.4757098  12.6731835  )
        36           O1  tau(  36) = (   5.2977781   4.4601507  12.6712348  )
        37           Ti1 tau(  37) = (   0.0330522   5.9225719  12.5042524  )
        38           Ti1 tau(  38) = (   3.2990360   4.3766664  12.4405836  )
        39           O1  tau(  39) = (   0.0150134   2.9421642  14.8567636  )
        40           O1  tau(  40) = (   3.2596324   2.9836344  13.9148061  )
        41           O1  tau(  41) = (   4.5490916   4.3969069  16.0525170  )
        42           O1  tau(  42) = (   1.9960638   4.4622821  16.0939853  )
        43           Ti1 tau(  43) = (   3.1777156   0.0378257  16.2738330  )
        44           Ti1 tau(  44) = (   6.5243348   4.6462111  15.7996153  )
        45           O1  tau(  45) = (   3.2900926   2.9813045   4.7018136  )
        46           O1  tau(  46) = (   1.3039711   4.4726057   6.0039043  )
        47           O1  tau(  47) = (   5.2763189   4.4711207   6.0039473  )
        48           N1  tau(  48) = (   6.4746383   2.7559932  17.9272311  )
        49           C1  tau(  49) = (   0.7552072   2.7164238  18.8602713  )
        50           H1  tau(  50) = (   0.5916026   3.1878006  19.8266510  )
        51           H1  tau(  51) = (   1.6887153   2.1901376  18.6919226  )
        52           H1  tau(  52) = (   5.6107037   3.2511282  18.1874541  )
        53           O1  tau(  53) = (   3.4589997   5.9358250  18.1144358  )
        54           H1  tau(  54) = (   4.3999295   5.9567086  18.3589960  )

     number of k points=    10  Fermi-Dirac smearing, width (Ry)=  0.0073
                       cart. coord. in units 2pi/alat
        k(    1) = (   0.0000000   0.0000000   0.0000000), wk =   0.1250000
        k(    2) = (   0.0000000   0.0419351   0.0000000), wk =   0.2500000
        k(    3) = (   0.0000000  -0.0838702   0.0000000), wk =   0.1250000
        k(    4) = (   0.0379955   0.0000049   0.0000000), wk =   0.2500000
        k(    5) = (   0.0379955   0.0419400   0.0000000), wk =   0.2500000
        k(    6) = (   0.0379955  -0.0838652   0.0000000), wk =   0.2500000
        k(    7) = (   0.0379955  -0.0419301   0.0000000), wk =   0.2500000
        k(    8) = (  -0.0759910  -0.0000099   0.0000000), wk =   0.1250000
        k(    9) = (  -0.0759910   0.0419252   0.0000000), wk =   0.2500000
        k(   10) = (  -0.0759910  -0.0838800   0.0000000), wk =   0.1250000

     Initial potential from superposition of free atoms

     starting charge  380.99916, renormalised to  397.00000

     negative rho (up, down):  1.654E-02 0.000E+00

     %%%%%%%%%%%%%%%%%%%%%%%%%%%%%%%%%%%%%%%%%%%%%%%%%%%%%%%%%%%%%%%%%%%%%%%%
     %                                                                      %
     % You are using vdW-DF, which was implemented by the Thonhauser group. %
     % Please cite the following two papers that made this development      %
     % possible and the two reviews that describe the various versions:     %
     %                                                                      %
     %   T. Thonhauser et al., PRL 115, 136402 (2015).                      %
     %   T. Thonhauser et al., PRB 76, 125112 (2007).                       %
     %   K. Berland et al., Rep. Prog. Phys. 78, 066501 (2015).             %
     %   D.C. Langreth et al., J. Phys.: Condens. Matter 21, 084203 (2009). %
     %                                                                      %
     %                                                                      %
     % If you are calculating the stress with vdW-DF, please also cite:     %
     %                                                                      %
     %   R. Sabatini et al., J. Phys.: Condens. Matter 24, 424209 (2012).   %
     %                                                                      %
     %%%%%%%%%%%%%%%%%%%%%%%%%%%%%%%%%%%%%%%%%%%%%%%%%%%%%%%%%%%%%%%%%%%%%%%%

     Adding external electric field

     Computed dipole along edir(3) :
        Dipole               -9.2998 Ry au,        -23.6378 Debye
        Dipole field         -0.0175 Ry au,

        Potential amp.        1.6269 Ry
        Total length         46.3494 bohr

     Starting wfcs are  300 atomic wfcs
  @ DRIVER MODE: Message from server: STATUS
  @ DRIVER MODE: Message from server: POSDATA
  @ DRIVER MODE: Reading and sharing cell
  @ DRIVER MODE: Reading and sharing positions
  @ DRIVER MODE: Received positions

     Self-consistent Calculation

     iteration #  1     ecut=    29.40 Ry     beta= 0.05
     Davidson diagonalization with overlap
     c_bands:  1 eigenvalues not converged
     c_bands:  1 eigenvalues not converged
     c_bands:  2 eigenvalues not converged
     c_bands:  1 eigenvalues not converged
     c_bands:  1 eigenvalues not converged
     c_bands:  2 eigenvalues not converged
     c_bands:  1 eigenvalues not converged
     c_bands:  1 eigenvalues not converged
     c_bands:  3 eigenvalues not converged
     ethr =  1.00E-05,  avg # of iterations = 19.6

[...]

     total energy              =   -2534.83491148 Ry
     estimated scf accuracy    <    4638.95951354 Ry

     iteration #  2     ecut=    29.40 Ry     beta= 0.05
     Davidson diagonalization with overlap
     ethr =  1.00E-02,  avg # of iterations = 24.3

[...]

     iteration # 75     ecut=    29.40 Ry     beta= 0.05
     Davidson diagonalization with overlap
     c_bands:  1 eigenvalues not converged
     ethr =  6.84E-11,  avg # of iterations = 14.7

[...]

     total energy              =   -2952.74677149 Ry
     estimated scf accuracy    <       0.00000010 Ry

     iteration # 79     ecut=    29.40 Ry     beta= 0.05
     Davidson diagonalization with overlap
     ethr =  2.45E-11,  avg # of iterations =  1.8

     negative rho (up, down):  1.673E-02 0.000E+00

     Adding external electric field

     Computed dipole along edir(3) :
        Dipole                1.0899 Ry au,          2.7703 Debye
        Dipole field          0.0021 Ry au,

        Potential amp.       -0.1907 Ry
        Total length         46.3494 bohr

     End of self-consistent calculation

          k = 0.0000 0.0000 0.0000 ( 18029 PWs)   bands (ev):

   -55.6604 -55.6352 -55.6012 -55.4652 -55.4568 -55.4351 -55.4301 -55.4233
   -55.4094 -55.3952 -55.3460 -55.2393 -55.2268 -55.1719 -54.6011 -54.5671
   -32.1188 -31.9888 -31.9603 -31.9542 -31.9534 -31.9295 -31.9265 -31.8805
   -31.8789 -31.8663 -31.8330 -31.7877 -31.7521 -31.7408 -31.7316 -31.7304
   -31.7120 -31.6927 -31.6774 -31.6665 -31.6606 -31.6522 -31.6327 -31.6206
   -31.6158 -31.6066 -31.5993 -31.5866 -31.5855 -31.5792 -31.5718 -31.5666
   -31.5626 -31.5421 -31.5182 -31.5016 -31.4395 -31.4273 -31.4145 -31.3845
   -31.3814 -31.3775 -31.0066 -30.9214 -30.8989 -30.8243 -30.7380 -30.6261
   -16.7708 -16.4399 -16.2531 -16.0806 -15.8671 -15.7923 -15.7554 -15.5572
   -15.4714 -15.4056 -15.1776 -15.1675 -15.1611 -15.1350 -15.1090 -15.1014
   -15.0895 -15.0528 -15.0505 -15.0290 -15.0037 -14.9695 -14.9612 -14.9142
   -14.8657 -14.8508 -14.7659 -14.6935 -14.6474 -14.4466 -14.3262 -13.0991
   -12.9829  -9.3005  -6.3697  -4.7487  -3.9567  -3.6213  -3.5348  -3.5016
    -3.4293  -3.3758  -3.1408  -3.0056  -2.9599  -2.8740  -2.7638  -2.7388
    -2.6840  -2.6180  -2.5488  -2.5268  -2.4857  -2.4299  -2.4056  -2.3770
    -2.3670  -2.3369  -2.2826  -2.2259  -2.1586  -2.1346  -2.0785  -2.0007
    -1.9504  -1.9483  -1.9384  -1.9176  -1.8941  -1.8712  -1.8490  -1.8373
    -1.7352  -1.6830  -1.6633  -1.6086  -1.5643  -1.3049  -1.2297  -1.2185
    -1.1494  -1.1024  -1.0682  -1.0493  -1.0197  -0.9766  -0.9266  -0.8939
    -0.8108  -0.7561  -0.6980  -0.6827  -0.6364  -0.5631  -0.4776  -0.4214
    -0.4030  -0.3450  -0.3361  -0.3122  -0.1890  -0.1517  -0.1431  -0.0873
    -0.0609   0.0428   0.0874   0.1249   0.1568   0.2446   0.2683   0.3102
     0.3123   0.3467   0.3514   0.4418   0.4505   0.4777   0.5396   0.5650
     0.6439   0.7151   0.7223   0.8742   0.9232   1.0129   1.0497   1.1372
     1.3763   1.4257   1.4823   1.6195   1.9920   2.0370   3.4579   3.6032
     3.6206   3.7086   3.7175   3.8222   3.9336   3.9878   4.0298   4.1337

[...]

          k = 0.0380-0.0419 0.0000 ( 17876 PWs)   bands (ev):

[...]

          k =-0.0760-0.0000 0.0000 ( 17886 PWs)   bands (ev):

[...]

          k =-0.0760-0.0839 0.0000 ( 17948 PWs)   bands (ev):

   -55.6596 -55.6185 -55.6178 -55.4491 -55.4462 -55.4403 -55.4395 -55.4335
   -55.4101 -55.3886 -55.3527 -55.2351 -55.2282 -55.1760 -54.5845 -54.5835
   -31.9344 -31.9339 -31.9244 -31.9158 -31.9123 -31.9117 -31.8763 -31.8675
   -31.8037 -31.7731 -31.7717 -31.7624 -31.7571 -31.7383 -31.7376 -31.7316
   -31.7171 -31.7108 -31.6986 -31.6781 -31.6660 -31.6568 -31.6508 -31.6422
   -31.6413 -31.6396 -31.6318 -31.6195 -31.6127 -31.6086 -31.6061 -31.6060
   -31.5973 -31.5755 -31.5731 -31.5187 -31.5022 -31.4617 -31.4429 -31.4309
   -31.4232 -31.3817 -30.9119 -30.9113 -30.8202 -30.8189 -30.7815 -30.7808
   -16.7530 -16.4193 -15.8227 -15.7124 -15.5892 -15.5802 -15.4681 -15.3950
   -15.3632 -15.3326 -15.3156 -15.3065 -15.2810 -15.2435 -15.1932 -15.1749
   -15.1405 -15.1217 -15.1100 -15.0682 -15.0536 -15.0444 -15.0248 -14.9804
   -14.9671 -14.9365 -14.9236 -14.7970 -14.7397 -14.6393 -14.5631 -13.0851
   -13.0846  -9.3056  -6.3660  -4.7340  -3.9387  -3.0245  -2.9288  -2.7974
    -2.7039  -2.6776  -2.6339  -2.6166  -2.5817  -2.5391  -2.5213  -2.4714
    -2.4289  -2.4101  -2.4004  -2.3708  -2.3658  -2.3574  -2.3248  -2.3062
    -2.2962  -2.2845  -2.2605  -2.2493  -2.2328  -2.2088  -2.1951  -2.1682
    -2.1494  -2.1052  -1.9946  -1.9464  -1.9139  -1.7815  -1.7673  -1.7473
    -1.7326  -1.7142  -1.6954  -1.6789  -1.6118  -1.5943  -1.5666  -1.3921
    -1.3742  -1.2848  -1.2481  -1.2031  -1.1392  -1.1255  -1.0746  -1.0474
    -0.9961  -0.9697  -0.8791  -0.8222  -0.7935  -0.7553  -0.6314  -0.5789
    -0.5725  -0.5637  -0.5339  -0.5137  -0.4697  -0.4486  -0.4190  -0.3536
    -0.3227  -0.3056  -0.2617  -0.2509  -0.1259  -0.0084   0.0746   0.1191
     0.1814   0.2009   0.2405   0.3424   0.4204   0.5007   0.5457   0.5643
     0.5946   0.6871   0.7025   0.8409   0.8734   0.8762   0.9156   0.9471
     0.9764   1.0192   1.7889   1.7970   1.8572   1.8575   3.7059   3.8357
     3.9642   3.9848   3.9967   4.0299   4.0327   4.0576   4.1072   4.1412

     the Fermi energy is     3.4895 ev

!    total energy              =   -2952.74677904 Ry
     estimated scf accuracy    <       0.00000006 Ry
     smearing contrib. (-TS)   =      -0.02004399 Ry
     internal energy E=F+TS    =   -2952.72673506 Ry

     The total energy is F=E-TS. E is the sum of the following terms:
     one-electron contribution =  -23991.69443519 Ry
     hartree contribution      =   12087.37045290 Ry
     xc contribution           =    -488.03307125 Ry
     ewald contribution        =    9439.62807665 Ry
     electric field correction =       0.00224183 Ry

     convergence has been achieved in  79 iterations

     Forces acting on atoms (cartesian axes, Ry/au):

     atom    1 type  1   force =     0.00016064   -0.00028230    0.09473671
     atom    2 type  1   force =    -0.00001139    0.00039050   -0.17492520
     atom    3 type  2   force =    -0.00001364   -0.00013365   -0.02196623
     atom    4 type  2   force =     0.00006173   -0.00191937    0.05343561
     atom    5 type  2   force =    -0.00734158   -0.00240135    0.00311985
     atom    6 type  2   force =     0.00860420   -0.00197824    0.00183527
     atom    7 type  1   force =    -0.00058852   -0.00348199    0.00953368
     atom    8 type  1   force =     0.00060458    0.00468967    0.00859132
     atom    9 type  2   force =     0.00009131    0.00017854   -0.00010072
     atom   10 type  2   force =    -0.00268742   -0.00030983   -0.01293783
     atom   11 type  2   force =    -0.00037718   -0.00035821   -0.00008064
     atom   12 type  2   force =     0.00015366   -0.00018253    0.00033561
     atom   13 type  1   force =     0.00040147    0.00021051   -0.00087096
     atom   14 type  1   force =    -0.00014576    0.00008020   -0.00013764
     atom   15 type  2   force =     0.00027327   -0.00027351   -0.00021610
     atom   16 type  2   force =     0.00040804    0.00010664    0.00003551
     atom   17 type  2   force =     0.00021523    0.00015694    0.00065714
     atom   18 type  2   force =     0.00016341   -0.00096563   -0.00028495
     atom   19 type  1   force =     0.00017730    0.00045668   -0.00002419
     atom   20 type  1   force =     0.00048466   -0.00034768   -0.00065672
     atom   21 type  2   force =     0.00009535    0.00007737    0.10313853
     atom   22 type  2   force =     0.00000949   -0.00037957    0.00024326
     atom   23 type  2   force =    -0.07214326   -0.00013812   -0.02738197
     atom   24 type  2   force =     0.07209404    0.00027039   -0.02740379
     atom   25 type  1   force =     0.00003429   -0.00009732    0.09448826
     atom   26 type  1   force =    -0.00007000   -0.00131637   -0.17509797
     atom   27 type  2   force =     0.00014497   -0.00020140   -0.02072956
     atom   28 type  2   force =     0.00002238   -0.00018891    0.04903605
     atom   29 type  2   force =    -0.00616538    0.00259025    0.00156133
     atom   30 type  2   force =     0.00738570    0.00321243    0.00012020
     atom   31 type  1   force =    -0.00055103    0.00715391   -0.00096197
     atom   32 type  1   force =     0.00055918   -0.00650563    0.00784547
     atom   33 type  2   force =     0.00025647   -0.00024575   -0.00027827
     atom   34 type  2   force =    -0.00212756    0.00146298   -0.01174215
     atom   35 type  2   force =    -0.00007921   -0.00000739    0.00021546
     atom   36 type  2   force =    -0.00023720    0.00010882    0.00034156
     atom   37 type  1   force =     0.00054230   -0.00011516   -0.00044729
     atom   38 type  1   force =    -0.00019473   -0.00013209    0.00024268
     atom   39 type  2   force =     0.00007393    0.00035758   -0.00016907
     atom   40 type  2   force =    -0.00015229    0.00028133   -0.00036876
     atom   41 type  2   force =     0.00034968    0.00034117   -0.00010670
     atom   42 type  2   force =    -0.00022151    0.00040897    0.00027893
     atom   43 type  1   force =    -0.00018818   -0.00094721   -0.00059468
     atom   44 type  1   force =     0.00022305    0.00088064   -0.00011142
     atom   45 type  2   force =     0.00009815   -0.00009143    0.10295977
     atom   46 type  2   force =    -0.07216178   -0.00005549   -0.02740277
     atom   47 type  2   force =     0.07216058    0.00039691   -0.02743390
     atom   48 type  3   force =    -0.02367597    0.00643215   -0.00706993
     atom   49 type  4   force =     0.01258995   -0.00140477    0.00918557
     atom   50 type  5   force =    -0.00052195   -0.00020498    0.00029099
     atom   51 type  5   force =     0.00124280    0.00007124    0.00064857
     atom   52 type  5   force =     0.01033625   -0.00564436   -0.00384141
     atom   53 type  2   force =     0.00001375    0.00007553    0.00177456
     atom   54 type  5   force =    -0.00037634   -0.00008114   -0.00130909

     Total force =     0.363872     Total SCF correction =     0.000709
  @ DRIVER MODE: Message from server: STATUS
  @ DRIVER MODE: Message from server: GETFORCE
  @ DRIVER MODE: Returning v,forces,stress,ensemble

     Writing output data file ./calc.save/
  @ DRIVER MODE: Message from server: EXIT
  @ DRIVE MODE: Exiting

     General routines

     Parallel routines

   This run was terminated on:  23:14:45  22Sep2021

   JOB DONE.