     Program PWSCF v.6.7GPU starts on 22Sep2021 at 19:15:28

     R & G space division:  proc/nbgrp/npool/nimage =      10
     Reading input from /storage/home/hcoda1/3/ntian30/research/carbon/CxH_vib/H2O_calc/ads_slab/CH3NHO_a/out_0009/pw.inp
Warning: card &CELL ignored
Warning: card   CELL_DYNAMICS='IPI', ignored
Warning: card / ignored

     Current dimensions of program PWSCF are:
     Max number of different atomic species (ntypx) = 10
     Max number of k-points (npk) =  40000
     Max angular momentum in pseudopotentials (lmaxx) =  3
     Presently no symmetry can be used with electric field

     Message from routine cell_base_init:
     DEPRECATED: use true lattice parameter, not A to a.u. conversion factor

     IMPORTANT: XC functional enforced from input :
     Exchange-correlation= BEEF-VDW
                           (   1   4  43  14   2   0   0)
     Any further DFT definition will be discarded
     Please, verify this is what you really want

  @ DRIVER MODE: Connecting to
 qe_1139763_2937319.sched-torque.pace.gatech.edul73ua6u__scratch
  using UNIX socket
  @ DRIVER MODE: Message from server: STATUS
  @ DRIVER MODE: Message from server: INIT
  @ DRIVER MODE: Receiving replica           0          -1
  @ DRIVER MODE: Receiving encoded integer          25
  @ DRIVER MODE:  SCF:  T  FORCE:  T  STRESS:  F  VC:  F  ENSEMBLE:  F
  @ DRIVER MODE:  SCF:  T  FORCE:  T  STRESS:  F  VC:  F  ENSEMBLE:  F

     Using Slab Decomposition

     bravais-lattice index     =            0
     lattice parameter (alat)  =       1.8897  a.u.
     unit-cell volume          =    6658.9804 (a.u.)^3
     number of atoms/cell      =           54
     number of atomic types    =            5
     number of electrons       =       397.00
     number of Kohn-Sham states=          208
     kinetic-energy cutoff     =      29.3995  Ry
     charge density cutoff     =     293.9946  Ry
     scf convergence threshold =      7.3E-08
     mixing beta               =       0.0500
     number of iterations used =            8  plain     mixing
     Exchange-correlation= BEEF-VDW
                           (   1   4  43  14   2   0   0)

     celldm(1)=   1.889726  celldm(2)=   0.000000  celldm(3)=   0.000000
     celldm(4)=   0.000000  celldm(5)=   0.000000  celldm(6)=   0.000000

     crystal axes: (cart. coord. in units of alat)
               a(1) = (   6.579727   0.000000   0.000000 )
               a(2) = (  -0.000775   5.961596   0.000000 )
               a(3) = (   0.000000   0.000000  25.155947 )

     reciprocal axes: (cart. coord. in units 2 pi/alat)
               b(1) = (  0.151982  0.000020  0.000000 )
               b(2) = (  0.000000  0.167740  0.000000 )
               b(3) = (  0.000000  0.000000  0.039752 )

     PseudoPot. # 1 for Ti read from file:
     /storage/coda1/p-amedford6/0/shared/rich_project_chbe-medford/medford-share/data/pseudos_module/espresso/nninc/pbe/van/Ti.UPF
     MD5 check sum: 8e4df49b7f0d34bbd5052bf3f5ea0213
     Pseudo is Ultrasoft, Zval = 12.0
     Generated by new atomic code, or converted to UPF format
     Using radial grid of  851 points,  6 beta functions with:
                l(1) =   0
                l(2) =   0
                l(3) =   1
                l(4) =   1
                l(5) =   2
                l(6) =   2
     Q(r) pseudized with  8 coefficients,  rinner =    1.000   1.000   1.000
                                                       1.000   1.000

     PseudoPot. # 2 for O  read from file:
     /storage/coda1/p-amedford6/0/shared/rich_project_chbe-medford/medford-share/data/pseudos_module/espresso/nninc/pbe/van/O.UPF
     MD5 check sum: 78c19812648e8988a0fe644b0f25305e
     Pseudo is Ultrasoft, Zval =  6.0
     Generated by new atomic code, or converted to UPF format
     Using radial grid of  737 points,  4 beta functions with:
                l(1) =   0
                l(2) =   0
                l(3) =   1
                l(4) =   1
     Q(r) pseudized with  8 coefficients,  rinner =    0.800   0.800   0.800

     PseudoPot. # 3 for N  read from file:
     /storage/coda1/p-amedford6/0/shared/rich_project_chbe-medford/medford-share/data/pseudos_module/espresso/nninc/pbe/van/N.UPF
     MD5 check sum: 90d10febe142ad51ac9d5be1deb811c4
     Pseudo is Ultrasoft, Zval =  5.0
     Generated by new atomic code, or converted to UPF format
     Using radial grid of  729 points,  4 beta functions with:
                l(1) =   0
                l(2) =   0
                l(3) =   1
                l(4) =   1
     Q(r) pseudized with  8 coefficients,  rinner =    0.800   0.800   0.800

     PseudoPot. # 4 for C  read from file:
     /storage/coda1/p-amedford6/0/shared/rich_project_chbe-medford/medford-share/data/pseudos_module/espresso/nninc/pbe/van/C.UPF
     MD5 check sum: 1a69bf6b8db32088f5b2163dbdb77a27
     Pseudo is Ultrasoft, Zval =  4.0
     Generated by new atomic code, or converted to UPF format
     Using radial grid of  721 points,  4 beta functions with:
                l(1) =   0
                l(2) =   0
                l(3) =   1
                l(4) =   1
     Q(r) pseudized with  8 coefficients,  rinner =    0.800   0.800   0.800

     PseudoPot. # 5 for H  read from file:
     /storage/coda1/p-amedford6/0/shared/rich_project_chbe-medford/medford-share/data/pseudos_module/espresso/nninc/pbe/van/H.UPF
     MD5 check sum: b5ee9d7bfd3a09ee7748110bda690ff7
     Pseudo is Ultrasoft, Zval =  1.0
     Generated by new atomic code, or converted to UPF format
     Using radial grid of  615 points,  1 beta functions with:
                l(1) =   0
     Q(r) pseudized with  8 coefficients,  rinner =    0.800

     atomic species   valence    mass     pseudopotential
        Ti1           12.00    47.86700     Ti( 1.00)
        O1             6.00    15.99900     O ( 1.00)
        N1             5.00    14.00700     N ( 1.00)
        C1             4.00    12.01100     C ( 1.00)
        H1             1.00     1.00800     H ( 1.00)

     No symmetry found

   Cartesian axes

     site n.     atom                  positions (alat units)
         1           Ti1 tau(   1) = (   0.0004258   2.9801865   6.0000000  )
         2           Ti1 tau(   2) = (   3.2906075   1.4906267   6.0002472  )
         3           O1  tau(   3) = (   0.0006271   0.0005054   7.9858123  )
         4           O1  tau(   4) = (   3.2906025   0.0005020   7.3038282  )
         5           O1  tau(   5) = (   4.5942328   1.4918067   9.2879030  )
         6           O1  tau(   6) = (   1.9868534   1.4903216   9.2879459  )
         7           Ti1 tau(   7) = (   3.2907910   2.8959150   9.1758416  )
         8           Ti1 tau(   8) = (   0.0015273   1.4827037   9.2680791  )
         9           O1  tau(   9) = (   3.2880966   5.9442215  11.2779904  )
        10           O1  tau(  10) = (   0.0116148   5.9584955  10.6183126  )
        11           O1  tau(  11) = (   1.2901275   1.4920942  12.6240107  )
        12           O1  tau(  12) = (   5.2966278   1.4852543  12.6143030  )
        13           Ti1 tau(  13) = (   0.0031916   3.1007002  12.7073671  )
        14           Ti1 tau(  14) = (   3.2978183   1.3116672  12.6600973  )
        15           O1  tau(  15) = (   6.5743189   0.0224225  14.6379036  )
        16           O1  tau(  16) = (   3.2931419   0.0435670  13.8892854  )
        17           O1  tau(  17) = (   4.5409235   1.5821231  16.0748620  )
        18           O1  tau(  18) = (   2.0417342   1.5698890  16.0900686  )
        19           Ti1 tau(  19) = (   3.2746960   3.0378214  15.6558348  )
        20           Ti1 tau(  20) = (   6.4705883   1.5381531  15.9030332  )
        21           O1  tau(  21) = (   3.2904802   0.0005063   4.7018136  )
        22           O1  tau(  22) = (   6.5584422   0.0457650  17.1906971  )
        23           O1  tau(  23) = (   1.3043587   1.4918075   6.0039043  )
        24           O1  tau(  24) = (   5.2767064   1.4903225   6.0039473  )
        25           Ti1 tau(  25) = (   0.0000382   5.9609847   6.0000000  )
        26           Ti1 tau(  26) = (   3.2902200   4.4714249   6.0002472  )
        27           O1  tau(  27) = (   0.0002396   2.9813036   7.9858123  )
        28           O1  tau(  28) = (   3.2902150   2.9813002   7.3038282  )
        29           O1  tau(  29) = (   4.5938453   4.4726049   9.2879030  )
        30           O1  tau(  30) = (   1.9864658   4.4711199   9.2879459  )
        31           Ti1 tau(  31) = (   3.2891106   5.8743827   9.1763621  )
        32           Ti1 tau(  32) = (   0.0006254   4.4649316   9.2693709  )
        33           O1  tau(  33) = (   3.2918970   3.0256722  11.2465752  )
        34           O1  tau(  34) = (   0.0092240   2.9805883  10.6323155  )
        35           O1  tau(  35) = (   1.2932338   4.4650182  12.6342030  )
        36           O1  tau(  36) = (   5.2897350   4.4662865  12.6224893  )
        37           Ti1 tau(  37) = (   0.0112454   0.1207271  12.6557084  )
        38           Ti1 tau(  38) = (   3.2993242   4.4067673  12.4119285  )
        39           O1  tau(  39) = (   6.5542949   2.9732608  14.6543823  )
        40           O1  tau(  40) = (   3.2957262   2.9928748  13.8751945  )
        41           O1  tau(  41) = (   4.5169628   4.4726675  16.1294972  )
        42           O1  tau(  42) = (   2.0179035   4.4711894  16.0655614  )
        43           Ti1 tau(  43) = (   3.1791666   0.0518155  16.3463265  )
        44           Ti1 tau(  44) = (   6.5235282   4.6410908  16.0777984  )
        45           O1  tau(  45) = (   3.2900926   2.9813045   4.7018136  )
        46           O1  tau(  46) = (   1.3039711   4.4726057   6.0039043  )
        47           O1  tau(  47) = (   5.2763189   4.4711207   6.0039473  )
        48           N1  tau(  48) = (   0.0679940   2.9882472  17.3287890  )
        49           C1  tau(  49) = (   0.3445104   2.8819884  18.7043053  )
        50           H1  tau(  50) = (   0.5935414   3.8503421  19.1719745  )
        51           H1  tau(  51) = (   6.0379261   2.4644003  19.2136804  )
        52           H1  tau(  52) = (   1.1315070   2.1426081  18.8955932  )
        53           O1  tau(  53) = (   3.2362511   0.0690349  18.1809703  )
        54           H1  tau(  54) = (   3.8186072   5.4079590  18.6400750  )

     number of k points=    10  Fermi-Dirac smearing, width (Ry)=  0.0073
                       cart. coord. in units 2pi/alat
        k(    1) = (   0.0000000   0.0000000   0.0000000), wk =   0.1250000
        k(    2) = (   0.0000000   0.0419351   0.0000000), wk =   0.2500000
        k(    3) = (   0.0000000  -0.0838702   0.0000000), wk =   0.1250000
        k(    4) = (   0.0379955   0.0000049   0.0000000), wk =   0.2500000
        k(    5) = (   0.0379955   0.0419400   0.0000000), wk =   0.2500000
        k(    6) = (   0.0379955  -0.0838652   0.0000000), wk =   0.2500000
        k(    7) = (   0.0379955  -0.0419301   0.0000000), wk =   0.2500000
        k(    8) = (  -0.0759910  -0.0000099   0.0000000), wk =   0.1250000
        k(    9) = (  -0.0759910   0.0419252   0.0000000), wk =   0.2500000
        k(   10) = (  -0.0759910  -0.0838800   0.0000000), wk =   0.1250000

     Initial potential from superposition of free atoms

     starting charge  380.99916, renormalised to  397.00000

     negative rho (up, down):  1.676E-02 0.000E+00

     %%%%%%%%%%%%%%%%%%%%%%%%%%%%%%%%%%%%%%%%%%%%%%%%%%%%%%%%%%%%%%%%%%%%%%%%
     %                                                                      %
     % You are using vdW-DF, which was implemented by the Thonhauser group. %
     % Please cite the following two papers that made this development      %
     % possible and the two reviews that describe the various versions:     %
     %                                                                      %
     %   T. Thonhauser et al., PRL 115, 136402 (2015).                      %
     %   T. Thonhauser et al., PRB 76, 125112 (2007).                       %
     %   K. Berland et al., Rep. Prog. Phys. 78, 066501 (2015).             %
     %   D.C. Langreth et al., J. Phys.: Condens. Matter 21, 084203 (2009). %
     %                                                                      %
     %                                                                      %
     % If you are calculating the stress with vdW-DF, please also cite:     %
     %                                                                      %
     %   R. Sabatini et al., J. Phys.: Condens. Matter 24, 424209 (2012).   %
     %                                                                      %
     %%%%%%%%%%%%%%%%%%%%%%%%%%%%%%%%%%%%%%%%%%%%%%%%%%%%%%%%%%%%%%%%%%%%%%%%

     Adding external electric field

     Computed dipole along edir(3) :
        Dipole               -8.2921 Ry au,        -21.0764 Debye
        Dipole field         -0.0156 Ry au,

        Potential amp.        1.4506 Ry
        Total length         46.3494 bohr

     Starting wfcs are  300 atomic wfcs
  @ DRIVER MODE: Message from server: STATUS
  @ DRIVER MODE: Message from server: POSDATA
  @ DRIVER MODE: Reading and sharing cell
  @ DRIVER MODE: Reading and sharing positions
  @ DRIVER MODE: Received positions

     Self-consistent Calculation

     iteration #  1     ecut=    29.40 Ry     beta= 0.05
     Davidson diagonalization with overlap
     c_bands:  1 eigenvalues not converged
     c_bands:  1 eigenvalues not converged
     c_bands:  1 eigenvalues not converged
     c_bands:  3 eigenvalues not converged
     c_bands:  2 eigenvalues not converged
     c_bands:  1 eigenvalues not converged
     c_bands:  1 eigenvalues not converged
     ethr =  1.00E-05,  avg # of iterations = 19.2

[...]

     total energy              =   -2606.47690850 Ry
     estimated scf accuracy    <    3820.50404965 Ry

     iteration #  2     ecut=    29.40 Ry     beta= 0.05
     Davidson diagonalization with overlap
     ethr =  1.00E-02,  avg # of iterations = 23.7

[...]

     iteration # 49     ecut=    29.40 Ry     beta= 0.05
     Davidson diagonalization with overlap
     c_bands:  1 eigenvalues not converged
     ethr =  2.94E-07,  avg # of iterations =  8.5

[...]

     total energy              =   -2952.64730264 Ry
     estimated scf accuracy    <       0.00000026 Ry

     iteration # 70     ecut=    29.40 Ry     beta= 0.05
     Davidson diagonalization with overlap
     ethr =  5.22E-11,  avg # of iterations =  5.0

     negative rho (up, down):  1.696E-02 0.000E+00

     Adding external electric field

     Computed dipole along edir(3) :
        Dipole                0.3556 Ry au,          0.9039 Debye
        Dipole field          0.0007 Ry au,

        Potential amp.       -0.0622 Ry
        Total length         46.3494 bohr

     End of self-consistent calculation

          k = 0.0000 0.0000 0.0000 ( 18029 PWs)   bands (ev):

   -56.8796 -56.8461 -55.9493 -55.9137 -55.7389 -55.6741 -55.5503 -55.4309
   -55.3970 -55.3155 -55.3135 -55.2431 -55.2215 -55.1152 -55.0494 -54.9223
   -33.2984 -33.1498 -33.1218 -33.0593 -32.9691 -32.9255 -32.4305 -32.2142
   -32.1695 -32.1492 -32.0938 -32.0854 -32.0598 -31.9727 -31.9513 -31.9090
   -31.8920 -31.8767 -31.8363 -31.8087 -31.7963 -31.7958 -31.7816 -31.7780
   -31.7535 -31.7324 -31.6676 -31.6350 -31.5918 -31.5846 -31.5547 -31.5303
   -31.5177 -31.5104 -31.4772 -31.4682 -31.4433 -31.4328 -31.4107 -31.3965
   -31.3561 -31.3082 -31.2988 -31.2851 -31.2531 -31.1933 -31.1588 -31.1050
   -16.9822 -16.4631 -16.4199 -16.1957 -16.0732 -16.0670 -16.0218 -15.9588
   -15.7868 -15.7315 -15.6925 -15.6292 -15.4771 -15.3675 -15.2705 -15.0734
   -15.0383 -15.0073 -15.0047 -14.9924 -14.9610 -14.9486 -14.8729 -14.8224
   -14.7914 -14.7095 -14.7018 -14.5413 -14.3115 -14.2890 -13.9283 -13.8213
   -13.7876  -8.0299  -4.5580  -4.0903  -3.8884  -3.7131  -3.5640  -3.4719
    -3.4437  -3.3979  -3.3838  -3.2667  -3.2383  -3.2348  -3.2260  -3.1417
    -3.0729  -3.0190  -2.9296  -2.9140  -2.8231  -2.7726  -2.6137  -2.5779
    -2.4911  -2.4127  -2.4071  -2.3411  -2.3212  -2.2797  -2.2436  -2.2136
    -2.1828  -2.1414  -2.0858  -2.0771  -1.9815  -1.9740  -1.8936  -1.8771
    -1.8697  -1.7463  -1.7108  -1.6511  -1.5111  -1.4902  -1.4715  -1.4422
    -1.4009  -1.3434  -1.2384  -1.1811  -1.1516  -1.0986  -1.0277  -0.9714
    -0.9509  -0.8773  -0.8503  -0.7761  -0.7307  -0.7179  -0.6974  -0.6709
    -0.5344  -0.4524  -0.4172  -0.3648  -0.3498  -0.3111  -0.2852  -0.2299
    -0.1724  -0.1498  -0.0509  -0.0495   0.0880   0.1559   0.1584   0.2558
     0.3001   0.3068   0.3640   0.4321   0.4440   0.5076   0.5278   0.5859
     0.5905   0.6344   0.7179   0.7949   0.8380   0.8674   0.9083   0.9290
     1.0408   1.0653   1.1279   1.1844   1.5045   1.5685   2.1718   2.4148
     2.5869   2.8642   3.0601   3.3598   3.4007   3.4190   3.4193   3.7297

[...]

          k = 0.0380-0.0419 0.0000 ( 17876 PWs)   bands (ev):

[...]

          k =-0.0760-0.0000 0.0000 ( 17886 PWs)   bands (ev):

[...]

          k =-0.0760-0.0839 0.0000 ( 17948 PWs)   bands (ev):

   -56.8635 -56.8621 -55.9373 -55.9255 -55.7341 -55.6788 -55.5495 -55.4146
   -55.4132 -55.3161 -55.3090 -55.2473 -55.2200 -55.1136 -55.0509 -54.9237
   -33.1363 -33.1348 -33.1164 -33.1150 -33.0134 -33.0122 -32.2555 -32.2453
   -32.1318 -32.1277 -32.1198 -32.1188 -32.0323 -31.9916 -31.9659 -31.9521
   -31.9044 -31.9029 -31.8354 -31.7929 -31.7728 -31.7671 -31.7660 -31.6882
   -31.6385 -31.6348 -31.6332 -31.6071 -31.5974 -31.5945 -31.5931 -31.5865
   -31.5378 -31.5295 -31.5127 -31.4863 -31.4827 -31.4672 -31.4372 -31.4128
   -31.3961 -31.3589 -31.3102 -31.2930 -31.2620 -31.2589 -31.1612 -31.1431
   -16.4523 -16.3399 -16.3381 -16.2956 -16.2941 -16.0304 -16.0260 -15.7777
   -15.7486 -15.5720 -15.4609 -15.4387 -15.3970 -15.3566 -15.2782 -15.2273
   -15.2140 -15.1861 -15.1597 -15.0872 -15.0531 -14.9524 -14.9169 -14.8551
   -14.8200 -14.7470 -14.7067 -14.6784 -14.4819 -14.4223 -13.9258 -13.9252
   -13.8108  -8.0287  -4.0941  -3.4340  -3.4170  -3.4127  -3.3769  -3.3701
    -3.3185  -3.1658  -3.1623  -3.0358  -2.9612  -2.9345  -2.9046  -2.8506
    -2.8359  -2.7409  -2.6915  -2.6866  -2.6708  -2.6363  -2.6054  -2.5983
    -2.5404  -2.4131  -2.3688  -2.3317  -2.2919  -2.2243  -2.1921  -2.1843
    -2.1521  -2.1129  -2.0940  -2.0651  -2.0530  -2.0462  -2.0357  -1.9479
    -1.8015  -1.7740  -1.6814  -1.6791  -1.6685  -1.6289  -1.5994  -1.5852
    -1.5654  -1.5313  -1.4552  -1.4292  -1.3648  -1.2281  -1.2156  -1.1812
    -1.1277  -1.0246  -1.0099  -0.9139  -0.8962  -0.8865  -0.8206  -0.7996
    -0.7829  -0.7201  -0.6824  -0.5624  -0.4914  -0.4821  -0.4656  -0.4562
    -0.4046  -0.3564  -0.2854  -0.2819  -0.2656  -0.1574  -0.0613   0.0344
     0.0407   0.1074   0.1231   0.1785   0.3358   0.3468   0.3883   0.4497
     0.5662   0.6580   0.7114   0.8109   0.8444   0.9495   0.9675   0.9725
     0.9920   1.0008   1.0462   1.1009   1.1643   1.4847   1.9712   3.0076
     3.0108   3.0692   3.0748   3.3860   3.3882   3.5003   3.5053   3.8359

     the Fermi energy is     2.0694 ev

!    total energy              =   -2952.64732200 Ry
     estimated scf accuracy    <       0.00000006 Ry
     smearing contrib. (-TS)   =      -0.01070805 Ry
     internal energy E=F+TS    =   -2952.63661396 Ry

     The total energy is F=E-TS. E is the sum of the following terms:
     one-electron contribution =  -24061.14867095 Ry
     hartree contribution      =   12121.00170653 Ry
     xc contribution           =    -487.77760416 Ry
     ewald contribution        =    9475.28771600 Ry
     electric field correction =       0.00023863 Ry

     convergence has been achieved in  70 iterations

     Forces acting on atoms (cartesian axes, Ry/au):

     atom    1 type  1   force =     0.00005637   -0.00036021    0.12636909
     atom    2 type  1   force =    -0.00006235    0.00038788   -0.15473754
     atom    3 type  2   force =     0.00003891    0.00022877   -0.06871249
     atom    4 type  2   force =     0.00004503    0.00001115    0.01719753
     atom    5 type  2   force =    -0.00541039   -0.00183224   -0.01284485
     atom    6 type  2   force =     0.00699477   -0.00107150   -0.01374531
     atom    7 type  1   force =    -0.00029380   -0.00640870    0.05896750
     atom    8 type  1   force =     0.00058375    0.00674506    0.10099152
     atom    9 type  2   force =     0.00032021    0.00037640    0.00009685
     atom   10 type  2   force =    -0.00198417    0.00131983   -0.06341832
     atom   11 type  2   force =    -0.00015522   -0.00065604    0.00022865
     atom   12 type  2   force =    -0.00038283   -0.00039583    0.00004612
     atom   13 type  1   force =     0.00058243   -0.00074404    0.00033676
     atom   14 type  1   force =    -0.00002938   -0.00053948    0.00123051
     atom   15 type  2   force =     0.00003227   -0.00017973    0.00017110
     atom   16 type  2   force =     0.00005874   -0.00020040   -0.00086276
     atom   17 type  2   force =    -0.00041624   -0.00051619   -0.00039892
     atom   18 type  2   force =    -0.00034547   -0.00059687   -0.00064623
     atom   19 type  1   force =     0.00126439    0.00036730   -0.00074902
     atom   20 type  1   force =    -0.00075050    0.00093587   -0.00079016
     atom   21 type  2   force =     0.00009644    0.00015006    0.09786011
     atom   22 type  2   force =    -0.00012619   -0.00003342   -0.00044521
     atom   23 type  2   force =    -0.08273754    0.00003180   -0.03315655
     atom   24 type  2   force =     0.08270822    0.00046301   -0.03322126
     atom   25 type  1   force =     0.00004986   -0.00040008    0.12674115
     atom   26 type  1   force =    -0.00004970   -0.00139832   -0.15489307
     atom   27 type  2   force =     0.00012109   -0.00036982   -0.06711364
     atom   28 type  2   force =     0.00007270    0.00177382    0.01241423
     atom   29 type  2   force =    -0.00383284    0.00476761   -0.01598929
     atom   30 type  2   force =     0.00536335    0.00500758   -0.01691751
     atom   31 type  1   force =    -0.00028858    0.00188130    0.04205630
     atom   32 type  1   force =     0.00074504   -0.00886389    0.10191770
     atom   33 type  2   force =    -0.00004666   -0.00035172   -0.00062115
     atom   34 type  2   force =    -0.00187702    0.00205876   -0.07573566
     atom   35 type  2   force =     0.00014510   -0.00013942   -0.00049397
     atom   36 type  2   force =    -0.00031111    0.00006316   -0.00021093
     atom   37 type  1   force =     0.00047423    0.00053860    0.00047104
     atom   38 type  1   force =    -0.00034950   -0.00075580   -0.00033081
     atom   39 type  2   force =     0.00001701   -0.00046418    0.00059501
     atom   40 type  2   force =    -0.00008638   -0.00057497   -0.00048857
     atom   41 type  2   force =     0.00043199   -0.00034778   -0.00070862
     atom   42 type  2   force =    -0.00143207    0.00013815   -0.00006486
     atom   43 type  1   force =     0.00082932   -0.00064786   -0.00046844
     atom   44 type  1   force =    -0.00120240   -0.00078073    0.00016821
     atom   45 type  2   force =     0.00008507   -0.00002822    0.09771460
     atom   46 type  2   force =    -0.08277488    0.00001619   -0.03317048
     atom   47 type  2   force =     0.08274044    0.00042972   -0.03321676
     atom   48 type  3   force =     0.00020542   -0.00285599   -0.00110031
     atom   49 type  4   force =    -0.00020088    0.01867964    0.00080096
     atom   50 type  5   force =    -0.00186891   -0.00891894   -0.00220056
     atom   51 type  5   force =    -0.00230822   -0.00225163    0.00112028
     atom   52 type  5   force =     0.00369930   -0.00493259    0.00085847
     atom   53 type  2   force =     0.00034461    0.00031950   -0.00101595
     atom   54 type  5   force =     0.00121720    0.00092541    0.00011552

     Total force =     0.421817     Total SCF correction =     0.000557
  @ DRIVER MODE: Message from server: STATUS
  @ DRIVER MODE: Message from server: GETFORCE
  @ DRIVER MODE: Returning v,forces,stress,ensemble

     Writing output data file ./calc.save/
  @ DRIVER MODE: Message from server: EXIT
  @ DRIVE MODE: Exiting

     General routines

     Parallel routines

   This run was terminated on:  19:34: 1  22Sep2021

   JOB DONE.