     Program PWSCF v.6.7GPU starts on 27Sep2021 at 22:42: 3

     R & G space division:  proc/nbgrp/npool/nimage =       8
     Reading input from /storage/home/hcoda1/3/ntian30/research/carbon/CxH_vib/CH_calc/ads_slab/CHONH_a/out_0002/pw.inp
Warning: card &CELL ignored
Warning: card   CELL_DYNAMICS='IPI', ignored
Warning: card / ignored

     Current dimensions of program PWSCF are:
     Max number of different atomic species (ntypx) = 10
     Max number of k-points (npk) =  40000
     Max angular momentum in pseudopotentials (lmaxx) =  3
     Presently no symmetry can be used with electric field

     Message from routine cell_base_init:
     DEPRECATED: use true lattice parameter, not A to a.u. conversion factor

     IMPORTANT: XC functional enforced from input :
     Exchange-correlation= BEEF-VDW
                           (   1   4  43  14   2   0   0)
     Any further DFT definition will be discarded
     Please, verify this is what you really want

  @ DRIVER MODE: Connecting to
 qe_1139763_3003539.sched-torque.pace.gatech.edu99vjtc2y_scratch
  using UNIX socket
  @ DRIVER MODE: Message from server: STATUS
  @ DRIVER MODE: Message from server: INIT
  @ DRIVER MODE: Receiving replica           0          -1
  @ DRIVER MODE: Receiving encoded integer          25
  @ DRIVER MODE:  SCF:  T  FORCE:  T  STRESS:  F  VC:  F  ENSEMBLE:  F
  @ DRIVER MODE:  SCF:  T  FORCE:  T  STRESS:  F  VC:  F  ENSEMBLE:  F

     Using Slab Decomposition

     bravais-lattice index     =            0
     lattice parameter (alat)  =       1.8897  a.u.
     unit-cell volume          =    6658.9804 (a.u.)^3
     number of atoms/cell      =           52
     number of atomic types    =            5
     number of electrons       =       395.00
     number of Kohn-Sham states=          207
     kinetic-energy cutoff     =      29.3995  Ry
     charge density cutoff     =     293.9946  Ry
     scf convergence threshold =      7.3E-08
     mixing beta               =       0.0500
     number of iterations used =            8  plain     mixing
     Exchange-correlation= BEEF-VDW
                           (   1   4  43  14   2   0   0)

     celldm(1)=   1.889726  celldm(2)=   0.000000  celldm(3)=   0.000000
     celldm(4)=   0.000000  celldm(5)=   0.000000  celldm(6)=   0.000000

     crystal axes: (cart. coord. in units of alat)
               a(1) = (   6.579727   0.000000   0.000000 )
               a(2) = (  -0.000775   5.961596   0.000000 )
               a(3) = (   0.000000   0.000000  25.155947 )

     reciprocal axes: (cart. coord. in units 2 pi/alat)
               b(1) = (  0.151982  0.000020  0.000000 )
               b(2) = (  0.000000  0.167740  0.000000 )
               b(3) = (  0.000000  0.000000  0.039752 )

     PseudoPot. # 1 for O  read from file:
     /storage/coda1/p-amedford6/0/shared/rich_project_chbe-medford/medford-share/data/pseudos_module/espresso/nninc/pbe/van/O.UPF
     MD5 check sum: 78c19812648e8988a0fe644b0f25305e
     Pseudo is Ultrasoft, Zval =  6.0
     Generated by new atomic code, or converted to UPF format
     Using radial grid of  737 points,  4 beta functions with:
                l(1) =   0
                l(2) =   0
                l(3) =   1
                l(4) =   1
     Q(r) pseudized with  8 coefficients,  rinner =    0.800   0.800   0.800

     PseudoPot. # 2 for Ti read from file:
     /storage/coda1/p-amedford6/0/shared/rich_project_chbe-medford/medford-share/data/pseudos_module/espresso/nninc/pbe/van/Ti.UPF
     MD5 check sum: 8e4df49b7f0d34bbd5052bf3f5ea0213
     Pseudo is Ultrasoft, Zval = 12.0
     Generated by new atomic code, or converted to UPF format
     Using radial grid of  851 points,  6 beta functions with:
                l(1) =   0
                l(2) =   0
                l(3) =   1
                l(4) =   1
                l(5) =   2
                l(6) =   2
     Q(r) pseudized with  8 coefficients,  rinner =    1.000   1.000   1.000
                                                       1.000   1.000

     PseudoPot. # 3 for N  read from file:
     /storage/coda1/p-amedford6/0/shared/rich_project_chbe-medford/medford-share/data/pseudos_module/espresso/nninc/pbe/van/N.UPF
     MD5 check sum: 90d10febe142ad51ac9d5be1deb811c4
     Pseudo is Ultrasoft, Zval =  5.0
     Generated by new atomic code, or converted to UPF format
     Using radial grid of  729 points,  4 beta functions with:
                l(1) =   0
                l(2) =   0
                l(3) =   1
                l(4) =   1
     Q(r) pseudized with  8 coefficients,  rinner =    0.800   0.800   0.800

     PseudoPot. # 4 for H  read from file:
     /storage/coda1/p-amedford6/0/shared/rich_project_chbe-medford/medford-share/data/pseudos_module/espresso/nninc/pbe/van/H.UPF
     MD5 check sum: b5ee9d7bfd3a09ee7748110bda690ff7
     Pseudo is Ultrasoft, Zval =  1.0
     Generated by new atomic code, or converted to UPF format
     Using radial grid of  615 points,  1 beta functions with:
                l(1) =   0
     Q(r) pseudized with  8 coefficients,  rinner =    0.800

     PseudoPot. # 5 for C  read from file:
     /storage/coda1/p-amedford6/0/shared/rich_project_chbe-medford/medford-share/data/pseudos_module/espresso/nninc/pbe/van/C.UPF
     MD5 check sum: 1a69bf6b8db32088f5b2163dbdb77a27
     Pseudo is Ultrasoft, Zval =  4.0
     Generated by new atomic code, or converted to UPF format
     Using radial grid of  721 points,  4 beta functions with:
                l(1) =   0
                l(2) =   0
                l(3) =   1
                l(4) =   1
     Q(r) pseudized with  8 coefficients,  rinner =    0.800   0.800   0.800

     atomic species   valence    mass     pseudopotential
        O1             6.00    15.99900     O ( 1.00)
        Ti1           12.00    47.86700     Ti( 1.00)
        N1             5.00    14.00700     N ( 1.00)
        H1             1.00     1.00800     H ( 1.00)
        C1             4.00    12.01100     C ( 1.00)

     No symmetry found

   Cartesian axes

     site n.     atom                  positions (alat units)
         1           O1  tau(   1) = (   3.2904802   0.0005063   4.7018136  )
         2           O1  tau(   2) = (   3.2900926   2.9813045   4.7018136  )
         3           Ti1 tau(   3) = (   0.0004258   2.9801865   6.0000000  )
         4           Ti1 tau(   4) = (   0.0000382   5.9609847   6.0000000  )
         5           Ti1 tau(   5) = (   3.2906075   1.4906267   6.0002472  )
         6           Ti1 tau(   6) = (   3.2902200   4.4714249   6.0002472  )
         7           O1  tau(   7) = (   1.3043587   1.4918075   6.0039043  )
         8           O1  tau(   8) = (   1.3039711   4.4726057   6.0039043  )
         9           O1  tau(   9) = (   5.2767064   1.4903225   6.0039473  )
        10           O1  tau(  10) = (   5.2763189   4.4711207   6.0039473  )
        11           O1  tau(  11) = (   3.2906025   0.0005020   7.3038282  )
        12           O1  tau(  12) = (   3.2902150   2.9813002   7.3038282  )
        13           O1  tau(  13) = (   0.0006271   0.0005054   7.9858123  )
        14           O1  tau(  14) = (   0.0002396   2.9813036   7.9858123  )
        15           Ti1 tau(  15) = (   3.2907910   2.8959150   9.1758416  )
        16           Ti1 tau(  16) = (   3.2891106   5.8743827   9.1763621  )
        17           Ti1 tau(  17) = (   0.0015273   1.4827037   9.2680791  )
        18           Ti1 tau(  18) = (   0.0006254   4.4649316   9.2693709  )
        19           O1  tau(  19) = (   4.5942328   1.4918067   9.2879030  )
        20           O1  tau(  20) = (   4.5938453   4.4726049   9.2879030  )
        21           O1  tau(  21) = (   1.9868534   1.4903216   9.2879459  )
        22           O1  tau(  22) = (   1.9864658   4.4711199   9.2879459  )
        23           O1  tau(  23) = (   0.0116148   5.9584955  10.6183126  )
        24           O1  tau(  24) = (   0.0092240   2.9805883  10.6323155  )
        25           O1  tau(  25) = (   3.2907787   2.9729778  11.3304428  )
        26           O1  tau(  26) = (   3.2919079   5.9474133  11.3321580  )
        27           Ti1 tau(  27) = (   3.2097987   4.4572658  12.4865812  )
        28           Ti1 tau(  28) = (   3.2119315   1.4761680  12.4799496  )
        29           Ti1 tau(  29) = (   6.5264509   5.9216213  12.6328416  )
        30           O1  tau(  30) = (   5.2968352   1.4901136  12.6152109  )
        31           O1  tau(  31) = (   1.3135328   1.4919602  12.6192607  )
        32           O1  tau(  32) = (   5.3002941   4.4568025  12.6330795  )
        33           O1  tau(  33) = (   1.3069994   4.4674097  12.6333468  )
        34           Ti1 tau(  34) = (   6.5276633   2.9456522  12.5459445  )
        35           O1  tau(  35) = (   3.2998384   2.9660209  13.9106595  )
        36           O1  tau(  36) = (   3.3025942   5.9420417  13.9122833  )
        37           O1  tau(  37) = (   6.5640883   0.0415230  14.6395465  )
        38           O1  tau(  38) = (   0.0106891   2.9491072  14.6900936  )
        39           Ti1 tau(  39) = (   3.2736000   2.9502234  15.7069571  )
        40           Ti1 tau(  40) = (   3.3003751   5.9266233  15.7109206  )
        41           Ti1 tau(  41) = (   6.5634422   4.2760099  16.1499291  )
        42           O1  tau(  42) = (   2.0584629   4.4329444  16.0623798  )
        43           O1  tau(  43) = (   4.5473560   4.4405029  16.0785460  )
        44           O1  tau(  44) = (   2.0586626   1.4574935  16.0341320  )
        45           O1  tau(  45) = (   4.5465401   1.4531303  16.0599029  )
        46           Ti1 tau(  46) = (   6.5663670   1.4428561  15.8472210  )
        47           O1  tau(  47) = (   0.0528285   5.9376273  17.3175539  )
        48           N1  tau(  48) = (   2.9341058   0.2315137  18.9516947  )
        49           H1  tau(  49) = (   0.7823102   0.0278888  17.9584184  )
        50           H1  tau(  50) = (   4.9006910   1.2352932  19.1031722  )
        51           C1  tau(  51) = (   3.9482889   0.7533229  19.0539995  )
        52           O1  tau(  52) = (   0.0046524   2.9249380  17.2371169  )

     number of k points=    10  Fermi-Dirac smearing, width (Ry)=  0.0073
                       cart. coord. in units 2pi/alat
        k(    1) = (   0.0000000   0.0000000   0.0000000), wk =   0.1250000
        k(    2) = (   0.0000000   0.0419351   0.0000000), wk =   0.2500000
        k(    3) = (   0.0000000  -0.0838702   0.0000000), wk =   0.1250000
        k(    4) = (   0.0379955   0.0000049   0.0000000), wk =   0.2500000
        k(    5) = (   0.0379955   0.0419400   0.0000000), wk =   0.2500000
        k(    6) = (   0.0379955  -0.0838652   0.0000000), wk =   0.2500000
        k(    7) = (   0.0379955  -0.0419301   0.0000000), wk =   0.2500000
        k(    8) = (  -0.0759910  -0.0000099   0.0000000), wk =   0.1250000
        k(    9) = (  -0.0759910   0.0419252   0.0000000), wk =   0.2500000
        k(   10) = (  -0.0759910  -0.0838800   0.0000000), wk =   0.1250000

     Initial potential from superposition of free atoms

     starting charge  378.99918, renormalised to  395.00000

     negative rho (up, down):  1.729E-02 0.000E+00

     %%%%%%%%%%%%%%%%%%%%%%%%%%%%%%%%%%%%%%%%%%%%%%%%%%%%%%%%%%%%%%%%%%%%%%%%
     %                                                                      %
     % You are using vdW-DF, which was implemented by the Thonhauser group. %
     % Please cite the following two papers that made this development      %
     % possible and the two reviews that describe the various versions:     %
     %                                                                      %
     %   T. Thonhauser et al., PRL 115, 136402 (2015).                      %
     %   T. Thonhauser et al., PRB 76, 125112 (2007).                       %
     %   K. Berland et al., Rep. Prog. Phys. 78, 066501 (2015).             %
     %   D.C. Langreth et al., J. Phys.: Condens. Matter 21, 084203 (2009). %
     %                                                                      %
     %                                                                      %
     % If you are calculating the stress with vdW-DF, please also cite:     %
     %                                                                      %
     %   R. Sabatini et al., J. Phys.: Condens. Matter 24, 424209 (2012).   %
     %                                                                      %
     %%%%%%%%%%%%%%%%%%%%%%%%%%%%%%%%%%%%%%%%%%%%%%%%%%%%%%%%%%%%%%%%%%%%%%%%

     Adding external electric field

     Computed dipole along edir(3) :
        Dipole               -8.2751 Ry au,        -21.0333 Debye
        Dipole field         -0.0156 Ry au,

        Potential amp.        1.4476 Ry
        Total length         46.3494 bohr

     Starting wfcs are  298 atomic wfcs
  @ DRIVER MODE: Message from server: STATUS
  @ DRIVER MODE: Message from server: POSDATA
  @ DRIVER MODE: Reading and sharing cell
  @ DRIVER MODE: Reading and sharing positions
  @ DRIVER MODE: Received positions

     Self-consistent Calculation

     iteration #  1     ecut=    29.40 Ry     beta= 0.05
     Davidson diagonalization with overlap
     c_bands:  1 eigenvalues not converged
     c_bands:  1 eigenvalues not converged
     c_bands:  1 eigenvalues not converged
     c_bands:  3 eigenvalues not converged
     c_bands:  3 eigenvalues not converged
     c_bands:  2 eigenvalues not converged
     c_bands:  1 eigenvalues not converged
     ethr =  1.00E-05,  avg # of iterations = 19.3

[...]

     total energy              =   -2630.89732063 Ry
     estimated scf accuracy    <    3535.05509135 Ry

[...]

     iteration #  3     ecut=    29.40 Ry     beta= 0.05
     Davidson diagonalization with overlap
     ethr =  1.00E-02,  avg # of iterations = 14.1

[...]

     iteration # 55     ecut=    29.40 Ry     beta= 0.05
     Davidson diagonalization with overlap
     c_bands:  1 eigenvalues not converged
     ethr =  5.21E-08,  avg # of iterations = 13.0

[...]

     total energy              =   -2950.31330752 Ry
     estimated scf accuracy    <       0.00000019 Ry

     iteration # 69     ecut=    29.40 Ry     beta= 0.05
     Davidson diagonalization with overlap
     ethr =  4.81E-11,  avg # of iterations =  5.0

     negative rho (up, down):  1.727E-02 0.000E+00

     Adding external electric field

     Computed dipole along edir(3) :
        Dipole                0.6452 Ry au,          1.6400 Debye
        Dipole field          0.0012 Ry au,

        Potential amp.       -0.1129 Ry
        Total length         46.3494 bohr

     End of self-consistent calculation

          k = 0.0000 0.0000 0.0000 ( 18029 PWs)   bands (ev):

   -55.9728 -55.9657 -55.9387 -55.9297 -55.8474 -55.8242 -55.8090 -55.7896
   -55.7813 -55.7473 -55.7463 -55.7124 -55.6705 -55.4348 -54.9501 -54.9160
   -32.5198 -32.4553 -32.3234 -32.3060 -32.2807 -32.2774 -32.2657 -32.2369
   -32.2154 -32.1896 -32.1804 -32.1696 -32.1454 -32.1248 -32.1167 -32.1160
   -32.1052 -32.0858 -32.0772 -32.0630 -32.0360 -32.0298 -32.0297 -31.9839
   -31.9803 -31.9777 -31.9706 -31.9696 -31.9615 -31.9482 -31.9376 -31.9214
   -31.9155 -31.9147 -31.8992 -31.8901 -31.8857 -31.8818 -31.8584 -31.6995
   -31.6673 -31.6513 -31.3571 -31.2688 -31.2464 -31.1739 -31.0874 -30.9763
   -17.0738 -16.7076 -16.4443 -16.2451 -16.1846 -16.1155 -16.0893 -15.9795
   -15.8133 -15.6935 -15.6407 -15.5399 -15.5313 -15.5088 -15.4746 -15.4582
   -15.4229 -15.4160 -15.4065 -15.3949 -15.3813 -15.3322 -15.3131 -15.2998
   -15.1976 -15.1471 -15.1074 -15.0867 -15.0293 -15.0179 -14.6533 -13.4525
   -13.3361  -7.8085  -4.8085  -4.0884  -3.9298  -3.8786  -3.8290  -3.8115
    -3.5814  -3.5229  -3.2120  -3.1574  -3.1427  -3.1233  -3.0934  -2.8818
    -2.8514  -2.8014  -2.7832  -2.7623  -2.7506  -2.7320  -2.7191  -2.6986
    -2.6673  -2.6146  -2.5283  -2.4786  -2.3952  -2.3633  -2.3432  -2.3045
    -2.2847  -2.2420  -2.2225  -2.2130  -2.2068  -2.1697  -2.1637  -2.1203
    -2.0526  -2.0050  -1.9666  -1.9322  -1.8377  -1.7707  -1.7079  -1.5797
    -1.4595  -1.4433  -1.4005  -1.3733  -1.3639  -1.2745  -1.2207  -1.1541
    -1.1271  -1.1221  -1.0406  -0.9938  -0.9512  -0.9386  -0.8497  -0.8169
    -0.7387  -0.7331  -0.7206  -0.6799  -0.4600  -0.4247  -0.3928  -0.3721
    -0.3169  -0.2584  -0.2253  -0.1933  -0.1530  -0.0922  -0.0766  -0.0291
    -0.0065   0.0015   0.0214   0.0414   0.0685   0.1837   0.2161   0.2766
     0.3080   0.3807   0.4337   0.5706   0.6098   0.6851   0.7927   0.9985
     1.0721   1.1599   1.2643   1.6433   1.6889   3.1628   3.2491   3.2950
     3.3027   3.4042   3.4092   3.6143   3.6362   3.6493   3.7062

[...]

          k = 0.0380-0.0419 0.0000 ( 17876 PWs)   bands (ev):

[...]

          k =-0.0760-0.0000 0.0000 ( 17886 PWs)   bands (ev):

[...]

          k =-0.0760-0.0839 0.0000 ( 17948 PWs)   bands (ev):

   -55.9566 -55.9549 -55.9493 -55.9459 -55.8365 -55.8197 -55.8092 -55.8045
   -55.7648 -55.7634 -55.7316 -55.7273 -55.6694 -55.4358 -54.9330 -54.9329
   -32.3249 -32.3208 -32.2710 -32.2701 -32.2515 -32.2505 -32.2324 -32.2259
   -32.1743 -32.1683 -32.1618 -32.1566 -32.1166 -32.1055 -32.1002 -32.0942
   -32.0829 -32.0805 -32.0760 -32.0740 -32.0704 -32.0654 -32.0422 -32.0315
   -32.0287 -32.0177 -32.0169 -32.0043 -31.9817 -31.9657 -31.9631 -31.9622
   -31.9592 -31.9464 -31.9426 -31.9400 -31.9369 -31.8898 -31.8863 -31.7620
   -31.6841 -31.6679 -31.2591 -31.2590 -31.1700 -31.1698 -31.1307 -31.1306
   -17.0109 -16.2392 -16.1431 -16.1331 -15.9182 -15.8934 -15.8812 -15.8753
   -15.7559 -15.6774 -15.6672 -15.6650 -15.5926 -15.5678 -15.5632 -15.5118
   -15.5039 -15.4967 -15.4854 -15.4578 -15.4337 -15.4278 -15.4092 -15.4040
   -15.3231 -15.2891 -15.2858 -15.2580 -15.1370 -15.0157 -14.8242 -13.4380
   -13.4377  -7.8067  -4.7643  -3.4338  -3.4258  -3.1718  -3.1289  -3.1212
    -3.0647  -2.9148  -2.8778  -2.8719  -2.8367  -2.8175  -2.7999  -2.7928
    -2.7810  -2.7595  -2.7344  -2.7134  -2.7035  -2.6692  -2.6418  -2.6310
    -2.6184  -2.6015  -2.5856  -2.5684  -2.5513  -2.5270  -2.5101  -2.4950
    -2.4531  -2.3045  -2.2221  -2.1753  -2.1251  -2.1119  -2.1023  -2.0888
    -2.0721  -2.0363  -2.0269  -1.9855  -1.9520  -1.8328  -1.7732  -1.7066
    -1.6697  -1.6568  -1.5827  -1.5328  -1.4723  -1.4048  -1.3774  -1.3612
    -1.3100  -1.2549  -1.1895  -1.1723  -1.1416  -1.0957  -1.0491  -0.9706
    -0.9621  -0.9318  -0.9283  -0.8885  -0.8244  -0.7644  -0.7368  -0.7355
    -0.7082  -0.6483  -0.5871  -0.5686  -0.4621  -0.4557  -0.3389  -0.2964
    -0.0490   0.0076   0.0508   0.0994   0.1136   0.1782   0.2132   0.3327
     0.3421   0.3536   0.3927   0.4093   0.4265   0.5606   0.5742   0.6034
     0.7417   1.4362   1.4364   1.5082   1.5090   3.4636   3.4716   3.4986
     3.5164   3.6709   3.6742   3.6947   3.6960   3.8172   3.8475

     the Fermi energy is     3.1614 ev

!    total energy              =   -2950.31333993 Ry
     estimated scf accuracy    <       0.00000006 Ry
     smearing contrib. (-TS)   =      -0.02172890 Ry
     internal energy E=F+TS    =   -2950.29161103 Ry

     The total energy is F=E-TS. E is the sum of the following terms:
     one-electron contribution =  -24387.44003703 Ry
     hartree contribution      =   12280.76774950 Ry
     xc contribution           =    -486.35694143 Ry
     ewald contribution        =    9642.73683226 Ry
     electric field correction =       0.00078567 Ry

     convergence has been achieved in  69 iterations

     Forces acting on atoms (cartesian axes, Ry/au):

     atom    1 type  1   force =     0.00006674    0.00002704    0.10321442
     atom    2 type  1   force =     0.00007371    0.00004536    0.10317887
     atom    3 type  2   force =     0.00012252   -0.00031308    0.09683107
     atom    4 type  2   force =    -0.00007297   -0.00022322    0.09613084
     atom    5 type  2   force =     0.00012144   -0.00039257   -0.17537922
     atom    6 type  2   force =    -0.00002140   -0.00041239   -0.17548580
     atom    7 type  1   force =    -0.07148566   -0.00009185   -0.02768816
     atom    8 type  1   force =    -0.07152273   -0.00003912   -0.02770327
     atom    9 type  1   force =     0.07139496    0.00035436   -0.02775716
     atom   10 type  1   force =     0.07142246    0.00042617   -0.02775147
     atom   11 type  1   force =    -0.00001175   -0.00140911    0.05312506
     atom   12 type  1   force =     0.00001134   -0.00120125    0.05250602
     atom   13 type  1   force =     0.00009215   -0.00013736   -0.02457271
     atom   14 type  1   force =     0.00019654   -0.00012305   -0.02391820
     atom   15 type  2   force =     0.00042435    0.00062074   -0.01182155
     atom   16 type  2   force =     0.00057983    0.00307438   -0.01205565
     atom   17 type  2   force =     0.00034642   -0.01477963    0.02783722
     atom   18 type  2   force =     0.00037748    0.01325193    0.02791284
     atom   19 type  1   force =    -0.01207414    0.00073191    0.00325829
     atom   20 type  1   force =    -0.01219378   -0.00138426    0.00304598
     atom   21 type  1   force =     0.01357623    0.00131156    0.00277298
     atom   22 type  1   force =     0.01357041   -0.00098547    0.00248306
     atom   23 type  1   force =    -0.00335763    0.00071074   -0.01814627
     atom   24 type  1   force =    -0.00197970    0.00036448   -0.02016848
     atom   25 type  1   force =    -0.00014074    0.00000363    0.00004638
     atom   26 type  1   force =    -0.00002185    0.00010113    0.00004593
     atom   27 type  2   force =     0.00003339   -0.00004031   -0.00007822
     atom   28 type  2   force =     0.00009224    0.00004754   -0.00000340
     atom   29 type  2   force =    -0.00012142    0.00000540   -0.00003935
     atom   30 type  1   force =     0.00004991   -0.00003722    0.00001948
     atom   31 type  1   force =     0.00007534   -0.00000668    0.00004735
     atom   32 type  1   force =    -0.00000223   -0.00009927   -0.00004587
     atom   33 type  1   force =     0.00005723    0.00004548    0.00006824
     atom   34 type  2   force =    -0.00006632   -0.00009667    0.00008813
     atom   35 type  1   force =     0.00004234    0.00006188   -0.00004974
     atom   36 type  1   force =    -0.00003278    0.00003058   -0.00016397
     atom   37 type  1   force =    -0.00000628   -0.00008672   -0.00002185
     atom   38 type  1   force =     0.00009993    0.00000639   -0.00010836
     atom   39 type  2   force =    -0.00001139    0.00007960   -0.00018379
     atom   40 type  2   force =     0.00010272    0.00001366   -0.00001392
     atom   41 type  2   force =     0.00012947    0.00009993   -0.00004886
     atom   42 type  1   force =     0.00002426    0.00006107   -0.00002908
     atom   43 type  1   force =     0.00006438    0.00003280    0.00003864
     atom   44 type  1   force =     0.00010442    0.00001527    0.00015480
     atom   45 type  1   force =     0.00005582    0.00004578   -0.00003521
     atom   46 type  2   force =     0.00006171    0.00005641   -0.00007151
     atom   47 type  1   force =     0.00022850   -0.00008469    0.00017773
     atom   48 type  3   force =    -0.03818250   -0.01767000   -0.00292080
     atom   49 type  4   force =    -0.00016280    0.00001811    0.00002057
     atom   50 type  4   force =    -0.00049758   -0.00064439   -0.00018826
     atom   51 type  5   force =     0.03822902    0.01857947    0.00350606
     atom   52 type  1   force =     0.00013840    0.00003552   -0.00005982

     Total force =     0.372859     Total SCF correction =     0.000537
  @ DRIVER MODE: Message from server: STATUS
  @ DRIVER MODE: Message from server: GETFORCE
  @ DRIVER MODE: Returning v,forces,stress,ensemble

     Writing output data file ./calc.save/
  @ DRIVER MODE: Message from server: EXIT
  @ DRIVE MODE: Exiting

     General routines

     Parallel routines

   This run was terminated on:  23: 9:17  27Sep2021

   JOB DONE.