     Program PWSCF v.6.7GPU starts on 23Sep2021 at 17:14:11

     R & G space division:  proc/nbgrp/npool/nimage =       8
     Reading input from /storage/home/hcoda1/3/ntian30/research/carbon/CxH_vib/H2O_calc/ads_slab/CH3NHHHO_a/out_0016/pw.inp
Warning: card &CELL ignored
Warning: card   CELL_DYNAMICS='IPI', ignored
Warning: card / ignored

     Current dimensions of program PWSCF are:
     Max number of different atomic species (ntypx) = 10
     Max number of k-points (npk) =  40000
     Max angular momentum in pseudopotentials (lmaxx) =  3
     Presently no symmetry can be used with electric field

     Message from routine cell_base_init:
     DEPRECATED: use true lattice parameter, not A to a.u. conversion factor

     IMPORTANT: XC functional enforced from input :
     Exchange-correlation= BEEF-VDW
                           (   1   4  43  14   2   0   0)
     Any further DFT definition will be discarded
     Please, verify this is what you really want

  @ DRIVER MODE: Connecting to
 qe_1139763_2947311.sched-torque.pace.gatech.edu0zguuhuo_scratch
  using UNIX socket
  @ DRIVER MODE: Message from server: STATUS
  @ DRIVER MODE: Message from server: INIT
  @ DRIVER MODE: Receiving replica           0          -1
  @ DRIVER MODE: Receiving encoded integer          25
  @ DRIVER MODE:  SCF:  T  FORCE:  T  STRESS:  F  VC:  F  ENSEMBLE:  F
  @ DRIVER MODE:  SCF:  T  FORCE:  T  STRESS:  F  VC:  F  ENSEMBLE:  F

     Using Slab Decomposition

     bravais-lattice index     =            0
     lattice parameter (alat)  =       1.8897  a.u.
     unit-cell volume          =    6658.9804 (a.u.)^3
     number of atoms/cell      =           56
     number of atomic types    =            5
     number of electrons       =       399.00
     number of Kohn-Sham states=          209
     kinetic-energy cutoff     =      29.3995  Ry
     charge density cutoff     =     293.9946  Ry
     scf convergence threshold =      7.3E-08
     mixing beta               =       0.0500
     number of iterations used =            8  plain     mixing
     Exchange-correlation= BEEF-VDW
                           (   1   4  43  14   2   0   0)

     celldm(1)=   1.889726  celldm(2)=   0.000000  celldm(3)=   0.000000
     celldm(4)=   0.000000  celldm(5)=   0.000000  celldm(6)=   0.000000

     crystal axes: (cart. coord. in units of alat)
               a(1) = (   6.579727   0.000000   0.000000 )
               a(2) = (  -0.000775   5.961596   0.000000 )
               a(3) = (   0.000000   0.000000  25.155947 )

     reciprocal axes: (cart. coord. in units 2 pi/alat)
               b(1) = (  0.151982  0.000020  0.000000 )
               b(2) = (  0.000000  0.167740  0.000000 )
               b(3) = (  0.000000  0.000000  0.039752 )

     PseudoPot. # 1 for Ti read from file:
     /storage/coda1/p-amedford6/0/shared/rich_project_chbe-medford/medford-share/data/pseudos_module/espresso/nninc/pbe/van/Ti.UPF
     MD5 check sum: 8e4df49b7f0d34bbd5052bf3f5ea0213
     Pseudo is Ultrasoft, Zval = 12.0
     Generated by new atomic code, or converted to UPF format
     Using radial grid of  851 points,  6 beta functions with:
                l(1) =   0
                l(2) =   0
                l(3) =   1
                l(4) =   1
                l(5) =   2
                l(6) =   2
     Q(r) pseudized with  8 coefficients,  rinner =    1.000   1.000   1.000
                                                       1.000   1.000

     PseudoPot. # 2 for O  read from file:
     /storage/coda1/p-amedford6/0/shared/rich_project_chbe-medford/medford-share/data/pseudos_module/espresso/nninc/pbe/van/O.UPF
     MD5 check sum: 78c19812648e8988a0fe644b0f25305e
     Pseudo is Ultrasoft, Zval =  6.0
     Generated by new atomic code, or converted to UPF format
     Using radial grid of  737 points,  4 beta functions with:
                l(1) =   0
                l(2) =   0
                l(3) =   1
                l(4) =   1
     Q(r) pseudized with  8 coefficients,  rinner =    0.800   0.800   0.800

     PseudoPot. # 3 for N  read from file:
     /storage/coda1/p-amedford6/0/shared/rich_project_chbe-medford/medford-share/data/pseudos_module/espresso/nninc/pbe/van/N.UPF
     MD5 check sum: 90d10febe142ad51ac9d5be1deb811c4
     Pseudo is Ultrasoft, Zval =  5.0
     Generated by new atomic code, or converted to UPF format
     Using radial grid of  729 points,  4 beta functions with:
                l(1) =   0
                l(2) =   0
                l(3) =   1
                l(4) =   1
     Q(r) pseudized with  8 coefficients,  rinner =    0.800   0.800   0.800

     PseudoPot. # 4 for C  read from file:
     /storage/coda1/p-amedford6/0/shared/rich_project_chbe-medford/medford-share/data/pseudos_module/espresso/nninc/pbe/van/C.UPF
     MD5 check sum: 1a69bf6b8db32088f5b2163dbdb77a27
     Pseudo is Ultrasoft, Zval =  4.0
     Generated by new atomic code, or converted to UPF format
     Using radial grid of  721 points,  4 beta functions with:
                l(1) =   0
                l(2) =   0
                l(3) =   1
                l(4) =   1
     Q(r) pseudized with  8 coefficients,  rinner =    0.800   0.800   0.800

     PseudoPot. # 5 for H  read from file:
     /storage/coda1/p-amedford6/0/shared/rich_project_chbe-medford/medford-share/data/pseudos_module/espresso/nninc/pbe/van/H.UPF
     MD5 check sum: b5ee9d7bfd3a09ee7748110bda690ff7
     Pseudo is Ultrasoft, Zval =  1.0
     Generated by new atomic code, or converted to UPF format
     Using radial grid of  615 points,  1 beta functions with:
                l(1) =   0
     Q(r) pseudized with  8 coefficients,  rinner =    0.800

     atomic species   valence    mass     pseudopotential
        Ti1           12.00    47.86700     Ti( 1.00)
        O1             6.00    15.99900     O ( 1.00)
        N1             5.00    14.00700     N ( 1.00)
        C1             4.00    12.01100     C ( 1.00)
        H1             1.00     1.00800     H ( 1.00)

     No symmetry found

   Cartesian axes

     site n.     atom                  positions (alat units)
         1           Ti1 tau(   1) = (   0.0004258   2.9801865   6.0000000  )
         2           Ti1 tau(   2) = (   3.2906075   1.4906267   6.0002472  )
         3           O1  tau(   3) = (   0.0006271   0.0005054   7.9858123  )
         4           O1  tau(   4) = (   3.2906025   0.0005020   7.3038282  )
         5           O1  tau(   5) = (   4.5942328   1.4918067   9.2879030  )
         6           O1  tau(   6) = (   1.9868534   1.4903216   9.2879459  )
         7           Ti1 tau(   7) = (   3.2907910   2.8959150   9.1758416  )
         8           Ti1 tau(   8) = (   0.0015273   1.4827037   9.2680791  )
         9           O1  tau(   9) = (   3.2949530   5.9481847  11.3666340  )
        10           O1  tau(  10) = (   0.0116148   5.9584955  10.6183126  )
        11           O1  tau(  11) = (   1.2732546   1.4916747  12.6876809  )
        12           O1  tau(  12) = (   5.3119445   1.4892451  12.6851550  )
        13           Ti1 tau(  13) = (   6.5688325   2.9465269  12.5174317  )
        14           Ti1 tau(  14) = (   3.2996026   1.2975375  12.7241829  )
        15           O1  tau(  15) = (   0.0172205   5.8793003  14.6619373  )
        16           O1  tau(  16) = (   3.2917661   0.0702926  14.0149596  )
        17           O1  tau(  17) = (   4.5643074   1.5920826  16.1346482  )
        18           O1  tau(  18) = (   2.0131957   1.5841813  16.0575481  )
        19           Ti1 tau(  19) = (   3.2662748   3.0407108  15.6947786  )
        20           Ti1 tau(  20) = (   0.0618610   1.3206105  15.7998127  )
        21           O1  tau(  21) = (   3.2904802   0.0005063   4.7018136  )
        22           O1  tau(  22) = (   0.0233933   0.1570098  17.1842078  )
        23           O1  tau(  23) = (   1.3043587   1.4918075   6.0039043  )
        24           O1  tau(  24) = (   5.2767064   1.4903225   6.0039473  )
        25           Ti1 tau(  25) = (   0.0000382   5.9609847   6.0000000  )
        26           Ti1 tau(  26) = (   3.2902200   4.4714249   6.0002472  )
        27           O1  tau(  27) = (   0.0002396   2.9813036   7.9858123  )
        28           O1  tau(  28) = (   3.2902150   2.9813002   7.3038282  )
        29           O1  tau(  29) = (   4.5938453   4.4726049   9.2879030  )
        30           O1  tau(  30) = (   1.9864658   4.4711199   9.2879459  )
        31           Ti1 tau(  31) = (   3.2891106   5.8743827   9.1763621  )
        32           Ti1 tau(  32) = (   0.0006254   4.4649316   9.2693709  )
        33           O1  tau(  33) = (   3.2948289   2.9949798  11.3176834  )
        34           O1  tau(  34) = (   0.0092240   2.9805883  10.6323155  )
        35           O1  tau(  35) = (   1.2828652   4.4571597  12.6432593  )
        36           O1  tau(  36) = (   5.3079144   4.4605214  12.6419564  )
        37           Ti1 tau(  37) = (   0.0266940   5.9154698  12.5044250  )
        38           Ti1 tau(  38) = (   3.3008436   4.3760658  12.4353554  )
        39           O1  tau(  39) = (   6.5507285   3.0461080  14.9005035  )
        40           O1  tau(  40) = (   3.2938476   3.0131494  13.9233183  )
        41           O1  tau(  41) = (   4.5350990   4.4864192  16.1518712  )
        42           O1  tau(  42) = (   1.9883536   4.4285065  16.1690201  )
        43           Ti1 tau(  43) = (   3.3916644   0.0784854  16.2809578  )
        44           Ti1 tau(  44) = (   0.0590441   4.5159846  16.0209683  )
        45           O1  tau(  45) = (   3.2900926   2.9813045   4.7018136  )
        46           O1  tau(  46) = (   1.3039711   4.4726057   6.0039043  )
        47           O1  tau(  47) = (   5.2763189   4.4711207   6.0039473  )
        48           N1  tau(  48) = (   6.2706434   3.3837210  18.0754458  )
        49           C1  tau(  49) = (   0.7642246   3.1223808  19.0622891  )
        50           H1  tau(  50) = (   1.3158356   4.0510886  19.2409436  )
        51           H1  tau(  51) = (   0.3597117   2.7583523  20.0089400  )
        52           H1  tau(  52) = (   1.4517744   2.3810259  18.6668870  )
        53           H1  tau(  53) = (   5.6745199   4.1349376  18.4206214  )
        54           H1  tau(  54) = (   5.6587021   2.5696541  18.0151127  )
        55           O1  tau(  55) = (   3.1972372   0.0910451  18.1323504  )
        56           H1  tau(  56) = (   2.2767176   0.1080423  18.4377142  )

     number of k points=    10  Fermi-Dirac smearing, width (Ry)=  0.0073
                       cart. coord. in units 2pi/alat
        k(    1) = (   0.0000000   0.0000000   0.0000000), wk =   0.1250000
        k(    2) = (   0.0000000   0.0419351   0.0000000), wk =   0.2500000
        k(    3) = (   0.0000000  -0.0838702   0.0000000), wk =   0.1250000
        k(    4) = (   0.0379955   0.0000049   0.0000000), wk =   0.2500000
        k(    5) = (   0.0379955   0.0419400   0.0000000), wk =   0.2500000
        k(    6) = (   0.0379955  -0.0838652   0.0000000), wk =   0.2500000
        k(    7) = (   0.0379955  -0.0419301   0.0000000), wk =   0.2500000
        k(    8) = (  -0.0759910  -0.0000099   0.0000000), wk =   0.1250000
        k(    9) = (  -0.0759910   0.0419252   0.0000000), wk =   0.2500000
        k(   10) = (  -0.0759910  -0.0838800   0.0000000), wk =   0.1250000

     Initial potential from superposition of free atoms

     starting charge  382.99914, renormalised to  399.00000

     negative rho (up, down):  1.588E-02 0.000E+00

     %%%%%%%%%%%%%%%%%%%%%%%%%%%%%%%%%%%%%%%%%%%%%%%%%%%%%%%%%%%%%%%%%%%%%%%%
     %                                                                      %
     % You are using vdW-DF, which was implemented by the Thonhauser group. %
     % Please cite the following two papers that made this development      %
     % possible and the two reviews that describe the various versions:     %
     %                                                                      %
     %   T. Thonhauser et al., PRL 115, 136402 (2015).                      %
     %   T. Thonhauser et al., PRB 76, 125112 (2007).                       %
     %   K. Berland et al., Rep. Prog. Phys. 78, 066501 (2015).             %
     %   D.C. Langreth et al., J. Phys.: Condens. Matter 21, 084203 (2009). %
     %                                                                      %
     %                                                                      %
     % If you are calculating the stress with vdW-DF, please also cite:     %
     %                                                                      %
     %   R. Sabatini et al., J. Phys.: Condens. Matter 24, 424209 (2012).   %
     %                                                                      %
     %%%%%%%%%%%%%%%%%%%%%%%%%%%%%%%%%%%%%%%%%%%%%%%%%%%%%%%%%%%%%%%%%%%%%%%%

     Adding external electric field

     Computed dipole along edir(3) :
        Dipole              -10.6962 Ry au,        -27.1870 Debye
        Dipole field         -0.0202 Ry au,

        Potential amp.        1.8711 Ry
        Total length         46.3494 bohr

     Starting wfcs are  302 atomic wfcs
  @ DRIVER MODE: Message from server: STATUS
  @ DRIVER MODE: Message from server: POSDATA
  @ DRIVER MODE: Reading and sharing cell
  @ DRIVER MODE: Reading and sharing positions
  @ DRIVER MODE: Received positions

     Self-consistent Calculation

     iteration #  1     ecut=    29.40 Ry     beta= 0.05
     Davidson diagonalization with overlap
     c_bands:  3 eigenvalues not converged
     c_bands:  2 eigenvalues not converged
     c_bands:  2 eigenvalues not converged
     c_bands:  5 eigenvalues not converged
     c_bands:  2 eigenvalues not converged
     c_bands:  5 eigenvalues not converged
     c_bands:  4 eigenvalues not converged
     c_bands:  3 eigenvalues not converged
     ethr =  1.00E-05,  avg # of iterations = 21.6

[...]

     total energy              =   -2438.26850497 Ry
     estimated scf accuracy    <    5770.44578920 Ry

     iteration #  2     ecut=    29.40 Ry     beta= 0.05
     Davidson diagonalization with overlap
     ethr =  1.00E-02,  avg # of iterations = 22.8

[...]

     iteration # 67     ecut=    29.40 Ry     beta= 0.05
     Davidson diagonalization with overlap
     c_bands:  1 eigenvalues not converged
     ethr =  4.40E-08,  avg # of iterations = 10.8

[...]

     total energy              =   -2955.26286713 Ry
     estimated scf accuracy    <       0.00000013 Ry

     iteration # 83     ecut=    29.40 Ry     beta= 0.05
     Davidson diagonalization with overlap
     ethr =  2.94E-11,  avg # of iterations = 11.1

     negative rho (up, down):  1.646E-02 0.000E+00

     Adding external electric field

     Computed dipole along edir(3) :
        Dipole                0.9751 Ry au,          2.4783 Debye
        Dipole field          0.0018 Ry au,

        Potential amp.       -0.1706 Ry
        Total length         46.3494 bohr

     End of self-consistent calculation

          k = 0.0000 0.0000 0.0000 ( 18029 PWs)   bands (ev):

   -55.6836 -55.6371 -55.6030 -55.5127 -55.5027 -55.4672 -55.4664 -55.4644
   -55.4323 -55.4188 -55.3682 -55.2733 -55.2275 -55.2131 -54.6132 -54.5792
   -32.1225 -32.0204 -32.0125 -31.9888 -31.9692 -31.9570 -31.9279 -31.9020
   -31.8949 -31.8835 -31.8831 -31.7905 -31.7897 -31.7750 -31.7497 -31.7459
   -31.7444 -31.7433 -31.7425 -31.7063 -31.6946 -31.6654 -31.6626 -31.6565
   -31.6509 -31.6448 -31.6368 -31.6064 -31.6046 -31.5989 -31.5934 -31.5902
   -31.5792 -31.5641 -31.5496 -31.5243 -31.4647 -31.4560 -31.4465 -31.4232
   -31.4197 -31.4150 -31.0192 -30.9328 -30.9103 -30.8368 -30.7504 -30.6385
   -16.5120 -16.2967 -16.1500 -15.9790 -15.8396 -15.8107 -15.7695 -15.5994
   -15.5066 -15.4429 -15.2427 -15.2217 -15.1758 -15.1644 -15.1592 -15.1363
   -15.1267 -15.0817 -15.0632 -15.0597 -15.0499 -15.0323 -14.9959 -14.9536
   -14.9103 -14.8894 -14.7768 -14.7205 -14.6799 -14.4686 -14.4007 -13.1114
   -12.9950  -9.9689  -6.0170  -4.5876  -4.0629  -3.7566  -3.6445  -3.5472
    -3.5359  -3.4149  -3.4057  -3.1662  -3.0426  -2.9838  -2.9052  -2.7829
    -2.7504  -2.6758  -2.6346  -2.5868  -2.5691  -2.5316  -2.4913  -2.4488
    -2.4236  -2.3957  -2.3613  -2.3064  -2.2945  -2.1967  -2.1823  -2.1594
    -2.0539  -2.0130  -1.9729  -1.9547  -1.9496  -1.9307  -1.8919  -1.8856
    -1.8659  -1.7877  -1.7187  -1.6725  -1.6378  -1.6100  -1.3322  -1.2468
    -1.2032  -1.1887  -1.0847  -1.0610  -1.0327  -1.0191  -0.9823  -0.9660
    -0.8540  -0.8369  -0.7688  -0.7192  -0.7047  -0.6673  -0.5483  -0.5117
    -0.4609  -0.4208  -0.3706  -0.3530  -0.3483  -0.2536  -0.2269  -0.1921
    -0.0837  -0.0670  -0.0044   0.0808   0.0905   0.1419   0.1654   0.2257
     0.2300   0.2847   0.3144   0.3367   0.3900   0.4224   0.4587   0.4917
     0.5089   0.6112   0.6864   0.6992   0.7962   0.8709   0.9243   1.0284
     1.0961   1.3600   1.4136   1.4374   1.6056   1.9809   2.0263   3.4445
     3.5935   3.6090   3.6837   3.6963   3.7733   3.9340   3.9589   4.0939
     4.1323

[...]

          k = 0.0380-0.0419 0.0000 ( 17876 PWs)   bands (ev):

[...]

          k =-0.0760-0.0000 0.0000 ( 17886 PWs)   bands (ev):

[...]

          k =-0.0760-0.0839 0.0000 ( 17948 PWs)   bands (ev):

   -55.6826 -55.6202 -55.6198 -55.5115 -55.4915 -55.4755 -55.4680 -55.4499
   -55.4483 -55.4125 -55.3746 -55.2685 -55.2286 -55.2178 -54.5967 -54.5956
   -31.9534 -31.9456 -31.9378 -31.9376 -31.9307 -31.9136 -31.9132 -31.8973
   -31.8529 -31.8117 -31.7936 -31.7807 -31.7768 -31.7751 -31.7534 -31.7436
   -31.7400 -31.7395 -31.7293 -31.7255 -31.7179 -31.7170 -31.7023 -31.6784
   -31.6722 -31.6679 -31.6584 -31.6480 -31.6330 -31.6318 -31.6296 -31.6243
   -31.6227 -31.5973 -31.5967 -31.5558 -31.5312 -31.4961 -31.4690 -31.4641
   -31.4489 -31.4191 -30.9234 -30.9227 -30.8327 -30.8314 -30.7940 -30.7932
   -16.4820 -15.9388 -15.8580 -15.7451 -15.6220 -15.6087 -15.4976 -15.4147
   -15.4111 -15.3806 -15.3499 -15.3219 -15.3126 -15.2955 -15.2486 -15.2051
   -15.1699 -15.1422 -15.1402 -15.0943 -15.0873 -15.0759 -15.0633 -15.0410
   -15.0072 -14.9574 -14.9430 -14.9044 -14.7664 -14.6906 -14.5909 -13.0971
   -13.0965  -9.9709  -5.9969  -4.5851  -4.0276  -3.7111  -3.0565  -2.9604
    -2.8485  -2.7227  -2.7123  -2.6971  -2.6429  -2.6117  -2.5860  -2.5447
    -2.4873  -2.4673  -2.4470  -2.4305  -2.4088  -2.3909  -2.3822  -2.3769
    -2.3404  -2.3228  -2.3144  -2.2733  -2.2657  -2.2486  -2.2279  -2.2117
    -2.1811  -2.1766  -2.1472  -2.0956  -2.0464  -1.9726  -1.8798  -1.7984
    -1.7873  -1.7688  -1.7192  -1.7126  -1.6672  -1.6593  -1.6346  -1.5484
    -1.4369  -1.3864  -1.2759  -1.2560  -1.2292  -1.1895  -1.1367  -1.1225
    -1.0770  -1.0467  -0.9867  -0.8858  -0.8556  -0.8004  -0.6870  -0.6494
    -0.6110  -0.5910  -0.5788  -0.5538  -0.5371  -0.4975  -0.4693  -0.4211
    -0.3818  -0.3476  -0.3208  -0.2952  -0.2487  -0.1467  -0.0524  -0.0150
     0.0865   0.1328   0.1748   0.2066   0.2684   0.4034   0.4301   0.5262
     0.5408   0.5699   0.6715   0.6817   0.7827   0.8068   0.8451   0.8860
     0.9108   0.9318   0.9515   1.7753   1.7838   1.8466   1.8467   3.7373
     3.9299   3.9449   3.9612   4.0059   4.0131   4.0401   4.0458   4.1124
     4.1235

     the Fermi energy is     3.4834 ev

!    total energy              =   -2955.26287830 Ry
     estimated scf accuracy    <       0.00000006 Ry
     smearing contrib. (-TS)   =      -0.01953162 Ry
     internal energy E=F+TS    =   -2955.24334668 Ry

     The total energy is F=E-TS. E is the sum of the following terms:
     one-electron contribution =  -23741.51385303 Ry
     hartree contribution      =   11962.86801687 Ry
     xc contribution           =    -489.73167289 Ry
     ewald contribution        =    9313.13236822 Ry
     electric field correction =       0.00179415 Ry

     convergence has been achieved in  83 iterations

     Forces acting on atoms (cartesian axes, Ry/au):

     atom    1 type  1   force =     0.00009162   -0.00029578    0.09414436
     atom    2 type  1   force =    -0.00003790    0.00042862   -0.17542388
     atom    3 type  2   force =     0.00004043   -0.00033703   -0.02110587
     atom    4 type  2   force =     0.00002549   -0.00197804    0.05461852
     atom    5 type  2   force =    -0.00672231   -0.00245086    0.00301850
     atom    6 type  2   force =     0.00832790   -0.00187444    0.00244001
     atom    7 type  1   force =    -0.00017776   -0.00404839    0.00896779
     atom    8 type  1   force =     0.00031940    0.00082464    0.00311398
     atom    9 type  2   force =    -0.00057952    0.00058533   -0.00017421
     atom   10 type  2   force =    -0.00139004    0.00173075   -0.00927957
     atom   11 type  2   force =     0.00003510   -0.00016236    0.00038271
     atom   12 type  2   force =    -0.00005209   -0.00011688   -0.00030104
     atom   13 type  1   force =    -0.00049106   -0.00025120    0.00003689
     atom   14 type  1   force =     0.00000971   -0.00034729   -0.00005594
     atom   15 type  2   force =    -0.00031374   -0.00002829   -0.00013730
     atom   16 type  2   force =     0.00032369   -0.00052888   -0.00041147
     atom   17 type  2   force =     0.00043774   -0.00015738   -0.00077809
     atom   18 type  2   force =    -0.00047854    0.00015189   -0.00012073
     atom   19 type  1   force =     0.00047987   -0.00060839    0.00070505
     atom   20 type  1   force =     0.00049106    0.00028711    0.00039280
     atom   21 type  2   force =     0.00007709    0.00004597    0.10323982
     atom   22 type  2   force =    -0.00048046    0.00038264    0.00021603
     atom   23 type  2   force =    -0.07189681   -0.00019005   -0.02720199
     atom   24 type  2   force =     0.07182728    0.00025063   -0.02724552
     atom   25 type  1   force =     0.00002906   -0.00023959    0.09382468
     atom   26 type  1   force =    -0.00005939   -0.00132800   -0.17560193
     atom   27 type  2   force =     0.00015589   -0.00011428   -0.01986725
     atom   28 type  2   force =     0.00006966   -0.00032219    0.04989637
     atom   29 type  2   force =    -0.00611259    0.00231985    0.00252323
     atom   30 type  2   force =     0.00760545    0.00268436    0.00197432
     atom   31 type  1   force =     0.00002642    0.00839396   -0.00275359
     atom   32 type  1   force =     0.00011706   -0.00235506    0.00259484
     atom   33 type  2   force =     0.00005199   -0.00000674   -0.00005024
     atom   34 type  2   force =    -0.00211543   -0.00248794   -0.01005457
     atom   35 type  2   force =    -0.00015077   -0.00001517    0.00053857
     atom   36 type  2   force =    -0.00006657    0.00007398   -0.00007100
     atom   37 type  1   force =     0.00017100   -0.00008842   -0.00024385
     atom   38 type  1   force =     0.00005861   -0.00017461    0.00024397
     atom   39 type  2   force =    -0.00013195    0.00011381   -0.00026511
     atom   40 type  2   force =     0.00017286   -0.00024920   -0.00008929
     atom   41 type  2   force =    -0.00036516   -0.00072660    0.00063473
     atom   42 type  2   force =     0.00049240    0.00005450   -0.00021564
     atom   43 type  1   force =    -0.00078041   -0.00063080    0.00027541
     atom   44 type  1   force =     0.00042656    0.00044911   -0.00026101
     atom   45 type  2   force =     0.00006962   -0.00006886    0.10303708
     atom   46 type  2   force =    -0.07191644   -0.00004248   -0.02723411
     atom   47 type  2   force =     0.07187933    0.00039858   -0.02728248
     atom   48 type  3   force =    -0.00028392    0.00001219    0.00024363
     atom   49 type  4   force =     0.00474029    0.00935671    0.00179430
     atom   50 type  5   force =    -0.00395340   -0.00872687   -0.00147551
     atom   51 type  5   force =     0.00004067    0.00099132    0.00020722
     atom   52 type  5   force =     0.00074234    0.00043399   -0.00062085
     atom   53 type  5   force =    -0.00034515    0.00051797   -0.00068064
     atom   54 type  5   force =     0.00025338   -0.00004554   -0.00005381
     atom   55 type  2   force =    -0.00047606    0.00040922    0.00045036
     atom   56 type  5   force =    -0.00021151    0.00010045   -0.00045868

     Total force =     0.362468     Total SCF correction =     0.000589
  @ DRIVER MODE: Message from server: STATUS
  @ DRIVER MODE: Message from server: GETFORCE
  @ DRIVER MODE: Returning v,forces,stress,ensemble

     Writing output data file ./calc.save/
  @ DRIVER MODE: Message from server: EXIT
  @ DRIVE MODE: Exiting

     General routines

     Parallel routines

   This run was terminated on:  17:41:30  23Sep2021

   JOB DONE.