     Program PWSCF v.6.7GPU starts on 12Oct2021 at 12:36:35

     R & G space division:  proc/nbgrp/npool/nimage =       8
     Reading input from /storage/home/hcoda1/3/ntian30/research/carbon/ACS_vib/ads_slab/NH2/out_0010/pw.inp
Warning: card &CELL ignored
Warning: card   CELL_DYNAMICS='IPI', ignored
Warning: card / ignored

     Current dimensions of program PWSCF are:
     Max number of different atomic species (ntypx) = 10
     Max number of k-points (npk) =  40000
     Max angular momentum in pseudopotentials (lmaxx) =  3
     Presently no symmetry can be used with electric field

     Message from routine cell_base_init:
     DEPRECATED: use true lattice parameter, not A to a.u. conversion factor

     IMPORTANT: XC functional enforced from input :
     Exchange-correlation= BEEF-VDW
                           (   1   4  43  14   2   0   0)
     Any further DFT definition will be discarded
     Please, verify this is what you really want

  @ DRIVER MODE: Connecting to
 qe_1139763_3181316.sched-torque.pace.gatech.educora0yao_scratch
  using UNIX socket
  @ DRIVER MODE: Message from server: STATUS
  @ DRIVER MODE: Message from server: INIT
  @ DRIVER MODE: Receiving replica           0          -1
  @ DRIVER MODE: Receiving encoded integer          25
  @ DRIVER MODE:  SCF:  T  FORCE:  T  STRESS:  F  VC:  F  ENSEMBLE:  F
  @ DRIVER MODE:  SCF:  T  FORCE:  T  STRESS:  F  VC:  F  ENSEMBLE:  F

     Using Slab Decomposition

     bravais-lattice index     =            0
     lattice parameter (alat)  =       1.8897  a.u.
     unit-cell volume          =    6658.9804 (a.u.)^3
     number of atoms/cell      =           50
     number of atomic types    =            4
     number of electrons       =       385.00
     number of Kohn-Sham states=          202
     kinetic-energy cutoff     =      29.3995  Ry
     charge density cutoff     =     293.9946  Ry
     scf convergence threshold =      7.3E-08
     mixing beta               =       0.0500
     number of iterations used =            8  plain     mixing
     Exchange-correlation= BEEF-VDW
                           (   1   4  43  14   2   0   0)

     celldm(1)=   1.889726  celldm(2)=   0.000000  celldm(3)=   0.000000
     celldm(4)=   0.000000  celldm(5)=   0.000000  celldm(6)=   0.000000

     crystal axes: (cart. coord. in units of alat)
               a(1) = (   6.579727   0.000000   0.000000 )
               a(2) = (  -0.000775   5.961596   0.000000 )
               a(3) = (   0.000000   0.000000  25.155947 )

     reciprocal axes: (cart. coord. in units 2 pi/alat)
               b(1) = (  0.151982  0.000020  0.000000 )
               b(2) = (  0.000000  0.167740  0.000000 )
               b(3) = (  0.000000  0.000000  0.039752 )

     PseudoPot. # 1 for Ti read from file:
     /storage/coda1/p-amedford6/0/shared/rich_project_chbe-medford/medford-share/data/pseudos_module/espresso/nninc/pbe/van/Ti.UPF
     MD5 check sum: 8e4df49b7f0d34bbd5052bf3f5ea0213
     Pseudo is Ultrasoft, Zval = 12.0
     Generated by new atomic code, or converted to UPF format
     Using radial grid of  851 points,  6 beta functions with:
                l(1) =   0
                l(2) =   0
                l(3) =   1
                l(4) =   1
                l(5) =   2
                l(6) =   2
     Q(r) pseudized with  8 coefficients,  rinner =    1.000   1.000   1.000
                                                       1.000   1.000

     PseudoPot. # 2 for O  read from file:
     /storage/coda1/p-amedford6/0/shared/rich_project_chbe-medford/medford-share/data/pseudos_module/espresso/nninc/pbe/van/O.UPF
     MD5 check sum: 78c19812648e8988a0fe644b0f25305e
     Pseudo is Ultrasoft, Zval =  6.0
     Generated by new atomic code, or converted to UPF format
     Using radial grid of  737 points,  4 beta functions with:
                l(1) =   0
                l(2) =   0
                l(3) =   1
                l(4) =   1
     Q(r) pseudized with  8 coefficients,  rinner =    0.800   0.800   0.800

     PseudoPot. # 3 for H  read from file:
     /storage/coda1/p-amedford6/0/shared/rich_project_chbe-medford/medford-share/data/pseudos_module/espresso/nninc/pbe/van/H.UPF
     MD5 check sum: b5ee9d7bfd3a09ee7748110bda690ff7
     Pseudo is Ultrasoft, Zval =  1.0
     Generated by new atomic code, or converted to UPF format
     Using radial grid of  615 points,  1 beta functions with:
                l(1) =   0
     Q(r) pseudized with  8 coefficients,  rinner =    0.800

     PseudoPot. # 4 for N  read from file:
     /storage/coda1/p-amedford6/0/shared/rich_project_chbe-medford/medford-share/data/pseudos_module/espresso/nninc/pbe/van/N.UPF
     MD5 check sum: 90d10febe142ad51ac9d5be1deb811c4
     Pseudo is Ultrasoft, Zval =  5.0
     Generated by new atomic code, or converted to UPF format
     Using radial grid of  729 points,  4 beta functions with:
                l(1) =   0
                l(2) =   0
                l(3) =   1
                l(4) =   1
     Q(r) pseudized with  8 coefficients,  rinner =    0.800   0.800   0.800

     atomic species   valence    mass     pseudopotential
        Ti1           12.00    47.86700     Ti( 1.00)
        O1             6.00    15.99900     O ( 1.00)
        H1             1.00     1.00800     H ( 1.00)
        N1             5.00    14.00700     N ( 1.00)

     No symmetry found

   Cartesian axes

     site n.     atom                  positions (alat units)
         1           Ti1 tau(   1) = (   0.0004258   2.9801865   6.0000000  )
         2           Ti1 tau(   2) = (   3.2906075   1.4906267   6.0002472  )
         3           O1  tau(   3) = (   0.0006271   0.0005054   7.9858123  )
         4           O1  tau(   4) = (   3.2906025   0.0005020   7.3038282  )
         5           O1  tau(   5) = (   4.5942328   1.4918067   9.2879030  )
         6           O1  tau(   6) = (   1.9868534   1.4903216   9.2879459  )
         7           Ti1 tau(   7) = (   3.2907910   2.8959150   9.1758416  )
         8           Ti1 tau(   8) = (   0.0015273   1.4827037   9.2680791  )
         9           O1  tau(   9) = (   3.3258991   5.9546141  11.3332578  )
        10           O1  tau(  10) = (   0.0116148   5.9584955  10.6183126  )
        11           O1  tau(  11) = (   1.3488932   1.4798543  12.6053297  )
        12           O1  tau(  12) = (   5.3234149   1.4779677  12.6259018  )
        13           Ti1 tau(  13) = (   0.0250334   2.9927558  12.6206450  )
        14           Ti1 tau(  14) = (   3.3016322   1.4795038  12.4820857  )
        15           O1  tau(  15) = (   0.0664024   0.0157593  14.6586037  )
        16           O1  tau(  16) = (   3.3323282   0.0041071  13.9289915  )
        17           O1  tau(  17) = (   4.5995015   1.5314437  16.0640773  )
        18           O1  tau(  18) = (   2.1161456   1.5293183  16.0749432  )
        19           Ti1 tau(  19) = (   3.3498380   3.0088313  15.6963580  )
        20           Ti1 tau(  20) = (   0.0530739   1.5396549  15.8437714  )
        21           O1  tau(  21) = (   3.2904802   0.0005063   4.7018136  )
        22           O1  tau(  22) = (   0.0625368   0.0441461  17.2188842  )
        23           O1  tau(  23) = (   1.3043587   1.4918075   6.0039043  )
        24           O1  tau(  24) = (   5.2767064   1.4903225   6.0039473  )
        25           Ti1 tau(  25) = (   0.0000382   5.9609847   6.0000000  )
        26           Ti1 tau(  26) = (   3.2902200   4.4714249   6.0002472  )
        27           O1  tau(  27) = (   0.0002396   2.9813036   7.9858123  )
        28           O1  tau(  28) = (   3.2902150   2.9813002   7.3038282  )
        29           O1  tau(  29) = (   4.5938453   4.4726049   9.2879030  )
        30           O1  tau(  30) = (   1.9864658   4.4711199   9.2879459  )
        31           Ti1 tau(  31) = (   3.2891106   5.8743827   9.1763621  )
        32           Ti1 tau(  32) = (   0.0006254   4.4649316   9.2693709  )
        33           O1  tau(  33) = (   3.3263537   2.9785333  11.3304563  )
        34           O1  tau(  34) = (   0.0092240   2.9805883  10.6323155  )
        35           O1  tau(  35) = (   1.3430786   4.4678698  12.6172051  )
        36           O1  tau(  36) = (   5.3277099   4.4710525  12.6377626  )
        37           Ti1 tau(  37) = (   0.0170098   0.0068522  12.5677129  )
        38           Ti1 tau(  38) = (   3.3012998   4.4598595  12.4837504  )
        39           O1  tau(  39) = (   0.0613649   2.9331972  14.6385027  )
        40           O1  tau(  40) = (   3.3336062   2.9900835  13.9042222  )
        41           O1  tau(  41) = (   4.5971590   4.4874278  16.0927711  )
        42           O1  tau(  42) = (   2.1143488   4.4887574  16.1000639  )
        43           Ti1 tau(  43) = (   3.3470598   0.0240971  15.7232225  )
        44           Ti1 tau(  44) = (   0.0592690   4.6672874  16.1350517  )
        45           O1  tau(  45) = (   3.2900926   2.9813045   4.7018136  )
        46           O1  tau(  46) = (   1.3039711   4.4726057   6.0039043  )
        47           O1  tau(  47) = (   5.2763189   4.4711207   6.0039473  )
        48           H1  tau(  48) = (   5.8602933   2.9036204  18.0417654  )
        49           H1  tau(  49) = (   0.9096825   2.9032289  17.9980414  )
        50           N1  tau(  50) = (   0.0797844   2.9726167  17.4194980  )

     number of k points=    10  Fermi-Dirac smearing, width (Ry)=  0.0073
                       cart. coord. in units 2pi/alat
        k(    1) = (   0.0000000   0.0000000   0.0000000), wk =   0.1250000
        k(    2) = (   0.0000000   0.0419351   0.0000000), wk =   0.2500000
        k(    3) = (   0.0000000  -0.0838702   0.0000000), wk =   0.1250000
        k(    4) = (   0.0379955   0.0000049   0.0000000), wk =   0.2500000
        k(    5) = (   0.0379955   0.0419400   0.0000000), wk =   0.2500000
        k(    6) = (   0.0379955  -0.0838652   0.0000000), wk =   0.2500000
        k(    7) = (   0.0379955  -0.0419301   0.0000000), wk =   0.2500000
        k(    8) = (  -0.0759910  -0.0000099   0.0000000), wk =   0.1250000
        k(    9) = (  -0.0759910   0.0419252   0.0000000), wk =   0.2500000
        k(   10) = (  -0.0759910  -0.0838800   0.0000000), wk =   0.1250000

     Initial potential from superposition of free atoms

     starting charge  368.99922, renormalised to  385.00000

     negative rho (up, down):  2.142E-02 0.000E+00

     %%%%%%%%%%%%%%%%%%%%%%%%%%%%%%%%%%%%%%%%%%%%%%%%%%%%%%%%%%%%%%%%%%%%%%%%
     %                                                                      %
     % You are using vdW-DF, which was implemented by the Thonhauser group. %
     % Please cite the following two papers that made this development      %
     % possible and the two reviews that describe the various versions:     %
     %                                                                      %
     %   T. Thonhauser et al., PRL 115, 136402 (2015).                      %
     %   T. Thonhauser et al., PRB 76, 125112 (2007).                       %
     %   K. Berland et al., Rep. Prog. Phys. 78, 066501 (2015).             %
     %   D.C. Langreth et al., J. Phys.: Condens. Matter 21, 084203 (2009). %
     %                                                                      %
     %                                                                      %
     % If you are calculating the stress with vdW-DF, please also cite:     %
     %                                                                      %
     %   R. Sabatini et al., J. Phys.: Condens. Matter 24, 424209 (2012).   %
     %                                                                      %
     %%%%%%%%%%%%%%%%%%%%%%%%%%%%%%%%%%%%%%%%%%%%%%%%%%%%%%%%%%%%%%%%%%%%%%%%

     Adding external electric field

     Computed dipole along edir(3) :
        Dipole               -1.9920 Ry au,         -5.0631 Debye
        Dipole field         -0.0038 Ry au,

        Potential amp.        0.3485 Ry
        Total length         46.3494 bohr

     Starting wfcs are  290 atomic wfcs
  @ DRIVER MODE: Message from server: STATUS
  @ DRIVER MODE: Message from server: POSDATA
  @ DRIVER MODE: Reading and sharing cell
  @ DRIVER MODE: Reading and sharing positions
  @ DRIVER MODE: Received positions

     Self-consistent Calculation

     iteration #  1     ecut=    29.40 Ry     beta= 0.05
     Davidson diagonalization with overlap
     c_bands:  2 eigenvalues not converged
     c_bands:  1 eigenvalues not converged
     c_bands:  4 eigenvalues not converged
     c_bands:  1 eigenvalues not converged
     c_bands:  3 eigenvalues not converged
     ethr =  1.00E-05,  avg # of iterations = 18.3

[...]

     total energy              =   -2907.97590307 Ry
     estimated scf accuracy    <      12.38752908 Ry

     iteration #  2     ecut=    29.40 Ry     beta= 0.05
     Davidson diagonalization with overlap
     ethr =  3.22E-03,  avg # of iterations =  1.0

[...]

     iteration # 76     ecut=    29.40 Ry     beta= 0.05
     Davidson diagonalization with overlap
     c_bands:  2 eigenvalues not converged
     c_bands:  1 eigenvalues not converged
     ethr =  6.80E-11,  avg # of iterations = 14.7

[...]

     total energy              =   -2906.48808996 Ry
     estimated scf accuracy    <       0.00000024 Ry

     iteration # 80     ecut=    29.40 Ry     beta= 0.05
     Davidson diagonalization with overlap
     ethr =  6.27E-11,  avg # of iterations =  7.0

     negative rho (up, down):  2.070E-02 0.000E+00

     Adding external electric field

     Computed dipole along edir(3) :
        Dipole                0.6493 Ry au,          1.6503 Debye
        Dipole field          0.0012 Ry au,

        Potential amp.       -0.1136 Ry
        Total length         46.3494 bohr

     End of self-consistent calculation

          k = 0.0000 0.0000 0.0000 ( 18029 PWs)   bands (ev):

   -56.1957 -56.1893 -56.1617 -56.1533 -56.0923 -56.0194 -56.0104 -56.0011
   -55.9755 -55.9674 -55.9624 -55.9287 -55.7396 -55.4384 -55.1698 -55.1357
   -32.7502 -32.6771 -32.5333 -32.5081 -32.5004 -32.4965 -32.4892 -32.4528
   -32.4376 -32.4270 -32.3880 -32.3851 -32.3699 -32.3480 -32.3345 -32.3211
   -32.3184 -32.2991 -32.2797 -32.2530 -32.2351 -32.2136 -32.2059 -32.1930
   -32.1874 -32.1794 -32.1679 -32.1651 -32.1598 -32.1417 -32.1381 -32.1318
   -32.1301 -32.1178 -32.1152 -32.1076 -32.0745 -31.9941 -31.9222 -31.7298
   -31.7045 -31.6407 -31.5769 -31.4888 -31.4664 -31.3936 -31.3071 -31.1961
   -16.9238 -16.6648 -16.4496 -16.3432 -16.2711 -16.2144 -16.0222 -15.9052
   -15.8664 -15.7682 -15.7304 -15.6959 -15.6933 -15.6680 -15.6469 -15.6247
   -15.6140 -15.5954 -15.5587 -15.5497 -15.5132 -15.4585 -15.3549 -15.3395
   -15.3295 -15.2847 -15.2341 -15.2208 -14.7537 -13.6725 -13.5561 -13.5063
    -4.7224  -4.3006  -4.1101  -4.0950  -4.0614  -4.0234  -3.7940  -3.7525
    -3.3988  -3.3608  -3.3535  -3.3185  -3.2984  -3.2644  -3.0833  -3.0136
    -3.0049  -2.9657  -2.9638  -2.9490  -2.9477  -2.9173  -2.9127  -2.7952
    -2.7257  -2.6106  -2.5885  -2.5060  -2.4931  -2.4748  -2.4439  -2.4232
    -2.4145  -2.4061  -2.3773  -2.3662  -2.2249  -2.1918  -2.0398  -1.9926
    -1.9779  -1.8461  -1.7984  -1.6655  -1.6474  -1.6158  -1.5915  -1.5814
    -1.4884  -1.4678  -1.3769  -1.3316  -1.2619  -1.2587  -1.1938  -1.1765
    -1.0685  -1.0590  -1.0428  -0.9518  -0.9342  -0.9239  -0.8755  -0.7851
    -0.6306  -0.5935  -0.5897  -0.5666  -0.4941  -0.4503  -0.3712  -0.3501
    -0.3422  -0.2865  -0.2566  -0.2170  -0.1850  -0.1676  -0.1606  -0.1111
     0.0706   0.1077   0.1617   0.1963   0.2043   0.3539   0.3962   0.4731
     0.5770   0.7781   0.8056   0.8519   0.9698   1.0448   1.4232   1.4687
     2.9468   3.0233   3.0283   3.0801   3.1892   3.2043   3.3968   3.4187
     3.4414   3.4466

[...]

          k = 0.0380-0.0419 0.0000 ( 17876 PWs)   bands (ev):

[...]

          k =-0.0760-0.0000 0.0000 ( 17886 PWs)   bands (ev):

[...]

          k =-0.0760-0.0839 0.0000 ( 17948 PWs)   bands (ev):

   -56.1792 -56.1781 -56.1719 -56.1705 -56.0879 -56.0236 -55.9966 -55.9893
   -55.9848 -55.9832 -55.9460 -55.9453 -55.7388 -55.4391 -55.1527 -55.1527
   -32.5542 -32.5515 -32.4928 -32.4920 -32.4750 -32.4740 -32.4732 -32.4493
   -32.3939 -32.3860 -32.3659 -32.3602 -32.3515 -32.3138 -32.3020 -32.2987
   -32.2978 -32.2967 -32.2887 -32.2864 -32.2853 -32.2829 -32.2789 -32.2277
   -32.2054 -32.2021 -32.2016 -32.1878 -32.1818 -32.1815 -32.1780 -32.1775
   -32.1606 -32.1599 -32.1523 -32.1446 -32.0780 -31.9968 -31.9190 -31.7881
   -31.7060 -31.6631 -31.4791 -31.4790 -31.3898 -31.3896 -31.3504 -31.3503
   -16.3791 -16.3462 -16.1244 -16.1156 -16.1024 -16.1003 -15.9195 -15.8889
   -15.8859 -15.8532 -15.8361 -15.8022 -15.7636 -15.7317 -15.6984 -15.6879
   -15.6785 -15.6652 -15.6421 -15.6281 -15.6220 -15.6141 -15.5058 -15.5017
   -15.4716 -15.4093 -15.3343 -15.1957 -14.9129 -13.6580 -13.6579 -13.5255
    -4.7460  -3.6754  -3.6385  -3.3559  -3.3467  -3.3393  -3.2872  -3.1255
    -3.0780  -3.0507  -3.0426  -3.0015  -2.9975  -2.9852  -2.9720  -2.9423
    -2.9241  -2.9186  -2.8959  -2.8552  -2.8468  -2.8423  -2.8097  -2.8070
    -2.8010  -2.7592  -2.7288  -2.7163  -2.6982  -2.6770  -2.6458  -2.4002
    -2.3843  -2.3272  -2.3236  -2.3177  -2.2737  -2.2520  -2.2464  -2.2386
    -2.1460  -2.0422  -1.9138  -1.8821  -1.8721  -1.7896  -1.7412  -1.6294
    -1.5924  -1.5616  -1.5583  -1.4946  -1.4440  -1.3974  -1.3840  -1.3126
    -1.2778  -1.2658  -1.1647  -1.1466  -1.1433  -1.1385  -1.0311  -0.9521
    -0.9486  -0.9402  -0.9063  -0.9000  -0.8000  -0.7980  -0.7538  -0.6800
    -0.6736  -0.6522  -0.5080  -0.3767  -0.1835  -0.1475  -0.1131  -0.0444
     0.0338   0.0913   0.1204   0.1292   0.1407   0.2011   0.2393   0.3492
     0.3527   0.4597   0.5589   0.7998   1.2160   1.2167   1.2884   1.2885
     3.2285   3.2369   3.2676   3.2951   3.4484   3.4530   3.4747   3.4756
     3.6201   3.6379

     the Fermi energy is     2.9407 ev

!    total energy              =   -2906.48809493 Ry
     estimated scf accuracy    <       0.00000005 Ry
     smearing contrib. (-TS)   =      -0.02176670 Ry
     internal energy E=F+TS    =   -2906.46632823 Ry

     The total energy is F=E-TS. E is the sum of the following terms:
     one-electron contribution =  -25125.48149637 Ry
     hartree contribution      =   12642.95021669 Ry
     xc contribution           =    -475.65825568 Ry
     ewald contribution        =   10051.72241157 Ry
     electric field correction =       0.00079556 Ry

     convergence has been achieved in  80 iterations

     Forces acting on atoms (cartesian axes, Ry/au):

     atom    1 type  1   force =     0.00015649   -0.00027063    0.09704169
     atom    2 type  1   force =    -0.00009070   -0.00053232   -0.17532534
     atom    3 type  2   force =     0.00015080   -0.00009187   -0.02538042
     atom    4 type  2   force =     0.00004926   -0.00152469    0.05273790
     atom    5 type  2   force =    -0.01199122   -0.00048581    0.00189554
     atom    6 type  2   force =     0.01459671   -0.00001941    0.00351002
     atom    7 type  1   force =     0.00108510    0.00035386   -0.01158068
     atom    8 type  1   force =    -0.00051688    0.00756649    0.03128610
     atom    9 type  2   force =     0.00006780    0.00014379   -0.00038857
     atom   10 type  2   force =    -0.00053899    0.00073150   -0.01781789
     atom   11 type  2   force =     0.00026934   -0.00020579   -0.00000276
     atom   12 type  2   force =    -0.00024012   -0.00007294   -0.00000129
     atom   13 type  1   force =    -0.00030199    0.00077446    0.00097632
     atom   14 type  1   force =    -0.00069372    0.00036899   -0.00174472
     atom   15 type  2   force =    -0.00021061   -0.00039259   -0.00030868
     atom   16 type  2   force =     0.00024732   -0.00000229    0.00103816
     atom   17 type  2   force =    -0.00013562   -0.00012269    0.00019212
     atom   18 type  2   force =    -0.00032232   -0.00002026   -0.00005284
     atom   19 type  1   force =    -0.00028267    0.00024844    0.00088601
     atom   20 type  1   force =    -0.00000656    0.00143086   -0.00018337
     atom   21 type  2   force =     0.00003628   -0.00009058    0.10317248
     atom   22 type  2   force =    -0.00024021    0.00071657    0.00144930
     atom   23 type  2   force =    -0.07154377   -0.00018796   -0.02783719
     atom   24 type  2   force =     0.07146893    0.00028100   -0.02789228
     atom   25 type  1   force =     0.00003095   -0.00025145    0.09656245
     atom   26 type  1   force =    -0.00008946   -0.00036635   -0.17548535
     atom   27 type  2   force =     0.00018870   -0.00020162   -0.02447421
     atom   28 type  2   force =     0.00009337   -0.00126330    0.05253029
     atom   29 type  2   force =    -0.01214912    0.00020281    0.00164930
     atom   30 type  2   force =     0.01464370    0.00048262    0.00329849
     atom   31 type  1   force =     0.00097025    0.00319260   -0.01215619
     atom   32 type  1   force =    -0.00070261   -0.00921605    0.03173407
     atom   33 type  2   force =     0.00010940    0.00002279    0.00011350
     atom   34 type  2   force =    -0.00009434    0.00026982   -0.02690427
     atom   35 type  2   force =     0.00047463    0.00016161    0.00020643
     atom   36 type  2   force =    -0.00040971    0.00019205    0.00026027
     atom   37 type  1   force =    -0.00054525    0.00021321    0.00028577
     atom   38 type  1   force =    -0.00074226   -0.00007076   -0.00169538
     atom   39 type  2   force =    -0.00004098   -0.00013238    0.00012948
     atom   40 type  2   force =     0.00013726   -0.00011983    0.00056716
     atom   41 type  2   force =    -0.00067872    0.00017124   -0.00018428
     atom   42 type  2   force =    -0.00011913    0.00008794   -0.00012606
     atom   43 type  1   force =    -0.00016147   -0.00002448    0.00084183
     atom   44 type  1   force =    -0.00042339   -0.00146055   -0.00097488
     atom   45 type  2   force =     0.00001432   -0.00009516    0.10315912
     atom   46 type  2   force =    -0.07154012   -0.00011488   -0.02782474
     atom   47 type  2   force =     0.07149507    0.00029225   -0.02789764
     atom   48 type  3   force =    -0.00024390   -0.00026690   -0.00057411
     atom   49 type  3   force =     0.00074589   -0.00034342    0.00119557
     atom   50 type  4   force =    -0.00197572    0.00004204    0.00009375

     Total force =     0.368992     Total SCF correction =     0.000381
  @ DRIVER MODE: Message from server: STATUS
  @ DRIVER MODE: Message from server: GETFORCE
  @ DRIVER MODE: Returning v,forces,stress,ensemble

     Writing output data file ./calc.save/
  @ DRIVER MODE: Message from server: EXIT
  @ DRIVE MODE: Exiting

     General routines

     Parallel routines

   This run was terminated on:  13: 3: 6  12Oct2021

   JOB DONE.