     Program PWSCF v.6.7GPU starts on 15Sep2021 at 23:12:31

     R & G space division:  proc/nbgrp/npool/nimage =      10
     Reading input from /storage/home/hcoda1/3/ntian30/research/carbon/CxH_vib/H2O_calc/ads_slab/CHN2HH2O_a/out_0025/pw.inp
Warning: card &CELL ignored
Warning: card   CELL_DYNAMICS='IPI', ignored
Warning: card / ignored

     Current dimensions of program PWSCF are:
     Max number of different atomic species (ntypx) = 10
     Max number of k-points (npk) =  40000
     Max angular momentum in pseudopotentials (lmaxx) =  3
     Presently no symmetry can be used with electric field

     Message from routine cell_base_init:
     DEPRECATED: use true lattice parameter, not A to a.u. conversion factor

     IMPORTANT: XC functional enforced from input :
     Exchange-correlation= BEEF-VDW
                           (   1   4  43  14   2   0   0)
     Any further DFT definition will be discarded
     Please, verify this is what you really want

  @ DRIVER MODE: Connecting to
 qe_1139763_2852626.sched-torque.pace.gatech.edu5swq8_zl_scratch
  using UNIX socket
  @ DRIVER MODE: Message from server: STATUS
  @ DRIVER MODE: Message from server: INIT
  @ DRIVER MODE: Receiving replica           0          -1
  @ DRIVER MODE: Receiving encoded integer          25
  @ DRIVER MODE:  SCF:  T  FORCE:  T  STRESS:  F  VC:  F  ENSEMBLE:  F
  @ DRIVER MODE:  SCF:  T  FORCE:  T  STRESS:  F  VC:  F  ENSEMBLE:  F

     Using Slab Decomposition

     bravais-lattice index     =            0
     lattice parameter (alat)  =       1.8897  a.u.
     unit-cell volume          =    6658.9804 (a.u.)^3
     number of atoms/cell      =           55
     number of atomic types    =            5
     number of electrons       =       402.00
     number of Kohn-Sham states=          211
     kinetic-energy cutoff     =      29.3995  Ry
     charge density cutoff     =     293.9946  Ry
     scf convergence threshold =      7.3E-08
     mixing beta               =       0.0500
     number of iterations used =            8  plain     mixing
     Exchange-correlation= BEEF-VDW
                           (   1   4  43  14   2   0   0)

     celldm(1)=   1.889726  celldm(2)=   0.000000  celldm(3)=   0.000000
     celldm(4)=   0.000000  celldm(5)=   0.000000  celldm(6)=   0.000000

     crystal axes: (cart. coord. in units of alat)
               a(1) = (   6.579727   0.000000   0.000000 )
               a(2) = (  -0.000775   5.961596   0.000000 )
               a(3) = (   0.000000   0.000000  25.155947 )

     reciprocal axes: (cart. coord. in units 2 pi/alat)
               b(1) = (  0.151982  0.000020  0.000000 )
               b(2) = (  0.000000  0.167740  0.000000 )
               b(3) = (  0.000000  0.000000  0.039752 )

     PseudoPot. # 1 for Ti read from file:
     /storage/coda1/p-amedford6/0/shared/rich_project_chbe-medford/medford-share/data/pseudos_module/espresso/nninc/pbe/van/Ti.UPF
     MD5 check sum: 8e4df49b7f0d34bbd5052bf3f5ea0213
     Pseudo is Ultrasoft, Zval = 12.0
     Generated by new atomic code, or converted to UPF format
     Using radial grid of  851 points,  6 beta functions with:
                l(1) =   0
                l(2) =   0
                l(3) =   1
                l(4) =   1
                l(5) =   2
                l(6) =   2
     Q(r) pseudized with  8 coefficients,  rinner =    1.000   1.000   1.000
                                                       1.000   1.000

     PseudoPot. # 2 for O  read from file:
     /storage/coda1/p-amedford6/0/shared/rich_project_chbe-medford/medford-share/data/pseudos_module/espresso/nninc/pbe/van/O.UPF
     MD5 check sum: 78c19812648e8988a0fe644b0f25305e
     Pseudo is Ultrasoft, Zval =  6.0
     Generated by new atomic code, or converted to UPF format
     Using radial grid of  737 points,  4 beta functions with:
                l(1) =   0
                l(2) =   0
                l(3) =   1
                l(4) =   1
     Q(r) pseudized with  8 coefficients,  rinner =    0.800   0.800   0.800

     PseudoPot. # 3 for N  read from file:
     /storage/coda1/p-amedford6/0/shared/rich_project_chbe-medford/medford-share/data/pseudos_module/espresso/nninc/pbe/van/N.UPF
     MD5 check sum: 90d10febe142ad51ac9d5be1deb811c4
     Pseudo is Ultrasoft, Zval =  5.0
     Generated by new atomic code, or converted to UPF format
     Using radial grid of  729 points,  4 beta functions with:
                l(1) =   0
                l(2) =   0
                l(3) =   1
                l(4) =   1
     Q(r) pseudized with  8 coefficients,  rinner =    0.800   0.800   0.800

     PseudoPot. # 4 for C  read from file:
     /storage/coda1/p-amedford6/0/shared/rich_project_chbe-medford/medford-share/data/pseudos_module/espresso/nninc/pbe/van/C.UPF
     MD5 check sum: 1a69bf6b8db32088f5b2163dbdb77a27
     Pseudo is Ultrasoft, Zval =  4.0
     Generated by new atomic code, or converted to UPF format
     Using radial grid of  721 points,  4 beta functions with:
                l(1) =   0
                l(2) =   0
                l(3) =   1
                l(4) =   1
     Q(r) pseudized with  8 coefficients,  rinner =    0.800   0.800   0.800

     PseudoPot. # 5 for H  read from file:
     /storage/coda1/p-amedford6/0/shared/rich_project_chbe-medford/medford-share/data/pseudos_module/espresso/nninc/pbe/van/H.UPF
     MD5 check sum: b5ee9d7bfd3a09ee7748110bda690ff7
     Pseudo is Ultrasoft, Zval =  1.0
     Generated by new atomic code, or converted to UPF format
     Using radial grid of  615 points,  1 beta functions with:
                l(1) =   0
     Q(r) pseudized with  8 coefficients,  rinner =    0.800

     atomic species   valence    mass     pseudopotential
        Ti1           12.00    47.86700     Ti( 1.00)
        O1             6.00    15.99900     O ( 1.00)
        N1             5.00    14.00700     N ( 1.00)
        C1             4.00    12.01100     C ( 1.00)
        H1             1.00     1.00800     H ( 1.00)

     No symmetry found

   Cartesian axes

     site n.     atom                  positions (alat units)
         1           Ti1 tau(   1) = (   0.0004258   2.9801865   6.0000000  )
         2           Ti1 tau(   2) = (   3.2906075   1.4906267   6.0002472  )
         3           O1  tau(   3) = (   0.0006271   0.0005054   7.9858123  )
         4           O1  tau(   4) = (   3.2906025   0.0005020   7.3038282  )
         5           O1  tau(   5) = (   4.5942328   1.4918067   9.2879030  )
         6           O1  tau(   6) = (   1.9868534   1.4903216   9.2879459  )
         7           Ti1 tau(   7) = (   3.2907910   2.8959150   9.1758416  )
         8           Ti1 tau(   8) = (   0.0015273   1.4827037   9.2680791  )
         9           O1  tau(   9) = (   3.2768631   0.0039008  11.3091060  )
        10           O1  tau(  10) = (   0.0116148   5.9584955  10.6183126  )
        11           O1  tau(  11) = (   1.2710838   1.4709840  12.6395574  )
        12           O1  tau(  12) = (   5.2772223   1.5075092  12.6020671  )
        13           Ti1 tau(  13) = (   0.0276258   2.9086511  12.7028215  )
        14           Ti1 tau(  14) = (   3.3492493   1.4375301  12.4845766  )
        15           O1  tau(  15) = (   6.5006329   5.9509897  14.6081112  )
        16           O1  tau(  16) = (   3.3450391   0.0041935  13.9069437  )
        17           O1  tau(  17) = (   4.5555219   1.5659029  16.0522165  )
        18           O1  tau(  18) = (   1.9836904   1.4119734  15.8927236  )
        19           Ti1 tau(  19) = (   3.2827818   2.9316656  15.8555152  )
        20           Ti1 tau(  20) = (   6.5629331   1.3437128  15.9803530  )
        21           O1  tau(  21) = (   3.2904802   0.0005063   4.7018136  )
        22           O1  tau(  22) = (   6.5074089   5.9525318  17.1494500  )
        23           O1  tau(  23) = (   1.3043587   1.4918075   6.0039043  )
        24           O1  tau(  24) = (   5.2767064   1.4903225   6.0039473  )
        25           Ti1 tau(  25) = (   0.0000382   5.9609847   6.0000000  )
        26           Ti1 tau(  26) = (   3.2902200   4.4714249   6.0002472  )
        27           O1  tau(  27) = (   0.0002396   2.9813036   7.9858123  )
        28           O1  tau(  28) = (   3.2902150   2.9813002   7.3038282  )
        29           O1  tau(  29) = (   4.5938453   4.4726049   9.2879030  )
        30           O1  tau(  30) = (   1.9864658   4.4711199   9.2879459  )
        31           Ti1 tau(  31) = (   3.2891106   5.8743827   9.1763621  )
        32           Ti1 tau(  32) = (   0.0006254   4.4649316   9.2693709  )
        33           O1  tau(  33) = (   3.2854303   2.9668816  11.2996989  )
        34           O1  tau(  34) = (   0.0092240   2.9805883  10.6323155  )
        35           O1  tau(  35) = (   1.2743094   4.4851408  12.6236879  )
        36           O1  tau(  36) = (   5.2782958   4.4707264  12.5946799  )
        37           Ti1 tau(  37) = (   0.0481499   5.8920156  12.5607908  )
        38           Ti1 tau(  38) = (   3.3544845   4.3749597  12.5572158  )
        39           O1  tau(  39) = (   6.5410016   3.0017514  14.6365314  )
        40           O1  tau(  40) = (   3.2441134   3.0029108  13.8718978  )
        41           O1  tau(  41) = (   4.5385932   4.4028810  16.0550583  )
        42           O1  tau(  42) = (   1.9619458   4.5383001  15.8611175  )
        43           Ti1 tau(  43) = (   3.2178196   5.9097812  15.7399460  )
        44           Ti1 tau(  44) = (   6.5330930   4.4908980  15.8705378  )
        45           O1  tau(  45) = (   3.2900926   2.9813045   4.7018136  )
        46           O1  tau(  46) = (   1.3039711   4.4726057   6.0039043  )
        47           O1  tau(  47) = (   5.2763189   4.4711207   6.0039473  )
        48           N1  tau(  48) = (   1.2867840   3.0293760  18.3347772  )
        49           C1  tau(  49) = (   2.5003166   3.0326976  17.9707196  )
        50           H1  tau(  50) = (   3.2053588   3.1791635  18.8000936  )
        51           N1  tau(  51) = (   0.2138509   2.9871109  17.4421441  )
        52           H1  tau(  52) = (   5.9521615   2.9869774  18.0311354  )
        53           O1  tau(  53) = (   3.4290693   5.9360351  18.0748810  )
        54           H1  tau(  54) = (   4.3780305   0.1327944  18.2306609  )
        55           H1  tau(  55) = (   2.9458904   0.7245148  18.4607207  )

     number of k points=    10  Fermi-Dirac smearing, width (Ry)=  0.0073
                       cart. coord. in units 2pi/alat
        k(    1) = (   0.0000000   0.0000000   0.0000000), wk =   0.1250000
        k(    2) = (   0.0000000   0.0419351   0.0000000), wk =   0.2500000
        k(    3) = (   0.0000000  -0.0838702   0.0000000), wk =   0.1250000
        k(    4) = (   0.0379955   0.0000049   0.0000000), wk =   0.2500000
        k(    5) = (   0.0379955   0.0419400   0.0000000), wk =   0.2500000
        k(    6) = (   0.0379955  -0.0838652   0.0000000), wk =   0.2500000
        k(    7) = (   0.0379955  -0.0419301   0.0000000), wk =   0.2500000
        k(    8) = (  -0.0759910  -0.0000099   0.0000000), wk =   0.1250000
        k(    9) = (  -0.0759910   0.0419252   0.0000000), wk =   0.2500000
        k(   10) = (  -0.0759910  -0.0838800   0.0000000), wk =   0.1250000

     Initial potential from superposition of free atoms

     starting charge  385.99915, renormalised to  402.00000

     negative rho (up, down):  1.831E-02 0.000E+00

     %%%%%%%%%%%%%%%%%%%%%%%%%%%%%%%%%%%%%%%%%%%%%%%%%%%%%%%%%%%%%%%%%%%%%%%%
     %                                                                      %
     % You are using vdW-DF, which was implemented by the Thonhauser group. %
     % Please cite the following two papers that made this development      %
     % possible and the two reviews that describe the various versions:     %
     %                                                                      %
     %   T. Thonhauser et al., PRL 115, 136402 (2015).                      %
     %   T. Thonhauser et al., PRB 76, 125112 (2007).                       %
     %   K. Berland et al., Rep. Prog. Phys. 78, 066501 (2015).             %
     %   D.C. Langreth et al., J. Phys.: Condens. Matter 21, 084203 (2009). %
     %                                                                      %
     %                                                                      %
     % If you are calculating the stress with vdW-DF, please also cite:     %
     %                                                                      %
     %   R. Sabatini et al., J. Phys.: Condens. Matter 24, 424209 (2012).   %
     %                                                                      %
     %%%%%%%%%%%%%%%%%%%%%%%%%%%%%%%%%%%%%%%%%%%%%%%%%%%%%%%%%%%%%%%%%%%%%%%%

     Adding external electric field

     Computed dipole along edir(3) :
        Dipole              -11.0899 Ry au,        -28.1877 Debye
        Dipole field         -0.0209 Ry au,

        Potential amp.        1.9400 Ry
        Total length         46.3494 bohr

     Starting wfcs are  304 atomic wfcs
  @ DRIVER MODE: Message from server: STATUS
  @ DRIVER MODE: Message from server: POSDATA
  @ DRIVER MODE: Reading and sharing cell
  @ DRIVER MODE: Reading and sharing positions
  @ DRIVER MODE: Received positions

     Self-consistent Calculation

     iteration #  1     ecut=    29.40 Ry     beta= 0.05
     Davidson diagonalization with overlap
     c_bands:  5 eigenvalues not converged
     c_bands:  3 eigenvalues not converged
     c_bands:  5 eigenvalues not converged
     c_bands:  1 eigenvalues not converged
     c_bands:  1 eigenvalues not converged
     c_bands:  1 eigenvalues not converged
     c_bands:  2 eigenvalues not converged
     c_bands:  2 eigenvalues not converged
     ethr =  1.00E-05,  avg # of iterations = 29.7

[...]

     total energy              =   -2403.83980968 Ry
     estimated scf accuracy    <    6374.26282722 Ry

     iteration #  2     ecut=    29.40 Ry     beta= 0.05
     Davidson diagonalization with overlap
     ethr =  1.00E-02,  avg # of iterations = 26.3

[...]

     iteration # 45     ecut=    29.40 Ry     beta= 0.05
     Davidson diagonalization with overlap
     c_bands:  1 eigenvalues not converged
     c_bands:  1 eigenvalues not converged
     ethr =  8.03E-07,  avg # of iterations = 12.8

[...]

     total energy              =   -2972.69106991 Ry
     estimated scf accuracy    <       0.00000013 Ry

     iteration # 82     ecut=    29.40 Ry     beta= 0.05
     Davidson diagonalization with overlap
     ethr =  3.17E-11,  avg # of iterations =  1.9

     negative rho (up, down):  1.793E-02 0.000E+00

     Adding external electric field

     Computed dipole along edir(3) :
        Dipole                0.3626 Ry au,          0.9216 Debye
        Dipole field          0.0007 Ry au,

        Potential amp.       -0.0634 Ry
        Total length         46.3494 bohr

     End of self-consistent calculation

          k = 0.0000 0.0000 0.0000 ( 18029 PWs)   bands (ev):

   -56.3418 -56.3080 -55.9400 -55.9063 -55.7519 -55.7154 -55.5607 -55.5559
   -55.5472 -55.5241 -55.5138 -55.4513 -55.2530 -55.2399 -55.1458 -55.1118
   -32.7953 -32.6344 -32.6076 -32.5000 -32.4191 -32.4152 -32.4071 -32.2407
   -32.1575 -32.1533 -32.0948 -32.0821 -32.0684 -32.0432 -32.0377 -31.9785
   -31.9746 -31.9662 -31.9330 -31.9091 -31.9089 -31.8657 -31.8512 -31.8429
   -31.8183 -31.7805 -31.7591 -31.7321 -31.7290 -31.7097 -31.7077 -31.7049
   -31.6896 -31.6698 -31.6527 -31.6387 -31.5513 -31.5444 -31.5125 -31.4983
   -31.4763 -31.4696 -31.4529 -31.4406 -31.3625 -31.3334 -31.2775 -31.1660
   -18.7470 -16.9311 -16.6588 -16.3470 -16.1453 -15.9619 -15.8990 -15.8396
   -15.7870 -15.6662 -15.6048 -15.5760 -15.5041 -15.3990 -15.3794 -15.3529
   -15.3013 -15.2851 -15.2677 -15.2385 -15.1847 -15.1514 -15.1328 -15.0572
   -15.0357 -15.0236 -14.8999 -14.8319 -14.8075 -14.7726 -14.5205 -13.6443
   -13.5313 -12.2598  -6.7254  -6.5277  -4.1605  -4.0711  -3.9053  -3.7725
    -3.6665  -3.6180  -3.4652  -3.4114  -3.3645  -3.2659  -3.1194  -3.0875
    -3.0147  -2.9645  -2.9219  -2.8636  -2.8041  -2.7592  -2.7181  -2.6346
    -2.6294  -2.6171  -2.5990  -2.5800  -2.5631  -2.4480  -2.3559  -2.3380
    -2.3143  -2.2713  -2.2523  -2.2402  -2.1897  -2.1605  -2.0771  -2.0676
    -2.0204  -1.9627  -1.9161  -1.8071  -1.7962  -1.7207  -1.7022  -1.6604
    -1.5293  -1.4050  -1.3744  -1.3223  -1.3096  -1.2257  -1.2037  -1.1764
    -1.0787  -1.0657  -1.0224  -1.0007  -0.8762  -0.8500  -0.8024  -0.7951
    -0.7633  -0.6694  -0.6312  -0.5200  -0.4756  -0.4304  -0.4209  -0.3462
    -0.3171  -0.2729  -0.2225  -0.1697  -0.1674  -0.1399  -0.0573  -0.0155
     0.0302   0.0787   0.1145   0.2029   0.2567   0.2931   0.3072   0.3955
     0.4386   0.4537   0.5189   0.5877   0.6388   0.7054   0.7489   0.8630
     0.8781   0.8952   0.9769   1.1002   1.4093   1.4313   1.4716   1.6597
     2.6489   2.8815   3.0024   3.1663   3.3117   3.3610   3.6300   3.6854
     3.7284   3.7616   3.8353

[...]

          k = 0.0380-0.0419 0.0000 ( 17876 PWs)   bands (ev):

[...]

          k =-0.0760-0.0000 0.0000 ( 17886 PWs)   bands (ev):

[...]

          k =-0.0760-0.0839 0.0000 ( 17948 PWs)   bands (ev):

   -56.3254 -56.3243 -55.9249 -55.9213 -55.7405 -55.7267 -55.5556 -55.5449
   -55.5382 -55.5330 -55.5288 -55.4498 -55.2542 -55.2409 -55.1287 -55.1287
   -32.6205 -32.6193 -32.6114 -32.6109 -32.4523 -32.4510 -32.2405 -32.2364
   -32.1302 -32.1269 -32.1173 -32.1101 -32.0407 -32.0305 -31.9686 -31.9586
   -31.9491 -31.9464 -31.8982 -31.8880 -31.8667 -31.8647 -31.8583 -31.8277
   -31.8124 -31.7817 -31.7745 -31.7581 -31.7551 -31.7474 -31.7460 -31.7308
   -31.7258 -31.7160 -31.7049 -31.6355 -31.6087 -31.5555 -31.5257 -31.5105
   -31.4742 -31.4658 -31.4657 -31.3587 -31.3586 -31.3348 -31.3202 -31.3201
   -18.7446 -16.9094 -16.0633 -16.0509 -15.9330 -15.9281 -15.7495 -15.7311
   -15.6974 -15.6722 -15.6357 -15.5495 -15.4848 -15.4770 -15.4702 -15.4067
   -15.3614 -15.3521 -15.3331 -15.3053 -15.2793 -15.2532 -15.1612 -15.1351
   -15.1313 -15.1017 -15.0200 -15.0078 -14.9475 -14.8102 -14.7390 -13.6343
   -13.6338 -12.2813  -6.7090  -6.4460  -3.9828  -3.8344  -3.2339  -3.1867
    -3.1741  -3.0648  -3.0386  -2.9638  -2.8673  -2.8501  -2.8353  -2.8017
    -2.7766  -2.7682  -2.7521  -2.7078  -2.6601  -2.6383  -2.6226  -2.6140
    -2.6088  -2.5959  -2.5657  -2.5373  -2.4786  -2.4694  -2.4363  -2.4177
    -2.3897  -2.3129  -2.3043  -2.2885  -2.2871  -2.2316  -2.1321  -2.1165
    -2.1077  -2.0647  -2.0007  -1.9304  -1.8419  -1.8005  -1.7345  -1.6783
    -1.6219  -1.5927  -1.5807  -1.4818  -1.4224  -1.4121  -1.3648  -1.3122
    -1.2342  -1.1967  -1.1592  -1.1477  -1.1351  -1.0954  -1.0447  -0.9841
    -0.8695  -0.8455  -0.8351  -0.7714  -0.7675  -0.7574  -0.6483  -0.6177
    -0.5665  -0.5415  -0.5218  -0.4837  -0.4544  -0.3804  -0.2887  -0.2420
    -0.1143  -0.0983  -0.0440   0.0040   0.0158   0.1074   0.1956   0.2196
     0.3581   0.3722   0.4044   0.5368   0.6071   0.6578   0.6754   0.7980
     0.8175   0.8530   1.0200   1.2645   1.2689   1.2880   1.2891   1.6099
     2.6261   3.4207   3.4229   3.4528   3.4549   3.6647   3.6782   3.7562
     3.7942   3.9193   3.9232

     the Fermi energy is     2.8229 ev

!    total energy              =   -2972.69107560 Ry
     estimated scf accuracy    <       0.00000007 Ry
     smearing contrib. (-TS)   =      -0.01345887 Ry
     internal energy E=F+TS    =   -2972.67761672 Ry

     The total energy is F=E-TS. E is the sum of the following terms:
     one-electron contribution =  -24586.67001134 Ry
     hartree contribution      =   12385.36191218 Ry
     xc contribution           =    -493.16797983 Ry
     ewald contribution        =    9721.79821417 Ry
     electric field correction =       0.00024809 Ry

     convergence has been achieved in  82 iterations

     Forces acting on atoms (cartesian axes, Ry/au):

     atom    1 type  1   force =    -0.00000908   -0.00028527    0.10603864
     atom    2 type  1   force =    -0.00022024   -0.00076726   -0.16693468
     atom    3 type  2   force =    -0.00002408   -0.00013647   -0.03889341
     atom    4 type  2   force =    -0.00009850   -0.00037800    0.03650038
     atom    5 type  2   force =    -0.00755549   -0.00012963   -0.00576711
     atom    6 type  2   force =     0.00857058    0.00077948   -0.00745754
     atom    7 type  1   force =    -0.00079496   -0.00146455    0.01971238
     atom    8 type  1   force =     0.00110410    0.01828530    0.06309404
     atom    9 type  2   force =    -0.00008390   -0.00019595    0.00034887
     atom   10 type  2   force =    -0.00265088    0.00203238   -0.04758587
     atom   11 type  2   force =    -0.00022892   -0.00001547    0.00012321
     atom   12 type  2   force =     0.00037164   -0.00013493    0.00008872
     atom   13 type  1   force =     0.00007019   -0.00010870   -0.00045489
     atom   14 type  1   force =    -0.00049536    0.00001113    0.00001476
     atom   15 type  2   force =     0.00027680    0.00008989   -0.00028597
     atom   16 type  2   force =    -0.00012379   -0.00029158    0.00061895
     atom   17 type  2   force =     0.00004410   -0.00022526    0.00039056
     atom   18 type  2   force =     0.00014426    0.00007829   -0.00024412
     atom   19 type  1   force =    -0.00000831    0.00006736    0.00112943
     atom   20 type  1   force =     0.00023502    0.00028838    0.00000711
     atom   21 type  2   force =     0.00004946   -0.00001764    0.10089485
     atom   22 type  2   force =     0.00030768    0.00024136    0.00056641
     atom   23 type  2   force =    -0.07580725   -0.00011754   -0.02987243
     atom   24 type  2   force =     0.07569813    0.00033765   -0.02988227
     atom   25 type  1   force =     0.00020125   -0.00056032    0.10639860
     atom   26 type  1   force =    -0.00006757   -0.00026293   -0.16737213
     atom   27 type  2   force =    -0.00006291   -0.00031958   -0.03754327
     atom   28 type  2   force =     0.00007147   -0.00045715    0.03696173
     atom   29 type  2   force =    -0.00852935    0.00126235   -0.00516186
     atom   30 type  2   force =     0.00948341    0.00122319   -0.00688059
     atom   31 type  1   force =    -0.00129723   -0.00008655    0.02603703
     atom   32 type  1   force =     0.00115903   -0.02138624    0.06366636
     atom   33 type  2   force =    -0.00002360    0.00025017   -0.00003291
     atom   34 type  2   force =    -0.00008439    0.00090833   -0.05938214
     atom   35 type  2   force =    -0.00008330    0.00008177   -0.00012884
     atom   36 type  2   force =    -0.00010995    0.00036484   -0.00014667
     atom   37 type  1   force =     0.00002882   -0.00031460   -0.00001863
     atom   38 type  1   force =    -0.00042956   -0.00010143   -0.00015185
     atom   39 type  2   force =    -0.00022893    0.00038004    0.00052872
     atom   40 type  2   force =     0.00045955    0.00012884   -0.00036214
     atom   41 type  2   force =    -0.00009657    0.00035315   -0.00007525
     atom   42 type  2   force =     0.00048501    0.00019573    0.00009450
     atom   43 type  1   force =    -0.00043061   -0.00000353   -0.00015834
     atom   44 type  1   force =     0.00043829    0.00003261   -0.00031266
     atom   45 type  2   force =     0.00002725   -0.00000078    0.10092376
     atom   46 type  2   force =    -0.07581849   -0.00010558   -0.02982792
     atom   47 type  2   force =     0.07568795    0.00032254   -0.02986518
     atom   48 type  3   force =    -0.00151962    0.00025001    0.00040009
     atom   49 type  4   force =     0.00080191    0.00090507    0.00078423
     atom   50 type  5   force =    -0.00035699   -0.00134817   -0.00022271
     atom   51 type  3   force =    -0.00933159    0.00004961    0.00547763
     atom   52 type  5   force =     0.01117245    0.00032050   -0.00574720
     atom   53 type  2   force =    -0.00056363    0.00003037   -0.00085871
     atom   54 type  5   force =    -0.00024246    0.00011730    0.00043518
     atom   55 type  5   force =     0.00048916   -0.00017251    0.00039114

     Total force =     0.383935     Total SCF correction =     0.000749
  @ DRIVER MODE: Message from server: STATUS
  @ DRIVER MODE: Message from server: GETFORCE
  @ DRIVER MODE: Returning v,forces,stress,ensemble

     Writing output data file ./calc.save/
  @ DRIVER MODE: Message from server: EXIT
  @ DRIVE MODE: Exiting

     General routines

     Parallel routines

   This run was terminated on:  23:33:20  15Sep2021

   JOB DONE.