     Program PWSCF v.6.7GPU starts on 16Jul2021 at 14:32:26

     R & G space division:  proc/nbgrp/npool/nimage =      16
     Reading input from /storage/home/hcoda1/3/ntian30/research/carbon/15Jul_vib/ads_slab/CH3N2_b/out_0036/pw.inp
Warning: card &CELL ignored
Warning: card   CELL_DYNAMICS='IPI', ignored
Warning: card / ignored

     Current dimensions of program PWSCF are:
     Max number of different atomic species (ntypx) = 10
     Max number of k-points (npk) =  40000
     Max angular momentum in pseudopotentials (lmaxx) =  3
     Presently no symmetry can be used with electric field

     Message from routine cell_base_init:
     DEPRECATED: use true lattice parameter, not A to a.u. conversion factor

     IMPORTANT: XC functional enforced from input :
     Exchange-correlation= BEEF-VDW
                           (   1   4  43  14   2   0   0)
     Any further DFT definition will be discarded
     Please, verify this is what you really want

  @ DRIVER MODE: Connecting to
 qe_1139763_2351645.sched-torque.pace.gatech.edu_kzy5c65_scratch
  using UNIX socket
  @ DRIVER MODE: Message from server: STATUS
  @ DRIVER MODE: Message from server: INIT
  @ DRIVER MODE: Receiving replica           0          -1
  @ DRIVER MODE: Receiving encoded integer          25
  @ DRIVER MODE:  SCF:  T  FORCE:  T  STRESS:  F  VC:  F  ENSEMBLE:  F
  @ DRIVER MODE:  SCF:  T  FORCE:  T  STRESS:  F  VC:  F  ENSEMBLE:  F

     Using Slab Decomposition

     bravais-lattice index     =            0
     lattice parameter (alat)  =       1.8897  a.u.
     unit-cell volume          =    6658.9804 (a.u.)^3
     number of atoms/cell      =           53
     number of atomic types    =            5
     number of electrons       =       395.00
     number of Kohn-Sham states=          207
     kinetic-energy cutoff     =      29.3995  Ry
     charge density cutoff     =     293.9946  Ry
     scf convergence threshold =      7.3E-08
     mixing beta               =       0.0500
     number of iterations used =            8  plain     mixing
     Exchange-correlation= BEEF-VDW
                           (   1   4  43  14   2   0   0)

     celldm(1)=   1.889726  celldm(2)=   0.000000  celldm(3)=   0.000000
     celldm(4)=   0.000000  celldm(5)=   0.000000  celldm(6)=   0.000000

     crystal axes: (cart. coord. in units of alat)
               a(1) = (   6.579727   0.000000   0.000000 )
               a(2) = (  -0.000775   5.961596   0.000000 )
               a(3) = (   0.000000   0.000000  25.155947 )

     reciprocal axes: (cart. coord. in units 2 pi/alat)
               b(1) = (  0.151982  0.000020  0.000000 )
               b(2) = (  0.000000  0.167740  0.000000 )
               b(3) = (  0.000000  0.000000  0.039752 )

     PseudoPot. # 1 for Ti read from file:
     /storage/coda1/p-amedford6/0/shared/rich_project_chbe-medford/medford-share/data/pseudos_module/espresso/nninc/pbe/van/Ti.UPF
     MD5 check sum: 8e4df49b7f0d34bbd5052bf3f5ea0213
     Pseudo is Ultrasoft, Zval = 12.0
     Generated by new atomic code, or converted to UPF format
     Using radial grid of  851 points,  6 beta functions with:
                l(1) =   0
                l(2) =   0
                l(3) =   1
                l(4) =   1
                l(5) =   2
                l(6) =   2
     Q(r) pseudized with  8 coefficients,  rinner =    1.000   1.000   1.000
                                                       1.000   1.000

     PseudoPot. # 2 for O  read from file:
     /storage/coda1/p-amedford6/0/shared/rich_project_chbe-medford/medford-share/data/pseudos_module/espresso/nninc/pbe/van/O.UPF
     MD5 check sum: 78c19812648e8988a0fe644b0f25305e
     Pseudo is Ultrasoft, Zval =  6.0
     Generated by new atomic code, or converted to UPF format
     Using radial grid of  737 points,  4 beta functions with:
                l(1) =   0
                l(2) =   0
                l(3) =   1
                l(4) =   1
     Q(r) pseudized with  8 coefficients,  rinner =    0.800   0.800   0.800

     PseudoPot. # 3 for N  read from file:
     /storage/coda1/p-amedford6/0/shared/rich_project_chbe-medford/medford-share/data/pseudos_module/espresso/nninc/pbe/van/N.UPF
     MD5 check sum: 90d10febe142ad51ac9d5be1deb811c4
     Pseudo is Ultrasoft, Zval =  5.0
     Generated by new atomic code, or converted to UPF format
     Using radial grid of  729 points,  4 beta functions with:
                l(1) =   0
                l(2) =   0
                l(3) =   1
                l(4) =   1
     Q(r) pseudized with  8 coefficients,  rinner =    0.800   0.800   0.800

     PseudoPot. # 4 for C  read from file:
     /storage/coda1/p-amedford6/0/shared/rich_project_chbe-medford/medford-share/data/pseudos_module/espresso/nninc/pbe/van/C.UPF
     MD5 check sum: 1a69bf6b8db32088f5b2163dbdb77a27
     Pseudo is Ultrasoft, Zval =  4.0
     Generated by new atomic code, or converted to UPF format
     Using radial grid of  721 points,  4 beta functions with:
                l(1) =   0
                l(2) =   0
                l(3) =   1
                l(4) =   1
     Q(r) pseudized with  8 coefficients,  rinner =    0.800   0.800   0.800

     PseudoPot. # 5 for H  read from file:
     /storage/coda1/p-amedford6/0/shared/rich_project_chbe-medford/medford-share/data/pseudos_module/espresso/nninc/pbe/van/H.UPF
     MD5 check sum: b5ee9d7bfd3a09ee7748110bda690ff7
     Pseudo is Ultrasoft, Zval =  1.0
     Generated by new atomic code, or converted to UPF format
     Using radial grid of  615 points,  1 beta functions with:
                l(1) =   0
     Q(r) pseudized with  8 coefficients,  rinner =    0.800

     atomic species   valence    mass     pseudopotential
        Ti1           12.00    47.86700     Ti( 1.00)
        O1             6.00    15.99900     O ( 1.00)
        N1             5.00    14.00700     N ( 1.00)
        C1             4.00    12.01100     C ( 1.00)
        H1             1.00     1.00800     H ( 1.00)

     Starting magnetic structure
     atomic species   magnetization
        Ti1          0.000
        O1           0.000
        N1           0.000
        C1           0.025
        H1           0.000

     No symmetry found

   Cartesian axes

     site n.     atom                  positions (alat units)
         1           Ti1 tau(   1) = (   0.0004258   2.9801865   6.0000000  )
         2           Ti1 tau(   2) = (   3.2906075   1.4906267   6.0002472  )
         3           O1  tau(   3) = (   0.0006271   0.0005054   7.9858123  )
         4           O1  tau(   4) = (   3.2906025   0.0005020   7.3038282  )
         5           O1  tau(   5) = (   4.5942328   1.4918067   9.2879030  )
         6           O1  tau(   6) = (   1.9868534   1.4903216   9.2879459  )
         7           Ti1 tau(   7) = (   3.2907910   2.8959150   9.1758416  )
         8           Ti1 tau(   8) = (   0.0015273   1.4827037   9.2680791  )
         9           O1  tau(   9) = (   3.3037365   0.0094216  11.3222111  )
        10           O1  tau(  10) = (   0.0116148   5.9584955  10.6183126  )
        11           O1  tau(  11) = (   1.3152514   1.5075076  12.6320051  )
        12           O1  tau(  12) = (   5.3186361   1.4995162  12.6508707  )
        13           Ti1 tau(  13) = (   6.5540705   2.9956815  12.5884341  )
        14           Ti1 tau(  14) = (   3.2234832   1.4927074  12.4921739  )
        15           O1  tau(  15) = (   0.0610261   5.9052480  14.6017706  )
        16           O1  tau(  16) = (   3.2936532   0.0132264  13.8830087  )
        17           O1  tau(  17) = (   4.5722397   1.5061520  16.0138922  )
        18           O1  tau(  18) = (   2.0767725   1.5295127  16.0808449  )
        19           Ti1 tau(  19) = (   3.3650854   3.0251465  15.6907462  )
        20           Ti1 tau(  20) = (   0.0387768   1.3037779  15.7216176  )
        21           O1  tau(  21) = (   3.2904802   0.0005063   4.7018136  )
        22           O1  tau(  22) = (   0.0189486   0.1070799  17.1824039  )
        23           O1  tau(  23) = (   1.3043587   1.4918075   6.0039043  )
        24           O1  tau(  24) = (   5.2767064   1.4903225   6.0039473  )
        25           Ti1 tau(  25) = (   0.0000382   5.9609847   6.0000000  )
        26           Ti1 tau(  26) = (   3.2902200   4.4714249   6.0002472  )
        27           O1  tau(  27) = (   0.0002396   2.9813036   7.9858123  )
        28           O1  tau(  28) = (   3.2902150   2.9813002   7.3038282  )
        29           O1  tau(  29) = (   4.5938453   4.4726049   9.2879030  )
        30           O1  tau(  30) = (   1.9864658   4.4711199   9.2879459  )
        31           Ti1 tau(  31) = (   3.2891106   5.8743827   9.1763621  )
        32           Ti1 tau(  32) = (   0.0006254   4.4649316   9.2693709  )
        33           O1  tau(  33) = (   3.3043114   2.9829305  11.3227053  )
        34           O1  tau(  34) = (   0.0092240   2.9805883  10.6323155  )
        35           O1  tau(  35) = (   1.3131995   4.4620516  12.6081187  )
        36           O1  tau(  36) = (   5.3117129   4.4692194  12.6284301  )
        37           Ti1 tau(  37) = (   6.5303063   5.9583428  12.5400172  )
        38           Ti1 tau(  38) = (   3.2255477   4.4746212  12.4748647  )
        39           O1  tau(  39) = (   0.0377805   3.0059521  14.8845374  )
        40           O1  tau(  40) = (   3.3120027   2.9986483  13.8863452  )
        41           O1  tau(  41) = (   4.5434534   4.5277214  16.0148975  )
        42           O1  tau(  42) = (   2.1165747   4.4940517  16.0783766  )
        43           Ti1 tau(  43) = (   3.3042555   0.0241951  15.7004812  )
        44           Ti1 tau(  44) = (   0.0495666   4.4505358  16.3362958  )
        45           O1  tau(  45) = (   3.2900926   2.9813045   4.7018136  )
        46           O1  tau(  46) = (   1.3039711   4.4726057   6.0039043  )
        47           O1  tau(  47) = (   5.2763189   4.4711207   6.0039473  )
        48           N1  tau(  48) = (   0.5348212   3.4288502  18.0689430  )
        49           C1  tau(  49) = (   1.3556880   3.0079929  19.2215664  )
        50           H1  tau(  50) = (   1.4862090   3.8900195  19.8496782  )
        51           H1  tau(  51) = (   0.8469181   2.2141957  19.7647163  )
        52           H1  tau(  52) = (   2.3296892   2.6851793  18.8624704  )
        53           N1  tau(  53) = (   5.9145885   3.2636146  17.9755992  )

     number of k points=    10  Fermi-Dirac smearing, width (Ry)=  0.0073
                       cart. coord. in units 2pi/alat
        k(    1) = (   0.0000000   0.0000000   0.0000000), wk =   0.0625000
        k(    2) = (   0.0000000   0.0419351   0.0000000), wk =   0.1250000
        k(    3) = (   0.0000000  -0.0838702   0.0000000), wk =   0.0625000
        k(    4) = (   0.0379955   0.0000049   0.0000000), wk =   0.1250000
        k(    5) = (   0.0379955   0.0419400   0.0000000), wk =   0.1250000
        k(    6) = (   0.0379955  -0.0838652   0.0000000), wk =   0.1250000
        k(    7) = (   0.0379955  -0.0419301   0.0000000), wk =   0.1250000
        k(    8) = (  -0.0759910  -0.0000099   0.0000000), wk =   0.0625000
        k(    9) = (  -0.0759910   0.0419252   0.0000000), wk =   0.1250000
        k(   10) = (  -0.0759910  -0.0838800   0.0000000), wk =   0.0625000

     Initial potential from superposition of free atoms

     starting charge  378.99916, renormalised to  395.00000

     negative rho (up, down):  8.046E-03 8.053E-03

     %%%%%%%%%%%%%%%%%%%%%%%%%%%%%%%%%%%%%%%%%%%%%%%%%%%%%%%%%%%%%%%%%%%%%%%%
     %                                                                      %
     % You are using vdW-DF, which was implemented by the Thonhauser group. %
     % Please cite the following two papers that made this development      %
     % possible and the two reviews that describe the various versions:     %
     %                                                                      %
     %   T. Thonhauser et al., PRL 115, 136402 (2015).                      %
     %   T. Thonhauser et al., PRB 76, 125112 (2007).                       %
     %   K. Berland et al., Rep. Prog. Phys. 78, 066501 (2015).             %
     %   D.C. Langreth et al., J. Phys.: Condens. Matter 21, 084203 (2009). %
     %                                                                      %
     %                                                                      %
     % If you are calculating the stress with vdW-DF, please also cite:     %
     %                                                                      %
     %   R. Sabatini et al., J. Phys.: Condens. Matter 24, 424209 (2012).   %
     %                                                                      %
     %%%%%%%%%%%%%%%%%%%%%%%%%%%%%%%%%%%%%%%%%%%%%%%%%%%%%%%%%%%%%%%%%%%%%%%%

     Adding external electric field

     Computed dipole along edir(3) :
        Dipole               -8.5826 Ry au,        -21.8148 Debye
        Dipole field         -0.0162 Ry au,

        Potential amp.        1.5014 Ry
        Total length         46.3494 bohr

[...]

     Starting wfcs are  299 atomic wfcs
  @ DRIVER MODE: Message from server: STATUS
  @ DRIVER MODE: Message from server: POSDATA
  @ DRIVER MODE: Reading and sharing cell
  @ DRIVER MODE: Reading and sharing positions
  @ DRIVER MODE: Received positions

     Self-consistent Calculation

     iteration #  1     ecut=    29.40 Ry     beta= 0.05
     Davidson diagonalization with overlap
     c_bands:  1 eigenvalues not converged
     c_bands:  1 eigenvalues not converged
     c_bands:  1 eigenvalues not converged
     c_bands:  3 eigenvalues not converged
     c_bands:  1 eigenvalues not converged
     c_bands:  3 eigenvalues not converged
     c_bands:  1 eigenvalues not converged
     c_bands:  1 eigenvalues not converged
     c_bands:  1 eigenvalues not converged
     c_bands:  1 eigenvalues not converged
     c_bands:  1 eigenvalues not converged
     c_bands:  3 eigenvalues not converged
     c_bands:  1 eigenvalues not converged
     c_bands:  3 eigenvalues not converged
     c_bands:  1 eigenvalues not converged
     c_bands:  1 eigenvalues not converged
     ethr =  1.00E-05,  avg # of iterations = 19.2

[...]

     total energy              =   -2599.53122590 Ry
     estimated scf accuracy    <    3762.03968561 Ry

     total magnetization       =     0.00 Bohr mag/cell
     absolute magnetization    =     0.02 Bohr mag/cell

     iteration #  2     ecut=    29.40 Ry     beta= 0.05
     Davidson diagonalization with overlap
     ethr =  1.00E-02,  avg # of iterations = 22.6

[...]

     iteration # 69     ecut=    29.40 Ry     beta= 0.05
     Davidson diagonalization with overlap
     c_bands:  1 eigenvalues not converged
     ethr =  4.91E-11,  avg # of iterations = 13.9

[...]

     total energy              =   -2939.12589107 Ry
     estimated scf accuracy    <       0.00000012 Ry

[...]

     iteration # 71     ecut=    29.40 Ry     beta= 0.05
     Davidson diagonalization with overlap
     ethr =  2.92E-11,  avg # of iterations =  9.9

     negative rho (up, down):  8.119E-03 8.118E-03

[...]

     Adding external electric field

     Computed dipole along edir(3) :
        Dipole                0.9070 Ry au,          2.3052 Debye
        Dipole field          0.0017 Ry au,

        Potential amp.       -0.1587 Ry
        Total length         46.3494 bohr

     Magnetic moment per site  (integrated on atomic sphere of radius R)
     atom   1 (R=0.727)  charge=  7.9485  magn= -0.0082
     atom   2 (R=0.727)  charge=  7.9315  magn= -0.0007
     atom   3 (R=0.727)  charge=  4.9370  magn=  0.0008
     atom   4 (R=0.727)  charge=  4.9738  magn=  0.0002
     atom   5 (R=0.727)  charge=  4.9424  magn=  0.0001
     atom   6 (R=0.727)  charge=  4.9431  magn=  0.0001
     atom   7 (R=0.727)  charge=  7.9299  magn= -0.0004
     atom   8 (R=0.727)  charge=  7.9249  magn= -0.0036
     atom   9 (R=0.727)  charge=  4.9562  magn= -0.0000
     atom  10 (R=0.727)  charge=  4.9398  magn=  0.0002
     atom  11 (R=0.727)  charge=  4.9438  magn=  0.0000
     atom  12 (R=0.727)  charge=  4.9403  magn=  0.0000
     atom  13 (R=0.727)  charge=  7.9199  magn= -0.0007
     atom  14 (R=0.727)  charge=  7.9286  magn= -0.0001
     atom  15 (R=0.727)  charge=  4.9367  magn=  0.0000
     atom  16 (R=0.727)  charge=  4.9585  magn= -0.0000
     atom  17 (R=0.727)  charge=  4.9269  magn=  0.0000
     atom  18 (R=0.727)  charge=  4.9195  magn=  0.0000
     atom  19 (R=0.727)  charge=  7.9516  magn= -0.0000
     atom  20 (R=0.727)  charge=  7.9765  magn= -0.0001
     atom  21 (R=0.727)  charge=  4.8265  magn=  0.0009
     atom  22 (R=0.727)  charge=  4.9095  magn= -0.0000
     atom  23 (R=0.727)  charge=  4.9340  magn=  0.0010
     atom  24 (R=0.727)  charge=  4.9341  magn=  0.0011
     atom  25 (R=0.727)  charge=  7.9485  magn= -0.0083
     atom  26 (R=0.727)  charge=  7.9316  magn= -0.0007
     atom  27 (R=0.727)  charge=  4.9364  magn=  0.0008
     atom  28 (R=0.727)  charge=  4.9740  magn=  0.0002
     atom  29 (R=0.727)  charge=  4.9433  magn=  0.0001
     atom  30 (R=0.727)  charge=  4.9439  magn=  0.0001
     atom  31 (R=0.727)  charge=  7.9304  magn= -0.0004
     atom  32 (R=0.727)  charge=  7.9251  magn= -0.0036
     atom  33 (R=0.727)  charge=  4.9554  magn= -0.0000
     atom  34 (R=0.727)  charge=  4.9242  magn=  0.0003
     atom  35 (R=0.727)  charge=  4.9448  magn=  0.0000
     atom  36 (R=0.727)  charge=  4.9438  magn=  0.0000
     atom  37 (R=0.727)  charge=  7.9230  magn= -0.0006
     atom  38 (R=0.727)  charge=  7.9295  magn= -0.0001
     atom  39 (R=0.727)  charge=  4.9078  magn=  0.0000
     atom  40 (R=0.727)  charge=  4.9611  magn= -0.0000
     atom  41 (R=0.727)  charge=  4.9355  magn=  0.0000
     atom  42 (R=0.727)  charge=  4.9347  magn= -0.0000
     atom  43 (R=0.727)  charge=  7.9537  magn= -0.0000
     atom  44 (R=0.727)  charge=  7.9724  magn= -0.0000
     atom  45 (R=0.727)  charge=  4.8266  magn=  0.0008
     atom  46 (R=0.727)  charge=  4.9340  magn=  0.0011
     atom  47 (R=0.727)  charge=  4.9341  magn=  0.0010
     atom  48 (R=0.501)  charge=  1.9954  magn= -0.0000
     atom  49 (R=0.448)  charge=  0.8480  magn=  0.0000
     atom  50 (R=0.448)  charge=  0.4993  magn= -0.0000
     atom  51 (R=0.448)  charge=  0.5029  magn= -0.0000
     atom  52 (R=0.448)  charge=  0.5042  magn= -0.0000
     atom  53 (R=0.501)  charge=  1.9520  magn= -0.0000

     End of self-consistent calculation

 ------ SPIN UP ------------

          k = 0.0000 0.0000 0.0000 ( 18029 PWs)   bands (ev):

   -55.7730 -55.7712 -55.7371 -55.7370 -55.6862 -55.6381 -55.5962 -55.5622
   -55.5583 -55.5246 -55.5226 -55.4495 -54.9605 -54.8139 -54.7582 -54.7241
   -32.3217 -32.2592 -32.1778 -32.0945 -32.0623 -32.0593 -32.0502 -32.0161
   -32.0087 -31.9731 -31.9432 -31.9248 -31.9218 -31.9079 -31.8849 -31.8812
   -31.8810 -31.8802 -31.8680 -31.8377 -31.8265 -31.8244 -31.8031 -31.7922
   -31.7897 -31.7854 -31.7834 -31.7581 -31.7439 -31.7381 -31.7249 -31.7133
   -31.7062 -31.6719 -31.6390 -31.5667 -31.4972 -31.3429 -31.1714 -31.1650
   -31.1102 -31.0767 -31.0710 -31.0544 -30.9819 -30.9195 -30.8954 -30.7842
   -19.4474 -16.5205 -16.2559 -15.9707 -15.9186 -15.8441 -15.7508 -15.6281
   -15.5328 -15.4135 -15.3749 -15.3194 -15.3113 -15.2669 -15.2400 -15.2360
   -15.2104 -15.2021 -15.1374 -15.1299 -15.0794 -15.0678 -15.0201 -14.9844
   -14.9732 -14.9185 -14.8494 -14.8090 -14.6884 -14.1645 -13.2615 -13.1451
   -12.2913  -7.2503  -4.9391  -4.7785  -3.9026  -3.7602  -3.6916  -3.6873
    -3.6431  -3.4426  -3.3537  -3.2869  -3.0470  -2.9558  -2.9313  -2.9205
    -2.8714  -2.7134  -2.6625  -2.6060  -2.5906  -2.5651  -2.5433  -2.5351
    -2.4997  -2.4896  -2.4581  -2.4268  -2.3295  -2.2162  -2.1862  -2.1077
    -2.0930  -2.0782  -2.0477  -2.0372  -2.0281  -2.0181  -1.9997  -1.9620
    -1.8969  -1.8547  -1.7902  -1.7053  -1.5643  -1.5423  -1.4638  -1.3882
    -1.3089  -1.2662  -1.2444  -1.2157  -1.1758  -1.0959  -1.0702  -0.9241
    -0.8267  -0.7941  -0.7767  -0.7353  -0.6984  -0.5964  -0.5745  -0.5456
    -0.5368  -0.5089  -0.4372  -0.3788  -0.2470  -0.2161  -0.2122  -0.1744
    -0.1036  -0.0497   0.0039   0.0527   0.0606   0.0964   0.1566   0.1815
     0.1862   0.2293   0.2714   0.3473   0.3726   0.4467   0.4507   0.5146
     0.5585   0.6399   0.7477   0.8700   1.0132   1.1502   1.1949   1.2636
     1.3592   1.4556   1.8333   1.8792   2.1515   3.3402   3.4503   3.4664
     3.4807   3.5861   3.7975   3.8155   3.8649   3.8852   3.8931

[...]

          k =-0.0760-0.0000 0.0000 ( 17886 PWs)   bands (ev):

[...]

 ------ SPIN DOWN ----------

[...]

          k = 0.0380-0.0419 0.0000 ( 17876 PWs)   bands (ev):

[...]

          k =-0.0760-0.0839 0.0000 ( 17948 PWs)   bands (ev):

   -55.7697 -55.7696 -55.7556 -55.7541 -55.6801 -55.6463 -55.5860 -55.5857
   -55.5424 -55.5420 -55.5181 -55.4538 -54.9593 -54.8151 -54.7428 -54.7427
   -32.1253 -32.1218 -32.0816 -32.0816 -32.0650 -32.0650 -32.0231 -32.0079
   -32.0016 -31.9933 -31.9243 -31.9193 -31.9113 -31.9051 -31.8906 -31.8904
   -31.8855 -31.8835 -31.8825 -31.8752 -31.8581 -31.8558 -31.8547 -31.8165
   -31.7875 -31.7870 -31.7857 -31.7717 -31.7716 -31.7653 -31.7644 -31.7595
   -31.7583 -31.7392 -31.7147 -31.6637 -31.4440 -31.3257 -31.1735 -31.1643
   -31.0880 -31.0690 -31.0688 -30.9792 -30.9790 -30.9404 -30.9403 -30.9223
   -19.4453 -15.9208 -15.9147 -15.7531 -15.7184 -15.6529 -15.6441 -15.5766
   -15.5094 -15.4640 -15.4589 -15.3443 -15.3422 -15.3274 -15.3062 -15.2517
   -15.2355 -15.2341 -15.2303 -15.2226 -15.2114 -15.1840 -15.1533 -15.1022
   -15.0972 -15.0766 -15.0665 -14.9454 -14.5360 -14.4746 -13.2445 -13.2445
   -12.2938  -7.2371  -4.9405  -4.7761  -3.6137  -3.2100  -3.1936  -3.0065
    -2.9225  -2.9113  -2.8964  -2.7414  -2.7302  -2.7147  -2.6562  -2.6455
    -2.6394  -2.6036  -2.5874  -2.5636  -2.5224  -2.5179  -2.4697  -2.4667
    -2.4520  -2.4290  -2.4115  -2.4057  -2.3927  -2.3772  -2.3405  -2.2838
    -2.2460  -2.2185  -2.1908  -2.0939  -2.0333  -1.9975  -1.9304  -1.9218
    -1.8709  -1.8459  -1.8314  -1.7630  -1.6945  -1.6656  -1.5814  -1.4897
    -1.4710  -1.4558  -1.3374  -1.3232  -1.2489  -1.2247  -1.1405  -1.1236
    -1.0840  -0.9737  -0.9501  -0.9190  -0.8841  -0.8399  -0.7765  -0.7392
    -0.7372  -0.6888  -0.6453  -0.5887  -0.5276  -0.5156  -0.5001  -0.4912
    -0.4280  -0.3957  -0.3729  -0.2903  -0.2751  -0.1930  -0.0493  -0.0170
     0.1406   0.1898   0.2989   0.3270   0.4175   0.4391   0.5340   0.5372
     0.5695   0.6986   0.7171   0.7349   0.7511   0.7708   0.7947   0.9333
     1.6294   1.6295   1.7010   1.7012   2.0898   3.6670   3.7039   3.7540
     3.7754   3.8762   3.8821   3.8850   3.8926   4.0142   4.0183

     the Fermi energy is     3.3480 ev

!    total energy              =   -2939.12590832 Ry
     estimated scf accuracy    <       0.00000007 Ry
     smearing contrib. (-TS)   =      -0.02051531 Ry
     internal energy E=F+TS    =   -2939.10539301 Ry

     The total energy is F=E-TS. E is the sum of the following terms:
     one-electron contribution =  -24210.73143502 Ry
     hartree contribution      =   12194.07789447 Ry
     xc contribution           =    -485.19946577 Ry
     ewald contribution        =    9562.74606103 Ry
     electric field correction =       0.00155228 Ry

     total magnetization       =    -0.03 Bohr mag/cell
     absolute magnetization    =     0.05 Bohr mag/cell

     convergence has been achieved in  71 iterations

     Forces acting on atoms (cartesian axes, Ry/au):

     atom    1 type  1   force =     0.00009036   -0.00020810    0.09579382
     atom    2 type  1   force =     0.00007399   -0.00062814   -0.17550474
     atom    3 type  2   force =     0.00017768   -0.00019269   -0.02303986
     atom    4 type  2   force =     0.00003981   -0.00128427    0.05261347
     atom    5 type  2   force =    -0.00977356   -0.00031640    0.00254255
     atom    6 type  2   force =     0.01165174    0.00022417    0.00292623
     atom    7 type  1   force =     0.00087990    0.00000137   -0.00990568
     atom    8 type  1   force =     0.00000641    0.00530808    0.01815700
     atom    9 type  2   force =    -0.00001667   -0.00029094   -0.00009757
     atom   10 type  2   force =    -0.00254086    0.00216287   -0.01346889
     atom   11 type  2   force =    -0.00098956    0.00011349    0.00018190
     atom   12 type  2   force =     0.00040695   -0.00025188    0.00050349
     atom   13 type  1   force =     0.00009939   -0.00008504    0.00048462
     atom   14 type  1   force =    -0.00004861   -0.00013463   -0.00014670
     atom   15 type  2   force =    -0.00054121    0.00016974    0.00054600
     atom   16 type  2   force =    -0.00043847    0.00008180    0.00016542
     atom   17 type  2   force =    -0.00007369   -0.00002606   -0.00025573
     atom   18 type  2   force =     0.00028129    0.00020015    0.00000987
     atom   19 type  1   force =    -0.00057364   -0.00052745    0.00083059
     atom   20 type  1   force =    -0.00022556    0.00033267   -0.00067814
     atom   21 type  2   force =     0.00006738   -0.00005951    0.10323554
     atom   22 type  2   force =     0.00017627   -0.00025774   -0.00057228
     atom   23 type  2   force =    -0.07152745   -0.00019219   -0.02754060
     atom   24 type  2   force =     0.07150535    0.00031005   -0.02760003
     atom   25 type  1   force =     0.00012893   -0.00028390    0.09518055
     atom   26 type  1   force =     0.00008806   -0.00048729   -0.17564983
     atom   27 type  2   force =     0.00015973   -0.00012085   -0.02178828
     atom   28 type  2   force =     0.00007988   -0.00106065    0.05249261
     atom   29 type  2   force =    -0.01015520    0.00023488    0.00291813
     atom   30 type  2   force =     0.01197006    0.00052090    0.00329704
     atom   31 type  1   force =     0.00088527    0.00413920   -0.01177472
     atom   32 type  1   force =     0.00014250   -0.00633312    0.01828974
     atom   33 type  2   force =     0.00016101    0.00041658   -0.00009091
     atom   34 type  2   force =    -0.00308797   -0.00010618   -0.00864644
     atom   35 type  2   force =    -0.00022547    0.00006384    0.00002183
     atom   36 type  2   force =    -0.00001956    0.00027612   -0.00005639
     atom   37 type  1   force =     0.00044793   -0.00095170    0.00013266
     atom   38 type  1   force =    -0.00031993    0.00009302    0.00035003
     atom   39 type  2   force =     0.00006876   -0.00022416    0.00070474
     atom   40 type  2   force =    -0.00008634    0.00025965    0.00013145
     atom   41 type  2   force =     0.00012037   -0.00026940   -0.00017793
     atom   42 type  2   force =    -0.00053629    0.00013554   -0.00037006
     atom   43 type  1   force =     0.00026578    0.00050137    0.00022360
     atom   44 type  1   force =    -0.00127501   -0.00126202    0.00011037
     atom   45 type  2   force =     0.00007537   -0.00005875    0.10318764
     atom   46 type  2   force =    -0.07154208   -0.00009065   -0.02753337
     atom   47 type  2   force =     0.07152358    0.00025898   -0.02759641
     atom   48 type  3   force =     0.00144594   -0.00159440    0.00279378
     atom   49 type  4   force =     0.00214819    0.00042324   -0.00058807
     atom   50 type  5   force =     0.00037916    0.00017657   -0.00004105
     atom   51 type  5   force =    -0.00087046   -0.00012188   -0.00028933
     atom   52 type  5   force =     0.00035201   -0.00086466   -0.00043541
     atom   53 type  3   force =    -0.00103146    0.00188037   -0.00397628

     Total force =     0.364776     Total SCF correction =     0.000531
  @ DRIVER MODE: Message from server: STATUS
  @ DRIVER MODE: Message from server: GETFORCE
  @ DRIVER MODE: Returning v,forces,stress,ensemble

     Writing output data file ./calc.save/
  @ DRIVER MODE: Message from server: EXIT
  @ DRIVE MODE: Exiting

     General routines

     Parallel routines

   This run was terminated on:  15: 3:48  16Jul2021

   JOB DONE.