     Program PWSCF v.6.7GPU starts on 22Sep2021 at 10:45:25

     R & G space division:  proc/nbgrp/npool/nimage =      10
     Reading input from /storage/home/hcoda1/3/ntian30/research/carbon/CxH_vib/CH_calc/ads_slab/CHN2OH_a/out_0001/pw.inp
Warning: card &CELL ignored
Warning: card   CELL_DYNAMICS='IPI', ignored
Warning: card / ignored

     Current dimensions of program PWSCF are:
     Max number of different atomic species (ntypx) = 10
     Max number of k-points (npk) =  40000
     Max angular momentum in pseudopotentials (lmaxx) =  3
     Presently no symmetry can be used with electric field

     Message from routine cell_base_init:
     DEPRECATED: use true lattice parameter, not A to a.u. conversion factor

     IMPORTANT: XC functional enforced from input :
     Exchange-correlation= BEEF-VDW
                           (   1   4  43  14   2   0   0)
     Any further DFT definition will be discarded
     Please, verify this is what you really want

  @ DRIVER MODE: Connecting to
 qe_1139763_2934093.sched-torque.pace.gatech.edug65vmrrc_scratch
  using UNIX socket
  @ DRIVER MODE: Message from server: STATUS
  @ DRIVER MODE: Message from server: INIT
  @ DRIVER MODE: Receiving replica           0          -1
  @ DRIVER MODE: Receiving encoded integer          25
  @ DRIVER MODE:  SCF:  T  FORCE:  T  STRESS:  F  VC:  F  ENSEMBLE:  F
  @ DRIVER MODE:  SCF:  T  FORCE:  T  STRESS:  F  VC:  F  ENSEMBLE:  F

     Using Slab Decomposition

     bravais-lattice index     =            0
     lattice parameter (alat)  =       1.8897  a.u.
     unit-cell volume          =    6658.9804 (a.u.)^3
     number of atoms/cell      =           53
     number of atomic types    =            5
     number of electrons       =       400.00
     number of Kohn-Sham states=          210
     kinetic-energy cutoff     =      29.3995  Ry
     charge density cutoff     =     293.9946  Ry
     scf convergence threshold =      7.3E-08
     mixing beta               =       0.0500
     number of iterations used =            8  plain     mixing
     Exchange-correlation= BEEF-VDW
                           (   1   4  43  14   2   0   0)

     celldm(1)=   1.889726  celldm(2)=   0.000000  celldm(3)=   0.000000
     celldm(4)=   0.000000  celldm(5)=   0.000000  celldm(6)=   0.000000

     crystal axes: (cart. coord. in units of alat)
               a(1) = (   6.579727   0.000000   0.000000 )
               a(2) = (  -0.000775   5.961596   0.000000 )
               a(3) = (   0.000000   0.000000  25.155947 )

     reciprocal axes: (cart. coord. in units 2 pi/alat)
               b(1) = (  0.151982  0.000020  0.000000 )
               b(2) = (  0.000000  0.167740  0.000000 )
               b(3) = (  0.000000  0.000000  0.039752 )

     PseudoPot. # 1 for Ti read from file:
     /storage/coda1/p-amedford6/0/shared/rich_project_chbe-medford/medford-share/data/pseudos_module/espresso/nninc/pbe/van/Ti.UPF
     MD5 check sum: 8e4df49b7f0d34bbd5052bf3f5ea0213
     Pseudo is Ultrasoft, Zval = 12.0
     Generated by new atomic code, or converted to UPF format
     Using radial grid of  851 points,  6 beta functions with:
                l(1) =   0
                l(2) =   0
                l(3) =   1
                l(4) =   1
                l(5) =   2
                l(6) =   2
     Q(r) pseudized with  8 coefficients,  rinner =    1.000   1.000   1.000
                                                       1.000   1.000

     PseudoPot. # 2 for O  read from file:
     /storage/coda1/p-amedford6/0/shared/rich_project_chbe-medford/medford-share/data/pseudos_module/espresso/nninc/pbe/van/O.UPF
     MD5 check sum: 78c19812648e8988a0fe644b0f25305e
     Pseudo is Ultrasoft, Zval =  6.0
     Generated by new atomic code, or converted to UPF format
     Using radial grid of  737 points,  4 beta functions with:
                l(1) =   0
                l(2) =   0
                l(3) =   1
                l(4) =   1
     Q(r) pseudized with  8 coefficients,  rinner =    0.800   0.800   0.800

     PseudoPot. # 3 for N  read from file:
     /storage/coda1/p-amedford6/0/shared/rich_project_chbe-medford/medford-share/data/pseudos_module/espresso/nninc/pbe/van/N.UPF
     MD5 check sum: 90d10febe142ad51ac9d5be1deb811c4
     Pseudo is Ultrasoft, Zval =  5.0
     Generated by new atomic code, or converted to UPF format
     Using radial grid of  729 points,  4 beta functions with:
                l(1) =   0
                l(2) =   0
                l(3) =   1
                l(4) =   1
     Q(r) pseudized with  8 coefficients,  rinner =    0.800   0.800   0.800

     PseudoPot. # 4 for C  read from file:
     /storage/coda1/p-amedford6/0/shared/rich_project_chbe-medford/medford-share/data/pseudos_module/espresso/nninc/pbe/van/C.UPF
     MD5 check sum: 1a69bf6b8db32088f5b2163dbdb77a27
     Pseudo is Ultrasoft, Zval =  4.0
     Generated by new atomic code, or converted to UPF format
     Using radial grid of  721 points,  4 beta functions with:
                l(1) =   0
                l(2) =   0
                l(3) =   1
                l(4) =   1
     Q(r) pseudized with  8 coefficients,  rinner =    0.800   0.800   0.800

     PseudoPot. # 5 for H  read from file:
     /storage/coda1/p-amedford6/0/shared/rich_project_chbe-medford/medford-share/data/pseudos_module/espresso/nninc/pbe/van/H.UPF
     MD5 check sum: b5ee9d7bfd3a09ee7748110bda690ff7
     Pseudo is Ultrasoft, Zval =  1.0
     Generated by new atomic code, or converted to UPF format
     Using radial grid of  615 points,  1 beta functions with:
                l(1) =   0
     Q(r) pseudized with  8 coefficients,  rinner =    0.800

     atomic species   valence    mass     pseudopotential
        Ti1           12.00    47.86700     Ti( 1.00)
        O1             6.00    15.99900     O ( 1.00)
        N1             5.00    14.00700     N ( 1.00)
        C1             4.00    12.01100     C ( 1.00)
        H1             1.00     1.00800     H ( 1.00)

     No symmetry found

   Cartesian axes

     site n.     atom                  positions (alat units)
         1           Ti1 tau(   1) = (   0.0004258   2.9801865   6.0000000  )
         2           Ti1 tau(   2) = (   3.2906075   1.4906267   6.0002472  )
         3           O1  tau(   3) = (   0.0006271   0.0005054   7.9858123  )
         4           O1  tau(   4) = (   3.2906025   0.0005020   7.3038282  )
         5           O1  tau(   5) = (   4.5942328   1.4918067   9.2879030  )
         6           O1  tau(   6) = (   1.9868534   1.4903216   9.2879459  )
         7           Ti1 tau(   7) = (   3.2907910   2.8959150   9.1758416  )
         8           Ti1 tau(   8) = (   0.0015273   1.4827037   9.2680791  )
         9           O1  tau(   9) = (   3.2947431   5.9554071  11.2675382  )
        10           O1  tau(  10) = (   0.0116148   5.9584955  10.6183126  )
        11           O1  tau(  11) = (   1.2939190   1.5012022  12.6324650  )
        12           O1  tau(  12) = (   5.3075194   1.4952059  12.6199201  )
        13           Ti1 tau(  13) = (   0.0106221   2.8553259  12.7114016  )
        14           Ti1 tau(  14) = (   3.3038960   1.3182849  12.6556579  )
        15           O1  tau(  15) = (   6.5780848   0.0092190  14.6493773  )
        16           O1  tau(  16) = (   3.3025004   0.0387551  13.8658611  )
        17           O1  tau(  17) = (   4.5583283   1.5306594  16.0644060  )
        18           O1  tau(  18) = (   2.0361898   1.5392772  16.0217891  )
        19           Ti1 tau(  19) = (   3.3091865   3.0111069  15.6373089  )
        20           Ti1 tau(  20) = (   0.0377650   1.3505479  16.0707495  )
        21           O1  tau(  21) = (   3.2904802   0.0005063   4.7018136  )
        22           O1  tau(  22) = (   0.0439016   5.9493915  17.1867805  )
        23           O1  tau(  23) = (   1.3043587   1.4918075   6.0039043  )
        24           O1  tau(  24) = (   5.2767064   1.4903225   6.0039473  )
        25           Ti1 tau(  25) = (   0.0000382   5.9609847   6.0000000  )
        26           Ti1 tau(  26) = (   3.2902200   4.4714249   6.0002472  )
        27           O1  tau(  27) = (   0.0002396   2.9813036   7.9858123  )
        28           O1  tau(  28) = (   3.2902150   2.9813002   7.3038282  )
        29           O1  tau(  29) = (   4.5938453   4.4726049   9.2879030  )
        30           O1  tau(  30) = (   1.9864658   4.4711199   9.2879459  )
        31           Ti1 tau(  31) = (   3.2891106   5.8743827   9.1763621  )
        32           Ti1 tau(  32) = (   0.0006254   4.4649316   9.2693709  )
        33           O1  tau(  33) = (   3.2958776   3.0336607  11.2353185  )
        34           O1  tau(  34) = (   0.0092240   2.9805883  10.6323155  )
        35           O1  tau(  35) = (   1.3000586   4.4853303  12.6229424  )
        36           O1  tau(  36) = (   5.2993189   4.4901910  12.6110906  )
        37           Ti1 tau(  37) = (   0.0093010   5.8444503  12.6145921  )
        38           Ti1 tau(  38) = (   3.2999333   4.4129019  12.4053696  )
        39           O1  tau(  39) = (   6.5685983   3.0141634  14.6646344  )
        40           O1  tau(  40) = (   3.3157979   2.9893391  13.8470085  )
        41           O1  tau(  41) = (   4.5469136   4.4558096  16.0384726  )
        42           O1  tau(  42) = (   2.0285042   4.4377151  15.9822253  )
        43           Ti1 tau(  43) = (   3.3362675   0.0317196  16.2890182  )
        44           Ti1 tau(  44) = (   0.0499865   4.4862307  15.8577502  )
        45           O1  tau(  45) = (   3.2900926   2.9813045   4.7018136  )
        46           O1  tau(  46) = (   1.3039711   4.4726057   6.0039043  )
        47           O1  tau(  47) = (   5.2763189   4.4711207   6.0039473  )
        48           N1  tau(  48) = (   6.5743150   3.1533891  18.5964175  )
        49           N1  tau(  49) = (   0.0147781   3.0160983  17.3860304  )
        50           C1  tau(  50) = (   0.1535999   3.3096653  19.7680592  )
        51           H1  tau(  51) = (   6.1193577   3.4501394  20.6313668  )
        52           O1  tau(  52) = (   3.1701150   5.9596689  18.1025665  )
        53           H1  tau(  53) = (   2.2867615   0.0439400  18.5018857  )

     number of k points=    10  Fermi-Dirac smearing, width (Ry)=  0.0073
                       cart. coord. in units 2pi/alat
        k(    1) = (   0.0000000   0.0000000   0.0000000), wk =   0.1250000
        k(    2) = (   0.0000000   0.0419351   0.0000000), wk =   0.2500000
        k(    3) = (   0.0000000  -0.0838702   0.0000000), wk =   0.1250000
        k(    4) = (   0.0379955   0.0000049   0.0000000), wk =   0.2500000
        k(    5) = (   0.0379955   0.0419400   0.0000000), wk =   0.2500000
        k(    6) = (   0.0379955  -0.0838652   0.0000000), wk =   0.2500000
        k(    7) = (   0.0379955  -0.0419301   0.0000000), wk =   0.2500000
        k(    8) = (  -0.0759910  -0.0000099   0.0000000), wk =   0.1250000
        k(    9) = (  -0.0759910   0.0419252   0.0000000), wk =   0.2500000
        k(   10) = (  -0.0759910  -0.0838800   0.0000000), wk =   0.1250000

     Initial potential from superposition of free atoms

     starting charge  383.99917, renormalised to  400.00000

     negative rho (up, down):  1.461E-02 0.000E+00

     %%%%%%%%%%%%%%%%%%%%%%%%%%%%%%%%%%%%%%%%%%%%%%%%%%%%%%%%%%%%%%%%%%%%%%%%
     %                                                                      %
     % You are using vdW-DF, which was implemented by the Thonhauser group. %
     % Please cite the following two papers that made this development      %
     % possible and the two reviews that describe the various versions:     %
     %                                                                      %
     %   T. Thonhauser et al., PRL 115, 136402 (2015).                      %
     %   T. Thonhauser et al., PRB 76, 125112 (2007).                       %
     %   K. Berland et al., Rep. Prog. Phys. 78, 066501 (2015).             %
     %   D.C. Langreth et al., J. Phys.: Condens. Matter 21, 084203 (2009). %
     %                                                                      %
     %                                                                      %
     % If you are calculating the stress with vdW-DF, please also cite:     %
     %                                                                      %
     %   R. Sabatini et al., J. Phys.: Condens. Matter 24, 424209 (2012).   %
     %                                                                      %
     %%%%%%%%%%%%%%%%%%%%%%%%%%%%%%%%%%%%%%%%%%%%%%%%%%%%%%%%%%%%%%%%%%%%%%%%

     Adding external electric field

     Computed dipole along edir(3) :
        Dipole              -10.4151 Ry au,        -26.4725 Debye
        Dipole field         -0.0197 Ry au,

        Potential amp.        1.8220 Ry
        Total length         46.3494 bohr

     Starting wfcs are  302 atomic wfcs
  @ DRIVER MODE: Message from server: STATUS
  @ DRIVER MODE: Message from server: POSDATA
  @ DRIVER MODE: Reading and sharing cell
  @ DRIVER MODE: Reading and sharing positions
  @ DRIVER MODE: Received positions

     Self-consistent Calculation

     iteration #  1     ecut=    29.40 Ry     beta= 0.05
     Davidson diagonalization with overlap
     c_bands:  1 eigenvalues not converged
     c_bands:  1 eigenvalues not converged
     c_bands:  1 eigenvalues not converged
     c_bands:  1 eigenvalues not converged
     c_bands:  3 eigenvalues not converged
     c_bands:  2 eigenvalues not converged
     c_bands:  3 eigenvalues not converged
     c_bands:  2 eigenvalues not converged
     c_bands:  4 eigenvalues not converged
     c_bands:  2 eigenvalues not converged
     ethr =  1.00E-05,  avg # of iterations = 20.0

[...]

     total energy              =   -2481.72609122 Ry
     estimated scf accuracy    <    5436.32431833 Ry

     iteration #  2     ecut=    29.40 Ry     beta= 0.05
     Davidson diagonalization with overlap
     ethr =  1.00E-02,  avg # of iterations = 22.8

[...]

     iteration # 47     ecut=    29.40 Ry     beta= 0.05
     Davidson diagonalization with overlap
     c_bands:  1 eigenvalues not converged
     ethr =  1.20E-06,  avg # of iterations = 10.9

[...]

     total energy              =   -2970.22402409 Ry
     estimated scf accuracy    <       0.00000008 Ry

     iteration # 84     ecut=    29.40 Ry     beta= 0.05
     Davidson diagonalization with overlap
     ethr =  1.93E-11,  avg # of iterations =  2.7

     negative rho (up, down):  1.522E-02 0.000E+00

     Adding external electric field

     Computed dipole along edir(3) :
        Dipole                0.3040 Ry au,          0.7727 Debye
        Dipole field          0.0006 Ry au,

        Potential amp.       -0.0532 Ry
        Total length         46.3494 bohr

     End of self-consistent calculation

          k = 0.0000 0.0000 0.0000 ( 18029 PWs)   bands (ev):

   -56.8457 -56.8121 -56.0049 -55.9697 -55.7455 -55.6810 -55.4151 -55.3897
   -55.3812 -55.3740 -55.3100 -55.2580 -55.2549 -55.2458 -55.0647 -55.0572
   -33.2672 -33.1210 -33.0929 -33.0214 -32.9310 -32.8940 -32.4893 -32.2256
   -32.2234 -32.1948 -32.1458 -32.1438 -32.1151 -31.9771 -31.9650 -31.9126
   -31.8860 -31.8706 -31.8454 -31.7963 -31.7611 -31.7435 -31.7386 -31.7367
   -31.7220 -31.6572 -31.6532 -31.6239 -31.6199 -31.6087 -31.6005 -31.5394
   -31.5267 -31.5087 -31.5066 -31.4818 -31.4774 -31.4600 -31.4489 -31.4278
   -31.4202 -31.4001 -31.3253 -31.3082 -31.3077 -31.2757 -31.2738 -31.2619
   -18.9996 -16.9668 -16.4426 -16.1861 -16.1734 -16.0804 -16.0510 -16.0393
   -15.9584 -15.7645 -15.7025 -15.6305 -15.6087 -15.5142 -15.3899 -15.2934
   -15.1636 -15.0885 -15.0250 -15.0159 -15.0054 -14.9854 -14.8716 -14.8676
   -14.8627 -14.8198 -14.7744 -14.6158 -14.5281 -14.3668 -14.3337 -13.9127
   -13.8053 -13.6131  -6.2737  -5.0452  -4.5363  -3.9397  -3.9150  -3.8442
    -3.7418  -3.5718  -3.5698  -3.4422  -3.3760  -3.2521  -3.2416  -3.2256
    -3.1572  -3.1399  -2.9933  -2.9445  -2.9289  -2.8241  -2.7933  -2.6400
    -2.6134  -2.5188  -2.4694  -2.4354  -2.3798  -2.3530  -2.2778  -2.2711
    -2.2521  -2.1653  -2.1645  -2.1316  -2.0534  -2.0404  -1.9717  -1.9240
    -1.8857  -1.8262  -1.8010  -1.7275  -1.7240  -1.6021  -1.5211  -1.4796
    -1.4361  -1.4272  -1.3670  -1.3111  -1.2019  -1.1757  -1.0862  -1.0406
    -1.0277  -0.9775  -0.8887  -0.8600  -0.7917  -0.7193  -0.7016  -0.6146
    -0.5859  -0.5631  -0.4570  -0.4376  -0.3832  -0.3574  -0.3265  -0.3138
    -0.2364  -0.1190  -0.1050  -0.0394   0.0091   0.0372   0.1295   0.2215
     0.2689   0.3189   0.3485   0.3667   0.4436   0.4703   0.4926   0.5448
     0.5740   0.6065   0.6126   0.7164   0.7474   0.8104   0.8695   0.8886
     0.9979   1.0365   1.0942   1.1435   1.1845   1.5277   1.6366   1.8728
     2.4419   2.6085   2.8845   3.0172   3.3419   3.4285   3.4369   3.4428
     3.6804   3.8174

[...]

          k = 0.0380-0.0419 0.0000 ( 17876 PWs)   bands (ev):

[...]

          k =-0.0760-0.0000 0.0000 ( 17886 PWs)   bands (ev):

[...]

          k =-0.0760-0.0839 0.0000 ( 17948 PWs)   bands (ev):

   -56.8294 -56.8283 -55.9925 -55.9819 -55.7406 -55.6858 -55.3986 -55.3974
   -55.3858 -55.3725 -55.3138 -55.2566 -55.2532 -55.2474 -55.0661 -55.0585
   -33.1073 -33.1061 -33.0850 -33.0837 -32.9752 -32.9744 -32.3139 -32.3054
   -32.1875 -32.1754 -32.1726 -32.1657 -32.0478 -32.0041 -31.9705 -31.9612
   -31.9136 -31.9084 -31.7502 -31.7493 -31.7173 -31.6648 -31.6616 -31.6540
   -31.6454 -31.6332 -31.6195 -31.6178 -31.6118 -31.6047 -31.5908 -31.5807
   -31.5798 -31.5782 -31.5496 -31.5238 -31.5096 -31.4979 -31.4629 -31.4562
   -31.4516 -31.4450 -31.4136 -31.3814 -31.3299 -31.2969 -31.2778 -31.2646
   -18.9971 -16.3329 -16.3303 -16.2750 -16.2734 -16.1661 -16.0336 -16.0280
   -15.7802 -15.7503 -15.5547 -15.5147 -15.4657 -15.4120 -15.3735 -15.3715
   -15.2327 -15.2214 -15.1173 -15.0383 -15.0168 -14.9843 -14.9729 -14.9517
   -14.9459 -14.8741 -14.7899 -14.7272 -14.7135 -14.5447 -14.4671 -13.9098
   -13.9091 -13.6175  -6.2723  -5.0135  -3.9426  -3.7689  -3.5924  -3.3979
    -3.3958  -3.3908  -3.3827  -3.1539  -3.1434  -2.9693  -2.9628  -2.9372
    -2.8761  -2.8644  -2.7580  -2.6897  -2.6845  -2.6752  -2.6499  -2.6241
    -2.6184  -2.5546  -2.4973  -2.3903  -2.3668  -2.3317  -2.3114  -2.2975
    -2.1781  -2.1517  -2.1405  -2.1113  -2.0962  -2.0829  -2.0463  -2.0216
    -1.8680  -1.8303  -1.7217  -1.7072  -1.6871  -1.6434  -1.6263  -1.6054
    -1.5789  -1.5448  -1.5402  -1.4540  -1.4302  -1.3731  -1.2896  -1.2124
    -1.1633  -1.1516  -1.0896  -1.0377  -0.9284  -0.9041  -0.8686  -0.8478
    -0.8201  -0.7617  -0.7312  -0.6255  -0.5408  -0.5099  -0.4887  -0.4835
    -0.4486  -0.4150  -0.3930  -0.2784  -0.2660  -0.2519  -0.1530  -0.0580
     0.0265   0.0865   0.1013   0.1803   0.2762   0.3204   0.3858   0.4498
     0.4923   0.5069   0.6794   0.7284   0.8514   0.8759   0.9073   0.9696
     0.9831   0.9874   1.0098   1.0197   1.0480   1.1274   1.5558   1.7884
     3.0292   3.0320   3.0883   3.0944   3.3981   3.4015   3.5068   3.5094
     3.7919   3.8033

     the Fermi energy is     2.2175 ev

!    total energy              =   -2970.22403277 Ry
     estimated scf accuracy    <       0.00000006 Ry
     smearing contrib. (-TS)   =      -0.00327446 Ry
     internal energy E=F+TS    =   -2970.22075830 Ry

     The total energy is F=E-TS. E is the sum of the following terms:
     one-electron contribution =  -23874.81839579 Ry
     hartree contribution      =   12028.56056589 Ry
     xc contribution           =    -491.45720590 Ry
     ewald contribution        =    9367.49410308 Ry
     electric field correction =       0.00017442 Ry

     convergence has been achieved in  84 iterations

     Forces acting on atoms (cartesian axes, Ry/au):

     atom    1 type  1   force =     0.00006324   -0.00042066    0.12340199
     atom    2 type  1   force =    -0.00004716    0.00024694   -0.15535371
     atom    3 type  2   force =     0.00000861   -0.00007045   -0.06318998
     atom    4 type  2   force =     0.00000875    0.00024411    0.01791398
     atom    5 type  2   force =    -0.00300175   -0.00167733   -0.01290108
     atom    6 type  2   force =     0.00467996   -0.00105705   -0.01337119
     atom    7 type  1   force =    -0.00006798   -0.00671556    0.05750948
     atom    8 type  1   force =     0.00032560    0.01201540    0.09292920
     atom    9 type  2   force =    -0.00005428   -0.00006946   -0.00014785
     atom   10 type  2   force =    -0.00146564    0.00206283   -0.05864277
     atom   11 type  2   force =    -0.00001699    0.00036994   -0.00011413
     atom   12 type  2   force =    -0.00008297    0.00059120   -0.00005466
     atom   13 type  1   force =    -0.00018912    0.00091123   -0.00016828
     atom   14 type  1   force =    -0.00007973    0.00064963   -0.00041913
     atom   15 type  2   force =    -0.00004164   -0.00066398   -0.00058810
     atom   16 type  2   force =    -0.00013975    0.00008442   -0.00107584
     atom   17 type  2   force =    -0.00007897   -0.00050507   -0.00032458
     atom   18 type  2   force =    -0.00014667    0.00048287   -0.00042971
     atom   19 type  1   force =     0.00038866   -0.00022901    0.00122021
     atom   20 type  1   force =    -0.00039391    0.00058915    0.00029255
     atom   21 type  2   force =     0.00003400    0.00021522    0.09794830
     atom   22 type  2   force =     0.00040052   -0.00011260    0.00081244
     atom   23 type  2   force =    -0.08220072    0.00004362   -0.03274310
     atom   24 type  2   force =     0.08208242    0.00048377   -0.03281482
     atom   25 type  1   force =     0.00010203   -0.00060012    0.12340793
     atom   26 type  1   force =    -0.00015869   -0.00151227   -0.15591893
     atom   27 type  2   force =     0.00006977   -0.00069193   -0.06141081
     atom   28 type  2   force =     0.00002017    0.00205950    0.01317542
     atom   29 type  2   force =    -0.00128184    0.00546985   -0.01607607
     atom   30 type  2   force =     0.00294924    0.00580125   -0.01652334
     atom   31 type  1   force =    -0.00011426    0.00211235    0.04133285
     atom   32 type  1   force =     0.00054327   -0.01543849    0.09260264
     atom   33 type  2   force =    -0.00021241   -0.00074313   -0.00059523
     atom   34 type  2   force =    -0.00141003    0.00203228   -0.07250618
     atom   35 type  2   force =     0.00020307   -0.00080870    0.00004044
     atom   36 type  2   force =    -0.00024753   -0.00092044    0.00009321
     atom   37 type  1   force =    -0.00025329   -0.00111153   -0.00022932
     atom   38 type  1   force =    -0.00008951   -0.00150077    0.00071235
     atom   39 type  2   force =     0.00041120   -0.00049719    0.00000962
     atom   40 type  2   force =    -0.00003230   -0.00068222   -0.00130363
     atom   41 type  2   force =     0.00031038    0.00023763    0.00011946
     atom   42 type  2   force =    -0.00009540    0.00028383    0.00062281
     atom   43 type  1   force =    -0.00011010   -0.00004690    0.00096623
     atom   44 type  1   force =    -0.00025347    0.00027516   -0.00083687
     atom   45 type  2   force =     0.00002415    0.00002572    0.09771921
     atom   46 type  2   force =    -0.08226712   -0.00001146   -0.03277595
     atom   47 type  2   force =     0.08211986    0.00043799   -0.03278810
     atom   48 type  3   force =     0.00344812   -0.00039485    0.00130829
     atom   49 type  3   force =    -0.00130545    0.00064892    0.00105393
     atom   50 type  4   force =    -0.00068623   -0.00005172   -0.00319076
     atom   51 type  5   force =    -0.00147915   -0.00047565    0.00145419
     atom   52 type  2   force =    -0.00035721   -0.00040788   -0.00031460
     atom   53 type  5   force =     0.00016824   -0.00095839    0.00016198

     Total force =     0.412340     Total SCF correction =     0.000665
  @ DRIVER MODE: Message from server: STATUS
  @ DRIVER MODE: Message from server: GETFORCE
  @ DRIVER MODE: Returning v,forces,stress,ensemble

     Writing output data file ./calc.save/
  @ DRIVER MODE: Message from server: EXIT
  @ DRIVE MODE: Exiting

     General routines

     Parallel routines

   This run was terminated on:  11:11:21  22Sep2021

   JOB DONE.