     Program PWSCF v.6.7GPU starts on 16Sep2021 at  2: 3: 7

     R & G space division:  proc/nbgrp/npool/nimage =      10
     Reading input from /storage/home/hcoda1/3/ntian30/research/carbon/CxH_vib/H2O_calc/ads_slab/CH3N2H2O_c/out_0033/pw.inp
Warning: card &CELL ignored
Warning: card   CELL_DYNAMICS='IPI', ignored
Warning: card / ignored

     Current dimensions of program PWSCF are:
     Max number of different atomic species (ntypx) = 10
     Max number of k-points (npk) =  40000
     Max angular momentum in pseudopotentials (lmaxx) =  3
     Presently no symmetry can be used with electric field

     Message from routine cell_base_init:
     DEPRECATED: use true lattice parameter, not A to a.u. conversion factor

     IMPORTANT: XC functional enforced from input :
     Exchange-correlation= BEEF-VDW
                           (   1   4  43  14   2   0   0)
     Any further DFT definition will be discarded
     Please, verify this is what you really want

  @ DRIVER MODE: Connecting to
 qe_1139763_2852616.sched-torque.pace.gatech.edudd0zqs94_scratch
  using UNIX socket
  @ DRIVER MODE: Message from server: STATUS
  @ DRIVER MODE: Message from server: INIT
  @ DRIVER MODE: Receiving replica           0          -1
  @ DRIVER MODE: Receiving encoded integer          25
  @ DRIVER MODE:  SCF:  T  FORCE:  T  STRESS:  F  VC:  F  ENSEMBLE:  F
  @ DRIVER MODE:  SCF:  T  FORCE:  T  STRESS:  F  VC:  F  ENSEMBLE:  F

     Using Slab Decomposition

     bravais-lattice index     =            0
     lattice parameter (alat)  =       1.8897  a.u.
     unit-cell volume          =    6658.9804 (a.u.)^3
     number of atoms/cell      =           56
     number of atomic types    =            5
     number of electrons       =       403.00
     number of Kohn-Sham states=          211
     kinetic-energy cutoff     =      29.3995  Ry
     charge density cutoff     =     293.9946  Ry
     scf convergence threshold =      7.3E-08
     mixing beta               =       0.0500
     number of iterations used =            8  plain     mixing
     Exchange-correlation= BEEF-VDW
                           (   1   4  43  14   2   0   0)

     celldm(1)=   1.889726  celldm(2)=   0.000000  celldm(3)=   0.000000
     celldm(4)=   0.000000  celldm(5)=   0.000000  celldm(6)=   0.000000

     crystal axes: (cart. coord. in units of alat)
               a(1) = (   6.579727   0.000000   0.000000 )
               a(2) = (  -0.000775   5.961596   0.000000 )
               a(3) = (   0.000000   0.000000  25.155947 )

     reciprocal axes: (cart. coord. in units 2 pi/alat)
               b(1) = (  0.151982  0.000020  0.000000 )
               b(2) = (  0.000000  0.167740  0.000000 )
               b(3) = (  0.000000  0.000000  0.039752 )

     PseudoPot. # 1 for Ti read from file:
     /storage/coda1/p-amedford6/0/shared/rich_project_chbe-medford/medford-share/data/pseudos_module/espresso/nninc/pbe/van/Ti.UPF
     MD5 check sum: 8e4df49b7f0d34bbd5052bf3f5ea0213
     Pseudo is Ultrasoft, Zval = 12.0
     Generated by new atomic code, or converted to UPF format
     Using radial grid of  851 points,  6 beta functions with:
                l(1) =   0
                l(2) =   0
                l(3) =   1
                l(4) =   1
                l(5) =   2
                l(6) =   2
     Q(r) pseudized with  8 coefficients,  rinner =    1.000   1.000   1.000
                                                       1.000   1.000

     PseudoPot. # 2 for O  read from file:
     /storage/coda1/p-amedford6/0/shared/rich_project_chbe-medford/medford-share/data/pseudos_module/espresso/nninc/pbe/van/O.UPF
     MD5 check sum: 78c19812648e8988a0fe644b0f25305e
     Pseudo is Ultrasoft, Zval =  6.0
     Generated by new atomic code, or converted to UPF format
     Using radial grid of  737 points,  4 beta functions with:
                l(1) =   0
                l(2) =   0
                l(3) =   1
                l(4) =   1
     Q(r) pseudized with  8 coefficients,  rinner =    0.800   0.800   0.800

     PseudoPot. # 3 for N  read from file:
     /storage/coda1/p-amedford6/0/shared/rich_project_chbe-medford/medford-share/data/pseudos_module/espresso/nninc/pbe/van/N.UPF
     MD5 check sum: 90d10febe142ad51ac9d5be1deb811c4
     Pseudo is Ultrasoft, Zval =  5.0
     Generated by new atomic code, or converted to UPF format
     Using radial grid of  729 points,  4 beta functions with:
                l(1) =   0
                l(2) =   0
                l(3) =   1
                l(4) =   1
     Q(r) pseudized with  8 coefficients,  rinner =    0.800   0.800   0.800

     PseudoPot. # 4 for C  read from file:
     /storage/coda1/p-amedford6/0/shared/rich_project_chbe-medford/medford-share/data/pseudos_module/espresso/nninc/pbe/van/C.UPF
     MD5 check sum: 1a69bf6b8db32088f5b2163dbdb77a27
     Pseudo is Ultrasoft, Zval =  4.0
     Generated by new atomic code, or converted to UPF format
     Using radial grid of  721 points,  4 beta functions with:
                l(1) =   0
                l(2) =   0
                l(3) =   1
                l(4) =   1
     Q(r) pseudized with  8 coefficients,  rinner =    0.800   0.800   0.800

     PseudoPot. # 5 for H  read from file:
     /storage/coda1/p-amedford6/0/shared/rich_project_chbe-medford/medford-share/data/pseudos_module/espresso/nninc/pbe/van/H.UPF
     MD5 check sum: b5ee9d7bfd3a09ee7748110bda690ff7
     Pseudo is Ultrasoft, Zval =  1.0
     Generated by new atomic code, or converted to UPF format
     Using radial grid of  615 points,  1 beta functions with:
                l(1) =   0
     Q(r) pseudized with  8 coefficients,  rinner =    0.800

     atomic species   valence    mass     pseudopotential
        Ti1           12.00    47.86700     Ti( 1.00)
        O1             6.00    15.99900     O ( 1.00)
        N1             5.00    14.00700     N ( 1.00)
        C1             4.00    12.01100     C ( 1.00)
        H1             1.00     1.00800     H ( 1.00)

     No symmetry found

   Cartesian axes

     site n.     atom                  positions (alat units)
         1           Ti1 tau(   1) = (   0.0004258   2.9801865   6.0000000  )
         2           Ti1 tau(   2) = (   3.2906075   1.4906267   6.0002472  )
         3           O1  tau(   3) = (   0.0006271   0.0005054   7.9858123  )
         4           O1  tau(   4) = (   3.2906025   0.0005020   7.3038282  )
         5           O1  tau(   5) = (   4.5942328   1.4918067   9.2879030  )
         6           O1  tau(   6) = (   1.9868534   1.4903216   9.2879459  )
         7           Ti1 tau(   7) = (   3.2907910   2.8959150   9.1758416  )
         8           Ti1 tau(   8) = (   0.0015273   1.4827037   9.2680791  )
         9           O1  tau(   9) = (   3.2828550   5.9398922  11.3444325  )
        10           O1  tau(  10) = (   0.0116148   5.9584955  10.6183126  )
        11           O1  tau(  11) = (   1.2785533   1.4626539  12.6279770  )
        12           O1  tau(  12) = (   5.2704455   1.4657548  12.6160130  )
        13           Ti1 tau(  13) = (   0.0600808   2.9393476  12.6134163  )
        14           Ti1 tau(  14) = (   3.3737088   1.4602624  12.5010433  )
        15           O1  tau(  15) = (   6.5684750   5.9323085  14.6353932  )
        16           O1  tau(  16) = (   3.2849856   5.9366180  13.9618146  )
        17           O1  tau(  17) = (   4.5362432   1.5114280  16.0576559  )
        18           O1  tau(  18) = (   2.0240554   1.5008084  16.0383298  )
        19           Ti1 tau(  19) = (   3.2703657   2.9522362  15.6888820  )
        20           Ti1 tau(  20) = (   6.5391562   1.4934284  15.8005638  )
        21           O1  tau(  21) = (   3.2904802   0.0005063   4.7018136  )
        22           O1  tau(  22) = (   6.5583345   5.9570231  17.1947061  )
        23           O1  tau(  23) = (   1.3043587   1.4918075   6.0039043  )
        24           O1  tau(  24) = (   5.2767064   1.4903225   6.0039473  )
        25           Ti1 tau(  25) = (   0.0000382   5.9609847   6.0000000  )
        26           Ti1 tau(  26) = (   3.2902200   4.4714249   6.0002472  )
        27           O1  tau(  27) = (   0.0002396   2.9813036   7.9858123  )
        28           O1  tau(  28) = (   3.2902150   2.9813002   7.3038282  )
        29           O1  tau(  29) = (   4.5938453   4.4726049   9.2879030  )
        30           O1  tau(  30) = (   1.9864658   4.4711199   9.2879459  )
        31           Ti1 tau(  31) = (   3.2891106   5.8743827   9.1763621  )
        32           Ti1 tau(  32) = (   0.0006254   4.4649316   9.2693709  )
        33           O1  tau(  33) = (   3.2888364   2.9620848  11.3424199  )
        34           O1  tau(  34) = (   0.0092240   2.9805883  10.6323155  )
        35           O1  tau(  35) = (   1.2785924   4.4508711  12.6313046  )
        36           O1  tau(  36) = (   5.2742027   4.4576360  12.6186982  )
        37           Ti1 tau(  37) = (   0.0560446   5.9134488  12.5469576  )
        38           Ti1 tau(  38) = (   3.3742563   4.4530221  12.5021653  )
        39           O1  tau(  39) = (   6.5655761   2.9369947  14.6516633  )
        40           O1  tau(  40) = (   3.2805149   2.9594171  13.8967751  )
        41           O1  tau(  41) = (   4.5308665   4.4203993  16.0704334  )
        42           O1  tau(  42) = (   2.0169005   4.4237906  16.0574931  )
        43           Ti1 tau(  43) = (   3.2493829   5.9208236  15.8028744  )
        44           Ti1 tau(  44) = (   6.5423592   4.6318136  16.0678394  )
        45           O1  tau(  45) = (   3.2900926   2.9813045   4.7018136  )
        46           O1  tau(  46) = (   1.3039711   4.4726057   6.0039043  )
        47           O1  tau(  47) = (   5.2763189   4.4711207   6.0039473  )
        48           N1  tau(  48) = (   0.1516996   2.6368831  18.6397825  )
        49           N1  tau(  49) = (   0.0343947   2.8734663  17.4441277  )
        50           C1  tau(  50) = (   0.1908864   3.7705318  19.5986308  )
        51           H1  tau(  51) = (   6.5333492   4.7333814  19.1494580  )
        52           H1  tau(  52) = (   6.0816938   3.5230213  20.4074400  )
        53           H1  tau(  53) = (   1.1988782   3.7780179  20.0220438  )
        54           O1  tau(  54) = (   3.2442500   5.9498283  18.2024067  )
        55           H1  tau(  55) = (   4.0366425   0.4867780  18.4672138  )
        56           H1  tau(  56) = (   2.4709518   0.5160301  18.4623371  )

     number of k points=    10  Fermi-Dirac smearing, width (Ry)=  0.0073
                       cart. coord. in units 2pi/alat
        k(    1) = (   0.0000000   0.0000000   0.0000000), wk =   0.1250000
        k(    2) = (   0.0000000   0.0419351   0.0000000), wk =   0.2500000
        k(    3) = (   0.0000000  -0.0838702   0.0000000), wk =   0.1250000
        k(    4) = (   0.0379955   0.0000049   0.0000000), wk =   0.2500000
        k(    5) = (   0.0379955   0.0419400   0.0000000), wk =   0.2500000
        k(    6) = (   0.0379955  -0.0838652   0.0000000), wk =   0.2500000
        k(    7) = (   0.0379955  -0.0419301   0.0000000), wk =   0.2500000
        k(    8) = (  -0.0759910  -0.0000099   0.0000000), wk =   0.1250000
        k(    9) = (  -0.0759910   0.0419252   0.0000000), wk =   0.2500000
        k(   10) = (  -0.0759910  -0.0838800   0.0000000), wk =   0.1250000

     Initial potential from superposition of free atoms

     starting charge  386.99914, renormalised to  403.00000

     negative rho (up, down):  1.445E-02 0.000E+00

     %%%%%%%%%%%%%%%%%%%%%%%%%%%%%%%%%%%%%%%%%%%%%%%%%%%%%%%%%%%%%%%%%%%%%%%%
     %                                                                      %
     % You are using vdW-DF, which was implemented by the Thonhauser group. %
     % Please cite the following two papers that made this development      %
     % possible and the two reviews that describe the various versions:     %
     %                                                                      %
     %   T. Thonhauser et al., PRL 115, 136402 (2015).                      %
     %   T. Thonhauser et al., PRB 76, 125112 (2007).                       %
     %   K. Berland et al., Rep. Prog. Phys. 78, 066501 (2015).             %
     %   D.C. Langreth et al., J. Phys.: Condens. Matter 21, 084203 (2009). %
     %                                                                      %
     %                                                                      %
     % If you are calculating the stress with vdW-DF, please also cite:     %
     %                                                                      %
     %   R. Sabatini et al., J. Phys.: Condens. Matter 24, 424209 (2012).   %
     %                                                                      %
     %%%%%%%%%%%%%%%%%%%%%%%%%%%%%%%%%%%%%%%%%%%%%%%%%%%%%%%%%%%%%%%%%%%%%%%%

     Adding external electric field

     Computed dipole along edir(3) :
        Dipole              -13.2286 Ry au,        -33.6236 Debye
        Dipole field         -0.0250 Ry au,

        Potential amp.        2.3141 Ry
        Total length         46.3494 bohr

     Starting wfcs are  305 atomic wfcs
  @ DRIVER MODE: Message from server: STATUS
  @ DRIVER MODE: Message from server: POSDATA
  @ DRIVER MODE: Reading and sharing cell
  @ DRIVER MODE: Reading and sharing positions
  @ DRIVER MODE: Received positions

     Self-consistent Calculation

     iteration #  1     ecut=    29.40 Ry     beta= 0.05
     Davidson diagonalization with overlap
     c_bands:  4 eigenvalues not converged
     c_bands:  2 eigenvalues not converged
     c_bands:  4 eigenvalues not converged
     c_bands:  1 eigenvalues not converged
     c_bands:  1 eigenvalues not converged
     c_bands:  1 eigenvalues not converged
     c_bands:  4 eigenvalues not converged
     c_bands:  1 eigenvalues not converged
     c_bands:  1 eigenvalues not converged
     ethr =  1.00E-05,  avg # of iterations = 29.9

[...]

     total energy              =   -2367.54184940 Ry
     estimated scf accuracy    <    6916.36273074 Ry

     iteration #  2     ecut=    29.40 Ry     beta= 0.05
     Davidson diagonalization with overlap
     ethr =  1.00E-02,  avg # of iterations = 23.0

[...]

     iteration # 84     ecut=    29.40 Ry     beta= 0.05
     Davidson diagonalization with overlap
     c_bands:  1 eigenvalues not converged
     c_bands:  2 eigenvalues not converged
     ethr =  7.94E-10,  avg # of iterations = 13.5

[...]

     total energy              =   -2974.00311646 Ry
     estimated scf accuracy    <       0.00000008 Ry

     iteration # 92     ecut=    29.40 Ry     beta= 0.05
     Davidson diagonalization with overlap
     ethr =  2.00E-11,  avg # of iterations =  5.0

     negative rho (up, down):  1.457E-02 0.000E+00

     Adding external electric field

     Computed dipole along edir(3) :
        Dipole                0.9246 Ry au,          2.3502 Debye
        Dipole field          0.0017 Ry au,

        Potential amp.       -0.1617 Ry
        Total length         46.3494 bohr

     End of self-consistent calculation

          k = 0.0000 0.0000 0.0000 ( 18029 PWs)   bands (ev):

   -55.6016 -55.5675 -55.5606 -55.5534 -55.5245 -55.4347 -55.4117 -55.3944
   -55.3777 -55.3769 -55.3490 -55.3431 -55.0011 -54.8724 -54.5804 -54.5463
   -32.1027 -32.0841 -31.9526 -31.9348 -31.9104 -31.8943 -31.8666 -31.8639
   -31.8445 -31.7972 -31.7901 -31.7759 -31.7538 -31.7392 -31.7235 -31.7174
   -31.7060 -31.6934 -31.6877 -31.6587 -31.6518 -31.6391 -31.6043 -31.6002
   -31.5894 -31.5872 -31.5836 -31.5758 -31.5519 -31.5485 -31.5464 -31.5415
   -31.5297 -31.5283 -31.5185 -31.5104 -31.4888 -31.2706 -31.2000 -31.1299
   -31.1091 -31.0789 -30.9875 -30.8990 -30.8766 -30.8042 -30.7177 -30.6067
   -18.9009 -18.3020 -16.3007 -16.0677 -15.8423 -15.7506 -15.7093 -15.5029
   -15.4023 -15.3266 -15.2086 -15.1446 -15.1365 -15.1174 -15.1060 -15.1015
   -15.0423 -15.0384 -15.0366 -15.0228 -14.9972 -14.9496 -14.9349 -14.9308
   -14.8358 -14.7632 -14.7390 -14.7218 -14.6792 -14.6540 -14.2027 -13.0824
   -12.9660 -11.3206  -6.8585  -6.6916  -4.2024  -3.8603  -3.8312  -3.6751
    -3.5460  -3.5062  -3.4352  -3.3636  -3.2325  -3.2076  -3.0349  -2.8354
    -2.7752  -2.7466  -2.7006  -2.6294  -2.5146  -2.4587  -2.4079  -2.4054
    -2.3855  -2.3799  -2.3555  -2.3372  -2.2397  -2.2196  -2.1490  -2.1347
    -2.0858  -1.9849  -1.9552  -1.9140  -1.9052  -1.8769  -1.8633  -1.8497
    -1.8267  -1.8024  -1.7617  -1.6937  -1.6196  -1.5813  -1.5016  -1.4503
    -1.4079  -1.3476  -1.2117  -1.1369  -1.0891  -1.0563  -1.0465  -1.0282
    -0.9941  -0.9769  -0.8657  -0.7536  -0.7380  -0.6729  -0.6103  -0.5273
    -0.4943  -0.4329  -0.3687  -0.3508  -0.3457  -0.3094  -0.2676  -0.2217
    -0.0836  -0.0288   0.0051   0.0131   0.0745   0.1159   0.1473   0.2298
     0.2443   0.2842   0.3275   0.3587   0.3699   0.3797   0.4008   0.4316
     0.4363   0.6259   0.6690   0.7134   0.7482   0.7862   0.9323   0.9511
     1.0579   1.1634   1.3688   1.4420   1.5413   1.6340   2.0135   2.0593
     2.7606   3.5327   3.6203   3.6651   3.7028   3.7786   3.7894   3.9878
     4.0032   4.0423   4.1179

[...]

          k = 0.0380-0.0419 0.0000 ( 17876 PWs)   bands (ev):

[...]

          k =-0.0760-0.0000 0.0000 ( 17886 PWs)   bands (ev):

[...]

          k =-0.0760-0.0839 0.0000 ( 17948 PWs)   bands (ev):

   -55.5849 -55.5840 -55.5523 -55.5436 -55.5408 -55.4249 -55.4043 -55.3953
   -55.3934 -55.3620 -55.3583 -55.3504 -54.9990 -54.8744 -54.5634 -54.5632
   -31.9165 -31.9000 -31.8996 -31.8991 -31.8801 -31.8793 -31.8395 -31.8308
   -31.8038 -31.7827 -31.7710 -31.7629 -31.7580 -31.7143 -31.7109 -31.7081
   -31.7057 -31.7044 -31.7036 -31.6992 -31.6966 -31.6959 -31.6560 -31.6436
   -31.6227 -31.6166 -31.6095 -31.5950 -31.5944 -31.5917 -31.5855 -31.5768
   -31.5729 -31.5633 -31.5628 -31.5540 -31.4211 -31.2725 -31.2186 -31.1629
   -31.1317 -31.1059 -30.8894 -30.8892 -30.8003 -30.8001 -30.7610 -30.7610
   -18.8999 -18.2983 -15.7549 -15.6504 -15.5538 -15.5182 -15.4617 -15.4023
   -15.3875 -15.3060 -15.2824 -15.2789 -15.2181 -15.1961 -15.1612 -15.1486
   -15.1273 -15.1139 -15.1102 -15.0541 -15.0477 -15.0384 -15.0316 -15.0282
   -14.9615 -14.9190 -14.9154 -14.9109 -14.7863 -14.6609 -14.3824 -13.0679
   -13.0676 -11.3180  -6.8850  -6.6719  -4.1282  -3.8843  -3.8013  -3.2605
    -3.0377  -2.8354  -2.8070  -2.7123  -2.6973  -2.6671  -2.5349  -2.4950
    -2.4554  -2.4410  -2.4179  -2.4168  -2.4038  -2.3973  -2.3802  -2.3563
    -2.3287  -2.3030  -2.2731  -2.2651  -2.2530  -2.2347  -2.2216  -2.2043
    -2.2014  -2.1573  -2.1361  -2.1268  -2.0441  -1.9903  -1.8267  -1.7843
    -1.7399  -1.7303  -1.7053  -1.7000  -1.6677  -1.6537  -1.6003  -1.5898
    -1.4815  -1.3603  -1.3215  -1.2992  -1.2883  -1.2701  -1.1988  -1.0976
    -1.0732  -0.9985  -0.9941  -0.8906  -0.8767  -0.7961  -0.7858  -0.7612
    -0.7055  -0.6693  -0.6498  -0.5660  -0.5604  -0.5385  -0.4957  -0.4658
    -0.4079  -0.3520  -0.3225  -0.3133  -0.2757  -0.2512  -0.2104  -0.1596
    -0.0973  -0.0593   0.0360   0.1389   0.2223   0.3589   0.4691   0.4967
     0.5714   0.6080   0.6822   0.7119   0.7189   0.7801   0.7932   0.8821
     0.9395   0.9523   0.9882   1.1071   1.8054   1.8068   1.8788   1.8792
     2.7856   3.7579   3.8672   3.9101   3.9310   4.0062   4.0472   4.0672
     4.0699   4.1058   4.2091

     the Fermi energy is     3.5321 ev

!    total energy              =   -2974.00312451 Ry
     estimated scf accuracy    <       0.00000004 Ry
     smearing contrib. (-TS)   =      -0.02180777 Ry
     internal energy E=F+TS    =   -2973.98131674 Ry

     The total energy is F=E-TS. E is the sum of the following terms:
     one-electron contribution =  -23851.74564398 Ry
     hartree contribution      =   12020.47024017 Ry
     xc contribution           =    -494.03798907 Ry
     ewald contribution        =    9351.33046278 Ry
     electric field correction =       0.00161337 Ry

     convergence has been achieved in  92 iterations

     Forces acting on atoms (cartesian axes, Ry/au):

     atom    1 type  1   force =     0.00016793   -0.00020564    0.09632836
     atom    2 type  1   force =    -0.00018019   -0.00044398   -0.17543364
     atom    3 type  2   force =     0.00001785   -0.00014340   -0.02470194
     atom    4 type  2   force =     0.00005381   -0.00161756    0.05343358
     atom    5 type  2   force =    -0.01197707   -0.00148253    0.00369639
     atom    6 type  2   force =     0.01343196   -0.00064273    0.00223216
     atom    7 type  1   force =    -0.00108695    0.00055084   -0.00697432
     atom    8 type  1   force =     0.00064481    0.00918963    0.02676753
     atom    9 type  2   force =     0.00017636    0.00020279   -0.00046653
     atom   10 type  2   force =    -0.00157507   -0.00030148   -0.01789311
     atom   11 type  2   force =     0.00091228    0.00089578   -0.00000125
     atom   12 type  2   force =    -0.00060749    0.00059882   -0.00003612
     atom   13 type  1   force =    -0.00027811    0.00024695   -0.00036461
     atom   14 type  1   force =     0.00025844    0.00026544    0.00003462
     atom   15 type  2   force =     0.00008372    0.00018312   -0.00028196
     atom   16 type  2   force =     0.00000952    0.00020933    0.00081445
     atom   17 type  2   force =     0.00103722    0.00003054    0.00016139
     atom   18 type  2   force =    -0.00135857   -0.00005540   -0.00002675
     atom   19 type  1   force =    -0.00005914    0.00130308   -0.00010147
     atom   20 type  1   force =    -0.00025649   -0.00009171   -0.00015794
     atom   21 type  2   force =     0.00009991    0.00001932    0.10322924
     atom   22 type  2   force =    -0.00013573    0.00030039    0.00057857
     atom   23 type  2   force =    -0.07146610   -0.00009131   -0.02778263
     atom   24 type  2   force =     0.07145500    0.00035256   -0.02777963
     atom   25 type  1   force =     0.00001119   -0.00032604    0.09607500
     atom   26 type  1   force =    -0.00030632   -0.00045051   -0.17578124
     atom   27 type  2   force =     0.00008665   -0.00025310   -0.02368745
     atom   28 type  2   force =     0.00012046   -0.00130078    0.05283300
     atom   29 type  2   force =    -0.01224884    0.00021523    0.00357444
     atom   30 type  2   force =     0.01358749    0.00042896    0.00207547
     atom   31 type  1   force =    -0.00117533    0.00349234   -0.01017269
     atom   32 type  1   force =     0.00082660   -0.01100630    0.02705679
     atom   33 type  2   force =     0.00010180    0.00000025    0.00057961
     atom   34 type  2   force =    -0.00116091   -0.00123415   -0.02345141
     atom   35 type  2   force =     0.00083373   -0.00051868   -0.00011363
     atom   36 type  2   force =    -0.00058795   -0.00018102   -0.00014029
     atom   37 type  1   force =    -0.00056380    0.00019795   -0.00042730
     atom   38 type  1   force =     0.00027661   -0.00024688    0.00009993
     atom   39 type  2   force =     0.00011581    0.00046072    0.00011125
     atom   40 type  2   force =     0.00019760    0.00015194   -0.00054615
     atom   41 type  2   force =     0.00082127    0.00070520    0.00036561
     atom   42 type  2   force =    -0.00090093    0.00068547    0.00022415
     atom   43 type  1   force =    -0.00000858   -0.00092686   -0.00084144
     atom   44 type  1   force =    -0.00026104    0.00104934    0.00031583
     atom   45 type  2   force =     0.00008876   -0.00002479    0.10322775
     atom   46 type  2   force =    -0.07146366   -0.00001337   -0.02779423
     atom   47 type  2   force =     0.07145321    0.00040046   -0.02779099
     atom   48 type  3   force =    -0.00055524   -0.00155968   -0.00096506
     atom   49 type  3   force =     0.00004372   -0.00028024    0.00027251
     atom   50 type  4   force =     0.00027225   -0.00051066    0.00079513
     atom   51 type  5   force =     0.00104260   -0.00050133   -0.00062838
     atom   52 type  5   force =    -0.00003778   -0.00006027   -0.00038228
     atom   53 type  5   force =     0.00008304    0.00154736   -0.00031272
     atom   54 type  2   force =     0.00164249    0.00011368   -0.00023703
     atom   55 type  5   force =    -0.00062112   -0.00006892   -0.00013287
     atom   56 type  5   force =    -0.00108169    0.00074187    0.00052429

     Total force =     0.367780     Total SCF correction =     0.000549
  @ DRIVER MODE: Message from server: STATUS
  @ DRIVER MODE: Message from server: GETFORCE
  @ DRIVER MODE: Returning v,forces,stress,ensemble

     Writing output data file ./calc.save/
  @ DRIVER MODE: Message from server: EXIT
  @ DRIVE MODE: Exiting

     General routines

     Parallel routines

   This run was terminated on:   2:27:30  16Sep2021

   JOB DONE.