     Program PWSCF v.6.7GPU starts on 24Aug2021 at  8: 5:59

     R & G space division:  proc/nbgrp/npool/nimage =       6
     Reading input from /storage/home/hcoda1/3/ntian30/research/carbon/CH2_vib/ads_slab/CH2NHN_a/out_0035/pw.inp
Warning: card &CELL ignored
Warning: card   CELL_DYNAMICS='IPI', ignored
Warning: card / ignored

     Current dimensions of program PWSCF are:
     Max number of different atomic species (ntypx) = 10
     Max number of k-points (npk) =  40000
     Max angular momentum in pseudopotentials (lmaxx) =  3
     Presently no symmetry can be used with electric field

     Message from routine cell_base_init:
     DEPRECATED: use true lattice parameter, not A to a.u. conversion factor

     IMPORTANT: XC functional enforced from input :
     Exchange-correlation= BEEF-VDW
                           (   1   4  43  14   2   0   0)
     Any further DFT definition will be discarded
     Please, verify this is what you really want

  @ DRIVER MODE: Connecting to
 qe_1139763_2632804.sched-torque.pace.gatech.edurpv46iz1_scratch
  using UNIX socket
  @ DRIVER MODE: Message from server: STATUS
  @ DRIVER MODE: Message from server: INIT
  @ DRIVER MODE: Receiving replica           0          -1
  @ DRIVER MODE: Receiving encoded integer          25
  @ DRIVER MODE:  SCF:  T  FORCE:  T  STRESS:  F  VC:  F  ENSEMBLE:  F
  @ DRIVER MODE:  SCF:  T  FORCE:  T  STRESS:  F  VC:  F  ENSEMBLE:  F

     Using Slab Decomposition

     bravais-lattice index     =            0
     lattice parameter (alat)  =       1.8897  a.u.
     unit-cell volume          =    6658.9804 (a.u.)^3
     number of atoms/cell      =           53
     number of atomic types    =            5
     number of electrons       =       395.00
     number of Kohn-Sham states=          207
     kinetic-energy cutoff     =      29.3995  Ry
     charge density cutoff     =     293.9946  Ry
     scf convergence threshold =      7.3E-08
     mixing beta               =       0.0500
     number of iterations used =            8  plain     mixing
     Exchange-correlation= BEEF-VDW
                           (   1   4  43  14   2   0   0)

     celldm(1)=   1.889726  celldm(2)=   0.000000  celldm(3)=   0.000000
     celldm(4)=   0.000000  celldm(5)=   0.000000  celldm(6)=   0.000000

     crystal axes: (cart. coord. in units of alat)
               a(1) = (   6.579727   0.000000   0.000000 )
               a(2) = (  -0.000775   5.961596   0.000000 )
               a(3) = (   0.000000   0.000000  25.155947 )

     reciprocal axes: (cart. coord. in units 2 pi/alat)
               b(1) = (  0.151982  0.000020  0.000000 )
               b(2) = (  0.000000  0.167740  0.000000 )
               b(3) = (  0.000000  0.000000  0.039752 )

     PseudoPot. # 1 for Ti read from file:
     /storage/coda1/p-amedford6/0/shared/rich_project_chbe-medford/medford-share/data/pseudos_module/espresso/nninc/pbe/van/Ti.UPF
     MD5 check sum: 8e4df49b7f0d34bbd5052bf3f5ea0213
     Pseudo is Ultrasoft, Zval = 12.0
     Generated by new atomic code, or converted to UPF format
     Using radial grid of  851 points,  6 beta functions with:
                l(1) =   0
                l(2) =   0
                l(3) =   1
                l(4) =   1
                l(5) =   2
                l(6) =   2
     Q(r) pseudized with  8 coefficients,  rinner =    1.000   1.000   1.000
                                                       1.000   1.000

     PseudoPot. # 2 for O  read from file:
     /storage/coda1/p-amedford6/0/shared/rich_project_chbe-medford/medford-share/data/pseudos_module/espresso/nninc/pbe/van/O.UPF
     MD5 check sum: 78c19812648e8988a0fe644b0f25305e
     Pseudo is Ultrasoft, Zval =  6.0
     Generated by new atomic code, or converted to UPF format
     Using radial grid of  737 points,  4 beta functions with:
                l(1) =   0
                l(2) =   0
                l(3) =   1
                l(4) =   1
     Q(r) pseudized with  8 coefficients,  rinner =    0.800   0.800   0.800

     PseudoPot. # 3 for H  read from file:
     /storage/coda1/p-amedford6/0/shared/rich_project_chbe-medford/medford-share/data/pseudos_module/espresso/nninc/pbe/van/H.UPF
     MD5 check sum: b5ee9d7bfd3a09ee7748110bda690ff7
     Pseudo is Ultrasoft, Zval =  1.0
     Generated by new atomic code, or converted to UPF format
     Using radial grid of  615 points,  1 beta functions with:
                l(1) =   0
     Q(r) pseudized with  8 coefficients,  rinner =    0.800

     PseudoPot. # 4 for N  read from file:
     /storage/coda1/p-amedford6/0/shared/rich_project_chbe-medford/medford-share/data/pseudos_module/espresso/nninc/pbe/van/N.UPF
     MD5 check sum: 90d10febe142ad51ac9d5be1deb811c4
     Pseudo is Ultrasoft, Zval =  5.0
     Generated by new atomic code, or converted to UPF format
     Using radial grid of  729 points,  4 beta functions with:
                l(1) =   0
                l(2) =   0
                l(3) =   1
                l(4) =   1
     Q(r) pseudized with  8 coefficients,  rinner =    0.800   0.800   0.800

     PseudoPot. # 5 for C  read from file:
     /storage/coda1/p-amedford6/0/shared/rich_project_chbe-medford/medford-share/data/pseudos_module/espresso/nninc/pbe/van/C.UPF
     MD5 check sum: 1a69bf6b8db32088f5b2163dbdb77a27
     Pseudo is Ultrasoft, Zval =  4.0
     Generated by new atomic code, or converted to UPF format
     Using radial grid of  721 points,  4 beta functions with:
                l(1) =   0
                l(2) =   0
                l(3) =   1
                l(4) =   1
     Q(r) pseudized with  8 coefficients,  rinner =    0.800   0.800   0.800

     atomic species   valence    mass     pseudopotential
        Ti1           12.00    47.86700     Ti( 1.00)
        O1             6.00    15.99900     O ( 1.00)
        H1             1.00     1.00800     H ( 1.00)
        N1             5.00    14.00700     N ( 1.00)
        C1             4.00    12.01100     C ( 1.00)

     No symmetry found

   Cartesian axes

     site n.     atom                  positions (alat units)
         1           Ti1 tau(   1) = (   0.0004258   2.9801865   6.0000000  )
         2           Ti1 tau(   2) = (   3.2906075   1.4906267   6.0002472  )
         3           O1  tau(   3) = (   0.0006271   0.0005054   7.9858123  )
         4           O1  tau(   4) = (   3.2906025   0.0005020   7.3038282  )
         5           O1  tau(   5) = (   4.5942328   1.4918067   9.2879030  )
         6           O1  tau(   6) = (   1.9868534   1.4903216   9.2879459  )
         7           Ti1 tau(   7) = (   3.2907910   2.8959150   9.1758416  )
         8           Ti1 tau(   8) = (   0.0015273   1.4827037   9.2680791  )
         9           O1  tau(   9) = (   3.2899722   5.9582610  11.3470199  )
        10           O1  tau(  10) = (   0.0116148   5.9584955  10.6183126  )
        11           O1  tau(  11) = (   1.3017974   1.5038179  12.6264390  )
        12           O1  tau(  12) = (   5.3008627   1.4977989  12.6274213  )
        13           Ti1 tau(  13) = (   6.5569486   2.9952213  12.5532680  )
        14           Ti1 tau(  14) = (   3.2411515   1.4937708  12.4940153  )
        15           O1  tau(  15) = (   0.0420230   0.0496738  14.6358928  )
        16           O1  tau(  16) = (   3.2967895   0.0255587  13.9395418  )
        17           O1  tau(  17) = (   4.5559197   1.4885259  16.1071037  )
        18           O1  tau(  18) = (   2.0591626   1.5161495  16.1621771  )
        19           Ti1 tau(  19) = (   3.3530411   3.0041182  15.7164831  )
        20           Ti1 tau(  20) = (   0.0838170   1.4186333  16.1871295  )
        21           O1  tau(  21) = (   3.2904802   0.0005063   4.7018136  )
        22           O1  tau(  22) = (   0.0186128   5.8515937  17.1570623  )
        23           O1  tau(  23) = (   1.3043587   1.4918075   6.0039043  )
        24           O1  tau(  24) = (   5.2767064   1.4903225   6.0039473  )
        25           Ti1 tau(  25) = (   0.0000382   5.9609847   6.0000000  )
        26           Ti1 tau(  26) = (   3.2902200   4.4714249   6.0002472  )
        27           O1  tau(  27) = (   0.0002396   2.9813036   7.9858123  )
        28           O1  tau(  28) = (   3.2902150   2.9813002   7.3038282  )
        29           O1  tau(  29) = (   4.5938453   4.4726049   9.2879030  )
        30           O1  tau(  30) = (   1.9864658   4.4711199   9.2879459  )
        31           Ti1 tau(  31) = (   3.2891106   5.8743827   9.1763621  )
        32           Ti1 tau(  32) = (   0.0006254   4.4649316   9.2693709  )
        33           O1  tau(  33) = (   3.2942209   2.9913469  11.3437431  )
        34           O1  tau(  34) = (   0.0092240   2.9805883  10.6323155  )
        35           O1  tau(  35) = (   1.3035300   4.4624727  12.6575770  )
        36           O1  tau(  36) = (   5.3036227   4.4740614  12.6577195  )
        37           Ti1 tau(  37) = (   6.5462442   0.0298550  12.5256591  )
        38           Ti1 tau(  38) = (   3.2421849   4.4737490  12.5077532  )
        39           O1  tau(  39) = (   0.0112388   2.9415499  14.8853239  )
        40           O1  tau(  40) = (   3.3099764   2.9718378  13.9238501  )
        41           O1  tau(  41) = (   4.5641009   4.4837371  16.0358624  )
        42           O1  tau(  42) = (   2.0725645   4.4682733  16.0457710  )
        43           Ti1 tau(  43) = (   3.3278145   0.0095312  15.7444629  )
        44           Ti1 tau(  44) = (   0.0453891   4.6133464  15.7643304  )
        45           O1  tau(  45) = (   3.2900926   2.9813045   4.7018136  )
        46           O1  tau(  46) = (   1.3039711   4.4726057   6.0039043  )
        47           O1  tau(  47) = (   5.2763189   4.4711207   6.0039473  )
        48           H1  tau(  48) = (   4.6525291   2.0178258  18.2241430  )
        49           N1  tau(  49) = (   6.4431608   2.5827981  18.1004554  )
        50           C1  tau(  50) = (   0.9260493   3.0590344  18.7174074  )
        51           H1  tau(  51) = (   0.8415052   3.4111086  19.7359056  )
        52           H1  tau(  52) = (   1.8727361   3.0611994  18.2151121  )
        53           N1  tau(  53) = (   5.2929592   2.6053404  18.7494781  )

     number of k points=    10  Fermi-Dirac smearing, width (Ry)=  0.0073
                       cart. coord. in units 2pi/alat
        k(    1) = (   0.0000000   0.0000000   0.0000000), wk =   0.1250000
        k(    2) = (   0.0000000   0.0419351   0.0000000), wk =   0.2500000
        k(    3) = (   0.0000000  -0.0838702   0.0000000), wk =   0.1250000
        k(    4) = (   0.0379955   0.0000049   0.0000000), wk =   0.2500000
        k(    5) = (   0.0379955   0.0419400   0.0000000), wk =   0.2500000
        k(    6) = (   0.0379955  -0.0838652   0.0000000), wk =   0.2500000
        k(    7) = (   0.0379955  -0.0419301   0.0000000), wk =   0.2500000
        k(    8) = (  -0.0759910  -0.0000099   0.0000000), wk =   0.1250000
        k(    9) = (  -0.0759910   0.0419252   0.0000000), wk =   0.2500000
        k(   10) = (  -0.0759910  -0.0838800   0.0000000), wk =   0.1250000

     Initial potential from superposition of free atoms

     starting charge  378.99916, renormalised to  395.00000

     negative rho (up, down):  1.717E-02 0.000E+00

     %%%%%%%%%%%%%%%%%%%%%%%%%%%%%%%%%%%%%%%%%%%%%%%%%%%%%%%%%%%%%%%%%%%%%%%%
     %                                                                      %
     % You are using vdW-DF, which was implemented by the Thonhauser group. %
     % Please cite the following two papers that made this development      %
     % possible and the two reviews that describe the various versions:     %
     %                                                                      %
     %   T. Thonhauser et al., PRL 115, 136402 (2015).                      %
     %   T. Thonhauser et al., PRB 76, 125112 (2007).                       %
     %   K. Berland et al., Rep. Prog. Phys. 78, 066501 (2015).             %
     %   D.C. Langreth et al., J. Phys.: Condens. Matter 21, 084203 (2009). %
     %                                                                      %
     %                                                                      %
     % If you are calculating the stress with vdW-DF, please also cite:     %
     %                                                                      %
     %   R. Sabatini et al., J. Phys.: Condens. Matter 24, 424209 (2012).   %
     %                                                                      %
     %%%%%%%%%%%%%%%%%%%%%%%%%%%%%%%%%%%%%%%%%%%%%%%%%%%%%%%%%%%%%%%%%%%%%%%%

     Adding external electric field

     Computed dipole along edir(3) :
        Dipole               -8.7849 Ry au,        -22.3290 Debye
        Dipole field         -0.0166 Ry au,

        Potential amp.        1.5368 Ry
        Total length         46.3494 bohr

     Starting wfcs are  299 atomic wfcs
  @ DRIVER MODE: Message from server: STATUS
  @ DRIVER MODE: Message from server: POSDATA
  @ DRIVER MODE: Reading and sharing cell
  @ DRIVER MODE: Reading and sharing positions
  @ DRIVER MODE: Received positions

     Self-consistent Calculation

     iteration #  1     ecut=    29.40 Ry     beta= 0.05
     Davidson diagonalization with overlap
     c_bands:  1 eigenvalues not converged
     c_bands:  1 eigenvalues not converged
     c_bands:  1 eigenvalues not converged
     c_bands:  2 eigenvalues not converged
     c_bands:  2 eigenvalues not converged
     c_bands:  1 eigenvalues not converged
     c_bands:  2 eigenvalues not converged
     ethr =  1.00E-05,  avg # of iterations = 18.8

[...]

     total energy              =   -2593.22682786 Ry
     estimated scf accuracy    <    3846.00479070 Ry

     iteration #  2     ecut=    29.40 Ry     beta= 0.05
     Davidson diagonalization with overlap
     ethr =  1.00E-02,  avg # of iterations = 22.7

[...]

     iteration # 76     ecut=    29.40 Ry     beta= 0.05
     Davidson diagonalization with overlap
     ethr =  1.02E-10,  avg # of iterations =  6.0

[...]

     total energy              =   -2939.05439465 Ry
     estimated scf accuracy    <       0.00000024 Ry

     iteration # 78     ecut=    29.40 Ry     beta= 0.05
     Davidson diagonalization with overlap
     c_bands:  1 eigenvalues not converged
     ethr =  6.08E-11,  avg # of iterations = 14.7

     negative rho (up, down):  1.684E-02 0.000E+00

     Adding external electric field

     Computed dipole along edir(3) :
        Dipole                0.0817 Ry au,          0.2076 Debye
        Dipole field          0.0002 Ry au,

        Potential amp.       -0.0143 Ry
        Total length         46.3494 bohr

     End of self-consistent calculation

          k = 0.0000 0.0000 0.0000 ( 18029 PWs)   bands (ev):

   -56.2643 -56.2409 -56.2273 -56.2068 -56.1474 -56.1443 -56.1097 -56.1086
   -56.0716 -56.0619 -56.0364 -56.0293 -55.8988 -55.6982 -55.2446 -55.2106
   -32.8247 -32.7292 -32.6404 -32.6062 -32.5719 -32.5707 -32.5540 -32.5315
   -32.4863 -32.4841 -32.4791 -32.4671 -32.4374 -32.4107 -32.4060 -32.3932
   -32.3854 -32.3810 -32.3728 -32.3690 -32.3508 -32.3328 -32.3177 -32.2977
   -32.2930 -32.2870 -32.2855 -32.2720 -32.2651 -32.2647 -32.2523 -32.2306
   -32.2160 -32.2149 -32.1988 -32.1864 -32.1718 -32.1492 -32.1181 -32.0462
   -31.9238 -31.8572 -31.6528 -31.5617 -31.5395 -31.4695 -31.3828 -31.2717
   -17.6591 -17.0446 -16.7708 -16.5571 -16.4578 -16.4381 -16.2935 -16.1525
   -16.0572 -15.9730 -15.9388 -15.8724 -15.8611 -15.8041 -15.7964 -15.7852
   -15.7611 -15.7440 -15.7299 -15.6846 -15.6736 -15.6423 -15.6321 -15.6101
   -15.5654 -15.4796 -15.4357 -15.4032 -15.3486 -14.7940 -13.7470 -13.6301
   -12.0085  -7.0478  -5.3006  -4.4111  -4.2578  -4.1666  -4.1603  -4.1340
    -3.9593  -3.8377  -3.6856  -3.5885  -3.4884  -3.4433  -3.4414  -3.4134
    -3.3245  -3.2013  -3.1740  -3.1049  -3.0742  -3.0616  -3.0570  -3.0368
    -2.9962  -2.9542  -2.9431  -2.8773  -2.8463  -2.7804  -2.6999  -2.6746
    -2.5997  -2.5790  -2.5506  -2.5367  -2.5337  -2.5255  -2.5015  -2.4745
    -2.4067  -2.3105  -2.2282  -2.1325  -2.0625  -1.9956  -1.9309  -1.8872
    -1.8263  -1.7869  -1.7474  -1.7221  -1.6534  -1.5846  -1.5044  -1.4633
    -1.4007  -1.3643  -1.3145  -1.2464  -1.1870  -1.1315  -1.0552  -1.0455
    -1.0424  -1.0238  -0.9914  -0.8144  -0.7670  -0.7555  -0.7407  -0.6941
    -0.6382  -0.6047  -0.4994  -0.4837  -0.4427  -0.4246  -0.3506  -0.3302
    -0.2962  -0.2870  -0.2623  -0.1993  -0.1088  -0.0918  -0.0671  -0.0186
     0.0296   0.1800   0.3676   0.4275   0.4764   0.6958   0.7763   0.7780
     0.9660   1.3511   1.3979   1.5885   2.7368   2.8508   2.9414   2.9650
     2.9889   3.0838   3.1143   3.3187   3.3239   3.3652   3.3756

[...]

          k = 0.0380-0.0419 0.0000 ( 17876 PWs)   bands (ev):

[...]

          k =-0.0760-0.0000 0.0000 ( 17886 PWs)   bands (ev):

[...]

          k =-0.0760-0.0839 0.0000 ( 17948 PWs)   bands (ev):

   -56.2500 -56.2413 -56.2238 -56.2237 -56.1370 -56.1288 -56.1250 -56.1190
   -56.0544 -56.0519 -56.0468 -56.0457 -55.8975 -55.6993 -55.2276 -55.2275
   -32.6303 -32.6252 -32.5445 -32.5442 -32.5324 -32.5174 -32.5171 -32.5168
   -32.4847 -32.4692 -32.4642 -32.4485 -32.4177 -32.4026 -32.3975 -32.3942
   -32.3849 -32.3842 -32.3817 -32.3790 -32.3440 -32.3431 -32.3429 -32.3399
   -32.3368 -32.3364 -32.3241 -32.3210 -32.2855 -32.2786 -32.2771 -32.2681
   -32.2671 -32.2622 -32.2607 -32.2340 -32.2309 -32.1526 -32.1265 -32.0533
   -31.9262 -31.9245 -31.5522 -31.5521 -31.4654 -31.4654 -31.4262 -31.4261
   -17.6524 -16.4707 -16.4372 -16.2929 -16.2257 -16.2011 -16.1851 -16.1616
   -16.0257 -15.9784 -15.9688 -15.9428 -15.9132 -15.9071 -15.8486 -15.8341
   -15.8229 -15.8144 -15.8044 -15.7524 -15.7482 -15.7379 -15.7178 -15.7128
   -15.6891 -15.6571 -15.6010 -15.5992 -15.2282 -15.1859 -13.7317 -13.7317
   -12.0235  -6.9692  -5.2609  -3.8408  -3.7481  -3.7108  -3.5656  -3.4399
    -3.4236  -3.4207  -3.2766  -3.2316  -3.2127  -3.1901  -3.1322  -3.1161
    -3.1061  -3.0844  -3.0692  -3.0563  -3.0304  -3.0006  -2.9874  -2.9673
    -2.9576  -2.9389  -2.9210  -2.8966  -2.8931  -2.8792  -2.8352  -2.8255
    -2.8007  -2.7823  -2.6107  -2.5566  -2.5385  -2.4404  -2.4382  -2.4118
    -2.3783  -2.3307  -2.3110  -2.2601  -2.2206  -2.1878  -2.0508  -1.9963
    -1.9829  -1.9335  -1.9136  -1.8499  -1.7626  -1.7291  -1.6893  -1.6546
    -1.5634  -1.5189  -1.5093  -1.4670  -1.4212  -1.4097  -1.3359  -1.2857
    -1.2225  -1.2206  -1.2134  -1.1702  -1.0555  -1.0391  -1.0249  -1.0223
    -0.9753  -0.9646  -0.9092  -0.8243  -0.7039  -0.6481  -0.6190  -0.4493
    -0.3675  -0.2975  -0.1938  -0.1528  -0.1070  -0.0835  -0.0277   0.0363
     0.0430   0.1050   0.1306   0.2166   0.2276   0.2347   0.3074   1.1385
     1.1390   1.2179   1.2182   1.5853   2.6957   3.1164   3.1494   3.1757
     3.1854   3.3456   3.3700   3.4092   3.4113   3.4841   3.5088

     the Fermi energy is     2.8806 ev

!    total energy              =   -2939.05440549 Ry
     estimated scf accuracy    <       0.00000006 Ry
     smearing contrib. (-TS)   =      -0.03328736 Ry
     internal energy E=F+TS    =   -2939.02111812 Ry

     The total energy is F=E-TS. E is the sum of the following terms:
     one-electron contribution =  -24160.15203340 Ry
     hartree contribution      =   12163.32680899 Ry
     xc contribution           =    -485.18334183 Ry
     ewald contribution        =    9542.98743552 Ry
     electric field correction =       0.00001259 Ry

     convergence has been achieved in  78 iterations

     Forces acting on atoms (cartesian axes, Ry/au):

     atom    1 type  1   force =     0.00009502   -0.00025123    0.09470124
     atom    2 type  1   force =     0.00010428   -0.00054018   -0.17673273
     atom    3 type  2   force =     0.00011999   -0.00001574   -0.02174037
     atom    4 type  2   force =     0.00001667   -0.00163152    0.05554911
     atom    5 type  2   force =    -0.01058266   -0.00065472    0.00569386
     atom    6 type  2   force =     0.01212322    0.00003219    0.00513907
     atom    7 type  1   force =     0.00035504    0.00219228   -0.01237777
     atom    8 type  1   force =     0.00038262    0.00262096    0.00925452
     atom    9 type  2   force =     0.00020872   -0.00033311   -0.00023501
     atom   10 type  2   force =    -0.00208848    0.00001946   -0.00889574
     atom   11 type  2   force =     0.00086783   -0.00012390    0.00003639
     atom   12 type  2   force =    -0.00026805   -0.00007200    0.00042826
     atom   13 type  1   force =    -0.00036509   -0.00039995    0.00084576
     atom   14 type  1   force =     0.00055517   -0.00043265    0.00071410
     atom   15 type  2   force =    -0.00019386   -0.00038576    0.00007612
     atom   16 type  2   force =    -0.00003947   -0.00041325    0.00068026
     atom   17 type  2   force =     0.00044896   -0.00039309   -0.00048342
     atom   18 type  2   force =     0.00021537   -0.00038974   -0.00052278
     atom   19 type  1   force =    -0.00054826   -0.00053305    0.00002876
     atom   20 type  1   force =     0.00080453    0.00028304   -0.00058608
     atom   21 type  2   force =     0.00009332   -0.00011050    0.10356286
     atom   22 type  2   force =    -0.00019621    0.00002998    0.00098467
     atom   23 type  2   force =    -0.07097942   -0.00023907   -0.02724779
     atom   24 type  2   force =     0.07096485    0.00023759   -0.02729519
     atom   25 type  1   force =     0.00027570   -0.00026201    0.09413224
     atom   26 type  1   force =     0.00011252   -0.00041623   -0.17689040
     atom   27 type  2   force =     0.00010886   -0.00041338   -0.02063929
     atom   28 type  2   force =     0.00010066   -0.00136982    0.05522892
     atom   29 type  2   force =    -0.01064904   -0.00021850    0.00493565
     atom   30 type  2   force =     0.01206473   -0.00000736    0.00430041
     atom   31 type  1   force =     0.00037158    0.00374859   -0.01355859
     atom   32 type  1   force =     0.00032380   -0.00313678    0.00922524
     atom   33 type  2   force =     0.00004797   -0.00000240    0.00007355
     atom   34 type  2   force =    -0.00266254    0.00249306   -0.00571048
     atom   35 type  2   force =     0.00104544    0.00031079    0.00008008
     atom   36 type  2   force =    -0.00076171    0.00002682    0.00079459
     atom   37 type  1   force =    -0.00058035    0.00023593    0.00006485
     atom   38 type  1   force =     0.00059839    0.00015078   -0.00022887
     atom   39 type  2   force =     0.00035867   -0.00004555   -0.00026453
     atom   40 type  2   force =     0.00008260   -0.00009720   -0.00049304
     atom   41 type  2   force =     0.00058149   -0.00001710   -0.00044378
     atom   42 type  2   force =     0.00039905    0.00005745   -0.00022847
     atom   43 type  1   force =    -0.00101303   -0.00026535   -0.00095300
     atom   44 type  1   force =     0.00034724   -0.00100142   -0.00030447
     atom   45 type  2   force =     0.00008361   -0.00014501    0.10354416
     atom   46 type  2   force =    -0.07099469   -0.00015868   -0.02724211
     atom   47 type  2   force =     0.07098297    0.00022536   -0.02726768
     atom   48 type  3   force =    -0.00403858   -0.00483962   -0.00471104
     atom   49 type  4   force =     0.00233470   -0.00161849   -0.00674747
     atom   50 type  5   force =    -0.00056040    0.00132076    0.00131505
     atom   51 type  3   force =    -0.00113723    0.00071543    0.00132656
     atom   52 type  3   force =     0.00045362    0.00035751    0.00008888
     atom   53 type  4   force =    -0.00037009    0.00587638    0.00899491

     Total force =     0.365396     Total SCF correction =     0.000591
  @ DRIVER MODE: Message from server: STATUS
  @ DRIVER MODE: Message from server: GETFORCE
  @ DRIVER MODE: Returning v,forces,stress,ensemble

     Writing output data file ./calc.save/
  @ DRIVER MODE: Message from server: EXIT
  @ DRIVE MODE: Exiting

     General routines

     Parallel routines

   This run was terminated on:   8:38:34  24Aug2021

   JOB DONE.