     Program PWSCF v.6.7GPU starts on  2Aug2021 at 19:16: 5

     R & G space division:  proc/nbgrp/npool/nimage =      16
     Reading input from /storage/home/hcoda1/3/ntian30/research/carbon/02Aug_vib_paired/ads_slab/CH3N2_b/out_0023/pw.inp
Warning: card &CELL ignored
Warning: card   CELL_DYNAMICS='IPI', ignored
Warning: card / ignored

     Current dimensions of program PWSCF are:
     Max number of different atomic species (ntypx) = 10
     Max number of k-points (npk) =  40000
     Max angular momentum in pseudopotentials (lmaxx) =  3
     Presently no symmetry can be used with electric field

     Message from routine cell_base_init:
     DEPRECATED: use true lattice parameter, not A to a.u. conversion factor

     IMPORTANT: XC functional enforced from input :
     Exchange-correlation= BEEF-VDW
                           (   1   4  43  14   2   0   0)
     Any further DFT definition will be discarded
     Please, verify this is what you really want

  @ DRIVER MODE: Connecting to
 qe_1139763_2482536.sched-torque.pace.gatech.edu2pu01rc0_scratch
  using UNIX socket
  @ DRIVER MODE: Message from server: STATUS
  @ DRIVER MODE: Message from server: INIT
  @ DRIVER MODE: Receiving replica           0          -1
  @ DRIVER MODE: Receiving encoded integer          25
  @ DRIVER MODE:  SCF:  T  FORCE:  T  STRESS:  F  VC:  F  ENSEMBLE:  F
  @ DRIVER MODE:  SCF:  T  FORCE:  T  STRESS:  F  VC:  F  ENSEMBLE:  F

     Using Slab Decomposition

     bravais-lattice index     =            0
     lattice parameter (alat)  =       1.8897  a.u.
     unit-cell volume          =    6658.9804 (a.u.)^3
     number of atoms/cell      =           53
     number of atomic types    =            5
     number of electrons       =       395.00
     number of Kohn-Sham states=          207
     kinetic-energy cutoff     =      29.3995  Ry
     charge density cutoff     =     293.9946  Ry
     scf convergence threshold =      7.3E-08
     mixing beta               =       0.0500
     number of iterations used =            8  plain     mixing
     Exchange-correlation= BEEF-VDW
                           (   1   4  43  14   2   0   0)

     celldm(1)=   1.889726  celldm(2)=   0.000000  celldm(3)=   0.000000
     celldm(4)=   0.000000  celldm(5)=   0.000000  celldm(6)=   0.000000

     crystal axes: (cart. coord. in units of alat)
               a(1) = (   6.579727   0.000000   0.000000 )
               a(2) = (  -0.000775   5.961596   0.000000 )
               a(3) = (   0.000000   0.000000  25.155947 )

     reciprocal axes: (cart. coord. in units 2 pi/alat)
               b(1) = (  0.151982  0.000020  0.000000 )
               b(2) = (  0.000000  0.167740  0.000000 )
               b(3) = (  0.000000  0.000000  0.039752 )

     PseudoPot. # 1 for Ti read from file:
     /storage/coda1/p-amedford6/0/shared/rich_project_chbe-medford/medford-share/data/pseudos_module/espresso/nninc/pbe/van/Ti.UPF
     MD5 check sum: 8e4df49b7f0d34bbd5052bf3f5ea0213
     Pseudo is Ultrasoft, Zval = 12.0
     Generated by new atomic code, or converted to UPF format
     Using radial grid of  851 points,  6 beta functions with:
                l(1) =   0
                l(2) =   0
                l(3) =   1
                l(4) =   1
                l(5) =   2
                l(6) =   2
     Q(r) pseudized with  8 coefficients,  rinner =    1.000   1.000   1.000
                                                       1.000   1.000

     PseudoPot. # 2 for O  read from file:
     /storage/coda1/p-amedford6/0/shared/rich_project_chbe-medford/medford-share/data/pseudos_module/espresso/nninc/pbe/van/O.UPF
     MD5 check sum: 78c19812648e8988a0fe644b0f25305e
     Pseudo is Ultrasoft, Zval =  6.0
     Generated by new atomic code, or converted to UPF format
     Using radial grid of  737 points,  4 beta functions with:
                l(1) =   0
                l(2) =   0
                l(3) =   1
                l(4) =   1
     Q(r) pseudized with  8 coefficients,  rinner =    0.800   0.800   0.800

     PseudoPot. # 3 for N  read from file:
     /storage/coda1/p-amedford6/0/shared/rich_project_chbe-medford/medford-share/data/pseudos_module/espresso/nninc/pbe/van/N.UPF
     MD5 check sum: 90d10febe142ad51ac9d5be1deb811c4
     Pseudo is Ultrasoft, Zval =  5.0
     Generated by new atomic code, or converted to UPF format
     Using radial grid of  729 points,  4 beta functions with:
                l(1) =   0
                l(2) =   0
                l(3) =   1
                l(4) =   1
     Q(r) pseudized with  8 coefficients,  rinner =    0.800   0.800   0.800

     PseudoPot. # 4 for C  read from file:
     /storage/coda1/p-amedford6/0/shared/rich_project_chbe-medford/medford-share/data/pseudos_module/espresso/nninc/pbe/van/C.UPF
     MD5 check sum: 1a69bf6b8db32088f5b2163dbdb77a27
     Pseudo is Ultrasoft, Zval =  4.0
     Generated by new atomic code, or converted to UPF format
     Using radial grid of  721 points,  4 beta functions with:
                l(1) =   0
                l(2) =   0
                l(3) =   1
                l(4) =   1
     Q(r) pseudized with  8 coefficients,  rinner =    0.800   0.800   0.800

     PseudoPot. # 5 for H  read from file:
     /storage/coda1/p-amedford6/0/shared/rich_project_chbe-medford/medford-share/data/pseudos_module/espresso/nninc/pbe/van/H.UPF
     MD5 check sum: b5ee9d7bfd3a09ee7748110bda690ff7
     Pseudo is Ultrasoft, Zval =  1.0
     Generated by new atomic code, or converted to UPF format
     Using radial grid of  615 points,  1 beta functions with:
                l(1) =   0
     Q(r) pseudized with  8 coefficients,  rinner =    0.800

     atomic species   valence    mass     pseudopotential
        Ti1           12.00    47.86700     Ti( 1.00)
        O1             6.00    15.99900     O ( 1.00)
        N1             5.00    14.00700     N ( 1.00)
        C1             4.00    12.01100     C ( 1.00)
        H1             1.00     1.00800     H ( 1.00)

     No symmetry found

   Cartesian axes

     site n.     atom                  positions (alat units)
         1           Ti1 tau(   1) = (   0.0004258   2.9801865   6.0000000  )
         2           Ti1 tau(   2) = (   3.2906075   1.4906267   6.0002472  )
         3           O1  tau(   3) = (   0.0006271   0.0005054   7.9858123  )
         4           O1  tau(   4) = (   3.2906025   0.0005020   7.3038282  )
         5           O1  tau(   5) = (   4.5942328   1.4918067   9.2879030  )
         6           O1  tau(   6) = (   1.9868534   1.4903216   9.2879459  )
         7           Ti1 tau(   7) = (   3.2907910   2.8959150   9.1758416  )
         8           Ti1 tau(   8) = (   0.0015273   1.4827037   9.2680791  )
         9           O1  tau(   9) = (   3.3037365   0.0094216  11.3222111  )
        10           O1  tau(  10) = (   0.0116148   5.9584955  10.6183126  )
        11           O1  tau(  11) = (   1.3152514   1.5075076  12.6320051  )
        12           O1  tau(  12) = (   5.3186361   1.4995162  12.6508707  )
        13           Ti1 tau(  13) = (   6.5540705   2.9956815  12.5884341  )
        14           Ti1 tau(  14) = (   3.2234832   1.4927074  12.4921739  )
        15           O1  tau(  15) = (   0.0610261   5.9052480  14.6017706  )
        16           O1  tau(  16) = (   3.2936532   0.0132264  13.8830087  )
        17           O1  tau(  17) = (   4.5722397   1.5061520  16.0138922  )
        18           O1  tau(  18) = (   2.0767725   1.5295127  16.0808449  )
        19           Ti1 tau(  19) = (   3.3650854   3.0251465  15.6907462  )
        20           Ti1 tau(  20) = (   0.0387768   1.3037779  15.7216176  )
        21           O1  tau(  21) = (   3.2904802   0.0005063   4.7018136  )
        22           O1  tau(  22) = (   0.0189486   0.1070799  17.1824039  )
        23           O1  tau(  23) = (   1.3043587   1.4918075   6.0039043  )
        24           O1  tau(  24) = (   5.2767064   1.4903225   6.0039473  )
        25           Ti1 tau(  25) = (   0.0000382   5.9609847   6.0000000  )
        26           Ti1 tau(  26) = (   3.2902200   4.4714249   6.0002472  )
        27           O1  tau(  27) = (   0.0002396   2.9813036   7.9858123  )
        28           O1  tau(  28) = (   3.2902150   2.9813002   7.3038282  )
        29           O1  tau(  29) = (   4.5938453   4.4726049   9.2879030  )
        30           O1  tau(  30) = (   1.9864658   4.4711199   9.2879459  )
        31           Ti1 tau(  31) = (   3.2891106   5.8743827   9.1763621  )
        32           Ti1 tau(  32) = (   0.0006254   4.4649316   9.2693709  )
        33           O1  tau(  33) = (   3.3043114   2.9829305  11.3227053  )
        34           O1  tau(  34) = (   0.0092240   2.9805883  10.6323155  )
        35           O1  tau(  35) = (   1.3131995   4.4620516  12.6081187  )
        36           O1  tau(  36) = (   5.3117129   4.4692194  12.6284301  )
        37           Ti1 tau(  37) = (   6.5303063   5.9583428  12.5400172  )
        38           Ti1 tau(  38) = (   3.2255477   4.4746212  12.4748647  )
        39           O1  tau(  39) = (   0.0377805   3.0059521  14.8845374  )
        40           O1  tau(  40) = (   3.3120027   2.9986483  13.8863452  )
        41           O1  tau(  41) = (   4.5434534   4.5277214  16.0148975  )
        42           O1  tau(  42) = (   2.1165747   4.4940517  16.0783766  )
        43           Ti1 tau(  43) = (   3.3042555   0.0241951  15.7004812  )
        44           Ti1 tau(  44) = (   0.0495666   4.4505358  16.3362958  )
        45           O1  tau(  45) = (   3.2900926   2.9813045   4.7018136  )
        46           O1  tau(  46) = (   1.3039711   4.4726057   6.0039043  )
        47           O1  tau(  47) = (   5.2763189   4.4711207   6.0039473  )
        48           N1  tau(  48) = (   0.5348212   3.4288502  18.0689430  )
        49           C1  tau(  49) = (   1.3556880   3.0079929  19.2215664  )
        50           H1  tau(  50) = (   1.4862090   3.8900195  19.8496782  )
        51           H1  tau(  51) = (   0.8469181   2.2141957  19.7547163  )
        52           H1  tau(  52) = (   2.3296892   2.6851793  18.8624704  )
        53           N1  tau(  53) = (   5.9145885   3.2636146  17.9655992  )

     number of k points=    10  Fermi-Dirac smearing, width (Ry)=  0.0073
                       cart. coord. in units 2pi/alat
        k(    1) = (   0.0000000   0.0000000   0.0000000), wk =   0.1250000
        k(    2) = (   0.0000000   0.0419351   0.0000000), wk =   0.2500000
        k(    3) = (   0.0000000  -0.0838702   0.0000000), wk =   0.1250000
        k(    4) = (   0.0379955   0.0000049   0.0000000), wk =   0.2500000
        k(    5) = (   0.0379955   0.0419400   0.0000000), wk =   0.2500000
        k(    6) = (   0.0379955  -0.0838652   0.0000000), wk =   0.2500000
        k(    7) = (   0.0379955  -0.0419301   0.0000000), wk =   0.2500000
        k(    8) = (  -0.0759910  -0.0000099   0.0000000), wk =   0.1250000
        k(    9) = (  -0.0759910   0.0419252   0.0000000), wk =   0.2500000
        k(   10) = (  -0.0759910  -0.0838800   0.0000000), wk =   0.1250000

     Initial potential from superposition of free atoms

     starting charge  378.99916, renormalised to  395.00000

     negative rho (up, down):  1.611E-02 0.000E+00

     %%%%%%%%%%%%%%%%%%%%%%%%%%%%%%%%%%%%%%%%%%%%%%%%%%%%%%%%%%%%%%%%%%%%%%%%
     %                                                                      %
     % You are using vdW-DF, which was implemented by the Thonhauser group. %
     % Please cite the following two papers that made this development      %
     % possible and the two reviews that describe the various versions:     %
     %                                                                      %
     %   T. Thonhauser et al., PRL 115, 136402 (2015).                      %
     %   T. Thonhauser et al., PRB 76, 125112 (2007).                       %
     %   K. Berland et al., Rep. Prog. Phys. 78, 066501 (2015).             %
     %   D.C. Langreth et al., J. Phys.: Condens. Matter 21, 084203 (2009). %
     %                                                                      %
     %                                                                      %
     % If you are calculating the stress with vdW-DF, please also cite:     %
     %                                                                      %
     %   R. Sabatini et al., J. Phys.: Condens. Matter 24, 424209 (2012).   %
     %                                                                      %
     %%%%%%%%%%%%%%%%%%%%%%%%%%%%%%%%%%%%%%%%%%%%%%%%%%%%%%%%%%%%%%%%%%%%%%%%

     Adding external electric field

     Computed dipole along edir(3) :
        Dipole               -8.5778 Ry au,        -21.8027 Debye
        Dipole field         -0.0162 Ry au,

        Potential amp.        1.5006 Ry
        Total length         46.3494 bohr

     Starting wfcs are  299 atomic wfcs
  @ DRIVER MODE: Message from server: STATUS
  @ DRIVER MODE: Message from server: POSDATA
  @ DRIVER MODE: Reading and sharing cell
  @ DRIVER MODE: Reading and sharing positions
  @ DRIVER MODE: Received positions

     Self-consistent Calculation

     iteration #  1     ecut=    29.40 Ry     beta= 0.05
     Davidson diagonalization with overlap
     c_bands:  1 eigenvalues not converged
     c_bands:  2 eigenvalues not converged
     c_bands:  1 eigenvalues not converged
     c_bands:  3 eigenvalues not converged
     c_bands:  1 eigenvalues not converged
     c_bands:  2 eigenvalues not converged
     c_bands:  2 eigenvalues not converged
     c_bands:  2 eigenvalues not converged
     ethr =  1.00E-05,  avg # of iterations = 19.2

[...]

     total energy              =   -2599.38589829 Ry
     estimated scf accuracy    <    3763.25836663 Ry

     iteration #  2     ecut=    29.40 Ry     beta= 0.05
     Davidson diagonalization with overlap
     ethr =  1.00E-02,  avg # of iterations = 22.3

[...]

     iteration # 50     ecut=    29.40 Ry     beta= 0.05
     Davidson diagonalization with overlap
     c_bands:  1 eigenvalues not converged
     c_bands:  3 eigenvalues not converged
     c_bands:  2 eigenvalues not converged
     c_bands:  2 eigenvalues not converged
     ethr =  2.57E-06,  avg # of iterations = 17.7

[...]

     total energy              =   -2939.12540907 Ry
     estimated scf accuracy    <       0.00000015 Ry

     iteration # 77     ecut=    29.40 Ry     beta= 0.05
     Davidson diagonalization with overlap
     ethr =  2.27E-11,  avg # of iterations =  7.1

     negative rho (up, down):  1.618E-02 0.000E+00

     Adding external electric field

     Computed dipole along edir(3) :
        Dipole                0.9130 Ry au,          2.3206 Debye
        Dipole field          0.0017 Ry au,

        Potential amp.       -0.1597 Ry
        Total length         46.3494 bohr

     End of self-consistent calculation

          k = 0.0000 0.0000 0.0000 ( 18029 PWs)   bands (ev):

   -55.7756 -55.7696 -55.7415 -55.7336 -55.6832 -55.6348 -55.5962 -55.5622
   -55.5551 -55.5215 -55.5194 -55.4464 -54.9562 -54.8065 -54.7555 -54.7215
   -32.3185 -32.2596 -32.1745 -32.0957 -32.0679 -32.0561 -32.0471 -32.0209
   -32.0056 -31.9701 -31.9400 -31.9279 -31.9215 -31.9046 -31.8826 -31.8814
   -31.8785 -31.8781 -31.8650 -31.8349 -31.8328 -31.8214 -31.8003 -31.7916
   -31.7886 -31.7821 -31.7809 -31.7552 -31.7409 -31.7360 -31.7253 -31.7103
   -31.7065 -31.6690 -31.6361 -31.5638 -31.4925 -31.3380 -31.1675 -31.1625
   -31.1047 -31.0744 -31.0659 -31.0520 -30.9795 -30.9125 -30.8930 -30.7817
   -19.4393 -16.5171 -16.2523 -15.9669 -15.9152 -15.8410 -15.7476 -15.6245
   -15.5288 -15.4103 -15.3714 -15.3153 -15.3080 -15.2637 -15.2365 -15.2324
   -15.2064 -15.1981 -15.1340 -15.1264 -15.0761 -15.0644 -15.0163 -14.9815
   -14.9698 -14.9146 -14.8457 -14.8049 -14.6857 -14.1602 -13.2574 -13.1410
   -12.3164  -7.2625  -4.9444  -4.7915  -3.8994  -3.7570  -3.7053  -3.6849
    -3.6405  -3.4400  -3.3529  -3.2838  -3.0440  -2.9526  -2.9281  -2.9174
    -2.8683  -2.7110  -2.6675  -2.6045  -2.5885  -2.5622  -2.5402  -2.5321
    -2.4973  -2.4865  -2.4654  -2.4276  -2.3264  -2.2129  -2.1838  -2.1063
    -2.0904  -2.0749  -2.0446  -2.0347  -2.0248  -2.0153  -1.9971  -1.9592
    -1.8960  -1.8519  -1.7869  -1.7023  -1.5609  -1.5393  -1.4607  -1.3850
    -1.3053  -1.2627  -1.2408  -1.2124  -1.1727  -1.0930  -1.0670  -0.9208
    -0.8239  -0.7908  -0.7738  -0.7314  -0.6952  -0.5930  -0.5713  -0.5421
    -0.5331  -0.5054  -0.4317  -0.3754  -0.2433  -0.2125  -0.2087  -0.1710
    -0.1002  -0.0464   0.0070   0.0562   0.0641   0.0999   0.1600   0.1851
     0.1900   0.2327   0.2750   0.3498   0.3761   0.4501   0.4542   0.5182
     0.5620   0.6436   0.7514   0.8735   1.0168   1.1538   1.1983   1.2673
     1.3629   1.4592   1.8376   1.8832   2.1446   3.3377   3.4451   3.4685
     3.4807   3.5874   3.7960   3.8184   3.8676   3.8879   3.8960

[...]

          k = 0.0380-0.0419 0.0000 ( 17876 PWs)   bands (ev):

[...]

          k =-0.0760-0.0000 0.0000 ( 17886 PWs)   bands (ev):

[...]

          k =-0.0760-0.0839 0.0000 ( 17948 PWs)   bands (ev):

   -55.7585 -55.7585 -55.7523 -55.7507 -55.6760 -55.6420 -55.5791 -55.5788
   -55.5386 -55.5382 -55.5149 -55.4507 -54.9549 -54.8077 -54.7385 -54.7383
   -32.1221 -32.1185 -32.0749 -32.0748 -32.0533 -32.0532 -32.0195 -32.0047
   -31.9984 -31.9897 -31.9209 -31.9157 -31.9048 -31.8984 -31.8819 -31.8797
   -31.8791 -31.8778 -31.8775 -31.8722 -31.8538 -31.8512 -31.8499 -31.8136
   -31.7842 -31.7823 -31.7806 -31.7681 -31.7679 -31.7585 -31.7576 -31.7557
   -31.7545 -31.7363 -31.7117 -31.6608 -31.4397 -31.3201 -31.1693 -31.1589
   -31.0828 -31.0648 -31.0646 -30.9754 -30.9751 -30.9363 -30.9362 -30.9154
   -19.4372 -15.9176 -15.9114 -15.7500 -15.7155 -15.6498 -15.6410 -15.5732
   -15.5061 -15.4614 -15.4564 -15.3412 -15.3391 -15.3246 -15.3029 -15.2487
   -15.2325 -15.2312 -15.2276 -15.2198 -15.2082 -15.1807 -15.1500 -15.0993
   -15.0943 -15.0737 -15.0632 -14.9420 -14.5322 -14.4703 -13.2428 -13.2427
   -12.3189  -7.2494  -4.9459  -4.7897  -3.6306  -3.2068  -3.1905  -3.0026
    -2.9193  -2.9080  -2.8927  -2.7401  -2.7282  -2.7112  -2.6536  -2.6458
    -2.6369  -2.6003  -2.5842  -2.5602  -2.5205  -2.5148  -2.4678  -2.4650
    -2.4491  -2.4407  -2.4085  -2.4035  -2.3894  -2.3752  -2.3371  -2.2812
    -2.2426  -2.2155  -2.1873  -2.0911  -2.0299  -1.9941  -1.9269  -1.9183
    -1.8675  -1.8428  -1.8283  -1.7620  -1.6915  -1.6620  -1.5777  -1.4862
    -1.4678  -1.4524  -1.3337  -1.3198  -1.2451  -1.2212  -1.1374  -1.1204
    -1.0807  -0.9701  -0.9468  -0.9155  -0.8807  -0.8369  -0.7732  -0.7364
    -0.7344  -0.6858  -0.6416  -0.5854  -0.5241  -0.5122  -0.4969  -0.4881
    -0.4246  -0.3909  -0.3689  -0.2866  -0.2714  -0.1897  -0.0459  -0.0131
     0.1442   0.1934   0.3024   0.3299   0.4209   0.4425   0.5366   0.5398
     0.5726   0.7017   0.7205   0.7381   0.7543   0.7740   0.7980   0.9369
     1.6316   1.6318   1.7033   1.7033   2.0822   3.6709   3.7079   3.7581
     3.7800   3.8840   3.8890   3.8917   3.8994   4.0205   4.0254

     the Fermi energy is     3.3514 ev

!    total energy              =   -2939.12541767 Ry
     estimated scf accuracy    <       0.00000007 Ry
     smearing contrib. (-TS)   =      -0.02052527 Ry
     internal energy E=F+TS    =   -2939.10489240 Ry

     The total energy is F=E-TS. E is the sum of the following terms:
     one-electron contribution =  -24213.80578467 Ry
     hartree contribution      =   12195.63774055 Ry
     xc contribution           =    -485.20286959 Ry
     ewald contribution        =    9564.26444829 Ry
     electric field correction =       0.00157303 Ry

     convergence has been achieved in  77 iterations

     Forces acting on atoms (cartesian axes, Ry/au):

     atom    1 type  1   force =     0.00010200   -0.00019727    0.09585076
     atom    2 type  1   force =     0.00006075   -0.00061804   -0.17549380
     atom    3 type  2   force =     0.00017574   -0.00019213   -0.02304468
     atom    4 type  2   force =     0.00003999   -0.00128634    0.05262136
     atom    5 type  2   force =    -0.00977155   -0.00031727    0.00254093
     atom    6 type  2   force =     0.01165652    0.00022403    0.00292096
     atom    7 type  1   force =     0.00088538    0.00000871   -0.00991184
     atom    8 type  1   force =    -0.00000369    0.00532392    0.01817213
     atom    9 type  2   force =    -0.00001559   -0.00028752   -0.00010522
     atom   10 type  2   force =    -0.00253864    0.00216673   -0.01347794
     atom   11 type  2   force =    -0.00097755    0.00011081    0.00017019
     atom   12 type  2   force =     0.00039420   -0.00025439    0.00048659
     atom   13 type  1   force =     0.00010623   -0.00008691    0.00051843
     atom   14 type  1   force =    -0.00004153   -0.00016675   -0.00017191
     atom   15 type  2   force =    -0.00058870    0.00025046    0.00043098
     atom   16 type  2   force =    -0.00043765    0.00008112    0.00019938
     atom   17 type  2   force =    -0.00015486   -0.00008826   -0.00032200
     atom   18 type  2   force =     0.00028441    0.00021986    0.00008087
     atom   19 type  1   force =    -0.00060519   -0.00056417    0.00069239
     atom   20 type  1   force =    -0.00028111    0.00039273   -0.00076770
     atom   21 type  2   force =     0.00007210   -0.00005883    0.10319340
     atom   22 type  2   force =     0.00009446   -0.00001828   -0.00038023
     atom   23 type  2   force =    -0.07152941   -0.00018664   -0.02750905
     atom   24 type  2   force =     0.07150650    0.00031430   -0.02756553
     atom   25 type  1   force =     0.00013593   -0.00028969    0.09517027
     atom   26 type  1   force =     0.00009535   -0.00046943   -0.17563221
     atom   27 type  2   force =     0.00015716   -0.00012079   -0.02179635
     atom   28 type  2   force =     0.00008216   -0.00105996    0.05249441
     atom   29 type  2   force =    -0.01015393    0.00023500    0.00291482
     atom   30 type  2   force =     0.01197062    0.00052038    0.00329217
     atom   31 type  1   force =     0.00089187    0.00415015   -0.01178761
     atom   32 type  1   force =     0.00012070   -0.00633959    0.01830344
     atom   33 type  2   force =     0.00016261    0.00041747   -0.00010475
     atom   34 type  2   force =    -0.00308438   -0.00010507   -0.00865882
     atom   35 type  2   force =    -0.00021505    0.00006716    0.00000826
     atom   36 type  2   force =    -0.00003016    0.00028083   -0.00006598
     atom   37 type  1   force =     0.00045028   -0.00094237    0.00019764
     atom   38 type  1   force =    -0.00032274    0.00007981    0.00032943
     atom   39 type  2   force =     0.00011464   -0.00027395    0.00051946
     atom   40 type  2   force =    -0.00008466    0.00026563    0.00016928
     atom   41 type  2   force =     0.00002173   -0.00014297   -0.00018640
     atom   42 type  2   force =    -0.00044776    0.00013587   -0.00040230
     atom   43 type  1   force =     0.00023797    0.00048983    0.00007344
     atom   44 type  1   force =    -0.00015593   -0.00093186   -0.00089380
     atom   45 type  2   force =     0.00007738   -0.00006194    0.10313680
     atom   46 type  2   force =    -0.07154108   -0.00010319   -0.02749976
     atom   47 type  2   force =     0.07152796    0.00024957   -0.02756393
     atom   48 type  3   force =     0.00073437    0.00028845   -0.00031901
     atom   49 type  4   force =     0.00267610    0.00363354   -0.00453583
     atom   50 type  5   force =    -0.00000189   -0.00027857    0.00035003
     atom   51 type  5   force =    -0.00326934   -0.00428028    0.00433336
     atom   52 type  5   force =     0.00037621   -0.00055427   -0.00078516
     atom   53 type  3   force =     0.00104107    0.00037037   -0.00018938

     Total force =     0.364813     Total SCF correction =     0.000904
  @ DRIVER MODE: Message from server: STATUS
  @ DRIVER MODE: Message from server: GETFORCE
  @ DRIVER MODE: Returning v,forces,stress,ensemble

     Writing output data file ./calc.save/
  @ DRIVER MODE: Message from server: EXIT
  @ DRIVE MODE: Exiting

     General routines

     Parallel routines

   This run was terminated on:  19:35:38   2Aug2021

   JOB DONE.