     Program PWSCF v.6.7GPU starts on 16Sep2021 at 11: 0:14

     R & G space division:  proc/nbgrp/npool/nimage =      10
     Reading input from /storage/home/hcoda1/3/ntian30/research/carbon/CxH_vib/H2O_calc/ads_slab/CH2NNHHHH2O_a/out_0054/pw.inp
Warning: card &CELL ignored
Warning: card   CELL_DYNAMICS='IPI', ignored
Warning: card / ignored

     Current dimensions of program PWSCF are:
     Max number of different atomic species (ntypx) = 10
     Max number of k-points (npk) =  40000
     Max angular momentum in pseudopotentials (lmaxx) =  3
     Presently no symmetry can be used with electric field

     Message from routine cell_base_init:
     DEPRECATED: use true lattice parameter, not A to a.u. conversion factor

     IMPORTANT: XC functional enforced from input :
     Exchange-correlation= BEEF-VDW
                           (   1   4  43  14   2   0   0)
     Any further DFT definition will be discarded
     Please, verify this is what you really want

  @ DRIVER MODE: Connecting to
 qe_1139763_2852612.sched-torque.pace.gatech.edudizrsesa_scratch
  using UNIX socket
  @ DRIVER MODE: Message from server: STATUS
  @ DRIVER MODE: Message from server: INIT
  @ DRIVER MODE: Receiving replica           0          -1
  @ DRIVER MODE: Receiving encoded integer          25
  @ DRIVER MODE:  SCF:  T  FORCE:  T  STRESS:  F  VC:  F  ENSEMBLE:  F
  @ DRIVER MODE:  SCF:  T  FORCE:  T  STRESS:  F  VC:  F  ENSEMBLE:  F

     Using Slab Decomposition

     bravais-lattice index     =            0
     lattice parameter (alat)  =       1.8897  a.u.
     unit-cell volume          =    6658.9804 (a.u.)^3
     number of atoms/cell      =           58
     number of atomic types    =            5
     number of electrons       =       405.00
     number of Kohn-Sham states=          212
     kinetic-energy cutoff     =      29.3995  Ry
     charge density cutoff     =     293.9946  Ry
     scf convergence threshold =      7.3E-08
     mixing beta               =       0.0500
     number of iterations used =            8  plain     mixing
     Exchange-correlation= BEEF-VDW
                           (   1   4  43  14   2   0   0)

     celldm(1)=   1.889726  celldm(2)=   0.000000  celldm(3)=   0.000000
     celldm(4)=   0.000000  celldm(5)=   0.000000  celldm(6)=   0.000000

     crystal axes: (cart. coord. in units of alat)
               a(1) = (   6.579727   0.000000   0.000000 )
               a(2) = (  -0.000775   5.961596   0.000000 )
               a(3) = (   0.000000   0.000000  25.155947 )

     reciprocal axes: (cart. coord. in units 2 pi/alat)
               b(1) = (  0.151982  0.000020  0.000000 )
               b(2) = (  0.000000  0.167740  0.000000 )
               b(3) = (  0.000000  0.000000  0.039752 )

     PseudoPot. # 1 for Ti read from file:
     /storage/coda1/p-amedford6/0/shared/rich_project_chbe-medford/medford-share/data/pseudos_module/espresso/nninc/pbe/van/Ti.UPF
     MD5 check sum: 8e4df49b7f0d34bbd5052bf3f5ea0213
     Pseudo is Ultrasoft, Zval = 12.0
     Generated by new atomic code, or converted to UPF format
     Using radial grid of  851 points,  6 beta functions with:
                l(1) =   0
                l(2) =   0
                l(3) =   1
                l(4) =   1
                l(5) =   2
                l(6) =   2
     Q(r) pseudized with  8 coefficients,  rinner =    1.000   1.000   1.000
                                                       1.000   1.000

     PseudoPot. # 2 for O  read from file:
     /storage/coda1/p-amedford6/0/shared/rich_project_chbe-medford/medford-share/data/pseudos_module/espresso/nninc/pbe/van/O.UPF
     MD5 check sum: 78c19812648e8988a0fe644b0f25305e
     Pseudo is Ultrasoft, Zval =  6.0
     Generated by new atomic code, or converted to UPF format
     Using radial grid of  737 points,  4 beta functions with:
                l(1) =   0
                l(2) =   0
                l(3) =   1
                l(4) =   1
     Q(r) pseudized with  8 coefficients,  rinner =    0.800   0.800   0.800

     PseudoPot. # 3 for N  read from file:
     /storage/coda1/p-amedford6/0/shared/rich_project_chbe-medford/medford-share/data/pseudos_module/espresso/nninc/pbe/van/N.UPF
     MD5 check sum: 90d10febe142ad51ac9d5be1deb811c4
     Pseudo is Ultrasoft, Zval =  5.0
     Generated by new atomic code, or converted to UPF format
     Using radial grid of  729 points,  4 beta functions with:
                l(1) =   0
                l(2) =   0
                l(3) =   1
                l(4) =   1
     Q(r) pseudized with  8 coefficients,  rinner =    0.800   0.800   0.800

     PseudoPot. # 4 for C  read from file:
     /storage/coda1/p-amedford6/0/shared/rich_project_chbe-medford/medford-share/data/pseudos_module/espresso/nninc/pbe/van/C.UPF
     MD5 check sum: 1a69bf6b8db32088f5b2163dbdb77a27
     Pseudo is Ultrasoft, Zval =  4.0
     Generated by new atomic code, or converted to UPF format
     Using radial grid of  721 points,  4 beta functions with:
                l(1) =   0
                l(2) =   0
                l(3) =   1
                l(4) =   1
     Q(r) pseudized with  8 coefficients,  rinner =    0.800   0.800   0.800

     PseudoPot. # 5 for H  read from file:
     /storage/coda1/p-amedford6/0/shared/rich_project_chbe-medford/medford-share/data/pseudos_module/espresso/nninc/pbe/van/H.UPF
     MD5 check sum: b5ee9d7bfd3a09ee7748110bda690ff7
     Pseudo is Ultrasoft, Zval =  1.0
     Generated by new atomic code, or converted to UPF format
     Using radial grid of  615 points,  1 beta functions with:
                l(1) =   0
     Q(r) pseudized with  8 coefficients,  rinner =    0.800

     atomic species   valence    mass     pseudopotential
        Ti1           12.00    47.86700     Ti( 1.00)
        O1             6.00    15.99900     O ( 1.00)
        N1             5.00    14.00700     N ( 1.00)
        C1             4.00    12.01100     C ( 1.00)
        H1             1.00     1.00800     H ( 1.00)

     No symmetry found

   Cartesian axes

     site n.     atom                  positions (alat units)
         1           Ti1 tau(   1) = (   0.0004258   2.9801865   6.0000000  )
         2           Ti1 tau(   2) = (   3.2906075   1.4906267   6.0002472  )
         3           O1  tau(   3) = (   0.0006271   0.0005054   7.9858123  )
         4           O1  tau(   4) = (   3.2906025   0.0005020   7.3038282  )
         5           O1  tau(   5) = (   4.5942328   1.4918067   9.2879030  )
         6           O1  tau(   6) = (   1.9868534   1.4903216   9.2879459  )
         7           Ti1 tau(   7) = (   3.2907910   2.8959150   9.1758416  )
         8           Ti1 tau(   8) = (   0.0015273   1.4827037   9.2680791  )
         9           O1  tau(   9) = (   3.2987819   5.9401718  11.3551833  )
        10           O1  tau(  10) = (   0.0116148   5.9584955  10.6183126  )
        11           O1  tau(  11) = (   1.3094369   1.4889762  12.6418845  )
        12           O1  tau(  12) = (   5.3041503   1.4933078  12.6143371  )
        13           Ti1 tau(  13) = (   0.0302489   2.9730182  12.5448133  )
        14           Ti1 tau(  14) = (   3.3273137   1.4751619  12.4920661  )
        15           O1  tau(  15) = (   6.5331299   0.0759724  14.6728253  )
        16           O1  tau(  16) = (   3.3443954   0.0128112  13.9985917  )
        17           O1  tau(  17) = (   4.5384157   1.5150964  16.2525342  )
        18           O1  tau(  18) = (   2.0107438   1.5096167  16.1239609  )
        19           Ti1 tau(  19) = (   3.2468703   2.9375149  15.6823127  )
        20           Ti1 tau(  20) = (   6.5402329   1.3810098  16.1103674  )
        21           O1  tau(  21) = (   3.2904802   0.0005063   4.7018136  )
        22           O1  tau(  22) = (   0.0855018   5.8309792  17.2460454  )
        23           O1  tau(  23) = (   1.3043587   1.4918075   6.0039043  )
        24           O1  tau(  24) = (   5.2767064   1.4903225   6.0039473  )
        25           Ti1 tau(  25) = (   0.0000382   5.9609847   6.0000000  )
        26           Ti1 tau(  26) = (   3.2902200   4.4714249   6.0002472  )
        27           O1  tau(  27) = (   0.0002396   2.9813036   7.9858123  )
        28           O1  tau(  28) = (   3.2902150   2.9813002   7.3038282  )
        29           O1  tau(  29) = (   4.5938453   4.4726049   9.2879030  )
        30           O1  tau(  30) = (   1.9864658   4.4711199   9.2879459  )
        31           Ti1 tau(  31) = (   3.2891106   5.8743827   9.1763621  )
        32           Ti1 tau(  32) = (   0.0006254   4.4649316   9.2693709  )
        33           O1  tau(  33) = (   3.2978634   2.9839445  11.3486163  )
        34           O1  tau(  34) = (   0.0092240   2.9805883  10.6323155  )
        35           O1  tau(  35) = (   1.3057425   4.4725738  12.6940039  )
        36           O1  tau(  36) = (   5.3035974   4.4670288  12.6562451  )
        37           Ti1 tau(  37) = (   0.0240142   0.0094741  12.5095027  )
        38           Ti1 tau(  38) = (   3.3290383   4.4615466  12.5202027  )
        39           O1  tau(  39) = (   6.5484913   2.9337383  14.8377676  )
        40           O1  tau(  40) = (   3.3243726   2.9440003  13.9069550  )
        41           O1  tau(  41) = (   4.5478640   4.3999133  16.1372545  )
        42           O1  tau(  42) = (   2.0209518   4.4226222  15.9786897  )
        43           Ti1 tau(  43) = (   3.3220059   5.9437776  15.8132296  )
        44           Ti1 tau(  44) = (   0.0730556   4.5544523  15.7304118  )
        45           O1  tau(  45) = (   3.2900926   2.9813045   4.7018136  )
        46           O1  tau(  46) = (   1.3039711   4.4726057   6.0039043  )
        47           O1  tau(  47) = (   5.2763189   4.4711207   6.0039473  )
        48           N1  tau(  48) = (   0.0453545   2.8788619  17.9090770  )
        49           C1  tau(  49) = (   1.0089482   2.8008358  18.8431878  )
        50           H1  tau(  50) = (   1.0080222   3.4413729  19.7168629  )
        51           H1  tau(  51) = (   1.8954070   2.2543435  18.5800802  )
        52           N1  tau(  52) = (   5.5320326   3.6725468  18.4365114  )
        53           H1  tau(  53) = (   5.8975581   4.6271042  18.6377988  )
        54           H1  tau(  54) = (   4.8553295   3.8628436  17.6443034  )
        55           H1  tau(  55) = (   5.1025442   3.2364756  19.2632064  )
        56           O1  tau(  56) = (   2.8928424   5.6518753  18.2781889  )
        57           H1  tau(  57) = (   3.0708471   0.5134993  18.7460362  )
        58           H1  tau(  58) = (   1.9180978   5.6479514  18.1114729  )

     number of k points=    10  Fermi-Dirac smearing, width (Ry)=  0.0073
                       cart. coord. in units 2pi/alat
        k(    1) = (   0.0000000   0.0000000   0.0000000), wk =   0.1250000
        k(    2) = (   0.0000000   0.0419351   0.0000000), wk =   0.2500000
        k(    3) = (   0.0000000  -0.0838702   0.0000000), wk =   0.1250000
        k(    4) = (   0.0379955   0.0000049   0.0000000), wk =   0.2500000
        k(    5) = (   0.0379955   0.0419400   0.0000000), wk =   0.2500000
        k(    6) = (   0.0379955  -0.0838652   0.0000000), wk =   0.2500000
        k(    7) = (   0.0379955  -0.0419301   0.0000000), wk =   0.2500000
        k(    8) = (  -0.0759910  -0.0000099   0.0000000), wk =   0.1250000
        k(    9) = (  -0.0759910   0.0419252   0.0000000), wk =   0.2500000
        k(   10) = (  -0.0759910  -0.0838800   0.0000000), wk =   0.1250000

     Initial potential from superposition of free atoms

     starting charge  388.99913, renormalised to  405.00000

     negative rho (up, down):  1.580E-02 0.000E+00

     %%%%%%%%%%%%%%%%%%%%%%%%%%%%%%%%%%%%%%%%%%%%%%%%%%%%%%%%%%%%%%%%%%%%%%%%
     %                                                                      %
     % You are using vdW-DF, which was implemented by the Thonhauser group. %
     % Please cite the following two papers that made this development      %
     % possible and the two reviews that describe the various versions:     %
     %                                                                      %
     %   T. Thonhauser et al., PRL 115, 136402 (2015).                      %
     %   T. Thonhauser et al., PRB 76, 125112 (2007).                       %
     %   K. Berland et al., Rep. Prog. Phys. 78, 066501 (2015).             %
     %   D.C. Langreth et al., J. Phys.: Condens. Matter 21, 084203 (2009). %
     %                                                                      %
     %                                                                      %
     % If you are calculating the stress with vdW-DF, please also cite:     %
     %                                                                      %
     %   R. Sabatini et al., J. Phys.: Condens. Matter 24, 424209 (2012).   %
     %                                                                      %
     %%%%%%%%%%%%%%%%%%%%%%%%%%%%%%%%%%%%%%%%%%%%%%%%%%%%%%%%%%%%%%%%%%%%%%%%

     Adding external electric field

     Computed dipole along edir(3) :
        Dipole              -14.4863 Ry au,        -36.8204 Debye
        Dipole field         -0.0273 Ry au,

        Potential amp.        2.5342 Ry
        Total length         46.3494 bohr

     Starting wfcs are  307 atomic wfcs
  @ DRIVER MODE: Message from server: STATUS
  @ DRIVER MODE: Message from server: POSDATA
  @ DRIVER MODE: Reading and sharing cell
  @ DRIVER MODE: Reading and sharing positions
  @ DRIVER MODE: Received positions

     Self-consistent Calculation

     iteration #  1     ecut=    29.40 Ry     beta= 0.05
     Davidson diagonalization with overlap
     c_bands:  2 eigenvalues not converged
     c_bands:  5 eigenvalues not converged
     c_bands:  1 eigenvalues not converged
     c_bands:  3 eigenvalues not converged
     c_bands:  3 eigenvalues not converged
     c_bands:  4 eigenvalues not converged
     ethr =  1.00E-05,  avg # of iterations = 26.8

[...]

     total energy              =   -2173.16337393 Ry
     estimated scf accuracy    <    9122.58378808 Ry

     iteration #  2     ecut=    29.40 Ry     beta= 0.05
     Davidson diagonalization with overlap
     ethr =  1.00E-02,  avg # of iterations = 30.0

[...]

     iteration # 88     ecut=    29.40 Ry     beta= 0.05
     Davidson diagonalization with overlap
     ethr =  4.79E-11,  avg # of iterations = 10.1

[...]

     total energy              =   -2976.32715638 Ry
     estimated scf accuracy    <       0.00000011 Ry

     iteration # 89     ecut=    29.40 Ry     beta= 0.05
     Davidson diagonalization with overlap
     c_bands:  2 eigenvalues not converged
     ethr =  2.79E-11,  avg # of iterations = 12.7

     negative rho (up, down):  1.318E-02 0.000E+00

     Adding external electric field

     Computed dipole along edir(3) :
        Dipole                1.3370 Ry au,          3.3984 Debye
        Dipole field          0.0025 Ry au,

        Potential amp.       -0.2339 Ry
        Total length         46.3494 bohr

     End of self-consistent calculation

          k = 0.0000 0.0000 0.0000 ( 18029 PWs)   bands (ev):

   -55.1725 -55.1433 -55.1315 -55.1092 -55.0936 -55.0498 -55.0087 -54.9823
   -54.9714 -54.9562 -54.9468 -54.9387 -54.8729 -54.7262 -54.1552 -54.1211
   -31.7393 -31.6330 -31.5372 -31.5037 -31.4825 -31.4746 -31.4714 -31.4331
   -31.4111 -31.3883 -31.3824 -31.3801 -31.3682 -31.3469 -31.3207 -31.3175
   -31.3075 -31.2960 -31.2903 -31.2855 -31.2546 -31.2375 -31.2310 -31.2115
   -31.2002 -31.1825 -31.1806 -31.1799 -31.1709 -31.1683 -31.1516 -31.1425
   -31.1324 -31.1313 -31.1093 -31.1016 -31.0976 -31.0799 -31.0542 -31.0180
   -31.0030 -30.8719 -30.5636 -30.4717 -30.4495 -30.3802 -30.2936 -30.1824
   -19.0907 -18.8066 -16.0098 -15.7522 -15.6249 -15.4471 -15.3671 -15.2139
   -15.1437 -15.0612 -15.0344 -14.9691 -14.9320 -14.9002 -14.7874 -14.7806
   -14.7069 -14.7065 -14.6984 -14.6658 -14.6619 -14.6589 -14.6017 -14.5990
   -14.5596 -14.5484 -14.5360 -14.3943 -14.3191 -14.2621 -14.0916 -13.9767
   -12.6574 -12.5402  -9.0030  -7.6890  -6.9455  -6.5676  -5.7625  -3.7999
    -3.3467  -3.2102  -3.1762  -3.1137  -3.0726  -2.9760  -2.8943  -2.7731
    -2.5553  -2.4778  -2.4382  -2.3891  -2.3807  -2.3344  -2.2458  -2.1617
    -2.1296  -2.0936  -2.0441  -2.0288  -1.9875  -1.9612  -1.9422  -1.9009
    -1.8909  -1.7451  -1.6859  -1.6303  -1.5823  -1.5615  -1.5595  -1.5018
    -1.4889  -1.4668  -1.4640  -1.4537  -1.4235  -1.3866  -1.3816  -1.3288
    -1.2906  -1.1650  -1.0912  -0.9762  -0.9164  -0.8854  -0.8011  -0.7327
    -0.7162  -0.6440  -0.5802  -0.5604  -0.5030  -0.4653  -0.3748  -0.3411
    -0.2923  -0.2656  -0.1576  -0.1444  -0.1288  -0.0578   0.0318   0.0403
     0.0648   0.1096   0.1940   0.2287   0.2830   0.3092   0.4092   0.4404
     0.4823   0.5002   0.5253   0.6071   0.6778   0.7151   0.7759   0.7852
     0.8198   0.8249   0.8479   0.9420   0.9727   0.9779   1.0257   1.1924
     1.2491   1.4493   1.4510   1.7817   1.8172   1.8679   2.0541   2.4417
     2.4889   3.9266   3.9927   4.0412   4.0584   4.0767   4.1350   4.1693
     4.3970   4.4200   4.4340   4.4480

[...]

          k = 0.0380-0.0419 0.0000 ( 17876 PWs)   bands (ev):

[...]

          k =-0.0760-0.0000 0.0000 ( 17886 PWs)   bands (ev):

[...]

          k =-0.0760-0.0839 0.0000 ( 17948 PWs)   bands (ev):

   -55.1618 -55.1420 -55.1263 -55.1260 -55.0915 -55.0406 -55.0179 -54.9668
   -54.9610 -54.9581 -54.9566 -54.9546 -54.8711 -54.7279 -54.1381 -54.1381
   -31.5504 -31.5354 -31.4491 -31.4483 -31.4480 -31.4385 -31.4187 -31.4183
   -31.3841 -31.3788 -31.3690 -31.3675 -31.3373 -31.3090 -31.3015 -31.2994
   -31.2968 -31.2933 -31.2907 -31.2860 -31.2769 -31.2631 -31.2490 -31.2456
   -31.2453 -31.2433 -31.2410 -31.2147 -31.2000 -31.1920 -31.1810 -31.1766
   -31.1760 -31.1755 -31.1568 -31.1556 -31.1364 -31.1338 -31.0722 -31.0104
   -31.0067 -30.9460 -30.4622 -30.4622 -30.3762 -30.3761 -30.3369 -30.3369
   -19.0832 -18.8097 -15.5117 -15.3754 -15.3369 -15.2468 -15.1647 -15.1482
   -15.1408 -15.1069 -15.0548 -14.9950 -14.9499 -14.9153 -14.8739 -14.8726
   -14.8600 -14.7594 -14.7481 -14.7407 -14.7241 -14.6755 -14.6658 -14.6489
   -14.6237 -14.6220 -14.5969 -14.5163 -14.5153 -14.4174 -14.3118 -14.0379
   -12.6419 -12.6418  -8.9906  -7.7047  -6.9022  -6.5574  -5.7767  -3.8814
    -2.9830  -2.7694  -2.5748  -2.5467  -2.4277  -2.3754  -2.3297  -2.3083
    -2.2220  -2.1817  -2.1652  -2.1592  -2.1394  -2.0819  -2.0612  -2.0223
    -2.0020  -1.9879  -1.9803  -1.9552  -1.9500  -1.9189  -1.9019  -1.8835
    -1.8776  -1.8408  -1.8024  -1.7909  -1.7536  -1.7332  -1.7246  -1.6692
    -1.5686  -1.5356  -1.4914  -1.4258  -1.3621  -1.3584  -1.2889  -1.2691
    -1.2502  -1.2321  -1.1965  -1.1843  -1.0718  -1.0152  -0.9102  -0.8977
    -0.8921  -0.7869  -0.7530  -0.7115  -0.6812  -0.6439  -0.5882  -0.5101
    -0.5028  -0.4275  -0.3905  -0.3787  -0.3598  -0.2200  -0.1879  -0.1555
    -0.1307  -0.1263  -0.0731  -0.0292   0.0010   0.0384   0.0655   0.0985
     0.1146   0.1904   0.3270   0.3592   0.4010   0.5337   0.5615   0.6758
     0.7020   0.8220   0.8961   0.9401   0.9609   1.0383   1.1149   1.1373
     1.1430   1.2540   1.3048   1.3069   1.3241   2.2266   2.2281   2.3089
     2.3092   3.7810   4.0719   4.1972   4.2137   4.2550   4.3786   4.4441
     4.4793   4.5014   4.5041   4.5886

     the Fermi energy is     3.9755 ev

!    total energy              =   -2976.32716210 Ry
     estimated scf accuracy    <       0.00000004 Ry
     smearing contrib. (-TS)   =      -0.04073807 Ry
     internal energy E=F+TS    =   -2976.28642403 Ry

     The total energy is F=E-TS. E is the sum of the following terms:
     one-electron contribution =  -23817.61815820 Ry
     hartree contribution      =   12007.64110511 Ry
     xc contribution           =    -495.76129191 Ry
     ewald contribution        =    9329.44854736 Ry
     electric field correction =       0.00337361 Ry

     convergence has been achieved in  89 iterations

     Forces acting on atoms (cartesian axes, Ry/au):

     atom    1 type  1   force =     0.00015412   -0.00019911    0.09425335
     atom    2 type  1   force =    -0.00011747   -0.00035789   -0.17724293
     atom    3 type  2   force =     0.00008519    0.00003843   -0.02134130
     atom    4 type  2   force =     0.00001847   -0.00174203    0.05668742
     atom    5 type  2   force =    -0.01043223   -0.00127830    0.00673920
     atom    6 type  2   force =     0.01218992   -0.00072352    0.00625264
     atom    7 type  1   force =    -0.00028565    0.00287492   -0.01265505
     atom    8 type  1   force =    -0.00014571    0.00439715    0.00453890
     atom    9 type  2   force =    -0.00036525    0.00008986    0.00076993
     atom   10 type  2   force =    -0.00008396   -0.00089122   -0.00639546
     atom   11 type  2   force =    -0.00041806   -0.00033017    0.00006348
     atom   12 type  2   force =    -0.00031863   -0.00042420    0.00014738
     atom   13 type  1   force =    -0.00034253   -0.00017236   -0.00037035
     atom   14 type  1   force =     0.00003570   -0.00039346   -0.00041256
     atom   15 type  2   force =    -0.00019546   -0.00009556    0.00004113
     atom   16 type  2   force =    -0.00064545    0.00023823   -0.00005695
     atom   17 type  2   force =    -0.00014679    0.00001779    0.00024593
     atom   18 type  2   force =     0.00041831   -0.00031373    0.00055047
     atom   19 type  1   force =     0.00032778   -0.00098512   -0.00002918
     atom   20 type  1   force =     0.00014967   -0.00022023    0.00063459
     atom   21 type  2   force =     0.00004630    0.00001942    0.10365696
     atom   22 type  2   force =    -0.00017872    0.00010354    0.00058945
     atom   23 type  2   force =    -0.07082404   -0.00011268   -0.02714875
     atom   24 type  2   force =     0.07072045    0.00032505   -0.02718047
     atom   25 type  1   force =    -0.00006215   -0.00023090    0.09366883
     atom   26 type  1   force =    -0.00013496   -0.00041577   -0.17737445
     atom   27 type  2   force =     0.00014786   -0.00039195   -0.02029314
     atom   28 type  2   force =     0.00005184   -0.00138071    0.05584203
     atom   29 type  2   force =    -0.01030028   -0.00029906    0.00539199
     atom   30 type  2   force =     0.01197074    0.00010170    0.00502762
     atom   31 type  1   force =    -0.00017297    0.00357969   -0.01530613
     atom   32 type  1   force =    -0.00019027   -0.00485084    0.00439501
     atom   33 type  2   force =    -0.00006880   -0.00016876    0.00031853
     atom   34 type  2   force =     0.00120428    0.00258847   -0.00428523
     atom   35 type  2   force =    -0.00070906   -0.00015946    0.00017882
     atom   36 type  2   force =    -0.00001226   -0.00002695    0.00045383
     atom   37 type  1   force =     0.00038855    0.00041440   -0.00034526
     atom   38 type  1   force =     0.00000438    0.00048652   -0.00163888
     atom   39 type  2   force =     0.00028450   -0.00044666   -0.00017877
     atom   40 type  2   force =     0.00003933    0.00004866    0.00061958
     atom   41 type  2   force =    -0.00028164   -0.00019360   -0.00008031
     atom   42 type  2   force =     0.00056887   -0.00014192    0.00035014
     atom   43 type  1   force =    -0.00056876    0.00064165    0.00011873
     atom   44 type  1   force =    -0.00014583    0.00005063   -0.00011679
     atom   45 type  2   force =     0.00003964   -0.00002420    0.10365540
     atom   46 type  2   force =    -0.07085689   -0.00005706   -0.02714726
     atom   47 type  2   force =     0.07075346    0.00034702   -0.02717822
     atom   48 type  3   force =     0.00047806    0.00030352   -0.00012644
     atom   49 type  4   force =     0.00063120   -0.00050815    0.00040731
     atom   50 type  5   force =     0.00116663   -0.00014562   -0.00030458
     atom   51 type  5   force =    -0.00084316    0.00074122   -0.00044312
     atom   52 type  3   force =     0.00058162   -0.00008993    0.00020437
     atom   53 type  5   force =    -0.00137222   -0.00010915    0.00037339
     atom   54 type  5   force =     0.00026138   -0.00036764    0.00057448
     atom   55 type  5   force =    -0.00060669    0.00001593    0.00017592
     atom   56 type  2   force =    -0.00445550   -0.00741358   -0.00681485
     atom   57 type  5   force =     0.00091898    0.00741537    0.00512052
     atom   58 type  5   force =     0.00164415    0.00082230    0.00241908

     Total force =     0.365609     Total SCF correction =     0.000363
  @ DRIVER MODE: Message from server: STATUS
  @ DRIVER MODE: Message from server: GETFORCE
  @ DRIVER MODE: Returning v,forces,stress,ensemble

     Writing output data file ./calc.save/
  @ DRIVER MODE: Message from server: EXIT
  @ DRIVE MODE: Exiting

     General routines

     Parallel routines

   This run was terminated on:  11:25:24  16Sep2021

   JOB DONE.