     Program PWSCF v.6.7GPU starts on 19Aug2021 at  0:41:36

     R & G space division:  proc/nbgrp/npool/nimage =       6
     Reading input from /storage/home/hcoda1/3/ntian30/research/carbon/CH3_vib_side_on/ads_slab/CH3N2_c/out_0026/pw.inp
Warning: card &CELL ignored
Warning: card   CELL_DYNAMICS='IPI', ignored
Warning: card / ignored

     Current dimensions of program PWSCF are:
     Max number of different atomic species (ntypx) = 10
     Max number of k-points (npk) =  40000
     Max angular momentum in pseudopotentials (lmaxx) =  3
     Presently no symmetry can be used with electric field

     Message from routine cell_base_init:
     DEPRECATED: use true lattice parameter, not A to a.u. conversion factor

     IMPORTANT: XC functional enforced from input :
     Exchange-correlation= BEEF-VDW
                           (   1   4  43  14   2   0   0)
     Any further DFT definition will be discarded
     Please, verify this is what you really want

  @ DRIVER MODE: Connecting to
 qe_1139763_2594174.sched-torque.pace.gatech.edus42537_f_scratch
  using UNIX socket
  @ DRIVER MODE: Message from server: STATUS
  @ DRIVER MODE: Message from server: INIT
  @ DRIVER MODE: Receiving replica           0          -1
  @ DRIVER MODE: Receiving encoded integer          25
  @ DRIVER MODE:  SCF:  T  FORCE:  T  STRESS:  F  VC:  F  ENSEMBLE:  F
  @ DRIVER MODE:  SCF:  T  FORCE:  T  STRESS:  F  VC:  F  ENSEMBLE:  F

     Using Slab Decomposition

     bravais-lattice index     =            0
     lattice parameter (alat)  =       1.8897  a.u.
     unit-cell volume          =    6658.9804 (a.u.)^3
     number of atoms/cell      =           53
     number of atomic types    =            5
     number of electrons       =       395.00
     number of Kohn-Sham states=          207
     kinetic-energy cutoff     =      29.3995  Ry
     charge density cutoff     =     293.9946  Ry
     scf convergence threshold =      7.3E-08
     mixing beta               =       0.0500
     number of iterations used =            8  plain     mixing
     Exchange-correlation= BEEF-VDW
                           (   1   4  43  14   2   0   0)

     celldm(1)=   1.889726  celldm(2)=   0.000000  celldm(3)=   0.000000
     celldm(4)=   0.000000  celldm(5)=   0.000000  celldm(6)=   0.000000

     crystal axes: (cart. coord. in units of alat)
               a(1) = (   6.579727   0.000000   0.000000 )
               a(2) = (  -0.000775   5.961596   0.000000 )
               a(3) = (   0.000000   0.000000  25.155947 )

     reciprocal axes: (cart. coord. in units 2 pi/alat)
               b(1) = (  0.151982  0.000020  0.000000 )
               b(2) = (  0.000000  0.167740  0.000000 )
               b(3) = (  0.000000  0.000000  0.039752 )

     PseudoPot. # 1 for Ti read from file:
     /storage/coda1/p-amedford6/0/shared/rich_project_chbe-medford/medford-share/data/pseudos_module/espresso/nninc/pbe/van/Ti.UPF
     MD5 check sum: 8e4df49b7f0d34bbd5052bf3f5ea0213
     Pseudo is Ultrasoft, Zval = 12.0
     Generated by new atomic code, or converted to UPF format
     Using radial grid of  851 points,  6 beta functions with:
                l(1) =   0
                l(2) =   0
                l(3) =   1
                l(4) =   1
                l(5) =   2
                l(6) =   2
     Q(r) pseudized with  8 coefficients,  rinner =    1.000   1.000   1.000
                                                       1.000   1.000

     PseudoPot. # 2 for O  read from file:
     /storage/coda1/p-amedford6/0/shared/rich_project_chbe-medford/medford-share/data/pseudos_module/espresso/nninc/pbe/van/O.UPF
     MD5 check sum: 78c19812648e8988a0fe644b0f25305e
     Pseudo is Ultrasoft, Zval =  6.0
     Generated by new atomic code, or converted to UPF format
     Using radial grid of  737 points,  4 beta functions with:
                l(1) =   0
                l(2) =   0
                l(3) =   1
                l(4) =   1
     Q(r) pseudized with  8 coefficients,  rinner =    0.800   0.800   0.800

     PseudoPot. # 3 for N  read from file:
     /storage/coda1/p-amedford6/0/shared/rich_project_chbe-medford/medford-share/data/pseudos_module/espresso/nninc/pbe/van/N.UPF
     MD5 check sum: 90d10febe142ad51ac9d5be1deb811c4
     Pseudo is Ultrasoft, Zval =  5.0
     Generated by new atomic code, or converted to UPF format
     Using radial grid of  729 points,  4 beta functions with:
                l(1) =   0
                l(2) =   0
                l(3) =   1
                l(4) =   1
     Q(r) pseudized with  8 coefficients,  rinner =    0.800   0.800   0.800

     PseudoPot. # 4 for C  read from file:
     /storage/coda1/p-amedford6/0/shared/rich_project_chbe-medford/medford-share/data/pseudos_module/espresso/nninc/pbe/van/C.UPF
     MD5 check sum: 1a69bf6b8db32088f5b2163dbdb77a27
     Pseudo is Ultrasoft, Zval =  4.0
     Generated by new atomic code, or converted to UPF format
     Using radial grid of  721 points,  4 beta functions with:
                l(1) =   0
                l(2) =   0
                l(3) =   1
                l(4) =   1
     Q(r) pseudized with  8 coefficients,  rinner =    0.800   0.800   0.800

     PseudoPot. # 5 for H  read from file:
     /storage/coda1/p-amedford6/0/shared/rich_project_chbe-medford/medford-share/data/pseudos_module/espresso/nninc/pbe/van/H.UPF
     MD5 check sum: b5ee9d7bfd3a09ee7748110bda690ff7
     Pseudo is Ultrasoft, Zval =  1.0
     Generated by new atomic code, or converted to UPF format
     Using radial grid of  615 points,  1 beta functions with:
                l(1) =   0
     Q(r) pseudized with  8 coefficients,  rinner =    0.800

     atomic species   valence    mass     pseudopotential
        Ti1           12.00    47.86700     Ti( 1.00)
        O1             6.00    15.99900     O ( 1.00)
        N1             5.00    14.00700     N ( 1.00)
        C1             4.00    12.01100     C ( 1.00)
        H1             1.00     1.00800     H ( 1.00)

     No symmetry found

   Cartesian axes

     site n.     atom                  positions (alat units)
         1           Ti1 tau(   1) = (   0.0004258   2.9801865   6.0000000  )
         2           Ti1 tau(   2) = (   3.2906075   1.4906267   6.0002472  )
         3           O1  tau(   3) = (   0.0006271   0.0005054   7.9858123  )
         4           O1  tau(   4) = (   3.2906025   0.0005020   7.3038282  )
         5           O1  tau(   5) = (   4.5942328   1.4918067   9.2879030  )
         6           O1  tau(   6) = (   1.9868534   1.4903216   9.2879459  )
         7           Ti1 tau(   7) = (   3.2907910   2.8959150   9.1758416  )
         8           Ti1 tau(   8) = (   0.0015273   1.4827037   9.2680791  )
         9           O1  tau(   9) = (   3.2868105   5.9447858  11.3346005  )
        10           O1  tau(  10) = (   0.0116148   5.9584955  10.6183126  )
        11           O1  tau(  11) = (   1.2897616   1.4699164  12.6258314  )
        12           O1  tau(  12) = (   5.2713851   1.4716199  12.6109895  )
        13           Ti1 tau(  13) = (   0.0629619   2.9460495  12.6207869  )
        14           Ti1 tau(  14) = (   3.3778125   1.4702366  12.4807322  )
        15           O1  tau(  15) = (   6.5741670   5.9392046  14.6271830  )
        16           O1  tau(  16) = (   3.2925211   5.9405975  13.9303826  )
        17           O1  tau(  17) = (   4.5331425   1.4971777  16.0590535  )
        18           O1  tau(  18) = (   2.0416154   1.4974824  16.0477615  )
        19           Ti1 tau(  19) = (   3.2901388   2.9722967  15.7036181  )
        20           Ti1 tau(  20) = (   6.5714728   1.5019933  15.8140906  )
        21           O1  tau(  21) = (   3.2904802   0.0005063   4.7018136  )
        22           O1  tau(  22) = (   6.5775371   0.0159386  17.1814867  )
        23           O1  tau(  23) = (   1.3043587   1.4918075   6.0039043  )
        24           O1  tau(  24) = (   5.2767064   1.4903225   6.0039473  )
        25           Ti1 tau(  25) = (   0.0000382   5.9609847   6.0000000  )
        26           Ti1 tau(  26) = (   3.2902200   4.4714249   6.0002472  )
        27           O1  tau(  27) = (   0.0002396   2.9813036   7.9858123  )
        28           O1  tau(  28) = (   3.2902150   2.9813002   7.3038282  )
        29           O1  tau(  29) = (   4.5938453   4.4726049   9.2879030  )
        30           O1  tau(  30) = (   1.9864658   4.4711199   9.2879459  )
        31           Ti1 tau(  31) = (   3.2891106   5.8743827   9.1763621  )
        32           Ti1 tau(  32) = (   0.0006254   4.4649316   9.2693709  )
        33           O1  tau(  33) = (   3.2909631   2.9655588  11.3316111  )
        34           O1  tau(  34) = (   0.0092240   2.9805883  10.6323155  )
        35           O1  tau(  35) = (   1.2884032   4.4536117  12.6269208  )
        36           O1  tau(  36) = (   5.2752684   4.4605011  12.6109535  )
        37           Ti1 tau(  37) = (   0.0626277   5.9200555  12.5524633  )
        38           Ti1 tau(  38) = (   3.3797810   4.4486816  12.4846537  )
        39           O1  tau(  39) = (   6.5720240   2.9440667  14.6479771  )
        40           O1  tau(  40) = (   3.2941106   2.9728877  13.9057494  )
        41           O1  tau(  41) = (   4.5311790   4.4530262  16.1020043  )
        42           O1  tau(  42) = (   2.0427069   4.4534008  16.0946336  )
        43           Ti1 tau(  43) = (   3.2818950   5.9508925  15.7274921  )
        44           Ti1 tau(  44) = (   6.5750914   4.6476268  16.0792144  )
        45           O1  tau(  45) = (   3.2900926   2.9813045   4.7018136  )
        46           O1  tau(  46) = (   1.3039711   4.4726057   6.0039043  )
        47           O1  tau(  47) = (   5.2763189   4.4711207   6.0039473  )
        48           N1  tau(  48) = (   0.0795740   2.6614725  18.6386781  )
        49           N1  tau(  49) = (   0.0132033   2.8794178  17.4383708  )
        50           C1  tau(  50) = (   0.1510961   3.8031638  19.5808395  )
        51           H1  tau(  51) = (   6.4701351   4.7592986  19.1328852  )
        52           H1  tau(  52) = (   6.1010372   3.5604803  20.4266230  )
        53           H1  tau(  53) = (   1.1812797   3.8285794  19.9476819  )

     number of k points=    10  Fermi-Dirac smearing, width (Ry)=  0.0073
                       cart. coord. in units 2pi/alat
        k(    1) = (   0.0000000   0.0000000   0.0000000), wk =   0.1250000
        k(    2) = (   0.0000000   0.0419351   0.0000000), wk =   0.2500000
        k(    3) = (   0.0000000  -0.0838702   0.0000000), wk =   0.1250000
        k(    4) = (   0.0379955   0.0000049   0.0000000), wk =   0.2500000
        k(    5) = (   0.0379955   0.0419400   0.0000000), wk =   0.2500000
        k(    6) = (   0.0379955  -0.0838652   0.0000000), wk =   0.2500000
        k(    7) = (   0.0379955  -0.0419301   0.0000000), wk =   0.2500000
        k(    8) = (  -0.0759910  -0.0000099   0.0000000), wk =   0.1250000
        k(    9) = (  -0.0759910   0.0419252   0.0000000), wk =   0.2500000
        k(   10) = (  -0.0759910  -0.0838800   0.0000000), wk =   0.1250000

     Initial potential from superposition of free atoms

     starting charge  378.99916, renormalised to  395.00000

     negative rho (up, down):  1.507E-02 0.000E+00

     %%%%%%%%%%%%%%%%%%%%%%%%%%%%%%%%%%%%%%%%%%%%%%%%%%%%%%%%%%%%%%%%%%%%%%%%
     %                                                                      %
     % You are using vdW-DF, which was implemented by the Thonhauser group. %
     % Please cite the following two papers that made this development      %
     % possible and the two reviews that describe the various versions:     %
     %                                                                      %
     %   T. Thonhauser et al., PRL 115, 136402 (2015).                      %
     %   T. Thonhauser et al., PRB 76, 125112 (2007).                       %
     %   K. Berland et al., Rep. Prog. Phys. 78, 066501 (2015).             %
     %   D.C. Langreth et al., J. Phys.: Condens. Matter 21, 084203 (2009). %
     %                                                                      %
     %                                                                      %
     % If you are calculating the stress with vdW-DF, please also cite:     %
     %                                                                      %
     %   R. Sabatini et al., J. Phys.: Condens. Matter 24, 424209 (2012).   %
     %                                                                      %
     %%%%%%%%%%%%%%%%%%%%%%%%%%%%%%%%%%%%%%%%%%%%%%%%%%%%%%%%%%%%%%%%%%%%%%%%

     Adding external electric field

     Computed dipole along edir(3) :
        Dipole               -8.8495 Ry au,        -22.4931 Debye
        Dipole field         -0.0167 Ry au,

        Potential amp.        1.5481 Ry
        Total length         46.3494 bohr

     Starting wfcs are  299 atomic wfcs
  @ DRIVER MODE: Message from server: STATUS
  @ DRIVER MODE: Message from server: POSDATA
  @ DRIVER MODE: Reading and sharing cell
  @ DRIVER MODE: Reading and sharing positions
  @ DRIVER MODE: Received positions

     Self-consistent Calculation

     iteration #  1     ecut=    29.40 Ry     beta= 0.05
     Davidson diagonalization with overlap
     c_bands:  1 eigenvalues not converged
     c_bands:  2 eigenvalues not converged
     c_bands:  1 eigenvalues not converged
     c_bands:  3 eigenvalues not converged
     c_bands:  3 eigenvalues not converged
     c_bands:  1 eigenvalues not converged
     ethr =  1.00E-05,  avg # of iterations = 19.1

[...]

     total energy              =   -2605.65779346 Ry
     estimated scf accuracy    <    3699.18237995 Ry

     iteration #  2     ecut=    29.40 Ry     beta= 0.05
     Davidson diagonalization with overlap
     ethr =  1.00E-02,  avg # of iterations = 22.0

[...]

     iteration # 52     ecut=    29.40 Ry     beta= 0.05
     Davidson diagonalization with overlap
     c_bands:  1 eigenvalues not converged
     ethr =  1.13E-08,  avg # of iterations = 14.4

[...]

     total energy              =   -2939.15470225 Ry
     estimated scf accuracy    <       0.00000009 Ry

     iteration # 66     ecut=    29.40 Ry     beta= 0.05
     Davidson diagonalization with overlap
     ethr =  2.19E-11,  avg # of iterations = 11.0

     negative rho (up, down):  1.566E-02 0.000E+00

     Adding external electric field

     Computed dipole along edir(3) :
        Dipole                0.7101 Ry au,          1.8048 Debye
        Dipole field          0.0013 Ry au,

        Potential amp.       -0.1242 Ry
        Total length         46.3494 bohr

     End of self-consistent calculation

          k = 0.0000 0.0000 0.0000 ( 18029 PWs)   bands (ev):

   -55.8945 -55.8796 -55.8605 -55.8437 -55.7949 -55.7294 -55.7035 -55.7029
   -55.6928 -55.6689 -55.6679 -55.6343 -55.2852 -55.0947 -54.8717 -54.8376
   -32.4338 -32.3767 -32.2294 -32.2270 -32.2016 -32.1984 -32.1875 -32.1584
   -32.1370 -32.1236 -32.1018 -32.0660 -32.0603 -32.0467 -32.0329 -32.0193
   -32.0170 -31.9986 -31.9842 -31.9516 -31.9434 -31.9390 -31.8980 -31.8931
   -31.8907 -31.8872 -31.8792 -31.8743 -31.8700 -31.8433 -31.8426 -31.8338
   -31.8325 -31.8208 -31.8094 -31.7801 -31.7771 -31.5654 -31.4587 -31.3568
   -31.3548 -31.3104 -31.2788 -31.1904 -31.1680 -31.0955 -31.0090 -30.8980
   -18.4497 -16.6320 -16.3672 -16.1384 -16.0446 -16.0124 -15.8943 -15.7319
   -15.6144 -15.5596 -15.4621 -15.4426 -15.4296 -15.3977 -15.3794 -15.3740
   -15.3401 -15.3359 -15.3174 -15.3023 -15.2540 -15.2302 -15.2085 -15.1091
   -15.0629 -15.0291 -15.0139 -14.9508 -14.9456 -14.4412 -13.3745 -13.2581
   -11.3705  -6.9361  -4.3481  -4.0019  -3.8889  -3.8771  -3.8466  -3.7998
    -3.7430  -3.6239  -3.4982  -3.4360  -3.1254  -3.0773  -3.0614  -3.0442
    -3.0064  -2.7990  -2.7481  -2.7076  -2.6828  -2.6757  -2.6647  -2.6571
    -2.6455  -2.6069  -2.5047  -2.4356  -2.4279  -2.3426  -2.2927  -2.2693
    -2.2062  -2.1866  -2.1648  -2.1414  -2.1300  -2.1092  -2.0891  -2.0782
    -1.9729  -1.8823  -1.7526  -1.6938  -1.6720  -1.6587  -1.6451  -1.5018
    -1.3696  -1.3370  -1.3288  -1.3192  -1.2857  -1.2739  -1.1910  -1.0624
    -1.0512  -1.0119  -0.9591  -0.9011  -0.8760  -0.7742  -0.7374  -0.6605
    -0.6554  -0.6386  -0.5858  -0.5335  -0.3755  -0.3337  -0.3077  -0.2855
    -0.2610  -0.1902  -0.1686  -0.0525  -0.0349  -0.0173   0.0429   0.0661
     0.0791   0.0889   0.1067   0.1248   0.1422   0.3095   0.3819   0.4338
     0.4577   0.5155   0.6406   0.7095   0.7644   0.8649   1.0759   1.1500
     1.2431   1.3422   1.7214   1.7670   2.6493   3.2449   3.3257   3.3747
     3.3895   3.4865   3.5202   3.6965   3.6979   3.7265   3.7963

[...]

          k = 0.0380-0.0419 0.0000 ( 17876 PWs)   bands (ev):

[...]

          k =-0.0760-0.0000 0.0000 ( 17886 PWs)   bands (ev):

[...]

          k =-0.0760-0.0839 0.0000 ( 17948 PWs)   bands (ev):

   -55.8779 -55.8769 -55.8618 -55.8613 -55.7915 -55.7173 -55.7068 -55.7049
   -55.6867 -55.6845 -55.6518 -55.6505 -55.2838 -55.0960 -54.8547 -54.8545
   -32.2384 -32.2365 -32.1924 -32.1916 -32.1733 -32.1724 -32.1689 -32.1335
   -32.0879 -32.0849 -32.0789 -32.0783 -32.0416 -32.0122 -32.0045 -32.0038
   -31.9975 -31.9974 -31.9968 -31.9964 -31.9924 -31.9906 -31.9881 -31.9370
   -31.9233 -31.9113 -31.9102 -31.8989 -31.8858 -31.8854 -31.8829 -31.8819
   -31.8663 -31.8655 -31.8565 -31.8538 -31.6939 -31.5671 -31.4671 -31.4138
   -31.3566 -31.3359 -31.1808 -31.1806 -31.0916 -31.0915 -31.0523 -31.0522
   -18.4454 -16.0678 -16.0418 -15.8418 -15.8087 -15.8046 -15.7902 -15.6814
   -15.5965 -15.5895 -15.5867 -15.5203 -15.4903 -15.4745 -15.4337 -15.4211
   -15.4138 -15.4022 -15.3919 -15.3548 -15.3474 -15.3302 -15.3227 -15.2387
   -15.2108 -15.2067 -15.1809 -15.0629 -14.9317 -14.6175 -13.3600 -13.3598
   -11.3682  -6.9477  -4.2576  -3.8961  -3.8538  -3.3572  -3.3284  -3.0882
    -3.0494  -3.0357  -2.9825  -2.8210  -2.7906  -2.7648  -2.7532  -2.7216
    -2.7163  -2.7043  -2.6991  -2.6791  -2.6378  -2.6163  -2.5985  -2.5811
    -2.5616  -2.5477  -2.5318  -2.5151  -2.5056  -2.4663  -2.4428  -2.4312
    -2.4125  -2.4008  -2.2445  -2.1214  -2.0869  -2.0323  -2.0220  -2.0008
    -1.9606  -1.9568  -1.9451  -1.8808  -1.8080  -1.6528  -1.6148  -1.5934
    -1.5746  -1.5595  -1.4996  -1.4592  -1.3723  -1.2977  -1.2741  -1.2697
    -1.2015  -1.1140  -1.1063  -1.0597  -1.0164  -1.0067  -0.9521  -0.8873
    -0.8567  -0.8524  -0.8008  -0.7320  -0.7129  -0.6626  -0.6557  -0.6113
    -0.5564  -0.5479  -0.5273  -0.4862  -0.4042  -0.3806  -0.2422  -0.1623
    -0.0400   0.0745   0.1687   0.1831   0.2631   0.3150   0.3988   0.4164
     0.4269   0.4360   0.4793   0.5623   0.6381   0.6528   0.6986   0.8196
     1.5138   1.5145   1.5866   1.5869   2.7061   3.4922   3.5368   3.5790
     3.6112   3.7176   3.7500   3.7734   3.7745   3.8030   3.9170

     the Fermi energy is     3.2402 ev

!    total energy              =   -2939.15473131 Ry
     estimated scf accuracy    <       0.00000004 Ry
     smearing contrib. (-TS)   =      -0.02244619 Ry
     internal energy E=F+TS    =   -2939.13228512 Ry

     The total energy is F=E-TS. E is the sum of the following terms:
     one-electron contribution =  -24176.22777784 Ry
     hartree contribution      =   12175.36212940 Ry
     xc contribution           =    -485.18829849 Ry
     ewald contribution        =    9546.92071034 Ry
     electric field correction =       0.00095146 Ry

     convergence has been achieved in  66 iterations

     Forces acting on atoms (cartesian axes, Ry/au):

     atom    1 type  1   force =     0.00012268   -0.00025342    0.09667180
     atom    2 type  1   force =    -0.00012436   -0.00049696   -0.17520318
     atom    3 type  2   force =     0.00000170   -0.00010278   -0.02498935
     atom    4 type  2   force =     0.00005309   -0.00150144    0.05296918
     atom    5 type  2   force =    -0.01215539   -0.00108542    0.00361151
     atom    6 type  2   force =     0.01370791   -0.00027714    0.00228787
     atom    7 type  1   force =    -0.00117373    0.00036685   -0.01149383
     atom    8 type  1   force =     0.00056008    0.00941004    0.02851550
     atom    9 type  2   force =     0.00019778    0.00053027   -0.00012853
     atom   10 type  2   force =    -0.00114727    0.00027811   -0.01823288
     atom   11 type  2   force =    -0.00013041    0.00000346   -0.00013080
     atom   12 type  2   force =     0.00013510    0.00021766    0.00018588
     atom   13 type  1   force =     0.00009886   -0.00029746    0.00014167
     atom   14 type  1   force =     0.00022186    0.00017123    0.00020485
     atom   15 type  2   force =     0.00022163   -0.00005391   -0.00010370
     atom   16 type  2   force =    -0.00033129    0.00033955    0.00037480
     atom   17 type  2   force =    -0.00015482    0.00041834   -0.00014322
     atom   18 type  2   force =     0.00013450    0.00016121    0.00023289
     atom   19 type  1   force =    -0.00007611    0.00015511    0.00007261
     atom   20 type  1   force =    -0.00058439   -0.00020453    0.00021062
     atom   21 type  2   force =     0.00008578    0.00001494    0.10322670
     atom   22 type  2   force =    -0.00019821    0.00024730    0.00080160
     atom   23 type  2   force =    -0.07145611   -0.00007555   -0.02771128
     atom   24 type  2   force =     0.07142369    0.00034576   -0.02772015
     atom   25 type  1   force =     0.00006965   -0.00021777    0.09640074
     atom   26 type  1   force =    -0.00022445   -0.00026408   -0.17560621
     atom   27 type  2   force =     0.00007146   -0.00024888   -0.02398957
     atom   28 type  2   force =     0.00009585   -0.00126001    0.05283745
     atom   29 type  2   force =    -0.01239698    0.00004171    0.00352472
     atom   30 type  2   force =     0.01386558    0.00033581    0.00216942
     atom   31 type  1   force =    -0.00113910    0.00333465   -0.01190834
     atom   32 type  1   force =     0.00065247   -0.01117771    0.02912057
     atom   33 type  2   force =     0.00010924   -0.00020121   -0.00038635
     atom   34 type  2   force =    -0.00089607   -0.00093077   -0.02482568
     atom   35 type  2   force =    -0.00040165    0.00027163    0.00002403
     atom   36 type  2   force =     0.00072374    0.00029316    0.00034255
     atom   37 type  1   force =    -0.00000705   -0.00022449    0.00003452
     atom   38 type  1   force =    -0.00001206    0.00010138   -0.00001225
     atom   39 type  2   force =     0.00032790    0.00032670   -0.00044007
     atom   40 type  2   force =    -0.00030686    0.00010338    0.00015925
     atom   41 type  2   force =    -0.00044053    0.00052398    0.00013737
     atom   42 type  2   force =     0.00003720    0.00045320    0.00043199
     atom   43 type  1   force =    -0.00005604    0.00038571    0.00040901
     atom   44 type  1   force =    -0.00041256    0.00018474    0.00071774
     atom   45 type  2   force =     0.00008338   -0.00002753    0.10323205
     atom   46 type  2   force =    -0.07149360   -0.00003011   -0.02772708
     atom   47 type  2   force =     0.07145940    0.00039090   -0.02775029
     atom   48 type  3   force =     0.00023391   -0.00088422   -0.00015039
     atom   49 type  3   force =     0.00061359    0.00022994   -0.00021145
     atom   50 type  4   force =     0.00687344    0.00176604   -0.00518955
     atom   51 type  5   force =    -0.00005829    0.00066634   -0.00014958
     atom   52 type  5   force =    -0.00672071   -0.00237826    0.00608340
     atom   53 type  5   force =    -0.00008345    0.00012457   -0.00092853

     Total force =     0.368504     Total SCF correction =     0.000719
  @ DRIVER MODE: Message from server: STATUS
  @ DRIVER MODE: Message from server: GETFORCE
  @ DRIVER MODE: Returning v,forces,stress,ensemble

     Writing output data file ./calc.save/
  @ DRIVER MODE: Message from server: EXIT
  @ DRIVE MODE: Exiting

     General routines

     Parallel routines

   This run was terminated on:   1:10:12  19Aug2021

   JOB DONE.