     Program PWSCF v.6.7GPU starts on 16Sep2021 at 11:39:44

     R & G space division:  proc/nbgrp/npool/nimage =      10
     Reading input from /storage/home/hcoda1/3/ntian30/research/carbon/CxH_vib/H2O_calc/ads_slab/CH3NNH3H2O_a/out_0057/pw.inp
Warning: card &CELL ignored
Warning: card   CELL_DYNAMICS='IPI', ignored
Warning: card / ignored

     Current dimensions of program PWSCF are:
     Max number of different atomic species (ntypx) = 10
     Max number of k-points (npk) =  40000
     Max angular momentum in pseudopotentials (lmaxx) =  3
     Presently no symmetry can be used with electric field

     Message from routine cell_base_init:
     DEPRECATED: use true lattice parameter, not A to a.u. conversion factor

     IMPORTANT: XC functional enforced from input :
     Exchange-correlation= BEEF-VDW
                           (   1   4  43  14   2   0   0)
     Any further DFT definition will be discarded
     Please, verify this is what you really want

  @ DRIVER MODE: Connecting to
 qe_1139763_2852621.sched-torque.pace.gatech.edu47hpt_0e_scratch
  using UNIX socket
  @ DRIVER MODE: Message from server: STATUS
  @ DRIVER MODE: Message from server: INIT
  @ DRIVER MODE: Receiving replica           0          -1
  @ DRIVER MODE: Receiving encoded integer          25
  @ DRIVER MODE:  SCF:  T  FORCE:  T  STRESS:  F  VC:  F  ENSEMBLE:  F
  @ DRIVER MODE:  SCF:  T  FORCE:  T  STRESS:  F  VC:  F  ENSEMBLE:  F

     Using Slab Decomposition

     bravais-lattice index     =            0
     lattice parameter (alat)  =       1.8897  a.u.
     unit-cell volume          =    6658.9804 (a.u.)^3
     number of atoms/cell      =           59
     number of atomic types    =            5
     number of electrons       =       406.00
     number of Kohn-Sham states=          213
     kinetic-energy cutoff     =      29.3995  Ry
     charge density cutoff     =     293.9946  Ry
     scf convergence threshold =      7.3E-08
     mixing beta               =       0.0500
     number of iterations used =            8  plain     mixing
     Exchange-correlation= BEEF-VDW
                           (   1   4  43  14   2   0   0)

     celldm(1)=   1.889726  celldm(2)=   0.000000  celldm(3)=   0.000000
     celldm(4)=   0.000000  celldm(5)=   0.000000  celldm(6)=   0.000000

     crystal axes: (cart. coord. in units of alat)
               a(1) = (   6.579727   0.000000   0.000000 )
               a(2) = (  -0.000775   5.961596   0.000000 )
               a(3) = (   0.000000   0.000000  25.155947 )

     reciprocal axes: (cart. coord. in units 2 pi/alat)
               b(1) = (  0.151982  0.000020  0.000000 )
               b(2) = (  0.000000  0.167740  0.000000 )
               b(3) = (  0.000000  0.000000  0.039752 )

     PseudoPot. # 1 for Ti read from file:
     /storage/coda1/p-amedford6/0/shared/rich_project_chbe-medford/medford-share/data/pseudos_module/espresso/nninc/pbe/van/Ti.UPF
     MD5 check sum: 8e4df49b7f0d34bbd5052bf3f5ea0213
     Pseudo is Ultrasoft, Zval = 12.0
     Generated by new atomic code, or converted to UPF format
     Using radial grid of  851 points,  6 beta functions with:
                l(1) =   0
                l(2) =   0
                l(3) =   1
                l(4) =   1
                l(5) =   2
                l(6) =   2
     Q(r) pseudized with  8 coefficients,  rinner =    1.000   1.000   1.000
                                                       1.000   1.000

     PseudoPot. # 2 for O  read from file:
     /storage/coda1/p-amedford6/0/shared/rich_project_chbe-medford/medford-share/data/pseudos_module/espresso/nninc/pbe/van/O.UPF
     MD5 check sum: 78c19812648e8988a0fe644b0f25305e
     Pseudo is Ultrasoft, Zval =  6.0
     Generated by new atomic code, or converted to UPF format
     Using radial grid of  737 points,  4 beta functions with:
                l(1) =   0
                l(2) =   0
                l(3) =   1
                l(4) =   1
     Q(r) pseudized with  8 coefficients,  rinner =    0.800   0.800   0.800

     PseudoPot. # 3 for N  read from file:
     /storage/coda1/p-amedford6/0/shared/rich_project_chbe-medford/medford-share/data/pseudos_module/espresso/nninc/pbe/van/N.UPF
     MD5 check sum: 90d10febe142ad51ac9d5be1deb811c4
     Pseudo is Ultrasoft, Zval =  5.0
     Generated by new atomic code, or converted to UPF format
     Using radial grid of  729 points,  4 beta functions with:
                l(1) =   0
                l(2) =   0
                l(3) =   1
                l(4) =   1
     Q(r) pseudized with  8 coefficients,  rinner =    0.800   0.800   0.800

     PseudoPot. # 4 for C  read from file:
     /storage/coda1/p-amedford6/0/shared/rich_project_chbe-medford/medford-share/data/pseudos_module/espresso/nninc/pbe/van/C.UPF
     MD5 check sum: 1a69bf6b8db32088f5b2163dbdb77a27
     Pseudo is Ultrasoft, Zval =  4.0
     Generated by new atomic code, or converted to UPF format
     Using radial grid of  721 points,  4 beta functions with:
                l(1) =   0
                l(2) =   0
                l(3) =   1
                l(4) =   1
     Q(r) pseudized with  8 coefficients,  rinner =    0.800   0.800   0.800

     PseudoPot. # 5 for H  read from file:
     /storage/coda1/p-amedford6/0/shared/rich_project_chbe-medford/medford-share/data/pseudos_module/espresso/nninc/pbe/van/H.UPF
     MD5 check sum: b5ee9d7bfd3a09ee7748110bda690ff7
     Pseudo is Ultrasoft, Zval =  1.0
     Generated by new atomic code, or converted to UPF format
     Using radial grid of  615 points,  1 beta functions with:
                l(1) =   0
     Q(r) pseudized with  8 coefficients,  rinner =    0.800

     atomic species   valence    mass     pseudopotential
        Ti1           12.00    47.86700     Ti( 1.00)
        O1             6.00    15.99900     O ( 1.00)
        N1             5.00    14.00700     N ( 1.00)
        C1             4.00    12.01100     C ( 1.00)
        H1             1.00     1.00800     H ( 1.00)

     No symmetry found

   Cartesian axes

     site n.     atom                  positions (alat units)
         1           Ti1 tau(   1) = (   0.0004258   2.9801865   6.0000000  )
         2           Ti1 tau(   2) = (   3.2906075   1.4906267   6.0002472  )
         3           O1  tau(   3) = (   0.0006271   0.0005054   7.9858123  )
         4           O1  tau(   4) = (   3.2906025   0.0005020   7.3038282  )
         5           O1  tau(   5) = (   4.5942328   1.4918067   9.2879030  )
         6           O1  tau(   6) = (   1.9868534   1.4903216   9.2879459  )
         7           Ti1 tau(   7) = (   3.2907910   2.8959150   9.1758416  )
         8           Ti1 tau(   8) = (   0.0015273   1.4827037   9.2680791  )
         9           O1  tau(   9) = (   3.2954490   0.0159868  11.2922163  )
        10           O1  tau(  10) = (   0.0116148   5.9584955  10.6183126  )
        11           O1  tau(  11) = (   1.3242731   1.5050266  12.6143764  )
        12           O1  tau(  12) = (   5.3073597   1.5103589  12.6267567  )
        13           Ti1 tau(  13) = (   6.4831477   3.0011104  12.7364612  )
        14           Ti1 tau(  14) = (   3.1751638   1.4975352  12.4748964  )
        15           O1  tau(  15) = (   0.0212859   5.9607631  14.5987152  )
        16           O1  tau(  16) = (   3.3058086   0.0238703  13.8910224  )
        17           O1  tau(  17) = (   4.5539421   1.5574750  15.9960573  )
        18           O1  tau(  18) = (   2.0731809   1.5597727  15.9888445  )
        19           Ti1 tau(  19) = (   3.3176354   3.0289328  15.6523405  )
        20           Ti1 tau(  20) = (   0.0198791   1.6227889  16.0606591  )
        21           O1  tau(  21) = (   3.2904802   0.0005063   4.7018136  )
        22           O1  tau(  22) = (   0.0290054   0.0533443  17.2129705  )
        23           O1  tau(  23) = (   1.3043587   1.4918075   6.0039043  )
        24           O1  tau(  24) = (   5.2767064   1.4903225   6.0039473  )
        25           Ti1 tau(  25) = (   0.0000382   5.9609847   6.0000000  )
        26           Ti1 tau(  26) = (   3.2902200   4.4714249   6.0002472  )
        27           O1  tau(  27) = (   0.0002396   2.9813036   7.9858123  )
        28           O1  tau(  28) = (   3.2902150   2.9813002   7.3038282  )
        29           O1  tau(  29) = (   4.5938453   4.4726049   9.2879030  )
        30           O1  tau(  30) = (   1.9864658   4.4711199   9.2879459  )
        31           Ti1 tau(  31) = (   3.2891106   5.8743827   9.1763621  )
        32           Ti1 tau(  32) = (   0.0006254   4.4649316   9.2693709  )
        33           O1  tau(  33) = (   3.2918316   2.9938763  11.2915017  )
        34           O1  tau(  34) = (   0.0092240   2.9805883  10.6323155  )
        35           O1  tau(  35) = (   1.3226278   4.4784642  12.6110361  )
        36           O1  tau(  36) = (   5.3078083   4.4770455  12.6250823  )
        37           Ti1 tau(  37) = (   6.5141033   0.0190828  12.7620745  )
        38           Ti1 tau(  38) = (   3.1722404   4.4939287  12.4712879  )
        39           O1  tau(  39) = (   0.0035410   2.9850241  14.6487316  )
        40           O1  tau(  40) = (   3.3118331   3.0109266  13.8519036  )
        41           O1  tau(  41) = (   4.5522870   4.5059159  16.0259181  )
        42           O1  tau(  42) = (   2.0778134   4.5048723  16.0185459  )
        43           Ti1 tau(  43) = (   3.3116469   0.0596163  15.7453941  )
        44           Ti1 tau(  44) = (   0.0183239   4.5967015  16.1059876  )
        45           O1  tau(  45) = (   3.2900926   2.9813045   4.7018136  )
        46           O1  tau(  46) = (   1.3039711   4.4726057   6.0039043  )
        47           O1  tau(  47) = (   5.2763189   4.4711207   6.0039473  )
        48           N1  tau(  48) = (   0.0600715   3.0265251  17.3188267  )
        49           N1  tau(  49) = (   6.2826239   2.5295367  22.6224490  )
        50           C1  tau(  50) = (   0.2859397   3.0149959  18.7399364  )
        51           H1  tau(  51) = (   0.1411154   4.0060466  19.1894648  )
        52           H1  tau(  52) = (   6.1913215   2.3105648  19.2421896  )
        53           H1  tau(  53) = (   1.3125146   2.6868920  18.9691123  )
        54           H1  tau(  54) = (   6.1000088   3.2491606  23.3142794  )
        55           H1  tau(  55) = (   0.1456284   1.7586669  23.1118534  )
        56           H1  tau(  56) = (   0.3974265   2.9048463  21.9856970  )
        57           O1  tau(  57) = (   3.2908421   0.1044680  18.1630233  )
        58           H1  tau(  58) = (   4.0679411   5.5688996  18.4486002  )
        59           H1  tau(  59) = (   2.5060966   5.5711546  18.4327789  )

     number of k points=    10  Fermi-Dirac smearing, width (Ry)=  0.0073
                       cart. coord. in units 2pi/alat
        k(    1) = (   0.0000000   0.0000000   0.0000000), wk =   0.1250000
        k(    2) = (   0.0000000   0.0419351   0.0000000), wk =   0.2500000
        k(    3) = (   0.0000000  -0.0838702   0.0000000), wk =   0.1250000
        k(    4) = (   0.0379955   0.0000049   0.0000000), wk =   0.2500000
        k(    5) = (   0.0379955   0.0419400   0.0000000), wk =   0.2500000
        k(    6) = (   0.0379955  -0.0838652   0.0000000), wk =   0.2500000
        k(    7) = (   0.0379955  -0.0419301   0.0000000), wk =   0.2500000
        k(    8) = (  -0.0759910  -0.0000099   0.0000000), wk =   0.1250000
        k(    9) = (  -0.0759910   0.0419252   0.0000000), wk =   0.2500000
        k(   10) = (  -0.0759910  -0.0838800   0.0000000), wk =   0.1250000

     Initial potential from superposition of free atoms

     starting charge  389.99912, renormalised to  406.00000

     negative rho (up, down):  6.915E-03 0.000E+00

     %%%%%%%%%%%%%%%%%%%%%%%%%%%%%%%%%%%%%%%%%%%%%%%%%%%%%%%%%%%%%%%%%%%%%%%%
     %                                                                      %
     % You are using vdW-DF, which was implemented by the Thonhauser group. %
     % Please cite the following two papers that made this development      %
     % possible and the two reviews that describe the various versions:     %
     %                                                                      %
     %   T. Thonhauser et al., PRL 115, 136402 (2015).                      %
     %   T. Thonhauser et al., PRB 76, 125112 (2007).                       %
     %   K. Berland et al., Rep. Prog. Phys. 78, 066501 (2015).             %
     %   D.C. Langreth et al., J. Phys.: Condens. Matter 21, 084203 (2009). %
     %                                                                      %
     %                                                                      %
     % If you are calculating the stress with vdW-DF, please also cite:     %
     %                                                                      %
     %   R. Sabatini et al., J. Phys.: Condens. Matter 24, 424209 (2012).   %
     %                                                                      %
     %%%%%%%%%%%%%%%%%%%%%%%%%%%%%%%%%%%%%%%%%%%%%%%%%%%%%%%%%%%%%%%%%%%%%%%%

     Adding external electric field

     Computed dipole along edir(3) :
        Dipole              -16.2336 Ry au,        -41.2616 Debye
        Dipole field         -0.0306 Ry au,

        Potential amp.        2.8398 Ry
        Total length         46.3494 bohr

     Starting wfcs are  308 atomic wfcs
  @ DRIVER MODE: Message from server: STATUS
  @ DRIVER MODE: Message from server: POSDATA
  @ DRIVER MODE: Reading and sharing cell
  @ DRIVER MODE: Reading and sharing positions
  @ DRIVER MODE: Received positions

     Self-consistent Calculation

     iteration #  1     ecut=    29.40 Ry     beta= 0.05
     Davidson diagonalization with overlap
     c_bands:  2 eigenvalues not converged
     c_bands:  3 eigenvalues not converged
     c_bands:  5 eigenvalues not converged
     c_bands:  3 eigenvalues not converged
     c_bands:  3 eigenvalues not converged
     c_bands:  3 eigenvalues not converged
     c_bands:  1 eigenvalues not converged
     c_bands:  5 eigenvalues not converged
     c_bands:  3 eigenvalues not converged
     ethr =  1.00E-05,  avg # of iterations = 20.6

[...]

     total energy              =   -2255.00112592 Ry
     estimated scf accuracy    <    8246.85285428 Ry

     iteration #  2     ecut=    29.40 Ry     beta= 0.05
     Davidson diagonalization with overlap
     ethr =  1.00E-02,  avg # of iterations = 24.5

[...]

     iteration # 56     ecut=    29.40 Ry     beta= 0.05
     Davidson diagonalization with overlap
     c_bands:  1 eigenvalues not converged
     ethr =  3.09E-07,  avg # of iterations = 10.1

[...]

     total energy              =   -2977.74430088 Ry
     estimated scf accuracy    <       0.00000016 Ry

     iteration # 85     ecut=    29.40 Ry     beta= 0.05
     Davidson diagonalization with overlap
     ethr =  3.47E-11,  avg # of iterations =  5.0

     negative rho (up, down):  8.783E-03 0.000E+00

     Adding external electric field

     Computed dipole along edir(3) :
        Dipole                0.7657 Ry au,          1.9461 Debye
        Dipole field          0.0014 Ry au,

        Potential amp.       -0.1339 Ry
        Total length         46.3494 bohr

     End of self-consistent calculation

          k = 0.0000 0.0000 0.0000 ( 18029 PWs)   bands (ev):

   -56.2613 -56.2277 -55.3786 -55.3446 -55.3363 -55.3013 -55.1535 -55.1182
   -55.0311 -54.9113 -54.8925 -54.8904 -54.8774 -54.8064 -54.3903 -54.3407
   -32.6881 -32.5357 -32.5076 -32.4377 -32.3467 -32.3142 -31.8463 -31.8185
   -31.6889 -31.6443 -31.5955 -31.5776 -31.5475 -31.5383 -31.5093 -31.5043
   -31.4857 -31.4794 -31.4565 -31.4427 -31.4294 -31.3801 -31.3699 -31.3312
   -31.3188 -31.3022 -31.2928 -31.2798 -31.2550 -31.2544 -31.2509 -31.2267
   -31.1315 -31.1213 -31.0803 -31.0705 -31.0425 -31.0381 -31.0292 -31.0106
   -30.9798 -30.9273 -30.9050 -30.6339 -30.6116 -30.5806 -30.5597 -30.4509
   -18.4895 -16.4172 -15.9510 -15.7076 -15.6181 -15.5348 -15.4961 -15.4521
   -15.2994 -15.2325 -15.2099 -15.2094 -15.1387 -14.9906 -14.9434 -14.8455
   -14.7517 -14.6168 -14.5999 -14.5666 -14.5482 -14.5158 -14.5088 -14.4564
   -14.2937 -14.2581 -14.2101 -14.1462 -14.0616 -14.0417 -13.8369 -13.4095
   -13.2999 -12.6436  -7.4501  -6.3265  -4.1078  -4.0872  -3.9846  -3.4507
    -3.1812  -3.1537  -3.0250  -3.0203  -2.9741  -2.8341  -2.8225  -2.7538
    -2.7301  -2.6860  -2.6166  -2.5845  -2.5340  -2.4445  -2.4325  -2.4124
    -2.3991  -2.3833  -2.2617  -2.2207  -2.1671  -2.0643  -1.9560  -1.9129
    -1.8860  -1.8421  -1.8040  -1.7569  -1.7437  -1.7299  -1.7234  -1.6139
    -1.4981  -1.4656  -1.4503  -1.4041  -1.3850  -1.3769  -1.3544  -1.2698
    -1.1601  -1.0659  -0.9991  -0.9860  -0.9198  -0.9119  -0.8527  -0.7378
    -0.6764  -0.6719  -0.6557  -0.5521  -0.5255  -0.4539  -0.3906  -0.3331
    -0.2785  -0.2159  -0.1656  -0.1431  -0.1302  -0.0311   0.0404   0.0638
     0.1150   0.1245   0.1322   0.1541   0.2497   0.2865   0.3607   0.4055
     0.4411   0.4865   0.5684   0.6186   0.6863   0.7363   0.7589   0.8212
     0.8739   0.9296   1.0249   1.0716   1.0789   1.0874   1.1104   1.1707
     1.1845   1.2610   1.3438   1.3590   1.4315   1.5000   1.6605   1.6997
     1.9496   2.0211   2.6476   3.0158   3.1771   3.4724   3.6621   3.7995
     3.9950   4.0055   4.0126   4.2387   4.2622

[...]

          k = 0.0380-0.0419 0.0000 ( 17876 PWs)   bands (ev):

[...]

          k =-0.0760-0.0000 0.0000 ( 17886 PWs)   bands (ev):

[...]

          k =-0.0760-0.0839 0.0000 ( 17948 PWs)   bands (ev):

   -56.2447 -56.2442 -55.3635 -55.3592 -55.3237 -55.3140 -55.1369 -55.1346
   -55.0288 -54.8944 -54.8942 -54.8925 -54.8889 -54.8100 -54.3832 -54.3477
   -32.5216 -32.5212 -32.5051 -32.5048 -32.3909 -32.3905 -31.6700 -31.6641
   -31.6543 -31.6469 -31.5705 -31.5555 -31.5536 -31.5493 -31.5430 -31.5414
   -31.5357 -31.5270 -31.4950 -31.4785 -31.3824 -31.3803 -31.3467 -31.3410
   -31.3213 -31.2852 -31.2465 -31.2397 -31.2396 -31.2383 -31.2141 -31.1914
   -31.1493 -31.1191 -31.1189 -31.1152 -31.0916 -31.0800 -31.0799 -31.0648
   -31.0481 -31.0127 -30.7657 -30.7030 -30.6094 -30.5852 -30.5676 -30.5214
   -18.4887 -15.7678 -15.7659 -15.7307 -15.7300 -15.4630 -15.4597 -15.3662
   -15.3609 -15.2263 -15.1095 -15.0079 -14.9951 -14.9596 -14.9324 -14.8204
   -14.7997 -14.7905 -14.7804 -14.6682 -14.6482 -14.6035 -14.5921 -14.5752
   -14.5653 -14.2718 -14.2586 -14.1558 -14.1320 -14.0409 -13.9901 -13.4035
   -13.4034 -12.6622  -7.4438  -6.3192  -4.1178  -4.0890  -2.8628  -2.8572
    -2.8106  -2.8026  -2.8018  -2.7442  -2.6373  -2.5981  -2.5960  -2.5949
    -2.5099  -2.4461  -2.4382  -2.3668  -2.3339  -2.3145  -2.2547  -2.2458
    -2.1804  -2.1541  -2.1459  -2.1293  -2.1059  -2.1046  -2.0084  -1.9456
    -1.8939  -1.8905  -1.8229  -1.8049  -1.7409  -1.7203  -1.7091  -1.6779
    -1.6354  -1.6118  -1.5819  -1.5469  -1.5058  -1.4462  -1.2797  -1.2707
    -1.2613  -1.2395  -1.1140  -1.1058  -1.0766  -1.0465  -1.0406  -0.9665
    -0.9165  -0.8820  -0.8230  -0.7410  -0.7185  -0.6167  -0.5655  -0.5194
    -0.4643  -0.3570  -0.3396  -0.3296  -0.3193  -0.2895  -0.2231  -0.1946
    -0.1786  -0.0574  -0.0380   0.0152   0.0363   0.0910   0.1187   0.1849
     0.2102   0.2818   0.2935   0.3328   0.4067   0.4878   0.5220   0.5702
     0.5748   0.8511   0.9248   1.0548   1.0626   1.1229   1.1813   1.2531
     1.3125   1.3449   1.3718   1.4948   1.4991   1.5083   1.5088   1.5803
     1.5853   1.9272   2.5248   3.5917   3.5920   3.6585   3.6593   3.9799
     3.9862   4.0931   4.1034   4.2643   4.2794

     the Fermi energy is     2.8437 ev

!    total energy              =   -2977.74430825 Ry
     estimated scf accuracy    <       0.00000005 Ry
     smearing contrib. (-TS)   =      -0.00445393 Ry
     internal energy E=F+TS    =   -2977.73985432 Ry

     The total energy is F=E-TS. E is the sum of the following terms:
     one-electron contribution =  -22876.07706768 Ry
     hartree contribution      =   11535.75359559 Ry
     xc contribution           =    -496.33625281 Ry
     ewald contribution        =    8858.91876429 Ry
     electric field correction =       0.00110628 Ry

     convergence has been achieved in  85 iterations

     Forces acting on atoms (cartesian axes, Ry/au):

     atom    1 type  1   force =    -0.00003388   -0.00046365    0.12448377
     atom    2 type  1   force =    -0.00009028   -0.00048195   -0.15980066
     atom    3 type  2   force =     0.00019198   -0.00024407   -0.06792115
     atom    4 type  2   force =    -0.00000705   -0.00011698    0.02621821
     atom    5 type  2   force =    -0.01448029    0.00181948   -0.00991154
     atom    6 type  2   force =     0.01625897    0.00224408   -0.01025536
     atom    7 type  1   force =     0.00071042   -0.00387659    0.02889173
     atom    8 type  1   force =    -0.00034460   -0.00440135    0.10952850
     atom    9 type  2   force =     0.00023971   -0.00029382   -0.00053166
     atom   10 type  2   force =    -0.00231224    0.00256443   -0.07334851
     atom   11 type  2   force =    -0.00002865   -0.00033161   -0.00000001
     atom   12 type  2   force =    -0.00016621   -0.00082717    0.00001960
     atom   13 type  1   force =     0.00106454   -0.00040366    0.00013295
     atom   14 type  1   force =    -0.00064784    0.00066008   -0.00008278
     atom   15 type  2   force =    -0.00028655   -0.00037651   -0.00073609
     atom   16 type  2   force =    -0.00001658   -0.00011108    0.00070541
     atom   17 type  2   force =     0.00011635   -0.00099549   -0.00006618
     atom   18 type  2   force =     0.00054189   -0.00061062    0.00027200
     atom   19 type  1   force =    -0.00113668    0.00009836   -0.00090918
     atom   20 type  1   force =     0.00081647   -0.00010364   -0.00046494
     atom   21 type  2   force =     0.00004592   -0.00003560    0.09942332
     atom   22 type  2   force =     0.00003124   -0.00018535   -0.00030275
     atom   23 type  2   force =    -0.07968331   -0.00005688   -0.03249980
     atom   24 type  2   force =     0.07952700    0.00038212   -0.03254854
     atom   25 type  1   force =    -0.00000211   -0.00057302    0.12414797
     atom   26 type  1   force =    -0.00008748   -0.00062719   -0.15995312
     atom   27 type  2   force =     0.00030072   -0.00036212   -0.06697400
     atom   28 type  2   force =    -0.00002034    0.00015169    0.02513637
     atom   29 type  2   force =    -0.01510240    0.00192704   -0.00984804
     atom   30 type  2   force =     0.01677873    0.00242700   -0.01016194
     atom   31 type  1   force =     0.00074147   -0.00076247    0.02406471
     atom   32 type  1   force =    -0.00027731    0.00204327    0.11015388
     atom   33 type  2   force =     0.00007775    0.00029461    0.00056614
     atom   34 type  2   force =    -0.00193520    0.00199939   -0.07166137
     atom   35 type  2   force =    -0.00001790    0.00033991   -0.00001641
     atom   36 type  2   force =    -0.00054551    0.00061279   -0.00005938
     atom   37 type  1   force =     0.00119931    0.00043132    0.00031545
     atom   38 type  1   force =    -0.00054450   -0.00088919   -0.00020317
     atom   39 type  2   force =    -0.00027417   -0.00017131    0.00090765
     atom   40 type  2   force =     0.00017850   -0.00013794    0.00022914
     atom   41 type  2   force =     0.00113853    0.00006561   -0.00003148
     atom   42 type  2   force =    -0.00059939   -0.00033028    0.00032665
     atom   43 type  1   force =    -0.00160202   -0.00024779   -0.00018199
     atom   44 type  1   force =     0.00091930   -0.00018166   -0.00041865
     atom   45 type  2   force =     0.00002136   -0.00004879    0.09939297
     atom   46 type  2   force =    -0.07969895    0.00000364   -0.03251150
     atom   47 type  2   force =     0.07955018    0.00043812   -0.03253637
     atom   48 type  3   force =    -0.00085564   -0.00077991   -0.00041066
     atom   49 type  3   force =    -0.00033944   -0.00048568    0.00131462
     atom   50 type  4   force =    -0.00025399   -0.00010938    0.00001515
     atom   51 type  5   force =    -0.00020330    0.00038123    0.00028337
     atom   52 type  5   force =    -0.00006673   -0.00053501    0.00073354
     atom   53 type  5   force =     0.00051834   -0.00013363    0.00020720
     atom   54 type  5   force =     0.00006435   -0.00023202   -0.00059540
     atom   55 type  5   force =     0.00003141    0.00031418   -0.00029405
     atom   56 type  5   force =     0.00029042    0.00036609   -0.00182421
     atom   57 type  2   force =     0.00168699    0.01192097   -0.00700045
     atom   58 type  5   force =     0.00593606   -0.00510152    0.00338646
     atom   59 type  5   force =    -0.00731740   -0.00586048    0.00320457

     Total force =     0.423932     Total SCF correction =     0.000586
  @ DRIVER MODE: Message from server: STATUS
  @ DRIVER MODE: Message from server: GETFORCE
  @ DRIVER MODE: Returning v,forces,stress,ensemble

     Writing output data file ./calc.save/
  @ DRIVER MODE: Message from server: EXIT
  @ DRIVE MODE: Exiting

     General routines

     Parallel routines

   This run was terminated on:  12: 1:57  16Sep2021

   JOB DONE.