     Program PWSCF v.6.7GPU starts on 16Sep2021 at  1:23:53

     R & G space division:  proc/nbgrp/npool/nimage =      10
     Reading input from /storage/home/hcoda1/3/ntian30/research/carbon/CxH_vib/H2O_calc/ads_slab/CH2N2HH2O_a/out_0030/pw.inp
Warning: card &CELL ignored
Warning: card   CELL_DYNAMICS='IPI', ignored
Warning: card / ignored

     Current dimensions of program PWSCF are:
     Max number of different atomic species (ntypx) = 10
     Max number of k-points (npk) =  40000
     Max angular momentum in pseudopotentials (lmaxx) =  3
     Presently no symmetry can be used with electric field

     Message from routine cell_base_init:
     DEPRECATED: use true lattice parameter, not A to a.u. conversion factor

     IMPORTANT: XC functional enforced from input :
     Exchange-correlation= BEEF-VDW
                           (   1   4  43  14   2   0   0)
     Any further DFT definition will be discarded
     Please, verify this is what you really want

  @ DRIVER MODE: Connecting to
 qe_1139763_2852606.sched-torque.pace.gatech.edu5hwa8wad_scratch
  using UNIX socket
  @ DRIVER MODE: Message from server: STATUS
  @ DRIVER MODE: Message from server: INIT
  @ DRIVER MODE: Receiving replica           0          -1
  @ DRIVER MODE: Receiving encoded integer          25
  @ DRIVER MODE:  SCF:  T  FORCE:  T  STRESS:  F  VC:  F  ENSEMBLE:  F
  @ DRIVER MODE:  SCF:  T  FORCE:  T  STRESS:  F  VC:  F  ENSEMBLE:  F

     Using Slab Decomposition

     bravais-lattice index     =            0
     lattice parameter (alat)  =       1.8897  a.u.
     unit-cell volume          =    6658.9804 (a.u.)^3
     number of atoms/cell      =           56
     number of atomic types    =            5
     number of electrons       =       403.00
     number of Kohn-Sham states=          211
     kinetic-energy cutoff     =      29.3995  Ry
     charge density cutoff     =     293.9946  Ry
     scf convergence threshold =      7.3E-08
     mixing beta               =       0.0500
     number of iterations used =            8  plain     mixing
     Exchange-correlation= BEEF-VDW
                           (   1   4  43  14   2   0   0)

     celldm(1)=   1.889726  celldm(2)=   0.000000  celldm(3)=   0.000000
     celldm(4)=   0.000000  celldm(5)=   0.000000  celldm(6)=   0.000000

     crystal axes: (cart. coord. in units of alat)
               a(1) = (   6.579727   0.000000   0.000000 )
               a(2) = (  -0.000775   5.961596   0.000000 )
               a(3) = (   0.000000   0.000000  25.155947 )

     reciprocal axes: (cart. coord. in units 2 pi/alat)
               b(1) = (  0.151982  0.000020  0.000000 )
               b(2) = (  0.000000  0.167740  0.000000 )
               b(3) = (  0.000000  0.000000  0.039752 )

     PseudoPot. # 1 for Ti read from file:
     /storage/coda1/p-amedford6/0/shared/rich_project_chbe-medford/medford-share/data/pseudos_module/espresso/nninc/pbe/van/Ti.UPF
     MD5 check sum: 8e4df49b7f0d34bbd5052bf3f5ea0213
     Pseudo is Ultrasoft, Zval = 12.0
     Generated by new atomic code, or converted to UPF format
     Using radial grid of  851 points,  6 beta functions with:
                l(1) =   0
                l(2) =   0
                l(3) =   1
                l(4) =   1
                l(5) =   2
                l(6) =   2
     Q(r) pseudized with  8 coefficients,  rinner =    1.000   1.000   1.000
                                                       1.000   1.000

     PseudoPot. # 2 for O  read from file:
     /storage/coda1/p-amedford6/0/shared/rich_project_chbe-medford/medford-share/data/pseudos_module/espresso/nninc/pbe/van/O.UPF
     MD5 check sum: 78c19812648e8988a0fe644b0f25305e
     Pseudo is Ultrasoft, Zval =  6.0
     Generated by new atomic code, or converted to UPF format
     Using radial grid of  737 points,  4 beta functions with:
                l(1) =   0
                l(2) =   0
                l(3) =   1
                l(4) =   1
     Q(r) pseudized with  8 coefficients,  rinner =    0.800   0.800   0.800

     PseudoPot. # 3 for N  read from file:
     /storage/coda1/p-amedford6/0/shared/rich_project_chbe-medford/medford-share/data/pseudos_module/espresso/nninc/pbe/van/N.UPF
     MD5 check sum: 90d10febe142ad51ac9d5be1deb811c4
     Pseudo is Ultrasoft, Zval =  5.0
     Generated by new atomic code, or converted to UPF format
     Using radial grid of  729 points,  4 beta functions with:
                l(1) =   0
                l(2) =   0
                l(3) =   1
                l(4) =   1
     Q(r) pseudized with  8 coefficients,  rinner =    0.800   0.800   0.800

     PseudoPot. # 4 for C  read from file:
     /storage/coda1/p-amedford6/0/shared/rich_project_chbe-medford/medford-share/data/pseudos_module/espresso/nninc/pbe/van/C.UPF
     MD5 check sum: 1a69bf6b8db32088f5b2163dbdb77a27
     Pseudo is Ultrasoft, Zval =  4.0
     Generated by new atomic code, or converted to UPF format
     Using radial grid of  721 points,  4 beta functions with:
                l(1) =   0
                l(2) =   0
                l(3) =   1
                l(4) =   1
     Q(r) pseudized with  8 coefficients,  rinner =    0.800   0.800   0.800

     PseudoPot. # 5 for H  read from file:
     /storage/coda1/p-amedford6/0/shared/rich_project_chbe-medford/medford-share/data/pseudos_module/espresso/nninc/pbe/van/H.UPF
     MD5 check sum: b5ee9d7bfd3a09ee7748110bda690ff7
     Pseudo is Ultrasoft, Zval =  1.0
     Generated by new atomic code, or converted to UPF format
     Using radial grid of  615 points,  1 beta functions with:
                l(1) =   0
     Q(r) pseudized with  8 coefficients,  rinner =    0.800

     atomic species   valence    mass     pseudopotential
        Ti1           12.00    47.86700     Ti( 1.00)
        O1             6.00    15.99900     O ( 1.00)
        N1             5.00    14.00700     N ( 1.00)
        C1             4.00    12.01100     C ( 1.00)
        H1             1.00     1.00800     H ( 1.00)

     No symmetry found

   Cartesian axes

     site n.     atom                  positions (alat units)
         1           Ti1 tau(   1) = (   0.0004258   2.9801865   6.0000000  )
         2           Ti1 tau(   2) = (   3.2906075   1.4906267   6.0002472  )
         3           O1  tau(   3) = (   0.0006271   0.0005054   7.9858123  )
         4           O1  tau(   4) = (   3.2906025   0.0005020   7.3038282  )
         5           O1  tau(   5) = (   4.5942328   1.4918067   9.2879030  )
         6           O1  tau(   6) = (   1.9868534   1.4903216   9.2879459  )
         7           Ti1 tau(   7) = (   3.2907910   2.8959150   9.1758416  )
         8           Ti1 tau(   8) = (   0.0015273   1.4827037   9.2680791  )
         9           O1  tau(   9) = (   3.2932810   5.9556063  11.3276769  )
        10           O1  tau(  10) = (   0.0116148   5.9584955  10.6183126  )
        11           O1  tau(  11) = (   1.2966828   1.5020869  12.6141357  )
        12           O1  tau(  12) = (   5.2995835   1.4923495  12.6341875  )
        13           Ti1 tau(  13) = (   6.5470072   2.9473109  12.5798724  )
        14           Ti1 tau(  14) = (   3.2302912   1.4573256  12.5082679  )
        15           O1  tau(  15) = (   0.0525813   0.0137714  14.6435187  )
        16           O1  tau(  16) = (   3.2708393   0.0302713  13.9228694  )
        17           O1  tau(  17) = (   4.5627544   1.5900677  16.0055000  )
        18           O1  tau(  18) = (   2.0437599   1.5040777  16.0764052  )
        19           Ti1 tau(  19) = (   3.3063064   2.9825517  15.6619520  )
        20           Ti1 tau(  20) = (   6.5607061   1.3194196  15.9785141  )
        21           O1  tau(  21) = (   3.2904802   0.0005063   4.7018136  )
        22           O1  tau(  22) = (   6.3855286   5.9589440  17.1610702  )
        23           O1  tau(  23) = (   1.3043587   1.4918075   6.0039043  )
        24           O1  tau(  24) = (   5.2767064   1.4903225   6.0039473  )
        25           Ti1 tau(  25) = (   0.0000382   5.9609847   6.0000000  )
        26           Ti1 tau(  26) = (   3.2902200   4.4714249   6.0002472  )
        27           O1  tau(  27) = (   0.0002396   2.9813036   7.9858123  )
        28           O1  tau(  28) = (   3.2902150   2.9813002   7.3038282  )
        29           O1  tau(  29) = (   4.5938453   4.4726049   9.2879030  )
        30           O1  tau(  30) = (   1.9864658   4.4711199   9.2879459  )
        31           Ti1 tau(  31) = (   3.2891106   5.8743827   9.1763621  )
        32           Ti1 tau(  32) = (   0.0006254   4.4649316   9.2693709  )
        33           O1  tau(  33) = (   3.2946552   2.9814125  11.3288906  )
        34           O1  tau(  34) = (   0.0092240   2.9805883  10.6323155  )
        35           O1  tau(  35) = (   1.2978438   4.4726441  12.6233041  )
        36           O1  tau(  36) = (   5.2969606   4.4732664  12.6435870  )
        37           Ti1 tau(  37) = (   6.5415350   5.9305516  12.5357152  )
        38           Ti1 tau(  38) = (   3.2303862   4.4559975  12.4807118  )
        39           O1  tau(  39) = (   0.0164246   2.9899045  14.7829194  )
        40           O1  tau(  40) = (   3.2688228   2.9752494  13.8698570  )
        41           O1  tau(  41) = (   4.5210259   4.4573316  15.9082071  )
        42           O1  tau(  42) = (   2.0412773   4.4882057  16.0214637  )
        43           Ti1 tau(  43) = (   3.2233344   5.9452837  15.7820064  )
        44           Ti1 tau(  44) = (   6.5355943   4.4735413  15.8975681  )
        45           O1  tau(  45) = (   3.2900926   2.9813045   4.7018136  )
        46           O1  tau(  46) = (   1.3039711   4.4726057   6.0039043  )
        47           O1  tau(  47) = (   5.2763189   4.4711207   6.0039473  )
        48           N1  tau(  48) = (   0.2167872   2.3688911  18.0161765  )
        49           C1  tau(  49) = (   0.4968348   1.8934616  19.1878903  )
        50           H1  tau(  50) = (   0.5617972   2.5522217  20.0513624  )
        51           H1  tau(  51) = (   0.6371857   0.8299532  19.2874115  )
        52           N1  tau(  52) = (   6.5661014   3.6386027  17.7850644  )
        53           H1  tau(  53) = (   0.0713089   4.2532688  18.5884219  )
        54           O1  tau(  54) = (   3.6608114   5.9026821  18.0962282  )
        55           H1  tau(  55) = (   4.6425638   0.0038819  18.0438526  )
        56           H1  tau(  56) = (   3.3558581   0.7595698  18.5153002  )

     number of k points=    10  Fermi-Dirac smearing, width (Ry)=  0.0073
                       cart. coord. in units 2pi/alat
        k(    1) = (   0.0000000   0.0000000   0.0000000), wk =   0.1250000
        k(    2) = (   0.0000000   0.0419351   0.0000000), wk =   0.2500000
        k(    3) = (   0.0000000  -0.0838702   0.0000000), wk =   0.1250000
        k(    4) = (   0.0379955   0.0000049   0.0000000), wk =   0.2500000
        k(    5) = (   0.0379955   0.0419400   0.0000000), wk =   0.2500000
        k(    6) = (   0.0379955  -0.0838652   0.0000000), wk =   0.2500000
        k(    7) = (   0.0379955  -0.0419301   0.0000000), wk =   0.2500000
        k(    8) = (  -0.0759910  -0.0000099   0.0000000), wk =   0.1250000
        k(    9) = (  -0.0759910   0.0419252   0.0000000), wk =   0.2500000
        k(   10) = (  -0.0759910  -0.0838800   0.0000000), wk =   0.1250000

     Initial potential from superposition of free atoms

     starting charge  386.99914, renormalised to  403.00000

     negative rho (up, down):  1.554E-02 0.000E+00

     %%%%%%%%%%%%%%%%%%%%%%%%%%%%%%%%%%%%%%%%%%%%%%%%%%%%%%%%%%%%%%%%%%%%%%%%
     %                                                                      %
     % You are using vdW-DF, which was implemented by the Thonhauser group. %
     % Please cite the following two papers that made this development      %
     % possible and the two reviews that describe the various versions:     %
     %                                                                      %
     %   T. Thonhauser et al., PRL 115, 136402 (2015).                      %
     %   T. Thonhauser et al., PRB 76, 125112 (2007).                       %
     %   K. Berland et al., Rep. Prog. Phys. 78, 066501 (2015).             %
     %   D.C. Langreth et al., J. Phys.: Condens. Matter 21, 084203 (2009). %
     %                                                                      %
     %                                                                      %
     % If you are calculating the stress with vdW-DF, please also cite:     %
     %                                                                      %
     %   R. Sabatini et al., J. Phys.: Condens. Matter 24, 424209 (2012).   %
     %                                                                      %
     %%%%%%%%%%%%%%%%%%%%%%%%%%%%%%%%%%%%%%%%%%%%%%%%%%%%%%%%%%%%%%%%%%%%%%%%

     Adding external electric field

     Computed dipole along edir(3) :
        Dipole              -12.7991 Ry au,        -32.5320 Debye
        Dipole field         -0.0242 Ry au,

        Potential amp.        2.2390 Ry
        Total length         46.3494 bohr

     Starting wfcs are  305 atomic wfcs
  @ DRIVER MODE: Message from server: STATUS
  @ DRIVER MODE: Message from server: POSDATA
  @ DRIVER MODE: Reading and sharing cell
  @ DRIVER MODE: Reading and sharing positions
  @ DRIVER MODE: Received positions

     Self-consistent Calculation

     iteration #  1     ecut=    29.40 Ry     beta= 0.05
     Davidson diagonalization with overlap
     c_bands:  3 eigenvalues not converged
     c_bands:  3 eigenvalues not converged
     c_bands:  3 eigenvalues not converged
     c_bands:  5 eigenvalues not converged
     c_bands:  1 eigenvalues not converged
     c_bands:  1 eigenvalues not converged
     c_bands:  4 eigenvalues not converged
     c_bands:  3 eigenvalues not converged
     ethr =  1.00E-05,  avg # of iterations = 27.5

[...]

     total energy              =   -2369.03323667 Ry
     estimated scf accuracy    <    6884.82082149 Ry

     iteration #  2     ecut=    29.40 Ry     beta= 0.05
     Davidson diagonalization with overlap
     ethr =  1.00E-02,  avg # of iterations = 23.8

[...]

     iteration # 78     ecut=    29.40 Ry     beta= 0.05
     Davidson diagonalization with overlap
     c_bands:  1 eigenvalues not converged
     ethr =  4.86E-09,  avg # of iterations = 16.6

[...]

     total energy              =   -2973.98316566 Ry
     estimated scf accuracy    <       0.00000012 Ry

     iteration # 89     ecut=    29.40 Ry     beta= 0.05
     Davidson diagonalization with overlap
     ethr =  2.86E-11,  avg # of iterations =  8.7

     negative rho (up, down):  1.542E-02 0.000E+00

     Adding external electric field

     Computed dipole along edir(3) :
        Dipole                0.9179 Ry au,          2.3331 Debye
        Dipole field          0.0017 Ry au,

        Potential amp.       -0.1606 Ry
        Total length         46.3494 bohr

     End of self-consistent calculation

          k = 0.0000 0.0000 0.0000 ( 18029 PWs)   bands (ev):

   -55.6178 -55.5899 -55.5838 -55.5518 -55.4993 -55.4880 -55.4577 -55.4354
   -55.4014 -55.3970 -55.3630 -55.3400 -55.0467 -54.9978 -54.5976 -54.5636
   -32.1339 -32.1019 -31.9902 -31.9352 -31.9220 -31.9097 -31.8883 -31.8753
   -31.8623 -31.8215 -31.7704 -31.7663 -31.7380 -31.7375 -31.7340 -31.7238
   -31.7194 -31.7159 -31.7128 -31.7107 -31.6800 -31.6753 -31.6666 -31.6387
   -31.6293 -31.6284 -31.6211 -31.6184 -31.6028 -31.5944 -31.5772 -31.5641
   -31.5517 -31.5454 -31.5403 -31.5104 -31.5080 -31.3095 -31.2714 -31.2494
   -31.1942 -31.1524 -31.0044 -30.9166 -30.8942 -30.8215 -30.7350 -30.6236
   -18.6638 -17.9219 -16.3378 -16.0955 -15.8558 -15.7787 -15.7464 -15.5327
   -15.4298 -15.3742 -15.2389 -15.1906 -15.1765 -15.1563 -15.1311 -15.0970
   -15.0708 -15.0572 -15.0503 -15.0339 -15.0084 -14.9816 -14.9613 -14.9576
   -14.9166 -14.8477 -14.7784 -14.7528 -14.6906 -14.6785 -14.2381 -13.0986
   -12.9822 -12.0632  -7.8800  -6.4477  -5.3042  -4.4899  -3.7115  -3.5736
    -3.5260  -3.4761  -3.4673  -3.2784  -3.1910  -3.0608  -2.9016  -2.8522
    -2.7838  -2.7458  -2.7063  -2.6442  -2.6024  -2.4964  -2.4612  -2.4305
    -2.4152  -2.3702  -2.3647  -2.3606  -2.2986  -2.2627  -2.1840  -2.1580
    -2.0784  -2.0088  -1.9801  -1.9530  -1.9321  -1.9147  -1.9087  -1.8623
    -1.8609  -1.8591  -1.7860  -1.7366  -1.6651  -1.6165  -1.5433  -1.4208
    -1.3816  -1.2711  -1.2253  -1.1041  -1.1002  -1.0759  -1.0531  -1.0142
    -1.0048  -0.8827  -0.7976  -0.7467  -0.7119  -0.6501  -0.5463  -0.5260
    -0.4369  -0.4319  -0.3782  -0.3654  -0.3488  -0.3199  -0.2429  -0.1305
    -0.1102  -0.0499  -0.0006   0.0622   0.1062   0.1309   0.1696   0.2197
     0.2417   0.2819   0.3097   0.3204   0.3536   0.3919   0.4136   0.4920
     0.5662   0.6143   0.6636   0.7034   0.7068   0.8858   0.9985   1.0368
     1.1679   1.1993   1.3584   1.4261   1.4959   1.6178   1.9962   2.0418
     2.2362   3.4899   3.6035   3.6279   3.6379   3.7412   3.8743   3.9574
     3.9982   4.0223   4.0615

[...]

          k = 0.0380-0.0419 0.0000 ( 17876 PWs)   bands (ev):

[...]

          k =-0.0760-0.0000 0.0000 ( 17886 PWs)   bands (ev):

[...]

          k =-0.0760-0.0839 0.0000 ( 17948 PWs)   bands (ev):

   -55.6009 -55.6005 -55.5772 -55.5642 -55.4903 -55.4859 -55.4667 -55.4187
   -55.4177 -55.3826 -55.3775 -55.3419 -55.0395 -55.0049 -54.5807 -54.5803
   -31.9502 -31.9250 -31.9173 -31.9170 -31.8953 -31.8949 -31.8301 -31.8253
   -31.8170 -31.8122 -31.7936 -31.7434 -31.7396 -31.7365 -31.7271 -31.7257
   -31.7237 -31.7209 -31.7200 -31.7184 -31.7169 -31.7043 -31.6950 -31.6804
   -31.6777 -31.6731 -31.6518 -31.6228 -31.6218 -31.6122 -31.6034 -31.5993
   -31.5962 -31.5952 -31.5937 -31.5489 -31.5237 -31.2990 -31.2738 -31.2680
   -31.2534 -31.1948 -30.9070 -30.9068 -30.8174 -30.8170 -30.7784 -30.7782
   -18.6617 -17.9094 -15.7786 -15.6856 -15.5987 -15.5565 -15.4778 -15.4599
   -15.4054 -15.3405 -15.3022 -15.2836 -15.2423 -15.2136 -15.1690 -15.1564
   -15.1490 -15.1253 -15.1012 -15.0770 -15.0658 -15.0597 -15.0549 -15.0416
   -15.0082 -14.9766 -14.9393 -14.9354 -14.9071 -14.6645 -14.5869 -13.0841
   -13.0839 -12.0160  -7.8043  -6.4415  -5.3684  -4.5593  -3.1865  -3.0665
    -2.8938  -2.8555  -2.8051  -2.7544  -2.7469  -2.6926  -2.5683  -2.5590
    -2.5273  -2.4640  -2.4404  -2.4373  -2.4287  -2.4247  -2.4037  -2.3670
    -2.3662  -2.3101  -2.3022  -2.2911  -2.2858  -2.2645  -2.2499  -2.2467
    -2.2231  -2.1773  -2.1609  -2.1467  -2.0393  -1.9336  -1.8808  -1.8396
    -1.8095  -1.7665  -1.7616  -1.7413  -1.7260  -1.6874  -1.6717  -1.6154
    -1.4999  -1.4224  -1.3354  -1.3059  -1.2761  -1.2066  -1.1611  -1.0967
    -1.0569  -1.0512  -0.9672  -0.8539  -0.8393  -0.8027  -0.7741  -0.6986
    -0.6697  -0.6368  -0.5768  -0.5700  -0.5429  -0.5123  -0.4618  -0.3869
    -0.3682  -0.3618  -0.3295  -0.3237  -0.3120  -0.2691  -0.1954  -0.0998
    -0.0287  -0.0219   0.0848   0.2062   0.3084   0.4408   0.4690   0.5175
     0.5703   0.6035   0.6872   0.6954   0.7193   0.7852   0.8287   0.8967
     0.9202   0.9355   1.0229   1.0315   1.7900   1.7912   1.8618   1.8620
     2.1812   3.8543   3.8826   3.9031   3.9478   4.0252   4.0494   4.0502
     4.0561   4.1721   4.1837

     the Fermi energy is     3.5088 ev

!    total energy              =   -2973.98316855 Ry
     estimated scf accuracy    <       0.00000006 Ry
     smearing contrib. (-TS)   =      -0.02040608 Ry
     internal energy E=F+TS    =   -2973.96276247 Ry

     The total energy is F=E-TS. E is the sum of the following terms:
     one-electron contribution =  -24201.61967904 Ry
     hartree contribution      =   12195.39831961 Ry
     xc contribution           =    -494.26508333 Ry
     ewald contribution        =    9526.52209024 Ry
     electric field correction =       0.00159005 Ry

     convergence has been achieved in  89 iterations

     Forces acting on atoms (cartesian axes, Ry/au):

     atom    1 type  1   force =    -0.00006065   -0.00019240    0.09551402
     atom    2 type  1   force =     0.00001792   -0.00036161   -0.17557927
     atom    3 type  2   force =     0.00009621   -0.00012711   -0.02314881
     atom    4 type  2   force =     0.00000783   -0.00139104    0.05290650
     atom    5 type  2   force =    -0.00999686   -0.00075273    0.00325169
     atom    6 type  2   force =     0.01152820   -0.00009533    0.00282835
     atom    7 type  1   force =     0.00046567    0.00027864   -0.00662675
     atom    8 type  1   force =     0.00029152    0.00537243    0.01758090
     atom    9 type  2   force =    -0.00014849   -0.00015464   -0.00040091
     atom   10 type  2   force =    -0.00346151    0.00074577   -0.01265362
     atom   11 type  2   force =    -0.00081502   -0.00033243    0.00010766
     atom   12 type  2   force =     0.00032227   -0.00017745    0.00011300
     atom   13 type  1   force =    -0.00025789    0.00040601   -0.00024158
     atom   14 type  1   force =     0.00021816    0.00003690    0.00066917
     atom   15 type  2   force =    -0.00014698   -0.00032694   -0.00031277
     atom   16 type  2   force =    -0.00003293   -0.00023585   -0.00009483
     atom   17 type  2   force =     0.00051819   -0.00012088   -0.00013385
     atom   18 type  2   force =    -0.00024042   -0.00039019   -0.00010843
     atom   19 type  1   force =    -0.00010973   -0.00025594    0.00038257
     atom   20 type  1   force =     0.00047194   -0.00004680   -0.00010173
     atom   21 type  2   force =     0.00007049    0.00003643    0.10319163
     atom   22 type  2   force =     0.00014806    0.00017262   -0.00005668
     atom   23 type  2   force =    -0.07160190   -0.00012690   -0.02754079
     atom   24 type  2   force =     0.07153097    0.00037365   -0.02758110
     atom   25 type  1   force =     0.00019310   -0.00009808    0.09518771
     atom   26 type  1   force =     0.00008166   -0.00040088   -0.17577359
     atom   27 type  2   force =     0.00011155   -0.00023611   -0.02207176
     atom   28 type  2   force =     0.00002754   -0.00098917    0.05230955
     atom   29 type  2   force =    -0.01014556    0.00036907    0.00285838
     atom   30 type  2   force =     0.01154860    0.00074496    0.00247988
     atom   31 type  1   force =     0.00027805    0.00393014   -0.01132175
     atom   32 type  1   force =     0.00045870   -0.00672964    0.01785839
     atom   33 type  2   force =    -0.00007996    0.00005451   -0.00020692
     atom   34 type  2   force =    -0.00395320    0.00074076   -0.01214097
     atom   35 type  2   force =    -0.00020855    0.00008611   -0.00016464
     atom   36 type  2   force =    -0.00001267    0.00003702   -0.00007144
     atom   37 type  1   force =    -0.00004886   -0.00042962    0.00029892
     atom   38 type  1   force =     0.00006367    0.00002166    0.00038525
     atom   39 type  2   force =     0.00035523   -0.00031431    0.00027900
     atom   40 type  2   force =    -0.00050460    0.00028048   -0.00009377
     atom   41 type  2   force =     0.00042710   -0.00000024   -0.00009314
     atom   42 type  2   force =    -0.00001724    0.00005801    0.00034750
     atom   43 type  1   force =    -0.00013017   -0.00019201    0.00019078
     atom   44 type  1   force =    -0.00012770   -0.00088428    0.00354927
     atom   45 type  2   force =     0.00007518   -0.00000040    0.10314955
     atom   46 type  2   force =    -0.07160319   -0.00004309   -0.02751387
     atom   47 type  2   force =     0.07153428    0.00034767   -0.02760235
     atom   48 type  3   force =     0.00034406    0.00048313    0.00375170
     atom   49 type  4   force =     0.00158691   -0.00284797    0.00144525
     atom   50 type  5   force =     0.00020311   -0.00041599    0.00021178
     atom   51 type  5   force =     0.00059903   -0.00025770    0.00022955
     atom   52 type  3   force =    -0.00267170   -0.00169859   -0.02022587
     atom   53 type  5   force =     0.00203830    0.00580483    0.01073959
     atom   54 type  2   force =    -0.00059516   -0.00133228   -0.00080235
     atom   55 type  5   force =     0.00169204   -0.00000698    0.00023055
     atom   56 type  5   force =    -0.00033461    0.00158480    0.00061548

     Total force =     0.365570     Total SCF correction =     0.000547
  @ DRIVER MODE: Message from server: STATUS
  @ DRIVER MODE: Message from server: GETFORCE
  @ DRIVER MODE: Returning v,forces,stress,ensemble

     Writing output data file ./calc.save/
  @ DRIVER MODE: Message from server: EXIT
  @ DRIVE MODE: Exiting

     General routines

     Parallel routines

   This run was terminated on:   1:48:35  16Sep2021

   JOB DONE.