     Program PWSCF v.6.7GPU starts on 16Sep2021 at  3: 4:54

     R & G space division:  proc/nbgrp/npool/nimage =      10
     Reading input from /storage/home/hcoda1/3/ntian30/research/carbon/CxH_vib/H2O_calc/ads_slab/CHNNHHH2O_a/out_0036/pw.inp
Warning: card &CELL ignored
Warning: card   CELL_DYNAMICS='IPI', ignored
Warning: card / ignored

     Current dimensions of program PWSCF are:
     Max number of different atomic species (ntypx) = 10
     Max number of k-points (npk) =  40000
     Max angular momentum in pseudopotentials (lmaxx) =  3
     Presently no symmetry can be used with electric field

     Message from routine cell_base_init:
     DEPRECATED: use true lattice parameter, not A to a.u. conversion factor

     IMPORTANT: XC functional enforced from input :
     Exchange-correlation= BEEF-VDW
                           (   1   4  43  14   2   0   0)
     Any further DFT definition will be discarded
     Please, verify this is what you really want

  @ DRIVER MODE: Connecting to
 qe_1139763_2852630.sched-torque.pace.gatech.eduw8924trr_scratch
  using UNIX socket
  @ DRIVER MODE: Message from server: STATUS
  @ DRIVER MODE: Message from server: INIT
  @ DRIVER MODE: Receiving replica           0          -1
  @ DRIVER MODE: Receiving encoded integer          25
  @ DRIVER MODE:  SCF:  T  FORCE:  T  STRESS:  F  VC:  F  ENSEMBLE:  F
  @ DRIVER MODE:  SCF:  T  FORCE:  T  STRESS:  F  VC:  F  ENSEMBLE:  F

     Using Slab Decomposition

     bravais-lattice index     =            0
     lattice parameter (alat)  =       1.8897  a.u.
     unit-cell volume          =    6658.9804 (a.u.)^3
     number of atoms/cell      =           56
     number of atomic types    =            5
     number of electrons       =       403.00
     number of Kohn-Sham states=          211
     kinetic-energy cutoff     =      29.3995  Ry
     charge density cutoff     =     293.9946  Ry
     scf convergence threshold =      7.3E-08
     mixing beta               =       0.0500
     number of iterations used =            8  plain     mixing
     Exchange-correlation= BEEF-VDW
                           (   1   4  43  14   2   0   0)

     celldm(1)=   1.889726  celldm(2)=   0.000000  celldm(3)=   0.000000
     celldm(4)=   0.000000  celldm(5)=   0.000000  celldm(6)=   0.000000

     crystal axes: (cart. coord. in units of alat)
               a(1) = (   6.579727   0.000000   0.000000 )
               a(2) = (  -0.000775   5.961596   0.000000 )
               a(3) = (   0.000000   0.000000  25.155947 )

     reciprocal axes: (cart. coord. in units 2 pi/alat)
               b(1) = (  0.151982  0.000020  0.000000 )
               b(2) = (  0.000000  0.167740  0.000000 )
               b(3) = (  0.000000  0.000000  0.039752 )

     PseudoPot. # 1 for Ti read from file:
     /storage/coda1/p-amedford6/0/shared/rich_project_chbe-medford/medford-share/data/pseudos_module/espresso/nninc/pbe/van/Ti.UPF
     MD5 check sum: 8e4df49b7f0d34bbd5052bf3f5ea0213
     Pseudo is Ultrasoft, Zval = 12.0
     Generated by new atomic code, or converted to UPF format
     Using radial grid of  851 points,  6 beta functions with:
                l(1) =   0
                l(2) =   0
                l(3) =   1
                l(4) =   1
                l(5) =   2
                l(6) =   2
     Q(r) pseudized with  8 coefficients,  rinner =    1.000   1.000   1.000
                                                       1.000   1.000

     PseudoPot. # 2 for O  read from file:
     /storage/coda1/p-amedford6/0/shared/rich_project_chbe-medford/medford-share/data/pseudos_module/espresso/nninc/pbe/van/O.UPF
     MD5 check sum: 78c19812648e8988a0fe644b0f25305e
     Pseudo is Ultrasoft, Zval =  6.0
     Generated by new atomic code, or converted to UPF format
     Using radial grid of  737 points,  4 beta functions with:
                l(1) =   0
                l(2) =   0
                l(3) =   1
                l(4) =   1
     Q(r) pseudized with  8 coefficients,  rinner =    0.800   0.800   0.800

     PseudoPot. # 3 for N  read from file:
     /storage/coda1/p-amedford6/0/shared/rich_project_chbe-medford/medford-share/data/pseudos_module/espresso/nninc/pbe/van/N.UPF
     MD5 check sum: 90d10febe142ad51ac9d5be1deb811c4
     Pseudo is Ultrasoft, Zval =  5.0
     Generated by new atomic code, or converted to UPF format
     Using radial grid of  729 points,  4 beta functions with:
                l(1) =   0
                l(2) =   0
                l(3) =   1
                l(4) =   1
     Q(r) pseudized with  8 coefficients,  rinner =    0.800   0.800   0.800

     PseudoPot. # 4 for C  read from file:
     /storage/coda1/p-amedford6/0/shared/rich_project_chbe-medford/medford-share/data/pseudos_module/espresso/nninc/pbe/van/C.UPF
     MD5 check sum: 1a69bf6b8db32088f5b2163dbdb77a27
     Pseudo is Ultrasoft, Zval =  4.0
     Generated by new atomic code, or converted to UPF format
     Using radial grid of  721 points,  4 beta functions with:
                l(1) =   0
                l(2) =   0
                l(3) =   1
                l(4) =   1
     Q(r) pseudized with  8 coefficients,  rinner =    0.800   0.800   0.800

     PseudoPot. # 5 for H  read from file:
     /storage/coda1/p-amedford6/0/shared/rich_project_chbe-medford/medford-share/data/pseudos_module/espresso/nninc/pbe/van/H.UPF
     MD5 check sum: b5ee9d7bfd3a09ee7748110bda690ff7
     Pseudo is Ultrasoft, Zval =  1.0
     Generated by new atomic code, or converted to UPF format
     Using radial grid of  615 points,  1 beta functions with:
                l(1) =   0
     Q(r) pseudized with  8 coefficients,  rinner =    0.800

     atomic species   valence    mass     pseudopotential
        Ti1           12.00    47.86700     Ti( 1.00)
        O1             6.00    15.99900     O ( 1.00)
        N1             5.00    14.00700     N ( 1.00)
        C1             4.00    12.01100     C ( 1.00)
        H1             1.00     1.00800     H ( 1.00)

     No symmetry found

   Cartesian axes

     site n.     atom                  positions (alat units)
         1           Ti1 tau(   1) = (   0.0004258   2.9801865   6.0000000  )
         2           Ti1 tau(   2) = (   3.2906075   1.4906267   6.0002472  )
         3           O1  tau(   3) = (   0.0006271   0.0005054   7.9858123  )
         4           O1  tau(   4) = (   3.2906025   0.0005020   7.3038282  )
         5           O1  tau(   5) = (   4.5942328   1.4918067   9.2879030  )
         6           O1  tau(   6) = (   1.9868534   1.4903216   9.2879459  )
         7           Ti1 tau(   7) = (   3.2907910   2.8959150   9.1758416  )
         8           Ti1 tau(   8) = (   0.0015273   1.4827037   9.2680791  )
         9           O1  tau(   9) = (   3.3295752   5.9394884  11.3365386  )
        10           O1  tau(  10) = (   0.0116148   5.9584955  10.6183126  )
        11           O1  tau(  11) = (   1.3416459   1.4853116  12.6004455  )
        12           O1  tau(  12) = (   5.3426426   1.4786053  12.6369034  )
        13           Ti1 tau(  13) = (   0.0116414   2.9353973  12.6160321  )
        14           Ti1 tau(  14) = (   3.2634613   1.4579052  12.5012998  )
        15           O1  tau(  15) = (   0.1064876   0.0498873  14.6156690  )
        16           O1  tau(  16) = (   3.3207907   0.0021492  13.9347054  )
        17           O1  tau(  17) = (   4.6463059   1.4619937  15.9920056  )
        18           O1  tau(  18) = (   2.1466462   1.4989335  16.1123926  )
        19           Ti1 tau(  19) = (   3.4306617   2.9592634  15.6863987  )
        20           Ti1 tau(  20) = (   0.1411245   1.4409179  16.1562347  )
        21           O1  tau(  21) = (   3.2904802   0.0005063   4.7018136  )
        22           O1  tau(  22) = (   0.1093408   5.8617090  17.1288626  )
        23           O1  tau(  23) = (   1.3043587   1.4918075   6.0039043  )
        24           O1  tau(  24) = (   5.2767064   1.4903225   6.0039473  )
        25           Ti1 tau(  25) = (   0.0000382   5.9609847   6.0000000  )
        26           Ti1 tau(  26) = (   3.2902200   4.4714249   6.0002472  )
        27           O1  tau(  27) = (   0.0002396   2.9813036   7.9858123  )
        28           O1  tau(  28) = (   3.2902150   2.9813002   7.3038282  )
        29           O1  tau(  29) = (   4.5938453   4.4726049   9.2879030  )
        30           O1  tau(  30) = (   1.9864658   4.4711199   9.2879459  )
        31           Ti1 tau(  31) = (   3.2891106   5.8743827   9.1763621  )
        32           Ti1 tau(  32) = (   0.0006254   4.4649316   9.2693709  )
        33           O1  tau(  33) = (   3.3252478   2.9725824  11.3426849  )
        34           O1  tau(  34) = (   0.0092240   2.9805883  10.6323155  )
        35           O1  tau(  35) = (   1.3395427   4.4601989  12.6346899  )
        36           O1  tau(  36) = (   5.3460148   4.4586474  12.6692756  )
        37           Ti1 tau(  37) = (   6.5637397   5.9322234  12.5160321  )
        38           Ti1 tau(  38) = (   3.2635149   4.4558096  12.5102435  )
        39           O1  tau(  39) = (   0.1109093   2.9345503  14.7784033  )
        40           O1  tau(  40) = (   3.3425673   2.9461413  13.8942005  )
        41           O1  tau(  41) = (   4.6672108   4.4449251  15.9191901  )
        42           O1  tau(  42) = (   2.1284166   4.4082335  15.9970045  )
        43           Ti1 tau(  43) = (   3.3925976   5.9399099  15.7906296  )
        44           Ti1 tau(  44) = (   0.1175887   4.6074924  15.7225956  )
        45           O1  tau(  45) = (   3.2900926   2.9813045   4.7018136  )
        46           O1  tau(  46) = (   1.3039711   4.4726057   6.0039043  )
        47           O1  tau(  47) = (   5.2763189   4.4711207   6.0039473  )
        48           N1  tau(  48) = (   6.3322197   2.6896666  17.8857888  )
        49           C1  tau(  49) = (   0.7408832   3.1023054  18.6049742  )
        50           H1  tau(  50) = (   1.6825283   2.9574642  18.0630083  )
        51           N1  tau(  51) = (   5.0062801   2.8267163  18.4728511  )
        52           H1  tau(  52) = (   5.1803530   3.0494745  19.4549233  )
        53           H1  tau(  53) = (   4.5789568   1.9025856  18.4470215  )
        54           O1  tau(  54) = (   3.4803961   5.7297960  18.1507158  )
        55           H1  tau(  55) = (   4.0125945   4.9267423  18.3304466  )
        56           H1  tau(  56) = (   2.5980622   5.5532332  18.5227279  )

     number of k points=    10  Fermi-Dirac smearing, width (Ry)=  0.0073
                       cart. coord. in units 2pi/alat
        k(    1) = (   0.0000000   0.0000000   0.0000000), wk =   0.1250000
        k(    2) = (   0.0000000   0.0419351   0.0000000), wk =   0.2500000
        k(    3) = (   0.0000000  -0.0838702   0.0000000), wk =   0.1250000
        k(    4) = (   0.0379955   0.0000049   0.0000000), wk =   0.2500000
        k(    5) = (   0.0379955   0.0419400   0.0000000), wk =   0.2500000
        k(    6) = (   0.0379955  -0.0838652   0.0000000), wk =   0.2500000
        k(    7) = (   0.0379955  -0.0419301   0.0000000), wk =   0.2500000
        k(    8) = (  -0.0759910  -0.0000099   0.0000000), wk =   0.1250000
        k(    9) = (  -0.0759910   0.0419252   0.0000000), wk =   0.2500000
        k(   10) = (  -0.0759910  -0.0838800   0.0000000), wk =   0.1250000

     Initial potential from superposition of free atoms

     starting charge  386.99914, renormalised to  403.00000

     negative rho (up, down):  1.683E-02 0.000E+00

     %%%%%%%%%%%%%%%%%%%%%%%%%%%%%%%%%%%%%%%%%%%%%%%%%%%%%%%%%%%%%%%%%%%%%%%%
     %                                                                      %
     % You are using vdW-DF, which was implemented by the Thonhauser group. %
     % Please cite the following two papers that made this development      %
     % possible and the two reviews that describe the various versions:     %
     %                                                                      %
     %   T. Thonhauser et al., PRL 115, 136402 (2015).                      %
     %   T. Thonhauser et al., PRB 76, 125112 (2007).                       %
     %   K. Berland et al., Rep. Prog. Phys. 78, 066501 (2015).             %
     %   D.C. Langreth et al., J. Phys.: Condens. Matter 21, 084203 (2009). %
     %                                                                      %
     %                                                                      %
     % If you are calculating the stress with vdW-DF, please also cite:     %
     %                                                                      %
     %   R. Sabatini et al., J. Phys.: Condens. Matter 24, 424209 (2012).   %
     %                                                                      %
     %%%%%%%%%%%%%%%%%%%%%%%%%%%%%%%%%%%%%%%%%%%%%%%%%%%%%%%%%%%%%%%%%%%%%%%%

     Adding external electric field

     Computed dipole along edir(3) :
        Dipole              -12.6666 Ry au,        -32.1952 Debye
        Dipole field         -0.0239 Ry au,

        Potential amp.        2.2158 Ry
        Total length         46.3494 bohr

     Starting wfcs are  305 atomic wfcs
  @ DRIVER MODE: Message from server: STATUS
  @ DRIVER MODE: Message from server: POSDATA
  @ DRIVER MODE: Reading and sharing cell
  @ DRIVER MODE: Reading and sharing positions
  @ DRIVER MODE: Received positions

     Self-consistent Calculation

     iteration #  1     ecut=    29.40 Ry     beta= 0.05
     Davidson diagonalization with overlap
     c_bands:  3 eigenvalues not converged
     c_bands:  2 eigenvalues not converged
     c_bands:  5 eigenvalues not converged
     c_bands:  1 eigenvalues not converged
     c_bands:  4 eigenvalues not converged
     c_bands:  1 eigenvalues not converged
     c_bands:  2 eigenvalues not converged
     ethr =  1.00E-05,  avg # of iterations = 26.8

[...]

     total energy              =   -2339.18031107 Ry
     estimated scf accuracy    <    7194.10055986 Ry

     iteration #  2     ecut=    29.40 Ry     beta= 0.05
     Davidson diagonalization with overlap
     ethr =  1.00E-02,  avg # of iterations = 24.6

[...]

     iteration # 39     ecut=    29.40 Ry     beta= 0.05
     Davidson diagonalization with overlap
     c_bands:  1 eigenvalues not converged
     ethr =  3.35E-07,  avg # of iterations = 16.9

[...]

     total energy              =   -2973.87569828 Ry
     estimated scf accuracy    <       0.00000010 Ry

     iteration # 69     ecut=    29.40 Ry     beta= 0.05
     Davidson diagonalization with overlap
     ethr =  2.39E-11,  avg # of iterations =  1.4

     negative rho (up, down):  1.573E-02 0.000E+00

     Adding external electric field

     Computed dipole along edir(3) :
        Dipole                0.4431 Ry au,          1.1262 Debye
        Dipole field          0.0008 Ry au,

        Potential amp.       -0.0775 Ry
        Total length         46.3494 bohr

     End of self-consistent calculation

          k = 0.0000 0.0000 0.0000 ( 18029 PWs)   bands (ev):

   -55.9064 -55.8723 -55.8701 -55.8326 -55.7910 -55.7898 -55.7341 -55.7234
   -55.6962 -55.6894 -55.6890 -55.6555 -55.4664 -55.3783 -54.8889 -54.8549
   -32.4110 -32.3905 -32.2775 -32.2329 -32.2234 -32.1984 -32.1797 -32.1603
   -32.1509 -32.1084 -32.0600 -32.0587 -32.0444 -32.0343 -32.0241 -32.0230
   -32.0124 -32.0080 -32.0043 -31.9933 -31.9865 -31.9720 -31.9636 -31.9301
   -31.9208 -31.9176 -31.9157 -31.9104 -31.8872 -31.8866 -31.8787 -31.8662
   -31.8564 -31.8432 -31.8353 -31.8291 -31.8017 -31.7583 -31.6962 -31.6344
   -31.5920 -31.5203 -31.2961 -31.2075 -31.1851 -31.1129 -31.0264 -30.9152
   -18.8480 -17.1821 -16.6204 -16.3841 -16.1472 -16.0684 -16.0431 -15.8137
   -15.7185 -15.6630 -15.5663 -15.5044 -15.4757 -15.4461 -15.4229 -15.4009
   -15.3609 -15.3486 -15.3290 -15.3279 -15.3010 -15.2920 -15.2548 -15.2491
   -15.2017 -15.0784 -15.0449 -15.0392 -15.0088 -14.9716 -14.5294 -13.3906
   -13.2741 -12.8344  -7.1297  -6.5646  -5.4783  -4.0008  -3.8667  -3.8598
    -3.8151  -3.7497  -3.6039  -3.5727  -3.3741  -3.2443  -3.1750  -3.0937
    -3.0769  -3.0389  -3.0129  -2.9089  -2.8231  -2.7886  -2.7199  -2.7046
    -2.6793  -2.6713  -2.6422  -2.6181  -2.5328  -2.5141  -2.4743  -2.4406
    -2.3252  -2.3065  -2.2499  -2.2217  -2.2139  -2.1948  -2.1709  -2.1620
    -2.1472  -2.1357  -2.0765  -2.0481  -1.9662  -1.9001  -1.8366  -1.7013
    -1.5613  -1.5200  -1.5072  -1.4076  -1.3815  -1.3465  -1.3273  -1.3033
    -1.2881  -1.1644  -1.0857  -1.0224  -1.0155  -0.9449  -0.8520  -0.7920
    -0.7346  -0.6771  -0.6712  -0.6505  -0.6456  -0.6108  -0.5379  -0.4015
    -0.3637  -0.3234  -0.2901  -0.2021  -0.1935  -0.1482  -0.1167  -0.0962
    -0.0629   0.0154   0.0271   0.0580   0.0794   0.1008   0.1235   0.1817
     0.3102   0.3321   0.3507   0.4079   0.4442   0.6039   0.7443   0.7875
     0.8899   1.0628   1.1340   1.1508   1.2244   1.3256   1.7050   1.7509
     2.7627   3.2096   3.3134   3.3473   3.3547   3.4556   3.4808   3.6712
     3.7158   3.7522   3.7832

[...]

          k = 0.0380-0.0419 0.0000 ( 17876 PWs)   bands (ev):

[...]

          k =-0.0760-0.0000 0.0000 ( 17886 PWs)   bands (ev):

[...]

          k =-0.0760-0.0839 0.0000 ( 17948 PWs)   bands (ev):

   -55.8898 -55.8888 -55.8569 -55.8456 -55.7877 -55.7840 -55.7399 -55.7081
   -55.7041 -55.6994 -55.6727 -55.6722 -55.4637 -55.3809 -54.8719 -54.8717
   -32.2275 -32.2061 -32.2055 -32.2055 -32.1842 -32.1836 -32.1261 -32.1181
   -32.0977 -32.0906 -32.0875 -32.0355 -32.0347 -32.0266 -32.0229 -32.0218
   -32.0164 -32.0127 -32.0105 -32.0092 -32.0079 -32.0053 -31.9931 -31.9901
   -31.9733 -31.9516 -31.9502 -31.9106 -31.9087 -31.9015 -31.9010 -31.8983
   -31.8917 -31.8886 -31.8879 -31.8822 -31.8793 -31.7746 -31.6943 -31.6408
   -31.5958 -31.5869 -31.1978 -31.1977 -31.1089 -31.1087 -31.0697 -31.0697
   -18.8456 -17.1735 -16.0471 -15.9620 -15.9240 -15.8348 -15.7890 -15.7552
   -15.6956 -15.6227 -15.5842 -15.5792 -15.5533 -15.4947 -15.4804 -15.4522
   -15.4345 -15.4230 -15.4182 -15.3664 -15.3602 -15.3510 -15.3464 -15.3330
   -15.3307 -15.3051 -15.2304 -15.2275 -15.1050 -14.8948 -14.8702 -13.3760
   -13.3758 -12.8504  -7.0891  -6.5554  -5.4165  -3.6774  -3.3932  -3.3272
    -3.2240  -3.1138  -3.0126  -3.0053  -2.9689  -2.9248  -2.8545  -2.8293
    -2.7736  -2.7535  -2.7393  -2.7228  -2.7183  -2.7075  -2.6742  -2.6513
    -2.5952  -2.5903  -2.5832  -2.5747  -2.5627  -2.5548  -2.5333  -2.5269
    -2.5004  -2.4745  -2.4359  -2.4038  -2.3213  -2.2459  -2.1689  -2.1180
    -2.0884  -2.0570  -2.0505  -2.0064  -1.9867  -1.9753  -1.9583  -1.8938
    -1.7935  -1.6743  -1.6179  -1.5944  -1.5460  -1.5100  -1.4865  -1.3797
    -1.3296  -1.3152  -1.2137  -1.1923  -1.1668  -1.1137  -1.0486  -1.0340
    -0.9912  -0.9475  -0.9051  -0.8649  -0.8597  -0.8093  -0.7640  -0.7369
    -0.6555  -0.6457  -0.6014  -0.5913  -0.5790  -0.5409  -0.4940  -0.4135
    -0.3172  -0.2718  -0.2208  -0.0675   0.0060   0.1421   0.1944   0.2597
     0.2762   0.3762   0.4040   0.4062   0.4878   0.5321   0.5883   0.6202
     0.6250   0.6374   0.8026   1.0978   1.4975   1.4986   1.5706   1.5710
     2.7199   3.5429   3.6003   3.6139   3.6400   3.7260   3.7497   3.7598
     3.7615   3.8807   3.8967

     the Fermi energy is     3.2224 ev

!    total energy              =   -2973.87571648 Ry
     estimated scf accuracy    <       0.00000006 Ry
     smearing contrib. (-TS)   =      -0.02177844 Ry
     internal energy E=F+TS    =   -2973.85393804 Ry

     The total energy is F=E-TS. E is the sum of the following terms:
     one-electron contribution =  -24184.65069128 Ry
     hartree contribution      =   12183.87769419 Ry
     xc contribution           =    -493.99969095 Ry
     ewald contribution        =    9520.91837954 Ry
     electric field correction =       0.00037046 Ry

     convergence has been achieved in  69 iterations

     Forces acting on atoms (cartesian axes, Ry/au):

     atom    1 type  1   force =     0.00016313   -0.00030219    0.09556998
     atom    2 type  1   force =     0.00004553   -0.00045209   -0.17579927
     atom    3 type  2   force =     0.00023187    0.00002025   -0.02351369
     atom    4 type  2   force =     0.00008541   -0.00152707    0.05313567
     atom    5 type  2   force =    -0.01025512   -0.00136798    0.00262826
     atom    6 type  2   force =     0.01292363   -0.00101743    0.00441104
     atom    7 type  1   force =     0.00139711    0.00128831   -0.00564274
     atom    8 type  1   force =    -0.00059686    0.01374909    0.01967777
     atom    9 type  2   force =     0.00024111   -0.00056388    0.00103420
     atom   10 type  2   force =    -0.00153778   -0.00072264   -0.01579433
     atom   11 type  2   force =    -0.00105664    0.00026300   -0.00021793
     atom   12 type  2   force =     0.00041352    0.00000248    0.00013866
     atom   13 type  1   force =     0.00055474    0.00083607    0.00028520
     atom   14 type  1   force =    -0.00021590   -0.00006770    0.00045687
     atom   15 type  2   force =    -0.00034979   -0.00002687   -0.00036974
     atom   16 type  2   force =     0.00000098   -0.00086346   -0.00042544
     atom   17 type  2   force =    -0.00062354   -0.00023232   -0.00036483
     atom   18 type  2   force =     0.00011234   -0.00029483   -0.00046522
     atom   19 type  1   force =     0.00080989   -0.00072369   -0.00086664
     atom   20 type  1   force =    -0.00080704   -0.00080722   -0.00046222
     atom   21 type  2   force =     0.00007228    0.00001623    0.10321459
     atom   22 type  2   force =    -0.00005989    0.00120108    0.00045133
     atom   23 type  2   force =    -0.07148222   -0.00007795   -0.02757511
     atom   24 type  2   force =     0.07144800    0.00038067   -0.02762798
     atom   25 type  1   force =     0.00009669   -0.00026414    0.09538622
     atom   26 type  1   force =     0.00004517   -0.00022814   -0.17587304
     atom   27 type  2   force =     0.00024708   -0.00036508   -0.02226902
     atom   28 type  2   force =     0.00008124   -0.00122005    0.05318626
     atom   29 type  2   force =    -0.01029804    0.00029856    0.00174026
     atom   30 type  2   force =     0.01288607    0.00085803    0.00359933
     atom   31 type  1   force =     0.00161757    0.00305867   -0.01049377
     atom   32 type  1   force =    -0.00067442   -0.01565711    0.01965462
     atom   33 type  2   force =     0.00053602    0.00064892    0.00018717
     atom   34 type  2   force =    -0.00085310    0.00099563   -0.01348085
     atom   35 type  2   force =     0.00110305    0.00005218   -0.00044660
     atom   36 type  2   force =    -0.00119610    0.00013497   -0.00021041
     atom   37 type  1   force =    -0.00031253   -0.00044787    0.00006686
     atom   38 type  1   force =    -0.00091142    0.00036789   -0.00039088
     atom   39 type  2   force =    -0.00045773   -0.00051809    0.00017493
     atom   40 type  2   force =     0.00009386    0.00096809    0.00012106
     atom   41 type  2   force =    -0.00115393    0.00045521    0.00056877
     atom   42 type  2   force =     0.00103020   -0.00025174    0.00050200
     atom   43 type  1   force =    -0.00011937    0.00104353   -0.00038325
     atom   44 type  1   force =    -0.00046968    0.00056269   -0.00165955
     atom   45 type  2   force =     0.00007336    0.00001186    0.10321885
     atom   46 type  2   force =    -0.07148065   -0.00004190   -0.02757334
     atom   47 type  2   force =     0.07144707    0.00038372   -0.02761124
     atom   48 type  3   force =     0.00001173   -0.00026970    0.00023922
     atom   49 type  4   force =    -0.00005233   -0.00014953   -0.00041575
     atom   50 type  5   force =    -0.00112602   -0.00042514    0.00035164
     atom   51 type  3   force =    -0.00024879    0.00065177    0.00031469
     atom   52 type  5   force =     0.00042850    0.00116396    0.00095338
     atom   53 type  5   force =    -0.00047633   -0.00206624   -0.00058698
     atom   54 type  2   force =    -0.00094777   -0.00032950    0.00115285
     atom   55 type  5   force =    -0.00081813    0.00147630   -0.00075252
     atom   56 type  5   force =     0.00038398    0.00039237   -0.00114935

     Total force =     0.366049     Total SCF correction =     0.000641
  @ DRIVER MODE: Message from server: STATUS
  @ DRIVER MODE: Message from server: GETFORCE
  @ DRIVER MODE: Returning v,forces,stress,ensemble

     Writing output data file ./calc.save/
  @ DRIVER MODE: Message from server: EXIT
  @ DRIVE MODE: Exiting

     General routines

     Parallel routines

   This run was terminated on:   3:23:54  16Sep2021

   JOB DONE.