     Program PWSCF v.6.7GPU starts on 15Jul2021 at 21:50:56

     R & G space division:  proc/nbgrp/npool/nimage =      16
     Reading input from /storage/home/hcoda1/3/ntian30/research/carbon/15Jul_vib/ads_slab/CH3NNHHH_a/out_0006/pw.inp
Warning: card &CELL ignored
Warning: card   CELL_DYNAMICS='IPI', ignored
Warning: card / ignored

     Current dimensions of program PWSCF are:
     Max number of different atomic species (ntypx) = 10
     Max number of k-points (npk) =  40000
     Max angular momentum in pseudopotentials (lmaxx) =  3
     Presently no symmetry can be used with electric field

     Message from routine cell_base_init:
     DEPRECATED: use true lattice parameter, not A to a.u. conversion factor

     IMPORTANT: XC functional enforced from input :
     Exchange-correlation= BEEF-VDW
                           (   1   4  43  14   2   0   0)
     Any further DFT definition will be discarded
     Please, verify this is what you really want

  @ DRIVER MODE: Connecting to
 qe_1139763_2351652.sched-torque.pace.gatech.edugi_kwx2y_scratch
  using UNIX socket
  @ DRIVER MODE: Message from server: STATUS
  @ DRIVER MODE: Message from server: INIT
  @ DRIVER MODE: Receiving replica           0          -1
  @ DRIVER MODE: Receiving encoded integer          25
  @ DRIVER MODE:  SCF:  T  FORCE:  T  STRESS:  F  VC:  F  ENSEMBLE:  F
  @ DRIVER MODE:  SCF:  T  FORCE:  T  STRESS:  F  VC:  F  ENSEMBLE:  F

     Using Slab Decomposition

     bravais-lattice index     =            0
     lattice parameter (alat)  =       1.8897  a.u.
     unit-cell volume          =    6658.9804 (a.u.)^3
     number of atoms/cell      =           56
     number of atomic types    =            5
     number of electrons       =       398.00
     number of Kohn-Sham states=          209
     kinetic-energy cutoff     =      29.3995  Ry
     charge density cutoff     =     293.9946  Ry
     scf convergence threshold =      7.3E-08
     mixing beta               =       0.0500
     number of iterations used =            8  plain     mixing
     Exchange-correlation= BEEF-VDW
                           (   1   4  43  14   2   0   0)

     celldm(1)=   1.889726  celldm(2)=   0.000000  celldm(3)=   0.000000
     celldm(4)=   0.000000  celldm(5)=   0.000000  celldm(6)=   0.000000

     crystal axes: (cart. coord. in units of alat)
               a(1) = (   6.579727   0.000000   0.000000 )
               a(2) = (  -0.000775   5.961596   0.000000 )
               a(3) = (   0.000000   0.000000  25.155947 )

     reciprocal axes: (cart. coord. in units 2 pi/alat)
               b(1) = (  0.151982  0.000020  0.000000 )
               b(2) = (  0.000000  0.167740  0.000000 )
               b(3) = (  0.000000  0.000000  0.039752 )

     PseudoPot. # 1 for Ti read from file:
     /storage/coda1/p-amedford6/0/shared/rich_project_chbe-medford/medford-share/data/pseudos_module/espresso/nninc/pbe/van/Ti.UPF
     MD5 check sum: 8e4df49b7f0d34bbd5052bf3f5ea0213
     Pseudo is Ultrasoft, Zval = 12.0
     Generated by new atomic code, or converted to UPF format
     Using radial grid of  851 points,  6 beta functions with:
                l(1) =   0
                l(2) =   0
                l(3) =   1
                l(4) =   1
                l(5) =   2
                l(6) =   2
     Q(r) pseudized with  8 coefficients,  rinner =    1.000   1.000   1.000
                                                       1.000   1.000

     PseudoPot. # 2 for O  read from file:
     /storage/coda1/p-amedford6/0/shared/rich_project_chbe-medford/medford-share/data/pseudos_module/espresso/nninc/pbe/van/O.UPF
     MD5 check sum: 78c19812648e8988a0fe644b0f25305e
     Pseudo is Ultrasoft, Zval =  6.0
     Generated by new atomic code, or converted to UPF format
     Using radial grid of  737 points,  4 beta functions with:
                l(1) =   0
                l(2) =   0
                l(3) =   1
                l(4) =   1
     Q(r) pseudized with  8 coefficients,  rinner =    0.800   0.800   0.800

     PseudoPot. # 3 for N  read from file:
     /storage/coda1/p-amedford6/0/shared/rich_project_chbe-medford/medford-share/data/pseudos_module/espresso/nninc/pbe/van/N.UPF
     MD5 check sum: 90d10febe142ad51ac9d5be1deb811c4
     Pseudo is Ultrasoft, Zval =  5.0
     Generated by new atomic code, or converted to UPF format
     Using radial grid of  729 points,  4 beta functions with:
                l(1) =   0
                l(2) =   0
                l(3) =   1
                l(4) =   1
     Q(r) pseudized with  8 coefficients,  rinner =    0.800   0.800   0.800

     PseudoPot. # 4 for C  read from file:
     /storage/coda1/p-amedford6/0/shared/rich_project_chbe-medford/medford-share/data/pseudos_module/espresso/nninc/pbe/van/C.UPF
     MD5 check sum: 1a69bf6b8db32088f5b2163dbdb77a27
     Pseudo is Ultrasoft, Zval =  4.0
     Generated by new atomic code, or converted to UPF format
     Using radial grid of  721 points,  4 beta functions with:
                l(1) =   0
                l(2) =   0
                l(3) =   1
                l(4) =   1
     Q(r) pseudized with  8 coefficients,  rinner =    0.800   0.800   0.800

     PseudoPot. # 5 for H  read from file:
     /storage/coda1/p-amedford6/0/shared/rich_project_chbe-medford/medford-share/data/pseudos_module/espresso/nninc/pbe/van/H.UPF
     MD5 check sum: b5ee9d7bfd3a09ee7748110bda690ff7
     Pseudo is Ultrasoft, Zval =  1.0
     Generated by new atomic code, or converted to UPF format
     Using radial grid of  615 points,  1 beta functions with:
                l(1) =   0
     Q(r) pseudized with  8 coefficients,  rinner =    0.800

     atomic species   valence    mass     pseudopotential
        Ti1           12.00    47.86700     Ti( 1.00)
        O1             6.00    15.99900     O ( 1.00)
        N1             5.00    14.00700     N ( 1.00)
        C1             4.00    12.01100     C ( 1.00)
        H1             1.00     1.00800     H ( 1.00)

     Starting magnetic structure
     atomic species   magnetization
        Ti1          0.000
        O1           0.000
        N1           0.000
        C1           0.025
        H1           0.000

     No symmetry found

   Cartesian axes

     site n.     atom                  positions (alat units)
         1           Ti1 tau(   1) = (   0.0004258   2.9801865   6.0000000  )
         2           Ti1 tau(   2) = (   3.2906075   1.4906267   6.0002472  )
         3           O1  tau(   3) = (   0.0006271   0.0005054   7.9858123  )
         4           O1  tau(   4) = (   3.2906025   0.0005020   7.3038282  )
         5           O1  tau(   5) = (   4.5942328   1.4918067   9.2879030  )
         6           O1  tau(   6) = (   1.9868534   1.4903216   9.2879459  )
         7           Ti1 tau(   7) = (   3.2907910   2.8959150   9.1758416  )
         8           Ti1 tau(   8) = (   0.0015273   1.4827037   9.2680791  )
         9           O1  tau(   9) = (   3.2969863   5.9453513  11.3493076  )
        10           O1  tau(  10) = (   0.0116148   5.9584955  10.6183126  )
        11           O1  tau(  11) = (   1.3059050   1.4736943  12.6642453  )
        12           O1  tau(  12) = (   5.3003793   1.4775083  12.6459419  )
        13           Ti1 tau(  13) = (   0.0167275   2.9625105  12.5508078  )
        14           Ti1 tau(  14) = (   3.3131340   1.4712512  12.4909780  )
        15           O1  tau(  15) = (   6.5517612   5.9325698  14.7566896  )
        16           O1  tau(  16) = (   3.3302114   5.9429442  13.9823395  )
        17           O1  tau(  17) = (   4.5243935   1.5056208  16.2316672  )
        18           O1  tau(  18) = (   2.0170937   1.4633510  16.1378485  )
        19           Ti1 tau(  19) = (   3.2500237   2.9242626  15.6920970  )
        20           Ti1 tau(  20) = (   6.5441017   1.2779805  16.1516014  )
        21           O1  tau(  21) = (   3.2904802   0.0005063   4.7018136  )
        22           O1  tau(  22) = (   6.5540411   5.9581837  17.3465722  )
        23           O1  tau(  23) = (   1.3043587   1.4918075   6.0039043  )
        24           O1  tau(  24) = (   5.2767064   1.4903225   6.0039473  )
        25           Ti1 tau(  25) = (   0.0000382   5.9609847   6.0000000  )
        26           Ti1 tau(  26) = (   3.2902200   4.4714249   6.0002472  )
        27           O1  tau(  27) = (   0.0002396   2.9813036   7.9858123  )
        28           O1  tau(  28) = (   3.2902150   2.9813002   7.3038282  )
        29           O1  tau(  29) = (   4.5938453   4.4726049   9.2879030  )
        30           O1  tau(  30) = (   1.9864658   4.4711199   9.2879459  )
        31           Ti1 tau(  31) = (   3.2891106   5.8743827   9.1763621  )
        32           Ti1 tau(  32) = (   0.0006254   4.4649316   9.2693709  )
        33           O1  tau(  33) = (   3.2962403   2.9651072  11.3429128  )
        34           O1  tau(  34) = (   0.0092240   2.9805883  10.6323155  )
        35           O1  tau(  35) = (   1.3076126   4.4641214  12.6643835  )
        36           O1  tau(  36) = (   5.2981430   4.4591552  12.6429889  )
        37           Ti1 tau(  37) = (   0.0194730   5.9489450  12.5196332  )
        38           Ti1 tau(  38) = (   3.3150505   4.4522436  12.4946186  )
        39           O1  tau(  39) = (   6.5702761   2.9869041  14.8038460  )
        40           O1  tau(  40) = (   3.3119818   2.9576719  13.9204832  )
        41           O1  tau(  41) = (   4.5223198   4.3950437  16.2490866  )
        42           O1  tau(  42) = (   2.0356696   4.4339808  16.1311045  )
        43           Ti1 tau(  43) = (   3.3057863   5.9493229  15.7677403  )
        44           Ti1 tau(  44) = (   0.0958844   4.4293496  15.8701971  )
        45           O1  tau(  45) = (   3.2900926   2.9813045   4.7018136  )
        46           O1  tau(  46) = (   1.3039711   4.4726057   6.0039043  )
        47           O1  tau(  47) = (   5.2763189   4.4711207   6.0039473  )
        48           N1  tau(  48) = (   0.0620580   3.0375546  17.6997758  )
        49           C1  tau(  49) = (   1.1116374   2.9693208  18.6984743  )
        50           H1  tau(  50) = (   1.2951007   3.9532040  19.1583453  )
        51           H1  tau(  51) = (   0.8627774   2.2426413  19.4871689  )
        52           H1  tau(  52) = (   2.0263963   2.6228967  18.2308865  )
        53           N1  tau(  53) = (   5.4279256   3.3744730  18.4033390  )
        54           H1  tau(  54) = (   5.6103604   4.1199394  19.0852601  )
        55           H1  tau(  55) = (   4.7934260   3.8076565  17.6395878  )
        56           H1  tau(  56) = (   5.0090149   2.5598412  18.8678436  )

     number of k points=    10  Fermi-Dirac smearing, width (Ry)=  0.0073
                       cart. coord. in units 2pi/alat
        k(    1) = (   0.0000000   0.0000000   0.0000000), wk =   0.0625000
        k(    2) = (   0.0000000   0.0419351   0.0000000), wk =   0.1250000
        k(    3) = (   0.0000000  -0.0838702   0.0000000), wk =   0.0625000
        k(    4) = (   0.0379955   0.0000049   0.0000000), wk =   0.1250000
        k(    5) = (   0.0379955   0.0419400   0.0000000), wk =   0.1250000
[...]
     % Please cite the following two papers that made this development      %
     % possible and the two reviews that describe the various versions:     %
     %                                                                      %
     %   T. Thonhauser et al., PRL 115, 136402 (2015).                      %
     %   T. Thonhauser et al., PRB 76, 125112 (2007).                       %
     %   K. Berland et al., Rep. Prog. Phys. 78, 066501 (2015).             %
     %   D.C. Langreth et al., J. Phys.: Condens. Matter 21, 084203 (2009). %
     %                                                                      %
     %                                                                      %
     % If you are calculating the stress with vdW-DF, please also cite:     %
     %                                                                      %
     %   R. Sabatini et al., J. Phys.: Condens. Matter 24, 424209 (2012).   %
     %                                                                      %
     %%%%%%%%%%%%%%%%%%%%%%%%%%%%%%%%%%%%%%%%%%%%%%%%%%%%%%%%%%%%%%%%%%%%%%%%

     Adding external electric field

     Computed dipole along edir(3) :
        Dipole              -10.5768 Ry au,        -26.8836 Debye
        Dipole field         -0.0200 Ry au,

        Potential amp.        1.8503 Ry
        Total length         46.3494 bohr

[...]

     Starting wfcs are  302 atomic wfcs
  @ DRIVER MODE: Message from server: STATUS
  @ DRIVER MODE: Message from server: POSDATA
  @ DRIVER MODE: Reading and sharing cell
  @ DRIVER MODE: Reading and sharing positions
  @ DRIVER MODE: Received positions

     Self-consistent Calculation

     iteration #  1     ecut=    29.40 Ry     beta= 0.05
     Davidson diagonalization with overlap
     c_bands:  3 eigenvalues not converged
     c_bands:  2 eigenvalues not converged
     c_bands:  2 eigenvalues not converged
     c_bands:  4 eigenvalues not converged
     c_bands:  5 eigenvalues not converged
     c_bands:  5 eigenvalues not converged
     c_bands:  1 eigenvalues not converged
     c_bands:  5 eigenvalues not converged
     c_bands:  3 eigenvalues not converged
     c_bands:  3 eigenvalues not converged
     c_bands:  3 eigenvalues not converged
     c_bands:  1 eigenvalues not converged
     c_bands:  4 eigenvalues not converged
     c_bands:  5 eigenvalues not converged
     c_bands:  5 eigenvalues not converged
     c_bands:  5 eigenvalues not converged
     c_bands:  3 eigenvalues not converged
     ethr =  1.00E-05,  avg # of iterations = 20.0

[...]

     total energy              =   -2443.24695135 Ry
     estimated scf accuracy    <    5586.47485392 Ry

     total magnetization       =     0.00 Bohr mag/cell
     absolute magnetization    =     0.01 Bohr mag/cell

     iteration #  2     ecut=    29.40 Ry     beta= 0.05
     Davidson diagonalization with overlap
     ethr =  1.00E-02,  avg # of iterations = 23.9

[...]

     iteration # 82     ecut=    29.40 Ry     beta= 0.05
     Davidson diagonalization with overlap
     ethr =  2.75E-11,  avg # of iterations =  5.9

[...]

     total energy              =   -2942.82542598 Ry
     estimated scf accuracy    <       0.00000008 Ry

[...]

     iteration # 83     ecut=    29.40 Ry     beta= 0.05
     Davidson diagonalization with overlap
     c_bands:  1 eigenvalues not converged
     c_bands:  2 eigenvalues not converged
     ethr =  1.89E-11,  avg # of iterations = 14.7

     negative rho (up, down):  7.341E-03 7.340E-03

[...]

     Adding external electric field

     Computed dipole along edir(3) :
        Dipole                1.6182 Ry au,          4.1131 Debye
        Dipole field          0.0031 Ry au,

        Potential amp.       -0.2831 Ry
        Total length         46.3494 bohr

     Magnetic moment per site  (integrated on atomic sphere of radius R)
     atom   1 (R=0.723)  charge=  7.9140  magn= -0.0023
     atom   2 (R=0.723)  charge=  7.8963  magn= -0.0001
     atom   3 (R=0.633)  charge=  4.2080  magn=  0.0001
     atom   4 (R=0.633)  charge=  4.2373  magn=  0.0000
     atom   5 (R=0.633)  charge=  4.2137  magn=  0.0000
     atom   6 (R=0.633)  charge=  4.2139  magn=  0.0000
     atom   7 (R=0.723)  charge=  7.8964  magn= -0.0001
     atom   8 (R=0.723)  charge=  7.8945  magn= -0.0005
     atom   9 (R=0.633)  charge=  4.2238  magn= -0.0001
     atom  10 (R=0.633)  charge=  4.2125  magn= -0.0000
     atom  11 (R=0.633)  charge=  4.2093  magn= -0.0000
     atom  12 (R=0.633)  charge=  4.2112  magn= -0.0000
     atom  13 (R=0.723)  charge=  7.8927  magn=  0.0001
     atom  14 (R=0.723)  charge=  7.9040  magn=  0.0007
     atom  15 (R=0.633)  charge=  4.2097  magn=  0.0000
     atom  16 (R=0.633)  charge=  4.2161  magn=  0.0000
     atom  17 (R=0.633)  charge=  4.2035  magn= -0.0000
     atom  18 (R=0.633)  charge=  4.2034  magn= -0.0000
     atom  19 (R=0.723)  charge=  7.9505  magn=  0.0017
     atom  20 (R=0.723)  charge=  7.9298  magn=  0.0004
     atom  21 (R=0.633)  charge=  4.1284  magn=  0.0001
     atom  22 (R=0.633)  charge=  4.1764  magn= -0.0000
     atom  23 (R=0.633)  charge=  4.2074  magn=  0.0003
     atom  24 (R=0.633)  charge=  4.2074  magn=  0.0003
     atom  25 (R=0.723)  charge=  7.9140  magn= -0.0023
     atom  26 (R=0.723)  charge=  7.8964  magn= -0.0001
     atom  27 (R=0.633)  charge=  4.2076  magn=  0.0001
     atom  28 (R=0.633)  charge=  4.2375  magn=  0.0000
     atom  29 (R=0.633)  charge=  4.2143  magn=  0.0000
     atom  30 (R=0.633)  charge=  4.2144  magn=  0.0000
     atom  31 (R=0.723)  charge=  7.8969  magn= -0.0001
     atom  32 (R=0.723)  charge=  7.8947  magn= -0.0005
     atom  33 (R=0.633)  charge=  4.2222  magn= -0.0001
     atom  34 (R=0.633)  charge=  4.2053  magn=  0.0000
     atom  35 (R=0.633)  charge=  4.2090  magn= -0.0000
     atom  36 (R=0.633)  charge=  4.2115  magn= -0.0000
     atom  37 (R=0.723)  charge=  7.8965  magn=  0.0001
     atom  38 (R=0.723)  charge=  7.9034  magn=  0.0006
     atom  39 (R=0.633)  charge=  4.1925  magn=  0.0001
     atom  40 (R=0.633)  charge=  4.2343  magn= -0.0001
     atom  41 (R=0.633)  charge=  4.2025  magn= -0.0000
     atom  42 (R=0.633)  charge=  4.2135  magn= -0.0000
     atom  43 (R=0.723)  charge=  7.9400  magn=  0.0013
     atom  44 (R=0.723)  charge=  7.9262  magn=  0.0002
     atom  45 (R=0.633)  charge=  4.1284  magn=  0.0001
     atom  46 (R=0.633)  charge=  4.2073  magn=  0.0003
     atom  47 (R=0.633)  charge=  4.2074  magn=  0.0003
     atom  48 (R=0.423)  charge=  1.3371  magn= -0.0001
     atom  49 (R=0.447)  charge=  0.8395  magn=  0.0001
     atom  50 (R=0.423)  charge=  0.4488  magn= -0.0000
     atom  51 (R=0.423)  charge=  0.4501  magn= -0.0000
     atom  52 (R=0.423)  charge=  0.4551  magn= -0.0000
     atom  53 (R=0.423)  charge=  1.3753  magn=  0.0000
     atom  54 (R=0.423)  charge=  0.4522  magn= -0.0000
     atom  55 (R=0.423)  charge=  0.3988  magn= -0.0000
     atom  56 (R=0.423)  charge=  0.4522  magn= -0.0000

     End of self-consistent calculation

 ------ SPIN UP ------------

          k = 0.0000 0.0000 0.0000 ( 18029 PWs)   bands (ev):

   -55.1360 -55.0994 -55.0946 -55.0605 -55.0181 -55.0027 -54.9799 -54.9367
   -54.9240 -54.9169 -54.9016 -54.8911 -54.8608 -54.7898 -54.1087 -54.0747
   -31.7156 -31.5854 -31.5044 -31.4726 -31.4273 -31.4264 -31.4250 -31.3972
   -31.3924 -31.3841 -31.3605 -31.3455 -31.3393 -31.3136 -31.2956 -31.2706
   -31.2537 -31.2470 -31.2388 -31.2350 -31.2069 -31.2022 -31.1952 -31.1680
   -31.1510 -31.1471 -31.1396 -31.1358 -31.1318 -31.1214 -31.1201 -31.1149
   -31.0954 -31.0867 -31.0838 -31.0546 -31.0519 -31.0408 -31.0327 -31.0319
   -31.0207 -30.9791 -30.5171 -30.4250 -30.4029 -30.3336 -30.2469 -30.1359
   -18.9787 -16.0002 -15.7464 -15.6101 -15.3754 -15.3230 -15.2666 -15.0638
   -15.0576 -14.9879 -14.9726 -14.9230 -14.9026 -14.8354 -14.7512 -14.7330
   -14.6622 -14.6604 -14.6314 -14.6220 -14.6185 -14.5559 -14.5468 -14.5166
   -14.5037 -14.4788 -14.3605 -14.2758 -14.2174 -13.9704 -13.6243 -12.6117
   -12.4946  -9.7454  -7.7351  -7.2302  -5.4766  -3.8240  -3.3376  -3.3098
    -3.1632  -3.1334  -3.0567  -3.0266  -2.8416  -2.8226  -2.4797  -2.4342
    -2.3937  -2.3754  -2.3511  -2.3367  -2.1695  -2.1426  -2.0702  -2.0378
    -2.0186  -1.9783  -1.9611  -1.9506  -1.9172  -1.9124  -1.9023  -1.6952
    -1.6389  -1.5440  -1.5214  -1.4837  -1.4623  -1.4260  -1.4174  -1.4144
    -1.4086  -1.3953  -1.3829  -1.3024  -1.2436  -1.1634  -1.1552  -1.1182
    -1.0141  -0.9681  -0.7683  -0.7533  -0.7073  -0.6650  -0.6020  -0.5829
    -0.5142  -0.4834  -0.4660  -0.3433  -0.3146  -0.2750  -0.2476  -0.1790
    -0.1484  -0.1032  -0.0200   0.0520   0.0876   0.1061   0.1649   0.2947
     0.3055   0.3353   0.3975   0.4605   0.5007   0.5205   0.5390   0.5766
     0.6265   0.7522   0.7961   0.8167   0.8210   0.8549   0.8773   0.9280
     0.9526   1.0136   1.0194   1.1361   1.2057   1.4420   1.4772   1.4937
     1.8260   1.8493   1.9135   2.0995   2.4875   2.5348   3.9695   4.0295
     4.0850   4.1059   4.1230   4.2116   4.2546   4.4313   4.4588   4.4637
     4.4662

[...]

          k =-0.0760-0.0000 0.0000 ( 17886 PWs)   bands (ev):

[...]

 ------ SPIN DOWN ----------

[...]

          k = 0.0380-0.0419 0.0000 ( 17876 PWs)   bands (ev):

[...]

          k =-0.0760-0.0839 0.0000 ( 17948 PWs)   bands (ev):

   -55.1191 -55.1133 -55.0819 -55.0818 -55.0072 -54.9980 -54.9902 -54.9207
   -54.9175 -54.9167 -54.9093 -54.9079 -54.8569 -54.7927 -54.0920 -54.0918
   -31.5183 -31.5154 -31.4386 -31.4165 -31.4025 -31.4024 -31.3744 -31.3743
   -31.3461 -31.3397 -31.3369 -31.3367 -31.3069 -31.2670 -31.2612 -31.2568
   -31.2559 -31.2519 -31.2502 -31.2440 -31.2113 -31.2091 -31.2067 -31.2036
   -31.2015 -31.2015 -31.1841 -31.1828 -31.1553 -31.1507 -31.1352 -31.1312
   -31.1298 -31.1290 -31.1285 -31.1185 -31.0964 -31.0901 -31.0877 -31.0683
   -31.0431 -31.0252 -30.4159 -30.4158 -30.3299 -30.3297 -30.2905 -30.2905
   -18.9740 -15.5073 -15.3974 -15.2913 -15.2255 -15.1813 -15.1304 -15.1122
   -15.1013 -15.0572 -15.0275 -14.9585 -14.8933 -14.8398 -14.8388 -14.8057
   -14.7262 -14.7124 -14.7050 -14.6950 -14.6377 -14.6310 -14.5996 -14.5785
   -14.5754 -14.5459 -14.4719 -14.4695 -14.3859 -14.1787 -13.6607 -12.5960
   -12.5960  -9.7138  -7.7316  -7.1762  -5.4819  -3.8457  -3.4640  -2.7556
    -2.6441  -2.4343  -2.4074  -2.3474  -2.3243  -2.2311  -2.1813  -2.1610
    -2.1372  -2.1031  -2.1000  -2.0744  -2.0540  -1.9997  -1.9695  -1.9599
    -1.9531  -1.9393  -1.9264  -1.9066  -1.8493  -1.8394  -1.8316  -1.7899
    -1.7786  -1.7471  -1.7409  -1.7020  -1.6856  -1.6090  -1.5170  -1.4927
    -1.4333  -1.3334  -1.3178  -1.3121  -1.2203  -1.2109  -1.1813  -1.1504
    -1.0963  -0.9978  -0.9429  -0.8651  -0.8618  -0.8329  -0.7446  -0.6813
    -0.6475  -0.6386  -0.5994  -0.5423  -0.5179  -0.4850  -0.4020  -0.3609
    -0.3342  -0.2989  -0.2046  -0.1433  -0.1202  -0.0882  -0.0848   0.0039
     0.0371   0.0740   0.0949   0.1334   0.1600   0.2263   0.2468   0.3565
     0.4275   0.4556   0.5753   0.5993   0.6633   0.7953   0.8675   0.9095
     0.9599   1.0185   1.0461   1.1773   1.1845   1.2191   1.3026   1.3432
     1.3501   1.3627   2.2724   2.2735   2.3550   2.3552   4.1023   4.1881
     4.2314   4.2690   4.3753   4.4848   4.5033   4.5462   4.5468   4.6220
     4.6288

     the Fermi energy is     4.0215 ev

!    total energy              =   -2942.82543486 Ry
     estimated scf accuracy    <       0.00000007 Ry
     smearing contrib. (-TS)   =      -0.03682975 Ry
     internal energy E=F+TS    =   -2942.78860511 Ry

     The total energy is F=E-TS. E is the sum of the following terms:
     one-electron contribution =  -23969.82803291 Ry
     hartree contribution      =   12080.47790626 Ry
     xc contribution           =    -487.78074397 Ry
     ewald contribution        =    9434.33732384 Ry
     electric field correction =       0.00494166 Ry

     total magnetization       =    -0.00 Bohr mag/cell
     absolute magnetization    =     0.02 Bohr mag/cell

     convergence has been achieved in  83 iterations

     Forces acting on atoms (cartesian axes, Ry/au):

     atom    1 type  1   force =     0.00014870   -0.00022610    0.09435964
     atom    2 type  1   force =    -0.00009810   -0.00033031   -0.17737909
     atom    3 type  2   force =     0.00005568   -0.00017147   -0.02136544
     atom    4 type  2   force =    -0.00001415   -0.00172595    0.05657402
     atom    5 type  2   force =    -0.01055453   -0.00127509    0.00623670
     atom    6 type  2   force =     0.01222144   -0.00074095    0.00570860
     atom    7 type  1   force =    -0.00032333    0.00172745   -0.01618692
     atom    8 type  1   force =    -0.00011047    0.00438448    0.00559521
     atom    9 type  2   force =     0.00001114   -0.00005249   -0.00005873
     atom   10 type  2   force =    -0.00074090   -0.00022669   -0.00043012
     atom   11 type  2   force =     0.00032564    0.00012633   -0.00016846
     atom   12 type  2   force =    -0.00049501   -0.00000190   -0.00010438
     atom   13 type  1   force =     0.00003009   -0.00034650    0.00002447
     atom   14 type  1   force =     0.00055470    0.00011925   -0.00033059
     atom   15 type  2   force =    -0.00037030    0.00005520    0.00005961
     atom   16 type  2   force =    -0.00032570    0.00018978   -0.00002938
     atom   17 type  2   force =    -0.00001269    0.00015559    0.00050895
     atom   18 type  2   force =     0.00001027    0.00032728   -0.00004836
     atom   19 type  1   force =     0.00009969    0.00002760   -0.00005599
     atom   20 type  1   force =     0.00024284    0.00084589   -0.00001472
     atom   21 type  2   force =     0.00003523    0.00004252    0.10361380
     atom   22 type  2   force =    -0.00005654   -0.00085341   -0.00043374
     atom   23 type  2   force =    -0.07082046   -0.00010443   -0.02717715
     atom   24 type  2   force =     0.07068646    0.00033552   -0.02721140
     atom   25 type  1   force =    -0.00009330   -0.00020280    0.09376900
     atom   26 type  1   force =    -0.00015527   -0.00032182   -0.17731148
     atom   27 type  2   force =     0.00008871   -0.00034533   -0.02046496
     atom   28 type  2   force =     0.00003125   -0.00144058    0.05588394
     atom   29 type  2   force =    -0.01090990   -0.00073691    0.00608684
     atom   30 type  2   force =     0.01246233   -0.00029211    0.00556641
     atom   31 type  1   force =    -0.00017221    0.00462900   -0.01722148
     atom   32 type  1   force =    -0.00004353   -0.00480419    0.00558440
     atom   33 type  2   force =     0.00005694    0.00013061    0.00025755
     atom   34 type  2   force =     0.00005796   -0.00084847   -0.00295378
     atom   35 type  2   force =     0.00021333    0.00003196    0.00010055
     atom   36 type  2   force =    -0.00040610    0.00015920   -0.00004433
     atom   37 type  1   force =    -0.00012910   -0.00010683   -0.00030115
     atom   38 type  1   force =     0.00043560   -0.00028513    0.00035198
     atom   39 type  2   force =    -0.00047421    0.00009224    0.00116475
     atom   40 type  2   force =    -0.00011427    0.00019234   -0.00018537
     atom   41 type  2   force =     0.00025611    0.00021294    0.00041411
     atom   42 type  2   force =    -0.00023444    0.00019213    0.00002886
     atom   43 type  1   force =    -0.00048601    0.00062567   -0.00010599
     atom   44 type  1   force =    -0.00012377    0.00017074    0.00060183
     atom   45 type  2   force =     0.00002816    0.00001045    0.10362056
     atom   46 type  2   force =    -0.07082460   -0.00003117   -0.02717845
     atom   47 type  2   force =     0.07068824    0.00038387   -0.02718404
     atom   48 type  3   force =    -0.00116149   -0.00159226   -0.01327761
     atom   49 type  4   force =     0.00088620    0.00029801    0.00493477
     atom   50 type  5   force =     0.00076291    0.00024735    0.00086213
     atom   51 type  5   force =     0.00068451   -0.00051392    0.00113170
     atom   52 type  5   force =    -0.00073267   -0.00002038   -0.00030281
     atom   53 type  3   force =     0.00049503    0.00116833    0.00501308
     atom   54 type  5   force =    -0.00087797    0.00048385    0.00044913
     atom   55 type  5   force =     0.00039360    0.00005509   -0.00135703
     atom   56 type  5   force =    -0.00110178    0.00017652    0.00038035

     Total force =     0.365899     Total SCF correction =     0.000582
  @ DRIVER MODE: Message from server: STATUS
  @ DRIVER MODE: Message from server: GETFORCE
  @ DRIVER MODE: Returning v,forces,stress,ensemble

     Writing output data file ./calc.save/
  @ DRIVER MODE: Message from server: EXIT
  @ DRIVE MODE: Exiting

     General routines

     Parallel routines

   This run was terminated on:  22:27:40  15Jul2021

   JOB DONE.