     Program PWSCF v.6.7GPU starts on 16Sep2021 at  7:57: 3

     R & G space division:  proc/nbgrp/npool/nimage =      10
     Reading input from /storage/home/hcoda1/3/ntian30/research/carbon/CxH_vib/H2O_calc/ads_slab/CH2NHNH2O_a/out_0052/pw.inp
Warning: card &CELL ignored
Warning: card   CELL_DYNAMICS='IPI', ignored
Warning: card / ignored

     Current dimensions of program PWSCF are:
     Max number of different atomic species (ntypx) = 10
     Max number of k-points (npk) =  40000
     Max angular momentum in pseudopotentials (lmaxx) =  3
     Presently no symmetry can be used with electric field

     Message from routine cell_base_init:
     DEPRECATED: use true lattice parameter, not A to a.u. conversion factor

     IMPORTANT: XC functional enforced from input :
     Exchange-correlation= BEEF-VDW
                           (   1   4  43  14   2   0   0)
     Any further DFT definition will be discarded
     Please, verify this is what you really want

  @ DRIVER MODE: Connecting to
 qe_1139763_2852610.sched-torque.pace.gatech.edu0g7he8q5_scratch
  using UNIX socket
  @ DRIVER MODE: Message from server: STATUS
  @ DRIVER MODE: Message from server: INIT
  @ DRIVER MODE: Receiving replica           0          -1
  @ DRIVER MODE: Receiving encoded integer          25
  @ DRIVER MODE:  SCF:  T  FORCE:  T  STRESS:  F  VC:  F  ENSEMBLE:  F
  @ DRIVER MODE:  SCF:  T  FORCE:  T  STRESS:  F  VC:  F  ENSEMBLE:  F

     Using Slab Decomposition

     bravais-lattice index     =            0
     lattice parameter (alat)  =       1.8897  a.u.
     unit-cell volume          =    6658.9804 (a.u.)^3
     number of atoms/cell      =           56
     number of atomic types    =            5
     number of electrons       =       403.00
     number of Kohn-Sham states=          211
     kinetic-energy cutoff     =      29.3995  Ry
     charge density cutoff     =     293.9946  Ry
     scf convergence threshold =      7.3E-08
     mixing beta               =       0.0500
     number of iterations used =            8  plain     mixing
     Exchange-correlation= BEEF-VDW
                           (   1   4  43  14   2   0   0)

     celldm(1)=   1.889726  celldm(2)=   0.000000  celldm(3)=   0.000000
     celldm(4)=   0.000000  celldm(5)=   0.000000  celldm(6)=   0.000000

     crystal axes: (cart. coord. in units of alat)
               a(1) = (   6.579727   0.000000   0.000000 )
               a(2) = (  -0.000775   5.961596   0.000000 )
               a(3) = (   0.000000   0.000000  25.155947 )

     reciprocal axes: (cart. coord. in units 2 pi/alat)
               b(1) = (  0.151982  0.000020  0.000000 )
               b(2) = (  0.000000  0.167740  0.000000 )
               b(3) = (  0.000000  0.000000  0.039752 )

     PseudoPot. # 1 for Ti read from file:
     /storage/coda1/p-amedford6/0/shared/rich_project_chbe-medford/medford-share/data/pseudos_module/espresso/nninc/pbe/van/Ti.UPF
     MD5 check sum: 8e4df49b7f0d34bbd5052bf3f5ea0213
     Pseudo is Ultrasoft, Zval = 12.0
     Generated by new atomic code, or converted to UPF format
     Using radial grid of  851 points,  6 beta functions with:
                l(1) =   0
                l(2) =   0
                l(3) =   1
                l(4) =   1
                l(5) =   2
                l(6) =   2
     Q(r) pseudized with  8 coefficients,  rinner =    1.000   1.000   1.000
                                                       1.000   1.000

     PseudoPot. # 2 for O  read from file:
     /storage/coda1/p-amedford6/0/shared/rich_project_chbe-medford/medford-share/data/pseudos_module/espresso/nninc/pbe/van/O.UPF
     MD5 check sum: 78c19812648e8988a0fe644b0f25305e
     Pseudo is Ultrasoft, Zval =  6.0
     Generated by new atomic code, or converted to UPF format
     Using radial grid of  737 points,  4 beta functions with:
                l(1) =   0
                l(2) =   0
                l(3) =   1
                l(4) =   1
     Q(r) pseudized with  8 coefficients,  rinner =    0.800   0.800   0.800

     PseudoPot. # 3 for H  read from file:
     /storage/coda1/p-amedford6/0/shared/rich_project_chbe-medford/medford-share/data/pseudos_module/espresso/nninc/pbe/van/H.UPF
     MD5 check sum: b5ee9d7bfd3a09ee7748110bda690ff7
     Pseudo is Ultrasoft, Zval =  1.0
     Generated by new atomic code, or converted to UPF format
     Using radial grid of  615 points,  1 beta functions with:
                l(1) =   0
     Q(r) pseudized with  8 coefficients,  rinner =    0.800

     PseudoPot. # 4 for N  read from file:
     /storage/coda1/p-amedford6/0/shared/rich_project_chbe-medford/medford-share/data/pseudos_module/espresso/nninc/pbe/van/N.UPF
     MD5 check sum: 90d10febe142ad51ac9d5be1deb811c4
     Pseudo is Ultrasoft, Zval =  5.0
     Generated by new atomic code, or converted to UPF format
     Using radial grid of  729 points,  4 beta functions with:
                l(1) =   0
                l(2) =   0
                l(3) =   1
                l(4) =   1
     Q(r) pseudized with  8 coefficients,  rinner =    0.800   0.800   0.800

     PseudoPot. # 5 for C  read from file:
     /storage/coda1/p-amedford6/0/shared/rich_project_chbe-medford/medford-share/data/pseudos_module/espresso/nninc/pbe/van/C.UPF
     MD5 check sum: 1a69bf6b8db32088f5b2163dbdb77a27
     Pseudo is Ultrasoft, Zval =  4.0
     Generated by new atomic code, or converted to UPF format
     Using radial grid of  721 points,  4 beta functions with:
                l(1) =   0
                l(2) =   0
                l(3) =   1
                l(4) =   1
     Q(r) pseudized with  8 coefficients,  rinner =    0.800   0.800   0.800

     atomic species   valence    mass     pseudopotential
        Ti1           12.00    47.86700     Ti( 1.00)
        O1             6.00    15.99900     O ( 1.00)
        H1             1.00     1.00800     H ( 1.00)
        N1             5.00    14.00700     N ( 1.00)
        C1             4.00    12.01100     C ( 1.00)

     No symmetry found

   Cartesian axes

     site n.     atom                  positions (alat units)
         1           Ti1 tau(   1) = (   0.0004258   2.9801865   6.0000000  )
         2           Ti1 tau(   2) = (   3.2906075   1.4906267   6.0002472  )
         3           O1  tau(   3) = (   0.0006271   0.0005054   7.9858123  )
         4           O1  tau(   4) = (   3.2906025   0.0005020   7.3038282  )
         5           O1  tau(   5) = (   4.5942328   1.4918067   9.2879030  )
         6           O1  tau(   6) = (   1.9868534   1.4903216   9.2879459  )
         7           Ti1 tau(   7) = (   3.2907910   2.8959150   9.1758416  )
         8           Ti1 tau(   8) = (   0.0015273   1.4827037   9.2680791  )
         9           O1  tau(   9) = (   3.2960012   0.0062018  11.3595187  )
        10           O1  tau(  10) = (   0.0116148   5.9584955  10.6183126  )
        11           O1  tau(  11) = (   1.2731109   1.5057875  12.6314550  )
        12           O1  tau(  12) = (   5.2959999   1.4755877  12.6679080  )
        13           Ti1 tau(  13) = (   0.0553992   2.9538365  12.5526742  )
        14           Ti1 tau(  14) = (   3.3268292   1.5427496  12.5634199  )
        15           O1  tau(  15) = (   0.1371361   5.9015051  14.6217027  )
        16           O1  tau(  16) = (   3.1880369   0.0098958  13.9252199  )
        17           O1  tau(  17) = (   4.6462182   1.4014471  15.8552565  )
        18           O1  tau(  18) = (   2.0822703   1.5558083  16.1249119  )
        19           Ti1 tau(  19) = (   3.3548958   3.0525267  15.8597497  )
        20           Ti1 tau(  20) = (   0.0948755   1.3182250  15.7908873  )
        21           O1  tau(  21) = (   3.2904802   0.0005063   4.7018136  )
        22           O1  tau(  22) = (   0.0722171   0.0319689  17.1393915  )
        23           O1  tau(  23) = (   1.3043587   1.4918075   6.0039043  )
        24           O1  tau(  24) = (   5.2767064   1.4903225   6.0039473  )
        25           Ti1 tau(  25) = (   0.0000382   5.9609847   6.0000000  )
        26           Ti1 tau(  26) = (   3.2902200   4.4714249   6.0002472  )
        27           O1  tau(  27) = (   0.0002396   2.9813036   7.9858123  )
        28           O1  tau(  28) = (   3.2902150   2.9813002   7.3038282  )
        29           O1  tau(  29) = (   4.5938453   4.4726049   9.2879030  )
        30           O1  tau(  30) = (   1.9864658   4.4711199   9.2879459  )
        31           Ti1 tau(  31) = (   3.2891106   5.8743827   9.1763621  )
        32           Ti1 tau(  32) = (   0.0006254   4.4649316   9.2693709  )
        33           O1  tau(  33) = (   3.2982667   2.9897935  11.3544942  )
        34           O1  tau(  34) = (   0.0092240   2.9805883  10.6323155  )
        35           O1  tau(  35) = (   1.2737041   4.4504026  12.6113924  )
        36           O1  tau(  36) = (   5.2903739   4.4874249  12.6576873  )
        37           Ti1 tau(  37) = (   6.5697415   5.9260651  12.4959683  )
        38           Ti1 tau(  38) = (   3.3125242   4.5024033  12.5372123  )
        39           O1  tau(  39) = (   0.0674008   2.9793056  14.8363759  )
        40           O1  tau(  40) = (   3.2999477   2.9756493  13.9369993  )
        41           O1  tau(  41) = (   4.6108370   4.5787535  15.7719701  )
        42           O1  tau(  42) = (   2.0428421   4.3627697  16.1441833  )
        43           Ti1 tau(  43) = (   3.3552955   0.0804576  15.7648105  )
        44           Ti1 tau(  44) = (   6.5672415   4.5273692  15.9765751  )
        45           O1  tau(  45) = (   3.2900926   2.9813045   4.7018136  )
        46           O1  tau(  46) = (   1.3039711   4.4726057   6.0039043  )
        47           O1  tau(  47) = (   5.2763189   4.4711207   6.0039473  )
        48           H1  tau(  48) = (   4.1035413   2.4672077  18.5646977  )
        49           N1  tau(  49) = (   5.6961598   3.2907635  17.7856741  )
        50           C1  tau(  50) = (   6.4968133   2.7471819  18.6454045  )
        51           H1  tau(  51) = (   6.1325458   2.1374441  19.4677963  )
        52           H1  tau(  52) = (   0.9799315   2.9096255  18.5325614  )
        53           N1  tau(  53) = (   4.3409097   3.1788467  17.8642182  )
        54           O1  tau(  54) = (   3.3174094   5.8609012  18.0981057  )
        55           H1  tau(  55) = (   3.6736973   4.9388346  18.2201127  )
        56           H1  tau(  56) = (   2.3597147   5.8072335  18.2603650  )

     number of k points=    10  Fermi-Dirac smearing, width (Ry)=  0.0073
                       cart. coord. in units 2pi/alat
        k(    1) = (   0.0000000   0.0000000   0.0000000), wk =   0.1250000
        k(    2) = (   0.0000000   0.0419351   0.0000000), wk =   0.2500000
        k(    3) = (   0.0000000  -0.0838702   0.0000000), wk =   0.1250000
        k(    4) = (   0.0379955   0.0000049   0.0000000), wk =   0.2500000
        k(    5) = (   0.0379955   0.0419400   0.0000000), wk =   0.2500000
        k(    6) = (   0.0379955  -0.0838652   0.0000000), wk =   0.2500000
        k(    7) = (   0.0379955  -0.0419301   0.0000000), wk =   0.2500000
        k(    8) = (  -0.0759910  -0.0000099   0.0000000), wk =   0.1250000
        k(    9) = (  -0.0759910   0.0419252   0.0000000), wk =   0.2500000
        k(   10) = (  -0.0759910  -0.0838800   0.0000000), wk =   0.1250000

     Initial potential from superposition of free atoms

     starting charge  386.99914, renormalised to  403.00000

     negative rho (up, down):  1.703E-02 0.000E+00

     %%%%%%%%%%%%%%%%%%%%%%%%%%%%%%%%%%%%%%%%%%%%%%%%%%%%%%%%%%%%%%%%%%%%%%%%
     %                                                                      %
     % You are using vdW-DF, which was implemented by the Thonhauser group. %
     % Please cite the following two papers that made this development      %
     % possible and the two reviews that describe the various versions:     %
     %                                                                      %
     %   T. Thonhauser et al., PRL 115, 136402 (2015).                      %
     %   T. Thonhauser et al., PRB 76, 125112 (2007).                       %
     %   K. Berland et al., Rep. Prog. Phys. 78, 066501 (2015).             %
     %   D.C. Langreth et al., J. Phys.: Condens. Matter 21, 084203 (2009). %
     %                                                                      %
     %                                                                      %
     % If you are calculating the stress with vdW-DF, please also cite:     %
     %                                                                      %
     %   R. Sabatini et al., J. Phys.: Condens. Matter 24, 424209 (2012).   %
     %                                                                      %
     %%%%%%%%%%%%%%%%%%%%%%%%%%%%%%%%%%%%%%%%%%%%%%%%%%%%%%%%%%%%%%%%%%%%%%%%

     Adding external electric field

     Computed dipole along edir(3) :
        Dipole              -12.3736 Ry au,        -31.4507 Debye
        Dipole field         -0.0234 Ry au,

        Potential amp.        2.1646 Ry
        Total length         46.3494 bohr

     Starting wfcs are  305 atomic wfcs
  @ DRIVER MODE: Message from server: STATUS
  @ DRIVER MODE: Message from server: POSDATA
  @ DRIVER MODE: Reading and sharing cell
  @ DRIVER MODE: Reading and sharing positions
  @ DRIVER MODE: Received positions

     Self-consistent Calculation

     iteration #  1     ecut=    29.40 Ry     beta= 0.05
     Davidson diagonalization with overlap
     c_bands:  4 eigenvalues not converged
     c_bands:  3 eigenvalues not converged
     c_bands:  3 eigenvalues not converged
     c_bands:  1 eigenvalues not converged
     c_bands:  1 eigenvalues not converged
     c_bands:  4 eigenvalues not converged
     c_bands:  3 eigenvalues not converged
     ethr =  1.00E-05,  avg # of iterations = 27.4

[...]

     total energy              =   -2355.29289897 Ry
     estimated scf accuracy    <    7011.04744888 Ry

     iteration #  2     ecut=    29.40 Ry     beta= 0.05
     Davidson diagonalization with overlap
     ethr =  1.00E-02,  avg # of iterations = 24.1

[...]

     iteration # 43     ecut=    29.40 Ry     beta= 0.05
     Davidson diagonalization with overlap
     c_bands:  1 eigenvalues not converged
     ethr =  4.35E-08,  avg # of iterations = 13.8

[...]

     total energy              =   -2973.97645024 Ry
     estimated scf accuracy    <       0.00000011 Ry

     iteration # 57     ecut=    29.40 Ry     beta= 0.05
     Davidson diagonalization with overlap
     ethr =  2.74E-11,  avg # of iterations = 10.9

     negative rho (up, down):  1.700E-02 0.000E+00

     Adding external electric field

     Computed dipole along edir(3) :
        Dipole                0.9084 Ry au,          2.3090 Debye
        Dipole field          0.0017 Ry au,

        Potential amp.       -0.1589 Ry
        Total length         46.3494 bohr

     End of self-consistent calculation

          k = 0.0000 0.0000 0.0000 ( 18029 PWs)   bands (ev):

   -55.6365 -55.6024 -55.5182 -55.4824 -55.4761 -55.4630 -55.4413 -55.4292
   -55.4241 -55.4067 -55.3900 -55.3891 -55.3555 -55.2387 -54.6230 -54.5889
   -32.1223 -32.0241 -31.9706 -31.9650 -31.9573 -31.9275 -31.9138 -31.8954
   -31.8821 -31.7892 -31.7830 -31.7771 -31.7494 -31.7441 -31.7389 -31.7043
   -31.6939 -31.6808 -31.6757 -31.6679 -31.6612 -31.6595 -31.6438 -31.6408
   -31.6346 -31.6247 -31.6228 -31.6183 -31.6128 -31.6070 -31.6020 -31.5927
   -31.5828 -31.5804 -31.5799 -31.5778 -31.5722 -31.5369 -31.5285 -31.5131
   -31.4395 -31.3672 -31.0300 -30.9414 -30.9191 -30.8469 -30.7605 -30.6492
   -18.4349 -17.7388 -16.2998 -16.1092 -15.8840 -15.7820 -15.7422 -15.5689
   -15.4383 -15.3955 -15.2690 -15.2035 -15.1797 -15.1610 -15.1470 -15.1145
   -15.0912 -15.0674 -15.0655 -15.0463 -15.0218 -14.9992 -14.9711 -14.9532
   -14.9109 -14.7852 -14.7770 -14.7657 -14.7279 -14.6905 -14.2918 -13.1233
   -13.0067 -12.3737  -7.9260  -6.2385  -5.4265  -4.8386  -3.6711  -3.5791
    -3.5467  -3.5232  -3.4437  -3.3228  -3.2289  -3.0343  -2.9245  -2.8952
    -2.8692  -2.7883  -2.7054  -2.6643  -2.5626  -2.5304  -2.5199  -2.4756
    -2.4207  -2.4060  -2.3758  -2.3621  -2.3263  -2.1937  -2.1746  -2.1361
    -2.0248  -2.0082  -2.0001  -1.9580  -1.9543  -1.9239  -1.9136  -1.8957
    -1.8789  -1.8669  -1.7996  -1.7178  -1.6854  -1.6362  -1.5815  -1.5747
    -1.2739  -1.2575  -1.1901  -1.1583  -1.0878  -1.0541  -1.0399  -1.0251
    -0.9938  -0.8936  -0.8041  -0.7851  -0.7218  -0.6606  -0.5612  -0.5471
    -0.4465  -0.3973  -0.3918  -0.3787  -0.3469  -0.2878  -0.2310  -0.1746
    -0.1245  -0.0421   0.0123   0.0214   0.0635   0.1068   0.1366   0.1949
     0.2573   0.2846   0.3178   0.3330   0.3742   0.4343   0.4558   0.4687
     0.5473   0.5872   0.6125   0.7104   0.7196   0.7586   0.8304   1.0148
     1.0606   1.1999   1.3384   1.4016   1.4677   1.5937   1.8686   1.9718
     2.0180   3.4535   3.5874   3.6083   3.6439   3.7157   3.7621   3.9353
     4.0308   4.0527   4.1144

[...]

          k = 0.0380-0.0419 0.0000 ( 17876 PWs)   bands (ev):

[...]

          k =-0.0760-0.0000 0.0000 ( 17886 PWs)   bands (ev):

[...]

          k =-0.0760-0.0839 0.0000 ( 17948 PWs)   bands (ev):

   -55.6194 -55.6193 -55.5034 -55.4968 -55.4608 -55.4568 -55.4460 -55.4456
   -55.4100 -55.4044 -55.4042 -55.3732 -55.3717 -55.2405 -54.6060 -54.6058
   -31.9376 -31.9375 -31.9130 -31.9130 -31.8832 -31.8473 -31.8185 -31.7998
   -31.7893 -31.7741 -31.7649 -31.7525 -31.7481 -31.7393 -31.7389 -31.7317
   -31.7312 -31.7189 -31.7161 -31.7096 -31.6834 -31.6811 -31.6759 -31.6699
   -31.6553 -31.6529 -31.6520 -31.6384 -31.6325 -31.6305 -31.6268 -31.6268
   -31.6228 -31.6200 -31.6195 -31.6151 -31.6134 -31.6020 -31.5868 -31.5359
   -31.4495 -31.4464 -30.9319 -30.9317 -30.8429 -30.8427 -30.8038 -30.8037
   -18.4275 -17.7393 -15.8506 -15.6068 -15.5931 -15.5565 -15.5377 -15.4186
   -15.3735 -15.3694 -15.3485 -15.2935 -15.2582 -15.2209 -15.1894 -15.1718
   -15.1482 -15.1370 -15.0950 -15.0921 -15.0852 -15.0632 -15.0215 -15.0112
   -14.9868 -14.9666 -14.9620 -14.9496 -14.9169 -14.7491 -14.6399 -13.1085
   -13.1084 -12.3896  -7.8859  -6.2231  -5.4850  -4.7608  -3.1454  -3.0634
    -3.0076  -2.7997  -2.7549  -2.7336  -2.7011  -2.6411  -2.5880  -2.5706
    -2.5522  -2.5234  -2.5139  -2.4616  -2.4360  -2.4100  -2.3855  -2.3696
    -2.3602  -2.3469  -2.3209  -2.3016  -2.2790  -2.2692  -2.2462  -2.2354
    -2.2133  -2.2050  -2.1910  -2.1684  -2.0802  -1.9980  -1.8964  -1.8372
    -1.7936  -1.7932  -1.7629  -1.7337  -1.7058  -1.7014  -1.6620  -1.6328
    -1.5607  -1.5023  -1.3188  -1.3051  -1.2605  -1.1759  -1.1747  -1.1275
    -1.1183  -1.0670  -1.0398  -0.9931  -0.9436  -0.9101  -0.8228  -0.6692
    -0.6207  -0.6008  -0.5949  -0.5795  -0.5389  -0.5245  -0.4722  -0.4549
    -0.4385  -0.3724  -0.3416  -0.3374  -0.2870  -0.2687  -0.1566  -0.0583
    -0.0312   0.0227   0.0621   0.1817   0.2939   0.3630   0.4643   0.4789
     0.4972   0.5508   0.6589   0.6688   0.7137   0.7765   0.8417   0.8473
     0.8777   0.9419   0.9537   0.9907   1.7645   1.7662   1.8176   1.8380
     1.8381   3.8621   3.9028   3.9533   3.9595   3.9834   4.0336   4.0409
     4.0714   4.1218   4.1376

     the Fermi energy is     3.4859 ev

!    total energy              =   -2973.97652743 Ry
     estimated scf accuracy    <       0.00000005 Ry
     smearing contrib. (-TS)   =      -0.01978348 Ry
     internal energy E=F+TS    =   -2973.95674395 Ry

     The total energy is F=E-TS. E is the sum of the following terms:
     one-electron contribution =  -24367.67393977 Ry
     hartree contribution      =   12278.39806917 Ry
     xc contribution           =    -494.13217508 Ry
     ewald contribution        =    9609.44974444 Ry
     electric field correction =       0.00155729 Ry

     convergence has been achieved in  57 iterations

     Forces acting on atoms (cartesian axes, Ry/au):

     atom    1 type  1   force =     0.00015651   -0.00031181    0.09440470
     atom    2 type  1   force =    -0.00007706   -0.00077218   -0.17586606
     atom    3 type  2   force =     0.00005877   -0.00019354   -0.02182283
     atom    4 type  2   force =     0.00003786   -0.00134239    0.05334041
     atom    5 type  2   force =    -0.00870705   -0.00018080    0.00366285
     atom    6 type  2   force =     0.01037424    0.00047104    0.00301471
     atom    7 type  1   force =    -0.00044659    0.00081750   -0.00103805
     atom    8 type  1   force =     0.00044642    0.00750371    0.00863069
     atom    9 type  2   force =     0.00046782    0.00015557    0.00004011
     atom   10 type  2   force =    -0.00262901    0.00131856   -0.01725535
     atom   11 type  2   force =    -0.00009102    0.00008873   -0.00040018
     atom   12 type  2   force =     0.00030865    0.00007329   -0.00007847
     atom   13 type  1   force =    -0.00041801   -0.00037300   -0.00023852
     atom   14 type  1   force =     0.00036891    0.00008241    0.00022500
     atom   15 type  2   force =     0.00013084   -0.00005536   -0.00025768
     atom   16 type  2   force =     0.00020470    0.00019164    0.00007107
     atom   17 type  2   force =    -0.00005570   -0.00005713    0.00005649
     atom   18 type  2   force =     0.00002366   -0.00009315   -0.00000161
     atom   19 type  1   force =    -0.00051217    0.00036426   -0.00069614
     atom   20 type  1   force =     0.00009338   -0.00016356    0.00000931
     atom   21 type  2   force =     0.00006466   -0.00000556    0.10324413
     atom   22 type  2   force =    -0.00023476   -0.00037879   -0.00001984
     atom   23 type  2   force =    -0.07156445   -0.00011238   -0.02735355
     atom   24 type  2   force =     0.07150045    0.00037379   -0.02736794
     atom   25 type  1   force =     0.00004287   -0.00020726    0.09440424
     atom   26 type  1   force =    -0.00013228   -0.00029368   -0.17599277
     atom   27 type  2   force =     0.00003697   -0.00018877   -0.02072431
     atom   28 type  2   force =     0.00009426   -0.00112559    0.05372953
     atom   29 type  2   force =    -0.00878764   -0.00002139    0.00343006
     atom   30 type  2   force =     0.01030138    0.00036474    0.00285987
     atom   31 type  1   force =    -0.00032700    0.00466450    0.00190328
     atom   32 type  1   force =     0.00042857   -0.00852365    0.00858262
     atom   33 type  2   force =    -0.00003741    0.00002998   -0.00002963
     atom   34 type  2   force =    -0.00403390   -0.00112065   -0.01185226
     atom   35 type  2   force =     0.00013553    0.00007632    0.00033804
     atom   36 type  2   force =     0.00053514    0.00005986   -0.00021852
     atom   37 type  1   force =     0.00062556   -0.00018682   -0.00001444
     atom   38 type  1   force =     0.00022926   -0.00016245   -0.00011358
     atom   39 type  2   force =    -0.00013880   -0.00003353   -0.00019369
     atom   40 type  2   force =     0.00045969    0.00000380    0.00040001
     atom   41 type  2   force =    -0.00015026    0.00046285    0.00009975
     atom   42 type  2   force =     0.00017237    0.00014192   -0.00019800
     atom   43 type  1   force =    -0.00021163   -0.00022189   -0.00008036
     atom   44 type  1   force =     0.00036468    0.00051068    0.00091977
     atom   45 type  2   force =     0.00005335    0.00000030    0.10331110
     atom   46 type  2   force =    -0.07155935   -0.00004288   -0.02734722
     atom   47 type  2   force =     0.07149948    0.00035189   -0.02736828
     atom   48 type  3   force =     0.00045449   -0.00051350   -0.00067721
     atom   49 type  4   force =     0.00026103    0.00009121   -0.00037686
     atom   50 type  5   force =     0.00000159   -0.00159635   -0.00103083
     atom   51 type  3   force =    -0.00043810    0.00043491    0.00099630
     atom   52 type  3   force =    -0.00006834   -0.00021814    0.00003039
     atom   53 type  4   force =    -0.00002905    0.00024887    0.00099210
     atom   54 type  2   force =     0.00235441    0.00100000    0.00003365
     atom   55 type  3   force =    -0.00193055    0.00022814   -0.00021271
     atom   56 type  3   force =     0.00029263   -0.00161428    0.00009671

     Total force =     0.363823     Total SCF correction =     0.000412
  @ DRIVER MODE: Message from server: STATUS
  @ DRIVER MODE: Message from server: GETFORCE
  @ DRIVER MODE: Returning v,forces,stress,ensemble

     Writing output data file ./calc.save/
  @ DRIVER MODE: Message from server: EXIT
  @ DRIVE MODE: Exiting

     General routines

     Parallel routines

   This run was terminated on:   8:13:25  16Sep2021

   JOB DONE.