     Program PWSCF v.6.7GPU starts on 24Aug2021 at 20:52:27

     R & G space division:  proc/nbgrp/npool/nimage =       6
     Reading input from /storage/home/hcoda1/3/ntian30/research/carbon/CH3_vib_end_on/ads_slab/CH3N2H_a/out_0009/pw.inp
Warning: card &CELL ignored
Warning: card   CELL_DYNAMICS='IPI', ignored
Warning: card / ignored

     Current dimensions of program PWSCF are:
     Max number of different atomic species (ntypx) = 10
     Max number of k-points (npk) =  40000
     Max angular momentum in pseudopotentials (lmaxx) =  3
     Presently no symmetry can be used with electric field

     Message from routine cell_base_init:
     DEPRECATED: use true lattice parameter, not A to a.u. conversion factor

     IMPORTANT: XC functional enforced from input :
     Exchange-correlation= BEEF-VDW
                           (   1   4  43  14   2   0   0)
     Any further DFT definition will be discarded
     Please, verify this is what you really want

  @ DRIVER MODE: Connecting to
 qe_1139763_2643869.sched-torque.pace.gatech.eduq7bkt8u5_scratch
  using UNIX socket
  @ DRIVER MODE: Message from server: STATUS
  @ DRIVER MODE: Message from server: INIT
  @ DRIVER MODE: Receiving replica           0          -1
  @ DRIVER MODE: Receiving encoded integer          25
  @ DRIVER MODE:  SCF:  T  FORCE:  T  STRESS:  F  VC:  F  ENSEMBLE:  F
  @ DRIVER MODE:  SCF:  T  FORCE:  T  STRESS:  F  VC:  F  ENSEMBLE:  F

     Using Slab Decomposition

     bravais-lattice index     =            0
     lattice parameter (alat)  =       1.8897  a.u.
     unit-cell volume          =    6658.9804 (a.u.)^3
     number of atoms/cell      =           54
     number of atomic types    =            5
     number of electrons       =       396.00
     number of Kohn-Sham states=          208
     kinetic-energy cutoff     =      29.3995  Ry
     charge density cutoff     =     293.9946  Ry
     scf convergence threshold =      7.3E-08
     mixing beta               =       0.0500
     number of iterations used =            8  plain     mixing
     Exchange-correlation= BEEF-VDW
                           (   1   4  43  14   2   0   0)

     celldm(1)=   1.889726  celldm(2)=   0.000000  celldm(3)=   0.000000
     celldm(4)=   0.000000  celldm(5)=   0.000000  celldm(6)=   0.000000

     crystal axes: (cart. coord. in units of alat)
               a(1) = (   6.579727   0.000000   0.000000 )
               a(2) = (  -0.000775   5.961596   0.000000 )
               a(3) = (   0.000000   0.000000  25.155947 )

     reciprocal axes: (cart. coord. in units 2 pi/alat)
               b(1) = (  0.151982  0.000020  0.000000 )
               b(2) = (  0.000000  0.167740  0.000000 )
               b(3) = (  0.000000  0.000000  0.039752 )

     PseudoPot. # 1 for Ti read from file:
     /storage/coda1/p-amedford6/0/shared/rich_project_chbe-medford/medford-share/data/pseudos_module/espresso/nninc/pbe/van/Ti.UPF
     MD5 check sum: 8e4df49b7f0d34bbd5052bf3f5ea0213
     Pseudo is Ultrasoft, Zval = 12.0
     Generated by new atomic code, or converted to UPF format
     Using radial grid of  851 points,  6 beta functions with:
                l(1) =   0
                l(2) =   0
                l(3) =   1
                l(4) =   1
                l(5) =   2
                l(6) =   2
     Q(r) pseudized with  8 coefficients,  rinner =    1.000   1.000   1.000
                                                       1.000   1.000

     PseudoPot. # 2 for O  read from file:
     /storage/coda1/p-amedford6/0/shared/rich_project_chbe-medford/medford-share/data/pseudos_module/espresso/nninc/pbe/van/O.UPF
     MD5 check sum: 78c19812648e8988a0fe644b0f25305e
     Pseudo is Ultrasoft, Zval =  6.0
     Generated by new atomic code, or converted to UPF format
     Using radial grid of  737 points,  4 beta functions with:
                l(1) =   0
                l(2) =   0
                l(3) =   1
                l(4) =   1
     Q(r) pseudized with  8 coefficients,  rinner =    0.800   0.800   0.800

     PseudoPot. # 3 for N  read from file:
     /storage/coda1/p-amedford6/0/shared/rich_project_chbe-medford/medford-share/data/pseudos_module/espresso/nninc/pbe/van/N.UPF
     MD5 check sum: 90d10febe142ad51ac9d5be1deb811c4
     Pseudo is Ultrasoft, Zval =  5.0
     Generated by new atomic code, or converted to UPF format
     Using radial grid of  729 points,  4 beta functions with:
                l(1) =   0
                l(2) =   0
                l(3) =   1
                l(4) =   1
     Q(r) pseudized with  8 coefficients,  rinner =    0.800   0.800   0.800

     PseudoPot. # 4 for C  read from file:
     /storage/coda1/p-amedford6/0/shared/rich_project_chbe-medford/medford-share/data/pseudos_module/espresso/nninc/pbe/van/C.UPF
     MD5 check sum: 1a69bf6b8db32088f5b2163dbdb77a27
     Pseudo is Ultrasoft, Zval =  4.0
     Generated by new atomic code, or converted to UPF format
     Using radial grid of  721 points,  4 beta functions with:
                l(1) =   0
                l(2) =   0
                l(3) =   1
                l(4) =   1
     Q(r) pseudized with  8 coefficients,  rinner =    0.800   0.800   0.800

     PseudoPot. # 5 for H  read from file:
     /storage/coda1/p-amedford6/0/shared/rich_project_chbe-medford/medford-share/data/pseudos_module/espresso/nninc/pbe/van/H.UPF
     MD5 check sum: b5ee9d7bfd3a09ee7748110bda690ff7
     Pseudo is Ultrasoft, Zval =  1.0
     Generated by new atomic code, or converted to UPF format
     Using radial grid of  615 points,  1 beta functions with:
                l(1) =   0
     Q(r) pseudized with  8 coefficients,  rinner =    0.800

     atomic species   valence    mass     pseudopotential
        Ti1           12.00    47.86700     Ti( 1.00)
        O1             6.00    15.99900     O ( 1.00)
        N1             5.00    14.00700     N ( 1.00)
        C1             4.00    12.01100     C ( 1.00)
        H1             1.00     1.00800     H ( 1.00)

     No symmetry found

   Cartesian axes

     site n.     atom                  positions (alat units)
         1           Ti1 tau(   1) = (   0.0004258   2.9801865   6.0000000  )
         2           Ti1 tau(   2) = (   3.2906075   1.4906267   6.0002472  )
         3           O1  tau(   3) = (   0.0006271   0.0005054   7.9858123  )
         4           O1  tau(   4) = (   3.2906025   0.0005020   7.3038282  )
         5           O1  tau(   5) = (   4.5942328   1.4918067   9.2879030  )
         6           O1  tau(   6) = (   1.9868534   1.4903216   9.2879459  )
         7           Ti1 tau(   7) = (   3.2907910   2.8959150   9.1758416  )
         8           Ti1 tau(   8) = (   0.0015273   1.4827037   9.2680791  )
         9           O1  tau(   9) = (   3.2896288   0.0042867  11.3205077  )
        10           O1  tau(  10) = (   0.0116148   5.9584955  10.6183126  )
        11           O1  tau(  11) = (   1.2848067   1.4985890  12.6232755  )
        12           O1  tau(  12) = (   5.2688617   1.4893877  12.6055203  )
        13           Ti1 tau(  13) = (   0.0799559   3.0171279  12.6206390  )
        14           Ti1 tau(  14) = (   3.4009582   1.4891986  12.4726338  )
        15           O1  tau(  15) = (   6.5707323   0.0080309  14.6263129  )
        16           O1  tau(  16) = (   3.2902489   0.0120312  13.8979102  )
        17           O1  tau(  17) = (   4.5126121   1.5346005  16.0500440  )
        18           O1  tau(  18) = (   2.0453867   1.5362785  16.0447169  )
        19           Ti1 tau(  19) = (   3.2767562   3.0203775  15.6892921  )
        20           Ti1 tau(  20) = (   6.5596632   1.5778499  15.8310978  )
        21           O1  tau(  21) = (   3.2904802   0.0005063   4.7018136  )
        22           O1  tau(  22) = (   6.5709656   0.0671247  17.2345223  )
        23           O1  tau(  23) = (   1.3043587   1.4918075   6.0039043  )
        24           O1  tau(  24) = (   5.2767064   1.4903225   6.0039473  )
        25           Ti1 tau(  25) = (   0.0000382   5.9609847   6.0000000  )
        26           Ti1 tau(  26) = (   3.2902200   4.4714249   6.0002472  )
        27           O1  tau(  27) = (   0.0002396   2.9813036   7.9858123  )
        28           O1  tau(  28) = (   3.2902150   2.9813002   7.3038282  )
        29           O1  tau(  29) = (   4.5938453   4.4726049   9.2879030  )
        30           O1  tau(  30) = (   1.9864658   4.4711199   9.2879459  )
        31           Ti1 tau(  31) = (   3.2891106   5.8743827   9.1763621  )
        32           Ti1 tau(  32) = (   0.0006254   4.4649316   9.2693709  )
        33           O1  tau(  33) = (   3.2919429   2.9835650  11.3172650  )
        34           O1  tau(  34) = (   0.0092240   2.9805883  10.6323155  )
        35           O1  tau(  35) = (   1.2842535   4.4799506  12.6241420  )
        36           O1  tau(  36) = (   5.2755836   4.4732255  12.6042992  )
        37           Ti1 tau(  37) = (   0.0783641   0.0295629  12.6394962  )
        38           Ti1 tau(  38) = (   3.4022659   4.4693352  12.4708195  )
        39           O1  tau(  39) = (   6.5693815   2.9799975  14.6326336  )
        40           O1  tau(  40) = (   3.2899495   3.0014797  13.8849495  )
        41           O1  tau(  41) = (   4.5062741   4.5069571  16.0893315  )
        42           O1  tau(  42) = (   2.0480812   4.5060041  16.0753496  )
        43           Ti1 tau(  43) = (   3.2742444   0.0367023  15.7020416  )
        44           Ti1 tau(  44) = (   6.5658628   4.6518251  16.1481936  )
        45           O1  tau(  45) = (   3.2900926   2.9813045   4.7018136  )
        46           O1  tau(  46) = (   1.3039711   4.4726057   6.0039043  )
        47           O1  tau(  47) = (   5.2763189   4.4711207   6.0039473  )
        48           N1  tau(  48) = (   6.5201982   2.6597193  18.5868863  )
        49           N1  tau(  49) = (   6.5663212   2.9559568  17.3251533  )
        50           C1  tau(  50) = (   0.1092964   3.6297355  19.6533281  )
        51           H1  tau(  51) = (   6.1365678   4.5355971  19.4091500  )
        52           H1  tau(  52) = (   6.3142024   3.1981282  20.5813133  )
        53           H1  tau(  53) = (   1.1661384   3.8973747  19.7839464  )
        54           H1  tau(  54) = (   6.5756389   1.6632157  18.8047554  )

     number of k points=    10  Fermi-Dirac smearing, width (Ry)=  0.0073
                       cart. coord. in units 2pi/alat
        k(    1) = (   0.0000000   0.0000000   0.0000000), wk =   0.1250000
        k(    2) = (   0.0000000   0.0419351   0.0000000), wk =   0.2500000
        k(    3) = (   0.0000000  -0.0838702   0.0000000), wk =   0.1250000
        k(    4) = (   0.0379955   0.0000049   0.0000000), wk =   0.2500000
        k(    5) = (   0.0379955   0.0419400   0.0000000), wk =   0.2500000
        k(    6) = (   0.0379955  -0.0838652   0.0000000), wk =   0.2500000
        k(    7) = (   0.0379955  -0.0419301   0.0000000), wk =   0.2500000
        k(    8) = (  -0.0759910  -0.0000099   0.0000000), wk =   0.1250000
        k(    9) = (  -0.0759910   0.0419252   0.0000000), wk =   0.2500000
        k(   10) = (  -0.0759910  -0.0838800   0.0000000), wk =   0.1250000

     Initial potential from superposition of free atoms

     starting charge  379.99915, renormalised to  396.00000

     negative rho (up, down):  1.474E-02 0.000E+00

     %%%%%%%%%%%%%%%%%%%%%%%%%%%%%%%%%%%%%%%%%%%%%%%%%%%%%%%%%%%%%%%%%%%%%%%%
     %                                                                      %
     % You are using vdW-DF, which was implemented by the Thonhauser group. %
     % Please cite the following two papers that made this development      %
     % possible and the two reviews that describe the various versions:     %
     %                                                                      %
     %   T. Thonhauser et al., PRL 115, 136402 (2015).                      %
     %   T. Thonhauser et al., PRB 76, 125112 (2007).                       %
     %   K. Berland et al., Rep. Prog. Phys. 78, 066501 (2015).             %
     %   D.C. Langreth et al., J. Phys.: Condens. Matter 21, 084203 (2009). %
     %                                                                      %
     %                                                                      %
     % If you are calculating the stress with vdW-DF, please also cite:     %
     %                                                                      %
     %   R. Sabatini et al., J. Phys.: Condens. Matter 24, 424209 (2012).   %
     %                                                                      %
     %%%%%%%%%%%%%%%%%%%%%%%%%%%%%%%%%%%%%%%%%%%%%%%%%%%%%%%%%%%%%%%%%%%%%%%%

     Adding external electric field

     Computed dipole along edir(3) :
        Dipole               -9.2704 Ry au,        -23.5631 Debye
        Dipole field         -0.0175 Ry au,

        Potential amp.        1.6217 Ry
        Total length         46.3494 bohr

     Starting wfcs are  300 atomic wfcs
  @ DRIVER MODE: Message from server: STATUS
  @ DRIVER MODE: Message from server: POSDATA
  @ DRIVER MODE: Reading and sharing cell
  @ DRIVER MODE: Reading and sharing positions
  @ DRIVER MODE: Received positions

     Self-consistent Calculation

     iteration #  1     ecut=    29.40 Ry     beta= 0.05
     Davidson diagonalization with overlap
     c_bands:  1 eigenvalues not converged
     c_bands:  1 eigenvalues not converged
     c_bands:  1 eigenvalues not converged
     ethr =  1.00E-05,  avg # of iterations = 17.9

[...]

     total energy              =   -2585.25996011 Ry
     estimated scf accuracy    <    3947.33862379 Ry

     iteration #  2     ecut=    29.40 Ry     beta= 0.05
     Davidson diagonalization with overlap
     ethr =  1.00E-02,  avg # of iterations = 22.4

[...]

     iteration # 50     ecut=    29.40 Ry     beta= 0.05
     Davidson diagonalization with overlap
     c_bands:  1 eigenvalues not converged
     ethr =  1.17E-06,  avg # of iterations =  7.9

[...]

     total energy              =   -2940.39764368 Ry
     estimated scf accuracy    <       0.00000009 Ry

     iteration # 71     ecut=    29.40 Ry     beta= 0.05
     Davidson diagonalization with overlap
     ethr =  2.02E-11,  avg # of iterations =  2.0

     negative rho (up, down):  1.567E-02 0.000E+00

     Adding external electric field

     Computed dipole along edir(3) :
        Dipole                1.1365 Ry au,          2.8887 Debye
        Dipole field          0.0021 Ry au,

        Potential amp.       -0.1988 Ry
        Total length         46.3494 bohr

     End of self-consistent calculation

          k = 0.0000 0.0000 0.0000 ( 18029 PWs)   bands (ev):

   -55.6382 -55.6042 -55.5464 -55.5088 -55.4023 -55.3801 -55.3685 -55.3449
   -55.3381 -55.3323 -55.3110 -55.2625 -54.7092 -54.5805 -54.5664 -54.5465
   -32.1127 -32.0900 -31.9325 -31.9194 -31.8898 -31.8589 -31.8411 -31.8343
   -31.7914 -31.7764 -31.7743 -31.7350 -31.7264 -31.7084 -31.6969 -31.6887
   -31.6770 -31.6680 -31.6364 -31.6232 -31.6009 -31.5806 -31.5734 -31.5609
   -31.5462 -31.5401 -31.5329 -31.5313 -31.5257 -31.5085 -31.4997 -31.4979
   -31.4943 -31.4571 -31.4441 -31.3767 -31.2163 -30.9863 -30.9350 -30.9177
   -30.9015 -30.8983 -30.8788 -30.8031 -30.7751 -30.7401 -30.7168 -30.6058
   -18.0341 -16.2730 -16.0450 -15.7679 -15.6682 -15.6435 -15.5230 -15.3901
   -15.2894 -15.1949 -15.1539 -15.1000 -15.0954 -15.0663 -15.0355 -14.9996
   -14.9721 -14.9327 -14.9167 -14.8950 -14.8705 -14.8632 -14.7501 -14.7371
   -14.7123 -14.6207 -14.6105 -14.5402 -14.5121 -14.0866 -13.0826 -12.9668
   -12.0413  -8.9268  -5.7418  -4.4685  -4.1662  -3.6559  -3.5296  -3.4995
    -3.3982  -3.2267  -3.1334  -3.0740  -2.9601  -2.7596  -2.7253  -2.7152
    -2.6951  -2.6376  -2.4390  -2.4134  -2.3826  -2.3424  -2.3326  -2.3308
    -2.3160  -2.2545  -2.1898  -2.1237  -2.0287  -2.0240  -1.9644  -1.9504
    -1.9329  -1.8987  -1.8565  -1.8159  -1.7942  -1.7532  -1.7332  -1.7277
    -1.6875  -1.6061  -1.5017  -1.3472  -1.3366  -1.2969  -1.2491  -1.1926
    -1.0277  -1.0112  -0.9747  -0.9687  -0.9368  -0.8616  -0.7967  -0.7093
    -0.6755  -0.5965  -0.5806  -0.5531  -0.4779  -0.3921  -0.3696  -0.3545
    -0.3469  -0.3312  -0.2741  -0.1625  -0.0639  -0.0368   0.0860   0.0912
     0.1269   0.1720   0.1872   0.2694   0.3064   0.3194   0.3718   0.3722
     0.3839   0.4274   0.4504   0.5120   0.5675   0.6532   0.7255   0.7916
     0.8283   0.9449   1.0160   1.0814   1.1107   1.2406   1.3626   1.3797
     1.4413   1.6366   1.6393   2.0099   2.0542   3.5331   3.5545   3.6472
     3.6903   3.7880   3.8269   3.9715   4.0249   4.0636   4.1776   4.2096

[...]

          k = 0.0380-0.0419 0.0000 ( 17876 PWs)   bands (ev):

[...]

          k =-0.0760-0.0000 0.0000 ( 17886 PWs)   bands (ev):

[...]

          k =-0.0760-0.0839 0.0000 ( 17948 PWs)   bands (ev):

   -55.6213 -55.6210 -55.5333 -55.5218 -55.3854 -55.3851 -55.3709 -55.3472
   -55.3293 -55.3276 -55.3266 -55.2671 -54.7073 -54.5682 -54.5635 -54.5634
   -31.9282 -31.9281 -31.9177 -31.9177 -31.8977 -31.8886 -31.7911 -31.7815
   -31.7573 -31.7449 -31.7421 -31.7417 -31.6973 -31.6944 -31.6829 -31.6793
   -31.6700 -31.6665 -31.6659 -31.6419 -31.5961 -31.5958 -31.5811 -31.5782
   -31.5738 -31.5723 -31.5708 -31.5603 -31.5577 -31.5535 -31.5442 -31.5413
   -31.5360 -31.5237 -31.4984 -31.4648 -31.1214 -30.9733 -30.9184 -30.9073
   -30.8916 -30.8915 -30.7993 -30.7991 -30.7926 -30.7765 -30.7600 -30.7600
   -18.0285 -15.6962 -15.6848 -15.5051 -15.4999 -15.4400 -15.4339 -15.2806
   -15.2798 -15.2615 -15.2529 -15.1297 -15.1259 -15.0952 -15.0913 -15.0492
   -15.0425 -15.0218 -15.0134 -15.0117 -15.0051 -14.9794 -14.9308 -14.8937
   -14.8882 -14.7121 -14.7099 -14.5904 -14.5562 -14.2235 -13.0689 -13.0688
   -12.0421  -8.9368  -5.7334  -4.4081  -4.1690  -2.9861  -2.9787  -2.9738
    -2.7003  -2.6952  -2.6704  -2.6600  -2.4550  -2.4422  -2.4211  -2.4155
    -2.3883  -2.3823  -2.3675  -2.3603  -2.2775  -2.2679  -2.2557  -2.2340
    -2.2304  -2.2235  -2.2072  -2.1996  -2.1898  -2.1560  -2.1224  -2.0922
    -2.0573  -2.0360  -1.9162  -1.8057  -1.7268  -1.7200  -1.6894  -1.6835
    -1.6775  -1.6710  -1.6385  -1.5343  -1.4871  -1.4258  -1.2891  -1.2603
    -1.2456  -1.1978  -1.1093  -1.0293  -0.9652  -0.9477  -0.9010  -0.8571
    -0.8329  -0.7492  -0.7248  -0.7168  -0.6503  -0.6163  -0.5724  -0.5656
    -0.5545  -0.4871  -0.4388  -0.3894  -0.3644  -0.3339  -0.2886  -0.2684
    -0.2050  -0.1580  -0.1060  -0.1000  -0.0517  -0.0440   0.0210   0.1702
     0.2215   0.4733   0.4889   0.5175   0.6441   0.7153   0.7209   0.7472
     0.7792   0.8312   0.8424   0.9764   0.9871   0.9905   1.1572   1.1813
     1.2644   1.8097   1.8100   1.8733   1.8736   3.4359   3.9243   3.9424
     3.9673   3.9826   4.0543   4.0553   4.0633   4.0708   4.2488   4.2691

     the Fermi energy is     3.5102 ev

!    total energy              =   -2940.39766301 Ry
     estimated scf accuracy    <       0.00000006 Ry
     smearing contrib. (-TS)   =      -0.02304941 Ry
     internal energy E=F+TS    =   -2940.37461359 Ry

     The total energy is F=E-TS. E is the sum of the following terms:
     one-electron contribution =  -24109.43731521 Ry
     hartree contribution      =   12145.98272969 Ry
     xc contribution           =    -486.04860256 Ry
     ewald contribution        =    9509.12613705 Ry
     electric field correction =       0.00243743 Ry

     convergence has been achieved in  71 iterations

     Forces acting on atoms (cartesian axes, Ry/au):

     atom    1 type  1   force =     0.00016181   -0.00012144    0.09932250
     atom    2 type  1   force =    -0.00013192   -0.00046207   -0.17359954
     atom    3 type  2   force =    -0.00005055   -0.00000145   -0.02877942
     atom    4 type  2   force =     0.00007374   -0.00125164    0.04998221
     atom    5 type  2   force =    -0.01306410    0.00057600    0.00122708
     atom    6 type  2   force =     0.01461191    0.00138364   -0.00009694
     atom    7 type  1   force =    -0.00144204   -0.00059722   -0.00835337
     atom    8 type  1   force =     0.00087885   -0.00411325    0.04511286
     atom    9 type  2   force =    -0.00002975   -0.00064885   -0.00022397
     atom   10 type  2   force =    -0.00128815    0.00227297   -0.02836276
     atom   11 type  2   force =     0.00019410    0.00057914   -0.00001706
     atom   12 type  2   force =     0.00025759    0.00038710    0.00013451
     atom   13 type  1   force =     0.00036766    0.00022421   -0.00052311
     atom   14 type  1   force =     0.00002545    0.00047519    0.00026241
     atom   15 type  2   force =     0.00033773   -0.00120616    0.00040481
     atom   16 type  2   force =    -0.00040991   -0.00026141   -0.00008348
     atom   17 type  2   force =    -0.00146310    0.00006422   -0.00060589
     atom   18 type  2   force =     0.00132481    0.00011974    0.00015012
     atom   19 type  1   force =     0.00022195   -0.00068037   -0.00018363
     atom   20 type  1   force =    -0.00048170   -0.00106926   -0.00040050
     atom   21 type  2   force =     0.00009040   -0.00007369    0.10275376
     atom   22 type  2   force =     0.00011156   -0.00135619    0.00029312
     atom   23 type  2   force =    -0.07214717   -0.00015678   -0.02833196
     atom   24 type  2   force =     0.07214669    0.00030313   -0.02833114
     atom   25 type  1   force =     0.00012792   -0.00019698    0.09862816
     atom   26 type  1   force =    -0.00011220   -0.00046116   -0.17380692
     atom   27 type  2   force =     0.00001166   -0.00002789   -0.02806609
     atom   28 type  2   force =     0.00011417   -0.00099932    0.04943818
     atom   29 type  2   force =    -0.01338287    0.00005523    0.00128903
     atom   30 type  2   force =     0.01483983    0.00042033   -0.00005385
     atom   31 type  1   force =    -0.00139009    0.00251412   -0.00863318
     atom   32 type  1   force =     0.00106204    0.00236457    0.04543496
     atom   33 type  2   force =    -0.00012824    0.00103274    0.00059732
     atom   34 type  2   force =    -0.00071756    0.00120323   -0.03114685
     atom   35 type  2   force =     0.00068236   -0.00049320   -0.00017367
     atom   36 type  2   force =    -0.00163873   -0.00010055    0.00006773
     atom   37 type  1   force =    -0.00017313   -0.00156170    0.00005942
     atom   38 type  1   force =     0.00078683   -0.00004806    0.00046034
     atom   39 type  2   force =     0.00033183    0.00055351   -0.00066810
     atom   40 type  2   force =    -0.00040396    0.00036596    0.00005934
     atom   41 type  2   force =     0.00094791   -0.00069101    0.00032088
     atom   42 type  2   force =    -0.00092708   -0.00081179    0.00081799
     atom   43 type  1   force =     0.00036996    0.00018367   -0.00072701
     atom   44 type  1   force =    -0.00035021   -0.00087769   -0.00051965
     atom   45 type  2   force =     0.00010979   -0.00006748    0.10277900
     atom   46 type  2   force =    -0.07217068   -0.00010012   -0.02832815
     atom   47 type  2   force =     0.07215535    0.00033972   -0.02830506
     atom   48 type  3   force =    -0.00013675   -0.00468428    0.00174726
     atom   49 type  3   force =     0.00012488    0.00634051   -0.00345375
     atom   50 type  4   force =     0.00115234    0.00091228    0.00023775
     atom   51 type  5   force =    -0.00020015   -0.00039967    0.00012919
     atom   52 type  5   force =     0.00031996    0.00005231   -0.00059013
     atom   53 type  5   force =    -0.00102978    0.00051822   -0.00093995
     atom   54 type  5   force =    -0.00067126    0.00027893    0.00159517

     Total force =     0.372317     Total SCF correction =     0.000603
  @ DRIVER MODE: Message from server: STATUS
  @ DRIVER MODE: Message from server: GETFORCE
  @ DRIVER MODE: Returning v,forces,stress,ensemble

     Writing output data file ./calc.save/
  @ DRIVER MODE: Message from server: EXIT
  @ DRIVE MODE: Exiting

     General routines

     Parallel routines

   This run was terminated on:  21:22:55  24Aug2021

   JOB DONE.