     Program PWSCF v.6.7GPU starts on 12Oct2021 at 11:12:59

     R & G space division:  proc/nbgrp/npool/nimage =       8
     Reading input from /storage/home/hcoda1/3/ntian30/research/carbon/ACS_vib/ads_slab/N2H/out_0008/pw.inp
Warning: card &CELL ignored
Warning: card   CELL_DYNAMICS='IPI', ignored
Warning: card / ignored

     Current dimensions of program PWSCF are:
     Max number of different atomic species (ntypx) = 10
     Max number of k-points (npk) =  40000
     Max angular momentum in pseudopotentials (lmaxx) =  3
     Presently no symmetry can be used with electric field

     Message from routine cell_base_init:
     DEPRECATED: use true lattice parameter, not A to a.u. conversion factor

     IMPORTANT: XC functional enforced from input :
     Exchange-correlation= BEEF-VDW
                           (   1   4  43  14   2   0   0)
     Any further DFT definition will be discarded
     Please, verify this is what you really want

  @ DRIVER MODE: Connecting to
 qe_1139763_3181314.sched-torque.pace.gatech.eduoupxec18_scratch
  using UNIX socket
  @ DRIVER MODE: Message from server: STATUS
  @ DRIVER MODE: Message from server: INIT
  @ DRIVER MODE: Receiving replica           0          -1
  @ DRIVER MODE: Receiving encoded integer          25
  @ DRIVER MODE:  SCF:  T  FORCE:  T  STRESS:  F  VC:  F  ENSEMBLE:  F
  @ DRIVER MODE:  SCF:  T  FORCE:  T  STRESS:  F  VC:  F  ENSEMBLE:  F

     Using Slab Decomposition

     bravais-lattice index     =            0
     lattice parameter (alat)  =       1.8897  a.u.
     unit-cell volume          =    6658.9804 (a.u.)^3
     number of atoms/cell      =           50
     number of atomic types    =            4
     number of electrons       =       389.00
     number of Kohn-Sham states=          204
     kinetic-energy cutoff     =      29.3995  Ry
     charge density cutoff     =     293.9946  Ry
     scf convergence threshold =      7.3E-08
     mixing beta               =       0.0500
     number of iterations used =            8  plain     mixing
     Exchange-correlation= BEEF-VDW
                           (   1   4  43  14   2   0   0)

     celldm(1)=   1.889726  celldm(2)=   0.000000  celldm(3)=   0.000000
     celldm(4)=   0.000000  celldm(5)=   0.000000  celldm(6)=   0.000000

     crystal axes: (cart. coord. in units of alat)
               a(1) = (   6.579727   0.000000   0.000000 )
               a(2) = (  -0.000775   5.961596   0.000000 )
               a(3) = (   0.000000   0.000000  25.155947 )

     reciprocal axes: (cart. coord. in units 2 pi/alat)
               b(1) = (  0.151982  0.000020  0.000000 )
               b(2) = (  0.000000  0.167740  0.000000 )
               b(3) = (  0.000000  0.000000  0.039752 )

     PseudoPot. # 1 for Ti read from file:
     /storage/coda1/p-amedford6/0/shared/rich_project_chbe-medford/medford-share/data/pseudos_module/espresso/nninc/pbe/van/Ti.UPF
     MD5 check sum: 8e4df49b7f0d34bbd5052bf3f5ea0213
     Pseudo is Ultrasoft, Zval = 12.0
     Generated by new atomic code, or converted to UPF format
     Using radial grid of  851 points,  6 beta functions with:
                l(1) =   0
                l(2) =   0
                l(3) =   1
                l(4) =   1
                l(5) =   2
                l(6) =   2
     Q(r) pseudized with  8 coefficients,  rinner =    1.000   1.000   1.000
                                                       1.000   1.000

     PseudoPot. # 2 for O  read from file:
     /storage/coda1/p-amedford6/0/shared/rich_project_chbe-medford/medford-share/data/pseudos_module/espresso/nninc/pbe/van/O.UPF
     MD5 check sum: 78c19812648e8988a0fe644b0f25305e
     Pseudo is Ultrasoft, Zval =  6.0
     Generated by new atomic code, or converted to UPF format
     Using radial grid of  737 points,  4 beta functions with:
                l(1) =   0
                l(2) =   0
                l(3) =   1
                l(4) =   1
     Q(r) pseudized with  8 coefficients,  rinner =    0.800   0.800   0.800

     PseudoPot. # 3 for N  read from file:
     /storage/coda1/p-amedford6/0/shared/rich_project_chbe-medford/medford-share/data/pseudos_module/espresso/nninc/pbe/van/N.UPF
     MD5 check sum: 90d10febe142ad51ac9d5be1deb811c4
     Pseudo is Ultrasoft, Zval =  5.0
     Generated by new atomic code, or converted to UPF format
     Using radial grid of  729 points,  4 beta functions with:
                l(1) =   0
                l(2) =   0
                l(3) =   1
                l(4) =   1
     Q(r) pseudized with  8 coefficients,  rinner =    0.800   0.800   0.800

     PseudoPot. # 4 for H  read from file:
     /storage/coda1/p-amedford6/0/shared/rich_project_chbe-medford/medford-share/data/pseudos_module/espresso/nninc/pbe/van/H.UPF
     MD5 check sum: b5ee9d7bfd3a09ee7748110bda690ff7
     Pseudo is Ultrasoft, Zval =  1.0
     Generated by new atomic code, or converted to UPF format
     Using radial grid of  615 points,  1 beta functions with:
                l(1) =   0
     Q(r) pseudized with  8 coefficients,  rinner =    0.800

     atomic species   valence    mass     pseudopotential
        Ti1           12.00    47.86700     Ti( 1.00)
        O1             6.00    15.99900     O ( 1.00)
        N1             5.00    14.00700     N ( 1.00)
        H1             1.00     1.00800     H ( 1.00)

     No symmetry found

   Cartesian axes

     site n.     atom                  positions (alat units)
         1           Ti1 tau(   1) = (   0.0004258   2.9801865   6.0000000  )
         2           Ti1 tau(   2) = (   3.2906075   1.4906267   6.0002472  )
         3           O1  tau(   3) = (   0.0006271   0.0005054   7.9858123  )
         4           O1  tau(   4) = (   3.2906025   0.0005020   7.3038282  )
         5           O1  tau(   5) = (   4.5942328   1.4918067   9.2879030  )
         6           O1  tau(   6) = (   1.9868534   1.4903216   9.2879459  )
         7           Ti1 tau(   7) = (   3.2913060   3.0378612   9.1552972  )
         8           Ti1 tau(   8) = (   0.0009381   1.5839581   9.3521326  )
         9           O1  tau(   9) = (   3.2925928   0.0151421  11.3436145  )
        10           O1  tau(  10) = (   0.0015930   0.0098544  10.5931849  )
        11           O1  tau(  11) = (   1.2954366   1.5088831  12.6205452  )
        12           O1  tau(  12) = (   5.2873992   1.5081763  12.6209847  )
        13           Ti1 tau(  13) = (   0.0062007   3.0223002  12.7522649  )
        14           Ti1 tau(  14) = (   3.2997597   1.5103467  12.4821987  )
        15           O1  tau(  15) = (   0.0040346   0.0184607  14.6317695  )
        16           O1  tau(  16) = (   3.2910281   0.0168284  13.9441510  )
        17           O1  tau(  17) = (   4.5375602   1.5179921  16.0890948  )
        18           O1  tau(  18) = (   2.0457139   1.5162684  16.0851288  )
        19           Ti1 tau(  19) = (   3.2874297   2.9968575  15.7108406  )
        20           Ti1 tau(  20) = (   6.5695515   1.3443907  16.0039228  )
        21           O1  tau(  21) = (   3.2904802   0.0005063   4.7018136  )
        22           O1  tau(  22) = (   0.0014600   0.0364584  17.1914435  )
        23           O1  tau(  23) = (   1.3043587   1.4918075   6.0039043  )
        24           O1  tau(  24) = (   5.2767064   1.4903225   6.0039473  )
        25           Ti1 tau(  25) = (   0.0000382   5.9609847   6.0000000  )
        26           Ti1 tau(  26) = (   3.2902200   4.4714249   6.0002472  )
        27           O1  tau(  27) = (   0.0002396   2.9813036   7.9858123  )
        28           O1  tau(  28) = (   3.2902150   2.9813002   7.3038282  )
        29           O1  tau(  29) = (   4.5938453   4.4726049   9.2879030  )
        30           O1  tau(  30) = (   1.9864658   4.4711199   9.2879459  )
        31           Ti1 tau(  31) = (   3.2910671   0.0593156   9.1538314  )
        32           Ti1 tau(  32) = (   0.0005551   4.5317022   9.3016378  )
        33           O1  tau(  33) = (   3.2922260   2.9941798  11.3385902  )
        34           O1  tau(  34) = (   0.0008704   2.9922752  10.5694424  )
        35           O1  tau(  35) = (   1.2972379   4.4863578  12.6167950  )
        36           O1  tau(  36) = (   5.2846861   4.4861696  12.6173214  )
        37           Ti1 tau(  37) = (   0.0087596   0.0398615  12.5729301  )
        38           Ti1 tau(  38) = (   3.2994502   4.4862820  12.4776038  )
        39           O1  tau(  39) = (   0.0007913   3.0275094  14.6627896  )
        40           O1  tau(  40) = (   3.2912693   2.9957722  13.9146565  )
        41           O1  tau(  41) = (   4.5447272   4.4665429  16.0834370  )
        42           O1  tau(  42) = (   2.0408322   4.4687941  16.0798044  )
        43           Ti1 tau(  43) = (   3.2813896   0.0196903  15.7368506  )
        44           Ti1 tau(  44) = (   6.5682818   4.5002177  15.9516634  )
        45           O1  tau(  45) = (   3.2900926   2.9813045   4.7018136  )
        46           O1  tau(  46) = (   1.3039711   4.4726057   6.0039043  )
        47           O1  tau(  47) = (   5.2763189   4.4711207   6.0039473  )
        48           N1  tau(  48) = (   0.0702777   2.9930733  18.6664031  )
        49           N1  tau(  49) = (   0.0330277   3.0528524  17.4426018  )
        50           H1  tau(  50) = (   0.0865168   1.9966355  18.9942200  )

     number of k points=    10  Fermi-Dirac smearing, width (Ry)=  0.0073
                       cart. coord. in units 2pi/alat
        k(    1) = (   0.0000000   0.0000000   0.0000000), wk =   0.1250000
        k(    2) = (   0.0000000   0.0419351   0.0000000), wk =   0.2500000
        k(    3) = (   0.0000000  -0.0838702   0.0000000), wk =   0.1250000
        k(    4) = (   0.0379955   0.0000049   0.0000000), wk =   0.2500000
        k(    5) = (   0.0379955   0.0419400   0.0000000), wk =   0.2500000
        k(    6) = (   0.0379955  -0.0838652   0.0000000), wk =   0.2500000
        k(    7) = (   0.0379955  -0.0419301   0.0000000), wk =   0.2500000
        k(    8) = (  -0.0759910  -0.0000099   0.0000000), wk =   0.1250000
        k(    9) = (  -0.0759910   0.0419252   0.0000000), wk =   0.2500000
        k(   10) = (  -0.0759910  -0.0838800   0.0000000), wk =   0.1250000

     Initial potential from superposition of free atoms

     starting charge  372.99922, renormalised to  389.00000

     negative rho (up, down):  2.004E-02 0.000E+00

     %%%%%%%%%%%%%%%%%%%%%%%%%%%%%%%%%%%%%%%%%%%%%%%%%%%%%%%%%%%%%%%%%%%%%%%%
     %                                                                      %
     % You are using vdW-DF, which was implemented by the Thonhauser group. %
     % Please cite the following two papers that made this development      %
     % possible and the two reviews that describe the various versions:     %
     %                                                                      %
     %   T. Thonhauser et al., PRL 115, 136402 (2015).                      %
     %   T. Thonhauser et al., PRB 76, 125112 (2007).                       %
     %   K. Berland et al., Rep. Prog. Phys. 78, 066501 (2015).             %
     %   D.C. Langreth et al., J. Phys.: Condens. Matter 21, 084203 (2009). %
     %                                                                      %
     %                                                                      %
     % If you are calculating the stress with vdW-DF, please also cite:     %
     %                                                                      %
     %   R. Sabatini et al., J. Phys.: Condens. Matter 24, 424209 (2012).   %
     %                                                                      %
     %%%%%%%%%%%%%%%%%%%%%%%%%%%%%%%%%%%%%%%%%%%%%%%%%%%%%%%%%%%%%%%%%%%%%%%%

     Adding external electric field

     Computed dipole along edir(3) :
        Dipole               -4.3819 Ry au,        -11.1376 Debye
        Dipole field         -0.0083 Ry au,

        Potential amp.        0.7665 Ry
        Total length         46.3494 bohr

     Starting wfcs are  293 atomic wfcs
  @ DRIVER MODE: Message from server: STATUS
  @ DRIVER MODE: Message from server: POSDATA
  @ DRIVER MODE: Reading and sharing cell
  @ DRIVER MODE: Reading and sharing positions
  @ DRIVER MODE: Received positions

     Self-consistent Calculation

     iteration #  1     ecut=    29.40 Ry     beta= 0.05
     Davidson diagonalization with overlap
     c_bands:  2 eigenvalues not converged
     c_bands:  3 eigenvalues not converged
     c_bands:  5 eigenvalues not converged
     c_bands:  1 eigenvalues not converged
     c_bands:  3 eigenvalues not converged
     c_bands:  4 eigenvalues not converged
     c_bands:  3 eigenvalues not converged
     c_bands:  1 eigenvalues not converged
     c_bands:  3 eigenvalues not converged
     c_bands:  2 eigenvalues not converged
     ethr =  1.00E-05,  avg # of iterations = 20.0

[...]

     total energy              =   -2891.78948209 Ry
     estimated scf accuracy    <     400.62085215 Ry

     iteration #  2     ecut=    29.40 Ry     beta= 0.05
     Davidson diagonalization with overlap
     ethr =  1.00E-02,  avg # of iterations = 13.6

[...]

     iteration # 49     ecut=    29.40 Ry     beta= 0.05
     Davidson diagonalization with overlap
     c_bands:  1 eigenvalues not converged
     c_bands:  1 eigenvalues not converged
     c_bands:  1 eigenvalues not converged
     ethr =  1.17E-07,  avg # of iterations = 17.9

[...]

     total energy              =   -2925.19964628 Ry
     estimated scf accuracy    <       0.00000010 Ry

     iteration # 73     ecut=    29.40 Ry     beta= 0.05
     Davidson diagonalization with overlap
     ethr =  2.60E-11,  avg # of iterations =  9.4

     negative rho (up, down):  1.931E-02 0.000E+00

     Adding external electric field

     Computed dipole along edir(3) :
        Dipole                0.3737 Ry au,          0.9499 Debye
        Dipole field          0.0007 Ry au,

        Potential amp.       -0.0654 Ry
        Total length         46.3494 bohr

     End of self-consistent calculation

          k = 0.0000 0.0000 0.0000 ( 18029 PWs)   bands (ev):

   -56.2551 -56.2197 -56.2196 -56.1832 -56.1335 -56.0900 -56.0463 -56.0245
   -55.9912 -55.9749 -55.9413 -55.9094 -55.7786 -55.6021 -55.2491 -55.2151
   -32.7853 -32.7170 -32.5667 -32.5590 -32.5402 -32.5386 -32.5157 -32.4664
   -32.4630 -32.4534 -32.4248 -32.4192 -32.4008 -32.3931 -32.3656 -32.3568
   -32.3503 -32.3398 -32.3246 -32.3000 -32.2946 -32.2781 -32.2586 -32.2326
   -32.2301 -32.2295 -32.2161 -32.2094 -32.2011 -32.1900 -32.1635 -32.1481
   -32.1186 -32.1157 -32.0892 -32.0863 -32.0721 -32.0392 -31.9400 -31.8464
   -31.8442 -31.8017 -31.6582 -31.5625 -31.5400 -31.4752 -31.3893 -31.2779
   -18.7070 -16.9596 -16.6625 -16.5073 -16.3677 -16.3385 -16.2287 -16.0118
   -15.9032 -15.8330 -15.8119 -15.7902 -15.7710 -15.7588 -15.7453 -15.7418
   -15.7163 -15.6788 -15.6424 -15.6376 -15.6309 -15.5896 -15.4944 -15.4450
   -15.4131 -15.3623 -15.3522 -15.2545 -15.2114 -15.0042 -13.7492 -13.6312
    -9.0901  -5.3024  -4.3218  -4.1518  -4.1231  -4.0491  -4.0214  -3.7738
    -3.7653  -3.4798  -3.4195  -3.3632  -3.3518  -3.3309  -3.2445  -3.2218
    -3.0900  -3.0621  -3.0393  -3.0054  -2.9973  -2.9799  -2.9680  -2.9531
    -2.9330  -2.8752  -2.7555  -2.6865  -2.6342  -2.6230  -2.5666  -2.5424
    -2.4958  -2.4709  -2.4668  -2.4497  -2.4392  -2.4148  -2.3669  -2.2490
    -2.1957  -2.1317  -2.0336  -2.0134  -1.9298  -1.7783  -1.7205  -1.6570
    -1.6383  -1.6209  -1.5566  -1.5463  -1.4417  -1.4089  -1.4031  -1.3302
    -1.2357  -1.2168  -1.1204  -1.0697  -0.9953  -0.9767  -0.9550  -0.9419
    -0.9171  -0.7242  -0.6905  -0.6668  -0.6287  -0.5947  -0.5232  -0.5044
    -0.4172  -0.4077  -0.3802  -0.3290  -0.3223  -0.2538  -0.2309  -0.2294
    -0.1679  -0.1423   0.0081   0.0284   0.0395   0.1384   0.1465   0.3240
     0.3412   0.4258   0.5374   0.6823   0.7755   0.8819   0.9477   1.3669
     1.4298   2.1973   2.9459   2.9665   2.9986   3.1049   3.1284   3.2212
     3.2663   3.3945   3.4092   3.4505

[...]

          k = 0.0380-0.0419 0.0000 ( 17876 PWs)   bands (ev):

[...]

          k =-0.0760-0.0000 0.0000 ( 17886 PWs)   bands (ev):

[...]

          k =-0.0760-0.0839 0.0000 ( 17948 PWs)   bands (ev):

   -56.2425 -56.2320 -56.2035 -56.1991 -56.1307 -56.0823 -56.0540 -56.0272
   -55.9869 -55.9601 -55.9563 -55.9131 -55.7769 -55.6037 -55.2323 -55.2317
   -32.5887 -32.5845 -32.5383 -32.5304 -32.5277 -32.5140 -32.5121 -32.4696
   -32.4254 -32.4229 -32.4169 -32.4032 -32.3740 -32.3733 -32.3659 -32.3404
   -32.3336 -32.3296 -32.3235 -32.3215 -32.2898 -32.2890 -32.2817 -32.2766
   -32.2630 -32.2604 -32.2351 -32.2299 -32.2150 -32.2133 -32.1919 -32.1912
   -32.1658 -32.1636 -32.1578 -32.1330 -32.1017 -32.0425 -31.9343 -31.9097
   -31.8470 -31.8370 -31.5530 -31.5524 -31.4716 -31.4711 -31.4325 -31.4320
   -18.7020 -16.4004 -16.3692 -16.1476 -16.1283 -16.1260 -16.0494 -15.9512
   -15.9484 -15.9450 -15.9408 -15.8809 -15.8525 -15.8387 -15.7984 -15.7430
   -15.7348 -15.7246 -15.7238 -15.6742 -15.6733 -15.6194 -15.5583 -15.5458
   -15.5435 -15.5420 -15.5281 -15.4479 -15.4151 -15.1590 -13.7333 -13.7317
    -9.0907  -5.2510  -3.6978  -3.6587  -3.3799  -3.3696  -3.3615  -3.3382
    -3.2479  -3.1565  -3.1326  -3.0988  -3.0704  -3.0631  -3.0611  -3.0238
    -3.0180  -2.9813  -2.9682  -2.9508  -2.9334  -2.8889  -2.8639  -2.8525
    -2.8409  -2.8315  -2.8235  -2.7921  -2.7790  -2.7659  -2.7456  -2.7422
    -2.5915  -2.5291  -2.4501  -2.4496  -2.3389  -2.3294  -2.3213  -2.3113
    -2.2842  -2.2766  -2.2438  -2.1075  -2.0424  -1.9410  -1.9284  -1.9211
    -1.8289  -1.7734  -1.6494  -1.6041  -1.5869  -1.5408  -1.4775  -1.4705
    -1.4398  -1.4336  -1.3246  -1.3011  -1.2745  -1.1984  -1.1900  -1.1846
    -1.0864  -1.0532  -1.0130  -0.9781  -0.9477  -0.9053  -0.8510  -0.8071
    -0.7817  -0.7461  -0.7382  -0.6560  -0.5834  -0.5281  -0.2636  -0.2080
    -0.1950  -0.1269  -0.0328   0.0316   0.0482   0.0975   0.1538   0.2131
     0.2635   0.3222   0.3248   0.3691   0.4156   1.1383   1.1393   1.2292
     1.2356   2.1450   3.0845   3.1923   3.2033   3.2520   3.3263   3.4181
     3.4286   3.4295   3.4322   3.6098

     the Fermi energy is     2.9030 ev

!    total energy              =   -2925.19965603 Ry
     estimated scf accuracy    <       0.00000007 Ry
     smearing contrib. (-TS)   =      -0.02326895 Ry
     internal energy E=F+TS    =   -2925.17638708 Ry

     The total energy is F=E-TS. E is the sum of the following terms:
     one-electron contribution =  -24764.16300666 Ry
     hartree contribution      =   12463.22057285 Ry
     xc contribution           =    -479.96413301 Ry
     ewald contribution        =    9855.72991617 Ry
     electric field correction =       0.00026358 Ry

     convergence has been achieved in  73 iterations

     Forces acting on atoms (cartesian axes, Ry/au):

     atom    1 type  1   force =     0.00007505   -0.00095515    0.11384055
     atom    2 type  1   force =    -0.00010192    0.00025311   -0.17942542
     atom    3 type  2   force =     0.00000350   -0.00523985   -0.03559089
     atom    4 type  2   force =     0.00003818    0.00060856    0.04440232
     atom    5 type  2   force =    -0.02019081   -0.00082018    0.00350005
     atom    6 type  2   force =     0.02028383   -0.00039315    0.00351117
     atom    7 type  1   force =    -0.00023083    0.00018839    0.00020331
     atom    8 type  1   force =     0.00022436    0.00173936   -0.00008691
     atom    9 type  2   force =    -0.00005150    0.00027221   -0.00036206
     atom   10 type  2   force =     0.00000009    0.00011464    0.00034436
     atom   11 type  2   force =    -0.00019392   -0.00002483    0.00029224
     atom   12 type  2   force =    -0.00008567   -0.00005149    0.00030334
     atom   13 type  1   force =     0.00032824    0.00056830    0.00075993
     atom   14 type  1   force =     0.00031229   -0.00004938    0.00117566
     atom   15 type  2   force =     0.00034765   -0.00028759   -0.00051127
     atom   16 type  2   force =     0.00002726   -0.00038748   -0.00100039
     atom   17 type  2   force =     0.00156241   -0.00006728   -0.00028359
     atom   18 type  2   force =    -0.00044695   -0.00046337   -0.00068406
     atom   19 type  1   force =    -0.00041565   -0.00000375    0.00052596
     atom   20 type  1   force =     0.00001911   -0.00009143    0.00037455
     atom   21 type  2   force =     0.00004142    0.00008270    0.10410507
     atom   22 type  2   force =    -0.00014584   -0.00018474    0.00060094
     atom   23 type  2   force =    -0.06903450    0.00033260   -0.03030779
     atom   24 type  2   force =     0.06890859    0.00077207   -0.03034807
     atom   25 type  1   force =     0.00016727    0.00086876    0.12102390
     atom   26 type  1   force =    -0.00010853    0.00041252   -0.17937920
     atom   27 type  2   force =     0.00002444    0.00096804   -0.03231910
     atom   28 type  2   force =     0.00004038    0.00070984    0.04485604
     atom   29 type  2   force =    -0.01921549    0.00046121    0.00324926
     atom   30 type  2   force =     0.01934846    0.00087713    0.00324646
     atom   31 type  1   force =    -0.00046954    0.00024394    0.00030584
     atom   32 type  1   force =     0.00023526    0.00062801   -0.00090117
     atom   33 type  2   force =    -0.00001012   -0.00008851   -0.00067129
     atom   34 type  2   force =    -0.00006425    0.00026303   -0.00018151
     atom   35 type  2   force =    -0.00034209    0.00015496   -0.00006167
     atom   36 type  2   force =     0.00003864    0.00016201   -0.00005403
     atom   37 type  1   force =     0.00047274    0.00016977   -0.00140454
     atom   38 type  1   force =     0.00033868    0.00038636    0.00126472
     atom   39 type  2   force =    -0.00002312   -0.00005456    0.00020973
     atom   40 type  2   force =     0.00001862    0.00003746   -0.00034246
     atom   41 type  2   force =     0.00122641   -0.00049303    0.00031496
     atom   42 type  2   force =     0.00001333   -0.00017731   -0.00020432
     atom   43 type  1   force =    -0.00076860   -0.00012319    0.00061957
     atom   44 type  1   force =    -0.00011537   -0.00022433    0.00096248
     atom   45 type  2   force =     0.00004570    0.00006084    0.10415359
     atom   46 type  2   force =    -0.06883187   -0.00101507   -0.03035846
     atom   47 type  2   force =     0.06871546   -0.00057700   -0.03039891
     atom   48 type  3   force =     0.00073082   -0.00153989    0.00112644
     atom   49 type  3   force =    -0.00216907    0.00029112   -0.00098081
     atom   50 type  4   force =    -0.00057257    0.00168563    0.00058548

     Total force =     0.379864     Total SCF correction =     0.000803
  @ DRIVER MODE: Message from server: STATUS
  @ DRIVER MODE: Message from server: GETFORCE
  @ DRIVER MODE: Returning v,forces,stress,ensemble

     Writing output data file ./calc.save/
  @ DRIVER MODE: Message from server: EXIT
  @ DRIVE MODE: Exiting

     General routines

     Parallel routines

   This run was terminated on:  11:34:50  12Oct2021

   JOB DONE.