     Program PWSCF v.6.7GPU starts on 14Sep2021 at 22: 6:37

     R & G space division:  proc/nbgrp/npool/nimage =      10
     Reading input from /storage/home/hcoda1/3/ntian30/research/carbon/CxH_vib/CH_calc/ads_slab/CHOHN2_a/out_0025/pw.inp
Warning: card &CELL ignored
Warning: card   CELL_DYNAMICS='IPI', ignored
Warning: card / ignored

     Current dimensions of program PWSCF are:
     Max number of different atomic species (ntypx) = 10
     Max number of k-points (npk) =  40000
     Max angular momentum in pseudopotentials (lmaxx) =  3
     Presently no symmetry can be used with electric field

     Message from routine cell_base_init:
     DEPRECATED: use true lattice parameter, not A to a.u. conversion factor

     IMPORTANT: XC functional enforced from input :
     Exchange-correlation= BEEF-VDW
                           (   1   4  43  14   2   0   0)
     Any further DFT definition will be discarded
     Please, verify this is what you really want

  @ DRIVER MODE: Connecting to
 qe_1139763_2840439.sched-torque.pace.gatech.edudlzgjf34_scratch
  using UNIX socket
  @ DRIVER MODE: Message from server: STATUS
  @ DRIVER MODE: Message from server: INIT
  @ DRIVER MODE: Receiving replica           0          -1
  @ DRIVER MODE: Receiving encoded integer          25
  @ DRIVER MODE:  SCF:  T  FORCE:  T  STRESS:  F  VC:  F  ENSEMBLE:  F
  @ DRIVER MODE:  SCF:  T  FORCE:  T  STRESS:  F  VC:  F  ENSEMBLE:  F

     Using Slab Decomposition

     bravais-lattice index     =            0
     lattice parameter (alat)  =       1.8897  a.u.
     unit-cell volume          =    6658.9804 (a.u.)^3
     number of atoms/cell      =           53
     number of atomic types    =            5
     number of electrons       =       400.00
     number of Kohn-Sham states=          210
     kinetic-energy cutoff     =      29.3995  Ry
     charge density cutoff     =     293.9946  Ry
     scf convergence threshold =      7.3E-08
     mixing beta               =       0.0500
     number of iterations used =            8  plain     mixing
     Exchange-correlation= BEEF-VDW
                           (   1   4  43  14   2   0   0)

     celldm(1)=   1.889726  celldm(2)=   0.000000  celldm(3)=   0.000000
     celldm(4)=   0.000000  celldm(5)=   0.000000  celldm(6)=   0.000000

     crystal axes: (cart. coord. in units of alat)
               a(1) = (   6.579727   0.000000   0.000000 )
               a(2) = (  -0.000775   5.961596   0.000000 )
               a(3) = (   0.000000   0.000000  25.155947 )

     reciprocal axes: (cart. coord. in units 2 pi/alat)
               b(1) = (  0.151982  0.000020  0.000000 )
               b(2) = (  0.000000  0.167740  0.000000 )
               b(3) = (  0.000000  0.000000  0.039752 )

     PseudoPot. # 1 for C  read from file:
     /storage/coda1/p-amedford6/0/shared/rich_project_chbe-medford/medford-share/data/pseudos_module/espresso/nninc/pbe/van/C.UPF
     MD5 check sum: 1a69bf6b8db32088f5b2163dbdb77a27
     Pseudo is Ultrasoft, Zval =  4.0
     Generated by new atomic code, or converted to UPF format
     Using radial grid of  721 points,  4 beta functions with:
                l(1) =   0
                l(2) =   0
                l(3) =   1
                l(4) =   1
     Q(r) pseudized with  8 coefficients,  rinner =    0.800   0.800   0.800

     PseudoPot. # 2 for H  read from file:
     /storage/coda1/p-amedford6/0/shared/rich_project_chbe-medford/medford-share/data/pseudos_module/espresso/nninc/pbe/van/H.UPF
     MD5 check sum: b5ee9d7bfd3a09ee7748110bda690ff7
     Pseudo is Ultrasoft, Zval =  1.0
     Generated by new atomic code, or converted to UPF format
     Using radial grid of  615 points,  1 beta functions with:
                l(1) =   0
     Q(r) pseudized with  8 coefficients,  rinner =    0.800

     PseudoPot. # 3 for O  read from file:
     /storage/coda1/p-amedford6/0/shared/rich_project_chbe-medford/medford-share/data/pseudos_module/espresso/nninc/pbe/van/O.UPF
     MD5 check sum: 78c19812648e8988a0fe644b0f25305e
     Pseudo is Ultrasoft, Zval =  6.0
     Generated by new atomic code, or converted to UPF format
     Using radial grid of  737 points,  4 beta functions with:
                l(1) =   0
                l(2) =   0
                l(3) =   1
                l(4) =   1
     Q(r) pseudized with  8 coefficients,  rinner =    0.800   0.800   0.800

     PseudoPot. # 4 for Ti read from file:
     /storage/coda1/p-amedford6/0/shared/rich_project_chbe-medford/medford-share/data/pseudos_module/espresso/nninc/pbe/van/Ti.UPF
     MD5 check sum: 8e4df49b7f0d34bbd5052bf3f5ea0213
     Pseudo is Ultrasoft, Zval = 12.0
     Generated by new atomic code, or converted to UPF format
     Using radial grid of  851 points,  6 beta functions with:
                l(1) =   0
                l(2) =   0
                l(3) =   1
                l(4) =   1
                l(5) =   2
                l(6) =   2
     Q(r) pseudized with  8 coefficients,  rinner =    1.000   1.000   1.000
                                                       1.000   1.000

     PseudoPot. # 5 for N  read from file:
     /storage/coda1/p-amedford6/0/shared/rich_project_chbe-medford/medford-share/data/pseudos_module/espresso/nninc/pbe/van/N.UPF
     MD5 check sum: 90d10febe142ad51ac9d5be1deb811c4
     Pseudo is Ultrasoft, Zval =  5.0
     Generated by new atomic code, or converted to UPF format
     Using radial grid of  729 points,  4 beta functions with:
                l(1) =   0
                l(2) =   0
                l(3) =   1
                l(4) =   1
     Q(r) pseudized with  8 coefficients,  rinner =    0.800   0.800   0.800

     atomic species   valence    mass     pseudopotential
        C1             4.00    12.01100     C ( 1.00)
        H1             1.00     1.00800     H ( 1.00)
        O1             6.00    15.99900     O ( 1.00)
        Ti1           12.00    47.86700     Ti( 1.00)
        N1             5.00    14.00700     N ( 1.00)

     No symmetry found

   Cartesian axes

     site n.     atom                  positions (alat units)
         1           C1  tau(   1) = (   5.6818245   3.0934261  18.8613826  )
         2           H1  tau(   2) = (   0.9295697   3.0331078  18.1055300  )
         3           H1  tau(   3) = (   5.3049293   4.0639705  19.1352297  )
         4           O1  tau(   4) = (   3.2904802   0.0005063   4.7018136  )
         5           O1  tau(   5) = (   3.2900926   2.9813045   4.7018136  )
         6           O1  tau(   6) = (   1.3043587   1.4918075   6.0039043  )
         7           O1  tau(   7) = (   1.3039711   4.4726057   6.0039043  )
         8           O1  tau(   8) = (   5.2767064   1.4903225   6.0039473  )
         9           O1  tau(   9) = (   5.2763189   4.4711207   6.0039473  )
        10           O1  tau(  10) = (   3.2906025   0.0005020   7.3038282  )
        11           O1  tau(  11) = (   3.2902150   2.9813002   7.3038282  )
        12           O1  tau(  12) = (   0.0006271   0.0005054   7.9858123  )
        13           O1  tau(  13) = (   0.0002396   2.9813036   7.9858123  )
        14           O1  tau(  14) = (   4.5942328   1.4918067   9.2879030  )
        15           O1  tau(  15) = (   4.5938453   4.4726049   9.2879030  )
        16           O1  tau(  16) = (   1.9868534   1.4903216   9.2879459  )
        17           O1  tau(  17) = (   1.9864658   4.4711199   9.2879459  )
        18           O1  tau(  18) = (   6.5737290   0.0025997  10.6073112  )
        19           O1  tau(  19) = (   6.5745157   2.9846488  10.6292520  )
        20           O1  tau(  20) = (   3.2733922   2.9888808  11.3669225  )
        21           O1  tau(  21) = (   3.2734535   0.0083669  11.3733985  )
        22           O1  tau(  22) = (   1.2686495   4.4776606  12.6533150  )
        23           O1  tau(  23) = (   1.2691242   1.4995788  12.6525255  )
        24           O1  tau(  24) = (   5.2697113   4.4789153  12.6558726  )
        25           O1  tau(  25) = (   5.2698035   1.4991558  12.6558074  )
        26           O1  tau(  26) = (   3.2614338   2.9920807  13.9552461  )
        27           O1  tau(  27) = (   3.2541646   0.0113981  14.0020514  )
        28           O1  tau(  28) = (   6.5688946   0.0096870  14.6775192  )
        29           O1  tau(  29) = (   6.5667413   2.9928499  14.8718366  )
        30           O1  tau(  30) = (   4.5340645   4.4751187  16.1466513  )
        31           O1  tau(  31) = (   4.5349815   1.5188077  16.1513287  )
        32           O1  tau(  32) = (   2.0116004   1.5352794  16.1924295  )
        33           O1  tau(  33) = (   2.0125852   4.4566501  16.1924965  )
        34           O1  tau(  34) = (   6.5583959   0.0051910  17.1951124  )
        35           O1  tau(  35) = (   0.0128280   2.9917589  17.7791131  )
        36           Ti1 tau(  36) = (   0.0004258   2.9801865   6.0000000  )
        37           Ti1 tau(  37) = (   0.0000382   5.9609847   6.0000000  )
        38           Ti1 tau(  38) = (   3.2906075   1.4906267   6.0002472  )
        39           Ti1 tau(  39) = (   3.2902200   4.4714249   6.0002472  )
        40           Ti1 tau(  40) = (   3.3204229   0.0006979   9.1540291  )
        41           Ti1 tau(  41) = (   3.3226256   2.9815539   9.1563990  )
        42           Ti1 tau(  42) = (   0.0414996   4.4578595   9.2720048  )
        43           Ti1 tau(  43) = (   0.0419130   1.4910583   9.2667342  )
        44           Ti1 tau(  44) = (   6.5463313   0.0151476  12.4833176  )
        45           Ti1 tau(  45) = (   3.2510826   4.4792010  12.5152252  )
        46           Ti1 tau(  46) = (   3.2519543   1.5009035  12.5151888  )
        47           Ti1 tau(  47) = (   6.5510796   2.9946678  12.5453677  )
        48           Ti1 tau(  48) = (   3.2768179   2.9983465  15.7429562  )
        49           Ti1 tau(  49) = (   3.2517467   0.0179395  15.7976682  )
        50           Ti1 tau(  50) = (   6.5407926   4.5826425  15.9111250  )
        51           Ti1 tau(  51) = (   6.5448107   1.3670631  15.9596882  )
        52           N1  tau(  52) = (   4.6862475   1.0170953  19.6889386  )
        53           N1  tau(  53) = (   5.1479752   2.0001232  19.2934520  )

     number of k points=    10  Fermi-Dirac smearing, width (Ry)=  0.0073
                       cart. coord. in units 2pi/alat
        k(    1) = (   0.0000000   0.0000000   0.0000000), wk =   0.1250000
        k(    2) = (   0.0000000   0.0419351   0.0000000), wk =   0.2500000
        k(    3) = (   0.0000000  -0.0838702   0.0000000), wk =   0.1250000
        k(    4) = (   0.0379955   0.0000049   0.0000000), wk =   0.2500000
        k(    5) = (   0.0379955   0.0419400   0.0000000), wk =   0.2500000
        k(    6) = (   0.0379955  -0.0838652   0.0000000), wk =   0.2500000
        k(    7) = (   0.0379955  -0.0419301   0.0000000), wk =   0.2500000
        k(    8) = (  -0.0759910  -0.0000099   0.0000000), wk =   0.1250000
        k(    9) = (  -0.0759910   0.0419252   0.0000000), wk =   0.2500000
        k(   10) = (  -0.0759910  -0.0838800   0.0000000), wk =   0.1250000

     Initial potential from superposition of free atoms

     starting charge  383.99917, renormalised to  400.00000

     negative rho (up, down):  1.646E-02 0.000E+00

     %%%%%%%%%%%%%%%%%%%%%%%%%%%%%%%%%%%%%%%%%%%%%%%%%%%%%%%%%%%%%%%%%%%%%%%%
     %                                                                      %
     % You are using vdW-DF, which was implemented by the Thonhauser group. %
     % Please cite the following two papers that made this development      %
     % possible and the two reviews that describe the various versions:     %
     %                                                                      %
     %   T. Thonhauser et al., PRL 115, 136402 (2015).                      %
     %   T. Thonhauser et al., PRB 76, 125112 (2007).                       %
     %   K. Berland et al., Rep. Prog. Phys. 78, 066501 (2015).             %
     %   D.C. Langreth et al., J. Phys.: Condens. Matter 21, 084203 (2009). %
     %                                                                      %
     %                                                                      %
     % If you are calculating the stress with vdW-DF, please also cite:     %
     %                                                                      %
     %   R. Sabatini et al., J. Phys.: Condens. Matter 24, 424209 (2012).   %
     %                                                                      %
     %%%%%%%%%%%%%%%%%%%%%%%%%%%%%%%%%%%%%%%%%%%%%%%%%%%%%%%%%%%%%%%%%%%%%%%%

     Adding external electric field

     Computed dipole along edir(3) :
        Dipole              -12.5100 Ry au,        -31.7972 Debye
        Dipole field         -0.0236 Ry au,

        Potential amp.        2.1884 Ry
        Total length         46.3494 bohr

     Starting wfcs are  302 atomic wfcs
  @ DRIVER MODE: Message from server: STATUS
  @ DRIVER MODE: Message from server: POSDATA
  @ DRIVER MODE: Reading and sharing cell
  @ DRIVER MODE: Reading and sharing positions
  @ DRIVER MODE: Received positions

     Self-consistent Calculation

     iteration #  1     ecut=    29.40 Ry     beta= 0.05
     Davidson diagonalization with overlap
     c_bands:  3 eigenvalues not converged
     c_bands:  1 eigenvalues not converged
     c_bands:  4 eigenvalues not converged
     c_bands:  3 eigenvalues not converged
     c_bands:  5 eigenvalues not converged
     c_bands:  5 eigenvalues not converged
     c_bands:  1 eigenvalues not converged
     c_bands:  2 eigenvalues not converged
     c_bands:  1 eigenvalues not converged
     ethr =  1.00E-05,  avg # of iterations = 20.9

[...]

     total energy              =   -2397.13427664 Ry
     estimated scf accuracy    <    6493.66289775 Ry

     iteration #  2     ecut=    29.40 Ry     beta= 0.05
     Davidson diagonalization with overlap
     ethr =  1.00E-02,  avg # of iterations = 22.7

[...]

     iteration #107     ecut=    29.40 Ry     beta= 0.05
     Davidson diagonalization with overlap
     c_bands:  1 eigenvalues not converged
     ethr =  2.91E-11,  avg # of iterations = 14.2

[...]

     total energy              =   -2970.16558226 Ry
     estimated scf accuracy    <       0.00000008 Ry

     iteration #108     ecut=    29.40 Ry     beta= 0.05
     Davidson diagonalization with overlap
     ethr =  2.07E-11,  avg # of iterations =  5.9

     negative rho (up, down):  1.633E-02 0.000E+00

     Adding external electric field

     Computed dipole along edir(3) :
        Dipole                0.8134 Ry au,          2.0675 Debye
        Dipole field          0.0015 Ry au,

        Potential amp.       -0.1423 Ry
        Total length         46.3494 bohr

     End of self-consistent calculation

          k = 0.0000 0.0000 0.0000 ( 18029 PWs)   bands (ev):

   -55.5713 -55.5412 -55.5353 -55.5068 -55.4676 -55.4611 -55.4474 -55.4148
   -55.4094 -55.3941 -55.3752 -55.3674 -55.3544 -55.3206 -54.6339 -54.5999
   -32.1414 -32.0716 -32.0366 -31.9450 -31.8908 -31.8848 -31.8814 -31.8640
   -31.8295 -31.8198 -31.7838 -31.7825 -31.7757 -31.7549 -31.7472 -31.7249
   -31.7217 -31.7064 -31.6977 -31.6951 -31.6923 -31.6865 -31.6660 -31.6575
   -31.6564 -31.6380 -31.6368 -31.6081 -31.6006 -31.5983 -31.5827 -31.5604
   -31.5600 -31.5583 -31.5498 -31.5389 -31.5353 -31.5083 -31.4986 -31.4896
   -31.4767 -31.4651 -31.0462 -30.9432 -30.9216 -30.8625 -30.7762 -30.6650
   -21.0482 -20.2639 -16.3960 -16.1398 -15.9923 -15.8936 -15.7889 -15.6526
   -15.6165 -15.5100 -15.3802 -15.2973 -15.2407 -15.2321 -15.2183 -15.2057
   -15.1898 -15.1868 -15.1285 -15.0987 -15.0738 -15.0597 -15.0515 -15.0164
   -14.9610 -14.9541 -14.9376 -14.8003 -14.7326 -14.6729 -14.3668 -14.2325
   -13.1346 -13.0151  -8.5267  -6.7909  -5.6474  -4.4908  -4.0087  -3.7339
    -3.7069  -3.5789  -3.5044  -3.4858  -3.4279  -3.3157  -3.1636  -3.0018
    -2.9168  -2.8546  -2.8266  -2.7764  -2.7371  -2.7040  -2.5314  -2.5188
    -2.4870  -2.4630  -2.4448  -2.4394  -2.4070  -2.3400  -2.3187  -2.3118
    -2.2863  -2.1540  -2.1357  -2.0402  -1.9969  -1.9684  -1.9096  -1.8953
    -1.8903  -1.8597  -1.8394  -1.8256  -1.8212  -1.7814  -1.5982  -1.5961
    -1.4769  -1.4340  -1.3522  -1.2994  -1.1311  -1.1286  -1.0725  -1.0563
    -1.0167  -0.9767  -0.9704  -0.9295  -0.8144  -0.7278  -0.6805  -0.6099
    -0.5718  -0.5068  -0.4705  -0.3686  -0.3596  -0.3445  -0.3287  -0.2076
    -0.1419  -0.1007  -0.0701  -0.0251  -0.0123   0.0876   0.1062   0.1871
     0.1934   0.2519   0.2532   0.3566   0.3751   0.3758   0.4014   0.4218
     0.5083   0.5813   0.5845   0.5998   0.7694   0.9609   0.9866   1.0301
     1.2793   1.3818   1.3920   1.5412   1.5510   1.9790   2.0344   3.5244
     3.5926   3.6318   3.6492   3.6648   3.7314   3.9851   4.0139   4.0324
     4.0480   4.0560

[...]

          k = 0.0380-0.0419 0.0000 ( 17876 PWs)   bands (ev):

[...]

          k =-0.0760-0.0000 0.0000 ( 17886 PWs)   bands (ev):

[...]

          k =-0.0760-0.0839 0.0000 ( 17948 PWs)   bands (ev):

   -55.5537 -55.5527 -55.5259 -55.5218 -55.4642 -55.4535 -55.4409 -55.4223
   -55.4010 -55.3932 -55.3910 -55.3703 -55.3384 -55.3366 -54.6168 -54.6168
   -31.9925 -31.9451 -31.9437 -31.8639 -31.8535 -31.8496 -31.8308 -31.8188
   -31.8110 -31.7905 -31.7740 -31.7719 -31.7671 -31.7274 -31.7237 -31.7138
   -31.7099 -31.7088 -31.6993 -31.6941 -31.6931 -31.6924 -31.6796 -31.6573
   -31.6546 -31.6536 -31.6513 -31.6484 -31.6447 -31.6423 -31.6400 -31.6143
   -31.6120 -31.6015 -31.5916 -31.5911 -31.5787 -31.5636 -31.5621 -31.5512
   -31.5246 -31.5218 -30.9342 -30.9342 -30.8589 -30.8587 -30.8194 -30.8193
   -21.0459 -20.2636 -15.9487 -15.8118 -15.7519 -15.5753 -15.5673 -15.5592
   -15.5349 -15.3949 -15.3816 -15.3687 -15.3316 -15.3215 -15.3037 -15.2929
   -15.2792 -15.1641 -15.1621 -15.1533 -15.1506 -15.0889 -15.0857 -15.0709
   -15.0544 -15.0145 -15.0140 -15.0009 -14.9970 -14.8305 -14.7297 -14.2399
   -13.1164 -13.1157  -8.5167  -6.7942  -5.6551  -4.4708  -3.9849  -3.6078
    -3.0895  -3.0453  -3.0139  -2.7892  -2.7735  -2.7348  -2.7002  -2.6423
    -2.5678  -2.5568  -2.5537  -2.4844  -2.4781  -2.4667  -2.4620  -2.4491
    -2.3962  -2.3960  -2.3578  -2.3506  -2.3069  -2.2794  -2.2682  -2.2420
    -2.2334  -2.2332  -2.2116  -2.1951  -2.1806  -2.1745  -2.0644  -2.0126
    -1.9295  -1.9017  -1.8114  -1.7975  -1.7827  -1.7053  -1.6697  -1.6470
    -1.5846  -1.5804  -1.5097  -1.3871  -1.3690  -1.3617  -1.2891  -1.2297
    -1.2014  -1.1584  -1.1077  -1.0511  -1.0371  -0.9508  -0.8992  -0.8800
    -0.7739  -0.7622  -0.7096  -0.6010  -0.5675  -0.5657  -0.5607  -0.5479
    -0.4725  -0.4548  -0.4058  -0.3653  -0.3163  -0.2915  -0.2709  -0.0704
    -0.0574   0.0133   0.1145   0.1547   0.3260   0.3464   0.3786   0.4514
     0.4966   0.5073   0.5909   0.7004   0.7066   0.7436   0.8159   0.8547
     0.8631   0.9017   1.4940   1.7438   1.7444   1.8481   1.8511   3.6763
     3.7632   3.7783   3.8064   3.8565   3.9484   4.0330   4.0504   4.0772
     4.0857   4.1646

     the Fermi energy is     3.5803 ev

!    total energy              =   -2970.16558268 Ry
     estimated scf accuracy    <       0.00000004 Ry
     smearing contrib. (-TS)   =      -0.03781511 Ry
     internal energy E=F+TS    =   -2970.12776757 Ry

     The total energy is F=E-TS. E is the sum of the following terms:
     one-electron contribution =  -23546.23485716 Ry
     hartree contribution      =   11864.81579620 Ry
     xc contribution           =    -491.69676692 Ry
     ewald contribution        =    9202.98681170 Ry
     electric field correction =       0.00124860 Ry

     convergence has been achieved in 108 iterations

     Forces acting on atoms (cartesian axes, Ry/au):

     atom    1 type  1   force =     0.00019644   -0.00146897    0.00114246
     atom    2 type  2   force =     0.00070050   -0.00013303    0.00025865
     atom    3 type  2   force =     0.00021926   -0.00015913   -0.00011445
     atom    4 type  3   force =     0.00006223   -0.00000486    0.10503541
     atom    5 type  3   force =     0.00004858    0.00001885    0.10504035
     atom    6 type  3   force =    -0.06775982   -0.00001928   -0.02683569
     atom    7 type  3   force =    -0.06779778   -0.00059488   -0.02687105
     atom    8 type  3   force =     0.06764275    0.00043259   -0.02689178
     atom    9 type  3   force =     0.06767480   -0.00016067   -0.02692596
     atom   10 type  3   force =     0.00072286    0.00002015    0.05052639
     atom   11 type  3   force =     0.00077624    0.00000774    0.05060216
     atom   12 type  3   force =     0.00061080   -0.00003114   -0.02311098
     atom   13 type  3   force =     0.00057570   -0.00017566   -0.02182633
     atom   14 type  3   force =    -0.01557912   -0.00018081    0.00500223
     atom   15 type  3   force =    -0.01564997    0.00008152    0.00497646
     atom   16 type  3   force =     0.01435893    0.00025576    0.00478220
     atom   17 type  3   force =     0.01443855    0.00059050    0.00478869
     atom   18 type  3   force =    -0.00006933    0.00000859   -0.00007435
     atom   19 type  3   force =    -0.00013622   -0.00001090   -0.00022062
     atom   20 type  3   force =    -0.00011949    0.00007442   -0.00009557
     atom   21 type  3   force =     0.00004775   -0.00011966    0.00009579
     atom   22 type  3   force =     0.00026656    0.00025688    0.00002270
     atom   23 type  3   force =     0.00001944    0.00004940    0.00006734
     atom   24 type  3   force =    -0.00017688    0.00012393    0.00020052
     atom   25 type  3   force =     0.00006650   -0.00011855    0.00009325
     atom   26 type  3   force =     0.00023389   -0.00013948   -0.00000913
     atom   27 type  3   force =    -0.00009125    0.00017612   -0.00015483
     atom   28 type  3   force =    -0.00008150    0.00023616   -0.00009396
     atom   29 type  3   force =     0.00031729   -0.00001665    0.00013110
     atom   30 type  3   force =     0.00013788   -0.00012712   -0.00032841
     atom   31 type  3   force =     0.00010873   -0.00004442   -0.00008525
     atom   32 type  3   force =     0.00009072   -0.00023212   -0.00003121
     atom   33 type  3   force =     0.00006880   -0.00007915   -0.00024739
     atom   34 type  3   force =     0.00001927   -0.00004662   -0.00018378
     atom   35 type  3   force =    -0.00060308    0.00018278   -0.00100708
     atom   36 type  4   force =    -0.00021681    0.00011758    0.09294750
     atom   37 type  4   force =    -0.00014830   -0.00012718    0.09679813
     atom   38 type  4   force =    -0.00009859    0.00037268   -0.18355289
     atom   39 type  4   force =    -0.00005058   -0.00058738   -0.18368592
     atom   40 type  4   force =     0.00001544    0.00004044    0.00016286
     atom   41 type  4   force =     0.00019298   -0.00002128    0.00007091
     atom   42 type  4   force =    -0.00037533    0.00017119   -0.00013086
     atom   43 type  4   force =    -0.00023156    0.00026279    0.00013993
     atom   44 type  4   force =     0.00018184    0.00015626    0.00035793
     atom   45 type  4   force =    -0.00006995    0.00000736    0.00025697
     atom   46 type  4   force =    -0.00009874    0.00008862    0.00023497
     atom   47 type  4   force =    -0.00009188   -0.00013549   -0.00011320
     atom   48 type  4   force =    -0.00006509   -0.00029453   -0.00007971
     atom   49 type  4   force =    -0.00012173    0.00006137    0.00025068
     atom   50 type  4   force =    -0.00006671   -0.00020809   -0.00007556
     atom   51 type  4   force =     0.00013820   -0.00047679   -0.00011597
     atom   52 type  5   force =     0.00567858    0.01202257   -0.00570693
     atom   53 type  5   force =    -0.00591177   -0.01010245    0.00458330

     Total force =     0.369109     Total SCF correction =     0.000355
  @ DRIVER MODE: Message from server: STATUS
  @ DRIVER MODE: Message from server: GETFORCE
  @ DRIVER MODE: Returning v,forces,stress,ensemble

     Writing output data file ./calc.save/
  @ DRIVER MODE: Message from server: EXIT
  @ DRIVE MODE: Exiting

     General routines

     Parallel routines

   This run was terminated on:  22:32:57  14Sep2021

   JOB DONE.