     Program PWSCF v.6.7GPU starts on  9Sep2021 at  8:56: 3

     R & G space division:  proc/nbgrp/npool/nimage =      10
     Reading input from /storage/home/hcoda1/3/ntian30/research/carbon/CxH_vib/CH2_calc/ads_slab/CH2NNHHH_a/out_0033/pw.inp
Warning: card &CELL ignored
Warning: card   CELL_DYNAMICS='IPI', ignored
Warning: card / ignored

     Current dimensions of program PWSCF are:
     Max number of different atomic species (ntypx) = 10
     Max number of k-points (npk) =  40000
     Max angular momentum in pseudopotentials (lmaxx) =  3
     Presently no symmetry can be used with electric field

     Message from routine cell_base_init:
     DEPRECATED: use true lattice parameter, not A to a.u. conversion factor

     IMPORTANT: XC functional enforced from input :
     Exchange-correlation= BEEF-VDW
                           (   1   4  43  14   2   0   0)
     Any further DFT definition will be discarded
     Please, verify this is what you really want

  @ DRIVER MODE: Connecting to
 qe_1139763_2767390.sched-torque.pace.gatech.eduoy2ssfp4_scratch
  using UNIX socket
  @ DRIVER MODE: Message from server: STATUS
  @ DRIVER MODE: Message from server: INIT
  @ DRIVER MODE: Receiving replica           0          -1
  @ DRIVER MODE: Receiving encoded integer          25
  @ DRIVER MODE:  SCF:  T  FORCE:  T  STRESS:  F  VC:  F  ENSEMBLE:  F
  @ DRIVER MODE:  SCF:  T  FORCE:  T  STRESS:  F  VC:  F  ENSEMBLE:  F

     Using Slab Decomposition

     bravais-lattice index     =            0
     lattice parameter (alat)  =       1.8897  a.u.
     unit-cell volume          =    6658.9804 (a.u.)^3
     number of atoms/cell      =           55
     number of atomic types    =            5
     number of electrons       =       397.00
     number of Kohn-Sham states=          208
     kinetic-energy cutoff     =      29.3995  Ry
     charge density cutoff     =     293.9946  Ry
     scf convergence threshold =      7.3E-08
     mixing beta               =       0.0500
     number of iterations used =            8  plain     mixing
     Exchange-correlation= BEEF-VDW
                           (   1   4  43  14   2   0   0)

     celldm(1)=   1.889726  celldm(2)=   0.000000  celldm(3)=   0.000000
     celldm(4)=   0.000000  celldm(5)=   0.000000  celldm(6)=   0.000000

     crystal axes: (cart. coord. in units of alat)
               a(1) = (   6.579727   0.000000   0.000000 )
               a(2) = (  -0.000775   5.961596   0.000000 )
               a(3) = (   0.000000   0.000000  25.155947 )

     reciprocal axes: (cart. coord. in units 2 pi/alat)
               b(1) = (  0.151982  0.000020  0.000000 )
               b(2) = (  0.000000  0.167740  0.000000 )
               b(3) = (  0.000000  0.000000  0.039752 )

     PseudoPot. # 1 for Ti read from file:
     /storage/coda1/p-amedford6/0/shared/rich_project_chbe-medford/medford-share/data/pseudos_module/espresso/nninc/pbe/van/Ti.UPF
     MD5 check sum: 8e4df49b7f0d34bbd5052bf3f5ea0213
     Pseudo is Ultrasoft, Zval = 12.0
     Generated by new atomic code, or converted to UPF format
     Using radial grid of  851 points,  6 beta functions with:
                l(1) =   0
                l(2) =   0
                l(3) =   1
                l(4) =   1
                l(5) =   2
                l(6) =   2
     Q(r) pseudized with  8 coefficients,  rinner =    1.000   1.000   1.000
                                                       1.000   1.000

     PseudoPot. # 2 for O  read from file:
     /storage/coda1/p-amedford6/0/shared/rich_project_chbe-medford/medford-share/data/pseudos_module/espresso/nninc/pbe/van/O.UPF
     MD5 check sum: 78c19812648e8988a0fe644b0f25305e
     Pseudo is Ultrasoft, Zval =  6.0
     Generated by new atomic code, or converted to UPF format
     Using radial grid of  737 points,  4 beta functions with:
                l(1) =   0
                l(2) =   0
                l(3) =   1
                l(4) =   1
     Q(r) pseudized with  8 coefficients,  rinner =    0.800   0.800   0.800

     PseudoPot. # 3 for N  read from file:
     /storage/coda1/p-amedford6/0/shared/rich_project_chbe-medford/medford-share/data/pseudos_module/espresso/nninc/pbe/van/N.UPF
     MD5 check sum: 90d10febe142ad51ac9d5be1deb811c4
     Pseudo is Ultrasoft, Zval =  5.0
     Generated by new atomic code, or converted to UPF format
     Using radial grid of  729 points,  4 beta functions with:
                l(1) =   0
                l(2) =   0
                l(3) =   1
                l(4) =   1
     Q(r) pseudized with  8 coefficients,  rinner =    0.800   0.800   0.800

     PseudoPot. # 4 for C  read from file:
     /storage/coda1/p-amedford6/0/shared/rich_project_chbe-medford/medford-share/data/pseudos_module/espresso/nninc/pbe/van/C.UPF
     MD5 check sum: 1a69bf6b8db32088f5b2163dbdb77a27
     Pseudo is Ultrasoft, Zval =  4.0
     Generated by new atomic code, or converted to UPF format
     Using radial grid of  721 points,  4 beta functions with:
                l(1) =   0
                l(2) =   0
                l(3) =   1
                l(4) =   1
     Q(r) pseudized with  8 coefficients,  rinner =    0.800   0.800   0.800

     PseudoPot. # 5 for H  read from file:
     /storage/coda1/p-amedford6/0/shared/rich_project_chbe-medford/medford-share/data/pseudos_module/espresso/nninc/pbe/van/H.UPF
     MD5 check sum: b5ee9d7bfd3a09ee7748110bda690ff7
     Pseudo is Ultrasoft, Zval =  1.0
     Generated by new atomic code, or converted to UPF format
     Using radial grid of  615 points,  1 beta functions with:
                l(1) =   0
     Q(r) pseudized with  8 coefficients,  rinner =    0.800

     atomic species   valence    mass     pseudopotential
        Ti1           12.00    47.86700     Ti( 1.00)
        O1             6.00    15.99900     O ( 1.00)
        N1             5.00    14.00700     N ( 1.00)
        C1             4.00    12.01100     C ( 1.00)
        H1             1.00     1.00800     H ( 1.00)

     No symmetry found

   Cartesian axes

     site n.     atom                  positions (alat units)
         1           Ti1 tau(   1) = (   0.0004258   2.9801865   6.0000000  )
         2           Ti1 tau(   2) = (   3.2906075   1.4906267   6.0002472  )
         3           O1  tau(   3) = (   0.0006271   0.0005054   7.9858123  )
         4           O1  tau(   4) = (   3.2906025   0.0005020   7.3038282  )
         5           O1  tau(   5) = (   4.5942328   1.4918067   9.2879030  )
         6           O1  tau(   6) = (   1.9868534   1.4903216   9.2879459  )
         7           Ti1 tau(   7) = (   3.2907910   2.8959150   9.1758416  )
         8           Ti1 tau(   8) = (   0.0015273   1.4827037   9.2680791  )
         9           O1  tau(   9) = (   3.2797308   5.9473376  11.3602069  )
        10           O1  tau(  10) = (   0.0116148   5.9584955  10.6183126  )
        11           O1  tau(  11) = (   1.2902197   1.4970218  12.6485984  )
        12           O1  tau(  12) = (   5.2825647   1.4998509  12.6204812  )
        13           Ti1 tau(  13) = (   6.5707130   2.9731531  12.5352273  )
        14           Ti1 tau(  14) = (   3.2824754   1.4851695  12.4964603  )
        15           O1  tau(  15) = (   6.5335774   0.0914421  14.6722524  )
        16           O1  tau(  16) = (   3.3157438   0.0180770  13.9903400  )
        17           O1  tau(  17) = (   4.5084513   1.5196572  16.2619966  )
        18           O1  tau(  18) = (   2.0062152   1.4815140  16.1839734  )
        19           Ti1 tau(  19) = (   3.2259906   2.9465836  15.7211513  )
        20           Ti1 tau(  20) = (   6.5090593   1.4075841  16.1508600  )
        21           O1  tau(  21) = (   3.2904802   0.0005063   4.7018136  )
        22           O1  tau(  22) = (   6.5630310   5.8123487  17.2302531  )
        23           O1  tau(  23) = (   1.3043587   1.4918075   6.0039043  )
        24           O1  tau(  24) = (   5.2767064   1.4903225   6.0039473  )
        25           Ti1 tau(  25) = (   0.0000382   5.9609847   6.0000000  )
        26           Ti1 tau(  26) = (   3.2902200   4.4714249   6.0002472  )
        27           O1  tau(  27) = (   0.0002396   2.9813036   7.9858123  )
        28           O1  tau(  28) = (   3.2902150   2.9813002   7.3038282  )
        29           O1  tau(  29) = (   4.5938453   4.4726049   9.2879030  )
        30           O1  tau(  30) = (   1.9864658   4.4711199   9.2879459  )
        31           Ti1 tau(  31) = (   3.2891106   5.8743827   9.1763621  )
        32           Ti1 tau(  32) = (   0.0006254   4.4649316   9.2693709  )
        33           O1  tau(  33) = (   3.2783824   2.9878764  11.3535400  )
        34           O1  tau(  34) = (   0.0092240   2.9805883  10.6323155  )
        35           O1  tau(  35) = (   1.2857266   4.4729298  12.7006550  )
        36           O1  tau(  36) = (   5.2845514   4.4687958  12.6640455  )
        37           Ti1 tau(  37) = (   6.5734551   0.0101047  12.5124135  )
        38           Ti1 tau(  38) = (   3.2852174   4.4611384  12.5175569  )
        39           O1  tau(  39) = (   6.5279837   2.9480221  14.9030702  )
        40           O1  tau(  40) = (   3.2956390   2.9588503  13.9390168  )
        41           O1  tau(  41) = (   4.4992944   4.4159585  16.2207858  )
        42           O1  tau(  42) = (   2.0104883   4.4624356  16.0673450  )
        43           Ti1 tau(  43) = (   3.2790961   0.0058003  15.7788240  )
        44           Ti1 tau(  44) = (   0.0606790   4.6093333  15.7554573  )
        45           O1  tau(  45) = (   3.2900926   2.9813045   4.7018136  )
        46           O1  tau(  46) = (   1.3039711   4.4726057   6.0039043  )
        47           O1  tau(  47) = (   5.2763189   4.4711207   6.0039473  )
        48           N1  tau(  48) = (   0.0403274   2.7191540  18.0026804  )
        49           C1  tau(  49) = (   0.9398849   2.4944932  18.9664025  )
        50           H1  tau(  50) = (   0.9073005   3.0183022  19.9142263  )
        51           H1  tau(  51) = (   1.7098349   1.7704235  18.7615287  )
        52           N1  tau(  52) = (   5.5765855   3.6054979  18.4816711  )
        53           H1  tau(  53) = (   5.9881759   4.5220851  18.7147717  )
        54           H1  tau(  54) = (   4.9344470   3.8465857  17.6610935  )
        55           H1  tau(  55) = (   5.0674124   3.1947177  19.2767304  )

     number of k points=    10  Fermi-Dirac smearing, width (Ry)=  0.0073
                       cart. coord. in units 2pi/alat
        k(    1) = (   0.0000000   0.0000000   0.0000000), wk =   0.1250000
        k(    2) = (   0.0000000   0.0419351   0.0000000), wk =   0.2500000
        k(    3) = (   0.0000000  -0.0838702   0.0000000), wk =   0.1250000
        k(    4) = (   0.0379955   0.0000049   0.0000000), wk =   0.2500000
        k(    5) = (   0.0379955   0.0419400   0.0000000), wk =   0.2500000
        k(    6) = (   0.0379955  -0.0838652   0.0000000), wk =   0.2500000
        k(    7) = (   0.0379955  -0.0419301   0.0000000), wk =   0.2500000
        k(    8) = (  -0.0759910  -0.0000099   0.0000000), wk =   0.1250000
        k(    9) = (  -0.0759910   0.0419252   0.0000000), wk =   0.2500000
        k(   10) = (  -0.0759910  -0.0838800   0.0000000), wk =   0.1250000

     Initial potential from superposition of free atoms

     starting charge  380.99914, renormalised to  397.00000

     negative rho (up, down):  1.589E-02 0.000E+00

     %%%%%%%%%%%%%%%%%%%%%%%%%%%%%%%%%%%%%%%%%%%%%%%%%%%%%%%%%%%%%%%%%%%%%%%%
     %                                                                      %
     % You are using vdW-DF, which was implemented by the Thonhauser group. %
     % Please cite the following two papers that made this development      %
     % possible and the two reviews that describe the various versions:     %
     %                                                                      %
     %   T. Thonhauser et al., PRL 115, 136402 (2015).                      %
     %   T. Thonhauser et al., PRB 76, 125112 (2007).                       %
     %   K. Berland et al., Rep. Prog. Phys. 78, 066501 (2015).             %
     %   D.C. Langreth et al., J. Phys.: Condens. Matter 21, 084203 (2009). %
     %                                                                      %
     %                                                                      %
     % If you are calculating the stress with vdW-DF, please also cite:     %
     %                                                                      %
     %   R. Sabatini et al., J. Phys.: Condens. Matter 24, 424209 (2012).   %
     %                                                                      %
     %%%%%%%%%%%%%%%%%%%%%%%%%%%%%%%%%%%%%%%%%%%%%%%%%%%%%%%%%%%%%%%%%%%%%%%%

     Adding external electric field

     Computed dipole along edir(3) :
        Dipole              -10.3122 Ry au,        -26.2111 Debye
        Dipole field         -0.0195 Ry au,

        Potential amp.        1.8040 Ry
        Total length         46.3494 bohr

     Starting wfcs are  301 atomic wfcs
  @ DRIVER MODE: Message from server: STATUS
  @ DRIVER MODE: Message from server: POSDATA
  @ DRIVER MODE: Reading and sharing cell
  @ DRIVER MODE: Reading and sharing positions
  @ DRIVER MODE: Received positions

     Self-consistent Calculation

     iteration #  1     ecut=    29.40 Ry     beta= 0.05
     Davidson diagonalization with overlap
     c_bands:  3 eigenvalues not converged
     c_bands:  2 eigenvalues not converged
     c_bands:  3 eigenvalues not converged
     c_bands:  2 eigenvalues not converged
     c_bands:  3 eigenvalues not converged
     c_bands:  2 eigenvalues not converged
     c_bands:  3 eigenvalues not converged
     c_bands:  2 eigenvalues not converged
     c_bands:  2 eigenvalues not converged
     c_bands:  3 eigenvalues not converged
     ethr =  1.00E-05,  avg # of iterations = 20.0

[...]

     total energy              =   -2480.05017919 Ry
     estimated scf accuracy    <    5159.11834430 Ry

     iteration #  2     ecut=    29.40 Ry     beta= 0.05
     Davidson diagonalization with overlap
     ethr =  1.00E-02,  avg # of iterations = 22.1

[...]

     iteration # 63     ecut=    29.40 Ry     beta= 0.05
     Davidson diagonalization with overlap
     ethr =  3.90E-11,  avg # of iterations =  5.1

[...]

     total energy              =   -2941.49079943 Ry
     estimated scf accuracy    <       0.00000011 Ry

     iteration # 64     ecut=    29.40 Ry     beta= 0.05
     Davidson diagonalization with overlap
     c_bands:  2 eigenvalues not converged
     ethr =  2.82E-11,  avg # of iterations = 10.2

     negative rho (up, down):  1.343E-02 0.000E+00

     Adding external electric field

     Computed dipole along edir(3) :
        Dipole                1.3643 Ry au,          3.4676 Debye
        Dipole field          0.0026 Ry au,

        Potential amp.       -0.2387 Ry
        Total length         46.3494 bohr

     End of self-consistent calculation

          k = 0.0000 0.0000 0.0000 ( 18029 PWs)   bands (ev):

   -55.2837 -55.2450 -55.2446 -55.2108 -55.1592 -55.1574 -55.1209 -55.0940
   -55.0767 -55.0755 -55.0592 -55.0423 -54.9564 -54.7907 -54.2629 -54.2288
   -31.8558 -31.7357 -31.6458 -31.6106 -31.5838 -31.5813 -31.5787 -31.5346
   -31.5316 -31.4915 -31.4900 -31.4893 -31.4571 -31.4541 -31.4400 -31.4185
   -31.4034 -31.3986 -31.3942 -31.3929 -31.3572 -31.3517 -31.3381 -31.3246
   -31.3018 -31.2965 -31.2902 -31.2862 -31.2738 -31.2705 -31.2608 -31.2507
   -31.2440 -31.2388 -31.2090 -31.2045 -31.1976 -31.1853 -31.1479 -31.1054
   -31.0614 -30.9320 -30.6717 -30.5789 -30.5567 -30.4882 -30.4015 -30.2905
   -19.2522 -16.1255 -15.8635 -15.7355 -15.5438 -15.4778 -15.3822 -15.2444
   -15.1931 -15.1327 -15.0825 -15.0422 -15.0291 -14.9635 -14.9063 -14.8180
   -14.8163 -14.7999 -14.7891 -14.7767 -14.7741 -14.7118 -14.7087 -14.6819
   -14.6673 -14.6571 -14.5163 -14.4324 -14.3710 -14.2907 -14.0239 -12.7658
   -12.6486  -9.1557  -7.8276  -7.0992  -6.0069  -3.8280  -3.4631  -3.2903
    -3.2440  -3.2033  -3.1786  -3.0100  -2.9284  -2.6609  -2.5932  -2.5533
    -2.5059  -2.4945  -2.4689  -2.2970  -2.2664  -2.2268  -2.1901  -2.1665
    -2.1265  -2.0987  -2.0826  -2.0535  -2.0404  -2.0383  -1.8560  -1.7851
    -1.7628  -1.7019  -1.6851  -1.6685  -1.6110  -1.5821  -1.5691  -1.5667
    -1.5439  -1.5267  -1.5039  -1.4612  -1.3751  -1.2826  -1.2385  -1.2164
    -1.1033  -1.0392  -0.9152  -0.8731  -0.8586  -0.8313  -0.7596  -0.6931
    -0.6655  -0.6297  -0.4895  -0.4850  -0.4006  -0.3908  -0.3176  -0.3009
    -0.2610  -0.2146  -0.1042  -0.0703  -0.0488   0.0031   0.0660   0.0882
     0.1701   0.2243   0.2810   0.2950   0.3744   0.4147   0.4520   0.4738
     0.5612   0.6025   0.6620   0.6684   0.7056   0.7088   0.7345   0.8209
     0.8340   0.8534   0.8943   1.0637   1.2658   1.3161   1.3367   1.6694
     1.6888   1.7595   1.9447   2.3342   2.3818   3.8174   3.8828   3.9533
     3.9678   3.9781   4.0495   4.0941   4.2848   4.3138   4.3168   4.3380

[...]

          k = 0.0380-0.0419 0.0000 ( 17876 PWs)   bands (ev):

[...]

          k =-0.0760-0.0000 0.0000 ( 17886 PWs)   bands (ev):

[...]

          k =-0.0760-0.0839 0.0000 ( 17948 PWs)   bands (ev):

   -55.2716 -55.2565 -55.2280 -55.2277 -55.1555 -55.1456 -55.1327 -55.0803
   -55.0777 -55.0747 -55.0594 -55.0589 -54.9548 -54.7922 -54.2458 -54.2458
   -31.6653 -31.6523 -31.5785 -31.5509 -31.5507 -31.5469 -31.5201 -31.5198
   -31.4923 -31.4838 -31.4793 -31.4755 -31.4211 -31.4122 -31.4122 -31.4087
   -31.4066 -31.4024 -31.3959 -31.3808 -31.3686 -31.3580 -31.3537 -31.3473
   -31.3470 -31.3449 -31.3436 -31.3278 -31.3112 -31.3080 -31.2918 -31.2890
   -31.2843 -31.2825 -31.2824 -31.2512 -31.2398 -31.2385 -31.1653 -31.0921
   -31.0623 -31.0097 -30.5694 -30.5694 -30.4843 -30.4842 -30.4449 -30.4448
   -19.2486 -15.5907 -15.5142 -15.4584 -15.3688 -15.2904 -15.2705 -15.2606
   -15.2274 -15.1605 -15.1372 -15.0719 -15.0370 -14.9914 -14.9886 -14.9733
   -14.8886 -14.8695 -14.8543 -14.8501 -14.7892 -14.7878 -14.7608 -14.7384
   -14.7317 -14.7280 -14.6282 -14.6273 -14.4633 -14.4350 -14.2056 -12.7502
   -12.7502  -9.1430  -7.8371  -7.0837  -6.0173  -3.8509  -2.8518  -2.7652
    -2.6756  -2.5193  -2.4821  -2.4720  -2.4175  -2.3262  -2.3000  -2.2869
    -2.2667  -2.2594  -2.1866  -2.1815  -2.1374  -2.1157  -2.1049  -2.0990
    -2.0651  -2.0520  -2.0382  -2.0015  -1.9930  -1.9771  -1.9425  -1.9230
    -1.8985  -1.8707  -1.8567  -1.8274  -1.7040  -1.6748  -1.6307  -1.5693
    -1.5433  -1.4767  -1.4715  -1.3706  -1.3572  -1.3462  -1.3052  -1.2913
    -1.2716  -1.1086  -1.0637  -1.0284  -1.0168  -1.0108  -0.8548  -0.8384
    -0.7703  -0.7546  -0.7399  -0.6632  -0.6218  -0.6057  -0.5258  -0.4860
    -0.4561  -0.4353  -0.2931  -0.2807  -0.2553  -0.2405  -0.2340  -0.1414
    -0.1209  -0.0849  -0.0508  -0.0126   0.0036   0.0628   0.2161   0.2427
     0.2805   0.4252   0.4390   0.5246   0.5717   0.6989   0.7640   0.7659
     0.8471   0.9171   1.0192   1.0314   1.0525   1.1368   1.1829   1.1879
     1.1890   2.1175   2.1183   2.2017   2.2020   3.6949   3.9568   4.0791
     4.0855   4.1278   4.2506   4.3341   4.3578   4.3984   4.3991   4.4719

     the Fermi energy is     3.8723 ev

!    total energy              =   -2941.49084145 Ry
     estimated scf accuracy    <       0.00000006 Ry
     smearing contrib. (-TS)   =      -0.04235114 Ry
     internal energy E=F+TS    =   -2941.44849030 Ry

     The total energy is F=E-TS. E is the sum of the following terms:
     one-electron contribution =  -23922.07680264 Ry
     hartree contribution      =   12054.21399916 Ry
     xc contribution           =    -486.86652643 Ry
     ewald contribution        =    9413.27732723 Ry
     electric field correction =       0.00351238 Ry

     convergence has been achieved in  64 iterations

     Forces acting on atoms (cartesian axes, Ry/au):

     atom    1 type  1   force =     0.00017491   -0.00017394    0.09406997
     atom    2 type  1   force =    -0.00005203   -0.00042827   -0.17752627
     atom    3 type  2   force =     0.00006649   -0.00004779   -0.02099003
     atom    4 type  2   force =     0.00001691   -0.00180282    0.05731522
     atom    5 type  2   force =    -0.01085997   -0.00091168    0.00782530
     atom    6 type  2   force =     0.01206972   -0.00034422    0.00622099
     atom    7 type  1   force =    -0.00066274    0.00291257   -0.01528138
     atom    8 type  1   force =     0.00059763    0.00232323    0.00235585
     atom    9 type  2   force =    -0.00010279    0.00013087    0.00092830
     atom   10 type  2   force =    -0.00165635   -0.00049468   -0.00380016
     atom   11 type  2   force =    -0.00003572   -0.00023439    0.00020691
     atom   12 type  2   force =    -0.00020328   -0.00039573    0.00027282
     atom   13 type  1   force =     0.00042934    0.00109180    0.00061592
     atom   14 type  1   force =     0.00019971   -0.00061969    0.00035889
     atom   15 type  2   force =    -0.00019093    0.00033816    0.00049966
     atom   16 type  2   force =    -0.00016387   -0.00025174   -0.00118073
     atom   17 type  2   force =     0.00010198   -0.00022644    0.00018787
     atom   18 type  2   force =    -0.00078892   -0.00032745    0.00008496
     atom   19 type  1   force =    -0.00059763    0.00106052   -0.00051001
     atom   20 type  1   force =    -0.00033107    0.00109986   -0.00101214
     atom   21 type  2   force =     0.00010956   -0.00004349    0.10373744
     atom   22 type  2   force =     0.00014678    0.00030560    0.00007662
     atom   23 type  2   force =    -0.07061887   -0.00018498   -0.02706252
     atom   24 type  2   force =     0.07056435    0.00028806   -0.02710290
     atom   25 type  1   force =     0.00014989   -0.00024303    0.09339646
     atom   26 type  1   force =    -0.00001417   -0.00037613   -0.17774894
     atom   27 type  2   force =     0.00010810   -0.00040055   -0.01999938
     atom   28 type  2   force =     0.00003458   -0.00146632    0.05679532
     atom   29 type  2   force =    -0.01076131   -0.00066353    0.00674324
     atom   30 type  2   force =     0.01187992   -0.00017178    0.00510019
     atom   31 type  1   force =    -0.00063618    0.00410917   -0.01558682
     atom   32 type  1   force =     0.00067498   -0.00277546    0.00213584
     atom   33 type  2   force =     0.00015862   -0.00021686   -0.00058158
     atom   34 type  2   force =    -0.00109106    0.00272006   -0.00202715
     atom   35 type  2   force =     0.00010764    0.00019678    0.00009183
     atom   36 type  2   force =    -0.00034693    0.00033532   -0.00007413
     atom   37 type  1   force =     0.00046595   -0.00008601    0.00031328
     atom   38 type  1   force =     0.00008828    0.00089000    0.00015033
     atom   39 type  2   force =    -0.00004372   -0.00100963    0.00039098
     atom   40 type  2   force =    -0.00023326   -0.00043245    0.00062809
     atom   41 type  2   force =    -0.00023442   -0.00014888   -0.00004420
     atom   42 type  2   force =     0.00015587    0.00000152    0.00023231
     atom   43 type  1   force =    -0.00002754   -0.00143473    0.00088544
     atom   44 type  1   force =    -0.00005083   -0.00064755   -0.00124948
     atom   45 type  2   force =     0.00009586   -0.00008106    0.10372083
     atom   46 type  2   force =    -0.07063842   -0.00008834   -0.02707261
     atom   47 type  2   force =     0.07059022    0.00029185   -0.02711038
     atom   48 type  3   force =    -0.00054432   -0.00116496   -0.00062371
     atom   49 type  4   force =     0.00028819   -0.00060165    0.00141168
     atom   50 type  5   force =     0.00085581    0.00007794   -0.00099572
     atom   51 type  5   force =    -0.00022162    0.00058839   -0.00014615
     atom   52 type  3   force =    -0.00407851   -0.00936743   -0.00181212
     atom   53 type  5   force =     0.00428359    0.00902380    0.00223820
     atom   54 type  5   force =     0.00037136    0.00005449    0.00084649
     atom   55 type  5   force =     0.00040020    0.00002369   -0.00029873

     Total force =     0.365955     Total SCF correction =     0.000590
  @ DRIVER MODE: Message from server: STATUS
  @ DRIVER MODE: Message from server: GETFORCE
  @ DRIVER MODE: Returning v,forces,stress,ensemble

     Writing output data file ./calc.save/
  @ DRIVER MODE: Message from server: EXIT
  @ DRIVE MODE: Exiting

     General routines

     Parallel routines

   This run was terminated on:   9:13:28   9Sep2021

   JOB DONE.