     Program PWSCF v.6.7GPU starts on 22Sep2021 at 18:27:20

     R & G space division:  proc/nbgrp/npool/nimage =      10
     Reading input from /storage/home/hcoda1/3/ntian30/research/carbon/CxH_vib/H2O_calc/ads_slab/CH2NHO_a/out_0007/pw.inp
Warning: card &CELL ignored
Warning: card   CELL_DYNAMICS='IPI', ignored
Warning: card / ignored

     Current dimensions of program PWSCF are:
     Max number of different atomic species (ntypx) = 10
     Max number of k-points (npk) =  40000
     Max angular momentum in pseudopotentials (lmaxx) =  3
     Presently no symmetry can be used with electric field

     Message from routine cell_base_init:
     DEPRECATED: use true lattice parameter, not A to a.u. conversion factor

     IMPORTANT: XC functional enforced from input :
     Exchange-correlation= BEEF-VDW
                           (   1   4  43  14   2   0   0)
     Any further DFT definition will be discarded
     Please, verify this is what you really want

  @ DRIVER MODE: Connecting to
 qe_1139763_2937321.sched-torque.pace.gatech.edugls12qep_scratch
  using UNIX socket
  @ DRIVER MODE: Message from server: STATUS
  @ DRIVER MODE: Message from server: INIT
  @ DRIVER MODE: Receiving replica           0          -1
  @ DRIVER MODE: Receiving encoded integer          25
  @ DRIVER MODE:  SCF:  T  FORCE:  T  STRESS:  F  VC:  F  ENSEMBLE:  F
  @ DRIVER MODE:  SCF:  T  FORCE:  T  STRESS:  F  VC:  F  ENSEMBLE:  F

     Using Slab Decomposition

     bravais-lattice index     =            0
     lattice parameter (alat)  =       1.8897  a.u.
     unit-cell volume          =    6658.9804 (a.u.)^3
     number of atoms/cell      =           53
     number of atomic types    =            5
     number of electrons       =       396.00
     number of Kohn-Sham states=          208
     kinetic-energy cutoff     =      29.3995  Ry
     charge density cutoff     =     293.9946  Ry
     scf convergence threshold =      7.3E-08
     mixing beta               =       0.0500
     number of iterations used =            8  plain     mixing
     Exchange-correlation= BEEF-VDW
                           (   1   4  43  14   2   0   0)

     celldm(1)=   1.889726  celldm(2)=   0.000000  celldm(3)=   0.000000
     celldm(4)=   0.000000  celldm(5)=   0.000000  celldm(6)=   0.000000

     crystal axes: (cart. coord. in units of alat)
               a(1) = (   6.579727   0.000000   0.000000 )
               a(2) = (  -0.000775   5.961596   0.000000 )
               a(3) = (   0.000000   0.000000  25.155947 )

     reciprocal axes: (cart. coord. in units 2 pi/alat)
               b(1) = (  0.151982  0.000020  0.000000 )
               b(2) = (  0.000000  0.167740  0.000000 )
               b(3) = (  0.000000  0.000000  0.039752 )

     PseudoPot. # 1 for Ti read from file:
     /storage/coda1/p-amedford6/0/shared/rich_project_chbe-medford/medford-share/data/pseudos_module/espresso/nninc/pbe/van/Ti.UPF
     MD5 check sum: 8e4df49b7f0d34bbd5052bf3f5ea0213
     Pseudo is Ultrasoft, Zval = 12.0
     Generated by new atomic code, or converted to UPF format
     Using radial grid of  851 points,  6 beta functions with:
                l(1) =   0
                l(2) =   0
                l(3) =   1
                l(4) =   1
                l(5) =   2
                l(6) =   2
     Q(r) pseudized with  8 coefficients,  rinner =    1.000   1.000   1.000
                                                       1.000   1.000

     PseudoPot. # 2 for O  read from file:
     /storage/coda1/p-amedford6/0/shared/rich_project_chbe-medford/medford-share/data/pseudos_module/espresso/nninc/pbe/van/O.UPF
     MD5 check sum: 78c19812648e8988a0fe644b0f25305e
     Pseudo is Ultrasoft, Zval =  6.0
     Generated by new atomic code, or converted to UPF format
     Using radial grid of  737 points,  4 beta functions with:
                l(1) =   0
                l(2) =   0
                l(3) =   1
                l(4) =   1
     Q(r) pseudized with  8 coefficients,  rinner =    0.800   0.800   0.800

     PseudoPot. # 3 for N  read from file:
     /storage/coda1/p-amedford6/0/shared/rich_project_chbe-medford/medford-share/data/pseudos_module/espresso/nninc/pbe/van/N.UPF
     MD5 check sum: 90d10febe142ad51ac9d5be1deb811c4
     Pseudo is Ultrasoft, Zval =  5.0
     Generated by new atomic code, or converted to UPF format
     Using radial grid of  729 points,  4 beta functions with:
                l(1) =   0
                l(2) =   0
                l(3) =   1
                l(4) =   1
     Q(r) pseudized with  8 coefficients,  rinner =    0.800   0.800   0.800

     PseudoPot. # 4 for C  read from file:
     /storage/coda1/p-amedford6/0/shared/rich_project_chbe-medford/medford-share/data/pseudos_module/espresso/nninc/pbe/van/C.UPF
     MD5 check sum: 1a69bf6b8db32088f5b2163dbdb77a27
     Pseudo is Ultrasoft, Zval =  4.0
     Generated by new atomic code, or converted to UPF format
     Using radial grid of  721 points,  4 beta functions with:
                l(1) =   0
                l(2) =   0
                l(3) =   1
                l(4) =   1
     Q(r) pseudized with  8 coefficients,  rinner =    0.800   0.800   0.800

     PseudoPot. # 5 for H  read from file:
     /storage/coda1/p-amedford6/0/shared/rich_project_chbe-medford/medford-share/data/pseudos_module/espresso/nninc/pbe/van/H.UPF
     MD5 check sum: b5ee9d7bfd3a09ee7748110bda690ff7
     Pseudo is Ultrasoft, Zval =  1.0
     Generated by new atomic code, or converted to UPF format
     Using radial grid of  615 points,  1 beta functions with:
                l(1) =   0
     Q(r) pseudized with  8 coefficients,  rinner =    0.800

     atomic species   valence    mass     pseudopotential
        Ti1           12.00    47.86700     Ti( 1.00)
        O1             6.00    15.99900     O ( 1.00)
        N1             5.00    14.00700     N ( 1.00)
        C1             4.00    12.01100     C ( 1.00)
        H1             1.00     1.00800     H ( 1.00)

     No symmetry found

   Cartesian axes

     site n.     atom                  positions (alat units)
         1           Ti1 tau(   1) = (   0.0004258   2.9801865   6.0000000  )
         2           Ti1 tau(   2) = (   3.2906075   1.4906267   6.0002472  )
         3           O1  tau(   3) = (   0.0006271   0.0005054   7.9858123  )
         4           O1  tau(   4) = (   3.2906025   0.0005020   7.3038282  )
         5           O1  tau(   5) = (   4.5942328   1.4918067   9.2879030  )
         6           O1  tau(   6) = (   1.9868534   1.4903216   9.2879459  )
         7           Ti1 tau(   7) = (   3.2907910   2.8959150   9.1758416  )
         8           Ti1 tau(   8) = (   0.0015273   1.4827037   9.2680791  )
         9           O1  tau(   9) = (   3.3049783   5.9490022  11.2668993  )
        10           O1  tau(  10) = (   0.0116148   5.9584955  10.6183126  )
        11           O1  tau(  11) = (   1.3054562   1.4902858  12.6165390  )
        12           O1  tau(  12) = (   5.3128925   1.4966897  12.6222362  )
        13           Ti1 tau(  13) = (   0.0227526   2.8513963  12.7011302  )
        14           Ti1 tau(  14) = (   3.3146314   1.3157910  12.6511296  )
        15           O1  tau(  15) = (   0.0292331   0.0037381  14.6451560  )
        16           O1  tau(  16) = (   3.3105559   0.0332628  13.8611824  )
        17           O1  tau(  17) = (   4.5798417   1.5533887  16.0574704  )
        18           O1  tau(  18) = (   2.0659959   1.5620864  16.0379710  )
        19           Ti1 tau(  19) = (   3.3199680   3.0150018  15.6455324  )
        20           Ti1 tau(  20) = (   6.5662113   1.5085715  15.8767718  )
        21           O1  tau(  21) = (   3.2904802   0.0005063   4.7018136  )
        22           O1  tau(  22) = (   0.0336757   0.0283057  17.1922241  )
        23           O1  tau(  23) = (   1.3043587   1.4918075   6.0039043  )
        24           O1  tau(  24) = (   5.2767064   1.4903225   6.0039473  )
        25           Ti1 tau(  25) = (   0.0000382   5.9609847   6.0000000  )
        26           Ti1 tau(  26) = (   3.2902200   4.4714249   6.0002472  )
        27           O1  tau(  27) = (   0.0002396   2.9813036   7.9858123  )
        28           O1  tau(  28) = (   3.2902150   2.9813002   7.3038282  )
        29           O1  tau(  29) = (   4.5938453   4.4726049   9.2879030  )
        30           O1  tau(  30) = (   1.9864658   4.4711199   9.2879459  )
        31           Ti1 tau(  31) = (   3.2891106   5.8743827   9.1763621  )
        32           Ti1 tau(  32) = (   0.0006254   4.4649316   9.2693709  )
        33           O1  tau(  33) = (   3.3044035   3.0314990  11.2389097  )
        34           O1  tau(  34) = (   0.0092240   2.9805883  10.6323155  )
        35           O1  tau(  35) = (   1.3090660   4.4724101  12.6204063  )
        36           O1  tau(  36) = (   5.3093727   4.4739031  12.6240458  )
        37           Ti1 tau(  37) = (   0.0315986   5.8296340  12.6341251  )
        38           Ti1 tau(  38) = (   3.3217628   4.4127071  12.4104736  )
        39           O1  tau(  39) = (   0.0286309   2.9529265  14.6620113  )
        40           O1  tau(  40) = (   3.3111648   2.9942334  13.8608864  )
        41           O1  tau(  41) = (   4.5850423   4.4544105  16.0703757  )
        42           O1  tau(  42) = (   2.0817017   4.4739285  16.0881885  )
        43           Ti1 tau(  43) = (   3.2564312   0.0343949  16.3346327  )
        44           Ti1 tau(  44) = (   6.5491996   4.6347227  16.0815441  )
        45           O1  tau(  45) = (   3.2900926   2.9813045   4.7018136  )
        46           O1  tau(  46) = (   1.3039711   4.4726057   6.0039043  )
        47           O1  tau(  47) = (   5.2763189   4.4711207   6.0039473  )
        48           N1  tau(  48) = (   0.0476609   2.9608057  17.4046342  )
        49           C1  tau(  49) = (   0.0644360   2.8714357  18.6596517  )
        50           H1  tau(  50) = (   0.0810575   3.7616739  19.3027278  )
        51           H1  tau(  51) = (   0.0872865   1.8968143  19.1621030  )
        52           O1  tau(  52) = (   3.2917830   0.0572188  18.1605702  )
        53           H1  tau(  53) = (   2.8914424   5.3141097  18.6896264  )

     number of k points=    10  Fermi-Dirac smearing, width (Ry)=  0.0073
                       cart. coord. in units 2pi/alat
        k(    1) = (   0.0000000   0.0000000   0.0000000), wk =   0.1250000
        k(    2) = (   0.0000000   0.0419351   0.0000000), wk =   0.2500000
        k(    3) = (   0.0000000  -0.0838702   0.0000000), wk =   0.1250000
        k(    4) = (   0.0379955   0.0000049   0.0000000), wk =   0.2500000
        k(    5) = (   0.0379955   0.0419400   0.0000000), wk =   0.2500000
        k(    6) = (   0.0379955  -0.0838652   0.0000000), wk =   0.2500000
        k(    7) = (   0.0379955  -0.0419301   0.0000000), wk =   0.2500000
        k(    8) = (  -0.0759910  -0.0000099   0.0000000), wk =   0.1250000
        k(    9) = (  -0.0759910   0.0419252   0.0000000), wk =   0.2500000
        k(   10) = (  -0.0759910  -0.0838800   0.0000000), wk =   0.1250000

     Initial potential from superposition of free atoms

     starting charge  379.99917, renormalised to  396.00000

     negative rho (up, down):  1.694E-02 0.000E+00

     %%%%%%%%%%%%%%%%%%%%%%%%%%%%%%%%%%%%%%%%%%%%%%%%%%%%%%%%%%%%%%%%%%%%%%%%
     %                                                                      %
     % You are using vdW-DF, which was implemented by the Thonhauser group. %
     % Please cite the following two papers that made this development      %
     % possible and the two reviews that describe the various versions:     %
     %                                                                      %
     %   T. Thonhauser et al., PRL 115, 136402 (2015).                      %
     %   T. Thonhauser et al., PRB 76, 125112 (2007).                       %
     %   K. Berland et al., Rep. Prog. Phys. 78, 066501 (2015).             %
     %   D.C. Langreth et al., J. Phys.: Condens. Matter 21, 084203 (2009). %
     %                                                                      %
     %                                                                      %
     % If you are calculating the stress with vdW-DF, please also cite:     %
     %                                                                      %
     %   R. Sabatini et al., J. Phys.: Condens. Matter 24, 424209 (2012).   %
     %                                                                      %
     %%%%%%%%%%%%%%%%%%%%%%%%%%%%%%%%%%%%%%%%%%%%%%%%%%%%%%%%%%%%%%%%%%%%%%%%

     Adding external electric field

     Computed dipole along edir(3) :
        Dipole               -7.7051 Ry au,        -19.5845 Debye
        Dipole field         -0.0145 Ry au,

        Potential amp.        1.3479 Ry
        Total length         46.3494 bohr

     Starting wfcs are  299 atomic wfcs
  @ DRIVER MODE: Message from server: STATUS
  @ DRIVER MODE: Message from server: POSDATA
  @ DRIVER MODE: Reading and sharing cell
  @ DRIVER MODE: Reading and sharing positions
  @ DRIVER MODE: Received positions

     Self-consistent Calculation

     iteration #  1     ecut=    29.40 Ry     beta= 0.05
     Davidson diagonalization with overlap
     c_bands:  1 eigenvalues not converged
     c_bands:  4 eigenvalues not converged
     c_bands:  2 eigenvalues not converged
     c_bands:  3 eigenvalues not converged
     c_bands:  2 eigenvalues not converged
     c_bands:  3 eigenvalues not converged
     c_bands:  2 eigenvalues not converged
     ethr =  1.00E-05,  avg # of iterations = 19.5

[...]

     total energy              =   -2658.46535200 Ry
     estimated scf accuracy    <    3232.59345151 Ry

[...]

     iteration #  3     ecut=    29.40 Ry     beta= 0.05
     Davidson diagonalization with overlap
     ethr =  1.00E-02,  avg # of iterations = 14.8

[...]

     iteration # 52     ecut=    29.40 Ry     beta= 0.05
     Davidson diagonalization with overlap
     c_bands:  1 eigenvalues not converged
     ethr =  1.87E-07,  avg # of iterations =  7.1

[...]

     total energy              =   -2951.50539803 Ry
     estimated scf accuracy    <       0.00000010 Ry

     iteration # 76     ecut=    29.40 Ry     beta= 0.05
     Davidson diagonalization with overlap
     ethr =  2.07E-11,  avg # of iterations =  5.0

     negative rho (up, down):  1.701E-02 0.000E+00

     Adding external electric field

     Computed dipole along edir(3) :
        Dipole                0.3618 Ry au,          0.9197 Debye
        Dipole field          0.0007 Ry au,

        Potential amp.       -0.0633 Ry
        Total length         46.3494 bohr

     End of self-consistent calculation

          k = 0.0000 0.0000 0.0000 ( 18029 PWs)   bands (ev):

   -56.8874 -56.8538 -56.0107 -55.9748 -55.7626 -55.6986 -55.5446 -55.4460
   -55.4121 -55.3929 -55.3298 -55.3060 -55.2771 -55.2587 -55.0759 -55.0137
   -33.3074 -33.1608 -33.1327 -33.0648 -32.9745 -32.9343 -32.4938 -32.2401
   -32.2312 -32.2028 -32.1509 -32.1485 -32.1219 -31.9956 -31.9806 -31.9316
   -31.9030 -31.8931 -31.8704 -31.8622 -31.8252 -31.7928 -31.7927 -31.7682
   -31.7649 -31.7603 -31.7188 -31.6911 -31.6598 -31.6505 -31.5943 -31.5700
   -31.5469 -31.5293 -31.5251 -31.5203 -31.5029 -31.4822 -31.4749 -31.4688
   -31.4584 -31.4286 -31.3386 -31.3173 -31.2824 -31.2764 -31.2542 -31.2157
   -16.9994 -16.4624 -16.4522 -16.2091 -16.1016 -16.0866 -16.0594 -15.9853
   -15.8002 -15.7292 -15.7017 -15.6509 -15.5269 -15.4036 -15.3070 -15.1600
   -15.0760 -15.0306 -15.0293 -15.0123 -14.9765 -14.9624 -14.9405 -14.8774
   -14.8572 -14.7864 -14.6486 -14.6112 -14.6030 -14.3335 -14.3245 -13.9434
   -13.8362  -7.2028  -4.5716  -4.1485  -3.9722  -3.9323  -3.7671  -3.5950
    -3.5827  -3.4444  -3.4108  -3.2694  -3.2651  -3.2509  -3.1659  -3.1510
    -3.0307  -2.9638  -2.9493  -2.8483  -2.8074  -2.6556  -2.6176  -2.5274
    -2.4749  -2.4539  -2.3911  -2.3417  -2.3155  -2.2907  -2.2657  -2.2096
    -2.1894  -2.1553  -2.0897  -2.0536  -1.9666  -1.9291  -1.9183  -1.9120
    -1.7980  -1.7719  -1.7312  -1.5919  -1.5332  -1.5148  -1.4923  -1.4397
    -1.3804  -1.3566  -1.3065  -1.2059  -1.1289  -1.1137  -1.0466  -1.0295
    -1.0165  -0.8923  -0.8380  -0.7451  -0.7360  -0.7201  -0.6534  -0.5948
    -0.5570  -0.4727  -0.3974  -0.3881  -0.3745  -0.3383  -0.3147  -0.2571
    -0.1466  -0.1052  -0.0571   0.0161   0.0377   0.1263   0.2208   0.2555
     0.2689   0.3137   0.3425   0.3633   0.4211   0.4850   0.4986   0.5675
     0.5756   0.5796   0.6653   0.7560   0.7938   0.8448   0.8689   0.8799
     1.0020   1.0881   1.1123   1.1575   1.5264   1.7503   2.4035   2.5729
     2.8490   3.0035   3.3267   3.3898   3.4028   3.4060   3.6734   3.8024

[...]

          k = 0.0380-0.0419 0.0000 ( 17876 PWs)   bands (ev):

[...]

          k =-0.0760-0.0000 0.0000 ( 17886 PWs)   bands (ev):

[...]

          k =-0.0760-0.0839 0.0000 ( 17948 PWs)   bands (ev):

   -56.8712 -56.8699 -55.9990 -55.9863 -55.7577 -55.7034 -55.5437 -55.4295
   -55.4284 -55.3893 -55.3304 -55.3094 -55.2758 -55.2576 -55.0772 -55.0147
   -33.1472 -33.1458 -33.1253 -33.1239 -33.0188 -33.0178 -32.3194 -32.3085
   -32.1936 -32.1812 -32.1808 -32.1725 -32.0632 -32.0204 -31.9888 -31.9776
   -31.9307 -31.9262 -31.8390 -31.7910 -31.7817 -31.7809 -31.7471 -31.7200
   -31.6993 -31.6515 -31.6498 -31.6496 -31.6473 -31.6366 -31.6158 -31.6110
   -31.6100 -31.6087 -31.5865 -31.5456 -31.5379 -31.5181 -31.5063 -31.4847
   -31.4771 -31.4263 -31.4245 -31.3478 -31.3402 -31.2864 -31.2564 -31.2357
   -16.4465 -16.3622 -16.3600 -16.3096 -16.3081 -16.0593 -16.0544 -15.8036
   -15.7726 -15.5886 -15.5117 -15.4796 -15.4296 -15.3886 -15.3540 -15.2523
   -15.2393 -15.1423 -15.1140 -15.1044 -15.0573 -15.0134 -14.9704 -14.9408
   -14.9016 -14.8109 -14.7519 -14.7162 -14.6146 -14.5169 -14.4675 -13.9407
   -13.9402  -7.1979  -4.1473  -3.9634  -3.4308  -3.4260  -3.4160  -3.4079
    -3.3531  -3.1840  -3.1763  -2.9906  -2.9630  -2.9605  -2.8897  -2.8832
    -2.7763  -2.7111  -2.7052  -2.7043  -2.6697  -2.6424  -2.6363  -2.5794
    -2.4724  -2.4213  -2.3965  -2.3748  -2.3455  -2.3172  -2.2632  -2.1737
    -2.1660  -2.1565  -2.1263  -2.1062  -2.0809  -2.0756  -1.9368  -1.8361
    -1.7645  -1.7157  -1.7058  -1.6907  -1.6640  -1.6283  -1.5978  -1.5843
    -1.5383  -1.4794  -1.4541  -1.3985  -1.3502  -1.3012  -1.2194  -1.1584
    -1.0907  -1.0696  -0.9370  -0.9215  -0.9022  -0.8637  -0.8301  -0.8208
    -0.7456  -0.6727  -0.6135  -0.5977  -0.5370  -0.5139  -0.4789  -0.4410
    -0.4325  -0.3766  -0.3547  -0.3058  -0.2909  -0.1701  -0.0869   0.0350
     0.0668   0.0847   0.1423   0.1748   0.3121   0.3212   0.3715   0.4860
     0.5223   0.6644   0.6816   0.7841   0.8333   0.8957   0.9521   0.9558
     0.9563   0.9825   1.0165   1.0374   1.1137   1.6880   2.9936   2.9965
     3.0536   3.0593   3.3660   3.3701   3.4746   3.4803   3.7847   3.7913

     the Fermi energy is     2.1411 ev

!    total energy              =   -2951.50540731 Ry
     estimated scf accuracy    <       0.00000003 Ry
     smearing contrib. (-TS)   =      -0.00232717 Ry
     internal energy E=F+TS    =   -2951.50308015 Ry

     The total energy is F=E-TS. E is the sum of the following terms:
     one-electron contribution =  -24181.77126379 Ry
     hartree contribution      =   12180.37849722 Ry
     xc contribution           =    -487.03855924 Ry
     ewald contribution        =    9536.92799861 Ry
     electric field correction =       0.00024706 Ry

     convergence has been achieved in  76 iterations

     Forces acting on atoms (cartesian axes, Ry/au):

     atom    1 type  1   force =     0.00000735   -0.00051254    0.12458076
     atom    2 type  1   force =    -0.00009903    0.00034941   -0.15486752
     atom    3 type  2   force =     0.00004577   -0.00012317   -0.06538263
     atom    4 type  2   force =     0.00007421    0.00024707    0.01706072
     atom    5 type  2   force =    -0.00338262   -0.00145138   -0.01347796
     atom    6 type  2   force =     0.00542235   -0.00094248   -0.01319289
     atom    7 type  1   force =     0.00030085   -0.00647496    0.05889218
     atom    8 type  1   force =     0.00011349    0.00855020    0.09585342
     atom    9 type  2   force =     0.00026739   -0.00010476    0.00025180
     atom   10 type  2   force =    -0.00166707    0.00093271   -0.05964356
     atom   11 type  2   force =     0.00079586   -0.00033703   -0.00034840
     atom   12 type  2   force =    -0.00102472   -0.00073535   -0.00009074
     atom   13 type  1   force =    -0.00020049   -0.00074595    0.00005098
     atom   14 type  1   force =     0.00003866   -0.00065162   -0.00013109
     atom   15 type  2   force =     0.00006750   -0.00025558   -0.00010987
     atom   16 type  2   force =    -0.00009222    0.00000718   -0.00041057
     atom   17 type  2   force =     0.00021601   -0.00014158   -0.00016915
     atom   18 type  2   force =    -0.00041023   -0.00018615   -0.00014096
     atom   19 type  1   force =    -0.00018133   -0.00138915    0.00015531
     atom   20 type  1   force =    -0.00009103   -0.00007181   -0.00019255
     atom   21 type  2   force =     0.00002351    0.00021787    0.09784779
     atom   22 type  2   force =    -0.00028446   -0.00035091    0.00021764
     atom   23 type  2   force =    -0.08254137    0.00005392   -0.03294745
     atom   24 type  2   force =     0.08242543    0.00049518   -0.03300006
     atom   25 type  1   force =     0.00002670   -0.00057863    0.12480399
     atom   26 type  1   force =    -0.00019111   -0.00146994   -0.15525436
     atom   27 type  2   force =     0.00011557   -0.00079890   -0.06369668
     atom   28 type  2   force =     0.00005607    0.00198142    0.01251762
     atom   29 type  2   force =    -0.00155535    0.00507694   -0.01679309
     atom   30 type  2   force =     0.00370257    0.00540012   -0.01640392
     atom   31 type  1   force =     0.00000537    0.00179308    0.04178099
     atom   32 type  1   force =     0.00011694   -0.01183590    0.09592095
     atom   33 type  2   force =     0.00001399   -0.00023331   -0.00028525
     atom   34 type  2   force =    -0.00105211    0.00154013   -0.07415740
     atom   35 type  2   force =    -0.00040841    0.00018037    0.00008349
     atom   36 type  2   force =     0.00111699    0.00044010    0.00015464
     atom   37 type  1   force =    -0.00029692    0.00060529    0.00025671
     atom   38 type  1   force =     0.00020641   -0.00054585    0.00002139
     atom   39 type  2   force =     0.00016439    0.00024885    0.00009956
     atom   40 type  2   force =    -0.00005109   -0.00050334   -0.00061760
     atom   41 type  2   force =     0.00047916    0.00012049   -0.00024550
     atom   42 type  2   force =    -0.00080654   -0.00010706    0.00008448
     atom   43 type  1   force =     0.00005071    0.00105162   -0.00065910
     atom   44 type  1   force =     0.00001933    0.00004110   -0.00048645
     atom   45 type  2   force =     0.00003862    0.00001782    0.09767201
     atom   46 type  2   force =    -0.08260206    0.00001315   -0.03295514
     atom   47 type  2   force =     0.08247899    0.00044385   -0.03300648
     atom   48 type  3   force =    -0.00195573   -0.00004187   -0.00026442
     atom   49 type  4   force =     0.00507192   -0.00016626    0.00069238
     atom   50 type  5   force =    -0.00181437   -0.00006925   -0.00016157
     atom   51 type  5   force =    -0.00185036    0.00014207    0.00008816
     atom   52 type  2   force =     0.00014425    0.00056753    0.00010557
     atom   53 type  5   force =    -0.00104773    0.00030728   -0.00010021

     Total force =     0.415532     Total SCF correction =     0.000486
  @ DRIVER MODE: Message from server: STATUS
  @ DRIVER MODE: Message from server: GETFORCE
  @ DRIVER MODE: Returning v,forces,stress,ensemble

     Writing output data file ./calc.save/
  @ DRIVER MODE: Message from server: EXIT
  @ DRIVE MODE: Exiting

     General routines

     Parallel routines

   This run was terminated on:  18:46:31  22Sep2021

   JOB DONE.