     Program PWSCF v.6.7GPU starts on 19Oct2021 at  5:42:41

     R & G space division:  proc/nbgrp/npool/nimage =       8
     Reading input from /storage/home/hcoda1/3/ntian30/research/carbon/CxH_vib/Thiel_calc/ads_slab/NH3NH2H_perslab/out_0036/pw.inp
Warning: card &CELL ignored
Warning: card   CELL_DYNAMICS='IPI', ignored
Warning: card / ignored

     Current dimensions of program PWSCF are:
     Max number of different atomic species (ntypx) = 10
     Max number of k-points (npk) =  40000
     Max angular momentum in pseudopotentials (lmaxx) =  3
     Presently no symmetry can be used with electric field

     Message from routine cell_base_init:
     DEPRECATED: use true lattice parameter, not A to a.u. conversion factor

     IMPORTANT: XC functional enforced from input :
     Exchange-correlation= BEEF-VDW
                           (   1   4  43  14   2   0   0)
     Any further DFT definition will be discarded
     Please, verify this is what you really want

  @ DRIVER MODE: Connecting to
 qe_1139763_3255139.sched-torque.pace.gatech.edutj_fjve9_scratch
  using UNIX socket
  @ DRIVER MODE: Message from server: STATUS
  @ DRIVER MODE: Message from server: INIT
  @ DRIVER MODE: Receiving replica           0          -1
  @ DRIVER MODE: Receiving encoded integer          25
  @ DRIVER MODE:  SCF:  T  FORCE:  T  STRESS:  F  VC:  F  ENSEMBLE:  F
  @ DRIVER MODE:  SCF:  T  FORCE:  T  STRESS:  F  VC:  F  ENSEMBLE:  F

     Using Slab Decomposition

     bravais-lattice index     =            0
     lattice parameter (alat)  =       1.8897  a.u.
     unit-cell volume          =    9988.4706 (a.u.)^3
     number of atoms/cell      =           61
     number of atomic types    =            4
     number of electrons       =       442.00
     number of Kohn-Sham states=          231
     kinetic-energy cutoff     =      29.3995  Ry
     charge density cutoff     =     293.9946  Ry
     scf convergence threshold =      7.3E-08
     mixing beta               =       0.0500
     number of iterations used =            8  plain     mixing
     Exchange-correlation= BEEF-VDW
                           (   1   4  43  14   2   0   0)

     celldm(1)=   1.889726  celldm(2)=   0.000000  celldm(3)=   0.000000
     celldm(4)=   0.000000  celldm(5)=   0.000000  celldm(6)=   0.000000

     crystal axes: (cart. coord. in units of alat)
               a(1) = (   6.579727   0.000000   0.000000 )
               a(2) = (  -0.001163   8.942395   0.000000 )
               a(3) = (   0.000000   0.000000  25.155947 )

     reciprocal axes: (cart. coord. in units 2 pi/alat)
               b(1) = (  0.151982  0.000020  0.000000 )
               b(2) = (  0.000000  0.111827  0.000000 )
               b(3) = (  0.000000  0.000000  0.039752 )

     PseudoPot. # 1 for O  read from file:
     /storage/coda1/p-amedford6/0/shared/rich_project_chbe-medford/medford-share/data/pseudos_module/espresso/nninc/pbe/van/O.UPF
     MD5 check sum: 78c19812648e8988a0fe644b0f25305e
     Pseudo is Ultrasoft, Zval =  6.0
     Generated by new atomic code, or converted to UPF format
     Using radial grid of  737 points,  4 beta functions with:
                l(1) =   0
                l(2) =   0
                l(3) =   1
                l(4) =   1
     Q(r) pseudized with  8 coefficients,  rinner =    0.800   0.800   0.800

     PseudoPot. # 2 for Ti read from file:
     /storage/coda1/p-amedford6/0/shared/rich_project_chbe-medford/medford-share/data/pseudos_module/espresso/nninc/pbe/van/Ti.UPF
     MD5 check sum: 8e4df49b7f0d34bbd5052bf3f5ea0213
     Pseudo is Ultrasoft, Zval = 12.0
     Generated by new atomic code, or converted to UPF format
     Using radial grid of  851 points,  6 beta functions with:
                l(1) =   0
                l(2) =   0
                l(3) =   1
                l(4) =   1
                l(5) =   2
                l(6) =   2
     Q(r) pseudized with  8 coefficients,  rinner =    1.000   1.000   1.000
                                                       1.000   1.000

     PseudoPot. # 3 for H  read from file:
     /storage/coda1/p-amedford6/0/shared/rich_project_chbe-medford/medford-share/data/pseudos_module/espresso/nninc/pbe/van/H.UPF
     MD5 check sum: b5ee9d7bfd3a09ee7748110bda690ff7
     Pseudo is Ultrasoft, Zval =  1.0
     Generated by new atomic code, or converted to UPF format
     Using radial grid of  615 points,  1 beta functions with:
                l(1) =   0
     Q(r) pseudized with  8 coefficients,  rinner =    0.800

     PseudoPot. # 4 for N  read from file:
     /storage/coda1/p-amedford6/0/shared/rich_project_chbe-medford/medford-share/data/pseudos_module/espresso/nninc/pbe/van/N.UPF
     MD5 check sum: 90d10febe142ad51ac9d5be1deb811c4
     Pseudo is Ultrasoft, Zval =  5.0
     Generated by new atomic code, or converted to UPF format
     Using radial grid of  729 points,  4 beta functions with:
                l(1) =   0
                l(2) =   0
                l(3) =   1
                l(4) =   1
     Q(r) pseudized with  8 coefficients,  rinner =    0.800   0.800   0.800

     atomic species   valence    mass     pseudopotential
        O1             6.00    15.99900     O ( 1.00)
        Ti1           12.00    47.86700     Ti( 1.00)
        H1             1.00     1.00800     H ( 1.00)
        N1             5.00    14.00700     N ( 1.00)

     No symmetry found

   Cartesian axes

     site n.     atom                  positions (alat units)
         1           O1  tau(   1) = (   0.0007354   0.0005023  10.5931620  )
         2           O1  tau(   2) = (   3.2892937   8.9423630  13.8814308  )
         3           O1  tau(   3) = (   6.5785080   0.0907754  17.2996570  )
         4           O1  tau(   4) = (   0.0006271   0.0005054   7.9858123  )
         5           O1  tau(   5) = (   3.2892617   8.9274694  11.1867540  )
         6           O1  tau(   6) = (   0.0001068   0.0384811  14.5856928  )
         7           O1  tau(   7) = (   1.9868534   1.4903216   9.2879459  )
         8           O1  tau(   8) = (   5.2392332   1.6199063  12.5840971  )
         9           O1  tau(   9) = (   2.0046145   1.5651943  16.0652335  )
        10           Ti1 tau(  10) = (   0.0007404   1.4906270   9.2895810  )
        11           Ti1 tau(  11) = (   3.2903033   1.3475644  12.4784176  )
        12           Ti1 tau(  12) = (   0.0002083   1.2954417  15.7753146  )
        13           O1  tau(  13) = (   4.5942328   1.4918067   9.2879030  )
        14           O1  tau(  14) = (   1.3408909   1.6195689  12.5841697  )
        15           O1  tau(  15) = (   4.5747373   1.5650701  16.0650860  )
        16           Ti1 tau(  16) = (   3.2902859   2.9801868   9.2893338  )
        17           Ti1 tau(  17) = (   0.0003213   2.8429885  12.4272127  )
        18           Ti1 tau(  18) = (   3.2894782   2.8703589  15.6911549  )
        19           O1  tau(  19) = (   0.0003479   2.9813005  10.5931620  )
        20           O1  tau(  20) = (   3.2897922   2.9583395  13.9032781  )
        21           O1  tau(  21) = (   0.0002396   2.9813036   7.9858123  )
        22           O1  tau(  22) = (   3.2900450   2.9730570  11.1907869  )
        23           O1  tau(  23) = (   0.0001206   2.9807552  14.9070210  )
        24           O1  tau(  24) = (   1.9864658   4.4711199   9.2879459  )
        25           O1  tau(  25) = (   5.2482068   4.5640541  12.6028892  )
        26           O1  tau(  26) = (   2.0118887   4.5193519  16.0312246  )
        27           Ti1 tau(  27) = (   0.0003529   4.4714252   9.2895810  )
        28           Ti1 tau(  28) = (   3.2901403   4.3402809  12.5217819  )
        29           Ti1 tau(  29) = (   0.0009811   4.3515161  16.1888847  )
        30           O1  tau(  30) = (   4.5938453   4.4726049   9.2879030  )
        31           O1  tau(  31) = (   1.3314901   4.5639303  12.6028828  )
        32           O1  tau(  32) = (   4.5682806   4.5188618  16.0312494  )
        33           Ti1 tau(  33) = (   3.2898983   5.9609850   9.2893338  )
        34           Ti1 tau(  34) = (   0.0001002   5.8006911  12.4939615  )
        35           Ti1 tau(  35) = (   3.2910898   5.8128663  15.8108673  )
        36           O1  tau(  36) = (  -0.0000397   5.9620987  10.5931620  )
        37           O1  tau(  37) = (   3.2898758   5.9691391  13.9384534  )
        38           O1  tau(  38) = (   0.0001572   5.9906873  17.2924393  )
        39           O1  tau(  39) = (  -0.0001480   5.9621018   7.9858123  )
        40           O1  tau(  40) = (   3.2897271   5.9334558  11.2049738  )
        41           O1  tau(  41) = (   0.0000685   5.9641935  14.6703060  )
        42           O1  tau(  42) = (   1.9860782   7.4519181   9.2879459  )
        43           O1  tau(  43) = (   5.2398882   7.5535610  12.5750285  )
        44           O1  tau(  44) = (   1.9879998   7.5809304  16.0172394  )
        45           Ti1 tau(  45) = (  -0.0000347   7.4522234   9.2895810  )
        46           Ti1 tau(  46) = (   3.2896426   7.2731609  12.5447809  )
        47           Ti1 tau(  47) = (   0.0002275   7.1890881  15.9781391  )
        48           O1  tau(  48) = (   4.5934577   7.4534031   9.2879030  )
        49           O1  tau(  49) = (   1.3388943   7.5534522  12.5751898  )
        50           O1  tau(  50) = (   4.5903976   7.5792304  16.0166626  )
        51           Ti1 tau(  51) = (   3.2895107   8.9417832   9.2893338  )
        52           Ti1 tau(  52) = (  -0.0003648   8.7758640  12.4444508  )
        53           Ti1 tau(  53) = (   3.2897763   8.8353469  15.6829021  )
        54           H1  tau(  54) = (   0.0028024   0.0378429  18.2586218  )
        55           N1  tau(  55) = (   0.0000016   3.3024973  17.8430138  )
        56           H1  tau(  56) = (   6.5772996   2.3364033  18.1430564  )
        57           H1  tau(  57) = (   6.5785254   3.8921159  18.6668881  )
        58           N1  tau(  58) = (   3.2892544   5.9906839  18.1401779  )
        59           H1  tau(  59) = (   3.2890604   5.0659402  18.5678254  )
        60           H1  tau(  60) = (   2.4549486   6.4784715  18.4500629  )
        61           H1  tau(  61) = (   4.1227990   6.4789769  18.4516084  )

     number of k points=    10  Fermi-Dirac smearing, width (Ry)=  0.0073
                       cart. coord. in units 2pi/alat
        k(    1) = (   0.0000000   0.0000000   0.0000000), wk =   0.1250000
        k(    2) = (   0.0000000   0.0279567   0.0000000), wk =   0.2500000
        k(    3) = (   0.0000000  -0.0559134   0.0000000), wk =   0.1250000
        k(    4) = (   0.0379955   0.0000049   0.0000000), wk =   0.2500000
        k(    5) = (   0.0379955   0.0279617   0.0000000), wk =   0.2500000
        k(    6) = (   0.0379955  -0.0559085   0.0000000), wk =   0.2500000
        k(    7) = (   0.0379955  -0.0279518   0.0000000), wk =   0.2500000
        k(    8) = (  -0.0759910  -0.0000099   0.0000000), wk =   0.1250000
        k(    9) = (  -0.0759910   0.0279468   0.0000000), wk =   0.2500000
        k(   10) = (  -0.0759910  -0.0559233   0.0000000), wk =   0.1250000

     Initial potential from superposition of free atoms

     starting charge  423.99908, renormalised to  442.00000

     negative rho (up, down):  3.653E-02 0.000E+00

     %%%%%%%%%%%%%%%%%%%%%%%%%%%%%%%%%%%%%%%%%%%%%%%%%%%%%%%%%%%%%%%%%%%%%%%%
     %                                                                      %
     % You are using vdW-DF, which was implemented by the Thonhauser group. %
     % Please cite the following two papers that made this development      %
     % possible and the two reviews that describe the various versions:     %
     %                                                                      %
     %   T. Thonhauser et al., PRL 115, 136402 (2015).                      %
     %   T. Thonhauser et al., PRB 76, 125112 (2007).                       %
     %   K. Berland et al., Rep. Prog. Phys. 78, 066501 (2015).             %
     %   D.C. Langreth et al., J. Phys.: Condens. Matter 21, 084203 (2009). %
     %                                                                      %
     %                                                                      %
     % If you are calculating the stress with vdW-DF, please also cite:     %
     %                                                                      %
     %   R. Sabatini et al., J. Phys.: Condens. Matter 24, 424209 (2012).   %
     %                                                                      %
     %%%%%%%%%%%%%%%%%%%%%%%%%%%%%%%%%%%%%%%%%%%%%%%%%%%%%%%%%%%%%%%%%%%%%%%%

     Adding external electric field

     Computed dipole along edir(3) :
        Dipole               -6.3682 Ry au,        -16.1864 Debye
        Dipole field         -0.0080 Ry au,

        Potential amp.        0.7427 Ry
        Total length         46.3494 bohr

     Starting wfcs are  334 atomic wfcs
  @ DRIVER MODE: Message from server: STATUS
  @ DRIVER MODE: Message from server: POSDATA
  @ DRIVER MODE: Reading and sharing cell
  @ DRIVER MODE: Reading and sharing positions
  @ DRIVER MODE: Received positions

     Self-consistent Calculation

     iteration #  1     ecut=    29.40 Ry     beta= 0.05
     Davidson diagonalization with overlap
     c_bands:  2 eigenvalues not converged
     c_bands:  3 eigenvalues not converged
     c_bands:  3 eigenvalues not converged
     c_bands:  2 eigenvalues not converged
     c_bands:  1 eigenvalues not converged
     c_bands:  4 eigenvalues not converged
     c_bands:  1 eigenvalues not converged
     c_bands:  1 eigenvalues not converged
     c_bands:  5 eigenvalues not converged
     ethr =  1.00E-05,  avg # of iterations = 20.0

[...]

     total energy              =   -3277.30459101 Ry
     estimated scf accuracy    <     250.09101909 Ry

     iteration #  2     ecut=    29.40 Ry     beta= 0.05
     Davidson diagonalization with overlap
     ethr =  1.00E-02,  avg # of iterations = 15.7

[...]

     iteration # 54     ecut=    29.40 Ry     beta= 0.05
     Davidson diagonalization with overlap
     ethr =  2.54E-11,  avg # of iterations =  2.4

[...]

     total energy              =   -3295.81877478 Ry
     estimated scf accuracy    <       0.00000007 Ry

     iteration # 55     ecut=    29.40 Ry     beta= 0.05
     Davidson diagonalization with overlap
     c_bands:  1 eigenvalues not converged
     ethr =  1.66E-11,  avg # of iterations = 13.7

     negative rho (up, down):  3.513E-02 0.000E+00

     Adding external electric field

     Computed dipole along edir(3) :
        Dipole                2.0114 Ry au,          5.1125 Debye
        Dipole field          0.0025 Ry au,

        Potential amp.       -0.2346 Ry
        Total length         46.3494 bohr

     End of self-consistent calculation

          k = 0.0000 0.0000 0.0000 ( 26871 PWs)   bands (ev):

   -57.4444 -57.4213 -57.4128 -57.4056 -57.3623 -57.3514 -57.3109 -57.3058
   -57.2913 -57.2619 -57.2414 -57.2330 -57.2241 -57.1892 -57.0098 -56.5097
   -56.4829 -56.4664 -33.8421 -33.8307 -33.8238 -33.8194 -33.8102 -33.7776
   -33.7667 -33.7601 -33.7514 -33.7373 -33.7334 -33.7131 -33.6920 -33.6790
   -33.6515 -33.6483 -33.6362 -33.6329 -33.6126 -33.6111 -33.5905 -33.5792
   -33.5560 -33.5529 -33.5517 -33.5423 -33.5387 -33.5361 -33.5341 -33.5250
   -33.5165 -33.5039 -33.4887 -33.4732 -33.4656 -33.4544 -33.4397 -33.4376
   -33.4332 -33.4307 -33.4022 -33.3788 -33.3395 -33.3039 -33.2313 -32.8291
   -32.8219 -32.8082 -32.8011 -32.7869 -32.7341 -32.6752 -32.6552 -32.5302
   -19.1392 -18.2995 -17.9716 -17.7558 -17.7088 -17.6861 -17.6043 -17.5403
   -17.5316 -17.4591 -17.3833 -17.3034 -17.2748 -17.2704 -17.2361 -17.2082
   -17.1891 -17.1649 -17.1638 -17.1236 -17.1127 -17.0934 -17.0665 -17.0189
   -16.9458 -16.9333 -16.8989 -16.8915 -16.8860 -16.8859 -16.7421 -16.6643
   -16.5834 -15.2661 -14.9697 -14.9133 -14.9060  -7.7066  -7.6085  -7.2327
    -6.7459  -5.6233  -5.4627  -5.3776  -5.2755  -4.9368  -4.8707  -4.8493
    -4.8358  -4.7905  -4.7518  -4.7506  -4.6930  -4.6837  -4.6653  -4.5845
    -4.5708  -4.5481  -4.4965  -4.4744  -4.4241  -4.4233  -4.3736  -4.3193
    -4.2688  -4.2603  -4.2593  -4.2334  -4.2326  -4.2100  -4.2057  -4.0931
    -4.0875  -4.0127  -3.9048  -3.8971  -3.8479  -3.7754  -3.7662  -3.7398
    -3.7121  -3.6510  -3.6033  -3.5498  -3.5421  -3.5288  -3.4652  -3.4405
    -3.3612  -3.2552  -3.2434  -3.2107  -3.1658  -3.1521  -3.1052  -3.0746
    -3.0019  -2.9266  -2.8475  -2.8208  -2.7168  -2.6707  -2.6513  -2.6185
    -2.6109  -2.5376  -2.5343  -2.5083  -2.3562  -2.2535  -2.2429  -2.2235
    -2.2124  -2.1851  -2.1816  -2.1540  -2.0890  -2.0429  -2.0352  -2.0191
    -2.0006  -1.9873  -1.8979  -1.8388  -1.8116  -1.7828  -1.7668  -1.6729
    -1.6343  -1.5985  -1.5875  -1.4828  -1.4279  -1.3214  -1.3166  -1.3026
    -1.2317  -1.1854  -1.1133  -0.7962  -0.6266  -0.5547  -0.2677  -0.2096
    -0.2015   0.0584   0.0707   0.1989   1.5444   1.7755   1.9761   1.9784
     1.9940   2.0648   2.1326   2.1457   2.2104   2.2630   2.2787

[...]

          k = 0.0380-0.0280 0.0000 ( 26873 PWs)   bands (ev):

[...]

          k =-0.0760-0.0000 0.0000 ( 26902 PWs)   bands (ev):

[...]

          k =-0.0760-0.0559 0.0000 ( 26868 PWs)   bands (ev):

   -57.4389 -57.4318 -57.4078 -57.4049 -57.3631 -57.3516 -57.3099 -57.3065
   -57.2904 -57.2604 -57.2441 -57.2349 -57.2224 -57.1886 -57.0097 -56.5071
   -56.4882 -56.4637 -33.9210 -33.9032 -33.8529 -33.8217 -33.8056 -33.7816
   -33.7727 -33.7641 -33.7225 -33.7069 -33.6928 -33.6628 -33.6400 -33.6359
   -33.6318 -33.6112 -33.5978 -33.5973 -33.5961 -33.5880 -33.5860 -33.5800
   -33.5684 -33.5598 -33.5555 -33.5515 -33.5348 -33.5283 -33.5220 -33.5163
   -33.5154 -33.5123 -33.5034 -33.5005 -33.4935 -33.4857 -33.4552 -33.4544
   -33.4460 -33.4341 -33.4325 -33.3936 -33.3605 -33.3034 -33.2347 -32.9105
   -32.8247 -32.8071 -32.7842 -32.7222 -32.7009 -32.6453 -32.6355 -32.6166
   -19.1327 -17.9930 -17.9214 -17.6788 -17.6260 -17.6133 -17.5982 -17.5618
   -17.5064 -17.4762 -17.4343 -17.4097 -17.3715 -17.3251 -17.3126 -17.2381
   -17.2334 -17.2296 -17.1634 -17.1614 -17.1439 -17.0990 -17.0856 -17.0632
   -17.0137 -16.9731 -16.9592 -16.8802 -16.8550 -16.8147 -16.7198 -16.6512
   -16.6167 -15.2636 -14.9710 -14.9606 -14.8478  -7.6886  -7.6066  -7.2235
    -6.7486  -5.2451  -5.2138  -5.1792  -5.1504  -5.0453  -4.8601  -4.7832
    -4.7506  -4.7466  -4.6816  -4.6615  -4.6549  -4.6106  -4.5983  -4.5735
    -4.5505  -4.5207  -4.4863  -4.4782  -4.4428  -4.4104  -4.3952  -4.3737
    -4.3559  -4.3507  -4.3367  -4.2484  -4.1862  -4.1731  -4.1167  -4.0886
    -4.0630  -4.0202  -4.0069  -3.9662  -3.9386  -3.7113  -3.6238  -3.6083
    -3.6072  -3.5810  -3.5449  -3.4890  -3.4309  -3.4024  -3.3689  -3.2430
    -3.2038  -3.1901  -3.1854  -3.1504  -3.0668  -3.0411  -3.0114  -2.9788
    -2.9634  -2.9140  -2.9012  -2.8607  -2.8205  -2.7510  -2.7050  -2.6678
    -2.6356  -2.6023  -2.5912  -2.5648  -2.5354  -2.5312  -2.5043  -2.4849
    -2.4135  -2.4108  -2.3718  -2.3151  -2.2420  -2.2084  -2.1904  -2.1116
    -2.0333  -1.9821  -1.9587  -1.9384  -1.8606  -1.7436  -1.7177  -1.7089
    -1.6753  -1.6269  -1.5759  -1.5424  -1.4922  -1.4020  -1.2695  -1.2492
    -1.1810  -1.0850  -1.0637  -1.0434  -0.8225  -0.7317  -0.4184  -0.1596
    -0.1148  -0.0956   0.0634   0.0710   1.7050   1.7720   1.8344   1.8677
     1.8841   1.9154   1.9181   1.9872   2.0427   2.1118   2.1301

     the Fermi energy is     1.6439 ev

!    total energy              =   -3295.81883996 Ry
     estimated scf accuracy    <       0.00000005 Ry
     smearing contrib. (-TS)   =      -0.03295192 Ry
     internal energy E=F+TS    =   -3295.78588804 Ry

     The total energy is F=E-TS. E is the sum of the following terms:
     one-electron contribution =  -34382.31529087 Ry
     hartree contribution      =   17260.47156723 Ry
     xc contribution           =    -543.89350976 Ry
     ewald contribution        =   14369.94625534 Ry
     electric field correction =       0.00509003 Ry

     convergence has been achieved in  55 iterations

     Forces acting on atoms (cartesian axes, Ry/au):

     atom    1 type  1   force =     0.00000547    0.00790956    0.05043831
     atom    2 type  1   force =    -0.00000956    0.00035218   -0.00966953
     atom    3 type  1   force =    -0.00002821   -0.00471666   -0.00053402
     atom    4 type  1   force =     0.00005770    0.00282081    0.10763080
     atom    5 type  1   force =     0.00000336    0.00070210    0.00922840
     atom    6 type  1   force =    -0.00000559   -0.00162624    0.00016126
     atom    7 type  1   force =     0.06465040    0.00007554   -0.02899418
     atom    8 type  1   force =     0.00390325   -0.02786784    0.00323614
     atom    9 type  1   force =     0.00825901   -0.01834863    0.00241736
     atom   10 type  2   force =    -0.00005018   -0.00797723   -0.19371087
     atom   11 type  2   force =    -0.00002414    0.02062677   -0.00635691
     atom   12 type  2   force =    -0.00005182    0.02208275   -0.00303627
     atom   13 type  1   force =    -0.06474463   -0.00037968   -0.02894350
     atom   14 type  1   force =    -0.00390159   -0.02784831    0.00323082
     atom   15 type  1   force =    -0.00824849   -0.01833311    0.00240452
     atom   16 type  2   force =     0.00010125    0.00059181    0.06675105
     atom   17 type  2   force =     0.00002174    0.03325712    0.00614600
     atom   18 type  2   force =     0.00000779    0.02097388    0.00192462
     atom   19 type  1   force =     0.00000519    0.00225323    0.05628966
     atom   20 type  1   force =    -0.00000522   -0.00132845   -0.00687164
     atom   21 type  1   force =     0.00005934   -0.00139485    0.10887537
     atom   22 type  1   force =     0.00000816   -0.00023853    0.00987084
     atom   23 type  1   force =     0.00000869   -0.00483029    0.00117315
     atom   24 type  1   force =     0.06620944   -0.00050881   -0.02949586
     atom   25 type  1   force =     0.00418909   -0.03008944    0.00218915
     atom   26 type  1   force =     0.00993272   -0.02414957    0.00214493
     atom   27 type  2   force =    -0.00006858    0.01376601   -0.18654287
     atom   28 type  2   force =    -0.00001873    0.02334833   -0.00580285
     atom   29 type  2   force =    -0.00004526    0.01734492   -0.00914814
     atom   30 type  1   force =    -0.06631675   -0.00096046   -0.02945159
     atom   31 type  1   force =    -0.00418371   -0.03006049    0.00218984
     atom   32 type  1   force =    -0.00987023   -0.02412579    0.00213654
     atom   33 type  2   force =     0.00009419   -0.00141436    0.06833741
     atom   34 type  2   force =     0.00002378    0.03782794    0.00402218
     atom   35 type  2   force =    -0.00002428    0.03552277    0.00782246
     atom   36 type  1   force =     0.00001552    0.00056744    0.06524493
     atom   37 type  1   force =    -0.00001033    0.00227949   -0.01098466
     atom   38 type  1   force =    -0.00000277   -0.00084526    0.00175014
     atom   39 type  1   force =     0.00005803   -0.00143438    0.10682123
     atom   40 type  1   force =     0.00000138   -0.00039624    0.00777347
     atom   41 type  1   force =    -0.00000078   -0.00028736    0.00577521
     atom   42 type  1   force =     0.06733709   -0.00097010   -0.02906546
     atom   43 type  1   force =     0.00312325   -0.02830176    0.00237077
     atom   44 type  1   force =     0.00715711   -0.02154361    0.00459688
     atom   45 type  2   force =    -0.00006903   -0.00850075   -0.18086829
     atom   46 type  2   force =    -0.00000544    0.01744334   -0.00234866
     atom   47 type  2   force =    -0.00004574    0.02039322   -0.00639708
     atom   48 type  1   force =    -0.06743271   -0.00141681   -0.02902059
     atom   49 type  1   force =    -0.00309138   -0.02830155    0.00236869
     atom   50 type  1   force =    -0.00712940   -0.02150467    0.00456642
     atom   51 type  2   force =     0.00012289   -0.00304775    0.06675454
     atom   52 type  2   force =     0.00000791    0.03510508    0.00727686
     atom   53 type  2   force =    -0.00002134    0.02421170    0.00297766
     atom   54 type  3   force =     0.00011013   -0.00017774    0.00056673
     atom   55 type  4   force =    -0.00001566   -0.00015101    0.00096621
     atom   56 type  3   force =    -0.00003548    0.00070848    0.00034062
     atom   57 type  3   force =     0.00000299    0.00052815    0.00077804
     atom   58 type  4   force =     0.00012527   -0.00552911    0.00203903
     atom   59 type  3   force =    -0.00000164    0.00542022   -0.00339996
     atom   60 type  3   force =    -0.00059191    0.00128304   -0.00045245
     atom   61 type  3   force =     0.00044840    0.00121094   -0.00049286

     Total force =     0.461691     Total SCF correction =     0.000425
  @ DRIVER MODE: Message from server: STATUS
  @ DRIVER MODE: Message from server: GETFORCE
  @ DRIVER MODE: Returning v,forces,stress,ensemble

     Writing output data file ./calc.save/
  @ DRIVER MODE: Message from server: EXIT
  @ DRIVE MODE: Exiting

     General routines

     Parallel routines

   This run was terminated on:   6:12:35  19Oct2021

   JOB DONE.