     Program PWSCF v.6.7GPU starts on 19Oct2021 at  3: 5:34

     R & G space division:  proc/nbgrp/npool/nimage =       8
     Reading input from /storage/home/hcoda1/3/ntian30/research/carbon/CxH_vib/Thiel_calc/ads_slab/NH2NH2HH_perslab/out_0032/pw.inp
Warning: card &CELL ignored
Warning: card   CELL_DYNAMICS='IPI', ignored
Warning: card / ignored

     Current dimensions of program PWSCF are:
     Max number of different atomic species (ntypx) = 10
     Max number of k-points (npk) =  40000
     Max angular momentum in pseudopotentials (lmaxx) =  3
     Presently no symmetry can be used with electric field

     Message from routine cell_base_init:
     DEPRECATED: use true lattice parameter, not A to a.u. conversion factor

     IMPORTANT: XC functional enforced from input :
     Exchange-correlation= BEEF-VDW
                           (   1   4  43  14   2   0   0)
     Any further DFT definition will be discarded
     Please, verify this is what you really want

  @ DRIVER MODE: Connecting to
 qe_1139763_3255137.sched-torque.pace.gatech.edu1rv7gd9e_scratch
  using UNIX socket
  @ DRIVER MODE: Message from server: STATUS
  @ DRIVER MODE: Message from server: INIT
  @ DRIVER MODE: Receiving replica           0          -1
  @ DRIVER MODE: Receiving encoded integer          25
  @ DRIVER MODE:  SCF:  T  FORCE:  T  STRESS:  F  VC:  F  ENSEMBLE:  F
  @ DRIVER MODE:  SCF:  T  FORCE:  T  STRESS:  F  VC:  F  ENSEMBLE:  F

     Using Slab Decomposition

     bravais-lattice index     =            0
     lattice parameter (alat)  =       1.8897  a.u.
     unit-cell volume          =    9988.4706 (a.u.)^3
     number of atoms/cell      =           61
     number of atomic types    =            4
     number of electrons       =       442.00
     number of Kohn-Sham states=          231
     kinetic-energy cutoff     =      29.3995  Ry
     charge density cutoff     =     293.9946  Ry
     scf convergence threshold =      7.3E-08
     mixing beta               =       0.0500
     number of iterations used =            8  plain     mixing
     Exchange-correlation= BEEF-VDW
                           (   1   4  43  14   2   0   0)

     celldm(1)=   1.889726  celldm(2)=   0.000000  celldm(3)=   0.000000
     celldm(4)=   0.000000  celldm(5)=   0.000000  celldm(6)=   0.000000

     crystal axes: (cart. coord. in units of alat)
               a(1) = (   6.579727   0.000000   0.000000 )
               a(2) = (  -0.001163   8.942395   0.000000 )
               a(3) = (   0.000000   0.000000  25.155947 )

     reciprocal axes: (cart. coord. in units 2 pi/alat)
               b(1) = (  0.151982  0.000020  0.000000 )
               b(2) = (  0.000000  0.111827  0.000000 )
               b(3) = (  0.000000  0.000000  0.039752 )

     PseudoPot. # 1 for O  read from file:
     /storage/coda1/p-amedford6/0/shared/rich_project_chbe-medford/medford-share/data/pseudos_module/espresso/nninc/pbe/van/O.UPF
     MD5 check sum: 78c19812648e8988a0fe644b0f25305e
     Pseudo is Ultrasoft, Zval =  6.0
     Generated by new atomic code, or converted to UPF format
     Using radial grid of  737 points,  4 beta functions with:
                l(1) =   0
                l(2) =   0
                l(3) =   1
                l(4) =   1
     Q(r) pseudized with  8 coefficients,  rinner =    0.800   0.800   0.800

     PseudoPot. # 2 for Ti read from file:
     /storage/coda1/p-amedford6/0/shared/rich_project_chbe-medford/medford-share/data/pseudos_module/espresso/nninc/pbe/van/Ti.UPF
     MD5 check sum: 8e4df49b7f0d34bbd5052bf3f5ea0213
     Pseudo is Ultrasoft, Zval = 12.0
     Generated by new atomic code, or converted to UPF format
     Using radial grid of  851 points,  6 beta functions with:
                l(1) =   0
                l(2) =   0
                l(3) =   1
                l(4) =   1
                l(5) =   2
                l(6) =   2
     Q(r) pseudized with  8 coefficients,  rinner =    1.000   1.000   1.000
                                                       1.000   1.000

     PseudoPot. # 3 for N  read from file:
     /storage/coda1/p-amedford6/0/shared/rich_project_chbe-medford/medford-share/data/pseudos_module/espresso/nninc/pbe/van/N.UPF
     MD5 check sum: 90d10febe142ad51ac9d5be1deb811c4
     Pseudo is Ultrasoft, Zval =  5.0
     Generated by new atomic code, or converted to UPF format
     Using radial grid of  729 points,  4 beta functions with:
                l(1) =   0
                l(2) =   0
                l(3) =   1
                l(4) =   1
     Q(r) pseudized with  8 coefficients,  rinner =    0.800   0.800   0.800

     PseudoPot. # 4 for H  read from file:
     /storage/coda1/p-amedford6/0/shared/rich_project_chbe-medford/medford-share/data/pseudos_module/espresso/nninc/pbe/van/H.UPF
     MD5 check sum: b5ee9d7bfd3a09ee7748110bda690ff7
     Pseudo is Ultrasoft, Zval =  1.0
     Generated by new atomic code, or converted to UPF format
     Using radial grid of  615 points,  1 beta functions with:
                l(1) =   0
     Q(r) pseudized with  8 coefficients,  rinner =    0.800

     atomic species   valence    mass     pseudopotential
        O1             6.00    15.99900     O ( 1.00)
        Ti1           12.00    47.86700     Ti( 1.00)
        N1             5.00    14.00700     N ( 1.00)
        H1             1.00     1.00800     H ( 1.00)

     No symmetry found

   Cartesian axes

     site n.     atom                  positions (alat units)
         1           O1  tau(   1) = (   0.0007354   0.0005023  10.5931620  )
         2           O1  tau(   2) = (   3.2456387   0.0208629  13.8623892  )
         3           O1  tau(   3) = (   6.5569189   0.0555649  17.3369326  )
         4           O1  tau(   4) = (   0.0006271   0.0005054   7.9858123  )
         5           O1  tau(   5) = (   3.2933513   8.9300833  11.1812556  )
         6           O1  tau(   6) = (   0.0337597   0.0712708  14.6279364  )
         7           O1  tau(   7) = (   1.9868534   1.4903216   9.2879459  )
         8           O1  tau(   8) = (   5.2215124   1.6184176  12.5791628  )
         9           O1  tau(   9) = (   1.9922958   1.5902288  16.0980526  )
        10           Ti1 tau(  10) = (   0.0007404   1.4906270   9.2895810  )
        11           Ti1 tau(  11) = (   3.2860490   1.3455809  12.4359399  )
        12           Ti1 tau(  12) = (   6.5618936   1.3602716  15.8812525  )
        13           O1  tau(  13) = (   4.5942328   1.4918067   9.2879030  )
        14           O1  tau(  14) = (   1.3307156   1.5887400  12.5381291  )
        15           O1  tau(  15) = (   4.5725103   1.6118788  16.0006659  )
        16           Ti1 tau(  16) = (   3.2902859   2.9801868   9.2893338  )
        17           Ti1 tau(  17) = (   0.0046584   2.8227806  12.4510757  )
        18           Ti1 tau(  18) = (   3.2555632   2.8898243  15.6661830  )
        19           O1  tau(  19) = (   0.0003479   2.9813005  10.5931620  )
        20           O1  tau(  20) = (   3.2279248   2.9553539  13.8813459  )
        21           O1  tau(  21) = (   0.0002396   2.9813036   7.9858123  )
        22           O1  tau(  22) = (   3.2889556   2.9859946  11.1941525  )
        23           O1  tau(  23) = (   0.0559812   2.9852445  14.6488683  )
        24           O1  tau(  24) = (   1.9864658   4.4711199   9.2879459  )
        25           O1  tau(  25) = (   5.2314886   4.5920767  12.6107679  )
        26           O1  tau(  26) = (   1.9969377   4.5324570  16.1535429  )
        27           Ti1 tau(  27) = (   0.0003529   4.4714252   9.2895810  )
        28           Ti1 tau(  28) = (   3.2845268   4.3564118  12.5295435  )
        29           Ti1 tau(  29) = (   6.5676402   4.3565080  15.8255799  )
        30           O1  tau(  30) = (   4.5938453   4.4726049   9.2879030  )
        31           O1  tau(  31) = (   1.3315080   4.5776727  12.5731030  )
        32           O1  tau(  32) = (   4.5871741   4.4544688  15.9274438  )
        33           Ti1 tau(  33) = (   3.2898983   5.9609850   9.2893338  )
        34           Ti1 tau(  34) = (   6.5783773   5.8108302  12.4536689  )
        35           Ti1 tau(  35) = (   3.3162440   5.8110762  16.0333210  )
        36           O1  tau(  36) = (  -0.0000397   5.9620987  10.5931620  )
        37           O1  tau(  37) = (   3.2636778   5.9869953  13.9790019  )
        38           O1  tau(  38) = (   6.4104969   6.0475349  17.2872242  )
        39           O1  tau(  39) = (  -0.0001480   5.9621018   7.9858123  )
        40           O1  tau(  40) = (   3.2905218   5.9516507  11.2202175  )
        41           O1  tau(  41) = (   0.0617018   5.9803669  14.6637187  )
        42           O1  tau(  42) = (   1.9860782   7.4519181   9.2879459  )
        43           O1  tau(  43) = (   5.2407037   7.5572870  12.6049163  )
        44           O1  tau(  44) = (   1.9881273   7.5959696  16.0809372  )
        45           Ti1 tau(  45) = (  -0.0000347   7.4522234   9.2895810  )
        46           Ti1 tau(  46) = (   3.2912638   7.2305267  12.6172466  )
        47           Ti1 tau(  47) = (   0.0232661   7.3094817  15.9177444  )
        48           O1  tau(  48) = (   4.5934577   7.4534031   9.2879030  )
        49           O1  tau(  49) = (   1.3287160   7.5404973  12.5734398  )
        50           O1  tau(  50) = (   4.6507959   7.6754627  15.9163669  )
        51           Ti1 tau(  51) = (   3.2895107   8.9417832   9.2893338  )
        52           Ti1 tau(  52) = (   0.0077981   8.7799231  12.4640552  )
        53           Ti1 tau(  53) = (   3.2910717   8.8534038  15.6608489  )
        54           N1  tau(  54) = (   3.7626148   6.0985185  18.0019073  )
        55           H1  tau(  55) = (   3.4663780   5.3841571  18.6619304  )
        56           H1  tau(  56) = (   3.5565419   6.9988739  18.4208443  )
        57           N1  tau(  57) = (   6.5319303   3.0529623  17.4095181  )
        58           H1  tau(  58) = (   5.7013393   3.0140474  17.9904383  )
        59           H1  tau(  59) = (   0.7703229   3.1006543  18.0203722  )
        60           H1  tau(  60) = (   5.4974376   6.0468821  17.7423635  )
        61           H1  tau(  61) = (   0.7324116   0.0679216  17.9402240  )

     number of k points=    10  Fermi-Dirac smearing, width (Ry)=  0.0073
                       cart. coord. in units 2pi/alat
        k(    1) = (   0.0000000   0.0000000   0.0000000), wk =   0.1250000
        k(    2) = (   0.0000000   0.0279567   0.0000000), wk =   0.2500000
        k(    3) = (   0.0000000  -0.0559134   0.0000000), wk =   0.1250000
        k(    4) = (   0.0379955   0.0000049   0.0000000), wk =   0.2500000
        k(    5) = (   0.0379955   0.0279617   0.0000000), wk =   0.2500000
        k(    6) = (   0.0379955  -0.0559085   0.0000000), wk =   0.2500000
        k(    7) = (   0.0379955  -0.0279518   0.0000000), wk =   0.2500000
        k(    8) = (  -0.0759910  -0.0000099   0.0000000), wk =   0.1250000
        k(    9) = (  -0.0759910   0.0279468   0.0000000), wk =   0.2500000
        k(   10) = (  -0.0759910  -0.0559233   0.0000000), wk =   0.1250000

     Initial potential from superposition of free atoms

     starting charge  423.99908, renormalised to  442.00000

     negative rho (up, down):  3.745E-02 0.000E+00

     %%%%%%%%%%%%%%%%%%%%%%%%%%%%%%%%%%%%%%%%%%%%%%%%%%%%%%%%%%%%%%%%%%%%%%%%
     %                                                                      %
     % You are using vdW-DF, which was implemented by the Thonhauser group. %
     % Please cite the following two papers that made this development      %
     % possible and the two reviews that describe the various versions:     %
     %                                                                      %
     %   T. Thonhauser et al., PRL 115, 136402 (2015).                      %
     %   T. Thonhauser et al., PRB 76, 125112 (2007).                       %
     %   K. Berland et al., Rep. Prog. Phys. 78, 066501 (2015).             %
     %   D.C. Langreth et al., J. Phys.: Condens. Matter 21, 084203 (2009). %
     %                                                                      %
     %                                                                      %
     % If you are calculating the stress with vdW-DF, please also cite:     %
     %                                                                      %
     %   R. Sabatini et al., J. Phys.: Condens. Matter 24, 424209 (2012).   %
     %                                                                      %
     %%%%%%%%%%%%%%%%%%%%%%%%%%%%%%%%%%%%%%%%%%%%%%%%%%%%%%%%%%%%%%%%%%%%%%%%

     Adding external electric field

     Computed dipole along edir(3) :
        Dipole               -5.9687 Ry au,        -15.1708 Debye
        Dipole field         -0.0075 Ry au,

        Potential amp.        0.6961 Ry
        Total length         46.3494 bohr

     Starting wfcs are  334 atomic wfcs
  @ DRIVER MODE: Message from server: STATUS
  @ DRIVER MODE: Message from server: POSDATA
  @ DRIVER MODE: Reading and sharing cell
  @ DRIVER MODE: Reading and sharing positions
  @ DRIVER MODE: Received positions

     Self-consistent Calculation

     iteration #  1     ecut=    29.40 Ry     beta= 0.05
     Davidson diagonalization with overlap
     c_bands:  1 eigenvalues not converged
     c_bands:  3 eigenvalues not converged
     c_bands:  5 eigenvalues not converged
     c_bands:  2 eigenvalues not converged
     c_bands:  4 eigenvalues not converged
     c_bands:  4 eigenvalues not converged
     c_bands:  3 eigenvalues not converged
     c_bands:  2 eigenvalues not converged
     c_bands:  4 eigenvalues not converged
     ethr =  1.00E-05,  avg # of iterations = 21.0

[...]

     total energy              =   -3277.93291851 Ry
     estimated scf accuracy    <     239.64841844 Ry

     iteration #  2     ecut=    29.40 Ry     beta= 0.05
     Davidson diagonalization with overlap
     ethr =  1.00E-02,  avg # of iterations = 15.7

[...]

     iteration # 26     ecut=    29.40 Ry     beta= 0.05
     Davidson diagonalization with overlap
     c_bands:  1 eigenvalues not converged
     ethr =  2.82E-07,  avg # of iterations = 12.5

[...]

     total energy              =   -3295.80729426 Ry
     estimated scf accuracy    <       0.00000011 Ry

     iteration # 44     ecut=    29.40 Ry     beta= 0.05
     Davidson diagonalization with overlap
     ethr =  2.30E-11,  avg # of iterations =  6.5

     negative rho (up, down):  3.606E-02 0.000E+00

     Adding external electric field

     Computed dipole along edir(3) :
        Dipole                1.5093 Ry au,          3.8362 Debye
        Dipole field          0.0019 Ry au,

        Potential amp.       -0.1760 Ry
        Total length         46.3494 bohr

     End of self-consistent calculation

          k = 0.0000 0.0000 0.0000 ( 26871 PWs)   bands (ev):

   -57.7253 -57.6996 -57.6893 -57.6627 -57.6541 -57.6203 -57.6069 -57.5990
   -57.5712 -57.5574 -57.5088 -57.4782 -57.4619 -57.4555 -57.4474 -56.7472
   -56.7230 -56.7185 -34.1069 -34.1038 -34.0950 -34.0861 -34.0736 -34.0572
   -34.0561 -34.0425 -34.0293 -34.0180 -33.9882 -33.9700 -33.9503 -33.9442
   -33.9364 -33.9181 -33.9125 -33.9113 -33.8929 -33.8877 -33.8657 -33.8633
   -33.8432 -33.8336 -33.8295 -33.8234 -33.8125 -33.8106 -33.8047 -33.7953
   -33.7841 -33.7822 -33.7680 -33.7326 -33.7229 -33.7191 -33.7041 -33.7036
   -33.6960 -33.6950 -33.6837 -33.6752 -33.6684 -33.6626 -33.6401 -33.0624
   -33.0613 -33.0568 -33.0453 -33.0411 -32.9732 -32.9112 -32.9059 -32.7730
   -19.3026 -18.7610 -18.5261 -18.2277 -18.0168 -17.9744 -17.9414 -17.8201
   -17.7846 -17.7606 -17.6631 -17.6517 -17.5882 -17.5344 -17.5063 -17.4576
   -17.4397 -17.3790 -17.3651 -17.3567 -17.3514 -17.3412 -17.3310 -17.2655
   -17.2383 -17.2104 -17.1713 -17.1556 -17.1490 -17.1416 -17.1190 -16.8464
   -15.4680 -15.2136 -15.1556 -15.1543 -15.0835  -6.9858  -6.8063  -6.6476
    -6.3423  -5.8605  -5.7866  -5.6377  -5.5138  -5.2214  -5.1916  -5.1422
    -5.1157  -5.0870  -5.0224  -5.0023  -4.9893  -4.9340  -4.9163  -4.8440
    -4.8206  -4.7795  -4.7551  -4.7300  -4.6850  -4.6447  -4.6170  -4.6058
    -4.5749  -4.5677  -4.5110  -4.4875  -4.4581  -4.4525  -4.4353  -4.3271
    -4.2952  -4.2387  -4.1692  -4.0920  -4.0396  -4.0315  -3.9748  -3.9556
    -3.9035  -3.8635  -3.8262  -3.8172  -3.7811  -3.7429  -3.6421  -3.6107
    -3.5876  -3.5225  -3.5003  -3.4318  -3.4141  -3.3809  -3.3384  -3.3335
    -3.2967  -3.1986  -3.1646  -3.0843  -3.0265  -2.9742  -2.9352  -2.8906
    -2.8440  -2.8107  -2.7855  -2.7033  -2.6278  -2.5440  -2.4936  -2.4809
    -2.4690  -2.4185  -2.4116  -2.4088  -2.3523  -2.3260  -2.3153  -2.2777
    -2.2261  -2.2034  -2.1412  -2.0962  -2.0611  -1.9935  -1.9779  -1.8972
    -1.8884  -1.8271  -1.7840  -1.7445  -1.6330  -1.5979  -1.5657  -1.5632
    -1.4444  -1.4081  -1.1439  -1.0049  -0.7871  -0.7541  -0.5006  -0.4518
    -0.4490  -0.1861  -0.1827  -0.0544   1.3217   1.5103   1.6441   1.6995
     1.7044   1.7379   1.8041   1.8905   1.9161   1.9629   1.9946

[...]

          k = 0.0380-0.0280 0.0000 ( 26873 PWs)   bands (ev):

[...]

          k =-0.0760-0.0000 0.0000 ( 26902 PWs)   bands (ev):

[...]

          k =-0.0760-0.0559 0.0000 ( 26868 PWs)   bands (ev):

   -57.7218 -57.7073 -57.6851 -57.6615 -57.6541 -57.6210 -57.6082 -57.5987
   -57.5706 -57.5571 -57.5090 -57.4731 -57.4656 -57.4614 -57.4427 -56.7409
   -56.7356 -56.7121 -34.1943 -34.1572 -34.1541 -34.0949 -34.0607 -34.0530
   -34.0423 -34.0396 -34.0022 -33.9683 -33.9344 -33.9206 -33.9153 -33.9139
   -33.9028 -33.9003 -33.8807 -33.8736 -33.8689 -33.8687 -33.8648 -33.8594
   -33.8542 -33.8457 -33.8318 -33.8269 -33.8242 -33.8191 -33.8144 -33.7940
   -33.7933 -33.7709 -33.7641 -33.7567 -33.7509 -33.7327 -33.7257 -33.7210
   -33.7011 -33.7008 -33.6989 -33.6956 -33.6865 -33.6682 -33.6515 -33.1512
   -33.0621 -33.0569 -33.0345 -32.9547 -32.9488 -32.8871 -32.8725 -32.8672
   -19.2890 -18.7352 -18.2724 -18.1356 -17.9641 -17.9224 -17.8484 -17.8353
   -17.8235 -17.7941 -17.7021 -17.6789 -17.6525 -17.5695 -17.5505 -17.5006
   -17.4569 -17.4436 -17.4252 -17.4144 -17.4063 -17.3895 -17.3557 -17.3236
   -17.2910 -17.2390 -17.1772 -17.1582 -17.1098 -17.0950 -17.0644 -16.8802
   -15.4627 -15.2116 -15.2095 -15.0928 -15.0848  -6.9903  -6.8380  -6.6408
    -6.3233  -5.5175  -5.4544  -5.3711  -5.3563  -5.2376  -5.2040  -5.0146
    -5.0046  -4.9897  -4.9578  -4.9259  -4.8879  -4.8629  -4.8388  -4.8253
    -4.8116  -4.7901  -4.7642  -4.7517  -4.7355  -4.6919  -4.6447  -4.6385
    -4.6273  -4.6050  -4.5505  -4.5057  -4.4752  -4.4256  -4.4221  -4.3417
    -4.3183  -4.3000  -4.2262  -4.2180  -4.0967  -3.9488  -3.8875  -3.8677
    -3.8435  -3.7961  -3.7859  -3.7324  -3.7108  -3.6932  -3.5568  -3.4737
    -3.4503  -3.4160  -3.3850  -3.3620  -3.3264  -3.2989  -3.2764  -3.2513
    -3.2352  -3.1819  -3.1654  -3.1230  -3.0806  -2.9989  -2.9550  -2.8968
    -2.8742  -2.8557  -2.8374  -2.8336  -2.8132  -2.7804  -2.7513  -2.6944
    -2.6864  -2.6558  -2.5846  -2.5301  -2.5020  -2.4772  -2.4351  -2.4281
    -2.2732  -2.2538  -2.2205  -2.2086  -2.1351  -2.0916  -2.0000  -1.9735
    -1.9508  -1.8796  -1.8077  -1.7644  -1.7079  -1.5115  -1.5027  -1.3837
    -1.3469  -1.2980  -1.2723  -1.2286  -1.0697  -0.7351  -0.6631  -0.3799
    -0.3686  -0.3427  -0.1873  -0.1810   1.4289   1.4525   1.5377   1.5939
     1.6127   1.6504   1.6632   1.7023   1.7228   1.7794   1.9149

     the Fermi energy is     1.3726 ev

!    total energy              =   -3295.80749598 Ry
     estimated scf accuracy    <       0.00000005 Ry
     smearing contrib. (-TS)   =      -0.03571965 Ry
     internal energy E=F+TS    =   -3295.77177633 Ry

     The total energy is F=E-TS. E is the sum of the following terms:
     one-electron contribution =  -34705.68831804 Ry
     hartree contribution      =   17418.75269657 Ry
     xc contribution           =    -543.85880093 Ry
     ewald contribution        =   14535.01978020 Ry
     electric field correction =       0.00286588 Ry

     convergence has been achieved in  44 iterations

     Forces acting on atoms (cartesian axes, Ry/au):

     atom    1 type  1   force =    -0.00168746    0.00376766    0.05471372
     atom    2 type  1   force =     0.00024556   -0.00249775   -0.00842141
     atom    3 type  1   force =     0.00044844   -0.00351959    0.00031583
     atom    4 type  1   force =     0.00004656   -0.00003233    0.10677780
     atom    5 type  1   force =    -0.00020339    0.00067362    0.00659164
     atom    6 type  1   force =     0.00002838   -0.00446796    0.00374350
     atom    7 type  1   force =     0.06649177    0.00079258   -0.02966443
     atom    8 type  1   force =     0.00659343   -0.02713137    0.00194111
     atom    9 type  1   force =     0.00664823   -0.02256222    0.00513465
     atom   10 type  2   force =    -0.00012104   -0.00451462   -0.18344892
     atom   11 type  2   force =     0.00067000    0.02086943   -0.00413789
     atom   12 type  2   force =    -0.00178301    0.02773271   -0.00658300
     atom   13 type  1   force =    -0.06655051    0.00044183   -0.02981193
     atom   14 type  1   force =    -0.00433965   -0.02770463    0.00252667
     atom   15 type  1   force =    -0.00657047   -0.02334336    0.00506604
     atom   16 type  2   force =     0.00008684    0.00068991    0.06699150
     atom   17 type  2   force =    -0.00237499    0.03350351    0.00352334
     atom   18 type  2   force =     0.00130405    0.02457717   -0.00372483
     atom   19 type  1   force =    -0.00169867    0.00674835    0.05326586
     atom   20 type  1   force =     0.00023669   -0.00116290   -0.00660745
     atom   21 type  1   force =     0.00003499    0.00109561    0.10724418
     atom   22 type  1   force =    -0.00025347   -0.00198391    0.00723887
     atom   23 type  1   force =     0.00073307   -0.00585775    0.00413234
     atom   24 type  1   force =     0.06752448    0.00138001   -0.02906904
     atom   25 type  1   force =     0.00527763   -0.03015691    0.00244087
     atom   26 type  1   force =     0.00681121   -0.02608592   -0.00416136
     atom   27 type  2   force =     0.00011531   -0.00121280   -0.18672380
     atom   28 type  2   force =     0.00007628    0.02386141   -0.00247749
     atom   29 type  2   force =    -0.00113697    0.02209665    0.00091649
     atom   30 type  1   force =    -0.06762559    0.00087648   -0.02892057
     atom   31 type  1   force =    -0.00537331   -0.02961749    0.00278428
     atom   32 type  1   force =    -0.00428404   -0.02250775    0.00262528
     atom   33 type  2   force =    -0.00005256    0.00130761    0.07478153
     atom   34 type  2   force =     0.00093107    0.03692552    0.00407488
     atom   35 type  2   force =    -0.00218235    0.03479793    0.00497410
     atom   36 type  1   force =    -0.00186586    0.00288072    0.05589211
     atom   37 type  1   force =     0.00132603    0.00402202   -0.01135058
     atom   38 type  1   force =     0.00014605   -0.00402904    0.00417554
     atom   39 type  1   force =     0.00002248   -0.00063565    0.10725319
     atom   40 type  1   force =     0.00015597   -0.00140748    0.00717141
     atom   41 type  1   force =    -0.00025497   -0.00394277    0.00183626
     atom   42 type  1   force =     0.06785673   -0.00221287   -0.02970677
     atom   43 type  1   force =     0.00369278   -0.02635925    0.00152093
     atom   44 type  1   force =     0.01002775   -0.01798427    0.00266857
     atom   45 type  2   force =     0.00002731    0.00217850   -0.18331369
     atom   46 type  2   force =    -0.00023385    0.01478517    0.00205517
     atom   47 type  2   force =     0.00297223    0.02644958   -0.00876983
     atom   48 type  1   force =    -0.06792419   -0.00284174   -0.02985901
     atom   49 type  1   force =    -0.00376015   -0.02549916    0.00182391
     atom   50 type  1   force =    -0.00794356   -0.02365856    0.00524256
     atom   51 type  2   force =     0.00045518   -0.00348883    0.06842601
     atom   52 type  2   force =    -0.00009848    0.03117761    0.00595695
     atom   53 type  2   force =    -0.00210554    0.02590750   -0.00056685
     atom   54 type  3   force =     0.00071768   -0.00196624   -0.00088173
     atom   55 type  4   force =    -0.00072740    0.00040163   -0.00050493
     atom   56 type  4   force =     0.00028339    0.00087672    0.00127462
     atom   57 type  3   force =     0.01165063   -0.00215982    0.00563587
     atom   58 type  4   force =     0.00135368    0.00108205    0.00079914
     atom   59 type  4   force =    -0.01120653   -0.00032642   -0.00604325
     atom   60 type  4   force =    -0.00137769    0.00008440    0.00010165
     atom   61 type  4   force =    -0.00125617   -0.00111254    0.00111041

     Total force =     0.459897     Total SCF correction =     0.000741
  @ DRIVER MODE: Message from server: STATUS
  @ DRIVER MODE: Message from server: GETFORCE
  @ DRIVER MODE: Returning v,forces,stress,ensemble

     Writing output data file ./calc.save/
  @ DRIVER MODE: Message from server: EXIT
  @ DRIVE MODE: Exiting

     General routines

     Parallel routines

   This run was terminated on:   3:29:38  19Oct2021

   JOB DONE.