     Program PWSCF v.6.7GPU starts on 16Sep2021 at  7: 4: 0

     R & G space division:  proc/nbgrp/npool/nimage =      10
     Reading input from /storage/home/hcoda1/3/ntian30/research/carbon/CxH_vib/H2O_calc/ads_slab/CHNHHH2O_a/out_0048/pw.inp
Warning: card &CELL ignored
Warning: card   CELL_DYNAMICS='IPI', ignored
Warning: card / ignored

     Current dimensions of program PWSCF are:
     Max number of different atomic species (ntypx) = 10
     Max number of k-points (npk) =  40000
     Max angular momentum in pseudopotentials (lmaxx) =  3
     Presently no symmetry can be used with electric field

     Message from routine cell_base_init:
     DEPRECATED: use true lattice parameter, not A to a.u. conversion factor

     IMPORTANT: XC functional enforced from input :
     Exchange-correlation= BEEF-VDW
                           (   1   4  43  14   2   0   0)
     Any further DFT definition will be discarded
     Please, verify this is what you really want

  @ DRIVER MODE: Connecting to
 qe_1139763_2852629.sched-torque.pace.gatech.edudwj392n0_scratch
  using UNIX socket
  @ DRIVER MODE: Message from server: STATUS
  @ DRIVER MODE: Message from server: INIT
  @ DRIVER MODE: Receiving replica           0          -1
  @ DRIVER MODE: Receiving encoded integer          25
  @ DRIVER MODE:  SCF:  T  FORCE:  T  STRESS:  F  VC:  F  ENSEMBLE:  F
  @ DRIVER MODE:  SCF:  T  FORCE:  T  STRESS:  F  VC:  F  ENSEMBLE:  F

     Using Slab Decomposition

     bravais-lattice index     =            0
     lattice parameter (alat)  =       1.8897  a.u.
     unit-cell volume          =    6658.9804 (a.u.)^3
     number of atoms/cell      =           55
     number of atomic types    =            5
     number of electrons       =       398.00
     number of Kohn-Sham states=          209
     kinetic-energy cutoff     =      29.3995  Ry
     charge density cutoff     =     293.9946  Ry
     scf convergence threshold =      7.3E-08
     mixing beta               =       0.0500
     number of iterations used =            8  plain     mixing
     Exchange-correlation= BEEF-VDW
                           (   1   4  43  14   2   0   0)

     celldm(1)=   1.889726  celldm(2)=   0.000000  celldm(3)=   0.000000
     celldm(4)=   0.000000  celldm(5)=   0.000000  celldm(6)=   0.000000

     crystal axes: (cart. coord. in units of alat)
               a(1) = (   6.579727   0.000000   0.000000 )
               a(2) = (  -0.000775   5.961596   0.000000 )
               a(3) = (   0.000000   0.000000  25.155947 )

     reciprocal axes: (cart. coord. in units 2 pi/alat)
               b(1) = (  0.151982  0.000020  0.000000 )
               b(2) = (  0.000000  0.167740  0.000000 )
               b(3) = (  0.000000  0.000000  0.039752 )

     PseudoPot. # 1 for Ti read from file:
     /storage/coda1/p-amedford6/0/shared/rich_project_chbe-medford/medford-share/data/pseudos_module/espresso/nninc/pbe/van/Ti.UPF
     MD5 check sum: 8e4df49b7f0d34bbd5052bf3f5ea0213
     Pseudo is Ultrasoft, Zval = 12.0
     Generated by new atomic code, or converted to UPF format
     Using radial grid of  851 points,  6 beta functions with:
                l(1) =   0
                l(2) =   0
                l(3) =   1
                l(4) =   1
                l(5) =   2
                l(6) =   2
     Q(r) pseudized with  8 coefficients,  rinner =    1.000   1.000   1.000
                                                       1.000   1.000

     PseudoPot. # 2 for O  read from file:
     /storage/coda1/p-amedford6/0/shared/rich_project_chbe-medford/medford-share/data/pseudos_module/espresso/nninc/pbe/van/O.UPF
     MD5 check sum: 78c19812648e8988a0fe644b0f25305e
     Pseudo is Ultrasoft, Zval =  6.0
     Generated by new atomic code, or converted to UPF format
     Using radial grid of  737 points,  4 beta functions with:
                l(1) =   0
                l(2) =   0
                l(3) =   1
                l(4) =   1
     Q(r) pseudized with  8 coefficients,  rinner =    0.800   0.800   0.800

     PseudoPot. # 3 for N  read from file:
     /storage/coda1/p-amedford6/0/shared/rich_project_chbe-medford/medford-share/data/pseudos_module/espresso/nninc/pbe/van/N.UPF
     MD5 check sum: 90d10febe142ad51ac9d5be1deb811c4
     Pseudo is Ultrasoft, Zval =  5.0
     Generated by new atomic code, or converted to UPF format
     Using radial grid of  729 points,  4 beta functions with:
                l(1) =   0
                l(2) =   0
                l(3) =   1
                l(4) =   1
     Q(r) pseudized with  8 coefficients,  rinner =    0.800   0.800   0.800

     PseudoPot. # 4 for C  read from file:
     /storage/coda1/p-amedford6/0/shared/rich_project_chbe-medford/medford-share/data/pseudos_module/espresso/nninc/pbe/van/C.UPF
     MD5 check sum: 1a69bf6b8db32088f5b2163dbdb77a27
     Pseudo is Ultrasoft, Zval =  4.0
     Generated by new atomic code, or converted to UPF format
     Using radial grid of  721 points,  4 beta functions with:
                l(1) =   0
                l(2) =   0
                l(3) =   1
                l(4) =   1
     Q(r) pseudized with  8 coefficients,  rinner =    0.800   0.800   0.800

     PseudoPot. # 5 for H  read from file:
     /storage/coda1/p-amedford6/0/shared/rich_project_chbe-medford/medford-share/data/pseudos_module/espresso/nninc/pbe/van/H.UPF
     MD5 check sum: b5ee9d7bfd3a09ee7748110bda690ff7
     Pseudo is Ultrasoft, Zval =  1.0
     Generated by new atomic code, or converted to UPF format
     Using radial grid of  615 points,  1 beta functions with:
                l(1) =   0
     Q(r) pseudized with  8 coefficients,  rinner =    0.800

     atomic species   valence    mass     pseudopotential
        Ti1           12.00    47.86700     Ti( 1.00)
        O1             6.00    15.99900     O ( 1.00)
        N1             5.00    14.00700     N ( 1.00)
        C1             4.00    12.01100     C ( 1.00)
        H1             1.00     1.00800     H ( 1.00)

     No symmetry found

   Cartesian axes

     site n.     atom                  positions (alat units)
         1           Ti1 tau(   1) = (   0.0004258   2.9801865   6.0000000  )
         2           Ti1 tau(   2) = (   3.2906075   1.4906267   6.0002472  )
         3           O1  tau(   3) = (   0.0006271   0.0005054   7.9858123  )
         4           O1  tau(   4) = (   3.2906025   0.0005020   7.3038282  )
         5           O1  tau(   5) = (   4.5942328   1.4918067   9.2879030  )
         6           O1  tau(   6) = (   1.9868534   1.4903216   9.2879459  )
         7           Ti1 tau(   7) = (   3.2907910   2.8959150   9.1758416  )
         8           Ti1 tau(   8) = (   0.0015273   1.4827037   9.2680791  )
         9           O1  tau(   9) = (   3.2943807   5.9438157  11.3430345  )
        10           O1  tau(  10) = (   0.0116148   5.9584955  10.6183126  )
        11           O1  tau(  11) = (   1.2953376   1.4759649  12.6292060  )
        12           O1  tau(  12) = (   5.2846356   1.4785235  12.6176154  )
        13           Ti1 tau(  13) = (   0.0556596   2.9564334  12.6140783  )
        14           Ti1 tau(  14) = (   3.3658323   1.4657407  12.4949608  )
        15           O1  tau(  15) = (   6.5664030   0.0209144  14.6477191  )
        16           O1  tau(  16) = (   3.3113265   5.9542485  13.9698242  )
        17           O1  tau(  17) = (   4.5454210   1.5146250  16.1225105  )
        18           O1  tau(  18) = (   2.0305911   1.5113983  16.0894517  )
        19           Ti1 tau(  19) = (   3.2587399   2.9544808  15.6767922  )
        20           Ti1 tau(  20) = (   6.5654577   1.5458692  15.9193722  )
        21           O1  tau(  21) = (   3.2904802   0.0005063   4.7018136  )
        22           O1  tau(  22) = (   0.0418464   5.8849155  17.2380659  )
        23           O1  tau(  23) = (   1.3043587   1.4918075   6.0039043  )
        24           O1  tau(  24) = (   5.2767064   1.4903225   6.0039473  )
        25           Ti1 tau(  25) = (   0.0000382   5.9609847   6.0000000  )
        26           Ti1 tau(  26) = (   3.2902200   4.4714249   6.0002472  )
        27           O1  tau(  27) = (   0.0002396   2.9813036   7.9858123  )
        28           O1  tau(  28) = (   3.2902150   2.9813002   7.3038282  )
        29           O1  tau(  29) = (   4.5938453   4.4726049   9.2879030  )
        30           O1  tau(  30) = (   1.9864658   4.4711199   9.2879459  )
        31           Ti1 tau(  31) = (   3.2891106   5.8743827   9.1763621  )
        32           Ti1 tau(  32) = (   0.0006254   4.4649316   9.2693709  )
        33           O1  tau(  33) = (   3.2978316   2.9705197  11.3397625  )
        34           O1  tau(  34) = (   0.0092240   2.9805883  10.6323155  )
        35           O1  tau(  35) = (   1.2936985   4.4655287  12.6460247  )
        36           O1  tau(  36) = (   5.2856521   4.4646452  12.6308247  )
        37           Ti1 tau(  37) = (   0.0515089   5.9379728  12.5308627  )
        38           Ti1 tau(  38) = (   3.3654372   4.4547101  12.4935900  )
        39           O1  tau(  39) = (   6.5748852   2.9443291  14.6951209  )
        40           O1  tau(  40) = (   3.2957406   2.9584624  13.8938737  )
        41           O1  tau(  41) = (   4.5486474   4.4154460  16.0876977  )
        42           O1  tau(  42) = (   2.0388008   4.4257786  16.0448984  )
        43           Ti1 tau(  43) = (   3.3137362   5.9209902  15.7922403  )
        44           Ti1 tau(  44) = (   0.0032603   4.6697478  15.9558853  )
        45           O1  tau(  45) = (   3.2900926   2.9813045   4.7018136  )
        46           O1  tau(  46) = (   1.3039711   4.4726057   6.0039043  )
        47           O1  tau(  47) = (   5.2763189   4.4711207   6.0039473  )
        48           N1  tau(  48) = (   5.6270067   3.1633449  18.6203826  )
        49           C1  tau(  49) = (   0.0237924   2.7940403  17.7774691  )
        50           H1  tau(  50) = (   0.9584034   2.6460975  18.3247808  )
        51           H1  tau(  51) = (   4.7713523   3.5531088  18.2436842  )
        52           H1  tau(  52) = (   5.8168525   3.4166350  19.5804594  )
        53           O1  tau(  53) = (   3.2115967   5.9081562  18.2546127  )
        54           H1  tau(  54) = (   3.8106726   0.6855978  18.4519937  )
        55           H1  tau(  55) = (   2.3006756   0.2828797  18.3368221  )

     number of k points=    10  Fermi-Dirac smearing, width (Ry)=  0.0073
                       cart. coord. in units 2pi/alat
        k(    1) = (   0.0000000   0.0000000   0.0000000), wk =   0.1250000
        k(    2) = (   0.0000000   0.0419351   0.0000000), wk =   0.2500000
        k(    3) = (   0.0000000  -0.0838702   0.0000000), wk =   0.1250000
        k(    4) = (   0.0379955   0.0000049   0.0000000), wk =   0.2500000
        k(    5) = (   0.0379955   0.0419400   0.0000000), wk =   0.2500000
        k(    6) = (   0.0379955  -0.0838652   0.0000000), wk =   0.2500000
        k(    7) = (   0.0379955  -0.0419301   0.0000000), wk =   0.2500000
        k(    8) = (  -0.0759910  -0.0000099   0.0000000), wk =   0.1250000
        k(    9) = (  -0.0759910   0.0419252   0.0000000), wk =   0.2500000
        k(   10) = (  -0.0759910  -0.0838800   0.0000000), wk =   0.1250000

     Initial potential from superposition of free atoms

     starting charge  381.99915, renormalised to  398.00000

     negative rho (up, down):  1.707E-02 0.000E+00

     %%%%%%%%%%%%%%%%%%%%%%%%%%%%%%%%%%%%%%%%%%%%%%%%%%%%%%%%%%%%%%%%%%%%%%%%
     %                                                                      %
     % You are using vdW-DF, which was implemented by the Thonhauser group. %
     % Please cite the following two papers that made this development      %
     % possible and the two reviews that describe the various versions:     %
     %                                                                      %
     %   T. Thonhauser et al., PRL 115, 136402 (2015).                      %
     %   T. Thonhauser et al., PRB 76, 125112 (2007).                       %
     %   K. Berland et al., Rep. Prog. Phys. 78, 066501 (2015).             %
     %   D.C. Langreth et al., J. Phys.: Condens. Matter 21, 084203 (2009). %
     %                                                                      %
     %                                                                      %
     % If you are calculating the stress with vdW-DF, please also cite:     %
     %                                                                      %
     %   R. Sabatini et al., J. Phys.: Condens. Matter 24, 424209 (2012).   %
     %                                                                      %
     %%%%%%%%%%%%%%%%%%%%%%%%%%%%%%%%%%%%%%%%%%%%%%%%%%%%%%%%%%%%%%%%%%%%%%%%

     Adding external electric field

     Computed dipole along edir(3) :
        Dipole              -10.1360 Ry au,        -25.7632 Debye
        Dipole field         -0.0191 Ry au,

        Potential amp.        1.7731 Ry
        Total length         46.3494 bohr

     Starting wfcs are  301 atomic wfcs
  @ DRIVER MODE: Message from server: STATUS
  @ DRIVER MODE: Message from server: POSDATA
  @ DRIVER MODE: Reading and sharing cell
  @ DRIVER MODE: Reading and sharing positions
  @ DRIVER MODE: Received positions

     Self-consistent Calculation

     iteration #  1     ecut=    29.40 Ry     beta= 0.05
     Davidson diagonalization with overlap
     c_bands:  2 eigenvalues not converged
     c_bands:  1 eigenvalues not converged
     c_bands:  1 eigenvalues not converged
     c_bands:  3 eigenvalues not converged
     c_bands:  1 eigenvalues not converged
     c_bands:  3 eigenvalues not converged
     c_bands:  3 eigenvalues not converged
     c_bands:  3 eigenvalues not converged
     c_bands:  1 eigenvalues not converged
     ethr =  1.00E-05,  avg # of iterations = 19.8

[...]

     total energy              =   -2497.71514418 Ry
     estimated scf accuracy    <    5094.11274032 Ry

     iteration #  2     ecut=    29.40 Ry     beta= 0.05
     Davidson diagonalization with overlap
     ethr =  1.00E-02,  avg # of iterations = 25.1

[...]

     iteration # 77     ecut=    29.40 Ry     beta= 0.05
     Davidson diagonalization with overlap
     c_bands:  1 eigenvalues not converged
     c_bands:  1 eigenvalues not converged
     c_bands:  1 eigenvalues not converged
     ethr =  1.73E-09,  avg # of iterations = 14.7

[...]

     total energy              =   -2953.88257408 Ry
     estimated scf accuracy    <       0.00000012 Ry

     iteration # 88     ecut=    29.40 Ry     beta= 0.05
     Davidson diagonalization with overlap
     ethr =  3.06E-11,  avg # of iterations =  5.0

     negative rho (up, down):  1.666E-02 0.000E+00

     Adding external electric field

     Computed dipole along edir(3) :
        Dipole                1.2980 Ry au,          3.2992 Debye
        Dipole field          0.0024 Ry au,

        Potential amp.       -0.2271 Ry
        Total length         46.3494 bohr

     End of self-consistent calculation

          k = 0.0000 0.0000 0.0000 ( 18029 PWs)   bands (ev):

   -55.4408 -55.4343 -55.4150 -55.4067 -55.3982 -55.2969 -55.2550 -55.2486
   -55.2329 -55.2311 -55.2140 -55.1977 -54.8567 -54.7645 -54.4273 -54.3933
   -31.9904 -31.9247 -31.8159 -31.7920 -31.7514 -31.7474 -31.7321 -31.7217
   -31.6833 -31.6820 -31.6521 -31.6361 -31.6247 -31.6145 -31.5937 -31.5810
   -31.5718 -31.5465 -31.5422 -31.5069 -31.4985 -31.4957 -31.4614 -31.4500
   -31.4436 -31.4412 -31.4330 -31.4323 -31.4318 -31.4063 -31.4059 -31.4005
   -31.3837 -31.3798 -31.3554 -31.3477 -31.3408 -31.1887 -31.0741 -31.0222
   -30.9629 -30.9264 -30.8348 -30.7454 -30.7231 -30.6514 -30.5649 -30.4538
   -19.0611 -16.4571 -16.1981 -15.9367 -15.7526 -15.6238 -15.5965 -15.4226
   -15.2876 -15.1856 -15.1233 -15.0666 -15.0461 -14.9990 -14.9955 -14.9842
   -14.9812 -14.9502 -14.9020 -14.8812 -14.8614 -14.8199 -14.8108 -14.7940
   -14.7449 -14.7054 -14.6115 -14.5795 -14.5533 -14.5131 -14.0283 -12.9293
   -12.8127  -9.0176  -6.8625  -6.6891  -4.2571  -3.5694  -3.4068  -3.3527
    -3.3453  -3.3187  -3.2345  -3.0896  -2.9545  -2.7190  -2.6568  -2.6212
    -2.5886  -2.5512  -2.4348  -2.3838  -2.3720  -2.3065  -2.2594  -2.2513
    -2.2384  -2.2171  -2.2018  -2.1411  -2.1278  -2.0285  -1.9855  -1.9154
    -1.8550  -1.8234  -1.7726  -1.7576  -1.7138  -1.7107  -1.6957  -1.6770
    -1.6630  -1.6472  -1.5883  -1.5277  -1.4500  -1.2651  -1.2322  -1.1162
    -1.0877  -1.0561  -1.0119  -0.9284  -0.9016  -0.8794  -0.8398  -0.7490
    -0.7233  -0.6762  -0.5877  -0.4981  -0.4525  -0.4261  -0.3466  -0.3113
    -0.2830  -0.2167  -0.2094  -0.1977  -0.1212  -0.0669   0.0403   0.0766
     0.1111   0.1267   0.1410   0.2258   0.2643   0.3219   0.3658   0.4186
     0.4547   0.4695   0.5056   0.5267   0.5417   0.5686   0.5804   0.7632
     0.8044   0.8336   0.8643   0.9491   1.0510   1.1181   1.2011   1.2707
     1.5178   1.5953   1.6482   1.7858   2.1674   2.2137   3.6304   3.7589
     3.7772   3.7956   3.8268   3.8898   3.9525   4.1415   4.1642   4.1856
     4.2139

[...]

          k = 0.0380-0.0419 0.0000 ( 17876 PWs)   bands (ev):

[...]

          k =-0.0760-0.0000 0.0000 ( 17886 PWs)   bands (ev):

[...]

          k =-0.0760-0.0839 0.0000 ( 17948 PWs)   bands (ev):

   -55.4241 -55.4232 -55.4180 -55.4148 -55.4128 -55.2881 -55.2637 -55.2344
   -55.2334 -55.2284 -55.2162 -55.2132 -54.8536 -54.7675 -54.4102 -54.4102
   -31.7999 -31.7892 -31.7402 -31.7396 -31.7246 -31.7179 -31.7170 -31.7005
   -31.6854 -31.6444 -31.6368 -31.6316 -31.6217 -31.6031 -31.5676 -31.5572
   -31.5526 -31.5525 -31.5500 -31.5441 -31.5437 -31.5432 -31.5393 -31.5007
   -31.4796 -31.4739 -31.4628 -31.4489 -31.4437 -31.4397 -31.4376 -31.4375
   -31.4307 -31.4274 -31.4085 -31.4032 -31.2496 -31.1905 -31.0675 -31.0402
   -31.0234 -30.9629 -30.7358 -30.7357 -30.6475 -30.6474 -30.6082 -30.6082
   -19.0601 -16.4468 -15.6878 -15.5587 -15.4299 -15.3723 -15.3668 -15.3083
   -15.3040 -15.1903 -15.1812 -15.1525 -15.1277 -15.1106 -15.0826 -15.0629
   -15.0014 -14.9809 -14.9776 -14.9474 -14.9182 -14.9053 -14.9005 -14.8857
   -14.8819 -14.8278 -14.7718 -14.7686 -14.6576 -14.5547 -14.1848 -12.9146
   -12.9144  -9.0272  -6.8460  -6.7087  -4.2246  -3.2455  -2.9721  -2.7908
    -2.6853  -2.6293  -2.5661  -2.5472  -2.3809  -2.3659  -2.3561  -2.3191
    -2.3024  -2.2815  -2.2711  -2.2663  -2.2399  -2.2279  -2.2100  -2.1785
    -2.1457  -2.1272  -2.1191  -2.1127  -2.0960  -2.0774  -2.0546  -2.0334
    -2.0290  -2.0024  -1.9630  -1.9395  -1.8798  -1.7425  -1.7069  -1.6662
    -1.5962  -1.5896  -1.5361  -1.5199  -1.4929  -1.4652  -1.4017  -1.3782
    -1.2305  -1.1658  -1.1498  -1.1336  -1.1193  -0.9979  -0.9571  -0.8882
    -0.8616  -0.7927  -0.7616  -0.7499  -0.7033  -0.6023  -0.5892  -0.5370
    -0.5254  -0.4288  -0.4061  -0.3951  -0.3601  -0.3153  -0.2469  -0.2063
    -0.1916  -0.1818  -0.1486  -0.1417  -0.1014   0.0189   0.0789   0.1404
     0.2116   0.3145   0.4262   0.4387   0.5876   0.6142   0.6280   0.7337
     0.8199   0.8505   0.8705   0.8981   0.9011   1.0263   1.0730   1.0827
     1.0843   1.2350   1.9575   1.9589   2.0333   2.0336   3.7383   3.9388
     3.9600   4.0020   4.0484   4.1798   4.1888   4.2229   4.2242   4.3082
     4.3404

     the Fermi energy is     3.6899 ev

!    total energy              =   -2953.88257813 Ry
     estimated scf accuracy    <       0.00000006 Ry
     smearing contrib. (-TS)   =      -0.03289591 Ry
     internal energy E=F+TS    =   -2953.84968222 Ry

     The total energy is F=E-TS. E is the sum of the following terms:
     one-electron contribution =  -24257.99183811 Ry
     hartree contribution      =   12222.57793793 Ry
     xc contribution           =    -488.84203781 Ry
     ewald contribution        =    9570.40307635 Ry
     electric field correction =       0.00317942 Ry

     convergence has been achieved in  88 iterations

     Forces acting on atoms (cartesian axes, Ry/au):

     atom    1 type  1   force =     0.00021376   -0.00019704    0.09615095
     atom    2 type  1   force =    -0.00011939   -0.00027814   -0.17604891
     atom    3 type  2   force =     0.00002773    0.00002031   -0.02490068
     atom    4 type  2   force =     0.00003440   -0.00159540    0.05416287
     atom    5 type  2   force =    -0.01177514   -0.00148998    0.00427049
     atom    6 type  2   force =     0.01353985   -0.00070973    0.00347755
     atom    7 type  1   force =    -0.00083972    0.00086560   -0.01027291
     atom    8 type  1   force =     0.00025140    0.01223106    0.02352330
     atom    9 type  2   force =    -0.00036066   -0.00008315   -0.00024477
     atom   10 type  2   force =    -0.00088090   -0.00045076   -0.01484788
     atom   11 type  2   force =     0.00043126    0.00007922    0.00017478
     atom   12 type  2   force =    -0.00040840   -0.00007780    0.00002429
     atom   13 type  1   force =    -0.00066807   -0.00007410   -0.00156633
     atom   14 type  1   force =     0.00058391    0.00019445    0.00034285
     atom   15 type  2   force =     0.00056685    0.00043690    0.00007189
     atom   16 type  2   force =    -0.00027738    0.00005353    0.00036257
     atom   17 type  2   force =    -0.00015712   -0.00029542   -0.00038719
     atom   18 type  2   force =     0.00015081   -0.00002411   -0.00017258
     atom   19 type  1   force =     0.00068520   -0.00002667    0.00059481
     atom   20 type  1   force =    -0.00029594   -0.00063580    0.00016247
     atom   21 type  2   force =     0.00006082    0.00004695    0.10336404
     atom   22 type  2   force =     0.00029288    0.00074669   -0.00023534
     atom   23 type  2   force =    -0.07131907   -0.00009062   -0.02765469
     atom   24 type  2   force =     0.07127477    0.00034718   -0.02769217
     atom   25 type  1   force =    -0.00006314   -0.00014026    0.09567105
     atom   26 type  1   force =    -0.00019974   -0.00030134   -0.17599944
     atom   27 type  2   force =     0.00012362   -0.00040221   -0.02389825
     atom   28 type  2   force =     0.00009681   -0.00126998    0.05363449
     atom   29 type  2   force =    -0.01200363    0.00045201    0.00379807
     atom   30 type  2   force =     0.01365116    0.00069523    0.00308011
     atom   31 type  1   force =    -0.00061127    0.00369479   -0.01331370
     atom   32 type  1   force =     0.00020856   -0.01325106    0.02338953
     atom   33 type  2   force =    -0.00007827   -0.00005525   -0.00030479
     atom   34 type  2   force =    -0.00008531    0.00021852   -0.01832250
     atom   35 type  2   force =     0.00035299   -0.00048466    0.00024808
     atom   36 type  2   force =    -0.00031783   -0.00015921    0.00011015
     atom   37 type  1   force =    -0.00083750   -0.00023808   -0.00008239
     atom   38 type  1   force =     0.00047789    0.00008221    0.00066009
     atom   39 type  2   force =    -0.00003760    0.00083848   -0.00003720
     atom   40 type  2   force =    -0.00022485   -0.00018091   -0.00065826
     atom   41 type  2   force =     0.00032015    0.00047913    0.00012292
     atom   42 type  2   force =    -0.00074534    0.00015201    0.00003507
     atom   43 type  1   force =     0.00049514    0.00024997    0.00013705
     atom   44 type  1   force =    -0.00030234   -0.00089824    0.00051287
     atom   45 type  2   force =     0.00006076    0.00003472    0.10330693
     atom   46 type  2   force =    -0.07130766   -0.00000751   -0.02762457
     atom   47 type  2   force =     0.07125187    0.00041819   -0.02764533
     atom   48 type  3   force =    -0.00039879    0.00101874   -0.00025198
     atom   49 type  4   force =    -0.00002231    0.00085165   -0.00065482
     atom   50 type  5   force =     0.00067794   -0.00002833    0.00096647
     atom   51 type  5   force =     0.00056419    0.00040976    0.00008185
     atom   52 type  5   force =    -0.00011293    0.00013931    0.00028411
     atom   53 type  2   force =    -0.00293754   -0.00022139   -0.00012325
     atom   54 type  5   force =    -0.00032654    0.00071183    0.00051316
     atom   55 type  5   force =     0.00131966   -0.00180123   -0.00029493

     Total force =     0.367614     Total SCF correction =     0.000718
  @ DRIVER MODE: Message from server: STATUS
  @ DRIVER MODE: Message from server: GETFORCE
  @ DRIVER MODE: Returning v,forces,stress,ensemble

     Writing output data file ./calc.save/
  @ DRIVER MODE: Message from server: EXIT
  @ DRIVE MODE: Exiting

     General routines

     Parallel routines

   This run was terminated on:   7:26:11  16Sep2021

   JOB DONE.