     Program PWSCF v.6.7GPU starts on 18Oct2021 at 21:57:35

     R & G space division:  proc/nbgrp/npool/nimage =       8
     Reading input from /storage/home/hcoda1/3/ntian30/research/carbon/CxH_vib/Thiel_calc/ads_slab/NH2NH2HH_perslab/out_0022/pw.inp
Warning: card &CELL ignored
Warning: card   CELL_DYNAMICS='IPI', ignored
Warning: card / ignored

     Current dimensions of program PWSCF are:
     Max number of different atomic species (ntypx) = 10
     Max number of k-points (npk) =  40000
     Max angular momentum in pseudopotentials (lmaxx) =  3
     Presently no symmetry can be used with electric field

     Message from routine cell_base_init:
     DEPRECATED: use true lattice parameter, not A to a.u. conversion factor

     IMPORTANT: XC functional enforced from input :
     Exchange-correlation= BEEF-VDW
                           (   1   4  43  14   2   0   0)
     Any further DFT definition will be discarded
     Please, verify this is what you really want

  @ DRIVER MODE: Connecting to
 qe_1139763_3255137.sched-torque.pace.gatech.edud56gq0m5_scratch
  using UNIX socket
  @ DRIVER MODE: Message from server: STATUS
  @ DRIVER MODE: Message from server: INIT
  @ DRIVER MODE: Receiving replica           0          -1
  @ DRIVER MODE: Receiving encoded integer          25
  @ DRIVER MODE:  SCF:  T  FORCE:  T  STRESS:  F  VC:  F  ENSEMBLE:  F
  @ DRIVER MODE:  SCF:  T  FORCE:  T  STRESS:  F  VC:  F  ENSEMBLE:  F

     Using Slab Decomposition

     bravais-lattice index     =            0
     lattice parameter (alat)  =       1.8897  a.u.
     unit-cell volume          =    9988.4706 (a.u.)^3
     number of atoms/cell      =           61
     number of atomic types    =            4
     number of electrons       =       442.00
     number of Kohn-Sham states=          231
     kinetic-energy cutoff     =      29.3995  Ry
     charge density cutoff     =     293.9946  Ry
     scf convergence threshold =      7.3E-08
     mixing beta               =       0.0500
     number of iterations used =            8  plain     mixing
     Exchange-correlation= BEEF-VDW
                           (   1   4  43  14   2   0   0)

     celldm(1)=   1.889726  celldm(2)=   0.000000  celldm(3)=   0.000000
     celldm(4)=   0.000000  celldm(5)=   0.000000  celldm(6)=   0.000000

     crystal axes: (cart. coord. in units of alat)
               a(1) = (   6.579727   0.000000   0.000000 )
               a(2) = (  -0.001163   8.942395   0.000000 )
               a(3) = (   0.000000   0.000000  25.155947 )

     reciprocal axes: (cart. coord. in units 2 pi/alat)
               b(1) = (  0.151982  0.000020  0.000000 )
               b(2) = (  0.000000  0.111827  0.000000 )
               b(3) = (  0.000000  0.000000  0.039752 )

     PseudoPot. # 1 for O  read from file:
     /storage/coda1/p-amedford6/0/shared/rich_project_chbe-medford/medford-share/data/pseudos_module/espresso/nninc/pbe/van/O.UPF
     MD5 check sum: 78c19812648e8988a0fe644b0f25305e
     Pseudo is Ultrasoft, Zval =  6.0
     Generated by new atomic code, or converted to UPF format
     Using radial grid of  737 points,  4 beta functions with:
                l(1) =   0
                l(2) =   0
                l(3) =   1
                l(4) =   1
     Q(r) pseudized with  8 coefficients,  rinner =    0.800   0.800   0.800

     PseudoPot. # 2 for Ti read from file:
     /storage/coda1/p-amedford6/0/shared/rich_project_chbe-medford/medford-share/data/pseudos_module/espresso/nninc/pbe/van/Ti.UPF
     MD5 check sum: 8e4df49b7f0d34bbd5052bf3f5ea0213
     Pseudo is Ultrasoft, Zval = 12.0
     Generated by new atomic code, or converted to UPF format
     Using radial grid of  851 points,  6 beta functions with:
                l(1) =   0
                l(2) =   0
                l(3) =   1
                l(4) =   1
                l(5) =   2
                l(6) =   2
     Q(r) pseudized with  8 coefficients,  rinner =    1.000   1.000   1.000
                                                       1.000   1.000

     PseudoPot. # 3 for N  read from file:
     /storage/coda1/p-amedford6/0/shared/rich_project_chbe-medford/medford-share/data/pseudos_module/espresso/nninc/pbe/van/N.UPF
     MD5 check sum: 90d10febe142ad51ac9d5be1deb811c4
     Pseudo is Ultrasoft, Zval =  5.0
     Generated by new atomic code, or converted to UPF format
     Using radial grid of  729 points,  4 beta functions with:
                l(1) =   0
                l(2) =   0
                l(3) =   1
                l(4) =   1
     Q(r) pseudized with  8 coefficients,  rinner =    0.800   0.800   0.800

     PseudoPot. # 4 for H  read from file:
     /storage/coda1/p-amedford6/0/shared/rich_project_chbe-medford/medford-share/data/pseudos_module/espresso/nninc/pbe/van/H.UPF
     MD5 check sum: b5ee9d7bfd3a09ee7748110bda690ff7
     Pseudo is Ultrasoft, Zval =  1.0
     Generated by new atomic code, or converted to UPF format
     Using radial grid of  615 points,  1 beta functions with:
                l(1) =   0
     Q(r) pseudized with  8 coefficients,  rinner =    0.800

     atomic species   valence    mass     pseudopotential
        O1             6.00    15.99900     O ( 1.00)
        Ti1           12.00    47.86700     Ti( 1.00)
        N1             5.00    14.00700     N ( 1.00)
        H1             1.00     1.00800     H ( 1.00)

     No symmetry found

   Cartesian axes

     site n.     atom                  positions (alat units)
         1           O1  tau(   1) = (   0.0007354   0.0005023  10.5931620  )
         2           O1  tau(   2) = (   3.2456387   0.0208629  13.8623892  )
         3           O1  tau(   3) = (   6.5569189   0.0555649  17.3369326  )
         4           O1  tau(   4) = (   0.0006271   0.0005054   7.9858123  )
         5           O1  tau(   5) = (   3.2933513   8.9300833  11.1812556  )
         6           O1  tau(   6) = (   0.0337597   0.0712708  14.6279364  )
         7           O1  tau(   7) = (   1.9868534   1.4903216   9.2879459  )
         8           O1  tau(   8) = (   5.2215124   1.6184176  12.5791628  )
         9           O1  tau(   9) = (   1.9922958   1.5902288  16.0980526  )
        10           Ti1 tau(  10) = (   0.0007404   1.4906270   9.2895810  )
        11           Ti1 tau(  11) = (   3.2860490   1.3455809  12.4359399  )
        12           Ti1 tau(  12) = (   6.5618936   1.3602716  15.8812525  )
        13           O1  tau(  13) = (   4.5942328   1.4918067   9.2879030  )
        14           O1  tau(  14) = (   1.3307156   1.5887400  12.5381291  )
        15           O1  tau(  15) = (   4.5725103   1.6118788  16.0006659  )
        16           Ti1 tau(  16) = (   3.2902859   2.9801868   9.2893338  )
        17           Ti1 tau(  17) = (   0.0046584   2.8227806  12.4510757  )
        18           Ti1 tau(  18) = (   3.2555632   2.8898243  15.6661830  )
        19           O1  tau(  19) = (   0.0003479   2.9813005  10.5931620  )
        20           O1  tau(  20) = (   3.2279248   2.9553539  13.8813459  )
        21           O1  tau(  21) = (   0.0002396   2.9813036   7.9858123  )
        22           O1  tau(  22) = (   3.2889556   2.9859946  11.1941525  )
        23           O1  tau(  23) = (   0.0559812   2.9852445  14.6488683  )
        24           O1  tau(  24) = (   1.9864658   4.4711199   9.2879459  )
        25           O1  tau(  25) = (   5.2314886   4.5920767  12.6107679  )
        26           O1  tau(  26) = (   1.9969377   4.5324570  16.1535429  )
        27           Ti1 tau(  27) = (   0.0003529   4.4714252   9.2895810  )
        28           Ti1 tau(  28) = (   3.2845268   4.3564118  12.5295435  )
        29           Ti1 tau(  29) = (   6.5676402   4.3565080  15.8255799  )
        30           O1  tau(  30) = (   4.5938453   4.4726049   9.2879030  )
        31           O1  tau(  31) = (   1.3315080   4.5776727  12.5731030  )
        32           O1  tau(  32) = (   4.5871741   4.4544688  15.9274438  )
        33           Ti1 tau(  33) = (   3.2898983   5.9609850   9.2893338  )
        34           Ti1 tau(  34) = (   6.5783773   5.8108302  12.4536689  )
        35           Ti1 tau(  35) = (   3.3162440   5.8110762  16.0333210  )
        36           O1  tau(  36) = (  -0.0000397   5.9620987  10.5931620  )
        37           O1  tau(  37) = (   3.2636778   5.9869953  13.9790019  )
        38           O1  tau(  38) = (   6.4104969   6.0475349  17.2872242  )
        39           O1  tau(  39) = (  -0.0001480   5.9621018   7.9858123  )
        40           O1  tau(  40) = (   3.2905218   5.9516507  11.2202175  )
        41           O1  tau(  41) = (   0.0617018   5.9803669  14.6637187  )
        42           O1  tau(  42) = (   1.9860782   7.4519181   9.2879459  )
        43           O1  tau(  43) = (   5.2407037   7.5572870  12.6049163  )
        44           O1  tau(  44) = (   1.9881273   7.5959696  16.0809372  )
        45           Ti1 tau(  45) = (  -0.0000347   7.4522234   9.2895810  )
        46           Ti1 tau(  46) = (   3.2912638   7.2305267  12.6172466  )
        47           Ti1 tau(  47) = (   0.0232661   7.3094817  15.9177444  )
        48           O1  tau(  48) = (   4.5934577   7.4534031   9.2879030  )
        49           O1  tau(  49) = (   1.3287160   7.5404973  12.5734398  )
        50           O1  tau(  50) = (   4.6507959   7.6754627  15.9163669  )
        51           Ti1 tau(  51) = (   3.2895107   8.9417832   9.2893338  )
        52           Ti1 tau(  52) = (   0.0077981   8.7799231  12.4640552  )
        53           Ti1 tau(  53) = (   3.2910717   8.8534038  15.6608489  )
        54           N1  tau(  54) = (   3.7626148   6.0985185  18.0019073  )
        55           H1  tau(  55) = (   3.4663780   5.3841571  18.6619304  )
        56           H1  tau(  56) = (   3.5565419   6.9988739  18.4208443  )
        57           N1  tau(  57) = (   6.5319303   3.0629623  17.4095181  )
        58           H1  tau(  58) = (   5.7013393   3.0140474  17.9904383  )
        59           H1  tau(  59) = (   0.7603229   3.1006543  18.0203722  )
        60           H1  tau(  60) = (   5.4974376   6.0468821  17.7423635  )
        61           H1  tau(  61) = (   0.7324116   0.0679216  17.9402240  )

     number of k points=    10  Fermi-Dirac smearing, width (Ry)=  0.0073
                       cart. coord. in units 2pi/alat
        k(    1) = (   0.0000000   0.0000000   0.0000000), wk =   0.1250000
        k(    2) = (   0.0000000   0.0279567   0.0000000), wk =   0.2500000
        k(    3) = (   0.0000000  -0.0559134   0.0000000), wk =   0.1250000
        k(    4) = (   0.0379955   0.0000049   0.0000000), wk =   0.2500000
        k(    5) = (   0.0379955   0.0279617   0.0000000), wk =   0.2500000
        k(    6) = (   0.0379955  -0.0559085   0.0000000), wk =   0.2500000
        k(    7) = (   0.0379955  -0.0279518   0.0000000), wk =   0.2500000
        k(    8) = (  -0.0759910  -0.0000099   0.0000000), wk =   0.1250000
        k(    9) = (  -0.0759910   0.0279468   0.0000000), wk =   0.2500000
        k(   10) = (  -0.0759910  -0.0559233   0.0000000), wk =   0.1250000

     Initial potential from superposition of free atoms

     starting charge  423.99908, renormalised to  442.00000

     negative rho (up, down):  3.745E-02 0.000E+00

     %%%%%%%%%%%%%%%%%%%%%%%%%%%%%%%%%%%%%%%%%%%%%%%%%%%%%%%%%%%%%%%%%%%%%%%%
     %                                                                      %
     % You are using vdW-DF, which was implemented by the Thonhauser group. %
     % Please cite the following two papers that made this development      %
     % possible and the two reviews that describe the various versions:     %
     %                                                                      %
     %   T. Thonhauser et al., PRL 115, 136402 (2015).                      %
     %   T. Thonhauser et al., PRB 76, 125112 (2007).                       %
     %   K. Berland et al., Rep. Prog. Phys. 78, 066501 (2015).             %
     %   D.C. Langreth et al., J. Phys.: Condens. Matter 21, 084203 (2009). %
     %                                                                      %
     %                                                                      %
     % If you are calculating the stress with vdW-DF, please also cite:     %
     %                                                                      %
     %   R. Sabatini et al., J. Phys.: Condens. Matter 24, 424209 (2012).   %
     %                                                                      %
     %%%%%%%%%%%%%%%%%%%%%%%%%%%%%%%%%%%%%%%%%%%%%%%%%%%%%%%%%%%%%%%%%%%%%%%%

     Adding external electric field

     Computed dipole along edir(3) :
        Dipole               -5.9687 Ry au,        -15.1708 Debye
        Dipole field         -0.0075 Ry au,

        Potential amp.        0.6961 Ry
        Total length         46.3494 bohr

     Starting wfcs are  334 atomic wfcs
  @ DRIVER MODE: Message from server: STATUS
  @ DRIVER MODE: Message from server: POSDATA
  @ DRIVER MODE: Reading and sharing cell
  @ DRIVER MODE: Reading and sharing positions
  @ DRIVER MODE: Received positions

     Self-consistent Calculation

     iteration #  1     ecut=    29.40 Ry     beta= 0.05
     Davidson diagonalization with overlap
     c_bands:  2 eigenvalues not converged
     c_bands:  3 eigenvalues not converged
     c_bands:  5 eigenvalues not converged
     c_bands:  2 eigenvalues not converged
     c_bands:  4 eigenvalues not converged
     c_bands:  4 eigenvalues not converged
     c_bands:  4 eigenvalues not converged
     c_bands:  2 eigenvalues not converged
     c_bands:  5 eigenvalues not converged
     ethr =  1.00E-05,  avg # of iterations = 21.0

[...]

     total energy              =   -3277.93314704 Ry
     estimated scf accuracy    <     239.63002152 Ry

     iteration #  2     ecut=    29.40 Ry     beta= 0.05
     Davidson diagonalization with overlap
     ethr =  1.00E-02,  avg # of iterations = 16.3

[...]

     iteration # 28     ecut=    29.40 Ry     beta= 0.05
     Davidson diagonalization with overlap
     c_bands:  1 eigenvalues not converged
     c_bands:  1 eigenvalues not converged
     ethr =  4.70E-07,  avg # of iterations = 17.7

[...]

     total energy              =   -3295.80741037 Ry
     estimated scf accuracy    <       0.00000011 Ry

     iteration # 50     ecut=    29.40 Ry     beta= 0.05
     Davidson diagonalization with overlap
     ethr =  2.42E-11,  avg # of iterations = 12.3

     negative rho (up, down):  3.607E-02 0.000E+00

     Adding external electric field

     Computed dipole along edir(3) :
        Dipole                1.5122 Ry au,          3.8436 Debye
        Dipole field          0.0019 Ry au,

        Potential amp.       -0.1764 Ry
        Total length         46.3494 bohr

     End of self-consistent calculation

          k = 0.0000 0.0000 0.0000 ( 26871 PWs)   bands (ev):

   -57.7237 -57.6981 -57.6877 -57.6651 -57.6529 -57.6190 -57.6056 -57.5974
   -57.5699 -57.5519 -57.5071 -57.4767 -57.4604 -57.4539 -57.4462 -56.7454
   -56.7212 -56.7169 -34.1053 -34.1025 -34.0934 -34.0849 -34.0741 -34.0557
   -34.0534 -34.0410 -34.0278 -34.0167 -33.9869 -33.9688 -33.9489 -33.9429
   -33.9350 -33.9168 -33.9140 -33.9115 -33.8914 -33.8862 -33.8646 -33.8633
   -33.8416 -33.8331 -33.8280 -33.8219 -33.8110 -33.8091 -33.8011 -33.7925
   -33.7823 -33.7809 -33.7666 -33.7312 -33.7207 -33.7175 -33.7022 -33.7013
   -33.6943 -33.6935 -33.6824 -33.6738 -33.6674 -33.6611 -33.6386 -33.0606
   -33.0596 -33.0552 -33.0435 -33.0394 -32.9715 -32.9095 -32.9043 -32.7713
   -19.3079 -18.7577 -18.5244 -18.2260 -18.0152 -17.9731 -17.9398 -17.8187
   -17.7832 -17.7591 -17.6611 -17.6498 -17.5872 -17.5325 -17.5045 -17.4560
   -17.4392 -17.3774 -17.3635 -17.3554 -17.3500 -17.3395 -17.3294 -17.2653
   -17.2384 -17.2089 -17.1696 -17.1540 -17.1475 -17.1402 -17.1184 -16.8449
   -15.5074 -15.2122 -15.1540 -15.1529 -15.0820  -6.9907  -6.8187  -6.6458
    -6.3408  -5.8594  -5.7857  -5.6362  -5.5124  -5.2205  -5.1923  -5.1409
    -5.1146  -5.0862  -5.0209  -5.0010  -4.9879  -4.9332  -4.9154  -4.8427
    -4.8204  -4.7785  -4.7544  -4.7287  -4.6844  -4.6441  -4.6163  -4.6048
    -4.5745  -4.5668  -4.5100  -4.4861  -4.4568  -4.4510  -4.4351  -4.3254
    -4.2942  -4.2374  -4.1691  -4.0942  -4.0382  -4.0301  -3.9744  -3.9541
    -3.9024  -3.8616  -3.8261  -3.8167  -3.7804  -3.7420  -3.6448  -3.6110
    -3.5884  -3.5213  -3.4985  -3.4305  -3.4124  -3.3816  -3.3383  -3.3330
    -3.2954  -3.1976  -3.1642  -3.0831  -3.0263  -2.9722  -2.9335  -2.8889
    -2.8432  -2.8101  -2.7839  -2.7053  -2.6267  -2.5423  -2.4922  -2.4795
    -2.4678  -2.4172  -2.4104  -2.4072  -2.3506  -2.3249  -2.3142  -2.2762
    -2.2257  -2.2028  -2.1398  -2.0956  -2.0598  -1.9928  -1.9768  -1.8958
    -1.8870  -1.8266  -1.7831  -1.7430  -1.6315  -1.5976  -1.5643  -1.5617
    -1.4429  -1.4068  -1.1477  -1.0036  -0.7855  -0.7524  -0.4991  -0.4504
    -0.4475  -0.1845  -0.1813  -0.0529   1.3232   1.5119   1.6460   1.7012
     1.7058   1.7394   1.8050   1.8922   1.9190   1.9645   1.9959

[...]

          k = 0.0380-0.0280 0.0000 ( 26873 PWs)   bands (ev):

[...]

          k =-0.0760-0.0000 0.0000 ( 26902 PWs)   bands (ev):

[...]

          k =-0.0760-0.0559 0.0000 ( 26868 PWs)   bands (ev):

   -57.7202 -57.7057 -57.6835 -57.6642 -57.6527 -57.6195 -57.6069 -57.5971
   -57.5693 -57.5517 -57.5074 -57.4716 -57.4642 -57.4599 -57.4414 -56.7391
   -56.7339 -56.7104 -34.1927 -34.1559 -34.1531 -34.0935 -34.0593 -34.0515
   -34.0408 -34.0382 -34.0008 -33.9670 -33.9339 -33.9215 -33.9146 -33.9129
   -33.9013 -33.9007 -33.8790 -33.8732 -33.8676 -33.8673 -33.8648 -33.8579
   -33.8527 -33.8429 -33.8302 -33.8253 -33.8227 -33.8175 -33.8106 -33.7925
   -33.7920 -33.7694 -33.7628 -33.7552 -33.7495 -33.7313 -33.7227 -33.7196
   -33.6996 -33.6985 -33.6970 -33.6943 -33.6850 -33.6672 -33.6499 -33.1495
   -33.0603 -33.0553 -33.0328 -32.9530 -32.9472 -32.8854 -32.8707 -32.8656
   -19.2946 -18.7314 -18.2711 -18.1341 -17.9622 -17.9201 -17.8470 -17.8338
   -17.8221 -17.7929 -17.7007 -17.6780 -17.6518 -17.5680 -17.5496 -17.4991
   -17.4554 -17.4419 -17.4231 -17.4130 -17.4048 -17.3873 -17.3541 -17.3222
   -17.2903 -17.2387 -17.1757 -17.1579 -17.1084 -17.0934 -17.0632 -16.8787
   -15.5021 -15.2101 -15.2081 -15.0913 -15.0833  -6.9953  -6.8507  -6.6374
    -6.3222  -5.5161  -5.4530  -5.3698  -5.3553  -5.2373  -5.2045  -5.0136
    -5.0031  -4.9883  -4.9566  -4.9244  -4.8878  -4.8615  -4.8375  -4.8239
    -4.8110  -4.7888  -4.7633  -4.7520  -4.7351  -4.6911  -4.6437  -4.6376
    -4.6265  -4.6036  -4.5498  -4.5048  -4.4790  -4.4241  -4.4210  -4.3405
    -4.3171  -4.2999  -4.2258  -4.2165  -4.0954  -3.9470  -3.8860  -3.8661
    -3.8420  -3.7954  -3.7849  -3.7318  -3.7099  -3.6916  -3.5557  -3.4743
    -3.4502  -3.4149  -3.3837  -3.3608  -3.3249  -3.2979  -3.2766  -3.2495
    -3.2340  -3.1827  -3.1663  -3.1224  -3.0798  -2.9982  -2.9541  -2.8959
    -2.8727  -2.8548  -2.8360  -2.8323  -2.8117  -2.7795  -2.7507  -2.6984
    -2.6854  -2.6543  -2.5831  -2.5288  -2.5014  -2.4758  -2.4338  -2.4269
    -2.2718  -2.2537  -2.2194  -2.2074  -2.1341  -2.0900  -1.9995  -1.9721
    -1.9502  -1.8786  -1.8066  -1.7633  -1.7065  -1.5099  -1.5015  -1.3820
    -1.3457  -1.2965  -1.2712  -1.2299  -1.0682  -0.7334  -0.6617  -0.3783
    -0.3672  -0.3412  -0.1859  -0.1795   1.4306   1.4540   1.5391   1.5951
     1.6142   1.6520   1.6647   1.7038   1.7242   1.7809   1.9158

     the Fermi energy is     1.3741 ev

!    total energy              =   -3295.80752025 Ry
     estimated scf accuracy    <       0.00000005 Ry
     smearing contrib. (-TS)   =      -0.03572256 Ry
     internal energy E=F+TS    =   -3295.77179769 Ry

     The total energy is F=E-TS. E is the sum of the following terms:
     one-electron contribution =  -34705.84361122 Ry
     hartree contribution      =   17418.84514797 Ry
     xc contribution           =    -543.86593474 Ry
     ewald contribution        =   14535.08972338 Ry
     electric field correction =       0.00287691 Ry

     convergence has been achieved in  50 iterations

     Forces acting on atoms (cartesian axes, Ry/au):

     atom    1 type  1   force =    -0.00168750    0.00376511    0.05472516
     atom    2 type  1   force =     0.00024214   -0.00249940   -0.00838281
     atom    3 type  1   force =     0.00043936   -0.00281553    0.00064212
     atom    4 type  1   force =     0.00004620   -0.00003177    0.10677910
     atom    5 type  1   force =    -0.00020367    0.00066938    0.00658272
     atom    6 type  1   force =     0.00001353   -0.00393325    0.00408377
     atom    7 type  1   force =     0.06648316    0.00079340   -0.02965828
     atom    8 type  1   force =     0.00659001   -0.02714378    0.00194435
     atom    9 type  1   force =     0.00637862   -0.02258975    0.00534814
     atom   10 type  2   force =    -0.00012020   -0.00448662   -0.18343504
     atom   11 type  2   force =     0.00066738    0.02090049   -0.00415962
     atom   12 type  2   force =    -0.00172879    0.02785270   -0.00733464
     atom   13 type  1   force =    -0.06654227    0.00044661   -0.02980449
     atom   14 type  1   force =    -0.00433449   -0.02771914    0.00252536
     atom   15 type  1   force =    -0.00635181   -0.02336717    0.00521928
     atom   16 type  2   force =     0.00008712    0.00070038    0.06701717
     atom   17 type  2   force =    -0.00237674    0.03353381    0.00358233
     atom   18 type  2   force =     0.00129023    0.02482094   -0.00374464
     atom   19 type  1   force =    -0.00169868    0.00675725    0.05322660
     atom   20 type  1   force =     0.00023989   -0.00116745   -0.00657064
     atom   21 type  1   force =     0.00003441    0.00109482    0.10726125
     atom   22 type  1   force =    -0.00025384   -0.00198393    0.00722429
     atom   23 type  1   force =     0.00072479   -0.00631802    0.00387708
     atom   24 type  1   force =     0.06751700    0.00137562   -0.02906400
     atom   25 type  1   force =     0.00527288   -0.03015773    0.00243323
     atom   26 type  1   force =     0.00697449   -0.02604638   -0.00422534
     atom   27 type  2   force =     0.00011265   -0.00122355   -0.18671379
     atom   28 type  2   force =     0.00007468    0.02386085   -0.00249261
     atom   29 type  2   force =    -0.00112518    0.02316076    0.00052712
     atom   30 type  1   force =    -0.06762056    0.00087133   -0.02891652
     atom   31 type  1   force =    -0.00536707   -0.02961725    0.00277175
     atom   32 type  1   force =    -0.00451211   -0.02245522    0.00250678
     atom   33 type  2   force =    -0.00004924    0.00129991    0.07477541
     atom   34 type  2   force =     0.00093577    0.03687701    0.00410981
     atom   35 type  2   force =    -0.00216009    0.03463016    0.00499199
     atom   36 type  1   force =    -0.00186585    0.00288425    0.05586632
     atom   37 type  1   force =     0.00132343    0.00402638   -0.01135057
     atom   38 type  1   force =     0.00013328   -0.00331722    0.00402063
     atom   39 type  1   force =     0.00002224   -0.00063618    0.10727763
     atom   40 type  1   force =     0.00015703   -0.00141239    0.00716152
     atom   41 type  1   force =    -0.00024555   -0.00367134    0.00170118
     atom   42 type  1   force =     0.06784874   -0.00221683   -0.02970437
     atom   43 type  1   force =     0.00370208   -0.02634540    0.00153033
     atom   44 type  1   force =     0.01001707   -0.01794027    0.00268779
     atom   45 type  2   force =     0.00003195    0.00215301   -0.18331382
     atom   46 type  2   force =    -0.00023212    0.01477779    0.00202795
     atom   47 type  2   force =     0.00294626    0.02588019   -0.00870702
     atom   48 type  1   force =    -0.06791424   -0.00284467   -0.02985808
     atom   49 type  1   force =    -0.00376775   -0.02548398    0.00183351
     atom   50 type  1   force =    -0.00794692   -0.02362343    0.00525057
     atom   51 type  2   force =     0.00044905   -0.00349772    0.06842968
     atom   52 type  2   force =    -0.00010785    0.03119647    0.00578951
     atom   53 type  2   force =    -0.00209907    0.02587135   -0.00059721
     atom   54 type  3   force =     0.00069558   -0.00195016   -0.00087591
     atom   55 type  4   force =    -0.00073414    0.00039502   -0.00051580
     atom   56 type  4   force =     0.00027444    0.00087916    0.00127461
     atom   57 type  3   force =     0.00016414   -0.00597132    0.00075716
     atom   58 type  4   force =     0.00104764    0.00148282   -0.00055129
     atom   59 type  4   force =     0.00060170    0.00074152    0.00102533
     atom   60 type  4   force =    -0.00132064    0.00001539    0.00008460
     atom   61 type  4   force =    -0.00117259   -0.00124706    0.00110338

     Total force =     0.459579     Total SCF correction =     0.000889
  @ DRIVER MODE: Message from server: STATUS
  @ DRIVER MODE: Message from server: GETFORCE
  @ DRIVER MODE: Returning v,forces,stress,ensemble

     Writing output data file ./calc.save/
  @ DRIVER MODE: Message from server: EXIT
  @ DRIVE MODE: Exiting

     General routines

     Parallel routines

   This run was terminated on:  22:24:31  18Oct2021

   JOB DONE.