     Program PWSCF v.6.7GPU starts on 25Aug2021 at  4:43: 9

     R & G space division:  proc/nbgrp/npool/nimage =       6
     Reading input from /storage/home/hcoda1/3/ntian30/research/carbon/CH3_vib_end_on/ads_slab/CH3NHNH2_a/out_0022/pw.inp
Warning: card &CELL ignored
Warning: card   CELL_DYNAMICS='IPI', ignored
Warning: card / ignored

     Current dimensions of program PWSCF are:
     Max number of different atomic species (ntypx) = 10
     Max number of k-points (npk) =  40000
     Max angular momentum in pseudopotentials (lmaxx) =  3
     Presently no symmetry can be used with electric field

     Message from routine cell_base_init:
     DEPRECATED: use true lattice parameter, not A to a.u. conversion factor

     IMPORTANT: XC functional enforced from input :
     Exchange-correlation= BEEF-VDW
                           (   1   4  43  14   2   0   0)
     Any further DFT definition will be discarded
     Please, verify this is what you really want

  @ DRIVER MODE: Connecting to
 qe_1139763_2643871.sched-torque.pace.gatech.eduhq2hqlus_scratch
  using UNIX socket
  @ DRIVER MODE: Message from server: STATUS
  @ DRIVER MODE: Message from server: INIT
  @ DRIVER MODE: Receiving replica           0          -1
  @ DRIVER MODE: Receiving encoded integer          25
  @ DRIVER MODE:  SCF:  T  FORCE:  T  STRESS:  F  VC:  F  ENSEMBLE:  F
  @ DRIVER MODE:  SCF:  T  FORCE:  T  STRESS:  F  VC:  F  ENSEMBLE:  F

     Using Slab Decomposition

     bravais-lattice index     =            0
     lattice parameter (alat)  =       1.8897  a.u.
     unit-cell volume          =    6658.9804 (a.u.)^3
     number of atoms/cell      =           56
     number of atomic types    =            5
     number of electrons       =       398.00
     number of Kohn-Sham states=          209
     kinetic-energy cutoff     =      29.3995  Ry
     charge density cutoff     =     293.9946  Ry
     scf convergence threshold =      7.3E-08
     mixing beta               =       0.0500
     number of iterations used =            8  plain     mixing
     Exchange-correlation= BEEF-VDW
                           (   1   4  43  14   2   0   0)

     celldm(1)=   1.889726  celldm(2)=   0.000000  celldm(3)=   0.000000
     celldm(4)=   0.000000  celldm(5)=   0.000000  celldm(6)=   0.000000

     crystal axes: (cart. coord. in units of alat)
               a(1) = (   6.579727   0.000000   0.000000 )
               a(2) = (  -0.000775   5.961596   0.000000 )
               a(3) = (   0.000000   0.000000  25.155947 )

     reciprocal axes: (cart. coord. in units 2 pi/alat)
               b(1) = (  0.151982  0.000020  0.000000 )
               b(2) = (  0.000000  0.167740  0.000000 )
               b(3) = (  0.000000  0.000000  0.039752 )

     PseudoPot. # 1 for Ti read from file:
     /storage/coda1/p-amedford6/0/shared/rich_project_chbe-medford/medford-share/data/pseudos_module/espresso/nninc/pbe/van/Ti.UPF
     MD5 check sum: 8e4df49b7f0d34bbd5052bf3f5ea0213
     Pseudo is Ultrasoft, Zval = 12.0
     Generated by new atomic code, or converted to UPF format
     Using radial grid of  851 points,  6 beta functions with:
                l(1) =   0
                l(2) =   0
                l(3) =   1
                l(4) =   1
                l(5) =   2
                l(6) =   2
     Q(r) pseudized with  8 coefficients,  rinner =    1.000   1.000   1.000
                                                       1.000   1.000

     PseudoPot. # 2 for O  read from file:
     /storage/coda1/p-amedford6/0/shared/rich_project_chbe-medford/medford-share/data/pseudos_module/espresso/nninc/pbe/van/O.UPF
     MD5 check sum: 78c19812648e8988a0fe644b0f25305e
     Pseudo is Ultrasoft, Zval =  6.0
     Generated by new atomic code, or converted to UPF format
     Using radial grid of  737 points,  4 beta functions with:
                l(1) =   0
                l(2) =   0
                l(3) =   1
                l(4) =   1
     Q(r) pseudized with  8 coefficients,  rinner =    0.800   0.800   0.800

     PseudoPot. # 3 for N  read from file:
     /storage/coda1/p-amedford6/0/shared/rich_project_chbe-medford/medford-share/data/pseudos_module/espresso/nninc/pbe/van/N.UPF
     MD5 check sum: 90d10febe142ad51ac9d5be1deb811c4
     Pseudo is Ultrasoft, Zval =  5.0
     Generated by new atomic code, or converted to UPF format
     Using radial grid of  729 points,  4 beta functions with:
                l(1) =   0
                l(2) =   0
                l(3) =   1
                l(4) =   1
     Q(r) pseudized with  8 coefficients,  rinner =    0.800   0.800   0.800

     PseudoPot. # 4 for C  read from file:
     /storage/coda1/p-amedford6/0/shared/rich_project_chbe-medford/medford-share/data/pseudos_module/espresso/nninc/pbe/van/C.UPF
     MD5 check sum: 1a69bf6b8db32088f5b2163dbdb77a27
     Pseudo is Ultrasoft, Zval =  4.0
     Generated by new atomic code, or converted to UPF format
     Using radial grid of  721 points,  4 beta functions with:
                l(1) =   0
                l(2) =   0
                l(3) =   1
                l(4) =   1
     Q(r) pseudized with  8 coefficients,  rinner =    0.800   0.800   0.800

     PseudoPot. # 5 for H  read from file:
     /storage/coda1/p-amedford6/0/shared/rich_project_chbe-medford/medford-share/data/pseudos_module/espresso/nninc/pbe/van/H.UPF
     MD5 check sum: b5ee9d7bfd3a09ee7748110bda690ff7
     Pseudo is Ultrasoft, Zval =  1.0
     Generated by new atomic code, or converted to UPF format
     Using radial grid of  615 points,  1 beta functions with:
                l(1) =   0
     Q(r) pseudized with  8 coefficients,  rinner =    0.800

     atomic species   valence    mass     pseudopotential
        Ti1           12.00    47.86700     Ti( 1.00)
        O1             6.00    15.99900     O ( 1.00)
        N1             5.00    14.00700     N ( 1.00)
        C1             4.00    12.01100     C ( 1.00)
        H1             1.00     1.00800     H ( 1.00)

     No symmetry found

   Cartesian axes

     site n.     atom                  positions (alat units)
         1           Ti1 tau(   1) = (   0.0004258   2.9801865   6.0000000  )
         2           Ti1 tau(   2) = (   3.2906075   1.4906267   6.0002472  )
         3           O1  tau(   3) = (   0.0006271   0.0005054   7.9858123  )
         4           O1  tau(   4) = (   3.2906025   0.0005020   7.3038282  )
         5           O1  tau(   5) = (   4.5942328   1.4918067   9.2879030  )
         6           O1  tau(   6) = (   1.9868534   1.4903216   9.2879459  )
         7           Ti1 tau(   7) = (   3.2907910   2.8959150   9.1758416  )
         8           Ti1 tau(   8) = (   0.0015273   1.4827037   9.2680791  )
         9           O1  tau(   9) = (   3.2714441   0.0289406  11.3813764  )
        10           O1  tau(  10) = (   0.0116148   5.9584955  10.6183126  )
        11           O1  tau(  11) = (   1.2692032   1.5162281  12.7122965  )
        12           O1  tau(  12) = (   5.2779133   1.5159715  12.6811497  )
        13           Ti1 tau(  13) = (   6.5579218   3.0031650  12.5037829  )
        14           Ti1 tau(  14) = (   3.2791490   1.5128154  12.5375672  )
        15           O1  tau(  15) = (   6.5208524   5.8954130  14.6845636  )
        16           O1  tau(  16) = (   3.2849572   0.0099931  14.0031570  )
        17           O1  tau(  17) = (   4.4884262   1.5607690  16.1641467  )
        18           O1  tau(  18) = (   1.9729656   1.5430890  16.0903287  )
        19           Ti1 tau(  19) = (   3.2372663   3.0309179  15.7728032  )
        20           Ti1 tau(  20) = (   6.5553692   1.3539605  15.8053163  )
        21           O1  tau(  21) = (   3.2904802   0.0005063   4.7018136  )
        22           O1  tau(  22) = (   6.5123495   0.2165906  17.2215032  )
        23           O1  tau(  23) = (   1.3043587   1.4918075   6.0039043  )
        24           O1  tau(  24) = (   5.2767064   1.4903225   6.0039473  )
        25           Ti1 tau(  25) = (   0.0000382   5.9609847   6.0000000  )
        26           Ti1 tau(  26) = (   3.2902200   4.4714249   6.0002472  )
        27           O1  tau(  27) = (   0.0002396   2.9813036   7.9858123  )
        28           O1  tau(  28) = (   3.2902150   2.9813002   7.3038282  )
        29           O1  tau(  29) = (   4.5938453   4.4726049   9.2879030  )
        30           O1  tau(  30) = (   1.9864658   4.4711199   9.2879459  )
        31           Ti1 tau(  31) = (   3.2891106   5.8743827   9.1763621  )
        32           Ti1 tau(  32) = (   0.0006254   4.4649316   9.2693709  )
        33           O1  tau(  33) = (   3.2699379   2.9911670  11.3762017  )
        34           O1  tau(  34) = (   0.0092240   2.9805883  10.6323155  )
        35           O1  tau(  35) = (   1.2730946   4.4825978  12.6662957  )
        36           O1  tau(  36) = (   5.2742290   4.4829497  12.6320226  )
        37           Ti1 tau(  37) = (   6.5783117   0.0079037  12.5026730  )
        38           Ti1 tau(  38) = (   3.2784283   4.4905194  12.5286134  )
        39           O1  tau(  39) = (   6.5033290   3.0824797  14.9867588  )
        40           O1  tau(  40) = (   3.2824109   3.0350539  13.9807796  )
        41           O1  tau(  41) = (   4.4804250   4.5097483  16.2808085  )
        42           O1  tau(  42) = (   1.9642025   4.5165872  16.2225063  )
        43           Ti1 tau(  43) = (   3.2609991   0.0502580  15.7998297  )
        44           Ti1 tau(  44) = (   6.5501253   4.5826093  16.0954727  )
        45           O1  tau(  45) = (   3.2900926   2.9813045   4.7018136  )
        46           O1  tau(  46) = (   1.3039711   4.4726057   6.0039043  )
        47           O1  tau(  47) = (   5.2763189   4.4711207   6.0039473  )
        48           N1  tau(  48) = (   0.8845045   3.2634721  19.1145209  )
        49           N1  tau(  49) = (   6.3504243   3.3997271  18.1887592  )
        50           C1  tau(  50) = (   1.2927081   4.5631590  19.6429350  )
        51           H1  tau(  51) = (   0.4658632   5.1329972  20.1056819  )
        52           H1  tau(  52) = (   2.0600825   4.3818216  20.3958833  )
        53           H1  tau(  53) = (   1.7018904   5.1738364  18.8453250  )
        54           H1  tau(  54) = (   0.5628611   2.6866381  19.8888112  )
        55           H1  tau(  55) = (   5.6051421   3.9827062  18.5884547  )
        56           H1  tau(  56) = (   5.9567982   2.4624696  18.0937858  )

     number of k points=    10  Fermi-Dirac smearing, width (Ry)=  0.0073
                       cart. coord. in units 2pi/alat
        k(    1) = (   0.0000000   0.0000000   0.0000000), wk =   0.1250000
        k(    2) = (   0.0000000   0.0419351   0.0000000), wk =   0.2500000
        k(    3) = (   0.0000000  -0.0838702   0.0000000), wk =   0.1250000
        k(    4) = (   0.0379955   0.0000049   0.0000000), wk =   0.2500000
        k(    5) = (   0.0379955   0.0419400   0.0000000), wk =   0.2500000
        k(    6) = (   0.0379955  -0.0838652   0.0000000), wk =   0.2500000
        k(    7) = (   0.0379955  -0.0419301   0.0000000), wk =   0.2500000
        k(    8) = (  -0.0759910  -0.0000099   0.0000000), wk =   0.1250000
        k(    9) = (  -0.0759910   0.0419252   0.0000000), wk =   0.2500000
        k(   10) = (  -0.0759910  -0.0838800   0.0000000), wk =   0.1250000

     Initial potential from superposition of free atoms

     starting charge  381.99914, renormalised to  398.00000

     negative rho (up, down):  1.416E-02 0.000E+00

     %%%%%%%%%%%%%%%%%%%%%%%%%%%%%%%%%%%%%%%%%%%%%%%%%%%%%%%%%%%%%%%%%%%%%%%%
     %                                                                      %
     % You are using vdW-DF, which was implemented by the Thonhauser group. %
     % Please cite the following two papers that made this development      %
     % possible and the two reviews that describe the various versions:     %
     %                                                                      %
     %   T. Thonhauser et al., PRL 115, 136402 (2015).                      %
     %   T. Thonhauser et al., PRB 76, 125112 (2007).                       %
     %   K. Berland et al., Rep. Prog. Phys. 78, 066501 (2015).             %
     %   D.C. Langreth et al., J. Phys.: Condens. Matter 21, 084203 (2009). %
     %                                                                      %
     %                                                                      %
     % If you are calculating the stress with vdW-DF, please also cite:     %
     %                                                                      %
     %   R. Sabatini et al., J. Phys.: Condens. Matter 24, 424209 (2012).   %
     %                                                                      %
     %%%%%%%%%%%%%%%%%%%%%%%%%%%%%%%%%%%%%%%%%%%%%%%%%%%%%%%%%%%%%%%%%%%%%%%%

     Adding external electric field

     Computed dipole along edir(3) :
        Dipole              -11.7171 Ry au,        -29.7818 Debye
        Dipole field         -0.0221 Ry au,

        Potential amp.        2.0497 Ry
        Total length         46.3494 bohr

     Starting wfcs are  302 atomic wfcs
  @ DRIVER MODE: Message from server: STATUS
  @ DRIVER MODE: Message from server: POSDATA
  @ DRIVER MODE: Reading and sharing cell
  @ DRIVER MODE: Reading and sharing positions
  @ DRIVER MODE: Received positions

     Self-consistent Calculation

     iteration #  1     ecut=    29.40 Ry     beta= 0.05
     Davidson diagonalization with overlap
     c_bands:  3 eigenvalues not converged
     c_bands:  1 eigenvalues not converged
     c_bands:  1 eigenvalues not converged
     c_bands:  4 eigenvalues not converged
     c_bands:  1 eigenvalues not converged
     c_bands:  4 eigenvalues not converged
     c_bands:  5 eigenvalues not converged
     c_bands:  2 eigenvalues not converged
     ethr =  1.00E-05,  avg # of iterations = 21.9

[...]

     total energy              =   -2424.57241264 Ry
     estimated scf accuracy    <    5830.28969008 Ry

     iteration #  2     ecut=    29.40 Ry     beta= 0.05
     Davidson diagonalization with overlap
     ethr =  1.00E-02,  avg # of iterations = 22.7

[...]

     iteration # 59     ecut=    29.40 Ry     beta= 0.05
     Davidson diagonalization with overlap
     c_bands:  1 eigenvalues not converged
     ethr =  7.81E-09,  avg # of iterations = 15.3

[...]

     total energy              =   -2942.84390557 Ry
     estimated scf accuracy    <       0.00000011 Ry

     iteration # 73     ecut=    29.40 Ry     beta= 0.05
     Davidson diagonalization with overlap
     ethr =  2.81E-11,  avg # of iterations =  7.9

     negative rho (up, down):  1.512E-02 0.000E+00

     Adding external electric field

     Computed dipole along edir(3) :
        Dipole                1.4942 Ry au,          3.7978 Debye
        Dipole field          0.0028 Ry au,

        Potential amp.       -0.2614 Ry
        Total length         46.3494 bohr

     End of self-consistent calculation

          k = 0.0000 0.0000 0.0000 ( 18029 PWs)   bands (ev):

   -55.2026 -55.1655 -55.1549 -55.1262 -55.1207 -55.0840 -55.0810 -55.0462
   -55.0266 -55.0138 -54.9923 -54.9875 -54.9538 -54.8574 -54.1871 -54.1530
   -31.7690 -31.6530 -31.6478 -31.5691 -31.5159 -31.5150 -31.5123 -31.4936
   -31.4438 -31.4402 -31.4123 -31.4102 -31.3998 -31.3831 -31.3699 -31.3644
   -31.3571 -31.3475 -31.3400 -31.3231 -31.3074 -31.3048 -31.2730 -31.2692
   -31.2585 -31.2574 -31.2392 -31.2293 -31.2120 -31.2114 -31.2070 -31.1864
   -31.1862 -31.1830 -31.1760 -31.1734 -31.1401 -31.1306 -31.1158 -31.0989
   -31.0705 -31.0513 -30.5966 -30.5020 -30.4800 -30.4129 -30.3261 -30.2153
   -17.9617 -16.0361 -15.7738 -15.6285 -15.5163 -15.4049 -15.2855 -15.2546
   -15.1349 -15.0588 -14.9249 -14.8985 -14.8762 -14.8526 -14.8407 -14.8281
   -14.7523 -14.7458 -14.7298 -14.7015 -14.6996 -14.6544 -14.6446 -14.6052
   -14.5803 -14.5592 -14.4544 -14.3662 -14.2922 -14.0755 -13.4390 -12.6898
   -12.5723  -9.7034  -6.5982  -6.0899  -4.5842  -3.3744  -3.2410  -3.2263
    -3.1391  -3.1049  -3.0970  -2.9991  -2.9501  -2.7930  -2.6505  -2.6250
    -2.4939  -2.4188  -2.4024  -2.3781  -2.2482  -2.2131  -2.1620  -2.1231
    -2.0637  -2.0335  -2.0095  -1.9938  -1.9627  -1.9536  -1.9285  -1.8396
    -1.7799  -1.6870  -1.6697  -1.6023  -1.5943  -1.5615  -1.5405  -1.4952
    -1.4848  -1.4353  -1.4280  -1.4155  -1.3954  -1.2672  -1.2239  -1.1141
    -1.0530  -0.9654  -0.8444  -0.8044  -0.7904  -0.6997  -0.6908  -0.6590
    -0.5824  -0.5793  -0.5485  -0.4403  -0.3754  -0.3118  -0.2529  -0.2265
    -0.1933  -0.1159  -0.0252   0.0111   0.0278   0.0508   0.1510   0.1861
     0.2417   0.3086   0.3201   0.3334   0.4129   0.4542   0.5294   0.5659
     0.5836   0.6724   0.6987   0.7266   0.7271   0.7649   0.7792   0.8188
     0.8676   0.8944   0.9808   1.0398   1.1018   1.3465   1.3991   1.4052
     1.7313   1.7391   1.8355   2.0190   2.4120   2.4604   3.8937   3.9626
     4.0383   4.0433   4.0657   4.1295   4.3675   4.3905   4.3994   4.4016
     4.4283

[...]

          k = 0.0380-0.0419 0.0000 ( 17876 PWs)   bands (ev):

[...]

          k =-0.0760-0.0000 0.0000 ( 17886 PWs)   bands (ev):

[...]

          k =-0.0760-0.0839 0.0000 ( 17948 PWs)   bands (ev):

   -55.1888 -55.1791 -55.1381 -55.1374 -55.1249 -55.0797 -55.0665 -55.0607
   -55.0181 -55.0108 -55.0077 -54.9710 -54.9705 -54.8585 -54.1702 -54.1698
   -31.5771 -31.5764 -31.5693 -31.4847 -31.4632 -31.4627 -31.4597 -31.4291
   -31.4288 -31.4136 -31.4028 -31.4011 -31.3924 -31.3669 -31.3575 -31.3446
   -31.3433 -31.3395 -31.3364 -31.3309 -31.3288 -31.3229 -31.2838 -31.2806
   -31.2804 -31.2791 -31.2614 -31.2598 -31.2577 -31.2571 -31.2527 -31.2438
   -31.2409 -31.2239 -31.2206 -31.2048 -31.2040 -31.2011 -31.1517 -31.1513
   -31.1271 -31.0750 -30.4927 -30.4925 -30.4092 -30.4090 -30.3696 -30.3694
   -17.9584 -15.5612 -15.4312 -15.4020 -15.2456 -15.2094 -15.1761 -15.1628
   -15.0419 -15.0047 -14.9799 -14.9706 -14.9530 -14.9125 -14.9069 -14.9000
   -14.8295 -14.8102 -14.8060 -14.7837 -14.7254 -14.7165 -14.7126 -14.7050
   -14.6545 -14.6508 -14.5704 -14.5601 -14.5569 -14.3769 -13.4424 -12.6738
   -12.6738  -9.7196  -6.5824  -6.0899  -4.5627  -3.2126  -2.9533  -2.6936
    -2.6888  -2.6606  -2.4595  -2.3969  -2.3662  -2.3608  -2.2634  -2.2268
    -2.2024  -2.1988  -2.1335  -2.1187  -2.0880  -2.0579  -2.0417  -2.0278
    -2.0122  -1.9981  -1.9725  -1.9350  -1.9270  -1.9188  -1.8871  -1.8652
    -1.8422  -1.8200  -1.8064  -1.7880  -1.7620  -1.7396  -1.6028  -1.5711
    -1.5008  -1.4581  -1.4143  -1.4100  -1.3383  -1.3019  -1.2518  -1.2396
    -1.2225  -1.0828  -1.0243  -0.9736  -0.9535  -0.9425  -0.8137  -0.7994
    -0.7266  -0.7087  -0.6924  -0.6177  -0.5668  -0.5285  -0.5150  -0.4217
    -0.4063  -0.3399  -0.2378  -0.2151  -0.2011  -0.1605  -0.1574  -0.1102
    -0.1031  -0.0190   0.0252   0.0603   0.0711   0.1068   0.2997   0.3156
     0.3258   0.4787   0.4945   0.6362   0.6798   0.7463   0.8051   0.8440
     0.9057   0.9430   1.0504   1.0850   1.1008   1.1083   1.1705   1.1824
     1.2452   1.2559   2.1916   2.1922   2.2802   2.2805   4.0397   4.1471
     4.1547   4.1964   4.3163   4.3465   4.4088   4.4361   4.4775   4.4807
     4.5411

     the Fermi energy is     3.9571 ev

!    total energy              =   -2942.84392447 Ry
     estimated scf accuracy    <       0.00000006 Ry
     smearing contrib. (-TS)   =      -0.03707770 Ry
     internal energy E=F+TS    =   -2942.80684676 Ry

     The total energy is F=E-TS. E is the sum of the following terms:
     one-electron contribution =  -23366.60727396 Ry
     hartree contribution      =   11777.46714113 Ry
     xc contribution           =    -487.73669476 Ry
     ewald contribution        =    9134.06576763 Ry
     electric field correction =       0.00421319 Ry

     convergence has been achieved in  73 iterations

     Forces acting on atoms (cartesian axes, Ry/au):

     atom    1 type  1   force =     0.00017394   -0.00033336    0.09331881
     atom    2 type  1   force =    -0.00005897   -0.00042469   -0.17821732
     atom    3 type  2   force =     0.00002763   -0.00032136   -0.02004346
     atom    4 type  2   force =     0.00002184   -0.00183038    0.05924115
     atom    5 type  2   force =    -0.01046782   -0.00026741    0.00864309
     atom    6 type  2   force =     0.01148182    0.00040465    0.00645557
     atom    7 type  1   force =    -0.00100010    0.00212855   -0.01398737
     atom    8 type  1   force =     0.00081452   -0.00094355   -0.00573560
     atom    9 type  2   force =    -0.00010083    0.00012458   -0.00000831
     atom   10 type  2   force =    -0.00185354    0.00411516    0.00026796
     atom   11 type  2   force =    -0.00005670   -0.00065684    0.00028348
     atom   12 type  2   force =    -0.00002167   -0.00042567    0.00053970
     atom   13 type  1   force =     0.00004133    0.00009661    0.00030914
     atom   14 type  1   force =    -0.00037615   -0.00000232    0.00006443
     atom   15 type  2   force =     0.00051851    0.00023380   -0.00032911
     atom   16 type  2   force =     0.00032260   -0.00035240   -0.00007113
     atom   17 type  2   force =    -0.00058497   -0.00001738   -0.00003093
     atom   18 type  2   force =     0.00053746   -0.00018447    0.00001438
     atom   19 type  1   force =    -0.00001531   -0.00053364    0.00021611
     atom   20 type  1   force =     0.00068784    0.00008277    0.00093467
     atom   21 type  2   force =     0.00012396   -0.00012226    0.10401964
     atom   22 type  2   force =    -0.00038944    0.00021486   -0.00030793
     atom   23 type  2   force =    -0.07026116   -0.00022406   -0.02685231
     atom   24 type  2   force =     0.07025042    0.00021380   -0.02687697
     atom   25 type  1   force =     0.00007584   -0.00032119    0.09262929
     atom   26 type  1   force =    -0.00002901   -0.00059178   -0.17833718
     atom   27 type  2   force =     0.00013043   -0.00016651   -0.01909437
     atom   28 type  2   force =     0.00005057   -0.00163519    0.05860165
     atom   29 type  2   force =    -0.01106947   -0.00055799    0.00932452
     atom   30 type  2   force =     0.01198797   -0.00001962    0.00721331
     atom   31 type  1   force =    -0.00092894    0.00647031   -0.01504717
     atom   32 type  1   force =     0.00085861    0.00101274   -0.00587626
     atom   33 type  2   force =     0.00017531   -0.00057104   -0.00004291
     atom   34 type  2   force =    -0.00185771   -0.00052338   -0.00050091
     atom   35 type  2   force =    -0.00043910    0.00007476   -0.00043460
     atom   36 type  2   force =     0.00033777   -0.00010631    0.00018212
     atom   37 type  1   force =    -0.00051370   -0.00025259    0.00018076
     atom   38 type  1   force =    -0.00004648   -0.00014372   -0.00010435
     atom   39 type  2   force =     0.00029916   -0.00059194   -0.00000237
     atom   40 type  2   force =    -0.00060262   -0.00051155    0.00025605
     atom   41 type  2   force =    -0.00022697   -0.00074058   -0.00070573
     atom   42 type  2   force =     0.00046583   -0.00010476   -0.00013754
     atom   43 type  1   force =     0.00022874   -0.00021968   -0.00018909
     atom   44 type  1   force =     0.00054514    0.00007590    0.00081264
     atom   45 type  2   force =     0.00013695   -0.00014396    0.10397327
     atom   46 type  2   force =    -0.07025966   -0.00015566   -0.02682179
     atom   47 type  2   force =     0.07023060    0.00026408   -0.02687935
     atom   48 type  3   force =     0.00032060    0.00261857    0.00023846
     atom   49 type  3   force =    -0.00024431   -0.00104848   -0.00009441
     atom   50 type  4   force =    -0.00254831    0.00191282    0.00166074
     atom   51 type  5   force =     0.00263268   -0.00282391   -0.00136151
     atom   52 type  5   force =     0.00019438   -0.00016531   -0.00013010
     atom   53 type  5   force =     0.00125002    0.00008369   -0.00146602
     atom   54 type  5   force =    -0.00004718   -0.00179902    0.00073542
     atom   55 type  5   force =     0.00013734   -0.00055825   -0.00014876
     atom   56 type  5   force =    -0.00105965    0.00026460   -0.00028148

     Total force =     0.366351     Total SCF correction =     0.000735
  @ DRIVER MODE: Message from server: STATUS
  @ DRIVER MODE: Message from server: GETFORCE
  @ DRIVER MODE: Returning v,forces,stress,ensemble

     Writing output data file ./calc.save/
  @ DRIVER MODE: Message from server: EXIT
  @ DRIVE MODE: Exiting

     General routines

     Parallel routines

   This run was terminated on:   5:16:21  25Aug2021

   JOB DONE.