     Program PWSCF v.6.7GPU starts on  2Aug2021 at 22:22:50

     R & G space division:  proc/nbgrp/npool/nimage =      16
     Reading input from /storage/home/hcoda1/3/ntian30/research/carbon/02Aug_vib_paired/ads_slab/CH3NNHH_a/out_0035/pw.inp
Warning: card &CELL ignored
Warning: card   CELL_DYNAMICS='IPI', ignored
Warning: card / ignored

     Current dimensions of program PWSCF are:
     Max number of different atomic species (ntypx) = 10
     Max number of k-points (npk) =  40000
     Max angular momentum in pseudopotentials (lmaxx) =  3
     Presently no symmetry can be used with electric field

     Message from routine cell_base_init:
     DEPRECATED: use true lattice parameter, not A to a.u. conversion factor

     IMPORTANT: XC functional enforced from input :
     Exchange-correlation= BEEF-VDW
                           (   1   4  43  14   2   0   0)
     Any further DFT definition will be discarded
     Please, verify this is what you really want

  @ DRIVER MODE: Connecting to
 qe_1139763_2482543.sched-torque.pace.gatech.edugph01gse_scratch
  using UNIX socket
  @ DRIVER MODE: Message from server: STATUS
  @ DRIVER MODE: Message from server: INIT
  @ DRIVER MODE: Receiving replica           0          -1
  @ DRIVER MODE: Receiving encoded integer          25
  @ DRIVER MODE:  SCF:  T  FORCE:  T  STRESS:  F  VC:  F  ENSEMBLE:  F
  @ DRIVER MODE:  SCF:  T  FORCE:  T  STRESS:  F  VC:  F  ENSEMBLE:  F

     Using Slab Decomposition

     bravais-lattice index     =            0
     lattice parameter (alat)  =       1.8897  a.u.
     unit-cell volume          =    6658.9804 (a.u.)^3
     number of atoms/cell      =           55
     number of atomic types    =            5
     number of electrons       =       397.00
     number of Kohn-Sham states=          208
     kinetic-energy cutoff     =      29.3995  Ry
     charge density cutoff     =     293.9946  Ry
     scf convergence threshold =      7.3E-08
     mixing beta               =       0.0500
     number of iterations used =            8  plain     mixing
     Exchange-correlation= BEEF-VDW
                           (   1   4  43  14   2   0   0)

     celldm(1)=   1.889726  celldm(2)=   0.000000  celldm(3)=   0.000000
     celldm(4)=   0.000000  celldm(5)=   0.000000  celldm(6)=   0.000000

     crystal axes: (cart. coord. in units of alat)
               a(1) = (   6.579727   0.000000   0.000000 )
               a(2) = (  -0.000775   5.961596   0.000000 )
               a(3) = (   0.000000   0.000000  25.155947 )

     reciprocal axes: (cart. coord. in units 2 pi/alat)
               b(1) = (  0.151982  0.000020  0.000000 )
               b(2) = (  0.000000  0.167740  0.000000 )
               b(3) = (  0.000000  0.000000  0.039752 )

     PseudoPot. # 1 for Ti read from file:
     /storage/coda1/p-amedford6/0/shared/rich_project_chbe-medford/medford-share/data/pseudos_module/espresso/nninc/pbe/van/Ti.UPF
     MD5 check sum: 8e4df49b7f0d34bbd5052bf3f5ea0213
     Pseudo is Ultrasoft, Zval = 12.0
     Generated by new atomic code, or converted to UPF format
     Using radial grid of  851 points,  6 beta functions with:
                l(1) =   0
                l(2) =   0
                l(3) =   1
                l(4) =   1
                l(5) =   2
                l(6) =   2
     Q(r) pseudized with  8 coefficients,  rinner =    1.000   1.000   1.000
                                                       1.000   1.000

     PseudoPot. # 2 for O  read from file:
     /storage/coda1/p-amedford6/0/shared/rich_project_chbe-medford/medford-share/data/pseudos_module/espresso/nninc/pbe/van/O.UPF
     MD5 check sum: 78c19812648e8988a0fe644b0f25305e
     Pseudo is Ultrasoft, Zval =  6.0
     Generated by new atomic code, or converted to UPF format
     Using radial grid of  737 points,  4 beta functions with:
                l(1) =   0
                l(2) =   0
                l(3) =   1
                l(4) =   1
     Q(r) pseudized with  8 coefficients,  rinner =    0.800   0.800   0.800

     PseudoPot. # 3 for N  read from file:
     /storage/coda1/p-amedford6/0/shared/rich_project_chbe-medford/medford-share/data/pseudos_module/espresso/nninc/pbe/van/N.UPF
     MD5 check sum: 90d10febe142ad51ac9d5be1deb811c4
     Pseudo is Ultrasoft, Zval =  5.0
     Generated by new atomic code, or converted to UPF format
     Using radial grid of  729 points,  4 beta functions with:
                l(1) =   0
                l(2) =   0
                l(3) =   1
                l(4) =   1
     Q(r) pseudized with  8 coefficients,  rinner =    0.800   0.800   0.800

     PseudoPot. # 4 for C  read from file:
     /storage/coda1/p-amedford6/0/shared/rich_project_chbe-medford/medford-share/data/pseudos_module/espresso/nninc/pbe/van/C.UPF
     MD5 check sum: 1a69bf6b8db32088f5b2163dbdb77a27
     Pseudo is Ultrasoft, Zval =  4.0
     Generated by new atomic code, or converted to UPF format
     Using radial grid of  721 points,  4 beta functions with:
                l(1) =   0
                l(2) =   0
                l(3) =   1
                l(4) =   1
     Q(r) pseudized with  8 coefficients,  rinner =    0.800   0.800   0.800

     PseudoPot. # 5 for H  read from file:
     /storage/coda1/p-amedford6/0/shared/rich_project_chbe-medford/medford-share/data/pseudos_module/espresso/nninc/pbe/van/H.UPF
     MD5 check sum: b5ee9d7bfd3a09ee7748110bda690ff7
     Pseudo is Ultrasoft, Zval =  1.0
     Generated by new atomic code, or converted to UPF format
     Using radial grid of  615 points,  1 beta functions with:
                l(1) =   0
     Q(r) pseudized with  8 coefficients,  rinner =    0.800

     atomic species   valence    mass     pseudopotential
        Ti1           12.00    47.86700     Ti( 1.00)
        O1             6.00    15.99900     O ( 1.00)
        N1             5.00    14.00700     N ( 1.00)
        C1             4.00    12.01100     C ( 1.00)
        H1             1.00     1.00800     H ( 1.00)

     No symmetry found

   Cartesian axes

     site n.     atom                  positions (alat units)
         1           Ti1 tau(   1) = (   0.0004258   2.9801865   6.0000000  )
         2           Ti1 tau(   2) = (   3.2906075   1.4906267   6.0002472  )
         3           O1  tau(   3) = (   0.0006271   0.0005054   7.9858123  )
         4           O1  tau(   4) = (   3.2906025   0.0005020   7.3038282  )
         5           O1  tau(   5) = (   4.5942328   1.4918067   9.2879030  )
         6           O1  tau(   6) = (   1.9868534   1.4903216   9.2879459  )
         7           Ti1 tau(   7) = (   3.2907910   2.8959150   9.1758416  )
         8           Ti1 tau(   8) = (   0.0015273   1.4827037   9.2680791  )
         9           O1  tau(   9) = (   3.3049802   0.0007868  11.3057318  )
        10           O1  tau(  10) = (   0.0116148   5.9584955  10.6183126  )
        11           O1  tau(  11) = (   1.3244024   1.4905818  12.6109357  )
        12           O1  tau(  12) = (   5.3168099   1.4893704  12.6271843  )
        13           Ti1 tau(  13) = (   6.5373159   3.0114403  12.6515439  )
        14           Ti1 tau(  14) = (   3.2156784   1.4952808  12.4541107  )
        15           O1  tau(  15) = (   0.0550716   5.9579553  14.6769760  )
        16           O1  tau(  16) = (   3.3119233   0.0240268  13.8744051  )
        17           O1  tau(  17) = (   4.5754650   1.5399768  16.1198157  )
        18           O1  tau(  18) = (   2.0928293   1.5118261  15.9950610  )
        19           Ti1 tau(  19) = (   3.3312717   3.0210965  15.6459898  )
        20           Ti1 tau(  20) = (   0.0837956   1.4057146  15.8023643  )
        21           O1  tau(  21) = (   3.2904802   0.0005063   4.7018136  )
        22           O1  tau(  22) = (   0.0662678   0.0194342  17.2484716  )
        23           O1  tau(  23) = (   1.3043587   1.4918075   6.0039043  )
        24           O1  tau(  24) = (   5.2767064   1.4903225   6.0039473  )
        25           Ti1 tau(  25) = (   0.0000382   5.9609847   6.0000000  )
        26           Ti1 tau(  26) = (   3.2902200   4.4714249   6.0002472  )
        27           O1  tau(  27) = (   0.0002396   2.9813036   7.9858123  )
        28           O1  tau(  28) = (   3.2902150   2.9813002   7.3038282  )
        29           O1  tau(  29) = (   4.5938453   4.4726049   9.2879030  )
        30           O1  tau(  30) = (   1.9864658   4.4711199   9.2879459  )
        31           Ti1 tau(  31) = (   3.2891106   5.8743827   9.1763621  )
        32           Ti1 tau(  32) = (   0.0006254   4.4649316   9.2693709  )
        33           O1  tau(  33) = (   3.3066024   2.9928613  11.3071500  )
        34           O1  tau(  34) = (   0.0092240   2.9805883  10.6323155  )
        35           O1  tau(  35) = (   1.3207996   4.4694119  12.6241097  )
        36           O1  tau(  36) = (   5.3140488   4.4801720  12.6365454  )
        37           Ti1 tau(  37) = (   6.5381296   0.0208815  12.5444857  )
        38           Ti1 tau(  38) = (   3.2183512   4.4801350  12.4586296  )
        39           O1  tau(  39) = (   0.0202472   2.9427232  14.7250097  )
        40           O1  tau(  40) = (   3.3152672   2.9848540  13.8607131  )
        41           O1  tau(  41) = (   4.5737023   4.5140360  15.9163038  )
        42           O1  tau(  42) = (   2.1295162   4.4918226  16.0779194  )
        43           Ti1 tau(  43) = (   3.3279662   0.0229233  15.6733299  )
        44           Ti1 tau(  44) = (   6.5520288   4.5036137  16.2892914  )
        45           O1  tau(  45) = (   3.2900926   2.9813045   4.7018136  )
        46           O1  tau(  46) = (   1.3039711   4.4726057   6.0039043  )
        47           O1  tau(  47) = (   5.2763189   4.4711207   6.0039473  )
        48           N1  tau(  48) = (   0.3708600   2.9881754  17.6030774  )
        49           C1  tau(  49) = (   1.3543844   2.7351176  18.6431602  )
        50           H1  tau(  50) = (   1.5086739   3.6319226  19.2591966  )
        51           H1  tau(  51) = (   1.0320479   1.9069190  19.2840631  )
        52           H1  tau(  52) = (   2.3019873   2.4496563  18.1994378  )
        53           N1  tau(  53) = (   5.7269228   3.4566738  18.1214761  )
        54           H1  tau(  54) = (   5.8315057   4.0292447  18.9662490  )
        55           H1  tau(  55) = (   5.0361168   2.7172796  18.2515220  )

     number of k points=    10  Fermi-Dirac smearing, width (Ry)=  0.0073
                       cart. coord. in units 2pi/alat
        k(    1) = (   0.0000000   0.0000000   0.0000000), wk =   0.1250000
        k(    2) = (   0.0000000   0.0419351   0.0000000), wk =   0.2500000
        k(    3) = (   0.0000000  -0.0838702   0.0000000), wk =   0.1250000
        k(    4) = (   0.0379955   0.0000049   0.0000000), wk =   0.2500000
        k(    5) = (   0.0379955   0.0419400   0.0000000), wk =   0.2500000
        k(    6) = (   0.0379955  -0.0838652   0.0000000), wk =   0.2500000
        k(    7) = (   0.0379955  -0.0419301   0.0000000), wk =   0.2500000
        k(    8) = (  -0.0759910  -0.0000099   0.0000000), wk =   0.1250000
        k(    9) = (  -0.0759910   0.0419252   0.0000000), wk =   0.2500000
        k(   10) = (  -0.0759910  -0.0838800   0.0000000), wk =   0.1250000

     Initial potential from superposition of free atoms

     starting charge  380.99914, renormalised to  397.00000

     negative rho (up, down):  1.665E-02 0.000E+00

     %%%%%%%%%%%%%%%%%%%%%%%%%%%%%%%%%%%%%%%%%%%%%%%%%%%%%%%%%%%%%%%%%%%%%%%%
     %                                                                      %
     % You are using vdW-DF, which was implemented by the Thonhauser group. %
     % Please cite the following two papers that made this development      %
     % possible and the two reviews that describe the various versions:     %
     %                                                                      %
     %   T. Thonhauser et al., PRL 115, 136402 (2015).                      %
     %   T. Thonhauser et al., PRB 76, 125112 (2007).                       %
     %   K. Berland et al., Rep. Prog. Phys. 78, 066501 (2015).             %
     %   D.C. Langreth et al., J. Phys.: Condens. Matter 21, 084203 (2009). %
     %                                                                      %
     %                                                                      %
     % If you are calculating the stress with vdW-DF, please also cite:     %
     %                                                                      %
     %   R. Sabatini et al., J. Phys.: Condens. Matter 24, 424209 (2012).   %
     %                                                                      %
     %%%%%%%%%%%%%%%%%%%%%%%%%%%%%%%%%%%%%%%%%%%%%%%%%%%%%%%%%%%%%%%%%%%%%%%%

     Adding external electric field

     Computed dipole along edir(3) :
        Dipole               -9.2500 Ry au,        -23.5112 Debye
        Dipole field         -0.0175 Ry au,

        Potential amp.        1.6182 Ry
        Total length         46.3494 bohr

     Starting wfcs are  301 atomic wfcs
  @ DRIVER MODE: Message from server: STATUS
  @ DRIVER MODE: Message from server: POSDATA
  @ DRIVER MODE: Reading and sharing cell
  @ DRIVER MODE: Reading and sharing positions
  @ DRIVER MODE: Received positions

     Self-consistent Calculation

     iteration #  1     ecut=    29.40 Ry     beta= 0.05
     Davidson diagonalization with overlap
     c_bands:  1 eigenvalues not converged
     c_bands:  2 eigenvalues not converged
     c_bands:  1 eigenvalues not converged
     c_bands:  2 eigenvalues not converged
     c_bands:  2 eigenvalues not converged
     c_bands:  1 eigenvalues not converged
     c_bands:  2 eigenvalues not converged
     c_bands:  2 eigenvalues not converged
     c_bands:  4 eigenvalues not converged
     ethr =  1.00E-05,  avg # of iterations = 19.7

[...]

     total energy              =   -2525.59714941 Ry
     estimated scf accuracy    <    4612.59956280 Ry

     iteration #  2     ecut=    29.40 Ry     beta= 0.05
     Davidson diagonalization with overlap
     ethr =  1.00E-02,  avg # of iterations = 23.1

[...]

     iteration # 61     ecut=    29.40 Ry     beta= 0.05
     Davidson diagonalization with overlap
     c_bands:  2 eigenvalues not converged
     ethr =  1.50E-10,  avg # of iterations = 14.8

[...]

     total energy              =   -2941.63733653 Ry
     estimated scf accuracy    <       0.00000012 Ry

     iteration # 65     ecut=    29.40 Ry     beta= 0.05
     Davidson diagonalization with overlap
     ethr =  3.14E-11,  avg # of iterations =  9.1

     negative rho (up, down):  1.675E-02 0.000E+00

     Adding external electric field

     Computed dipole along edir(3) :
        Dipole                1.1534 Ry au,          2.9317 Debye
        Dipole field          0.0022 Ry au,

        Potential amp.       -0.2018 Ry
        Total length         46.3494 bohr

     End of self-consistent calculation

          k = 0.0000 0.0000 0.0000 ( 18029 PWs)   bands (ev):

   -55.5692 -55.5663 -55.5324 -55.5322 -55.4558 -55.4193 -55.4178 -55.3841
   -55.3668 -55.3328 -55.3216 -55.2878 -55.0293 -54.8839 -54.5329 -54.4989
   -32.1320 -32.0474 -31.9530 -31.8886 -31.8836 -31.8689 -31.8589 -31.8142
   -31.8069 -31.8006 -31.7802 -31.7550 -31.7512 -31.7218 -31.7185 -31.7111
   -31.6694 -31.6563 -31.6536 -31.6444 -31.6436 -31.6236 -31.6075 -31.5920
   -31.5650 -31.5639 -31.5624 -31.5545 -31.5520 -31.5255 -31.5019 -31.5009
   -31.4959 -31.4885 -31.4761 -31.4702 -31.4353 -31.3058 -31.2542 -31.1557
   -31.1375 -31.0446 -30.9393 -30.8527 -30.8302 -30.7564 -30.6699 -30.5586
   -17.6250 -16.3580 -16.0447 -15.8336 -15.7224 -15.7179 -15.6340 -15.4129
   -15.2929 -15.2773 -15.1612 -15.1564 -15.0974 -15.0570 -15.0505 -15.0449
   -15.0101 -14.9980 -14.9794 -14.9496 -14.9110 -14.8932 -14.8735 -14.7672
   -14.7055 -14.6951 -14.6797 -14.6126 -14.5689 -14.2056 -13.0347 -12.9185
   -12.5360  -9.2148  -6.3154  -5.1215  -4.2101  -3.7362  -3.5453  -3.4694
    -3.4347  -3.3719  -3.3590  -3.1789  -3.1710  -2.7932  -2.7723  -2.7532
    -2.7315  -2.7289  -2.4610  -2.4081  -2.3915  -2.3890  -2.3716  -2.3542
    -2.3324  -2.3219  -2.2936  -2.2875  -2.1519  -2.1070  -2.0285  -1.9979
    -1.9880  -1.8743  -1.8511  -1.8297  -1.8187  -1.8046  -1.7763  -1.7682
    -1.7478  -1.6404  -1.5310  -1.4577  -1.4155  -1.3583  -1.3438  -1.1585
    -1.1100  -1.0501  -1.0241  -0.9987  -0.9837  -0.9500  -0.8760  -0.8528
    -0.7102  -0.6727  -0.6190  -0.5930  -0.5620  -0.5076  -0.4713  -0.4436
    -0.3465  -0.3341  -0.3224  -0.3097  -0.2498  -0.0618  -0.0147   0.0038
     0.0194   0.1192   0.1591   0.1809   0.2186   0.2746   0.3007   0.3671
     0.3972   0.4171   0.4265   0.4509   0.4730   0.6048   0.6314   0.6621
     0.7214   0.7753   0.8487   0.9641   1.0501   1.1031   1.2043   1.4226
     1.4898   1.5736   1.6836   1.6970   2.0593   2.1043   3.5688   3.6593
     3.6974   3.7113   3.8183   3.8698   4.0177   4.0276   4.0702   4.0999

[...]

          k = 0.0380-0.0419 0.0000 ( 17876 PWs)   bands (ev):

[...]

          k =-0.0760-0.0000 0.0000 ( 17886 PWs)   bands (ev):

[...]

          k =-0.0760-0.0839 0.0000 ( 17948 PWs)   bands (ev):

   -55.5540 -55.5497 -55.5486 -55.5475 -55.4451 -55.4285 -55.4042 -55.3990
   -55.3512 -55.3479 -55.3063 -55.3032 -55.0279 -54.8852 -54.5159 -54.5158
   -31.9369 -31.9282 -31.8631 -31.8624 -31.8447 -31.8439 -31.8391 -31.8239
   -31.7972 -31.7834 -31.7639 -31.7451 -31.7170 -31.7084 -31.7032 -31.6782
   -31.6760 -31.6694 -31.6681 -31.6638 -31.6610 -31.6478 -31.6446 -31.6406
   -31.6215 -31.6093 -31.5993 -31.5976 -31.5485 -31.5464 -31.5393 -31.5376
   -31.5305 -31.5270 -31.5217 -31.5201 -31.4110 -31.3179 -31.2560 -31.2168
   -31.1434 -31.0563 -30.8430 -30.8428 -30.7522 -30.7520 -30.7132 -30.7131
   -17.6134 -15.8156 -15.7799 -15.5222 -15.5147 -15.5130 -15.4713 -15.3488
   -15.3001 -15.2734 -15.2621 -15.2430 -15.2367 -15.1320 -15.1193 -15.1021
   -15.0921 -15.0665 -15.0226 -15.0168 -15.0097 -14.9992 -14.9874 -14.9231
   -14.8682 -14.8644 -14.7559 -14.6614 -14.5192 -14.4362 -13.0205 -13.0203
   -12.5555  -9.1747  -6.2749  -5.1523  -4.1426  -3.4304  -3.1168  -3.0727
    -2.7842  -2.7650  -2.7512  -2.6348  -2.5151  -2.5061  -2.4811  -2.4581
    -2.4252  -2.4113  -2.4031  -2.3948  -2.3762  -2.3569  -2.3460  -2.3074
    -2.2383  -2.2310  -2.2228  -2.2132  -2.1966  -2.1727  -2.1630  -2.1347
    -2.1102  -2.0774  -2.0180  -1.9873  -1.8363  -1.7904  -1.7366  -1.6917
    -1.6833  -1.6540  -1.6205  -1.6129  -1.5058  -1.4918  -1.4582  -1.3278
    -1.2666  -1.2577  -1.2245  -1.1386  -1.1013  -0.9692  -0.9563  -0.9206
    -0.8663  -0.8549  -0.8186  -0.7805  -0.7298  -0.6769  -0.6337  -0.6085
    -0.5925  -0.5200  -0.5192  -0.4737  -0.4159  -0.3473  -0.3224  -0.3147
    -0.2834  -0.2393  -0.1935  -0.1286  -0.0538  -0.0323  -0.0180   0.0800
     0.1560   0.3713   0.4171   0.5188   0.5390   0.5628   0.6268   0.6759
     0.7454   0.7598   0.7886   0.8625   0.8837   0.9758   0.9863   1.0026
     1.1814   1.6261   1.8552   1.8561   1.9240   1.9245   3.8629   3.8764
     3.9026   3.9266   4.0881   4.0919   4.1041   4.1068   4.2273   4.2577

     the Fermi energy is     3.5676 ev

!    total energy              =   -2941.63737332 Ry
     estimated scf accuracy    <       0.00000004 Ry
     smearing contrib. (-TS)   =      -0.02170675 Ry
     internal energy E=F+TS    =   -2941.61566657 Ry

     The total energy is F=E-TS. E is the sum of the following terms:
     one-electron contribution =  -24407.97510311 Ry
     hartree contribution      =   12295.97018171 Ry
     xc contribution           =    -486.94239406 Ry
     ewald contribution        =    9657.32913831 Ry
     electric field correction =       0.00251057 Ry

     convergence has been achieved in  65 iterations

     Forces acting on atoms (cartesian axes, Ry/au):

     atom    1 type  1   force =     0.00002396   -0.00018789    0.09687299
     atom    2 type  1   force =     0.00010558   -0.00067613   -0.17457202
     atom    3 type  2   force =     0.00019973   -0.00005467   -0.02508544
     atom    4 type  2   force =     0.00001425   -0.00122554    0.05108301
     atom    5 type  2   force =    -0.01108462   -0.00078600    0.00213006
     atom    6 type  2   force =     0.01303514   -0.00028880    0.00280626
     atom    7 type  1   force =     0.00113898    0.00019755   -0.01336351
     atom    8 type  1   force =    -0.00017942    0.01540798    0.02795142
     atom    9 type  2   force =    -0.00011730    0.00045703    0.00002140
     atom   10 type  2   force =    -0.00221704    0.00097475   -0.01126064
     atom   11 type  2   force =     0.00028683   -0.00012157    0.00017336
     atom   12 type  2   force =    -0.00026247   -0.00012413    0.00039556
     atom   13 type  1   force =    -0.00009003   -0.00028140    0.00009058
     atom   14 type  1   force =     0.00011602    0.00011890   -0.00005055
     atom   15 type  2   force =     0.00007578   -0.00049251   -0.00033112
     atom   16 type  2   force =    -0.00045050    0.00018028    0.00025898
     atom   17 type  2   force =    -0.00017336   -0.00010629   -0.00012558
     atom   18 type  2   force =    -0.00033801   -0.00003710    0.00020452
     atom   19 type  1   force =    -0.00000849    0.00044157   -0.00037733
     atom   20 type  1   force =    -0.00020469   -0.00006920   -0.00002993
     atom   21 type  2   force =     0.00005187   -0.00009821    0.10297027
     atom   22 type  2   force =    -0.00075325   -0.00033680    0.00051172
     atom   23 type  2   force =    -0.07181416   -0.00022330   -0.02779567
     atom   24 type  2   force =     0.07178438    0.00023034   -0.02784962
     atom   25 type  1   force =     0.00004065   -0.00022614    0.09640536
     atom   26 type  1   force =    -0.00001132   -0.00030728   -0.17484045
     atom   27 type  2   force =     0.00020162   -0.00025404   -0.02393604
     atom   28 type  2   force =     0.00007763   -0.00095901    0.05131121
     atom   29 type  2   force =    -0.01108256    0.00095892    0.00149022
     atom   30 type  2   force =     0.01288573    0.00119850    0.00211716
     atom   31 type  1   force =     0.00114964    0.00257524   -0.01566595
     atom   32 type  1   force =    -0.00001589   -0.01667612    0.02886456
     atom   33 type  2   force =    -0.00018003   -0.00045810    0.00044154
     atom   34 type  2   force =    -0.00258381    0.00114556   -0.01889982
     atom   35 type  2   force =    -0.00011620   -0.00010472    0.00003742
     atom   36 type  2   force =    -0.00003124   -0.00018236    0.00022534
     atom   37 type  1   force =    -0.00023987   -0.00016846    0.00048047
     atom   38 type  1   force =     0.00010346   -0.00053830    0.00034365
     atom   39 type  2   force =     0.00003049    0.00045179    0.00024570
     atom   40 type  2   force =    -0.00032326   -0.00013835   -0.00071146
     atom   41 type  2   force =    -0.00028323    0.00029221   -0.00038577
     atom   42 type  2   force =    -0.00012242    0.00020977    0.00024542
     atom   43 type  1   force =     0.00010018   -0.00054335   -0.00082940
     atom   44 type  1   force =    -0.00033469    0.00140678   -0.00100280
     atom   45 type  2   force =     0.00006207   -0.00011220    0.10297024
     atom   46 type  2   force =    -0.07183241   -0.00016575   -0.02781053
     atom   47 type  2   force =     0.07179111    0.00021921   -0.02785412
     atom   48 type  3   force =     0.00276472   -0.00300833   -0.00302577
     atom   49 type  4   force =    -0.00073944    0.00099788    0.00072831
     atom   50 type  5   force =    -0.00004601    0.00001419    0.00038060
     atom   51 type  5   force =    -0.00084775   -0.00071052    0.00000078
     atom   52 type  5   force =     0.00122108   -0.00029657   -0.00005600
     atom   53 type  3   force =    -0.00087089    0.00714434    0.01651419
     atom   54 type  5   force =    -0.00075162   -0.00562932   -0.00898528
     atom   55 type  5   force =     0.00084504    0.00096566   -0.00342748

     Total force =     0.367770     Total SCF correction =     0.000448
  @ DRIVER MODE: Message from server: STATUS
  @ DRIVER MODE: Message from server: GETFORCE
  @ DRIVER MODE: Returning v,forces,stress,ensemble

     Writing output data file ./calc.save/
  @ DRIVER MODE: Message from server: EXIT
  @ DRIVE MODE: Exiting

     General routines

     Parallel routines

   This run was terminated on:  22:39:20   2Aug2021

   JOB DONE.