     Program PWSCF v.6.7GPU starts on 10Sep2021 at  5:39: 1

     R & G space division:  proc/nbgrp/npool/nimage =      10
     Reading input from /storage/home/hcoda1/3/ntian30/research/carbon/CxH_vib/CH3_calc/ads_slab/CH3N2H2O_e/out_0026/pw.inp
Warning: card &CELL ignored
Warning: card   CELL_DYNAMICS='IPI', ignored
Warning: card / ignored

     Current dimensions of program PWSCF are:
     Max number of different atomic species (ntypx) = 10
     Max number of k-points (npk) =  40000
     Max angular momentum in pseudopotentials (lmaxx) =  3
     Presently no symmetry can be used with electric field

     Message from routine cell_base_init:
     DEPRECATED: use true lattice parameter, not A to a.u. conversion factor

     IMPORTANT: XC functional enforced from input :
     Exchange-correlation= BEEF-VDW
                           (   1   4  43  14   2   0   0)
     Any further DFT definition will be discarded
     Please, verify this is what you really want

  @ DRIVER MODE: Connecting to
 qe_1139763_2779715.sched-torque.pace.gatech.eduu08bxod1_scratch
  using UNIX socket
  @ DRIVER MODE: Message from server: STATUS
  @ DRIVER MODE: Message from server: INIT
  @ DRIVER MODE: Receiving replica           0          -1
  @ DRIVER MODE: Receiving encoded integer          25
  @ DRIVER MODE:  SCF:  T  FORCE:  T  STRESS:  F  VC:  F  ENSEMBLE:  F
  @ DRIVER MODE:  SCF:  T  FORCE:  T  STRESS:  F  VC:  F  ENSEMBLE:  F

     Using Slab Decomposition

     bravais-lattice index     =            0
     lattice parameter (alat)  =       1.8897  a.u.
     unit-cell volume          =    6658.9804 (a.u.)^3
     number of atoms/cell      =           56
     number of atomic types    =            5
     number of electrons       =       403.00
     number of Kohn-Sham states=          211
     kinetic-energy cutoff     =      29.3995  Ry
     charge density cutoff     =     293.9946  Ry
     scf convergence threshold =      7.3E-08
     mixing beta               =       0.0500
     number of iterations used =            8  plain     mixing
     Exchange-correlation= BEEF-VDW
                           (   1   4  43  14   2   0   0)

     celldm(1)=   1.889726  celldm(2)=   0.000000  celldm(3)=   0.000000
     celldm(4)=   0.000000  celldm(5)=   0.000000  celldm(6)=   0.000000

     crystal axes: (cart. coord. in units of alat)
               a(1) = (   6.579727   0.000000   0.000000 )
               a(2) = (  -0.000775   5.961596   0.000000 )
               a(3) = (   0.000000   0.000000  25.155947 )

     reciprocal axes: (cart. coord. in units 2 pi/alat)
               b(1) = (  0.151982  0.000020  0.000000 )
               b(2) = (  0.000000  0.167740  0.000000 )
               b(3) = (  0.000000  0.000000  0.039752 )

     PseudoPot. # 1 for Ti read from file:
     /storage/coda1/p-amedford6/0/shared/rich_project_chbe-medford/medford-share/data/pseudos_module/espresso/nninc/pbe/van/Ti.UPF
     MD5 check sum: 8e4df49b7f0d34bbd5052bf3f5ea0213
     Pseudo is Ultrasoft, Zval = 12.0
     Generated by new atomic code, or converted to UPF format
     Using radial grid of  851 points,  6 beta functions with:
                l(1) =   0
                l(2) =   0
                l(3) =   1
                l(4) =   1
                l(5) =   2
                l(6) =   2
     Q(r) pseudized with  8 coefficients,  rinner =    1.000   1.000   1.000
                                                       1.000   1.000

     PseudoPot. # 2 for O  read from file:
     /storage/coda1/p-amedford6/0/shared/rich_project_chbe-medford/medford-share/data/pseudos_module/espresso/nninc/pbe/van/O.UPF
     MD5 check sum: 78c19812648e8988a0fe644b0f25305e
     Pseudo is Ultrasoft, Zval =  6.0
     Generated by new atomic code, or converted to UPF format
     Using radial grid of  737 points,  4 beta functions with:
                l(1) =   0
                l(2) =   0
                l(3) =   1
                l(4) =   1
     Q(r) pseudized with  8 coefficients,  rinner =    0.800   0.800   0.800

     PseudoPot. # 3 for N  read from file:
     /storage/coda1/p-amedford6/0/shared/rich_project_chbe-medford/medford-share/data/pseudos_module/espresso/nninc/pbe/van/N.UPF
     MD5 check sum: 90d10febe142ad51ac9d5be1deb811c4
     Pseudo is Ultrasoft, Zval =  5.0
     Generated by new atomic code, or converted to UPF format
     Using radial grid of  729 points,  4 beta functions with:
                l(1) =   0
                l(2) =   0
                l(3) =   1
                l(4) =   1
     Q(r) pseudized with  8 coefficients,  rinner =    0.800   0.800   0.800

     PseudoPot. # 4 for C  read from file:
     /storage/coda1/p-amedford6/0/shared/rich_project_chbe-medford/medford-share/data/pseudos_module/espresso/nninc/pbe/van/C.UPF
     MD5 check sum: 1a69bf6b8db32088f5b2163dbdb77a27
     Pseudo is Ultrasoft, Zval =  4.0
     Generated by new atomic code, or converted to UPF format
     Using radial grid of  721 points,  4 beta functions with:
                l(1) =   0
                l(2) =   0
                l(3) =   1
                l(4) =   1
     Q(r) pseudized with  8 coefficients,  rinner =    0.800   0.800   0.800

     PseudoPot. # 5 for H  read from file:
     /storage/coda1/p-amedford6/0/shared/rich_project_chbe-medford/medford-share/data/pseudos_module/espresso/nninc/pbe/van/H.UPF
     MD5 check sum: b5ee9d7bfd3a09ee7748110bda690ff7
     Pseudo is Ultrasoft, Zval =  1.0
     Generated by new atomic code, or converted to UPF format
     Using radial grid of  615 points,  1 beta functions with:
                l(1) =   0
     Q(r) pseudized with  8 coefficients,  rinner =    0.800

     atomic species   valence    mass     pseudopotential
        Ti1           12.00    47.86700     Ti( 1.00)
        O1             6.00    15.99900     O ( 1.00)
        N1             5.00    14.00700     N ( 1.00)
        C1             4.00    12.01100     C ( 1.00)
        H1             1.00     1.00800     H ( 1.00)

     No symmetry found

   Cartesian axes

     site n.     atom                  positions (alat units)
         1           Ti1 tau(   1) = (   0.0004258   2.9801865   6.0000000  )
         2           Ti1 tau(   2) = (   3.2906075   1.4906267   6.0002472  )
         3           O1  tau(   3) = (   0.0006271   0.0005054   7.9858123  )
         4           O1  tau(   4) = (   3.2906025   0.0005020   7.3038282  )
         5           O1  tau(   5) = (   4.5942328   1.4918067   9.2879030  )
         6           O1  tau(   6) = (   1.9868534   1.4903216   9.2879459  )
         7           Ti1 tau(   7) = (   3.2907910   2.8959150   9.1758416  )
         8           Ti1 tau(   8) = (   0.0015273   1.4827037   9.2680791  )
         9           O1  tau(   9) = (   3.2823942   0.0140684  11.3428430  )
        10           O1  tau(  10) = (   0.0116148   5.9584955  10.6183126  )
        11           O1  tau(  11) = (   1.2742013   1.4978990  12.6323156  )
        12           O1  tau(  12) = (   5.2614901   1.5083079  12.6129891  )
        13           Ti1 tau(  13) = (   0.0550148   2.9595524  12.6160221  )
        14           Ti1 tau(  14) = (   3.3718896   1.5084997  12.4944496  )
        15           O1  tau(  15) = (   6.5380961   0.0278828  14.6255036  )
        16           O1  tau(  16) = (   3.2758616   0.0189586  13.9121306  )
        17           O1  tau(  17) = (   4.4976875   1.5333668  16.0433440  )
        18           O1  tau(  18) = (   1.9922867   1.5271532  16.0291573  )
        19           Ti1 tau(  19) = (   3.1858679   3.0241111  15.7732818  )
        20           Ti1 tau(  20) = (   6.4842391   1.5502874  15.8011710  )
        21           O1  tau(  21) = (   3.2904802   0.0005063   4.7018136  )
        22           O1  tau(  22) = (   6.5196731   0.0665875  17.1891134  )
        23           O1  tau(  23) = (   1.3043587   1.4918075   6.0039043  )
        24           O1  tau(  24) = (   5.2767064   1.4903225   6.0039473  )
        25           Ti1 tau(  25) = (   0.0000382   5.9609847   6.0000000  )
        26           Ti1 tau(  26) = (   3.2902200   4.4714249   6.0002472  )
        27           O1  tau(  27) = (   0.0002396   2.9813036   7.9858123  )
        28           O1  tau(  28) = (   3.2902150   2.9813002   7.3038282  )
        29           O1  tau(  29) = (   4.5938453   4.4726049   9.2879030  )
        30           O1  tau(  30) = (   1.9864658   4.4711199   9.2879459  )
        31           Ti1 tau(  31) = (   3.2891106   5.8743827   9.1763621  )
        32           Ti1 tau(  32) = (   0.0006254   4.4649316   9.2693709  )
        33           O1  tau(  33) = (   3.2807012   2.9937711  11.3380227  )
        34           O1  tau(  34) = (   0.0092240   2.9805883  10.6323155  )
        35           O1  tau(  35) = (   1.2734598   4.4826339  12.6318047  )
        36           O1  tau(  36) = (   5.2665626   4.4910389  12.6093644  )
        37           Ti1 tau(  37) = (   0.0550181   5.9329888  12.5453996  )
        38           Ti1 tau(  38) = (   3.3741151   4.4737790  12.4977360  )
        39           O1  tau(  39) = (   6.5373474   2.9946220  14.6524478  )
        40           O1  tau(  40) = (   3.2677173   3.0168568  13.9399215  )
        41           O1  tau(  41) = (   4.4884636   4.5316779  16.1079578  )
        42           O1  tau(  42) = (   1.9830865   4.5332738  16.0531499  )
        43           Ti1 tau(  43) = (   3.2469912   0.0413792  15.7000251  )
        44           Ti1 tau(  44) = (   6.5198411   4.7064707  16.0702691  )
        45           O1  tau(  45) = (   3.2900926   2.9813045   4.7018136  )
        46           O1  tau(  46) = (   1.3039711   4.4726057   6.0039043  )
        47           O1  tau(  47) = (   5.2763189   4.4711207   6.0039473  )
        48           N1  tau(  48) = (   0.0943371   2.6987919  18.6315974  )
        49           N1  tau(  49) = (   6.5718678   2.9345059  17.4339123  )
        50           C1  tau(  50) = (   0.1779456   3.8407003  19.5793842  )
        51           H1  tau(  51) = (   6.4148796   4.7858965  19.1557567  )
        52           H1  tau(  52) = (   6.2071438   3.5603257  20.4715321  )
        53           H1  tau(  53) = (   1.2306852   3.9282498  19.8556806  )
        54           O1  tau(  54) = (   3.3096034   3.0730741  18.2289406  )
        55           H1  tau(  55) = (   4.0988663   3.6297178  18.3192648  )
        56           H1  tau(  56) = (   3.5789210   2.1977314  18.5501991  )

     number of k points=    10  Fermi-Dirac smearing, width (Ry)=  0.0073
                       cart. coord. in units 2pi/alat
        k(    1) = (   0.0000000   0.0000000   0.0000000), wk =   0.1250000
        k(    2) = (   0.0000000   0.0419351   0.0000000), wk =   0.2500000
        k(    3) = (   0.0000000  -0.0838702   0.0000000), wk =   0.1250000
        k(    4) = (   0.0379955   0.0000049   0.0000000), wk =   0.2500000
        k(    5) = (   0.0379955   0.0419400   0.0000000), wk =   0.2500000
        k(    6) = (   0.0379955  -0.0838652   0.0000000), wk =   0.2500000
        k(    7) = (   0.0379955  -0.0419301   0.0000000), wk =   0.2500000
        k(    8) = (  -0.0759910  -0.0000099   0.0000000), wk =   0.1250000
        k(    9) = (  -0.0759910   0.0419252   0.0000000), wk =   0.2500000
        k(   10) = (  -0.0759910  -0.0838800   0.0000000), wk =   0.1250000

     Initial potential from superposition of free atoms

     starting charge  386.99914, renormalised to  403.00000

     negative rho (up, down):  1.478E-02 0.000E+00

     %%%%%%%%%%%%%%%%%%%%%%%%%%%%%%%%%%%%%%%%%%%%%%%%%%%%%%%%%%%%%%%%%%%%%%%%
     %                                                                      %
     % You are using vdW-DF, which was implemented by the Thonhauser group. %
     % Please cite the following two papers that made this development      %
     % possible and the two reviews that describe the various versions:     %
     %                                                                      %
     %   T. Thonhauser et al., PRL 115, 136402 (2015).                      %
     %   T. Thonhauser et al., PRB 76, 125112 (2007).                       %
     %   K. Berland et al., Rep. Prog. Phys. 78, 066501 (2015).             %
     %   D.C. Langreth et al., J. Phys.: Condens. Matter 21, 084203 (2009). %
     %                                                                      %
     %                                                                      %
     % If you are calculating the stress with vdW-DF, please also cite:     %
     %                                                                      %
     %   R. Sabatini et al., J. Phys.: Condens. Matter 24, 424209 (2012).   %
     %                                                                      %
     %%%%%%%%%%%%%%%%%%%%%%%%%%%%%%%%%%%%%%%%%%%%%%%%%%%%%%%%%%%%%%%%%%%%%%%%

     Adding external electric field

     Computed dipole along edir(3) :
        Dipole              -13.2300 Ry au,        -33.6274 Debye
        Dipole field         -0.0250 Ry au,

        Potential amp.        2.3144 Ry
        Total length         46.3494 bohr

     Starting wfcs are  305 atomic wfcs
  @ DRIVER MODE: Message from server: STATUS
  @ DRIVER MODE: Message from server: POSDATA
  @ DRIVER MODE: Reading and sharing cell
  @ DRIVER MODE: Reading and sharing positions
  @ DRIVER MODE: Received positions

     Self-consistent Calculation

     iteration #  1     ecut=    29.40 Ry     beta= 0.05
     Davidson diagonalization with overlap
     c_bands:  5 eigenvalues not converged
     c_bands:  2 eigenvalues not converged
     c_bands:  5 eigenvalues not converged
     c_bands:  5 eigenvalues not converged
     c_bands:  1 eigenvalues not converged
     c_bands:  1 eigenvalues not converged
     c_bands:  4 eigenvalues not converged
     c_bands:  2 eigenvalues not converged
     c_bands:  3 eigenvalues not converged
     ethr =  1.00E-05,  avg # of iterations = 26.9

[...]

     total energy              =   -2368.06222723 Ry
     estimated scf accuracy    <    6913.00559818 Ry

     iteration #  2     ecut=    29.40 Ry     beta= 0.05
     Davidson diagonalization with overlap
     ethr =  1.00E-02,  avg # of iterations = 24.3

[...]

     iteration # 48     ecut=    29.40 Ry     beta= 0.05
     Davidson diagonalization with overlap
     c_bands:  2 eigenvalues not converged
     ethr =  3.29E-09,  avg # of iterations = 14.0

[...]

     total energy              =   -2973.98641039 Ry
     estimated scf accuracy    <       0.00000007 Ry

     iteration # 61     ecut=    29.40 Ry     beta= 0.05
     Davidson diagonalization with overlap
     ethr =  1.84E-11,  avg # of iterations =  5.1

     negative rho (up, down):  1.505E-02 0.000E+00

     Adding external electric field

     Computed dipole along edir(3) :
        Dipole                0.9073 Ry au,          2.3061 Debye
        Dipole field          0.0017 Ry au,

        Potential amp.       -0.1587 Ry
        Total length         46.3494 bohr

     End of self-consistent calculation

          k = 0.0000 0.0000 0.0000 ( 18029 PWs)   bands (ev):

   -55.6030 -55.5689 -55.5671 -55.5312 -55.4986 -55.4483 -55.4385 -55.4141
   -55.4020 -55.3802 -55.3787 -55.3447 -55.0087 -54.8371 -54.5828 -54.5487
   -32.1119 -32.0857 -31.9588 -31.9425 -31.9128 -31.8959 -31.8811 -31.8684
   -31.8463 -31.8061 -31.7983 -31.7675 -31.7552 -31.7458 -31.7373 -31.7272
   -31.7075 -31.6981 -31.6956 -31.6601 -31.6560 -31.6457 -31.6328 -31.6073
   -31.6027 -31.5980 -31.5927 -31.5858 -31.5782 -31.5688 -31.5541 -31.5540
   -31.5450 -31.5315 -31.5208 -31.5089 -31.4904 -31.2858 -31.1993 -31.0976
   -31.0928 -31.0561 -30.9901 -30.9013 -30.8789 -30.8066 -30.7201 -30.6093
   -19.0390 -18.3017 -16.3176 -16.0766 -15.8745 -15.7595 -15.7186 -15.5261
   -15.4281 -15.3295 -15.2327 -15.1643 -15.1413 -15.1339 -15.1302 -15.1046
   -15.0794 -15.0679 -15.0466 -15.0301 -15.0153 -14.9557 -14.9420 -14.9330
   -14.8434 -14.7885 -14.7541 -14.7353 -14.6776 -14.6590 -14.1777 -13.0851
   -12.9686 -11.2970  -6.8838  -6.7265  -4.1967  -4.0547  -3.8190  -3.6878
    -3.5561  -3.5090  -3.4477  -3.4176  -3.2205  -3.1011  -3.0251  -2.8436
    -2.7862  -2.7586  -2.7289  -2.6575  -2.5214  -2.4715  -2.4197  -2.4136
    -2.4017  -2.3702  -2.3654  -2.3445  -2.2450  -2.2415  -2.1894  -2.1502
    -2.0808  -2.0010  -1.9819  -1.9352  -1.9161  -1.9039  -1.8759  -1.8521
    -1.8417  -1.8067  -1.7942  -1.7202  -1.6196  -1.5529  -1.4994  -1.4627
    -1.3973  -1.3846  -1.2178  -1.1527  -1.1086  -1.0710  -1.0524  -1.0320
    -0.9982  -0.9906  -0.8817  -0.7573  -0.7533  -0.6732  -0.6129  -0.5348
    -0.5263  -0.4485  -0.3918  -0.3735  -0.3611  -0.3500  -0.3211  -0.2479
    -0.1027  -0.0595  -0.0350   0.0005   0.0298   0.0954   0.1389   0.2082
     0.2431   0.2843   0.3193   0.3433   0.3677   0.3752   0.3905   0.4026
     0.4219   0.6044   0.6644   0.6852   0.7506   0.7799   0.9230   0.9894
     1.0533   1.1601   1.3647   1.4395   1.5305   1.6316   2.0110   2.0568
     2.7726   3.5313   3.6162   3.6630   3.7050   3.7776   3.7953   3.9677
     3.9867   4.0296   4.1191

[...]

          k = 0.0380-0.0419 0.0000 ( 17876 PWs)   bands (ev):

[...]

          k =-0.0760-0.0000 0.0000 ( 17886 PWs)   bands (ev):

[...]

          k =-0.0760-0.0839 0.0000 ( 17948 PWs)   bands (ev):

   -55.5863 -55.5855 -55.5501 -55.5479 -55.4918 -55.4550 -55.4262 -55.4144
   -55.3977 -55.3961 -55.3645 -55.3591 -55.0071 -54.8386 -54.5658 -54.5656
   -31.9261 -31.9107 -31.9012 -31.9007 -31.8817 -31.8809 -31.8508 -31.8164
   -31.7940 -31.7904 -31.7813 -31.7611 -31.7583 -31.7393 -31.7178 -31.7133
   -31.7113 -31.7067 -31.7059 -31.7049 -31.7041 -31.7019 -31.6976 -31.6583
   -31.6471 -31.6339 -31.6238 -31.6102 -31.5975 -31.5968 -31.5949 -31.5875
   -31.5785 -31.5748 -31.5680 -31.5645 -31.4264 -31.2876 -31.2048 -31.1537
   -31.0988 -31.0821 -30.8917 -30.8916 -30.8029 -30.8028 -30.7634 -30.7634
   -19.0340 -18.3034 -15.7640 -15.6821 -15.5597 -15.5211 -15.4775 -15.4337
   -15.4136 -15.3206 -15.3010 -15.2916 -15.2401 -15.2260 -15.2030 -15.1595
   -15.1373 -15.1280 -15.1238 -15.0881 -15.0599 -15.0431 -15.0397 -15.0339
   -14.9716 -14.9229 -14.9207 -14.9159 -14.7890 -14.6602 -14.3564 -13.0705
   -13.0704 -11.2947  -6.8853  -6.7392  -4.1258  -3.8592  -3.8003  -3.2810
    -3.0489  -2.8875  -2.8175  -2.7272  -2.6978  -2.6904  -2.5470  -2.5143
    -2.4846  -2.4370  -2.4323  -2.4282  -2.4210  -2.4051  -2.3981  -2.3819
    -2.3307  -2.3182  -2.2935  -2.2799  -2.2731  -2.2556  -2.2338  -2.2237
    -2.2017  -2.1676  -2.1534  -2.1179  -2.1116  -2.0214  -1.8356  -1.8244
    -1.7785  -1.7457  -1.7315  -1.7063  -1.6695  -1.6560  -1.6477  -1.5962
    -1.4805  -1.4310  -1.3442  -1.2958  -1.2786  -1.2236  -1.1621  -1.1377
    -1.0675  -1.0234  -0.9869  -0.9651  -0.9415  -0.7972  -0.7854  -0.7312
    -0.7180  -0.6809  -0.6333  -0.5754  -0.5633  -0.5528  -0.5372  -0.5030
    -0.4346  -0.3652  -0.3534  -0.3253  -0.2742  -0.2578  -0.2144  -0.1259
    -0.1063  -0.0697   0.0281   0.1301   0.2215   0.3563   0.4422   0.4654
     0.5217   0.5987   0.6967   0.7065   0.7150   0.7512   0.7750   0.8351
     0.9288   0.9487   0.9758   1.0985   1.8030   1.8037   1.8764   1.8766
     2.8137   3.7924   3.8520   3.8977   3.9167   4.0092   4.0424   4.0645
     4.0667   4.1139   4.2053

     the Fermi energy is     3.5304 ev

!    total energy              =   -2973.98645567 Ry
     estimated scf accuracy    <       0.00000005 Ry
     smearing contrib. (-TS)   =      -0.02191882 Ry
     internal energy E=F+TS    =   -2973.96453685 Ry

     The total energy is F=E-TS. E is the sum of the following terms:
     one-electron contribution =  -23875.38332515 Ry
     hartree contribution      =   12032.15758378 Ry
     xc contribution           =    -494.08626035 Ry
     ewald contribution        =    9363.34591138 Ry
     electric field correction =       0.00155350 Ry

     convergence has been achieved in  61 iterations

     Forces acting on atoms (cartesian axes, Ry/au):

     atom    1 type  1   force =     0.00006294   -0.00017207    0.09644893
     atom    2 type  1   force =    -0.00016022   -0.00064034   -0.17545085
     atom    3 type  2   force =    -0.00003538    0.00001837   -0.02464511
     atom    4 type  2   force =     0.00005943   -0.00136472    0.05308485
     atom    5 type  2   force =    -0.01208537    0.00003921    0.00386936
     atom    6 type  2   force =     0.01330267    0.00071278    0.00207545
     atom    7 type  1   force =    -0.00148055    0.00064470   -0.01045755
     atom    8 type  1   force =     0.00072555    0.00972688    0.02662426
     atom    9 type  2   force =    -0.00040454    0.00008766   -0.00032365
     atom   10 type  2   force =    -0.00181039    0.00306216   -0.01773888
     atom   11 type  2   force =    -0.00013708   -0.00023693    0.00011796
     atom   12 type  2   force =    -0.00019228   -0.00029235   -0.00030348
     atom   13 type  1   force =    -0.00021410   -0.00020784   -0.00009227
     atom   14 type  1   force =    -0.00035510   -0.00018648   -0.00033288
     atom   15 type  2   force =     0.00003504   -0.00090222    0.00025456
     atom   16 type  2   force =     0.00006135    0.00015528   -0.00001887
     atom   17 type  2   force =    -0.00005186   -0.00057368    0.00019751
     atom   18 type  2   force =     0.00024841   -0.00041581    0.00037101
     atom   19 type  1   force =     0.00041480   -0.00021375   -0.00008026
     atom   20 type  1   force =     0.00030273   -0.00068090    0.00015218
     atom   21 type  2   force =     0.00008606   -0.00004865    0.10321765
     atom   22 type  2   force =     0.00053309   -0.00048721   -0.00027444
     atom   23 type  2   force =    -0.07147732   -0.00007658   -0.02775892
     atom   24 type  2   force =     0.07141391    0.00029774   -0.02775997
     atom   25 type  1   force =     0.00007278   -0.00028902    0.09592926
     atom   26 type  1   force =    -0.00025419   -0.00023254   -0.17573058
     atom   27 type  2   force =     0.00007108   -0.00008633   -0.02366975
     atom   28 type  2   force =     0.00006206   -0.00118704    0.05336757
     atom   29 type  2   force =    -0.01232166    0.00062122    0.00390588
     atom   30 type  2   force =     0.01347574    0.00110011    0.00207600
     atom   31 type  1   force =    -0.00129897    0.00372872   -0.00844030
     atom   32 type  1   force =     0.00085284   -0.01167930    0.02706028
     atom   33 type  2   force =    -0.00002103    0.00013174   -0.00010508
     atom   34 type  2   force =    -0.00128297    0.00169447   -0.02365129
     atom   35 type  2   force =    -0.00022157   -0.00003500    0.00004201
     atom   36 type  2   force =     0.00003295   -0.00002564    0.00018156
     atom   37 type  1   force =    -0.00000435   -0.00017886    0.00016028
     atom   38 type  1   force =    -0.00055929   -0.00029060    0.00055462
     atom   39 type  2   force =     0.00021721   -0.00060155    0.00051705
     atom   40 type  2   force =    -0.00001914   -0.00009613    0.00018173
     atom   41 type  2   force =     0.00020452   -0.00050931   -0.00034497
     atom   42 type  2   force =     0.00016211   -0.00035849   -0.00046719
     atom   43 type  1   force =     0.00074333   -0.00040079    0.00017455
     atom   44 type  1   force =    -0.00003470   -0.00020579   -0.00085024
     atom   45 type  2   force =     0.00009182   -0.00005597    0.10320780
     atom   46 type  2   force =    -0.07147055   -0.00007580   -0.02776267
     atom   47 type  2   force =     0.07141862    0.00034851   -0.02777339
     atom   48 type  3   force =    -0.00051254   -0.00064084    0.00134794
     atom   49 type  3   force =     0.00021254    0.00065908   -0.00043850
     atom   50 type  4   force =     0.00375284    0.00257159   -0.00462723
     atom   51 type  5   force =     0.00114830   -0.00078930    0.00062711
     atom   52 type  5   force =    -0.00429002   -0.00143848    0.00417619
     atom   53 type  5   force =     0.00055636    0.00019308   -0.00057029
     atom   54 type  2   force =    -0.00060492   -0.00113628   -0.00003854
     atom   55 type  5   force =     0.00042604    0.00029480    0.00029165
     atom   56 type  5   force =     0.00055296    0.00072448   -0.00050804

     Total force =     0.367929     Total SCF correction =     0.000596
  @ DRIVER MODE: Message from server: STATUS
  @ DRIVER MODE: Message from server: GETFORCE
  @ DRIVER MODE: Returning v,forces,stress,ensemble

     Writing output data file ./calc.save/
  @ DRIVER MODE: Message from server: EXIT
  @ DRIVE MODE: Exiting

     General routines

     Parallel routines

   This run was terminated on:   5:59:35  10Sep2021

   JOB DONE.