     Program PWSCF v.6.7GPU starts on  9Sep2021 at  3:54:41

     R & G space division:  proc/nbgrp/npool/nimage =      10
     Reading input from /storage/home/hcoda1/3/ntian30/research/carbon/CxH_vib/CH2_calc/ads_slab/CH2O_a/out_0019/pw.inp
Warning: card &CELL ignored
Warning: card   CELL_DYNAMICS='IPI', ignored
Warning: card / ignored

     Current dimensions of program PWSCF are:
     Max number of different atomic species (ntypx) = 10
     Max number of k-points (npk) =  40000
     Max angular momentum in pseudopotentials (lmaxx) =  3
     Presently no symmetry can be used with electric field

     Message from routine cell_base_init:
     DEPRECATED: use true lattice parameter, not A to a.u. conversion factor

     IMPORTANT: XC functional enforced from input :
     Exchange-correlation= BEEF-VDW
                           (   1   4  43  14   2   0   0)
     Any further DFT definition will be discarded
     Please, verify this is what you really want

  @ DRIVER MODE: Connecting to
 qe_1139763_2767394.sched-torque.pace.gatech.edufl3m12e9_scratch
  using UNIX socket
  @ DRIVER MODE: Message from server: STATUS
  @ DRIVER MODE: Message from server: INIT
  @ DRIVER MODE: Receiving replica           0          -1
  @ DRIVER MODE: Receiving encoded integer          25
  @ DRIVER MODE:  SCF:  T  FORCE:  T  STRESS:  F  VC:  F  ENSEMBLE:  F
  @ DRIVER MODE:  SCF:  T  FORCE:  T  STRESS:  F  VC:  F  ENSEMBLE:  F

     Using Slab Decomposition

     bravais-lattice index     =            0
     lattice parameter (alat)  =       1.8897  a.u.
     unit-cell volume          =    6658.9804 (a.u.)^3
     number of atoms/cell      =           51
     number of atomic types    =            4
     number of electrons       =       390.00
     number of Kohn-Sham states=          205
     kinetic-energy cutoff     =      29.3995  Ry
     charge density cutoff     =     293.9946  Ry
     scf convergence threshold =      7.3E-08
     mixing beta               =       0.0500
     number of iterations used =            8  plain     mixing
     Exchange-correlation= BEEF-VDW
                           (   1   4  43  14   2   0   0)

     celldm(1)=   1.889726  celldm(2)=   0.000000  celldm(3)=   0.000000
     celldm(4)=   0.000000  celldm(5)=   0.000000  celldm(6)=   0.000000

     crystal axes: (cart. coord. in units of alat)
               a(1) = (   6.579727   0.000000   0.000000 )
               a(2) = (  -0.000775   5.961596   0.000000 )
               a(3) = (   0.000000   0.000000  25.155947 )

     reciprocal axes: (cart. coord. in units 2 pi/alat)
               b(1) = (  0.151982  0.000020  0.000000 )
               b(2) = (  0.000000  0.167740  0.000000 )
               b(3) = (  0.000000  0.000000  0.039752 )

     PseudoPot. # 1 for O  read from file:
     /storage/coda1/p-amedford6/0/shared/rich_project_chbe-medford/medford-share/data/pseudos_module/espresso/nninc/pbe/van/O.UPF
     MD5 check sum: 78c19812648e8988a0fe644b0f25305e
     Pseudo is Ultrasoft, Zval =  6.0
     Generated by new atomic code, or converted to UPF format
     Using radial grid of  737 points,  4 beta functions with:
                l(1) =   0
                l(2) =   0
                l(3) =   1
                l(4) =   1
     Q(r) pseudized with  8 coefficients,  rinner =    0.800   0.800   0.800

     PseudoPot. # 2 for Ti read from file:
     /storage/coda1/p-amedford6/0/shared/rich_project_chbe-medford/medford-share/data/pseudos_module/espresso/nninc/pbe/van/Ti.UPF
     MD5 check sum: 8e4df49b7f0d34bbd5052bf3f5ea0213
     Pseudo is Ultrasoft, Zval = 12.0
     Generated by new atomic code, or converted to UPF format
     Using radial grid of  851 points,  6 beta functions with:
                l(1) =   0
                l(2) =   0
                l(3) =   1
                l(4) =   1
                l(5) =   2
                l(6) =   2
     Q(r) pseudized with  8 coefficients,  rinner =    1.000   1.000   1.000
                                                       1.000   1.000

     PseudoPot. # 3 for C  read from file:
     /storage/coda1/p-amedford6/0/shared/rich_project_chbe-medford/medford-share/data/pseudos_module/espresso/nninc/pbe/van/C.UPF
     MD5 check sum: 1a69bf6b8db32088f5b2163dbdb77a27
     Pseudo is Ultrasoft, Zval =  4.0
     Generated by new atomic code, or converted to UPF format
     Using radial grid of  721 points,  4 beta functions with:
                l(1) =   0
                l(2) =   0
                l(3) =   1
                l(4) =   1
     Q(r) pseudized with  8 coefficients,  rinner =    0.800   0.800   0.800

     PseudoPot. # 4 for H  read from file:
     /storage/coda1/p-amedford6/0/shared/rich_project_chbe-medford/medford-share/data/pseudos_module/espresso/nninc/pbe/van/H.UPF
     MD5 check sum: b5ee9d7bfd3a09ee7748110bda690ff7
     Pseudo is Ultrasoft, Zval =  1.0
     Generated by new atomic code, or converted to UPF format
     Using radial grid of  615 points,  1 beta functions with:
                l(1) =   0
     Q(r) pseudized with  8 coefficients,  rinner =    0.800

     atomic species   valence    mass     pseudopotential
        O1             6.00    15.99900     O ( 1.00)
        Ti1           12.00    47.86700     Ti( 1.00)
        C1             4.00    12.01100     C ( 1.00)
        H1             1.00     1.00800     H ( 1.00)

     No symmetry found

   Cartesian axes

     site n.     atom                  positions (alat units)
         1           O1  tau(   1) = (   3.2904802   0.0005063   4.7018136  )
         2           O1  tau(   2) = (   3.2900926   2.9813045   4.7018136  )
         3           Ti1 tau(   3) = (   0.0004258   2.9801865   6.0000000  )
         4           Ti1 tau(   4) = (   0.0000382   5.9609847   6.0000000  )
         5           Ti1 tau(   5) = (   3.2906075   1.4906267   6.0002472  )
         6           Ti1 tau(   6) = (   3.2902200   4.4714249   6.0002472  )
         7           O1  tau(   7) = (   1.3043587   1.4918075   6.0039043  )
         8           O1  tau(   8) = (   1.3039711   4.4726057   6.0039043  )
         9           O1  tau(   9) = (   5.2767064   1.4903225   6.0039473  )
        10           O1  tau(  10) = (   5.2763189   4.4711207   6.0039473  )
        11           O1  tau(  11) = (   3.2906025   0.0005020   7.3038282  )
        12           O1  tau(  12) = (   3.2902150   2.9813002   7.3038282  )
        13           O1  tau(  13) = (   0.0006271   0.0005054   7.9858123  )
        14           O1  tau(  14) = (   0.0002396   2.9813036   7.9858123  )
        15           Ti1 tau(  15) = (   3.3042095   0.0533388   9.1528587  )
        16           Ti1 tau(  16) = (   3.3174724   3.0316863   9.1560957  )
        17           Ti1 tau(  17) = (   0.0293802   4.5322946   9.2552644  )
        18           Ti1 tau(  18) = (   0.0259946   1.6073196   9.3627105  )
        19           O1  tau(  19) = (   4.5942328   1.4918067   9.2879030  )
        20           O1  tau(  20) = (   4.5938453   4.4726049   9.2879030  )
        21           O1  tau(  21) = (   1.9868534   1.4903216   9.2879459  )
        22           O1  tau(  22) = (   1.9864658   4.4711199   9.2879459  )
        23           O1  tau(  23) = (   0.0064038   0.0081980  10.6024552  )
        24           O1  tau(  24) = (   0.0073862   2.9894728  10.5866593  )
        25           O1  tau(  25) = (   3.3023414   2.9953748  11.3432802  )
        26           O1  tau(  26) = (   3.3032852   0.0099373  11.3464837  )
        27           Ti1 tau(  27) = (   0.0309755   0.0166663  12.4994564  )
        28           Ti1 tau(  28) = (   3.3310982   4.4887825  12.4897803  )
        29           Ti1 tau(  29) = (   3.3310371   1.5113328  12.4846922  )
        30           Ti1 tau(  30) = (   0.0327574   2.9992265  12.7695683  )
        31           O1  tau(  31) = (   1.3002707   4.4821552  12.6388042  )
        32           O1  tau(  32) = (   1.3007223   1.5002113  12.6333963  )
        33           O1  tau(  33) = (   5.2991570   4.4805309  12.6421864  )
        34           O1  tau(  34) = (   5.3000174   1.5011411  12.6364809  )
        35           O1  tau(  35) = (   3.3018339   2.9879062  13.9210104  )
        36           O1  tau(  36) = (   3.3040464   0.0111531  13.9455706  )
        37           O1  tau(  37) = (   0.0204374   0.0165334  14.6791819  )
        38           O1  tau(  38) = (   0.0263865   2.9938028  14.7196832  )
        39           Ti1 tau(  39) = (   3.3100843   2.9899001  15.7147585  )
        40           Ti1 tau(  40) = (   3.3190225   0.0114617  15.7368552  )
        41           Ti1 tau(  41) = (   0.0307220   4.5758675  15.9389875  )
        42           Ti1 tau(  42) = (   0.0306600   1.3860070  15.9976826  )
        43           O1  tau(  43) = (   4.5579467   4.4706051  16.0879179  )
        44           O1  tau(  44) = (   4.5582295   1.5117582  16.0998906  )
        45           O1  tau(  45) = (   2.0559277   1.5139458  16.1062704  )
        46           O1  tau(  46) = (   2.0563840   4.4680477  16.0963298  )
        47           O1  tau(  47) = (   0.0152972   0.0023678  17.1988758  )
        48           O1  tau(  48) = (   6.5645367   3.0020129  17.4248639  )
        49           C1  tau(  49) = (   6.3846989   3.0744571  18.6868163  )
        50           H1  tau(  50) = (   6.3100824   4.0552778  19.1474226  )
        51           H1  tau(  51) = (   6.3022094   2.1591535  19.2648898  )

     number of k points=    10  Fermi-Dirac smearing, width (Ry)=  0.0073
                       cart. coord. in units 2pi/alat
        k(    1) = (   0.0000000   0.0000000   0.0000000), wk =   0.1250000
        k(    2) = (   0.0000000   0.0419351   0.0000000), wk =   0.2500000
        k(    3) = (   0.0000000  -0.0838702   0.0000000), wk =   0.1250000
        k(    4) = (   0.0379955   0.0000049   0.0000000), wk =   0.2500000
        k(    5) = (   0.0379955   0.0419400   0.0000000), wk =   0.2500000
        k(    6) = (   0.0379955  -0.0838652   0.0000000), wk =   0.2500000
        k(    7) = (   0.0379955  -0.0419301   0.0000000), wk =   0.2500000
        k(    8) = (  -0.0759910  -0.0000099   0.0000000), wk =   0.1250000
        k(    9) = (  -0.0759910   0.0419252   0.0000000), wk =   0.2500000
        k(   10) = (  -0.0759910  -0.0838800   0.0000000), wk =   0.1250000

     Initial potential from superposition of free atoms

     starting charge  373.99919, renormalised to  390.00000

     negative rho (up, down):  1.843E-02 0.000E+00

     %%%%%%%%%%%%%%%%%%%%%%%%%%%%%%%%%%%%%%%%%%%%%%%%%%%%%%%%%%%%%%%%%%%%%%%%
     %                                                                      %
     % You are using vdW-DF, which was implemented by the Thonhauser group. %
     % Please cite the following two papers that made this development      %
     % possible and the two reviews that describe the various versions:     %
     %                                                                      %
     %   T. Thonhauser et al., PRL 115, 136402 (2015).                      %
     %   T. Thonhauser et al., PRB 76, 125112 (2007).                       %
     %   K. Berland et al., Rep. Prog. Phys. 78, 066501 (2015).             %
     %   D.C. Langreth et al., J. Phys.: Condens. Matter 21, 084203 (2009). %
     %                                                                      %
     %                                                                      %
     % If you are calculating the stress with vdW-DF, please also cite:     %
     %                                                                      %
     %   R. Sabatini et al., J. Phys.: Condens. Matter 24, 424209 (2012).   %
     %                                                                      %
     %%%%%%%%%%%%%%%%%%%%%%%%%%%%%%%%%%%%%%%%%%%%%%%%%%%%%%%%%%%%%%%%%%%%%%%%

     Adding external electric field

     Computed dipole along edir(3) :
        Dipole               -5.1853 Ry au,        -13.1796 Debye
        Dipole field         -0.0098 Ry au,

        Potential amp.        0.9071 Ry
        Total length         46.3494 bohr

     Starting wfcs are  294 atomic wfcs
  @ DRIVER MODE: Message from server: STATUS
  @ DRIVER MODE: Message from server: POSDATA
  @ DRIVER MODE: Reading and sharing cell
  @ DRIVER MODE: Reading and sharing positions
  @ DRIVER MODE: Received positions

     Self-consistent Calculation

     iteration #  1     ecut=    29.40 Ry     beta= 0.05
     Davidson diagonalization with overlap
     c_bands:  3 eigenvalues not converged
     c_bands:  3 eigenvalues not converged
     c_bands:  2 eigenvalues not converged
     c_bands:  1 eigenvalues not converged
     c_bands:  2 eigenvalues not converged
     c_bands:  2 eigenvalues not converged
     c_bands:  3 eigenvalues not converged
     c_bands:  2 eigenvalues not converged
     ethr =  1.00E-05,  avg # of iterations = 21.8

[...]

     total energy              =   -2822.13397818 Ry
     estimated scf accuracy    <    1191.33284797 Ry

     iteration #  2     ecut=    29.40 Ry     beta= 0.05
     Davidson diagonalization with overlap
     ethr =  1.00E-02,  avg # of iterations = 17.0

[...]

     iteration # 78     ecut=    29.40 Ry     beta= 0.05
     Davidson diagonalization with overlap
     ethr =  2.35E-11,  avg # of iterations =  9.3

[...]

     total energy              =   -2930.16725089 Ry
     estimated scf accuracy    <       0.00000011 Ry

     iteration # 79     ecut=    29.40 Ry     beta= 0.05
     Davidson diagonalization with overlap
     c_bands:  1 eigenvalues not converged
     ethr =  2.35E-11,  avg # of iterations = 13.7

     negative rho (up, down):  1.726E-02 0.000E+00

     Adding external electric field

     Computed dipole along edir(3) :
        Dipole                0.9325 Ry au,          2.3702 Debye
        Dipole field          0.0018 Ry au,

        Potential amp.       -0.1631 Ry
        Total length         46.3494 bohr

     End of self-consistent calculation

          k = 0.0000 0.0000 0.0000 ( 18029 PWs)   bands (ev):

   -55.8215 -55.8099 -55.7854 -55.7737 -55.7116 -55.6985 -55.6728 -55.6061
   -55.6022 -55.5905 -55.5787 -55.5572 -55.5167 -55.5025 -54.8494 -54.8154
   -32.3788 -32.2944 -32.1893 -32.1638 -32.1274 -32.1251 -32.1165 -32.0993
   -32.0702 -32.0547 -32.0506 -32.0247 -31.9956 -31.9911 -31.9802 -31.9580
   -31.9427 -31.9397 -31.9330 -31.9162 -31.8899 -31.8873 -31.8848 -31.8744
   -31.8608 -31.8454 -31.8444 -31.8209 -31.8168 -31.8154 -31.7930 -31.7643
   -31.7513 -31.7358 -31.7351 -31.7331 -31.7196 -31.6999 -31.6974 -31.6893
   -31.6827 -31.6729 -31.2595 -31.1617 -31.1394 -31.0763 -30.9903 -30.8789
   -19.8532 -16.5925 -16.2984 -16.1494 -16.0206 -15.9698 -15.8516 -15.6962
   -15.6200 -15.5416 -15.4916 -15.4433 -15.4048 -15.4038 -15.3749 -15.3591
   -15.3556 -15.3511 -15.2762 -15.2716 -15.2374 -15.2205 -15.2097 -15.1214
   -15.0569 -14.9984 -14.9525 -14.8972 -14.8418 -14.8130 -13.3499 -13.2314
    -9.3017  -5.5502  -5.5252  -3.9423  -3.7667  -3.7257  -3.7069  -3.6554
    -3.5384  -3.4320  -3.3965  -3.1132  -3.0228  -2.9895  -2.9800  -2.9669
    -2.8260  -2.7807  -2.6672  -2.6614  -2.6530  -2.6470  -2.6273  -2.5929
    -2.5810  -2.5387  -2.5126  -2.4024  -2.3684  -2.2563  -2.2398  -2.2174
    -2.1595  -2.1326  -2.1034  -2.0901  -2.0610  -2.0578  -2.0534  -2.0076
    -1.9099  -1.8169  -1.7549  -1.6686  -1.6318  -1.5424  -1.3795  -1.3130
    -1.2732  -1.2353  -1.1850  -1.1688  -1.1369  -1.1109  -1.0957  -1.0774
    -0.9832  -0.8674  -0.8642  -0.7631  -0.7011  -0.6744  -0.6616  -0.5792
    -0.5606  -0.5510  -0.4520  -0.3135  -0.3066  -0.3011  -0.1829  -0.1518
    -0.1284  -0.0810  -0.0605  -0.0222   0.0084   0.0662   0.1067   0.1191
     0.1634   0.1829   0.2042   0.3112   0.3666   0.3764   0.4264   0.4645
     0.6532   0.6707   0.8052   0.8733   1.0775   1.1755   1.2320   1.3434
     1.7632   1.8215   3.3425   3.3755   3.3991   3.4532   3.4908   3.5392
     3.5865   3.7887   3.8024   3.8120   3.8337

[...]

          k = 0.0380-0.0419 0.0000 ( 17876 PWs)   bands (ev):

[...]

          k =-0.0760-0.0000 0.0000 ( 17886 PWs)   bands (ev):

[...]

          k =-0.0760-0.0839 0.0000 ( 17948 PWs)   bands (ev):

   -55.8095 -55.7972 -55.7922 -55.7912 -55.7026 -55.6951 -55.6817 -55.6092
   -55.5984 -55.5755 -55.5735 -55.5726 -55.5220 -55.5055 -54.8329 -54.8318
   -32.1808 -32.1798 -32.1175 -32.1043 -32.1022 -32.0972 -32.0829 -32.0686
   -32.0630 -32.0352 -32.0242 -32.0113 -31.9957 -31.9590 -31.9466 -31.9392
   -31.9366 -31.9339 -31.9262 -31.9231 -31.9058 -31.9012 -31.8990 -31.8984
   -31.8957 -31.8925 -31.8770 -31.8552 -31.8355 -31.8303 -31.8291 -31.8085
   -31.8022 -31.7850 -31.7802 -31.7724 -31.7707 -31.7661 -31.7444 -31.7289
   -31.7007 -31.6996 -31.1528 -31.1514 -31.0729 -31.0720 -31.0338 -31.0328
   -19.8453 -16.0209 -15.9941 -15.8825 -15.7620 -15.7520 -15.7080 -15.6686
   -15.6111 -15.5594 -15.5559 -15.5066 -15.4876 -15.4857 -15.4383 -15.4068
   -15.3610 -15.3532 -15.3440 -15.3401 -15.2881 -15.2831 -15.2406 -15.2179
   -15.2081 -15.1724 -15.1673 -15.0990 -15.0389 -15.0193 -13.3337 -13.3316
    -9.3028  -5.5289  -5.5065  -3.5660  -3.3098  -3.2792  -3.1168  -2.9827
    -2.9726  -2.9150  -2.8305  -2.7950  -2.7499  -2.6988  -2.6941  -2.6739
    -2.6613  -2.6497  -2.6407  -2.6340  -2.5864  -2.5700  -2.5278  -2.4798
    -2.4754  -2.4634  -2.4561  -2.4168  -2.4009  -2.3892  -2.3824  -2.3749
    -2.3044  -2.2276  -2.1549  -2.0756  -2.0244  -2.0025  -1.9814  -1.9435
    -1.9108  -1.8912  -1.8744  -1.7491  -1.7273  -1.5769  -1.5616  -1.5411
    -1.5279  -1.4782  -1.4654  -1.3416  -1.2767  -1.2696  -1.1963  -1.1728
    -1.1511  -1.0961  -1.0767  -0.9971  -0.9547  -0.9133  -0.8583  -0.7968
    -0.7865  -0.7201  -0.7114  -0.6230  -0.6072  -0.5870  -0.5834  -0.5147
    -0.4816  -0.3955  -0.3881  -0.3654  -0.2543  -0.1938  -0.1850   0.0013
     0.1747   0.1794   0.2021   0.3009   0.3309   0.3733   0.4387   0.4450
     0.5333   0.5828   0.6736   0.6940   0.7038   0.7846   1.5342   1.5352
     1.6265   1.6367   3.2970   3.5636   3.6010   3.6026   3.6638   3.8167
     3.8196   3.8363   3.8466   3.9740   3.9807

     the Fermi energy is     3.3281 ev

!    total energy              =   -2930.16726332 Ry
     estimated scf accuracy    <       0.00000007 Ry
     smearing contrib. (-TS)   =      -0.03342983 Ry
     internal energy E=F+TS    =   -2930.13383349 Ry

     The total energy is F=E-TS. E is the sum of the following terms:
     one-electron contribution =  -24703.41291694 Ry
     hartree contribution      =   12437.15838939 Ry
     xc contribution           =    -481.27361215 Ry
     ewald contribution        =    9817.39266524 Ry
     electric field correction =       0.00164097 Ry

     convergence has been achieved in  79 iterations

     Forces acting on atoms (cartesian axes, Ry/au):

     atom    1 type  1   force =    -0.00009641    0.00004220    0.10430358
     atom    2 type  1   force =    -0.00009011    0.00004793    0.10436241
     atom    3 type  2   force =    -0.00026366   -0.00201559    0.10304668
     atom    4 type  2   force =    -0.00013799    0.00162350    0.11352611
     atom    5 type  2   force =    -0.00035702    0.00049541   -0.18060143
     atom    6 type  2   force =    -0.00019242   -0.00002163   -0.18098547
     atom    7 type  1   force =    -0.06890894    0.00060363   -0.02907489
     atom    8 type  1   force =    -0.06842558   -0.00116634   -0.02911141
     atom    9 type  1   force =     0.06854480    0.00109380   -0.02915084
     atom   10 type  1   force =     0.06815733   -0.00076257   -0.02919219
     atom   11 type  1   force =     0.00041521    0.00044131    0.04544262
     atom   12 type  1   force =     0.00057584    0.00075736    0.04655551
     atom   13 type  1   force =     0.00030269   -0.00541840   -0.03231104
     atom   14 type  1   force =     0.00034070    0.00325436   -0.02499987
     atom   15 type  2   force =     0.00002360    0.00033054    0.00052024
     atom   16 type  2   force =     0.00007500   -0.00033471    0.00079978
     atom   17 type  2   force =    -0.00020879   -0.00111084    0.00027341
     atom   18 type  2   force =    -0.00023065    0.00073380   -0.00052740
     atom   19 type  1   force =    -0.01760131    0.00012722    0.00384038
     atom   20 type  1   force =    -0.01643748    0.00134405    0.00291893
     atom   21 type  1   force =     0.01896763   -0.00112612    0.00432158
     atom   22 type  1   force =     0.01762788    0.00110381    0.00323243
     atom   23 type  1   force =     0.00009521    0.00019673   -0.00065074
     atom   24 type  1   force =    -0.00008461   -0.00015534   -0.00042600
     atom   25 type  1   force =     0.00003785   -0.00061195    0.00022152
     atom   26 type  1   force =    -0.00018855    0.00041657    0.00007438
     atom   27 type  2   force =     0.00000758    0.00074142    0.00030318
     atom   28 type  2   force =    -0.00000656   -0.00020437   -0.00021861
     atom   29 type  2   force =     0.00006707   -0.00017864    0.00015107
     atom   30 type  2   force =    -0.00021540   -0.00025198    0.00034552
     atom   31 type  1   force =    -0.00013605   -0.00019198    0.00006938
     atom   32 type  1   force =     0.00028629    0.00035060    0.00021049
     atom   33 type  1   force =     0.00014894   -0.00013316    0.00008499
     atom   34 type  1   force =    -0.00055272    0.00023052    0.00020824
     atom   35 type  1   force =    -0.00004616   -0.00011388   -0.00016189
     atom   36 type  1   force =    -0.00000033    0.00025277   -0.00035749
     atom   37 type  1   force =    -0.00015228   -0.00035536   -0.00034148
     atom   38 type  1   force =    -0.00014654    0.00058888   -0.00032546
     atom   39 type  2   force =    -0.00037189    0.00067390   -0.00008216
     atom   40 type  2   force =    -0.00038077   -0.00041241    0.00003967
     atom   41 type  2   force =     0.00010865    0.00004563    0.00002270
     atom   42 type  2   force =    -0.00004092    0.00001863   -0.00003586
     atom   43 type  1   force =     0.00059470    0.00003109    0.00046334
     atom   44 type  1   force =    -0.00014659    0.00031327    0.00022309
     atom   45 type  1   force =     0.00001573    0.00026266    0.00039150
     atom   46 type  1   force =    -0.00090990    0.00009303    0.00047746
     atom   47 type  1   force =    -0.00040744   -0.00009635    0.00084566
     atom   48 type  1   force =    -0.00012667    0.00007663    0.00105684
     atom   49 type  3   force =    -0.00022352    0.00031080    0.00025676
     atom   50 type  4   force =     0.00025794   -0.00082238    0.00055461
     atom   51 type  4   force =     0.00043658   -0.00111801   -0.00058984

     Total force =     0.374293     Total SCF correction =     0.000902
  @ DRIVER MODE: Message from server: STATUS
  @ DRIVER MODE: Message from server: GETFORCE
  @ DRIVER MODE: Returning v,forces,stress,ensemble

     Writing output data file ./calc.save/
  @ DRIVER MODE: Message from server: EXIT
  @ DRIVE MODE: Exiting

     General routines

     Parallel routines

   This run was terminated on:   4:14:14   9Sep2021

   JOB DONE.