     Program PWSCF v.6.7GPU starts on 23Aug2021 at 13: 4:37

     R & G space division:  proc/nbgrp/npool/nimage =       6
     Reading input from /storage/home/hcoda1/3/ntian30/research/carbon/CH_vib/ads_slab/CH_a/out_0001/pw.inp
Warning: card &CELL ignored
Warning: card   CELL_DYNAMICS='IPI', ignored
Warning: card / ignored

     Current dimensions of program PWSCF are:
     Max number of different atomic species (ntypx) = 10
     Max number of k-points (npk) =  40000
     Max angular momentum in pseudopotentials (lmaxx) =  3
     Presently no symmetry can be used with electric field

     Message from routine cell_base_init:
     DEPRECATED: use true lattice parameter, not A to a.u. conversion factor

     IMPORTANT: XC functional enforced from input :
     Exchange-correlation= BEEF-VDW
                           (   1   4  43  14   2   0   0)
     Any further DFT definition will be discarded
     Please, verify this is what you really want

  @ DRIVER MODE: Connecting to
 qe_1139763_2632798.sched-torque.pace.gatech.eduu0d_2rla_scratch
  using UNIX socket
  @ DRIVER MODE: Message from server: STATUS
  @ DRIVER MODE: Message from server: INIT
  @ DRIVER MODE: Receiving replica           0          -1
  @ DRIVER MODE: Receiving encoded integer          25
  @ DRIVER MODE:  SCF:  T  FORCE:  T  STRESS:  F  VC:  F  ENSEMBLE:  F
  @ DRIVER MODE:  SCF:  T  FORCE:  T  STRESS:  F  VC:  F  ENSEMBLE:  F

     Using Slab Decomposition

     bravais-lattice index     =            0
     lattice parameter (alat)  =       1.8897  a.u.
     unit-cell volume          =    6658.9804 (a.u.)^3
     number of atoms/cell      =           49
     number of atomic types    =            4
     number of electrons       =       383.00
     number of Kohn-Sham states=          201
     kinetic-energy cutoff     =      29.3995  Ry
     charge density cutoff     =     293.9946  Ry
     scf convergence threshold =      7.3E-08
     mixing beta               =       0.0500
     number of iterations used =            8  plain     mixing
     Exchange-correlation= BEEF-VDW
                           (   1   4  43  14   2   0   0)

     celldm(1)=   1.889726  celldm(2)=   0.000000  celldm(3)=   0.000000
     celldm(4)=   0.000000  celldm(5)=   0.000000  celldm(6)=   0.000000

     crystal axes: (cart. coord. in units of alat)
               a(1) = (   6.579727   0.000000   0.000000 )
               a(2) = (  -0.000775   5.961596   0.000000 )
               a(3) = (   0.000000   0.000000  25.155947 )

     reciprocal axes: (cart. coord. in units 2 pi/alat)
               b(1) = (  0.151982  0.000020  0.000000 )
               b(2) = (  0.000000  0.167740  0.000000 )
               b(3) = (  0.000000  0.000000  0.039752 )

     PseudoPot. # 1 for Ti read from file:
     /storage/coda1/p-amedford6/0/shared/rich_project_chbe-medford/medford-share/data/pseudos_module/espresso/nninc/pbe/van/Ti.UPF
     MD5 check sum: 8e4df49b7f0d34bbd5052bf3f5ea0213
     Pseudo is Ultrasoft, Zval = 12.0
     Generated by new atomic code, or converted to UPF format
     Using radial grid of  851 points,  6 beta functions with:
                l(1) =   0
                l(2) =   0
                l(3) =   1
                l(4) =   1
                l(5) =   2
                l(6) =   2
     Q(r) pseudized with  8 coefficients,  rinner =    1.000   1.000   1.000
                                                       1.000   1.000

     PseudoPot. # 2 for O  read from file:
     /storage/coda1/p-amedford6/0/shared/rich_project_chbe-medford/medford-share/data/pseudos_module/espresso/nninc/pbe/van/O.UPF
     MD5 check sum: 78c19812648e8988a0fe644b0f25305e
     Pseudo is Ultrasoft, Zval =  6.0
     Generated by new atomic code, or converted to UPF format
     Using radial grid of  737 points,  4 beta functions with:
                l(1) =   0
                l(2) =   0
                l(3) =   1
                l(4) =   1
     Q(r) pseudized with  8 coefficients,  rinner =    0.800   0.800   0.800

     PseudoPot. # 3 for C  read from file:
     /storage/coda1/p-amedford6/0/shared/rich_project_chbe-medford/medford-share/data/pseudos_module/espresso/nninc/pbe/van/C.UPF
     MD5 check sum: 1a69bf6b8db32088f5b2163dbdb77a27
     Pseudo is Ultrasoft, Zval =  4.0
     Generated by new atomic code, or converted to UPF format
     Using radial grid of  721 points,  4 beta functions with:
                l(1) =   0
                l(2) =   0
                l(3) =   1
                l(4) =   1
     Q(r) pseudized with  8 coefficients,  rinner =    0.800   0.800   0.800

     PseudoPot. # 4 for H  read from file:
     /storage/coda1/p-amedford6/0/shared/rich_project_chbe-medford/medford-share/data/pseudos_module/espresso/nninc/pbe/van/H.UPF
     MD5 check sum: b5ee9d7bfd3a09ee7748110bda690ff7
     Pseudo is Ultrasoft, Zval =  1.0
     Generated by new atomic code, or converted to UPF format
     Using radial grid of  615 points,  1 beta functions with:
                l(1) =   0
     Q(r) pseudized with  8 coefficients,  rinner =    0.800

     atomic species   valence    mass     pseudopotential
        Ti1           12.00    47.86700     Ti( 1.00)
        O1             6.00    15.99900     O ( 1.00)
        C1             4.00    12.01100     C ( 1.00)
        H1             1.00     1.00800     H ( 1.00)

     No symmetry found

   Cartesian axes

     site n.     atom                  positions (alat units)
         1           Ti1 tau(   1) = (   0.0004258   2.9801865   6.0000000  )
         2           Ti1 tau(   2) = (   3.2906075   1.4906267   6.0002472  )
         3           O1  tau(   3) = (   0.0006271   0.0005054   7.9858123  )
         4           O1  tau(   4) = (   3.2906025   0.0005020   7.3038282  )
         5           O1  tau(   5) = (   4.5942328   1.4918067   9.2879030  )
         6           O1  tau(   6) = (   1.9868534   1.4903216   9.2879459  )
         7           Ti1 tau(   7) = (   3.2921849   2.8658251   9.1648892  )
         8           Ti1 tau(   8) = (   0.0073351   1.4983988   9.3831490  )
         9           O1  tau(   9) = (   3.2842540   0.0070318  11.3521760  )
        10           O1  tau(  10) = (   0.0010487   0.0043113  10.5580200  )
        11           O1  tau(  11) = (   1.2736759   1.5124129  12.6486185  )
        12           O1  tau(  12) = (   5.2630300   1.5084811  12.6300625  )
        13           Ti1 tau(  13) = (   0.0799159   2.9885021  12.8537609  )
        14           Ti1 tau(  14) = (   3.3962166   1.4899997  12.4930974  )
        15           O1  tau(  15) = (   6.5670857   5.9608082  14.6055349  )
        16           O1  tau(  16) = (   3.2779887   0.0262294  13.9455360  )
        17           O1  tau(  17) = (   4.5047259   1.5524619  16.1062024  )
        18           O1  tau(  18) = (   2.0328015   1.5482461  16.0993997  )
        19           Ti1 tau(  19) = (   3.2588990   3.0258902  15.7259251  )
        20           Ti1 tau(  20) = (   6.5443225   1.5921241  16.1654916  )
        21           O1  tau(  21) = (   3.2904802   0.0005063   4.7018136  )
        22           O1  tau(  22) = (   6.5577444   0.0567680  17.2452940  )
        23           O1  tau(  23) = (   1.3043587   1.4918075   6.0039043  )
        24           O1  tau(  24) = (   5.2767064   1.4903225   6.0039473  )
        25           Ti1 tau(  25) = (   0.0000382   5.9609847   6.0000000  )
        26           Ti1 tau(  26) = (   3.2902200   4.4714249   6.0002472  )
        27           O1  tau(  27) = (   0.0002396   2.9813036   7.9858123  )
        28           O1  tau(  28) = (   3.2902150   2.9813002   7.3038282  )
        29           O1  tau(  29) = (   4.5938453   4.4726049   9.2879030  )
        30           O1  tau(  30) = (   1.9864658   4.4711199   9.2879459  )
        31           Ti1 tau(  31) = (   3.2960881   5.8478476   9.1648656  )
        32           Ti1 tau(  32) = (   0.0086818   4.4758218   9.3788328  )
        33           O1  tau(  33) = (   3.2854246   2.9850844  11.3450670  )
        34           O1  tau(  34) = (   0.0004502   2.9836692  10.5560002  )
        35           O1  tau(  35) = (   1.2751814   4.4662498  12.6462591  )
        36           O1  tau(  36) = (   5.2612828   4.4711168  12.6263095  )
        37           Ti1 tau(  37) = (   0.0650160   0.0072273  12.8037121  )
        38           Ti1 tau(  38) = (   3.3952379   4.4681493  12.4860303  )
        39           O1  tau(  39) = (   6.5700874   2.9943110  14.6990684  )
        40           O1  tau(  40) = (   3.2774739   3.0059374  13.9302241  )
        41           O1  tau(  41) = (   4.5038310   4.5165569  16.1051355  )
        42           O1  tau(  42) = (   2.0336826   4.5180826  16.0999700  )
        43           Ti1 tau(  43) = (   3.2582433   0.0441072  15.7465997  )
        44           Ti1 tau(  44) = (   6.5393581   4.6163053  16.1595090  )
        45           O1  tau(  45) = (   3.2900926   2.9813045   4.7018136  )
        46           O1  tau(  46) = (   1.3039711   4.4726057   6.0039043  )
        47           O1  tau(  47) = (   5.2763189   4.4711207   6.0039473  )
        48           C1  tau(  48) = (   6.5569965   3.0274956  17.5143990  )
        49           H1  tau(  49) = (   0.0036594   3.1884539  18.5931066  )

     number of k points=    10  Fermi-Dirac smearing, width (Ry)=  0.0073
                       cart. coord. in units 2pi/alat
        k(    1) = (   0.0000000   0.0000000   0.0000000), wk =   0.1250000
        k(    2) = (   0.0000000   0.0419351   0.0000000), wk =   0.2500000
        k(    3) = (   0.0000000  -0.0838702   0.0000000), wk =   0.1250000
        k(    4) = (   0.0379955   0.0000049   0.0000000), wk =   0.2500000
        k(    5) = (   0.0379955   0.0419400   0.0000000), wk =   0.2500000
        k(    6) = (   0.0379955  -0.0838652   0.0000000), wk =   0.2500000
        k(    7) = (   0.0379955  -0.0419301   0.0000000), wk =   0.2500000
        k(    8) = (  -0.0759910  -0.0000099   0.0000000), wk =   0.1250000
        k(    9) = (  -0.0759910   0.0419252   0.0000000), wk =   0.2500000
        k(   10) = (  -0.0759910  -0.0838800   0.0000000), wk =   0.1250000

     Initial potential from superposition of free atoms

     starting charge  366.99920, renormalised to  383.00000

     negative rho (up, down):  2.156E-02 0.000E+00

     %%%%%%%%%%%%%%%%%%%%%%%%%%%%%%%%%%%%%%%%%%%%%%%%%%%%%%%%%%%%%%%%%%%%%%%%
     %                                                                      %
     % You are using vdW-DF, which was implemented by the Thonhauser group. %
     % Please cite the following two papers that made this development      %
     % possible and the two reviews that describe the various versions:     %
     %                                                                      %
     %   T. Thonhauser et al., PRL 115, 136402 (2015).                      %
     %   T. Thonhauser et al., PRB 76, 125112 (2007).                       %
     %   K. Berland et al., Rep. Prog. Phys. 78, 066501 (2015).             %
     %   D.C. Langreth et al., J. Phys.: Condens. Matter 21, 084203 (2009). %
     %                                                                      %
     %                                                                      %
     % If you are calculating the stress with vdW-DF, please also cite:     %
     %                                                                      %
     %   R. Sabatini et al., J. Phys.: Condens. Matter 24, 424209 (2012).   %
     %                                                                      %
     %%%%%%%%%%%%%%%%%%%%%%%%%%%%%%%%%%%%%%%%%%%%%%%%%%%%%%%%%%%%%%%%%%%%%%%%

     Adding external electric field

     Computed dipole along edir(3) :
        Dipole                0.0501 Ry au,          0.1273 Debye
        Dipole field          0.0001 Ry au,

        Potential amp.       -0.0088 Ry
        Total length         46.3494 bohr

     Starting wfcs are  289 atomic wfcs
  @ DRIVER MODE: Message from server: STATUS
  @ DRIVER MODE: Message from server: POSDATA
  @ DRIVER MODE: Reading and sharing cell
  @ DRIVER MODE: Reading and sharing positions
  @ DRIVER MODE: Received positions

     Self-consistent Calculation

     iteration #  1     ecut=    29.40 Ry     beta= 0.05
     Davidson diagonalization with overlap
     c_bands:  1 eigenvalues not converged
     c_bands:  1 eigenvalues not converged
     c_bands:  1 eigenvalues not converged
     c_bands:  1 eigenvalues not converged
     c_bands:  1 eigenvalues not converged
     c_bands:  1 eigenvalues not converged
     c_bands:  1 eigenvalues not converged
     ethr =  1.00E-05,  avg # of iterations = 19.6

[...]

     total energy              =   -2897.80964653 Ry
     estimated scf accuracy    <      11.75348999 Ry

     iteration #  2     ecut=    29.40 Ry     beta= 0.05
     Davidson diagonalization with overlap
     ethr =  3.07E-03,  avg # of iterations =  1.0

[...]

     iteration # 31     ecut=    29.40 Ry     beta= 0.05
     Davidson diagonalization with overlap
     c_bands:  1 eigenvalues not converged
     c_bands:  1 eigenvalues not converged
     c_bands:  1 eigenvalues not converged
     ethr =  9.98E-07,  avg # of iterations = 11.1

[...]

     total energy              =   -2896.37510848 Ry
     estimated scf accuracy    <       0.00000011 Ry

     iteration # 64     ecut=    29.40 Ry     beta= 0.05
     Davidson diagonalization with overlap
     ethr =  2.94E-11,  avg # of iterations =  7.4

     negative rho (up, down):  2.069E-02 0.000E+00

     Adding external electric field

     Computed dipole along edir(3) :
        Dipole                0.3688 Ry au,          0.9374 Debye
        Dipole field          0.0007 Ry au,

        Potential amp.       -0.0645 Ry
        Total length         46.3494 bohr

     End of self-consistent calculation

          k = 0.0000 0.0000 0.0000 ( 18029 PWs)   bands (ev):

   -56.6403 -56.6065 -56.3427 -56.3059 -56.2272 -56.1661 -56.0427 -56.0399
   -56.0056 -55.9452 -55.9354 -55.9088 -55.4376 -55.4036 -55.3538 -55.2684
   -33.0687 -32.8867 -32.8860 -32.8583 -32.8323 -32.7410 -32.6954 -32.6800
   -32.6495 -32.5573 -32.5447 -32.5375 -32.5231 -32.5197 -32.5125 -32.4958
   -32.4728 -32.4551 -32.4447 -32.3493 -32.3117 -32.2886 -32.2865 -32.2761
   -32.2623 -32.2591 -32.1971 -32.1936 -32.1675 -32.1615 -32.1542 -32.1302
   -32.1222 -32.1123 -32.0989 -32.0413 -31.8962 -31.8379 -31.7628 -31.7390
   -31.6564 -31.6258 -31.5872 -31.5714 -31.5609 -31.4853 -31.4593 -31.3418
   -16.9973 -16.8091 -16.5770 -16.4418 -16.3518 -16.2788 -16.0120 -16.0099
   -15.9637 -15.8913 -15.8635 -15.8009 -15.7976 -15.7715 -15.7605 -15.7508
   -15.7326 -15.6843 -15.6679 -15.6402 -15.6069 -15.5658 -15.4437 -15.4242
   -15.4080 -15.2937 -15.2441 -15.2059 -15.0228 -13.9306 -13.8166  -7.7763
    -4.3997  -4.3412  -4.1869  -4.1626  -4.0706  -3.8266  -3.6993  -3.4769
    -3.4357  -3.4051  -3.3901  -3.3239  -3.2647  -3.1575  -3.1412  -3.1198
    -3.0795  -3.0710  -3.0491  -3.0352  -3.0103  -2.9699  -2.8871  -2.8484
    -2.8291  -2.7498  -2.7224  -2.6452  -2.6188  -2.5746  -2.5493  -2.4900
    -2.4835  -2.4198  -2.3490  -2.2908  -2.1393  -2.0988  -2.0904  -2.0834
    -2.0127  -1.9037  -1.7624  -1.7280  -1.6616  -1.6601  -1.6421  -1.6054
    -1.5145  -1.4948  -1.4106  -1.3041  -1.2943  -1.2435  -1.1908  -1.1500
    -1.1328  -1.1326  -1.0755  -1.0436  -1.0071  -0.8800  -0.8528  -0.7335
    -0.7162  -0.6812  -0.6439  -0.6390  -0.5886  -0.5303  -0.4770  -0.4465
    -0.4252  -0.3781  -0.3678  -0.3325  -0.3102  -0.2553  -0.1404  -0.1165
    -0.1059  -0.0414   0.1440   0.1692   0.2121   0.3014   0.3499   0.5117
     0.5323   0.5909   0.7991   0.8357   1.1815   1.2616   1.5399   2.2804
     2.6274   2.8223   3.0826   3.1191   3.1364   3.1680   3.3427   3.3772
     3.3956

[...]

          k = 0.0380-0.0419 0.0000 ( 17876 PWs)   bands (ev):

[...]

          k =-0.0760-0.0000 0.0000 ( 17886 PWs)   bands (ev):

[...]

          k =-0.0760-0.0839 0.0000 ( 17948 PWs)   bands (ev):

   -56.6254 -56.6212 -56.3287 -56.3198 -56.2217 -56.1714 -56.0398 -56.0251
   -56.0201 -55.9382 -55.9314 -55.9225 -55.4205 -55.4205 -55.3501 -55.2719
   -32.8878 -32.8842 -32.8749 -32.8695 -32.7868 -32.7831 -32.6937 -32.6869
   -32.6049 -32.5941 -32.5370 -32.5269 -32.5248 -32.5166 -32.4913 -32.4641
   -32.4277 -32.3733 -32.3603 -32.3527 -32.3489 -32.2844 -32.2756 -32.2697
   -32.2674 -32.2588 -32.2515 -32.2429 -32.2313 -32.2258 -32.1831 -32.1746
   -32.1427 -32.1415 -32.1343 -32.1333 -31.7940 -31.7519 -31.7519 -31.6521
   -31.6520 -31.6351 -31.6241 -31.6140 -31.6140 -31.5642 -31.5058 -31.3819
   -16.4531 -16.4343 -16.2205 -16.2113 -16.1126 -16.1122 -16.1113 -16.1089
   -16.0088 -16.0059 -15.9339 -15.9198 -15.8637 -15.8559 -15.8206 -15.8187
   -15.7975 -15.7942 -15.7523 -15.7456 -15.6170 -15.6149 -15.5091 -15.5055
   -15.4664 -15.4257 -15.3861 -15.3756 -15.1591 -13.9190 -13.9186  -7.7786
    -3.7510  -3.7202  -3.4357  -3.4320  -3.2495  -3.2470  -3.2456  -3.2263
    -3.1824  -3.1524  -3.1428  -3.1172  -3.0860  -3.0433  -3.0324  -3.0127
    -3.0080  -3.0022  -2.9896  -2.9882  -2.9653  -2.9562  -2.9040  -2.8827
    -2.8721  -2.8625  -2.8132  -2.8119  -2.7087  -2.5860  -2.5379  -2.5337
    -2.4846  -2.4505  -2.3667  -2.3641  -2.3354  -2.3192  -2.2728  -2.1699
    -2.0375  -2.0349  -1.9889  -1.9593  -1.8938  -1.8180  -1.7153  -1.6502
    -1.6185  -1.5891  -1.5226  -1.4650  -1.4572  -1.4381  -1.4275  -1.4194
    -1.4054  -1.3092  -1.2969  -1.2254  -1.1884  -1.1782  -1.1680  -1.1359
    -1.1108  -1.0462  -0.9508  -0.9480  -0.9358  -0.9081  -0.8030  -0.7595
    -0.7026  -0.6515  -0.6053  -0.3578  -0.3553  -0.2012  -0.0925  -0.0303
     0.0348   0.0589   0.1017   0.1671   0.2287   0.2341   0.2611   0.2636
     0.3594   0.3618   0.9771   0.9776   1.0362   1.0372   1.7715   2.2231
     3.1075   3.1506   3.1682   3.1735   3.1985   3.2264   3.2447   3.2550
     3.5873

     the Fermi energy is     2.1455 ev

!    total energy              =   -2896.37513375 Ry
     estimated scf accuracy    <       0.00000003 Ry
     smearing contrib. (-TS)   =      -0.01052799 Ry
     internal energy E=F+TS    =   -2896.36460576 Ry

     The total energy is F=E-TS. E is the sum of the following terms:
     one-electron contribution =  -24783.61822260 Ry
     hartree contribution      =   12469.83766934 Ry
     xc contribution           =    -472.98121685 Ry
     ewald contribution        =    9890.39690769 Ry
     electric field correction =       0.00025666 Ry

     convergence has been achieved in  64 iterations

     Forces acting on atoms (cartesian axes, Ry/au):

     atom    1 type  1   force =     0.00018957   -0.00055623    0.14918723
     atom    2 type  1   force =    -0.00002228   -0.00030697   -0.17021809
     atom    3 type  2   force =     0.00005977    0.00011858   -0.06123097
     atom    4 type  2   force =     0.00010848   -0.00167335    0.04073346
     atom    5 type  2   force =    -0.02328334    0.00031159    0.00410700
     atom    6 type  2   force =     0.02300183    0.00151966    0.00331276
     atom    7 type  1   force =    -0.00054534    0.00074337    0.00017841
     atom    8 type  1   force =     0.00020580    0.00084369   -0.00021480
     atom    9 type  2   force =    -0.00006338    0.00009659   -0.00047945
     atom   10 type  2   force =    -0.00003262   -0.00051157    0.00032798
     atom   11 type  2   force =    -0.00024673    0.00047151    0.00029031
     atom   12 type  2   force =     0.00033493    0.00012621    0.00023394
     atom   13 type  1   force =     0.00033332    0.00065408   -0.00099563
     atom   14 type  1   force =    -0.00044682    0.00096836   -0.00031379
     atom   15 type  2   force =    -0.00008689   -0.00006313   -0.00025418
     atom   16 type  2   force =     0.00012511   -0.00026266   -0.00005827
     atom   17 type  2   force =     0.00045441    0.00002406   -0.00012399
     atom   18 type  2   force =    -0.00093158    0.00041606    0.00032604
     atom   19 type  1   force =     0.00017470   -0.00105791    0.00057352
     atom   20 type  1   force =    -0.00031902   -0.00059206    0.00073055
     atom   21 type  2   force =     0.00008237   -0.00018339    0.10247615
     atom   22 type  2   force =     0.00014550    0.00041729   -0.00033812
     atom   23 type  2   force =    -0.07444479    0.00019619   -0.03478410
     atom   24 type  2   force =     0.07440149    0.00062475   -0.03483328
     atom   25 type  1   force =    -0.00003365   -0.00051146    0.15023190
     atom   26 type  1   force =    -0.00001679   -0.00070293   -0.17016911
     atom   27 type  2   force =     0.00007289    0.00063748   -0.06044028
     atom   28 type  2   force =     0.00002904   -0.00161934    0.04018151
     atom   29 type  2   force =    -0.02285974    0.00144675    0.00428286
     atom   30 type  2   force =     0.02312971    0.00224180    0.00348120
     atom   31 type  1   force =    -0.00054178    0.00012721   -0.00079615
     atom   32 type  1   force =     0.00023466   -0.00110856    0.00050645
     atom   33 type  2   force =     0.00025675   -0.00008055    0.00121346
     atom   34 type  2   force =    -0.00004229    0.00059153   -0.00023699
     atom   35 type  2   force =    -0.00098435   -0.00043221    0.00004157
     atom   36 type  2   force =     0.00100053   -0.00023327    0.00010607
     atom   37 type  1   force =    -0.00005552   -0.00007254   -0.00024418
     atom   38 type  1   force =    -0.00069465   -0.00076998    0.00030561
     atom   39 type  2   force =     0.00002522   -0.00017858   -0.00012224
     atom   40 type  2   force =     0.00008742   -0.00016040   -0.00076813
     atom   41 type  2   force =     0.00044273   -0.00022453    0.00029671
     atom   42 type  2   force =    -0.00100165   -0.00058056    0.00068801
     atom   43 type  1   force =     0.00012557    0.00082298   -0.00089429
     atom   44 type  1   force =     0.00009225   -0.00034372    0.00064246
     atom   45 type  2   force =     0.00007235   -0.00018437    0.10246071
     atom   46 type  2   force =    -0.07443400   -0.00013640   -0.03478892
     atom   47 type  2   force =     0.07438790    0.00030783   -0.03484090
     atom   48 type  3   force =     0.00193764   -0.00081164    0.00127710
     atom   49 type  4   force =    -0.00042473   -0.00034927   -0.00104713

     Total force =     0.404558     Total SCF correction =     0.000377
  @ DRIVER MODE: Message from server: STATUS
  @ DRIVER MODE: Message from server: GETFORCE
  @ DRIVER MODE: Returning v,forces,stress,ensemble

     Writing output data file ./calc.save/
  @ DRIVER MODE: Message from server: EXIT
  @ DRIVE MODE: Exiting

     General routines

     Parallel routines

   This run was terminated on:  13:29:32  23Aug2021

   JOB DONE.