     Program PWSCF v.6.7GPU starts on 23Aug2021 at 19:41:29

     R & G space division:  proc/nbgrp/npool/nimage =       6
     Reading input from /storage/home/hcoda1/3/ntian30/research/carbon/CH_vib/ads_slab/CHN2_b/out_0014/pw.inp
Warning: card &CELL ignored
Warning: card   CELL_DYNAMICS='IPI', ignored
Warning: card / ignored

     Current dimensions of program PWSCF are:
     Max number of different atomic species (ntypx) = 10
     Max number of k-points (npk) =  40000
     Max angular momentum in pseudopotentials (lmaxx) =  3
     Presently no symmetry can be used with electric field

     Message from routine cell_base_init:
     DEPRECATED: use true lattice parameter, not A to a.u. conversion factor

     IMPORTANT: XC functional enforced from input :
     Exchange-correlation= BEEF-VDW
                           (   1   4  43  14   2   0   0)
     Any further DFT definition will be discarded
     Please, verify this is what you really want

  @ DRIVER MODE: Connecting to
 qe_1139763_2632794.sched-torque.pace.gatech.eduyfzw4kzp_scratch
  using UNIX socket
  @ DRIVER MODE: Message from server: STATUS
  @ DRIVER MODE: Message from server: INIT
  @ DRIVER MODE: Receiving replica           0          -1
  @ DRIVER MODE: Receiving encoded integer          25
  @ DRIVER MODE:  SCF:  T  FORCE:  T  STRESS:  F  VC:  F  ENSEMBLE:  F
  @ DRIVER MODE:  SCF:  T  FORCE:  T  STRESS:  F  VC:  F  ENSEMBLE:  F

     Using Slab Decomposition

     bravais-lattice index     =            0
     lattice parameter (alat)  =       1.8897  a.u.
     unit-cell volume          =    6658.9804 (a.u.)^3
     number of atoms/cell      =           51
     number of atomic types    =            5
     number of electrons       =       393.00
     number of Kohn-Sham states=          206
     kinetic-energy cutoff     =      29.3995  Ry
     charge density cutoff     =     293.9946  Ry
     scf convergence threshold =      7.3E-08
     mixing beta               =       0.0500
     number of iterations used =            8  plain     mixing
     Exchange-correlation= BEEF-VDW
                           (   1   4  43  14   2   0   0)

     celldm(1)=   1.889726  celldm(2)=   0.000000  celldm(3)=   0.000000
     celldm(4)=   0.000000  celldm(5)=   0.000000  celldm(6)=   0.000000

     crystal axes: (cart. coord. in units of alat)
               a(1) = (   6.579727   0.000000   0.000000 )
               a(2) = (  -0.000775   5.961596   0.000000 )
               a(3) = (   0.000000   0.000000  25.155947 )

     reciprocal axes: (cart. coord. in units 2 pi/alat)
               b(1) = (  0.151982  0.000020  0.000000 )
               b(2) = (  0.000000  0.167740  0.000000 )
               b(3) = (  0.000000  0.000000  0.039752 )

     PseudoPot. # 1 for Ti read from file:
     /storage/coda1/p-amedford6/0/shared/rich_project_chbe-medford/medford-share/data/pseudos_module/espresso/nninc/pbe/van/Ti.UPF
     MD5 check sum: 8e4df49b7f0d34bbd5052bf3f5ea0213
     Pseudo is Ultrasoft, Zval = 12.0
     Generated by new atomic code, or converted to UPF format
     Using radial grid of  851 points,  6 beta functions with:
                l(1) =   0
                l(2) =   0
                l(3) =   1
                l(4) =   1
                l(5) =   2
                l(6) =   2
     Q(r) pseudized with  8 coefficients,  rinner =    1.000   1.000   1.000
                                                       1.000   1.000

     PseudoPot. # 2 for O  read from file:
     /storage/coda1/p-amedford6/0/shared/rich_project_chbe-medford/medford-share/data/pseudos_module/espresso/nninc/pbe/van/O.UPF
     MD5 check sum: 78c19812648e8988a0fe644b0f25305e
     Pseudo is Ultrasoft, Zval =  6.0
     Generated by new atomic code, or converted to UPF format
     Using radial grid of  737 points,  4 beta functions with:
                l(1) =   0
                l(2) =   0
                l(3) =   1
                l(4) =   1
     Q(r) pseudized with  8 coefficients,  rinner =    0.800   0.800   0.800

     PseudoPot. # 3 for N  read from file:
     /storage/coda1/p-amedford6/0/shared/rich_project_chbe-medford/medford-share/data/pseudos_module/espresso/nninc/pbe/van/N.UPF
     MD5 check sum: 90d10febe142ad51ac9d5be1deb811c4
     Pseudo is Ultrasoft, Zval =  5.0
     Generated by new atomic code, or converted to UPF format
     Using radial grid of  729 points,  4 beta functions with:
                l(1) =   0
                l(2) =   0
                l(3) =   1
                l(4) =   1
     Q(r) pseudized with  8 coefficients,  rinner =    0.800   0.800   0.800

     PseudoPot. # 4 for C  read from file:
     /storage/coda1/p-amedford6/0/shared/rich_project_chbe-medford/medford-share/data/pseudos_module/espresso/nninc/pbe/van/C.UPF
     MD5 check sum: 1a69bf6b8db32088f5b2163dbdb77a27
     Pseudo is Ultrasoft, Zval =  4.0
     Generated by new atomic code, or converted to UPF format
     Using radial grid of  721 points,  4 beta functions with:
                l(1) =   0
                l(2) =   0
                l(3) =   1
                l(4) =   1
     Q(r) pseudized with  8 coefficients,  rinner =    0.800   0.800   0.800

     PseudoPot. # 5 for H  read from file:
     /storage/coda1/p-amedford6/0/shared/rich_project_chbe-medford/medford-share/data/pseudos_module/espresso/nninc/pbe/van/H.UPF
     MD5 check sum: b5ee9d7bfd3a09ee7748110bda690ff7
     Pseudo is Ultrasoft, Zval =  1.0
     Generated by new atomic code, or converted to UPF format
     Using radial grid of  615 points,  1 beta functions with:
                l(1) =   0
     Q(r) pseudized with  8 coefficients,  rinner =    0.800

     atomic species   valence    mass     pseudopotential
        Ti1           12.00    47.86700     Ti( 1.00)
        O1             6.00    15.99900     O ( 1.00)
        N1             5.00    14.00700     N ( 1.00)
        C1             4.00    12.01100     C ( 1.00)
        H1             1.00     1.00800     H ( 1.00)

     No symmetry found

   Cartesian axes

     site n.     atom                  positions (alat units)
         1           Ti1 tau(   1) = (   0.0004258   2.9801865   6.0000000  )
         2           Ti1 tau(   2) = (   3.2906075   1.4906267   6.0002472  )
         3           O1  tau(   3) = (   0.0006271   0.0005054   7.9858123  )
         4           O1  tau(   4) = (   3.2906025   0.0005020   7.3038282  )
         5           O1  tau(   5) = (   4.5942328   1.4918067   9.2879030  )
         6           O1  tau(   6) = (   1.9868534   1.4903216   9.2879459  )
         7           Ti1 tau(   7) = (   3.2907910   2.8959150   9.1758416  )
         8           Ti1 tau(   8) = (   0.0015273   1.4827037   9.2680791  )
         9           O1  tau(   9) = (   3.2950996   0.0139504  11.3317891  )
        10           O1  tau(  10) = (   0.0116148   5.9584955  10.6183126  )
        11           O1  tau(  11) = (   1.2919129   1.4990403  12.6236220  )
        12           O1  tau(  12) = (   5.2764399   1.5074276  12.6212280  )
        13           Ti1 tau(  13) = (   0.0528816   2.9532107  12.6238214  )
        14           Ti1 tau(  14) = (   3.3640876   1.5054642  12.4823551  )
        15           O1  tau(  15) = (   0.0126464   0.0517330  14.6735668  )
        16           O1  tau(  16) = (   3.2893787   0.0313947  13.9162352  )
        17           O1  tau(  17) = (   4.5455072   1.5470193  16.0571763  )
        18           O1  tau(  18) = (   2.0683839   1.5479149  16.0688871  )
        19           Ti1 tau(  19) = (   3.3004933   3.0285056  15.7062229  )
        20           Ti1 tau(  20) = (   6.5748692   1.5544668  15.8636821  )
        21           O1  tau(  21) = (   3.2904802   0.0005063   4.7018136  )
        22           O1  tau(  22) = (   0.0156978   0.0568370  17.2307755  )
        23           O1  tau(  23) = (   1.3043587   1.4918075   6.0039043  )
        24           O1  tau(  24) = (   5.2767064   1.4903225   6.0039473  )
        25           Ti1 tau(  25) = (   0.0000382   5.9609847   6.0000000  )
        26           Ti1 tau(  26) = (   3.2902200   4.4714249   6.0002472  )
        27           O1  tau(  27) = (   0.0002396   2.9813036   7.9858123  )
        28           O1  tau(  28) = (   3.2902150   2.9813002   7.3038282  )
        29           O1  tau(  29) = (   4.5938453   4.4726049   9.2879030  )
        30           O1  tau(  30) = (   1.9864658   4.4711199   9.2879459  )
        31           Ti1 tau(  31) = (   3.2891106   5.8743827   9.1763621  )
        32           Ti1 tau(  32) = (   0.0006254   4.4649316   9.2693709  )
        33           O1  tau(  33) = (   3.2930415   3.0011583  11.3325650  )
        34           O1  tau(  34) = (   0.0092240   2.9805883  10.6323155  )
        35           O1  tau(  35) = (   1.2898468   4.4882246  12.6384491  )
        36           O1  tau(  36) = (   5.2806636   4.4975927  12.6358184  )
        37           Ti1 tau(  37) = (   0.0525728   5.9296047  12.5528222  )
        38           Ti1 tau(  38) = (   3.3636738   4.4864912  12.4891182  )
        39           O1  tau(  39) = (   0.0107234   2.9627607  14.6747216  )
        40           O1  tau(  40) = (   3.2927234   3.0099296  13.9079960  )
        41           O1  tau(  41) = (   4.5395255   4.5218754  16.0742521  )
        42           O1  tau(  42) = (   2.0629885   4.5199598  16.0715304  )
        43           Ti1 tau(  43) = (   3.2878121   0.0461507  15.7166771  )
        44           Ti1 tau(  44) = (   0.0020781   4.6962996  16.1098215  )
        45           O1  tau(  45) = (   3.2900926   2.9813045   4.7018136  )
        46           O1  tau(  46) = (   1.3039711   4.4726057   6.0039043  )
        47           O1  tau(  47) = (   5.2763189   4.4711207   6.0039473  )
        48           N1  tau(  48) = (   0.1203982   2.9607606  18.6152809  )
        49           N1  tau(  49) = (   0.0157770   3.0106383  17.4001577  )
        50           C1  tau(  50) = (   0.0751646   2.9076078  19.8026698  )
        51           H1  tau(  51) = (   0.7310076   2.8879977  20.6380856  )

     number of k points=    10  Fermi-Dirac smearing, width (Ry)=  0.0073
                       cart. coord. in units 2pi/alat
        k(    1) = (   0.0000000   0.0000000   0.0000000), wk =   0.1250000
        k(    2) = (   0.0000000   0.0419351   0.0000000), wk =   0.2500000
        k(    3) = (   0.0000000  -0.0838702   0.0000000), wk =   0.1250000
        k(    4) = (   0.0379955   0.0000049   0.0000000), wk =   0.2500000
        k(    5) = (   0.0379955   0.0419400   0.0000000), wk =   0.2500000
        k(    6) = (   0.0379955  -0.0838652   0.0000000), wk =   0.2500000
        k(    7) = (   0.0379955  -0.0419301   0.0000000), wk =   0.2500000
        k(    8) = (  -0.0759910  -0.0000099   0.0000000), wk =   0.1250000
        k(    9) = (  -0.0759910   0.0419252   0.0000000), wk =   0.2500000
        k(   10) = (  -0.0759910  -0.0838800   0.0000000), wk =   0.1250000

     Initial potential from superposition of free atoms

     starting charge  376.99918, renormalised to  393.00000

     negative rho (up, down):  1.565E-02 0.000E+00

     %%%%%%%%%%%%%%%%%%%%%%%%%%%%%%%%%%%%%%%%%%%%%%%%%%%%%%%%%%%%%%%%%%%%%%%%
     %                                                                      %
     % You are using vdW-DF, which was implemented by the Thonhauser group. %
     % Please cite the following two papers that made this development      %
     % possible and the two reviews that describe the various versions:     %
     %                                                                      %
     %   T. Thonhauser et al., PRL 115, 136402 (2015).                      %
     %   T. Thonhauser et al., PRB 76, 125112 (2007).                       %
     %   K. Berland et al., Rep. Prog. Phys. 78, 066501 (2015).             %
     %   D.C. Langreth et al., J. Phys.: Condens. Matter 21, 084203 (2009). %
     %                                                                      %
     %                                                                      %
     % If you are calculating the stress with vdW-DF, please also cite:     %
     %                                                                      %
     %   R. Sabatini et al., J. Phys.: Condens. Matter 24, 424209 (2012).   %
     %                                                                      %
     %%%%%%%%%%%%%%%%%%%%%%%%%%%%%%%%%%%%%%%%%%%%%%%%%%%%%%%%%%%%%%%%%%%%%%%%

     Adding external electric field

     Computed dipole along edir(3) :
        Dipole               -7.5501 Ry au,        -19.1904 Debye
        Dipole field         -0.0142 Ry au,

        Potential amp.        1.3208 Ry
        Total length         46.3494 bohr

     Starting wfcs are  297 atomic wfcs
  @ DRIVER MODE: Message from server: STATUS
  @ DRIVER MODE: Message from server: POSDATA
  @ DRIVER MODE: Reading and sharing cell
  @ DRIVER MODE: Reading and sharing positions
  @ DRIVER MODE: Received positions

     Self-consistent Calculation

     iteration #  1     ecut=    29.40 Ry     beta= 0.05
     Davidson diagonalization with overlap
     c_bands:  1 eigenvalues not converged
     c_bands:  1 eigenvalues not converged
     c_bands:  1 eigenvalues not converged
     ethr =  1.00E-05,  avg # of iterations = 18.4

[...]

     total energy              =   -2707.49493896 Ry
     estimated scf accuracy    <    2541.58135098 Ry

[...]

     iteration #  3     ecut=    29.40 Ry     beta= 0.05
     Davidson diagonalization with overlap
     ethr =  1.00E-02,  avg # of iterations = 15.7

[...]

     iteration # 53     ecut=    29.40 Ry     beta= 0.05
     Davidson diagonalization with overlap
     c_bands:  1 eigenvalues not converged
     ethr =  5.81E-11,  avg # of iterations = 11.4

[...]

     total energy              =   -2936.63942820 Ry
     estimated scf accuracy    <       0.00000014 Ry

     iteration # 57     ecut=    29.40 Ry     beta= 0.05
     Davidson diagonalization with overlap
     ethr =  2.97E-11,  avg # of iterations =  4.2

     negative rho (up, down):  1.608E-02 0.000E+00

     Adding external electric field

     Computed dipole along edir(3) :
        Dipole                0.7569 Ry au,          1.9237 Debye
        Dipole field          0.0014 Ry au,

        Potential amp.       -0.1324 Ry
        Total length         46.3494 bohr

     End of self-consistent calculation

          k = 0.0000 0.0000 0.0000 ( 18029 PWs)   bands (ev):

   -55.9049 -55.9038 -55.8708 -55.8671 -55.7641 -55.7507 -55.7289 -55.7142
   -55.7131 -55.6804 -55.6802 -55.6467 -55.4639 -55.2199 -54.8837 -54.8497
   -32.4577 -32.3874 -32.2613 -32.2134 -32.2111 -32.2048 -32.1977 -32.1709
   -32.1477 -32.1224 -32.0917 -32.0821 -32.0772 -32.0572 -32.0499 -32.0435
   -32.0093 -31.9969 -31.9892 -31.9681 -31.9657 -31.9622 -31.9437 -31.9179
   -31.9112 -31.9034 -31.9005 -31.8916 -31.8896 -31.8822 -31.8768 -31.8554
   -31.8451 -31.8336 -31.8209 -31.8182 -31.7924 -31.6848 -31.6779 -31.4977
   -31.4495 -31.4488 -31.2909 -31.2024 -31.1800 -31.1076 -31.0211 -30.9101
   -19.2688 -16.6447 -16.3796 -16.1341 -16.0528 -16.0236 -15.9079 -15.7460
   -15.6288 -15.5679 -15.4676 -15.4618 -15.4416 -15.4087 -15.3791 -15.3538
   -15.3490 -15.3390 -15.3224 -15.2904 -15.2663 -15.2449 -15.2211 -15.1320
   -15.0747 -15.0394 -14.9795 -14.9717 -14.9621 -14.5019 -13.9373 -13.3862
   -13.2698  -6.7149  -5.3199  -4.2251  -4.0191  -3.9304  -3.8602  -3.8115
    -3.7565  -3.6534  -3.5155  -3.4462  -3.1328  -3.0806  -3.0685  -3.0439
    -3.0194  -2.8062  -2.7410  -2.7178  -2.6842  -2.6791  -2.6764  -2.6678
    -2.6512  -2.6183  -2.4971  -2.4407  -2.3689  -2.3295  -2.2998  -2.2921
    -2.2173  -2.1783  -2.1670  -2.1424  -2.1407  -2.1170  -2.1077  -2.0905
    -1.9531  -1.8863  -1.7649  -1.6992  -1.6655  -1.5140  -1.4875  -1.3829
    -1.3573  -1.3339  -1.2977  -1.2667  -1.2078  -1.0742  -1.0661  -1.0555
    -1.0235  -0.9246  -0.8719  -0.7989  -0.7431  -0.7246  -0.6742  -0.6622
    -0.6585  -0.6150  -0.4562  -0.3797  -0.3204  -0.3109  -0.2662  -0.2055
    -0.1755  -0.0976  -0.0550  -0.0250  -0.0118   0.0317   0.0688   0.0926
     0.1029   0.1126   0.1263   0.3119   0.3540   0.3722   0.4303   0.4475
     0.6201   0.6653   0.7504   0.8454   1.0638   1.1383   1.2221   1.3300
     1.3334   1.5925   1.7097   1.7554   3.2264   3.3160   3.3525   3.3613
     3.4684   3.5406   3.6832   3.6951   3.7158   3.7584

[...]

          k = 0.0380-0.0419 0.0000 ( 17876 PWs)   bands (ev):

[...]

          k =-0.0760-0.0000 0.0000 ( 17886 PWs)   bands (ev):

[...]

          k =-0.0760-0.0839 0.0000 ( 17948 PWs)   bands (ev):

   -55.8891 -55.8883 -55.8873 -55.8816 -55.7507 -55.7422 -55.7392 -55.7245
   -55.6981 -55.6958 -55.6652 -55.6621 -55.4627 -55.2209 -54.8667 -54.8666
   -32.2639 -32.2569 -32.2031 -32.2023 -32.1835 -32.1826 -32.1551 -32.1506
   -32.1107 -32.1032 -32.0772 -32.0751 -32.0357 -32.0284 -32.0199 -32.0177
   -32.0105 -32.0101 -32.0080 -32.0069 -32.0033 -32.0003 -31.9668 -31.9559
   -31.9472 -31.9412 -31.9270 -31.9237 -31.8985 -31.8978 -31.8960 -31.8935
   -31.8797 -31.8778 -31.8740 -31.8717 -31.8410 -31.6875 -31.6735 -31.5679
   -31.4710 -31.4514 -31.1928 -31.1926 -31.1038 -31.1036 -31.0644 -31.0644
   -19.2663 -16.0727 -16.0593 -15.8553 -15.8216 -15.8092 -15.8018 -15.6858
   -15.6064 -15.5981 -15.5970 -15.4956 -15.4836 -15.4752 -15.4430 -15.4333
   -15.4138 -15.4123 -15.3739 -15.3669 -15.3609 -15.3436 -15.3360 -15.2502
   -15.2239 -15.2197 -15.1887 -15.0749 -14.9404 -14.6824 -13.9431 -13.3717
   -13.3715  -6.7140  -5.2880  -4.1884  -3.9317  -3.3622  -3.3458  -3.0910
    -3.0594  -3.0503  -2.9950  -2.8229  -2.8055  -2.7818  -2.7598  -2.7293
    -2.7227  -2.7154  -2.7083  -2.6894  -2.6454  -2.6210  -2.5906  -2.5761
    -2.5617  -2.5613  -2.5306  -2.5178  -2.4764  -2.4623  -2.4516  -2.4290
    -2.4045  -2.3944  -2.2414  -2.1481  -2.1168  -2.0443  -2.0376  -1.9964
    -1.9699  -1.9550  -1.9317  -1.8962  -1.7544  -1.6399  -1.6038  -1.5891
    -1.5092  -1.4655  -1.3892  -1.3297  -1.2857  -1.2792  -1.2228  -1.1734
    -1.1131  -1.1014  -1.0380  -1.0051  -0.9680  -0.9349  -0.8945  -0.8639
    -0.8586  -0.7732  -0.7227  -0.7147  -0.6631  -0.6592  -0.6293  -0.5724
    -0.5532  -0.5252  -0.4025  -0.3825  -0.2754  -0.1934  -0.1329   0.0624
     0.1436   0.1686   0.2221   0.2924   0.3821   0.3962   0.4115   0.4172
     0.4656   0.5166   0.6238   0.6348   0.6731   0.8035   1.2530   1.4755
     1.5019   1.5027   1.5751   1.5753   3.5396   3.5494   3.5674   3.5837
     3.7395   3.7422   3.7619   3.7633   3.8973   3.9102

     the Fermi energy is     3.2279 ev

!    total energy              =   -2936.63948508 Ry
     estimated scf accuracy    <       0.00000004 Ry
     smearing contrib. (-TS)   =      -0.02146536 Ry
     internal energy E=F+TS    =   -2936.61801973 Ry

     The total energy is F=E-TS. E is the sum of the following terms:
     one-electron contribution =  -24291.94251574 Ry
     hartree contribution      =   12231.58040370 Ry
     xc contribution           =    -483.57125077 Ry
     ewald contribution        =    9607.31426208 Ry
     electric field correction =       0.00108099 Ry

     convergence has been achieved in  57 iterations

     Forces acting on atoms (cartesian axes, Ry/au):

     atom    1 type  1   force =     0.00009440   -0.00014599    0.09654234
     atom    2 type  1   force =    -0.00015145   -0.00057889   -0.17551989
     atom    3 type  2   force =    -0.00000008    0.00006019   -0.02460340
     atom    4 type  2   force =     0.00005410   -0.00130289    0.05297783
     atom    5 type  2   force =    -0.01199107    0.00009700    0.00366904
     atom    6 type  2   force =     0.01364710    0.00068934    0.00267998
     atom    7 type  1   force =    -0.00092040    0.00090665   -0.01121551
     atom    8 type  1   force =     0.00035505    0.00993001    0.02717996
     atom    9 type  2   force =    -0.00018383   -0.00023512    0.00017096
     atom   10 type  2   force =    -0.00142874    0.00227580   -0.01250591
     atom   11 type  2   force =    -0.00013550    0.00025164   -0.00026272
     atom   12 type  2   force =     0.00034585   -0.00000076   -0.00057163
     atom   13 type  1   force =     0.00035367   -0.00122472   -0.00059589
     atom   14 type  1   force =     0.00041410    0.00001462   -0.00001060
     atom   15 type  2   force =    -0.00003390   -0.00079602   -0.00033636
     atom   16 type  2   force =     0.00009612   -0.00047895    0.00005294
     atom   17 type  2   force =    -0.00055472   -0.00061024    0.00005168
     atom   18 type  2   force =    -0.00026254   -0.00069876   -0.00015570
     atom   19 type  1   force =     0.00005812   -0.00032348    0.00001984
     atom   20 type  1   force =     0.00011291    0.00008490   -0.00000152
     atom   21 type  2   force =     0.00003577   -0.00004204    0.10323344
     atom   22 type  2   force =    -0.00032428   -0.00080113   -0.00087055
     atom   23 type  2   force =    -0.07148672   -0.00010435   -0.02768339
     atom   24 type  2   force =     0.07140195    0.00031895   -0.02768836
     atom   25 type  1   force =     0.00006738   -0.00012952    0.09604964
     atom   26 type  1   force =    -0.00022661   -0.00021927   -0.17569002
     atom   27 type  2   force =     0.00006334   -0.00013086   -0.02362281
     atom   28 type  2   force =     0.00005805   -0.00109245    0.05315970
     atom   29 type  2   force =    -0.01211718    0.00086817    0.00327863
     atom   30 type  2   force =     0.01368005    0.00133930    0.00233369
     atom   31 type  1   force =    -0.00082963    0.00333232   -0.01193107
     atom   32 type  1   force =     0.00042976   -0.01207390    0.02750288
     atom   33 type  2   force =     0.00022075    0.00015630    0.00012226
     atom   34 type  2   force =    -0.00106940    0.00252765   -0.02033815
     atom   35 type  2   force =     0.00015244   -0.00086998   -0.00029481
     atom   36 type  2   force =     0.00040245   -0.00059217   -0.00059005
     atom   37 type  1   force =     0.00004695    0.00117393   -0.00034343
     atom   38 type  1   force =     0.00032027    0.00031959   -0.00012443
     atom   39 type  2   force =    -0.00002821    0.00037788   -0.00078137
     atom   40 type  2   force =    -0.00001437    0.00005710   -0.00054784
     atom   41 type  2   force =     0.00036941   -0.00001688   -0.00012825
     atom   42 type  2   force =    -0.00050055    0.00012940    0.00085795
     atom   43 type  1   force =    -0.00007390   -0.00036087    0.00017880
     atom   44 type  1   force =    -0.00011830   -0.00048612   -0.00000036
     atom   45 type  2   force =     0.00004674   -0.00005468    0.10323883
     atom   46 type  2   force =    -0.07148324   -0.00006727   -0.02768227
     atom   47 type  2   force =     0.07141505    0.00034143   -0.02769464
     atom   48 type  3   force =     0.00192129   -0.00072924    0.00055045
     atom   49 type  3   force =    -0.00063150   -0.00039028   -0.00007439
     atom   50 type  4   force =    -0.00750614   -0.00013347   -0.00828199
     atom   51 type  5   force =     0.00590922   -0.00056188    0.00629649

     Total force =     0.367897     Total SCF correction =     0.000650
  @ DRIVER MODE: Message from server: STATUS
  @ DRIVER MODE: Message from server: GETFORCE
  @ DRIVER MODE: Returning v,forces,stress,ensemble

     Writing output data file ./calc.save/
  @ DRIVER MODE: Message from server: EXIT
  @ DRIVE MODE: Exiting

     General routines

     Parallel routines

   This run was terminated on:  20: 8:19  23Aug2021

   JOB DONE.