     Program PWSCF v.6.7GPU starts on 24Aug2021 at 20:57:31

     R & G space division:  proc/nbgrp/npool/nimage =       6
     Reading input from /storage/home/hcoda1/3/ntian30/research/carbon/CH3_vib_end_on/ads_slab/CH3N2H2_f/out_0008/pw.inp
Warning: card &CELL ignored
Warning: card   CELL_DYNAMICS='IPI', ignored
Warning: card / ignored

     Current dimensions of program PWSCF are:
     Max number of different atomic species (ntypx) = 10
     Max number of k-points (npk) =  40000
     Max angular momentum in pseudopotentials (lmaxx) =  3
     Presently no symmetry can be used with electric field

     Message from routine cell_base_init:
     DEPRECATED: use true lattice parameter, not A to a.u. conversion factor

     IMPORTANT: XC functional enforced from input :
     Exchange-correlation= BEEF-VDW
                           (   1   4  43  14   2   0   0)
     Any further DFT definition will be discarded
     Please, verify this is what you really want

  @ DRIVER MODE: Connecting to
 qe_1139763_2643870.sched-torque.pace.gatech.eduft0ehnay_scratch
  using UNIX socket
  @ DRIVER MODE: Message from server: STATUS
  @ DRIVER MODE: Message from server: INIT
  @ DRIVER MODE: Receiving replica           0          -1
  @ DRIVER MODE: Receiving encoded integer          25
  @ DRIVER MODE:  SCF:  T  FORCE:  T  STRESS:  F  VC:  F  ENSEMBLE:  F
  @ DRIVER MODE:  SCF:  T  FORCE:  T  STRESS:  F  VC:  F  ENSEMBLE:  F

     Using Slab Decomposition

     bravais-lattice index     =            0
     lattice parameter (alat)  =       1.8897  a.u.
     unit-cell volume          =    6658.9804 (a.u.)^3
     number of atoms/cell      =           55
     number of atomic types    =            5
     number of electrons       =       397.00
     number of Kohn-Sham states=          208
     kinetic-energy cutoff     =      29.3995  Ry
     charge density cutoff     =     293.9946  Ry
     scf convergence threshold =      7.3E-08
     mixing beta               =       0.0500
     number of iterations used =            8  plain     mixing
     Exchange-correlation= BEEF-VDW
                           (   1   4  43  14   2   0   0)

     celldm(1)=   1.889726  celldm(2)=   0.000000  celldm(3)=   0.000000
     celldm(4)=   0.000000  celldm(5)=   0.000000  celldm(6)=   0.000000

     crystal axes: (cart. coord. in units of alat)
               a(1) = (   6.579727   0.000000   0.000000 )
               a(2) = (  -0.000775   5.961596   0.000000 )
               a(3) = (   0.000000   0.000000  25.155947 )

     reciprocal axes: (cart. coord. in units 2 pi/alat)
               b(1) = (  0.151982  0.000020  0.000000 )
               b(2) = (  0.000000  0.167740  0.000000 )
               b(3) = (  0.000000  0.000000  0.039752 )

     PseudoPot. # 1 for Ti read from file:
     /storage/coda1/p-amedford6/0/shared/rich_project_chbe-medford/medford-share/data/pseudos_module/espresso/nninc/pbe/van/Ti.UPF
     MD5 check sum: 8e4df49b7f0d34bbd5052bf3f5ea0213
     Pseudo is Ultrasoft, Zval = 12.0
     Generated by new atomic code, or converted to UPF format
     Using radial grid of  851 points,  6 beta functions with:
                l(1) =   0
                l(2) =   0
                l(3) =   1
                l(4) =   1
                l(5) =   2
                l(6) =   2
     Q(r) pseudized with  8 coefficients,  rinner =    1.000   1.000   1.000
                                                       1.000   1.000

     PseudoPot. # 2 for O  read from file:
     /storage/coda1/p-amedford6/0/shared/rich_project_chbe-medford/medford-share/data/pseudos_module/espresso/nninc/pbe/van/O.UPF
     MD5 check sum: 78c19812648e8988a0fe644b0f25305e
     Pseudo is Ultrasoft, Zval =  6.0
     Generated by new atomic code, or converted to UPF format
     Using radial grid of  737 points,  4 beta functions with:
                l(1) =   0
                l(2) =   0
                l(3) =   1
                l(4) =   1
     Q(r) pseudized with  8 coefficients,  rinner =    0.800   0.800   0.800

     PseudoPot. # 3 for N  read from file:
     /storage/coda1/p-amedford6/0/shared/rich_project_chbe-medford/medford-share/data/pseudos_module/espresso/nninc/pbe/van/N.UPF
     MD5 check sum: 90d10febe142ad51ac9d5be1deb811c4
     Pseudo is Ultrasoft, Zval =  5.0
     Generated by new atomic code, or converted to UPF format
     Using radial grid of  729 points,  4 beta functions with:
                l(1) =   0
                l(2) =   0
                l(3) =   1
                l(4) =   1
     Q(r) pseudized with  8 coefficients,  rinner =    0.800   0.800   0.800

     PseudoPot. # 4 for C  read from file:
     /storage/coda1/p-amedford6/0/shared/rich_project_chbe-medford/medford-share/data/pseudos_module/espresso/nninc/pbe/van/C.UPF
     MD5 check sum: 1a69bf6b8db32088f5b2163dbdb77a27
     Pseudo is Ultrasoft, Zval =  4.0
     Generated by new atomic code, or converted to UPF format
     Using radial grid of  721 points,  4 beta functions with:
                l(1) =   0
                l(2) =   0
                l(3) =   1
                l(4) =   1
     Q(r) pseudized with  8 coefficients,  rinner =    0.800   0.800   0.800

     PseudoPot. # 5 for H  read from file:
     /storage/coda1/p-amedford6/0/shared/rich_project_chbe-medford/medford-share/data/pseudos_module/espresso/nninc/pbe/van/H.UPF
     MD5 check sum: b5ee9d7bfd3a09ee7748110bda690ff7
     Pseudo is Ultrasoft, Zval =  1.0
     Generated by new atomic code, or converted to UPF format
     Using radial grid of  615 points,  1 beta functions with:
                l(1) =   0
     Q(r) pseudized with  8 coefficients,  rinner =    0.800

     atomic species   valence    mass     pseudopotential
        Ti1           12.00    47.86700     Ti( 1.00)
        O1             6.00    15.99900     O ( 1.00)
        N1             5.00    14.00700     N ( 1.00)
        C1             4.00    12.01100     C ( 1.00)
        H1             1.00     1.00800     H ( 1.00)

     No symmetry found

   Cartesian axes

     site n.     atom                  positions (alat units)
         1           Ti1 tau(   1) = (   0.0004258   2.9801865   6.0000000  )
         2           Ti1 tau(   2) = (   3.2906075   1.4906267   6.0002472  )
         3           O1  tau(   3) = (   0.0006271   0.0005054   7.9858123  )
         4           O1  tau(   4) = (   3.2906025   0.0005020   7.3038282  )
         5           O1  tau(   5) = (   4.5942328   1.4918067   9.2879030  )
         6           O1  tau(   6) = (   1.9868534   1.4903216   9.2879459  )
         7           Ti1 tau(   7) = (   3.2907910   2.8959150   9.1758416  )
         8           Ti1 tau(   8) = (   0.0015273   1.4827037   9.2680791  )
         9           O1  tau(   9) = (   3.2830128   5.9597860  11.3344455  )
        10           O1  tau(  10) = (   0.0116148   5.9584955  10.6183126  )
        11           O1  tau(  11) = (   1.2885291   1.4855062  12.6376555  )
        12           O1  tau(  12) = (   5.2724004   1.4911608  12.5936499  )
        13           Ti1 tau(  13) = (   0.0410009   3.0319447  12.6084003  )
        14           Ti1 tau(  14) = (   3.3739341   1.4916561  12.4823474  )
        15           O1  tau(  15) = (   6.4862162   0.0153916  14.6455093  )
        16           O1  tau(  16) = (   3.3439542   5.9611638  13.9051029  )
        17           O1  tau(  17) = (   4.4933269   1.5483200  16.1231154  )
        18           O1  tau(  18) = (   1.9964937   1.4536654  15.9127221  )
        19           Ti1 tau(  19) = (   3.1412959   3.0017366  15.7441667  )
        20           Ti1 tau(  20) = (   6.4823597   1.5369342  15.8006069  )
        21           O1  tau(  21) = (   3.2904802   0.0005063   4.7018136  )
        22           O1  tau(  22) = (   6.5709111   0.0522475  17.2082838  )
        23           O1  tau(  23) = (   1.3043587   1.4918075   6.0039043  )
        24           O1  tau(  24) = (   5.2767064   1.4903225   6.0039473  )
        25           Ti1 tau(  25) = (   0.0000382   5.9609847   6.0000000  )
        26           Ti1 tau(  26) = (   3.2902200   4.4714249   6.0002472  )
        27           O1  tau(  27) = (   0.0002396   2.9813036   7.9858123  )
        28           O1  tau(  28) = (   3.2902150   2.9813002   7.3038282  )
        29           O1  tau(  29) = (   4.5938453   4.4726049   9.2879030  )
        30           O1  tau(  30) = (   1.9864658   4.4711199   9.2879459  )
        31           Ti1 tau(  31) = (   3.2891106   5.8743827   9.1763621  )
        32           Ti1 tau(  32) = (   0.0006254   4.4649316   9.2693709  )
        33           O1  tau(  33) = (   3.2833609   2.9822938  11.3349093  )
        34           O1  tau(  34) = (   0.0092240   2.9805883  10.6323155  )
        35           O1  tau(  35) = (   1.2838611   4.4860338  12.6468719  )
        36           O1  tau(  36) = (   5.2760156   4.4607002  12.6015494  )
        37           Ti1 tau(  37) = (   0.0673138   0.0440259  12.5461749  )
        38           Ti1 tau(  38) = (   3.3712377   4.4654930  12.4933830  )
        39           O1  tau(  39) = (   6.5217465   2.9589972  14.6412948  )
        40           O1  tau(  40) = (   3.2809526   2.9956502  13.9333893  )
        41           O1  tau(  41) = (   4.4911989   4.4583117  16.1637052  )
        42           O1  tau(  42) = (   1.9937212   4.5427850  15.9740970  )
        43           Ti1 tau(  43) = (   3.2955853   0.0167752  15.6963065  )
        44           Ti1 tau(  44) = (   6.5082246   4.6715011  16.1069148  )
        45           O1  tau(  45) = (   3.2900926   2.9813045   4.7018136  )
        46           O1  tau(  46) = (   1.3039711   4.4726057   6.0039043  )
        47           O1  tau(  47) = (   5.2763189   4.4711207   6.0039473  )
        48           N1  tau(  48) = (   1.3945086   2.8365607  18.1849301  )
        49           N1  tau(  49) = (   0.1877896   2.9650562  17.4211889  )
        50           C1  tau(  50) = (   1.4118813   3.7128676  19.3556819  )
        51           H1  tau(  51) = (   0.5171711   3.5996102  19.9880000  )
        52           H1  tau(  52) = (   2.2935099   3.4681107  19.9517681  )
        53           H1  tau(  53) = (   1.4703795   4.7520035  19.0319817  )
        54           H1  tau(  54) = (   1.4579882   1.8621926  18.4823179  )
        55           H1  tau(  55) = (   5.9558665   2.8747675  18.0551794  )

     number of k points=    10  Fermi-Dirac smearing, width (Ry)=  0.0073
                       cart. coord. in units 2pi/alat
        k(    1) = (   0.0000000   0.0000000   0.0000000), wk =   0.1250000
        k(    2) = (   0.0000000   0.0419351   0.0000000), wk =   0.2500000
        k(    3) = (   0.0000000  -0.0838702   0.0000000), wk =   0.1250000
        k(    4) = (   0.0379955   0.0000049   0.0000000), wk =   0.2500000
        k(    5) = (   0.0379955   0.0419400   0.0000000), wk =   0.2500000
        k(    6) = (   0.0379955  -0.0838652   0.0000000), wk =   0.2500000
        k(    7) = (   0.0379955  -0.0419301   0.0000000), wk =   0.2500000
        k(    8) = (  -0.0759910  -0.0000099   0.0000000), wk =   0.1250000
        k(    9) = (  -0.0759910   0.0419252   0.0000000), wk =   0.2500000
        k(   10) = (  -0.0759910  -0.0838800   0.0000000), wk =   0.1250000

     Initial potential from superposition of free atoms

     starting charge  380.99914, renormalised to  397.00000

     negative rho (up, down):  1.540E-02 0.000E+00

     %%%%%%%%%%%%%%%%%%%%%%%%%%%%%%%%%%%%%%%%%%%%%%%%%%%%%%%%%%%%%%%%%%%%%%%%
     %                                                                      %
     % You are using vdW-DF, which was implemented by the Thonhauser group. %
     % Please cite the following two papers that made this development      %
     % possible and the two reviews that describe the various versions:     %
     %                                                                      %
     %   T. Thonhauser et al., PRL 115, 136402 (2015).                      %
     %   T. Thonhauser et al., PRB 76, 125112 (2007).                       %
     %   K. Berland et al., Rep. Prog. Phys. 78, 066501 (2015).             %
     %   D.C. Langreth et al., J. Phys.: Condens. Matter 21, 084203 (2009). %
     %                                                                      %
     %                                                                      %
     % If you are calculating the stress with vdW-DF, please also cite:     %
     %                                                                      %
     %   R. Sabatini et al., J. Phys.: Condens. Matter 24, 424209 (2012).   %
     %                                                                      %
     %%%%%%%%%%%%%%%%%%%%%%%%%%%%%%%%%%%%%%%%%%%%%%%%%%%%%%%%%%%%%%%%%%%%%%%%

     Adding external electric field

     Computed dipole along edir(3) :
        Dipole               -9.6180 Ry au,        -24.4465 Debye
        Dipole field         -0.0182 Ry au,

        Potential amp.        1.6825 Ry
        Total length         46.3494 bohr

     Starting wfcs are  301 atomic wfcs
  @ DRIVER MODE: Message from server: STATUS
  @ DRIVER MODE: Message from server: POSDATA
  @ DRIVER MODE: Reading and sharing cell
  @ DRIVER MODE: Reading and sharing positions
  @ DRIVER MODE: Received positions

     Self-consistent Calculation

     iteration #  1     ecut=    29.40 Ry     beta= 0.05
     Davidson diagonalization with overlap
     c_bands:  1 eigenvalues not converged
     c_bands:  1 eigenvalues not converged
     c_bands:  1 eigenvalues not converged
     c_bands:  1 eigenvalues not converged
     c_bands:  1 eigenvalues not converged
     c_bands:  1 eigenvalues not converged
     c_bands:  2 eigenvalues not converged
     ethr =  1.00E-05,  avg # of iterations = 18.8

[...]

     total energy              =   -2532.80612939 Ry
     estimated scf accuracy    <    4547.35924585 Ry

     iteration #  2     ecut=    29.40 Ry     beta= 0.05
     Davidson diagonalization with overlap
     ethr =  1.00E-02,  avg # of iterations = 24.4

[...]

     iteration # 52     ecut=    29.40 Ry     beta= 0.05
     Davidson diagonalization with overlap
     c_bands:  1 eigenvalues not converged
     ethr =  1.48E-10,  avg # of iterations = 12.0

[...]

     total energy              =   -2941.66139391 Ry
     estimated scf accuracy    <       0.00000008 Ry

     iteration # 56     ecut=    29.40 Ry     beta= 0.05
     Davidson diagonalization with overlap
     ethr =  2.01E-11,  avg # of iterations =  4.7

     negative rho (up, down):  1.608E-02 0.000E+00

     Adding external electric field

     Computed dipole along edir(3) :
        Dipole                0.9402 Ry au,          2.3898 Debye
        Dipole field          0.0018 Ry au,

        Potential amp.       -0.1645 Ry
        Total length         46.3494 bohr

     End of self-consistent calculation

          k = 0.0000 0.0000 0.0000 ( 18029 PWs)   bands (ev):

   -55.6869 -55.6702 -55.6528 -55.6336 -55.5927 -55.5388 -55.5316 -55.5017
   -55.4956 -55.4677 -55.4661 -55.4320 -55.2590 -55.0341 -54.6677 -54.6337
   -32.2211 -32.1699 -32.0431 -32.0331 -32.0000 -31.9852 -31.9799 -31.9565
   -31.9311 -31.8991 -31.8970 -31.8907 -31.8477 -31.8391 -31.8254 -31.8239
   -31.8072 -31.7917 -31.7836 -31.7481 -31.7440 -31.7373 -31.7217 -31.7182
   -31.6958 -31.6909 -31.6881 -31.6805 -31.6667 -31.6640 -31.6563 -31.6472
   -31.6420 -31.6321 -31.6192 -31.6092 -31.5783 -31.5094 -31.4652 -31.3009
   -31.2910 -31.2366 -31.0750 -30.9864 -30.9640 -30.8917 -30.8052 -30.6941
   -16.8307 -16.4187 -16.1635 -15.9352 -15.8430 -15.8123 -15.6598 -15.5284
   -15.4190 -15.3371 -15.2521 -15.2333 -15.2256 -15.2149 -15.1892 -15.1837
   -15.1365 -15.1318 -15.1121 -15.0991 -15.0493 -15.0327 -15.0293 -14.9345
   -14.8704 -14.8351 -14.8202 -14.7857 -14.7485 -14.3347 -13.1702 -13.0537
   -11.7852  -8.9709  -5.4521  -4.3812  -3.8492  -3.7896  -3.6453  -3.5945
    -3.5346  -3.4965  -3.3180  -3.2155  -2.9427  -2.8852  -2.8562  -2.8471
    -2.7893  -2.7570  -2.6022  -2.5759  -2.5051  -2.4959  -2.4811  -2.4520
    -2.4438  -2.4369  -2.3996  -2.3766  -2.3482  -2.2437  -2.1061  -2.0959
    -2.0722  -2.0387  -2.0008  -1.9524  -1.9364  -1.9164  -1.8976  -1.8850
    -1.8723  -1.7381  -1.7021  -1.5861  -1.4966  -1.4504  -1.3691  -1.2997
    -1.2721  -1.1583  -1.1189  -1.1073  -1.0925  -1.0812  -0.9819  -0.8760
    -0.8595  -0.8221  -0.7636  -0.7098  -0.6393  -0.5945  -0.5429  -0.4907
    -0.4648  -0.4515  -0.4487  -0.4135  -0.3207  -0.1809  -0.1293  -0.0948
    -0.0728   0.0042   0.0392   0.0949   0.1198   0.1436   0.1791   0.2319
     0.2756   0.2823   0.2956   0.3100   0.3149   0.4891   0.5382   0.5802
     0.6140   0.6593   0.8209   0.8433   0.9646   1.0406   1.2056   1.2799
     1.3545   1.4328   1.5462   1.6321   1.9258   1.9716   3.4437   3.5312
     3.5757   3.5895   3.6847   3.7268   3.8965   3.9268   3.9415   4.0013

[...]

          k = 0.0380-0.0419 0.0000 ( 17876 PWs)   bands (ev):

[...]

          k =-0.0760-0.0000 0.0000 ( 17886 PWs)   bands (ev):

[...]

          k =-0.0760-0.0839 0.0000 ( 17948 PWs)   bands (ev):

   -55.6702 -55.6694 -55.6554 -55.6481 -55.5866 -55.5447 -55.5190 -55.5082
   -55.4852 -55.4837 -55.4521 -55.4463 -55.2579 -55.0352 -54.6507 -54.6506
   -32.0302 -32.0206 -31.9855 -31.9849 -31.9657 -31.9648 -31.9449 -31.9382
   -31.8854 -31.8848 -31.8746 -31.8694 -31.8524 -31.8346 -31.8099 -31.8052
   -31.8008 -31.7973 -31.7907 -31.7903 -31.7892 -31.7888 -31.7855 -31.7455
   -31.7371 -31.7256 -31.7174 -31.7061 -31.6858 -31.6848 -31.6829 -31.6763
   -31.6664 -31.6623 -31.6586 -31.6561 -31.6151 -31.5117 -31.4620 -31.3631
   -31.2932 -31.2625 -30.9767 -30.9766 -30.8878 -30.8876 -30.8485 -30.8485
   -16.8071 -15.8651 -15.8040 -15.6462 -15.6110 -15.5914 -15.5564 -15.4958
   -15.4126 -15.3852 -15.3806 -15.3333 -15.3079 -15.2753 -15.2371 -15.2225
   -15.2154 -15.1967 -15.1846 -15.1506 -15.1411 -15.1293 -15.1222 -15.0468
   -15.0092 -15.0048 -14.9994 -14.8955 -14.7691 -14.5026 -13.1555 -13.1555
   -11.7912  -8.9853  -5.4663  -4.3685  -3.7743  -3.1578  -3.0707  -2.8961
    -2.8405  -2.8117  -2.7959  -2.6298  -2.6182  -2.6040  -2.5567  -2.5366
    -2.5267  -2.5178  -2.5091  -2.4881  -2.4753  -2.4411  -2.4310  -2.3955
    -2.3812  -2.3636  -2.3468  -2.3298  -2.3098  -2.2961  -2.2805  -2.2381
    -2.2193  -2.2078  -2.1865  -2.1419  -1.9329  -1.8828  -1.8372  -1.8338
    -1.8227  -1.8032  -1.7480  -1.7429  -1.7096  -1.6586  -1.5791  -1.4347
    -1.3893  -1.3728  -1.2797  -1.2581  -1.2056  -1.1334  -1.0879  -1.0709
    -1.0364  -0.9723  -0.9351  -0.8980  -0.8320  -0.8069  -0.8012  -0.7077
    -0.6865  -0.6500  -0.6433  -0.5655  -0.5167  -0.4514  -0.4361  -0.4197
    -0.3869  -0.3547  -0.3360  -0.2646  -0.1766  -0.1755  -0.1503  -0.0435
     0.0466   0.2755   0.3384   0.3753   0.4203   0.5137   0.5829   0.6071
     0.6229   0.6450   0.6637   0.7119   0.8388   0.8491   0.8832   0.9962
     1.1049   1.6491   1.7180   1.7188   1.7914   1.7915   3.7451   3.7633
     3.7839   3.8304   3.9496   3.9565   3.9787   3.9809   4.1034   4.1164

     the Fermi energy is     3.4452 ev

!    total energy              =   -2941.66146026 Ry
     estimated scf accuracy    <       0.00000005 Ry
     smearing contrib. (-TS)   =      -0.02151501 Ry
     internal energy E=F+TS    =   -2941.63994525 Ry

     The total energy is F=E-TS. E is the sum of the following terms:
     one-electron contribution =  -24276.16605325 Ry
     hartree contribution      =   12228.52611008 Ry
     xc contribution           =    -486.87386343 Ry
     ewald contribution        =    9592.87219304 Ry
     electric field correction =       0.00166832 Ry

     convergence has been achieved in  56 iterations

     Forces acting on atoms (cartesian axes, Ry/au):

     atom    1 type  1   force =     0.00017105   -0.00010887    0.09638672
     atom    2 type  1   force =    -0.00021244   -0.00063360   -0.17552478
     atom    3 type  2   force =    -0.00004077   -0.00003555   -0.02418982
     atom    4 type  2   force =     0.00005453   -0.00143881    0.05291400
     atom    5 type  2   force =    -0.01184381   -0.00048744    0.00394826
     atom    6 type  2   force =     0.01315248    0.00023577    0.00228989
     atom    7 type  1   force =    -0.00139042    0.00081212   -0.01150165
     atom    8 type  1   force =     0.00053876    0.00921691    0.02522250
     atom    9 type  2   force =    -0.00010707    0.00017655    0.00038460
     atom   10 type  2   force =    -0.00085854    0.00148341   -0.01579840
     atom   11 type  2   force =    -0.00021114   -0.00049434    0.00038820
     atom   12 type  2   force =    -0.00011459   -0.00027343    0.00002847
     atom   13 type  1   force =     0.00056678   -0.00091369    0.00007721
     atom   14 type  1   force =    -0.00008429   -0.00040171    0.00026225
     atom   15 type  2   force =     0.00039472    0.00012889   -0.00017443
     atom   16 type  2   force =     0.00006896    0.00024875    0.00005250
     atom   17 type  2   force =    -0.00033087    0.00045534    0.00058891
     atom   18 type  2   force =     0.00036171    0.00000460    0.00020685
     atom   19 type  1   force =     0.00008594   -0.00057826    0.00013639
     atom   20 type  1   force =     0.00037896    0.00041017    0.00080230
     atom   21 type  2   force =     0.00007506   -0.00007971    0.10320260
     atom   22 type  2   force =    -0.00046514   -0.00013421    0.00029264
     atom   23 type  2   force =    -0.07147265   -0.00018046   -0.02772447
     atom   24 type  2   force =     0.07139532    0.00024961   -0.02772394
     atom   25 type  1   force =     0.00001985   -0.00027833    0.09583268
     atom   26 type  1   force =    -0.00014368   -0.00022685   -0.17569367
     atom   27 type  2   force =     0.00009093   -0.00012765   -0.02329425
     atom   28 type  2   force =     0.00007865   -0.00129724    0.05334355
     atom   29 type  2   force =    -0.01197596   -0.00005509    0.00375138
     atom   30 type  2   force =     0.01322020    0.00042733    0.00212704
     atom   31 type  1   force =    -0.00142500    0.00344689   -0.01080250
     atom   32 type  1   force =     0.00064276   -0.01009137    0.02562772
     atom   33 type  2   force =    -0.00038900    0.00005063    0.00004564
     atom   34 type  2   force =     0.00074138    0.00090012   -0.02307064
     atom   35 type  2   force =    -0.00012688    0.00029135   -0.00002827
     atom   36 type  2   force =    -0.00020033    0.00059952   -0.00028358
     atom   37 type  1   force =    -0.00082614   -0.00101407   -0.00017225
     atom   38 type  1   force =    -0.00004413   -0.00011357   -0.00000066
     atom   39 type  2   force =    -0.00049686    0.00006113    0.00061312
     atom   40 type  2   force =     0.00048823    0.00025350    0.00024247
     atom   41 type  2   force =     0.00024263    0.00038613    0.00036501
     atom   42 type  2   force =     0.00032377    0.00035595   -0.00024298
     atom   43 type  1   force =     0.00009822    0.00009642   -0.00019175
     atom   44 type  1   force =    -0.00006436   -0.00087874    0.00008865
     atom   45 type  2   force =     0.00006923   -0.00008631    0.10322216
     atom   46 type  2   force =    -0.07147132   -0.00016789   -0.02772426
     atom   47 type  2   force =     0.07140299    0.00030574   -0.02773609
     atom   48 type  3   force =     0.00455719   -0.00120217    0.00320651
     atom   49 type  3   force =    -0.01533160   -0.00008509    0.00275472
     atom   50 type  4   force =     0.00140618    0.00011314    0.00113942
     atom   51 type  5   force =     0.00092273    0.00027397   -0.00077149
     atom   52 type  5   force =    -0.00033151    0.00077461   -0.00064165
     atom   53 type  5   force =    -0.00026036   -0.00166709    0.00051463
     atom   54 type  5   force =     0.00080908    0.00057770   -0.00015296
     atom   55 type  5   force =     0.00786056    0.00071531   -0.00661451

     Total force =     0.367868     Total SCF correction =     0.000459
  @ DRIVER MODE: Message from server: STATUS
  @ DRIVER MODE: Message from server: GETFORCE
  @ DRIVER MODE: Returning v,forces,stress,ensemble

     Writing output data file ./calc.save/
  @ DRIVER MODE: Message from server: EXIT
  @ DRIVE MODE: Exiting

     General routines

     Parallel routines

   This run was terminated on:  21:23: 7  24Aug2021

   JOB DONE.