     Program PWSCF v.6.7GPU starts on 10Sep2021 at 17:17:39

     R & G space division:  proc/nbgrp/npool/nimage =      10
     Reading input from /storage/home/hcoda1/3/ntian30/research/carbon/CxH_vib/CH_calc/ads_slab/CHNHNH_a/out_0021/pw.inp
Warning: card &CELL ignored
Warning: card   CELL_DYNAMICS='IPI', ignored
Warning: card / ignored

     Current dimensions of program PWSCF are:
     Max number of different atomic species (ntypx) = 10
     Max number of k-points (npk) =  40000
     Max angular momentum in pseudopotentials (lmaxx) =  3
     Presently no symmetry can be used with electric field

     Message from routine cell_base_init:
     DEPRECATED: use true lattice parameter, not A to a.u. conversion factor

     IMPORTANT: XC functional enforced from input :
     Exchange-correlation= BEEF-VDW
                           (   1   4  43  14   2   0   0)
     Any further DFT definition will be discarded
     Please, verify this is what you really want

  @ DRIVER MODE: Connecting to
 qe_1139763_2787518.sched-torque.pace.gatech.eduvweta7tp_scratch
  using UNIX socket
  @ DRIVER MODE: Message from server: STATUS
  @ DRIVER MODE: Message from server: INIT
  @ DRIVER MODE: Receiving replica           0          -1
  @ DRIVER MODE: Receiving encoded integer          25
  @ DRIVER MODE:  SCF:  T  FORCE:  T  STRESS:  F  VC:  F  ENSEMBLE:  F
  @ DRIVER MODE:  SCF:  T  FORCE:  T  STRESS:  F  VC:  F  ENSEMBLE:  F

     Using Slab Decomposition

     bravais-lattice index     =            0
     lattice parameter (alat)  =       1.8897  a.u.
     unit-cell volume          =    6658.9804 (a.u.)^3
     number of atoms/cell      =           53
     number of atomic types    =            5
     number of electrons       =       395.00
     number of Kohn-Sham states=          207
     kinetic-energy cutoff     =      29.3995  Ry
     charge density cutoff     =     293.9946  Ry
     scf convergence threshold =      7.3E-08
     mixing beta               =       0.0500
     number of iterations used =            8  plain     mixing
     Exchange-correlation= BEEF-VDW
                           (   1   4  43  14   2   0   0)

     celldm(1)=   1.889726  celldm(2)=   0.000000  celldm(3)=   0.000000
     celldm(4)=   0.000000  celldm(5)=   0.000000  celldm(6)=   0.000000

     crystal axes: (cart. coord. in units of alat)
               a(1) = (   6.579727   0.000000   0.000000 )
               a(2) = (  -0.000775   5.961596   0.000000 )
               a(3) = (   0.000000   0.000000  25.155947 )

     reciprocal axes: (cart. coord. in units 2 pi/alat)
               b(1) = (  0.151982  0.000020  0.000000 )
               b(2) = (  0.000000  0.167740  0.000000 )
               b(3) = (  0.000000  0.000000  0.039752 )

     PseudoPot. # 1 for Ti read from file:
     /storage/coda1/p-amedford6/0/shared/rich_project_chbe-medford/medford-share/data/pseudos_module/espresso/nninc/pbe/van/Ti.UPF
     MD5 check sum: 8e4df49b7f0d34bbd5052bf3f5ea0213
     Pseudo is Ultrasoft, Zval = 12.0
     Generated by new atomic code, or converted to UPF format
     Using radial grid of  851 points,  6 beta functions with:
                l(1) =   0
                l(2) =   0
                l(3) =   1
                l(4) =   1
                l(5) =   2
                l(6) =   2
     Q(r) pseudized with  8 coefficients,  rinner =    1.000   1.000   1.000
                                                       1.000   1.000

     PseudoPot. # 2 for O  read from file:
     /storage/coda1/p-amedford6/0/shared/rich_project_chbe-medford/medford-share/data/pseudos_module/espresso/nninc/pbe/van/O.UPF
     MD5 check sum: 78c19812648e8988a0fe644b0f25305e
     Pseudo is Ultrasoft, Zval =  6.0
     Generated by new atomic code, or converted to UPF format
     Using radial grid of  737 points,  4 beta functions with:
                l(1) =   0
                l(2) =   0
                l(3) =   1
                l(4) =   1
     Q(r) pseudized with  8 coefficients,  rinner =    0.800   0.800   0.800

     PseudoPot. # 3 for N  read from file:
     /storage/coda1/p-amedford6/0/shared/rich_project_chbe-medford/medford-share/data/pseudos_module/espresso/nninc/pbe/van/N.UPF
     MD5 check sum: 90d10febe142ad51ac9d5be1deb811c4
     Pseudo is Ultrasoft, Zval =  5.0
     Generated by new atomic code, or converted to UPF format
     Using radial grid of  729 points,  4 beta functions with:
                l(1) =   0
                l(2) =   0
                l(3) =   1
                l(4) =   1
     Q(r) pseudized with  8 coefficients,  rinner =    0.800   0.800   0.800

     PseudoPot. # 4 for C  read from file:
     /storage/coda1/p-amedford6/0/shared/rich_project_chbe-medford/medford-share/data/pseudos_module/espresso/nninc/pbe/van/C.UPF
     MD5 check sum: 1a69bf6b8db32088f5b2163dbdb77a27
     Pseudo is Ultrasoft, Zval =  4.0
     Generated by new atomic code, or converted to UPF format
     Using radial grid of  721 points,  4 beta functions with:
                l(1) =   0
                l(2) =   0
                l(3) =   1
                l(4) =   1
     Q(r) pseudized with  8 coefficients,  rinner =    0.800   0.800   0.800

     PseudoPot. # 5 for H  read from file:
     /storage/coda1/p-amedford6/0/shared/rich_project_chbe-medford/medford-share/data/pseudos_module/espresso/nninc/pbe/van/H.UPF
     MD5 check sum: b5ee9d7bfd3a09ee7748110bda690ff7
     Pseudo is Ultrasoft, Zval =  1.0
     Generated by new atomic code, or converted to UPF format
     Using radial grid of  615 points,  1 beta functions with:
                l(1) =   0
     Q(r) pseudized with  8 coefficients,  rinner =    0.800

     atomic species   valence    mass     pseudopotential
        Ti1           12.00    47.86700     Ti( 1.00)
        O1             6.00    15.99900     O ( 1.00)
        N1             5.00    14.00700     N ( 1.00)
        C1             4.00    12.01100     C ( 1.00)
        H1             1.00     1.00800     H ( 1.00)

     No symmetry found

   Cartesian axes

     site n.     atom                  positions (alat units)
         1           Ti1 tau(   1) = (   0.0004258   2.9801865   6.0000000  )
         2           Ti1 tau(   2) = (   3.2906075   1.4906267   6.0002472  )
         3           O1  tau(   3) = (   0.0006271   0.0005054   7.9858123  )
         4           O1  tau(   4) = (   3.2906025   0.0005020   7.3038282  )
         5           O1  tau(   5) = (   4.5942328   1.4918067   9.2879030  )
         6           O1  tau(   6) = (   1.9868534   1.4903216   9.2879459  )
         7           Ti1 tau(   7) = (   3.2907910   2.8959150   9.1758416  )
         8           Ti1 tau(   8) = (   0.0015273   1.4827037   9.2680791  )
         9           O1  tau(   9) = (   3.2974950   5.9468587  11.3331085  )
        10           O1  tau(  10) = (   0.0116148   5.9584955  10.6183126  )
        11           O1  tau(  11) = (   1.3019594   1.4757037  12.6170356  )
        12           O1  tau(  12) = (   5.2841045   1.4688878  12.6073194  )
        13           Ti1 tau(  13) = (   0.0658538   3.0089988  12.6217963  )
        14           Ti1 tau(  14) = (   3.3903573   1.4765488  12.4775701  )
        15           O1  tau(  15) = (   6.5762050   0.0002902  14.6414759  )
        16           O1  tau(  16) = (   3.3078303   5.9588356  13.9306596  )
        17           O1  tau(  17) = (   4.5399328   1.5113171  16.0740780  )
        18           O1  tau(  18) = (   2.0525891   1.5105181  16.0861438  )
        19           Ti1 tau(  19) = (   3.3041007   2.9930787  15.6963055  )
        20           Ti1 tau(  20) = (   0.0280933   1.5113244  15.8467906  )
        21           O1  tau(  21) = (   3.2904802   0.0005063   4.7018136  )
        22           O1  tau(  22) = (   0.0368235   0.0128086  17.1990618  )
        23           O1  tau(  23) = (   1.3043587   1.4918075   6.0039043  )
        24           O1  tau(  24) = (   5.2767064   1.4903225   6.0039473  )
        25           Ti1 tau(  25) = (   0.0000382   5.9609847   6.0000000  )
        26           Ti1 tau(  26) = (   3.2902200   4.4714249   6.0002472  )
        27           O1  tau(  27) = (   0.0002396   2.9813036   7.9858123  )
        28           O1  tau(  28) = (   3.2902150   2.9813002   7.3038282  )
        29           O1  tau(  29) = (   4.5938453   4.4726049   9.2879030  )
        30           O1  tau(  30) = (   1.9864658   4.4711199   9.2879459  )
        31           Ti1 tau(  31) = (   3.2891106   5.8743827   9.1763621  )
        32           Ti1 tau(  32) = (   0.0006254   4.4649316   9.2693709  )
        33           O1  tau(  33) = (   3.3000731   2.9737533  11.3293525  )
        34           O1  tau(  34) = (   0.0092240   2.9805883  10.6323155  )
        35           O1  tau(  35) = (   1.3001503   4.4664650  12.6348062  )
        36           O1  tau(  36) = (   5.2875254   4.4541756  12.6228532  )
        37           Ti1 tau(  37) = (   0.0765437   0.0243871  12.5594496  )
        38           Ti1 tau(  38) = (   3.3883988   4.4566399  12.4818539  )
        39           O1  tau(  39) = (   0.0169469   2.9261715  14.6451004  )
        40           O1  tau(  40) = (   3.3035743   2.9719493  13.9037931  )
        41           O1  tau(  41) = (   4.5445893   4.4635849  16.0933648  )
        42           O1  tau(  42) = (   2.0554864   4.4706235  16.0676963  )
        43           Ti1 tau(  43) = (   3.3300396   0.0018144  15.7250798  )
        44           Ti1 tau(  44) = (   0.0441581   4.6348571  16.0952712  )
        45           O1  tau(  45) = (   3.2900926   2.9813045   4.7018136  )
        46           O1  tau(  46) = (   1.3039711   4.4726057   6.0039043  )
        47           O1  tau(  47) = (   5.2763189   4.4711207   6.0039473  )
        48           N1  tau(  48) = (   1.0252718   2.8101955  18.5330041  )
        49           N1  tau(  49) = (   6.5702222   2.9467621  17.4444712  )
        50           C1  tau(  50) = (   1.2122298   3.5280882  19.5702009  )
        51           H1  tau(  51) = (   0.5037382   4.3546449  19.6222421  )
        52           H1  tau(  52) = (   1.5845460   1.9874866  18.3412699  )
        53           H1  tau(  53) = (   5.6894004   2.9582294  17.9538253  )

     number of k points=    10  Fermi-Dirac smearing, width (Ry)=  0.0073
                       cart. coord. in units 2pi/alat
        k(    1) = (   0.0000000   0.0000000   0.0000000), wk =   0.1250000
        k(    2) = (   0.0000000   0.0419351   0.0000000), wk =   0.2500000
        k(    3) = (   0.0000000  -0.0838702   0.0000000), wk =   0.1250000
        k(    4) = (   0.0379955   0.0000049   0.0000000), wk =   0.2500000
        k(    5) = (   0.0379955   0.0419400   0.0000000), wk =   0.2500000
        k(    6) = (   0.0379955  -0.0838652   0.0000000), wk =   0.2500000
        k(    7) = (   0.0379955  -0.0419301   0.0000000), wk =   0.2500000
        k(    8) = (  -0.0759910  -0.0000099   0.0000000), wk =   0.1250000
        k(    9) = (  -0.0759910   0.0419252   0.0000000), wk =   0.2500000
        k(   10) = (  -0.0759910  -0.0838800   0.0000000), wk =   0.1250000

     Initial potential from superposition of free atoms

     starting charge  378.99916, renormalised to  395.00000

     negative rho (up, down):  1.643E-02 0.000E+00

     %%%%%%%%%%%%%%%%%%%%%%%%%%%%%%%%%%%%%%%%%%%%%%%%%%%%%%%%%%%%%%%%%%%%%%%%
     %                                                                      %
     % You are using vdW-DF, which was implemented by the Thonhauser group. %
     % Please cite the following two papers that made this development      %
     % possible and the two reviews that describe the various versions:     %
     %                                                                      %
     %   T. Thonhauser et al., PRL 115, 136402 (2015).                      %
     %   T. Thonhauser et al., PRB 76, 125112 (2007).                       %
     %   K. Berland et al., Rep. Prog. Phys. 78, 066501 (2015).             %
     %   D.C. Langreth et al., J. Phys.: Condens. Matter 21, 084203 (2009). %
     %                                                                      %
     %                                                                      %
     % If you are calculating the stress with vdW-DF, please also cite:     %
     %                                                                      %
     %   R. Sabatini et al., J. Phys.: Condens. Matter 24, 424209 (2012).   %
     %                                                                      %
     %%%%%%%%%%%%%%%%%%%%%%%%%%%%%%%%%%%%%%%%%%%%%%%%%%%%%%%%%%%%%%%%%%%%%%%%

     Adding external electric field

     Computed dipole along edir(3) :
        Dipole               -8.5017 Ry au,        -21.6093 Debye
        Dipole field         -0.0160 Ry au,

        Potential amp.        1.4872 Ry
        Total length         46.3494 bohr

     Starting wfcs are  299 atomic wfcs
  @ DRIVER MODE: Message from server: STATUS
  @ DRIVER MODE: Message from server: POSDATA
  @ DRIVER MODE: Reading and sharing cell
  @ DRIVER MODE: Reading and sharing positions
  @ DRIVER MODE: Received positions

     Self-consistent Calculation

     iteration #  1     ecut=    29.40 Ry     beta= 0.05
     Davidson diagonalization with overlap
     c_bands:  1 eigenvalues not converged
     c_bands:  1 eigenvalues not converged
     c_bands:  2 eigenvalues not converged
     c_bands:  3 eigenvalues not converged
     c_bands:  3 eigenvalues not converged
     c_bands:  1 eigenvalues not converged
     c_bands:  1 eigenvalues not converged
     ethr =  1.00E-05,  avg # of iterations = 19.2

[...]

     total energy              =   -2621.16738180 Ry
     estimated scf accuracy    <    3530.45415283 Ry

[...]

     iteration #  3     ecut=    29.40 Ry     beta= 0.05
     Davidson diagonalization with overlap
     ethr =  1.00E-02,  avg # of iterations = 14.8

[...]

     iteration # 45     ecut=    29.40 Ry     beta= 0.05
     Davidson diagonalization with overlap
     c_bands:  1 eigenvalues not converged
     ethr =  8.42E-08,  avg # of iterations =  5.6

[...]

     total energy              =   -2939.04802511 Ry
     estimated scf accuracy    <       0.00000008 Ry

     iteration # 83     ecut=    29.40 Ry     beta= 0.05
     Davidson diagonalization with overlap
     ethr =  2.06E-11,  avg # of iterations =  7.0

     negative rho (up, down):  1.570E-02 0.000E+00

     Adding external electric field

     Computed dipole along edir(3) :
        Dipole                0.0406 Ry au,          0.1031 Debye
        Dipole field          0.0001 Ry au,

        Potential amp.       -0.0071 Ry
        Total length         46.3494 bohr

     End of self-consistent calculation

          k = 0.0000 0.0000 0.0000 ( 18029 PWs)   bands (ev):

   -56.2412 -56.2352 -56.2072 -56.1992 -56.1497 -56.0783 -56.0779 -56.0495
   -56.0423 -56.0155 -56.0139 -55.9803 -55.7878 -55.5229 -55.2181 -55.1841
   -32.7916 -32.7233 -32.5912 -32.5793 -32.5594 -32.5482 -32.5343 -32.5046
   -32.4837 -32.4820 -32.4563 -32.4442 -32.4164 -32.3934 -32.3878 -32.3767
   -32.3763 -32.3452 -32.3304 -32.2983 -32.2908 -32.2882 -32.2639 -32.2447
   -32.2400 -32.2369 -32.2368 -32.2240 -32.2167 -32.2003 -32.1944 -32.1925
   -32.1888 -32.1799 -32.1669 -32.1563 -32.1261 -32.0401 -31.9773 -31.8012
   -31.7846 -31.7242 -31.6252 -31.5370 -31.5145 -31.4419 -31.3554 -31.2444
   -17.3023 -16.9902 -16.7179 -16.5087 -16.3971 -16.3651 -16.2653 -16.0823
   -15.9585 -15.9281 -15.8285 -15.8011 -15.7773 -15.7662 -15.7443 -15.7341
   -15.6873 -15.6832 -15.6704 -15.6551 -15.6020 -15.5771 -15.5478 -15.4389
   -15.4323 -15.3992 -15.3734 -15.2974 -15.2909 -14.8298 -13.7206 -13.6042
   -12.7651  -8.6691  -5.3310  -4.3657  -4.2215  -4.1936  -4.1465  -4.0947
    -3.8769  -3.8137  -3.7567  -3.6163  -3.4704  -3.4288  -3.4159  -3.3999
    -3.3704  -3.1442  -3.1185  -3.0551  -3.0315  -3.0259  -3.0149  -3.0051
    -2.9841  -2.9669  -2.8942  -2.7900  -2.7166  -2.6680  -2.6204  -2.6111
    -2.5531  -2.5075  -2.5023  -2.4849  -2.4804  -2.4717  -2.4341  -2.4254
    -2.2892  -2.2283  -2.0951  -2.0588  -2.0385  -1.8899  -1.8483  -1.7531
    -1.6871  -1.6699  -1.6603  -1.6318  -1.5464  -1.5247  -1.4046  -1.3820
    -1.3412  -1.2682  -1.2569  -1.2354  -1.1329  -1.1175  -1.0126  -1.0050
    -0.9985  -0.9814  -0.9234  -0.7343  -0.7130  -0.6824  -0.6629  -0.6298
    -0.5534  -0.5232  -0.4324  -0.4196  -0.3611  -0.3406  -0.3166  -0.2668
    -0.2608  -0.2489  -0.2450  -0.2291  -0.0534   0.0078   0.0651   0.1158
     0.1316   0.2882   0.3381   0.4162   0.5017   0.7294   0.8039   0.8414
     0.8922   0.9960   1.3752   1.4207   2.4358   2.8994   2.9797   3.0295
     3.0398   3.1343   3.1403   3.3478   3.3694   3.3754   3.4394

[...]

          k = 0.0380-0.0419 0.0000 ( 17876 PWs)   bands (ev):

[...]

          k =-0.0760-0.0000 0.0000 ( 17886 PWs)   bands (ev):

[...]

          k =-0.0760-0.0839 0.0000 ( 17948 PWs)   bands (ev):

   -56.2246 -56.2237 -56.2179 -56.2162 -56.1453 -56.0826 -56.0646 -56.0556
   -56.0334 -56.0311 -55.9975 -55.9970 -55.7867 -55.5238 -55.2011 -55.2010
   -32.5966 -32.5938 -32.5389 -32.5383 -32.5277 -32.5201 -32.5193 -32.5007
   -32.4431 -32.4417 -32.4362 -32.4331 -32.4079 -32.3727 -32.3621 -32.3577
   -32.3505 -32.3465 -32.3445 -32.3440 -32.3432 -32.3366 -32.3344 -32.2860
   -32.2852 -32.2744 -32.2564 -32.2461 -32.2321 -32.2317 -32.2291 -32.2288
   -32.2124 -32.2117 -32.2036 -32.2013 -32.1317 -32.0425 -31.9725 -31.8581
   -31.7936 -31.7493 -31.5273 -31.5272 -31.4381 -31.4379 -31.3987 -31.3987
   -17.2848 -16.4410 -16.4095 -16.1833 -16.1730 -16.1583 -16.1549 -16.0175
   -15.9500 -15.9468 -15.9400 -15.9080 -15.8802 -15.8422 -15.7975 -15.7757
   -15.7751 -15.7633 -15.7567 -15.7036 -15.6984 -15.6766 -15.6697 -15.5677
   -15.5568 -15.5534 -15.4996 -15.4112 -15.2821 -15.0039 -13.7061 -13.7059
   -12.7758  -8.6744  -5.3285  -3.8788  -3.7320  -3.6949  -3.5477  -3.4126
    -3.4089  -3.3979  -3.3248  -3.1572  -3.1428  -3.1201  -3.0960  -3.0691
    -3.0689  -3.0542  -3.0486  -3.0297  -3.0057  -2.9704  -2.9313  -2.9277
    -2.9062  -2.8963  -2.8703  -2.8564  -2.8265  -2.8145  -2.7990  -2.7808
    -2.7621  -2.7467  -2.5930  -2.4735  -2.4401  -2.3779  -2.3695  -2.3498
    -2.3153  -2.3046  -2.2916  -2.2295  -2.1282  -1.9921  -1.9448  -1.9383
    -1.9057  -1.8262  -1.8139  -1.6688  -1.6544  -1.6266  -1.5881  -1.5346
    -1.5178  -1.4672  -1.4046  -1.3920  -1.3603  -1.3303  -1.2543  -1.2041
    -1.2013  -1.1834  -1.1240  -1.0358  -1.0281  -1.0112  -1.0033  -0.9535
    -0.8761  -0.8622  -0.8305  -0.7457  -0.7282  -0.6298  -0.5461  -0.3459
    -0.2619  -0.2148  -0.1688  -0.1353  -0.0322   0.0139   0.0297   0.0659
     0.0789   0.1257   0.1852   0.2911   0.2980   0.3593   0.4688   0.8064
     1.1675   1.1684   1.2404   1.2407   2.3943   3.1595   3.1681   3.2234
     3.2458   3.3963   3.4020   3.4265   3.4278   3.5478   3.5650

     the Fermi energy is     2.8941 ev

!    total energy              =   -2939.04802908 Ry
     estimated scf accuracy    <       0.00000003 Ry
     smearing contrib. (-TS)   =      -0.02295428 Ry
     internal energy E=F+TS    =   -2939.02507480 Ry

     The total energy is F=E-TS. E is the sum of the following terms:
     one-electron contribution =  -24314.86307123 Ry
     hartree contribution      =   12241.26307890 Ry
     xc contribution           =    -485.13214782 Ry
     ewald contribution        =    9619.70706225 Ry
     electric field correction =       0.00000311 Ry

     convergence has been achieved in  83 iterations

     Forces acting on atoms (cartesian axes, Ry/au):

     atom    1 type  1   force =     0.00026454   -0.00024339    0.09661794
     atom    2 type  1   force =    -0.00017973   -0.00052480   -0.17532087
     atom    3 type  2   force =    -0.00000442   -0.00007728   -0.02503354
     atom    4 type  2   force =     0.00005764   -0.00154516    0.05299139
     atom    5 type  2   force =    -0.01217628   -0.00104502    0.00344736
     atom    6 type  2   force =     0.01404909   -0.00029131    0.00273757
     atom    7 type  1   force =    -0.00094852    0.00049122   -0.01193376
     atom    8 type  1   force =     0.00044311    0.00876619    0.02925087
     atom    9 type  2   force =     0.00051150    0.00030636   -0.00017078
     atom   10 type  2   force =    -0.00090270   -0.00020438   -0.01709887
     atom   11 type  2   force =     0.00037166    0.00018091    0.00035602
     atom   12 type  2   force =    -0.00106319    0.00082281    0.00049122
     atom   13 type  1   force =     0.00145991    0.00081206   -0.00002501
     atom   14 type  1   force =    -0.00124323    0.00035233   -0.00024607
     atom   15 type  2   force =    -0.00065252    0.00070375    0.00050958
     atom   16 type  2   force =     0.00032221   -0.00036449   -0.00019888
     atom   17 type  2   force =     0.00060731    0.00019388   -0.00018597
     atom   18 type  2   force =    -0.00063681    0.00006442   -0.00031684
     atom   19 type  1   force =    -0.00009826   -0.00056062    0.00000359
     atom   20 type  1   force =     0.00002426   -0.00004582    0.00041532
     atom   21 type  2   force =     0.00008125   -0.00005957    0.10321427
     atom   22 type  2   force =     0.00000123    0.00158872    0.00037089
     atom   23 type  2   force =    -0.07147911   -0.00015474   -0.02776160
     atom   24 type  2   force =     0.07142498    0.00026436   -0.02776295
     atom   25 type  1   force =     0.00007723   -0.00022610    0.09646694
     atom   26 type  1   force =    -0.00012819   -0.00034137   -0.17549691
     atom   27 type  2   force =     0.00006179   -0.00023867   -0.02406042
     atom   28 type  2   force =     0.00011707   -0.00128174    0.05276254
     atom   29 type  2   force =    -0.01228760    0.00002377    0.00301131
     atom   30 type  2   force =     0.01405007    0.00039789    0.00238033
     atom   31 type  1   force =    -0.00094101    0.00315528   -0.01287848
     atom   32 type  1   force =     0.00029062   -0.01001955    0.02993970
     atom   33 type  2   force =     0.00025652   -0.00013861    0.00047558
     atom   34 type  2   force =    -0.00003359   -0.00000016   -0.02437329
     atom   35 type  2   force =    -0.00033200    0.00021841   -0.00027449
     atom   36 type  2   force =    -0.00114786    0.00053824   -0.00007063
     atom   37 type  1   force =     0.00123371   -0.00092350    0.00048254
     atom   38 type  1   force =    -0.00091767   -0.00057281   -0.00002692
     atom   39 type  2   force =    -0.00021378   -0.00058957    0.00063832
     atom   40 type  2   force =     0.00008678    0.00054847    0.00011569
     atom   41 type  2   force =    -0.00110849   -0.00008901   -0.00027675
     atom   42 type  2   force =     0.00162357   -0.00023652   -0.00024853
     atom   43 type  1   force =    -0.00053074    0.00033234   -0.00042553
     atom   44 type  1   force =    -0.00010195    0.00008270    0.00007253
     atom   45 type  2   force =     0.00005287   -0.00008752    0.10320871
     atom   46 type  2   force =    -0.07150493   -0.00015819   -0.02774899
     atom   47 type  2   force =     0.07147423    0.00033975   -0.02778741
     atom   48 type  3   force =     0.00036261    0.00008449    0.00001441
     atom   49 type  3   force =    -0.00053128   -0.00044639    0.00017389
     atom   50 type  4   force =     0.00528533   -0.00627896   -0.00063965
     atom   51 type  5   force =    -0.00547789    0.00851313    0.00050582
     atom   52 type  5   force =     0.00085313   -0.00134814   -0.00088157
     atom   53 type  5   force =    -0.00080248   -0.00068812    0.00059036

     Total force =     0.368603     Total SCF correction =     0.000393
  @ DRIVER MODE: Message from server: STATUS
  @ DRIVER MODE: Message from server: GETFORCE
  @ DRIVER MODE: Returning v,forces,stress,ensemble

     Writing output data file ./calc.save/
  @ DRIVER MODE: Message from server: EXIT
  @ DRIVE MODE: Exiting

     General routines

     Parallel routines

   This run was terminated on:  17:38:47  10Sep2021

   JOB DONE.