     Program PWSCF v.6.7GPU starts on  1Oct2021 at  8:23:41

     R & G space division:  proc/nbgrp/npool/nimage =       8
     Reading input from /storage/home/hcoda1/3/ntian30/research/carbon/CxH_vib/pristine/ads_slab/CHHNN_a/out_0014/pw.inp
Warning: card &CELL ignored
Warning: card   CELL_DYNAMICS='IPI', ignored
Warning: card / ignored

     Current dimensions of program PWSCF are:
     Max number of different atomic species (ntypx) = 10
     Max number of k-points (npk) =  40000
     Max angular momentum in pseudopotentials (lmaxx) =  3
     Presently no symmetry can be used with electric field

     Message from routine cell_base_init:
     DEPRECATED: use true lattice parameter, not A to a.u. conversion factor

     IMPORTANT: XC functional enforced from input :
     Exchange-correlation= BEEF-VDW
                           (   1   4  43  14   2   0   0)
     Any further DFT definition will be discarded
     Please, verify this is what you really want

  @ DRIVER MODE: Connecting to
 qe_1139763_3035467.sched-torque.pace.gatech.edub9l5npfn_scratch
  using UNIX socket
  @ DRIVER MODE: Message from server: STATUS
  @ DRIVER MODE: Message from server: INIT
  @ DRIVER MODE: Receiving replica           0          -1
  @ DRIVER MODE: Receiving encoded integer          25
  @ DRIVER MODE:  SCF:  T  FORCE:  T  STRESS:  F  VC:  F  ENSEMBLE:  F
  @ DRIVER MODE:  SCF:  T  FORCE:  T  STRESS:  F  VC:  F  ENSEMBLE:  F

     Using Slab Decomposition

     bravais-lattice index     =            0
     lattice parameter (alat)  =       1.8897  a.u.
     unit-cell volume          =    6658.9804 (a.u.)^3
     number of atoms/cell      =           53
     number of atomic types    =            5
     number of electrons       =       400.00
     number of Kohn-Sham states=          210
     kinetic-energy cutoff     =      29.3995  Ry
     charge density cutoff     =     293.9946  Ry
     scf convergence threshold =      7.3E-08
     mixing beta               =       0.0500
     number of iterations used =            8  plain     mixing
     Exchange-correlation= BEEF-VDW
                           (   1   4  43  14   2   0   0)

     celldm(1)=   1.889726  celldm(2)=   0.000000  celldm(3)=   0.000000
     celldm(4)=   0.000000  celldm(5)=   0.000000  celldm(6)=   0.000000

     crystal axes: (cart. coord. in units of alat)
               a(1) = (   6.579727   0.000000   0.000000 )
               a(2) = (  -0.000775   5.961596   0.000000 )
               a(3) = (   0.000000   0.000000  25.155947 )

     reciprocal axes: (cart. coord. in units 2 pi/alat)
               b(1) = (  0.151982  0.000020  0.000000 )
               b(2) = (  0.000000  0.167740  0.000000 )
               b(3) = (  0.000000  0.000000  0.039752 )

     PseudoPot. # 1 for Ti read from file:
     /storage/coda1/p-amedford6/0/shared/rich_project_chbe-medford/medford-share/data/pseudos_module/espresso/nninc/pbe/van/Ti.UPF
     MD5 check sum: 8e4df49b7f0d34bbd5052bf3f5ea0213
     Pseudo is Ultrasoft, Zval = 12.0
     Generated by new atomic code, or converted to UPF format
     Using radial grid of  851 points,  6 beta functions with:
                l(1) =   0
                l(2) =   0
                l(3) =   1
                l(4) =   1
                l(5) =   2
                l(6) =   2
     Q(r) pseudized with  8 coefficients,  rinner =    1.000   1.000   1.000
                                                       1.000   1.000

     PseudoPot. # 2 for O  read from file:
     /storage/coda1/p-amedford6/0/shared/rich_project_chbe-medford/medford-share/data/pseudos_module/espresso/nninc/pbe/van/O.UPF
     MD5 check sum: 78c19812648e8988a0fe644b0f25305e
     Pseudo is Ultrasoft, Zval =  6.0
     Generated by new atomic code, or converted to UPF format
     Using radial grid of  737 points,  4 beta functions with:
                l(1) =   0
                l(2) =   0
                l(3) =   1
                l(4) =   1
     Q(r) pseudized with  8 coefficients,  rinner =    0.800   0.800   0.800

     PseudoPot. # 3 for N  read from file:
     /storage/coda1/p-amedford6/0/shared/rich_project_chbe-medford/medford-share/data/pseudos_module/espresso/nninc/pbe/van/N.UPF
     MD5 check sum: 90d10febe142ad51ac9d5be1deb811c4
     Pseudo is Ultrasoft, Zval =  5.0
     Generated by new atomic code, or converted to UPF format
     Using radial grid of  729 points,  4 beta functions with:
                l(1) =   0
                l(2) =   0
                l(3) =   1
                l(4) =   1
     Q(r) pseudized with  8 coefficients,  rinner =    0.800   0.800   0.800

     PseudoPot. # 4 for C  read from file:
     /storage/coda1/p-amedford6/0/shared/rich_project_chbe-medford/medford-share/data/pseudos_module/espresso/nninc/pbe/van/C.UPF
     MD5 check sum: 1a69bf6b8db32088f5b2163dbdb77a27
     Pseudo is Ultrasoft, Zval =  4.0
     Generated by new atomic code, or converted to UPF format
     Using radial grid of  721 points,  4 beta functions with:
                l(1) =   0
                l(2) =   0
                l(3) =   1
                l(4) =   1
     Q(r) pseudized with  8 coefficients,  rinner =    0.800   0.800   0.800

     PseudoPot. # 5 for H  read from file:
     /storage/coda1/p-amedford6/0/shared/rich_project_chbe-medford/medford-share/data/pseudos_module/espresso/nninc/pbe/van/H.UPF
     MD5 check sum: b5ee9d7bfd3a09ee7748110bda690ff7
     Pseudo is Ultrasoft, Zval =  1.0
     Generated by new atomic code, or converted to UPF format
     Using radial grid of  615 points,  1 beta functions with:
                l(1) =   0
     Q(r) pseudized with  8 coefficients,  rinner =    0.800

     atomic species   valence    mass     pseudopotential
        Ti1           12.00    47.86700     Ti( 1.00)
        O1             6.00    15.99900     O ( 1.00)
        N1             5.00    14.00700     N ( 1.00)
        C1             4.00    12.01100     C ( 1.00)
        H1             1.00     1.00800     H ( 1.00)

     No symmetry found

   Cartesian axes

     site n.     atom                  positions (alat units)
         1           Ti1 tau(   1) = (   0.0004258   2.9801865   6.0000000  )
         2           Ti1 tau(   2) = (   3.2906075   1.4906267   6.0002472  )
         3           O1  tau(   3) = (   0.0006271   0.0005054   7.9858123  )
         4           O1  tau(   4) = (   3.2906025   0.0005020   7.3038282  )
         5           O1  tau(   5) = (   4.5942328   1.4918067   9.2879030  )
         6           O1  tau(   6) = (   1.9868534   1.4903216   9.2879459  )
         7           Ti1 tau(   7) = (   3.2961651   2.9340025   9.1571600  )
         8           Ti1 tau(   8) = (   0.0257383   1.5005952   9.3383585  )
         9           O1  tau(   9) = (   3.3091981   5.9584344  11.3361002  )
        10           O1  tau(  10) = (   6.5780281   5.9600862  10.6016087  )
        11           O1  tau(  11) = (   1.3203574   1.4925043  12.6130903  )
        12           O1  tau(  12) = (   5.3210186   1.4819496  12.6412376  )
        13           Ti1 tau(  13) = (   6.5659556   2.9650791  12.8176139  )
        14           Ti1 tau(  14) = (   3.2164003   1.4877187  12.4769567  )
        15           O1  tau(  15) = (   0.0404395   5.9536100  14.6624943  )
        16           O1  tau(  16) = (   3.3074673   5.9584959  13.9062718  )
        17           O1  tau(  17) = (   4.5856532   1.4904827  16.0465219  )
        18           O1  tau(  18) = (   2.1034043   1.4884928  16.0442595  )
        19           Ti1 tau(  19) = (   3.2939248   2.9785878  15.7144947  )
        20           Ti1 tau(  20) = (   6.5451327   1.4142704  16.0395912  )
        21           O1  tau(  21) = (   3.2904802   0.0005063   4.7018136  )
        22           O1  tau(  22) = (   0.0457580   0.0044623  17.2034710  )
        23           O1  tau(  23) = (   1.3043587   1.4918075   6.0039043  )
        24           O1  tau(  24) = (   5.2767064   1.4903225   6.0039473  )
        25           Ti1 tau(  25) = (   0.0000382   5.9609847   6.0000000  )
        26           Ti1 tau(  26) = (   3.2902200   4.4714249   6.0002472  )
        27           O1  tau(  27) = (   0.0002396   2.9813036   7.9858123  )
        28           O1  tau(  28) = (   3.2902150   2.9813002   7.3038282  )
        29           O1  tau(  29) = (   4.5938453   4.4726049   9.2879030  )
        30           O1  tau(  30) = (   1.9864658   4.4711199   9.2879459  )
        31           Ti1 tau(  31) = (   3.3296195   5.9152860   9.1560537  )
        32           Ti1 tau(  32) = (   0.0304643   4.4420822   9.3322224  )
        33           O1  tau(  33) = (   3.3127198   2.9780151  11.3348310  )
        34           O1  tau(  34) = (   0.0025308   2.9791118  10.5479895  )
        35           O1  tau(  35) = (   1.3183054   4.4635934  12.6126975  )
        36           O1  tau(  36) = (   5.3202651   4.4673696  12.6407401  )
        37           Ti1 tau(  37) = (   6.5108624   5.9459213  12.5946634  )
        38           Ti1 tau(  38) = (   3.2137380   4.4666137  12.4775098  )
        39           O1  tau(  39) = (   0.0464109   2.9731917  14.6594554  )
        40           O1  tau(  40) = (   3.3098714   2.9789900  13.9126757  )
        41           O1  tau(  41) = (   4.5859750   4.4686661  16.0488133  )
        42           O1  tau(  42) = (   2.1005049   4.4706468  16.0453856  )
        43           Ti1 tau(  43) = (   3.2853703   5.9589473  15.7052640  )
        44           Ti1 tau(  44) = (   6.5509595   4.5658457  16.0514827  )
        45           O1  tau(  45) = (   3.2900926   2.9813045   4.7018136  )
        46           O1  tau(  46) = (   0.0949885   2.9744829  17.2486893  )
        47           O1  tau(  47) = (   1.3039711   4.4726057   6.0039043  )
        48           O1  tau(  48) = (   5.2763189   4.4711207   6.0039473  )
        49           N1  tau(  49) = (   0.3730515   3.1615268  19.4484725  )
        50           N1  tau(  50) = (   6.0186590   2.9946300  18.5893579  )
        51           C1  tau(  51) = (   0.0416377   3.3059097  20.7092049  )
        52           H1  tau(  52) = (   5.5749133   3.3461147  21.0318256  )
        53           H1  tau(  53) = (   0.8315635   3.3875449  21.4270997  )

     number of k points=    10  Fermi-Dirac smearing, width (Ry)=  0.0073
                       cart. coord. in units 2pi/alat
        k(    1) = (   0.0000000   0.0000000   0.0000000), wk =   0.1250000
        k(    2) = (   0.0000000   0.0419351   0.0000000), wk =   0.2500000
        k(    3) = (   0.0000000  -0.0838702   0.0000000), wk =   0.1250000
        k(    4) = (   0.0379955   0.0000049   0.0000000), wk =   0.2500000
        k(    5) = (   0.0379955   0.0419400   0.0000000), wk =   0.2500000
        k(    6) = (   0.0379955  -0.0838652   0.0000000), wk =   0.2500000
        k(    7) = (   0.0379955  -0.0419301   0.0000000), wk =   0.2500000
        k(    8) = (  -0.0759910  -0.0000099   0.0000000), wk =   0.1250000
        k(    9) = (  -0.0759910   0.0419252   0.0000000), wk =   0.2500000
        k(   10) = (  -0.0759910  -0.0838800   0.0000000), wk =   0.1250000

     Initial potential from superposition of free atoms

     starting charge  383.99917, renormalised to  400.00000

     negative rho (up, down):  1.225E-02 0.000E+00

     %%%%%%%%%%%%%%%%%%%%%%%%%%%%%%%%%%%%%%%%%%%%%%%%%%%%%%%%%%%%%%%%%%%%%%%%
     %                                                                      %
     % You are using vdW-DF, which was implemented by the Thonhauser group. %
     % Please cite the following two papers that made this development      %
     % possible and the two reviews that describe the various versions:     %
     %                                                                      %
     %   T. Thonhauser et al., PRL 115, 136402 (2015).                      %
     %   T. Thonhauser et al., PRB 76, 125112 (2007).                       %
     %   K. Berland et al., Rep. Prog. Phys. 78, 066501 (2015).             %
     %   D.C. Langreth et al., J. Phys.: Condens. Matter 21, 084203 (2009). %
     %                                                                      %
     %                                                                      %
     % If you are calculating the stress with vdW-DF, please also cite:     %
     %                                                                      %
     %   R. Sabatini et al., J. Phys.: Condens. Matter 24, 424209 (2012).   %
     %                                                                      %
     %%%%%%%%%%%%%%%%%%%%%%%%%%%%%%%%%%%%%%%%%%%%%%%%%%%%%%%%%%%%%%%%%%%%%%%%

     Adding external electric field

     Computed dipole along edir(3) :
        Dipole              -11.7961 Ry au,        -29.9828 Debye
        Dipole field         -0.0223 Ry au,

        Potential amp.        2.0636 Ry
        Total length         46.3494 bohr

     Starting wfcs are  302 atomic wfcs
  @ DRIVER MODE: Message from server: STATUS
  @ DRIVER MODE: Message from server: POSDATA
  @ DRIVER MODE: Reading and sharing cell
  @ DRIVER MODE: Reading and sharing positions
  @ DRIVER MODE: Received positions

     Self-consistent Calculation

     iteration #  1     ecut=    29.40 Ry     beta= 0.05
     Davidson diagonalization with overlap
     c_bands:  3 eigenvalues not converged
     c_bands:  1 eigenvalues not converged
     c_bands:  2 eigenvalues not converged
     c_bands:  3 eigenvalues not converged
     c_bands:  3 eigenvalues not converged
     c_bands:  3 eigenvalues not converged
     c_bands:  1 eigenvalues not converged
     c_bands:  5 eigenvalues not converged
     c_bands:  2 eigenvalues not converged
     ethr =  1.00E-05,  avg # of iterations = 19.9

[...]

     total energy              =   -2452.83765333 Ry
     estimated scf accuracy    <    5806.07524842 Ry

     iteration #  2     ecut=    29.40 Ry     beta= 0.05
     Davidson diagonalization with overlap
     ethr =  1.00E-02,  avg # of iterations = 22.3

[...]

     iteration # 54     ecut=    29.40 Ry     beta= 0.05
     Davidson diagonalization with overlap
     c_bands:  1 eigenvalues not converged
     ethr =  1.63E-07,  avg # of iterations = 14.1

[...]

     total energy              =   -2970.15561557 Ry
     estimated scf accuracy    <       0.00000009 Ry

     iteration # 72     ecut=    29.40 Ry     beta= 0.05
     Davidson diagonalization with overlap
     ethr =  2.23E-11,  avg # of iterations =  8.4

     negative rho (up, down):  1.339E-02 0.000E+00

     Adding external electric field

     Computed dipole along edir(3) :
        Dipole                0.4158 Ry au,          1.0568 Debye
        Dipole field          0.0008 Ry au,

        Potential amp.       -0.0727 Ry
        Total length         46.3494 bohr

     End of self-consistent calculation

          k = 0.0000 0.0000 0.0000 ( 18029 PWs)   bands (ev):

   -56.1066 -56.0683 -56.0560 -56.0198 -55.9520 -55.9248 -55.8897 -55.8552
   -55.8017 -55.7909 -55.7645 -55.7625 -55.7561 -55.7171 -55.0720 -55.0379
   -32.6075 -32.5598 -32.4160 -32.3934 -32.3893 -32.3624 -32.3535 -32.3225
   -32.2865 -32.2841 -32.2774 -32.2736 -32.2558 -32.2458 -32.2371 -32.2111
   -32.1896 -32.1831 -32.1789 -32.1776 -32.1520 -32.1385 -32.0813 -32.0787
   -32.0705 -32.0574 -32.0526 -32.0261 -32.0250 -32.0216 -32.0082 -31.9970
   -31.9614 -31.9571 -31.9441 -31.9427 -31.9422 -31.9344 -31.9217 -31.9049
   -31.8904 -31.8418 -31.4802 -31.3866 -31.3639 -31.2973 -31.2114 -31.0999
   -19.0439 -16.7924 -16.4920 -16.3961 -16.2069 -16.1763 -16.0879 -16.0425
   -15.8123 -15.7169 -15.6564 -15.6281 -15.6007 -15.5927 -15.5873 -15.5599
   -15.5184 -15.5172 -15.4848 -15.4682 -15.4588 -15.4049 -15.3547 -15.3107
   -15.2494 -15.2163 -15.1844 -15.1811 -15.0734 -15.0281 -14.9802 -13.5712
   -13.4536 -10.9777  -6.4304  -4.8150  -4.1550  -3.9984  -3.9549  -3.9531
    -3.8407  -3.7124  -3.5923  -3.5550  -3.4405  -3.2247  -3.2127  -3.1955
    -3.1735  -3.1166  -2.9539  -2.8960  -2.8893  -2.8713  -2.8525  -2.8302
    -2.8072  -2.7926  -2.7632  -2.7354  -2.7190  -2.5794  -2.5687  -2.4737
    -2.4548  -2.4047  -2.3759  -2.3590  -2.3174  -2.2704  -2.2269  -2.2076
    -2.1848  -2.1582  -2.0796  -1.9105  -1.9048  -1.8722  -1.7943  -1.7413
    -1.7353  -1.4752  -1.4742  -1.4680  -1.4021  -1.3596  -1.3516  -1.2709
    -1.2191  -1.1975  -1.1825  -1.1577  -1.0815  -1.0053  -0.9603  -0.9077
    -0.8719  -0.8198  -0.7916  -0.7764  -0.7572  -0.5497  -0.5252  -0.4931
    -0.4561  -0.3406  -0.3306  -0.2850  -0.2709  -0.2284  -0.2202  -0.1067
    -0.0849  -0.0668  -0.0510  -0.0299  -0.0053   0.0142   0.0670   0.1191
     0.1511   0.1782   0.3669   0.3786   0.5450   0.5845   0.6111   0.7587
     0.8667   0.9532   1.0798   1.1287   1.5453   1.6150   1.7343   2.9788
     3.1099   3.1913   3.2417   3.2730   3.3347   3.4966   3.5468   3.5747
     3.6148   3.6228

[...]

          k = 0.0380-0.0419 0.0000 ( 17876 PWs)   bands (ev):

[...]

          k =-0.0760-0.0000 0.0000 ( 17886 PWs)   bands (ev):

[...]

          k =-0.0760-0.0839 0.0000 ( 17948 PWs)   bands (ev):

   -56.0964 -56.0784 -56.0385 -56.0370 -55.9490 -55.9093 -55.9051 -55.8581
   -55.7890 -55.7790 -55.7760 -55.7689 -55.7540 -55.7255 -55.0549 -55.0549
   -32.4102 -32.4084 -32.3837 -32.3822 -32.3677 -32.3544 -32.3120 -32.3109
   -32.2933 -32.2475 -32.2418 -32.2405 -32.2306 -32.2174 -32.2139 -32.2070
   -32.1976 -32.1951 -32.1788 -32.1577 -32.1324 -32.1275 -32.1154 -32.1138
   -32.1075 -32.0969 -32.0884 -32.0763 -32.0645 -32.0412 -32.0303 -31.9945
   -31.9898 -31.9850 -31.9802 -31.9687 -31.9672 -31.9652 -31.9617 -31.9575
   -31.9461 -31.9354 -31.3766 -31.3765 -31.2934 -31.2932 -31.2544 -31.2543
   -19.0355 -16.2129 -16.2042 -16.1840 -15.9511 -15.9477 -15.9137 -15.8602
   -15.7642 -15.7628 -15.7558 -15.7431 -15.6777 -15.6689 -15.6636 -15.5928
   -15.5819 -15.5790 -15.5725 -15.5479 -15.4941 -15.4932 -15.3813 -15.3600
   -15.3572 -15.3492 -15.3316 -15.3224 -15.2558 -15.2038 -15.1986 -13.5564
   -13.5536 -10.9792  -6.4174  -4.7780  -3.7129  -3.5056  -3.4968  -3.4141
    -3.1895  -3.1804  -3.0631  -3.0531  -3.0035  -2.9585  -2.9188  -2.9071
    -2.8964  -2.8764  -2.8701  -2.8528  -2.8315  -2.8146  -2.7969  -2.7705
    -2.7235  -2.6920  -2.6756  -2.6533  -2.6449  -2.6351  -2.6065  -2.5985
    -2.5766  -2.5741  -2.5541  -2.4546  -2.3177  -2.2921  -2.2307  -2.1843
    -2.1591  -2.1287  -2.1234  -2.0910  -2.0776  -2.0521  -1.9267  -1.8591
    -1.7829  -1.7507  -1.7263  -1.6628  -1.5831  -1.4979  -1.4298  -1.4084
    -1.3571  -1.3124  -1.2937  -1.2663  -1.2221  -1.2092  -1.1564  -1.0846
    -1.0780  -1.0382  -1.0284  -1.0075  -0.9333  -0.9260  -0.8703  -0.8121
    -0.7988  -0.7125  -0.6578  -0.6346  -0.6221  -0.5620  -0.5435  -0.4753
    -0.3986  -0.3187  -0.0447  -0.0282   0.0261   0.0377   0.0721   0.1754
     0.2332   0.2511   0.3245   0.3507   0.4265   0.4744   0.5069   0.5116
     0.5919   0.6099   1.3183   1.3219   1.4047   1.4140   1.7590   2.9389
     3.3894   3.4188   3.4247   3.4459   3.5810   3.5884   3.6054   3.6137
     3.7533   3.7902

     the Fermi energy is     3.0563 ev

!    total energy              =   -2970.15563388 Ry
     estimated scf accuracy    <       0.00000005 Ry
     smearing contrib. (-TS)   =      -0.02341197 Ry
     internal energy E=F+TS    =   -2970.13222190 Ry

     The total energy is F=E-TS. E is the sum of the following terms:
     one-electron contribution =  -23559.48670925 Ry
     hartree contribution      =   11867.94347753 Ry
     xc contribution           =    -491.49842159 Ry
     ewald contribution        =    9212.90910518 Ry
     electric field correction =       0.00032623 Ry

     convergence has been achieved in  72 iterations

     Forces acting on atoms (cartesian axes, Ry/au):

     atom    1 type  1   force =    -0.00001060   -0.00028166    0.11744966
     atom    2 type  1   force =    -0.00002719   -0.00047308   -0.17836695
     atom    3 type  2   force =     0.00020232    0.00070514   -0.03808620
     atom    4 type  2   force =     0.00087847   -0.00059983    0.04406288
     atom    5 type  2   force =    -0.02135473   -0.00158804    0.00210466
     atom    6 type  2   force =     0.02127917    0.00124927    0.00430330
     atom    7 type  1   force =     0.00092295   -0.00016486   -0.00003318
     atom    8 type  1   force =     0.00005723   -0.00015074    0.00096397
     atom    9 type  2   force =    -0.00048701    0.00006480   -0.00044074
     atom   10 type  2   force =     0.00025514    0.00008278   -0.00106598
     atom   11 type  2   force =     0.00063571    0.00008738   -0.00005479
     atom   12 type  2   force =    -0.00029530    0.00038598   -0.00026243
     atom   13 type  1   force =    -0.00136938    0.00032529    0.00014026
     atom   14 type  1   force =     0.00115058    0.00020542   -0.00030169
     atom   15 type  2   force =    -0.00032524    0.00018239    0.00086467
     atom   16 type  2   force =    -0.00027840    0.00003355    0.00147154
     atom   17 type  2   force =     0.00001617   -0.00028226    0.00042330
     atom   18 type  2   force =    -0.00037726   -0.00044185    0.00023253
     atom   19 type  1   force =    -0.00030444    0.00019075    0.00059647
     atom   20 type  1   force =     0.00022265    0.00021613    0.00042987
     atom   21 type  2   force =    -0.00000741    0.00005216    0.10375300
     atom   22 type  2   force =    -0.00035851    0.00023983   -0.00100835
     atom   23 type  2   force =    -0.06936969    0.00107596   -0.03121240
     atom   24 type  2   force =     0.06913093    0.00148087   -0.03121205
     atom   25 type  1   force =    -0.00023467   -0.00018904    0.12919861
     atom   26 type  1   force =    -0.00004703   -0.00004612   -0.17843600
     atom   27 type  2   force =     0.00040908    0.00016008   -0.03708968
     atom   28 type  2   force =     0.00033285   -0.00056411    0.04502712
     atom   29 type  2   force =    -0.02053624    0.00077030    0.00199380
     atom   30 type  2   force =     0.02219064    0.00158534    0.00425386
     atom   31 type  1   force =     0.00022299   -0.00042442   -0.00059089
     atom   32 type  1   force =    -0.00009724   -0.00106330    0.00112141
     atom   33 type  2   force =    -0.00050202   -0.00016193    0.00079392
     atom   34 type  2   force =     0.00011142   -0.00009170   -0.00024058
     atom   35 type  2   force =     0.00073514   -0.00022420   -0.00016065
     atom   36 type  2   force =    -0.00019918   -0.00012750   -0.00041499
     atom   37 type  1   force =    -0.00082421   -0.00049794    0.00052081
     atom   38 type  1   force =     0.00123219   -0.00043026   -0.00025721
     atom   39 type  2   force =    -0.00030744   -0.00016932   -0.00105597
     atom   40 type  2   force =    -0.00030521   -0.00009910   -0.00026277
     atom   41 type  2   force =    -0.00016519    0.00053085    0.00029733
     atom   42 type  2   force =    -0.00017177    0.00058720    0.00020600
     atom   43 type  1   force =    -0.00014317   -0.00006302   -0.00062343
     atom   44 type  1   force =     0.00006891   -0.00030002    0.00022110
     atom   45 type  2   force =     0.00001480    0.00004624    0.10386990
     atom   46 type  2   force =     0.00010437    0.00004051   -0.00065694
     atom   47 type  2   force =    -0.06933812   -0.00128449   -0.03117704
     atom   48 type  2   force =     0.06912726   -0.00082326   -0.03123223
     atom   49 type  3   force =     0.00506920   -0.00002215   -0.00364743
     atom   50 type  3   force =    -0.00165207   -0.00009138    0.00219452
     atom   51 type  4   force =    -0.02445536    0.00010576   -0.00147302
     atom   52 type  5   force =     0.01057194   -0.00043132   -0.00247123
     atom   53 type  5   force =     0.00860198    0.00068292    0.00534034

     Total force =     0.385148     Total SCF correction =     0.000347
  @ DRIVER MODE: Message from server: STATUS
  @ DRIVER MODE: Message from server: GETFORCE
  @ DRIVER MODE: Returning v,forces,stress,ensemble

     Writing output data file ./calc.save/
  @ DRIVER MODE: Message from server: EXIT
  @ DRIVE MODE: Exiting

     General routines

     Parallel routines

   This run was terminated on:   9:27: 9   1Oct2021

   JOB DONE.