     Program PWSCF v.6.7GPU starts on 16Sep2021 at  2:32:20

     R & G space division:  proc/nbgrp/npool/nimage =      10
     Reading input from /storage/home/hcoda1/3/ntian30/research/carbon/CxH_vib/H2O_calc/ads_slab/CHNHH2O_a/out_0033/pw.inp
Warning: card &CELL ignored
Warning: card   CELL_DYNAMICS='IPI', ignored
Warning: card / ignored

     Current dimensions of program PWSCF are:
     Max number of different atomic species (ntypx) = 10
     Max number of k-points (npk) =  40000
     Max angular momentum in pseudopotentials (lmaxx) =  3
     Presently no symmetry can be used with electric field

     Message from routine cell_base_init:
     DEPRECATED: use true lattice parameter, not A to a.u. conversion factor

     IMPORTANT: XC functional enforced from input :
     Exchange-correlation= BEEF-VDW
                           (   1   4  43  14   2   0   0)
     Any further DFT definition will be discarded
     Please, verify this is what you really want

  @ DRIVER MODE: Connecting to
 qe_1139763_2852628.sched-torque.pace.gatech.edupd7bwwie_scratch
  using UNIX socket
  @ DRIVER MODE: Message from server: STATUS
  @ DRIVER MODE: Message from server: INIT
  @ DRIVER MODE: Receiving replica           0          -1
  @ DRIVER MODE: Receiving encoded integer          25
  @ DRIVER MODE:  SCF:  T  FORCE:  T  STRESS:  F  VC:  F  ENSEMBLE:  F
  @ DRIVER MODE:  SCF:  T  FORCE:  T  STRESS:  F  VC:  F  ENSEMBLE:  F

     Using Slab Decomposition

     bravais-lattice index     =            0
     lattice parameter (alat)  =       1.8897  a.u.
     unit-cell volume          =    6658.9804 (a.u.)^3
     number of atoms/cell      =           54
     number of atomic types    =            5
     number of electrons       =       397.00
     number of Kohn-Sham states=          208
     kinetic-energy cutoff     =      29.3995  Ry
     charge density cutoff     =     293.9946  Ry
     scf convergence threshold =      7.3E-08
     mixing beta               =       0.0500
     number of iterations used =            8  plain     mixing
     Exchange-correlation= BEEF-VDW
                           (   1   4  43  14   2   0   0)

     celldm(1)=   1.889726  celldm(2)=   0.000000  celldm(3)=   0.000000
     celldm(4)=   0.000000  celldm(5)=   0.000000  celldm(6)=   0.000000

     crystal axes: (cart. coord. in units of alat)
               a(1) = (   6.579727   0.000000   0.000000 )
               a(2) = (  -0.000775   5.961596   0.000000 )
               a(3) = (   0.000000   0.000000  25.155947 )

     reciprocal axes: (cart. coord. in units 2 pi/alat)
               b(1) = (  0.151982  0.000020  0.000000 )
               b(2) = (  0.000000  0.167740  0.000000 )
               b(3) = (  0.000000  0.000000  0.039752 )

     PseudoPot. # 1 for Ti read from file:
     /storage/coda1/p-amedford6/0/shared/rich_project_chbe-medford/medford-share/data/pseudos_module/espresso/nninc/pbe/van/Ti.UPF
     MD5 check sum: 8e4df49b7f0d34bbd5052bf3f5ea0213
     Pseudo is Ultrasoft, Zval = 12.0
     Generated by new atomic code, or converted to UPF format
     Using radial grid of  851 points,  6 beta functions with:
                l(1) =   0
                l(2) =   0
                l(3) =   1
                l(4) =   1
                l(5) =   2
                l(6) =   2
     Q(r) pseudized with  8 coefficients,  rinner =    1.000   1.000   1.000
                                                       1.000   1.000

     PseudoPot. # 2 for O  read from file:
     /storage/coda1/p-amedford6/0/shared/rich_project_chbe-medford/medford-share/data/pseudos_module/espresso/nninc/pbe/van/O.UPF
     MD5 check sum: 78c19812648e8988a0fe644b0f25305e
     Pseudo is Ultrasoft, Zval =  6.0
     Generated by new atomic code, or converted to UPF format
     Using radial grid of  737 points,  4 beta functions with:
                l(1) =   0
                l(2) =   0
                l(3) =   1
                l(4) =   1
     Q(r) pseudized with  8 coefficients,  rinner =    0.800   0.800   0.800

     PseudoPot. # 3 for N  read from file:
     /storage/coda1/p-amedford6/0/shared/rich_project_chbe-medford/medford-share/data/pseudos_module/espresso/nninc/pbe/van/N.UPF
     MD5 check sum: 90d10febe142ad51ac9d5be1deb811c4
     Pseudo is Ultrasoft, Zval =  5.0
     Generated by new atomic code, or converted to UPF format
     Using radial grid of  729 points,  4 beta functions with:
                l(1) =   0
                l(2) =   0
                l(3) =   1
                l(4) =   1
     Q(r) pseudized with  8 coefficients,  rinner =    0.800   0.800   0.800

     PseudoPot. # 4 for C  read from file:
     /storage/coda1/p-amedford6/0/shared/rich_project_chbe-medford/medford-share/data/pseudos_module/espresso/nninc/pbe/van/C.UPF
     MD5 check sum: 1a69bf6b8db32088f5b2163dbdb77a27
     Pseudo is Ultrasoft, Zval =  4.0
     Generated by new atomic code, or converted to UPF format
     Using radial grid of  721 points,  4 beta functions with:
                l(1) =   0
                l(2) =   0
                l(3) =   1
                l(4) =   1
     Q(r) pseudized with  8 coefficients,  rinner =    0.800   0.800   0.800

     PseudoPot. # 5 for H  read from file:
     /storage/coda1/p-amedford6/0/shared/rich_project_chbe-medford/medford-share/data/pseudos_module/espresso/nninc/pbe/van/H.UPF
     MD5 check sum: b5ee9d7bfd3a09ee7748110bda690ff7
     Pseudo is Ultrasoft, Zval =  1.0
     Generated by new atomic code, or converted to UPF format
     Using radial grid of  615 points,  1 beta functions with:
                l(1) =   0
     Q(r) pseudized with  8 coefficients,  rinner =    0.800

     atomic species   valence    mass     pseudopotential
        Ti1           12.00    47.86700     Ti( 1.00)
        O1             6.00    15.99900     O ( 1.00)
        N1             5.00    14.00700     N ( 1.00)
        C1             4.00    12.01100     C ( 1.00)
        H1             1.00     1.00800     H ( 1.00)

     No symmetry found

   Cartesian axes

     site n.     atom                  positions (alat units)
         1           Ti1 tau(   1) = (   0.0004258   2.9801865   6.0000000  )
         2           Ti1 tau(   2) = (   3.2906075   1.4906267   6.0002472  )
         3           O1  tau(   3) = (   0.0006271   0.0005054   7.9858123  )
         4           O1  tau(   4) = (   3.2906025   0.0005020   7.3038282  )
         5           O1  tau(   5) = (   4.5942328   1.4918067   9.2879030  )
         6           O1  tau(   6) = (   1.9868534   1.4903216   9.2879459  )
         7           Ti1 tau(   7) = (   3.2907910   2.8959150   9.1758416  )
         8           Ti1 tau(   8) = (   0.0015273   1.4827037   9.2680791  )
         9           O1  tau(   9) = (   3.2914171   5.9475995  11.3455371  )
        10           O1  tau(  10) = (   0.0116148   5.9584955  10.6183126  )
        11           O1  tau(  11) = (   1.3057669   1.4807986  12.6390077  )
        12           O1  tau(  12) = (   5.3035249   1.4749620  12.6227664  )
        13           Ti1 tau(  13) = (   6.5294082   2.9362577  12.6231083  )
        14           Ti1 tau(  14) = (   3.2175537   1.4615748  12.5070279  )
        15           O1  tau(  15) = (   6.5585639   5.9474800  14.6380151  )
        16           O1  tau(  16) = (   3.3125803   5.9531145  13.9695519  )
        17           O1  tau(  17) = (   4.5393379   1.5011389  16.1071157  )
        18           O1  tau(  18) = (   2.0094023   1.5044898  16.0307267  )
        19           Ti1 tau(  19) = (   3.2760958   2.9523363  15.6877793  )
        20           Ti1 tau(  20) = (   0.0277933   1.3451898  16.0452527  )
        21           O1  tau(  21) = (   3.2904802   0.0005063   4.7018136  )
        22           O1  tau(  22) = (   0.0198929   5.9263875  17.1601691  )
        23           O1  tau(  23) = (   1.3043587   1.4918075   6.0039043  )
        24           O1  tau(  24) = (   5.2767064   1.4903225   6.0039473  )
        25           Ti1 tau(  25) = (   0.0000382   5.9609847   6.0000000  )
        26           Ti1 tau(  26) = (   3.2902200   4.4714249   6.0002472  )
        27           O1  tau(  27) = (   0.0002396   2.9813036   7.9858123  )
        28           O1  tau(  28) = (   3.2902150   2.9813002   7.3038282  )
        29           O1  tau(  29) = (   4.5938453   4.4726049   9.2879030  )
        30           O1  tau(  30) = (   1.9864658   4.4711199   9.2879459  )
        31           Ti1 tau(  31) = (   3.2891106   5.8743827   9.1763621  )
        32           Ti1 tau(  32) = (   0.0006254   4.4649316   9.2693709  )
        33           O1  tau(  33) = (   3.2862706   2.9662616  11.3468726  )
        34           O1  tau(  34) = (   0.0092240   2.9805883  10.6323155  )
        35           O1  tau(  35) = (   1.3102706   4.4726941  12.6361575  )
        36           O1  tau(  36) = (   5.3014905   4.4644878  12.6181669  )
        37           Ti1 tau(  37) = (   6.5311680   5.9227251  12.5202533  )
        38           Ti1 tau(  38) = (   3.2191334   4.4553394  12.5017427  )
        39           O1  tau(  39) = (   6.5614274   2.9920157  14.6796082  )
        40           O1  tau(  40) = (   3.3146075   2.9603188  13.8993185  )
        41           O1  tau(  41) = (   4.5484517   4.4144432  16.0509510  )
        42           O1  tau(  42) = (   2.0146171   4.4214036  15.9967612  )
        43           Ti1 tau(  43) = (   3.3303817   5.9274347  15.8100502  )
        44           Ti1 tau(  44) = (   0.0273359   4.4939047  15.8144843  )
        45           O1  tau(  45) = (   3.2900926   2.9813045   4.7018136  )
        46           O1  tau(  46) = (   1.3039711   4.4726057   6.0039043  )
        47           O1  tau(  47) = (   5.2763189   4.4711207   6.0039473  )
        48           N1  tau(  48) = (   6.5134970   2.9613368  17.6459670  )
        49           C1  tau(  49) = (   0.7931072   3.0267964  18.6255283  )
        50           H1  tau(  50) = (   1.8307262   2.9311331  18.2395185  )
        51           H1  tau(  51) = (   5.5494773   3.0666896  17.9713127  )
        52           O1  tau(  52) = (   3.1855344   5.8058271  18.1612476  )
        53           H1  tau(  53) = (   3.8461454   0.2922996  18.7034462  )
        54           H1  tau(  54) = (   2.3120581   0.0053998  18.5533318  )

     number of k points=    10  Fermi-Dirac smearing, width (Ry)=  0.0073
                       cart. coord. in units 2pi/alat
        k(    1) = (   0.0000000   0.0000000   0.0000000), wk =   0.1250000
        k(    2) = (   0.0000000   0.0419351   0.0000000), wk =   0.2500000
        k(    3) = (   0.0000000  -0.0838702   0.0000000), wk =   0.1250000
        k(    4) = (   0.0379955   0.0000049   0.0000000), wk =   0.2500000
        k(    5) = (   0.0379955   0.0419400   0.0000000), wk =   0.2500000
        k(    6) = (   0.0379955  -0.0838652   0.0000000), wk =   0.2500000
        k(    7) = (   0.0379955  -0.0419301   0.0000000), wk =   0.2500000
        k(    8) = (  -0.0759910  -0.0000099   0.0000000), wk =   0.1250000
        k(    9) = (  -0.0759910   0.0419252   0.0000000), wk =   0.2500000
        k(   10) = (  -0.0759910  -0.0838800   0.0000000), wk =   0.1250000

     Initial potential from superposition of free atoms

     starting charge  380.99916, renormalised to  397.00000

     negative rho (up, down):  1.755E-02 0.000E+00

     %%%%%%%%%%%%%%%%%%%%%%%%%%%%%%%%%%%%%%%%%%%%%%%%%%%%%%%%%%%%%%%%%%%%%%%%
     %                                                                      %
     % You are using vdW-DF, which was implemented by the Thonhauser group. %
     % Please cite the following two papers that made this development      %
     % possible and the two reviews that describe the various versions:     %
     %                                                                      %
     %   T. Thonhauser et al., PRL 115, 136402 (2015).                      %
     %   T. Thonhauser et al., PRB 76, 125112 (2007).                       %
     %   K. Berland et al., Rep. Prog. Phys. 78, 066501 (2015).             %
     %   D.C. Langreth et al., J. Phys.: Condens. Matter 21, 084203 (2009). %
     %                                                                      %
     %                                                                      %
     % If you are calculating the stress with vdW-DF, please also cite:     %
     %                                                                      %
     %   R. Sabatini et al., J. Phys.: Condens. Matter 24, 424209 (2012).   %
     %                                                                      %
     %%%%%%%%%%%%%%%%%%%%%%%%%%%%%%%%%%%%%%%%%%%%%%%%%%%%%%%%%%%%%%%%%%%%%%%%

     Adding external electric field

     Computed dipole along edir(3) :
        Dipole               -9.1667 Ry au,        -23.2993 Debye
        Dipole field         -0.0173 Ry au,

        Potential amp.        1.6036 Ry
        Total length         46.3494 bohr

     Starting wfcs are  300 atomic wfcs
  @ DRIVER MODE: Message from server: STATUS
  @ DRIVER MODE: Message from server: POSDATA
  @ DRIVER MODE: Reading and sharing cell
  @ DRIVER MODE: Reading and sharing positions
  @ DRIVER MODE: Received positions

     Self-consistent Calculation

     iteration #  1     ecut=    29.40 Ry     beta= 0.05
     Davidson diagonalization with overlap
     c_bands:  1 eigenvalues not converged
     c_bands:  1 eigenvalues not converged
     c_bands:  1 eigenvalues not converged
     c_bands:  1 eigenvalues not converged
     c_bands:  1 eigenvalues not converged
     c_bands:  1 eigenvalues not converged
     c_bands:  1 eigenvalues not converged
     c_bands:  1 eigenvalues not converged
     ethr =  1.00E-05,  avg # of iterations = 19.9

[...]

     total energy              =   -2547.25746712 Ry
     estimated scf accuracy    <    4504.90950770 Ry

     iteration #  2     ecut=    29.40 Ry     beta= 0.05
     Davidson diagonalization with overlap
     ethr =  1.00E-02,  avg # of iterations = 25.2

[...]

     iteration # 46     ecut=    29.40 Ry     beta= 0.05
     Davidson diagonalization with overlap
     c_bands:  1 eigenvalues not converged
     ethr =  5.71E-08,  avg # of iterations = 12.8

[...]

     total energy              =   -2952.61566757 Ry
     estimated scf accuracy    <       0.00000012 Ry

     iteration # 62     ecut=    29.40 Ry     beta= 0.05
     Davidson diagonalization with overlap
     ethr =  3.12E-11,  avg # of iterations =  8.3

     negative rho (up, down):  1.616E-02 0.000E+00

     Adding external electric field

     Computed dipole along edir(3) :
        Dipole                0.4080 Ry au,          1.0371 Debye
        Dipole field          0.0008 Ry au,

        Potential amp.       -0.0714 Ry
        Total length         46.3494 bohr

     End of self-consistent calculation

          k = 0.0000 0.0000 0.0000 ( 18029 PWs)   bands (ev):

   -56.0233 -55.9988 -55.9921 -55.9892 -55.9625 -55.8691 -55.8366 -55.8276
   -55.8242 -55.8108 -55.8024 -55.7773 -55.7476 -55.5785 -55.0091 -54.9751
   -32.5446 -32.5071 -32.4004 -32.3685 -32.3355 -32.3153 -32.3063 -32.3008
   -32.2666 -32.2361 -32.2242 -32.2178 -32.2083 -32.1956 -32.1778 -32.1757
   -32.1510 -32.1290 -32.1276 -32.1245 -32.0917 -32.0805 -32.0717 -32.0393
   -32.0286 -32.0271 -32.0233 -32.0190 -32.0161 -32.0107 -31.9961 -31.9852
   -31.9830 -31.9816 -31.9696 -31.9635 -31.9598 -31.9413 -31.9219 -31.8392
   -31.8222 -31.7354 -31.4165 -31.3273 -31.3049 -31.2332 -31.1467 -31.0356
   -19.2557 -16.7558 -16.5156 -16.3407 -16.2005 -16.1698 -15.9530 -15.8514
   -15.7805 -15.7262 -15.6571 -15.6054 -15.5714 -15.5621 -15.5454 -15.5218
   -15.5021 -15.4792 -15.4562 -15.4444 -15.4378 -15.3956 -15.3884 -15.3724
   -15.3538 -15.2474 -15.1837 -15.1593 -15.1142 -15.0909 -14.7381 -13.5113
   -13.3948  -7.8682  -7.1169  -4.1545  -4.0592  -3.9843  -3.9440  -3.9287
    -3.7726  -3.6941  -3.5447  -3.5182  -3.3072  -3.2745  -3.2197  -3.1946
    -3.1330  -3.0710  -2.9760  -2.9322  -2.8557  -2.8395  -2.8269  -2.8044
    -2.7836  -2.7674  -2.7274  -2.6634  -2.5933  -2.5597  -2.4461  -2.4202
    -2.4134  -2.3460  -2.3387  -2.3267  -2.3136  -2.2823  -2.2604  -2.2574
    -2.1859  -2.1540  -2.0834  -2.0315  -1.9707  -1.8525  -1.7001  -1.6389
    -1.5883  -1.5281  -1.5031  -1.4672  -1.4451  -1.4208  -1.3610  -1.3037
    -1.2395  -1.2274  -1.1568  -1.0644  -0.9931  -0.9561  -0.8849  -0.8228
    -0.8012  -0.7733  -0.7652  -0.7562  -0.7079  -0.5347  -0.4787  -0.4650
    -0.4255  -0.3426  -0.3116  -0.3022  -0.2532  -0.2450  -0.2050  -0.1162
    -0.0973  -0.0621  -0.0443  -0.0308   0.0020   0.0215   0.1765   0.1972
     0.2397   0.2613   0.3637   0.4698   0.5366   0.6241   0.7187   0.9374
     1.0133   1.0907   1.2044   1.5854   1.6315   2.7807   3.1049   3.1935
     3.2316   3.2376   3.2718   3.3425   3.5589   3.5898   3.6072   3.6631

[...]

          k = 0.0380-0.0419 0.0000 ( 17876 PWs)   bands (ev):

[...]

          k =-0.0760-0.0000 0.0000 ( 17886 PWs)   bands (ev):

[...]

          k =-0.0760-0.0839 0.0000 ( 17948 PWs)   bands (ev):

   -56.0069 -56.0054 -55.9907 -55.9826 -55.9781 -55.8599 -55.8369 -55.8258
   -55.8201 -55.8182 -55.7947 -55.7937 -55.7461 -55.5800 -54.9921 -54.9920
   -32.3584 -32.3425 -32.3229 -32.3219 -32.3014 -32.3001 -32.2793 -32.2715
   -32.2517 -32.2190 -32.2040 -32.1998 -32.1952 -32.1737 -32.1460 -32.1410
   -32.1363 -32.1342 -32.1324 -32.1309 -32.1301 -32.1271 -32.1264 -32.1248
   -32.0779 -32.0588 -32.0499 -32.0384 -32.0264 -32.0241 -32.0228 -32.0210
   -32.0204 -32.0097 -32.0078 -31.9978 -31.9914 -31.9771 -31.9714 -31.8430
   -31.8272 -31.8223 -31.3176 -31.3176 -31.2292 -31.2292 -31.1900 -31.1899
   -19.2548 -16.2146 -16.0951 -16.0405 -15.9474 -15.9219 -15.9075 -15.8336
   -15.7811 -15.7279 -15.7183 -15.6942 -15.6800 -15.6723 -15.6137 -15.5853
   -15.5610 -15.5500 -15.5066 -15.4938 -15.4858 -15.4720 -15.4700 -15.4638
   -15.4202 -15.3887 -15.3519 -15.3479 -15.2086 -15.1000 -15.0103 -13.4967
   -13.4963  -7.8770  -7.1190  -3.9147  -3.6477  -3.4927  -3.3158  -3.2645
    -3.1661  -3.1541  -3.1230  -3.1028  -2.9936  -2.9340  -2.9213  -2.8996
    -2.8588  -2.8490  -2.8423  -2.8372  -2.8030  -2.8013  -2.7647  -2.7460
    -2.7143  -2.7007  -2.6951  -2.6881  -2.6643  -2.6447  -2.6052  -2.5902
    -2.5740  -2.5440  -2.5072  -2.3732  -2.3040  -2.2263  -2.2190  -2.1787
    -2.1662  -2.1463  -2.1033  -2.0856  -2.0583  -1.9772  -1.9018  -1.7473
    -1.7290  -1.7057  -1.6737  -1.6139  -1.5217  -1.4969  -1.4689  -1.4224
    -1.4057  -1.3479  -1.3276  -1.2957  -1.2402  -1.1779  -1.1405  -1.1134
    -1.0682  -1.0034  -0.9824  -0.9622  -0.9479  -0.8867  -0.7786  -0.7720
    -0.7662  -0.7165  -0.7011  -0.6715  -0.6511  -0.5588  -0.4793  -0.4193
    -0.3225  -0.1585  -0.0786   0.0194   0.0564   0.1012   0.1457   0.1878
     0.2846   0.2866   0.3591   0.3894   0.4066   0.4891   0.5001   0.5231
     0.6837   1.3759   1.3771   1.4510   1.4515   2.8156   3.3623   3.4086
     3.4428   3.4894   3.5922   3.6123   3.6409   3.6427   3.7213   3.7688

     the Fermi energy is     3.1080 ev

!    total energy              =   -2952.61571505 Ry
     estimated scf accuracy    <       0.00000004 Ry
     smearing contrib. (-TS)   =      -0.02584048 Ry
     internal energy E=F+TS    =   -2952.58987457 Ry

     The total energy is F=E-TS. E is the sum of the following terms:
     one-electron contribution =  -24509.56328185 Ry
     hartree contribution      =   12341.97335786 Ry
     xc contribution           =    -487.96699492 Ry
     ewald contribution        =    9702.96673018 Ry
     electric field correction =       0.00031417 Ry

     convergence has been achieved in  62 iterations

     Forces acting on atoms (cartesian axes, Ry/au):

     atom    1 type  1   force =    -0.00003674   -0.00031010    0.09594341
     atom    2 type  1   force =     0.00005594   -0.00049206   -0.17606313
     atom    3 type  2   force =     0.00010405   -0.00009688   -0.02431459
     atom    4 type  2   force =     0.00000930   -0.00162809    0.05389797
     atom    5 type  2   force =    -0.01178735   -0.00141096    0.00393551
     atom    6 type  2   force =     0.01321430   -0.00102177    0.00317814
     atom    7 type  1   force =     0.00034157    0.00069070   -0.00765718
     atom    8 type  1   force =     0.00026960    0.01496113    0.02331336
     atom    9 type  2   force =    -0.00005124    0.00018766    0.00012901
     atom   10 type  2   force =    -0.00219272    0.00049722   -0.01743687
     atom   11 type  2   force =     0.00046548   -0.00027230   -0.00021852
     atom   12 type  2   force =    -0.00082734   -0.00018233   -0.00000153
     atom   13 type  1   force =     0.00045995    0.00044955    0.00004683
     atom   14 type  1   force =    -0.00019351    0.00004983    0.00089270
     atom   15 type  2   force =    -0.00013210   -0.00003779   -0.00074551
     atom   16 type  2   force =     0.00001130    0.00051012   -0.00023319
     atom   17 type  2   force =    -0.00047269    0.00027294    0.00001268
     atom   18 type  2   force =     0.00025146    0.00013142   -0.00021650
     atom   19 type  1   force =     0.00073828    0.00057635   -0.00039098
     atom   20 type  1   force =    -0.00058931    0.00039958   -0.00005122
     atom   21 type  2   force =     0.00006453   -0.00000189    0.10332763
     atom   22 type  2   force =    -0.00026971   -0.00022910    0.00067053
     atom   23 type  2   force =    -0.07136713   -0.00011119   -0.02763026
     atom   24 type  2   force =     0.07128558    0.00033867   -0.02770241
     atom   25 type  1   force =     0.00023857   -0.00029422    0.09579015
     atom   26 type  1   force =     0.00011563   -0.00029397   -0.17600245
     atom   27 type  2   force =     0.00014017   -0.00029324   -0.02320844
     atom   28 type  2   force =     0.00000125   -0.00133087    0.05365863
     atom   29 type  2   force =    -0.01213305    0.00040023    0.00378262
     atom   30 type  2   force =     0.01351938    0.00101392    0.00302554
     atom   31 type  1   force =     0.00023986    0.00376443   -0.01144122
     atom   32 type  1   force =     0.00044447   -0.01662304    0.02313615
     atom   33 type  2   force =     0.00017686    0.00009571   -0.00031635
     atom   34 type  2   force =    -0.00191483   -0.00010567   -0.02072222
     atom   35 type  2   force =     0.00045210    0.00006330    0.00006915
     atom   36 type  2   force =    -0.00087187    0.00000049    0.00032665
     atom   37 type  1   force =     0.00081753    0.00005248   -0.00028422
     atom   38 type  1   force =    -0.00000134    0.00012770    0.00039835
     atom   39 type  2   force =    -0.00025614    0.00044397   -0.00054681
     atom   40 type  2   force =    -0.00039769   -0.00007481   -0.00021520
     atom   41 type  2   force =    -0.00056560    0.00032927    0.00023575
     atom   42 type  2   force =     0.00001845    0.00021443    0.00007567
     atom   43 type  1   force =     0.00038987   -0.00008715    0.00036724
     atom   44 type  1   force =    -0.00003881   -0.00032997    0.00040988
     atom   45 type  2   force =     0.00006805   -0.00000619    0.10328873
     atom   46 type  2   force =    -0.07135484   -0.00004807   -0.02761074
     atom   47 type  2   force =     0.07127440    0.00038376   -0.02768573
     atom   48 type  3   force =     0.00125229    0.00102748    0.00039265
     atom   49 type  4   force =    -0.00022289   -0.00019029   -0.00056193
     atom   50 type  5   force =    -0.00002052   -0.00061576    0.00021238
     atom   51 type  5   force =     0.00018679   -0.00062922    0.00009666
     atom   52 type  2   force =    -0.00671394   -0.00459396   -0.00400693
     atom   53 type  5   force =     0.00530925    0.00417404    0.00506872
     atom   54 type  5   force =     0.00049511    0.00015450   -0.00041854

     Total force =     0.367991     Total SCF correction =     0.000509
  @ DRIVER MODE: Message from server: STATUS
  @ DRIVER MODE: Message from server: GETFORCE
  @ DRIVER MODE: Returning v,forces,stress,ensemble

     Writing output data file ./calc.save/
  @ DRIVER MODE: Message from server: EXIT
  @ DRIVE MODE: Exiting

     General routines

     Parallel routines

   This run was terminated on:   2:49:11  16Sep2021

   JOB DONE.