     Program PWSCF v.6.7GPU starts on 28Sep2021 at  5:28:32

     R & G space division:  proc/nbgrp/npool/nimage =       8
     Reading input from /storage/home/hcoda1/3/ntian30/research/carbon/CxH_vib/H2O_calc/ads_slab/CH3OHN2H2O_a/out_0026/pw.inp
Warning: card &CELL ignored
Warning: card   CELL_DYNAMICS='IPI', ignored
Warning: card / ignored

     Current dimensions of program PWSCF are:
     Max number of different atomic species (ntypx) = 10
     Max number of k-points (npk) =  40000
     Max angular momentum in pseudopotentials (lmaxx) =  3
     Presently no symmetry can be used with electric field

     Message from routine cell_base_init:
     DEPRECATED: use true lattice parameter, not A to a.u. conversion factor

     IMPORTANT: XC functional enforced from input :
     Exchange-correlation= BEEF-VDW
                           (   1   4  43  14   2   0   0)
     Any further DFT definition will be discarded
     Please, verify this is what you really want

  @ DRIVER MODE: Connecting to
 qe_1139763_3000313.sched-torque.pace.gatech.eduqh4hwxc3_scratch
  using UNIX socket
  @ DRIVER MODE: Message from server: STATUS
  @ DRIVER MODE: Message from server: INIT
  @ DRIVER MODE: Receiving replica           0          -1
  @ DRIVER MODE: Receiving encoded integer          25
  @ DRIVER MODE:  SCF:  T  FORCE:  T  STRESS:  F  VC:  F  ENSEMBLE:  F
  @ DRIVER MODE:  SCF:  T  FORCE:  T  STRESS:  F  VC:  F  ENSEMBLE:  F

     Using Slab Decomposition

     bravais-lattice index     =            0
     lattice parameter (alat)  =       1.8897  a.u.
     unit-cell volume          =    6658.9804 (a.u.)^3
     number of atoms/cell      =           58
     number of atomic types    =            5
     number of electrons       =       410.00
     number of Kohn-Sham states=          215
     kinetic-energy cutoff     =      29.3995  Ry
     charge density cutoff     =     293.9946  Ry
     scf convergence threshold =      7.3E-08
     mixing beta               =       0.0500
     number of iterations used =            8  plain     mixing
     Exchange-correlation= BEEF-VDW
                           (   1   4  43  14   2   0   0)

     celldm(1)=   1.889726  celldm(2)=   0.000000  celldm(3)=   0.000000
     celldm(4)=   0.000000  celldm(5)=   0.000000  celldm(6)=   0.000000

     crystal axes: (cart. coord. in units of alat)
               a(1) = (   6.579727   0.000000   0.000000 )
               a(2) = (  -0.000775   5.961596   0.000000 )
               a(3) = (   0.000000   0.000000  25.155947 )

     reciprocal axes: (cart. coord. in units 2 pi/alat)
               b(1) = (  0.151982  0.000020  0.000000 )
               b(2) = (  0.000000  0.167740  0.000000 )
               b(3) = (  0.000000  0.000000  0.039752 )

     PseudoPot. # 1 for Ti read from file:
     /storage/coda1/p-amedford6/0/shared/rich_project_chbe-medford/medford-share/data/pseudos_module/espresso/nninc/pbe/van/Ti.UPF
     MD5 check sum: 8e4df49b7f0d34bbd5052bf3f5ea0213
     Pseudo is Ultrasoft, Zval = 12.0
     Generated by new atomic code, or converted to UPF format
     Using radial grid of  851 points,  6 beta functions with:
                l(1) =   0
                l(2) =   0
                l(3) =   1
                l(4) =   1
                l(5) =   2
                l(6) =   2
     Q(r) pseudized with  8 coefficients,  rinner =    1.000   1.000   1.000
                                                       1.000   1.000

     PseudoPot. # 2 for O  read from file:
     /storage/coda1/p-amedford6/0/shared/rich_project_chbe-medford/medford-share/data/pseudos_module/espresso/nninc/pbe/van/O.UPF
     MD5 check sum: 78c19812648e8988a0fe644b0f25305e
     Pseudo is Ultrasoft, Zval =  6.0
     Generated by new atomic code, or converted to UPF format
     Using radial grid of  737 points,  4 beta functions with:
                l(1) =   0
                l(2) =   0
                l(3) =   1
                l(4) =   1
     Q(r) pseudized with  8 coefficients,  rinner =    0.800   0.800   0.800

     PseudoPot. # 3 for C  read from file:
     /storage/coda1/p-amedford6/0/shared/rich_project_chbe-medford/medford-share/data/pseudos_module/espresso/nninc/pbe/van/C.UPF
     MD5 check sum: 1a69bf6b8db32088f5b2163dbdb77a27
     Pseudo is Ultrasoft, Zval =  4.0
     Generated by new atomic code, or converted to UPF format
     Using radial grid of  721 points,  4 beta functions with:
                l(1) =   0
                l(2) =   0
                l(3) =   1
                l(4) =   1
     Q(r) pseudized with  8 coefficients,  rinner =    0.800   0.800   0.800

     PseudoPot. # 4 for H  read from file:
     /storage/coda1/p-amedford6/0/shared/rich_project_chbe-medford/medford-share/data/pseudos_module/espresso/nninc/pbe/van/H.UPF
     MD5 check sum: b5ee9d7bfd3a09ee7748110bda690ff7
     Pseudo is Ultrasoft, Zval =  1.0
     Generated by new atomic code, or converted to UPF format
     Using radial grid of  615 points,  1 beta functions with:
                l(1) =   0
     Q(r) pseudized with  8 coefficients,  rinner =    0.800

     PseudoPot. # 5 for N  read from file:
     /storage/coda1/p-amedford6/0/shared/rich_project_chbe-medford/medford-share/data/pseudos_module/espresso/nninc/pbe/van/N.UPF
     MD5 check sum: 90d10febe142ad51ac9d5be1deb811c4
     Pseudo is Ultrasoft, Zval =  5.0
     Generated by new atomic code, or converted to UPF format
     Using radial grid of  729 points,  4 beta functions with:
                l(1) =   0
                l(2) =   0
                l(3) =   1
                l(4) =   1
     Q(r) pseudized with  8 coefficients,  rinner =    0.800   0.800   0.800

     atomic species   valence    mass     pseudopotential
        Ti1           12.00    47.86700     Ti( 1.00)
        O1             6.00    15.99900     O ( 1.00)
        C1             4.00    12.01100     C ( 1.00)
        H1             1.00     1.00800     H ( 1.00)
        N1             5.00    14.00700     N ( 1.00)

     No symmetry found

   Cartesian axes

     site n.     atom                  positions (alat units)
         1           Ti1 tau(   1) = (   0.0004258   2.9801865   6.0000000  )
         2           Ti1 tau(   2) = (   3.2906075   1.4906267   6.0002472  )
         3           O1  tau(   3) = (   0.0006271   0.0005054   7.9858123  )
         4           O1  tau(   4) = (   3.2906025   0.0005020   7.3038282  )
         5           O1  tau(   5) = (   4.5942328   1.4918067   9.2879030  )
         6           O1  tau(   6) = (   1.9868534   1.4903216   9.2879459  )
         7           Ti1 tau(   7) = (   3.3250738   2.9918783   9.1599549  )
         8           Ti1 tau(   8) = (   0.0412716   1.4903975   9.2658274  )
         9           O1  tau(   9) = (   3.2852344   0.0116916  11.3753809  )
        10           O1  tau(  10) = (   6.5701620   0.0027176  10.6052010  )
        11           O1  tau(  11) = (   1.2758103   1.4969824  12.6410148  )
        12           O1  tau(  12) = (   5.2796941   1.4985041  12.6691897  )
        13           Ti1 tau(  13) = (   6.5531116   2.9870417  12.5348353  )
        14           Ti1 tau(  14) = (   3.2504356   1.4995581  12.5215122  )
        15           O1  tau(  15) = (   0.0383206   0.0046779  14.6787597  )
        16           O1  tau(  16) = (   3.2537876   0.0095675  14.0320577  )
        17           O1  tau(  17) = (   4.5855444   1.5609978  16.0639115  )
        18           O1  tau(  18) = (   2.0343745   1.5440679  16.2001998  )
        19           Ti1 tau(  19) = (   3.3058624   3.0043567  15.7064231  )
        20           Ti1 tau(  20) = (   6.5549511   1.4266458  15.8675638  )
        21           O1  tau(  21) = (   3.2904802   0.0005063   4.7018136  )
        22           O1  tau(  22) = (   6.4974171   0.0126247  17.2237355  )
        23           O1  tau(  23) = (   1.3043587   1.4918075   6.0039043  )
        24           O1  tau(  24) = (   5.2767064   1.4903225   6.0039473  )
        25           Ti1 tau(  25) = (   0.0000382   5.9609847   6.0000000  )
        26           Ti1 tau(  26) = (   3.2902200   4.4714249   6.0002472  )
        27           O1  tau(  27) = (   0.0002396   2.9813036   7.9858123  )
        28           O1  tau(  28) = (   3.2902150   2.9813002   7.3038282  )
        29           O1  tau(  29) = (   4.5938453   4.4726049   9.2879030  )
        30           O1  tau(  30) = (   1.9864658   4.4711199   9.2879459  )
        31           Ti1 tau(  31) = (   3.3194574   0.0113313   9.1541029  )
        32           Ti1 tau(  32) = (   0.0414074   4.4589881   9.2683624  )
        33           O1  tau(  33) = (   3.2821265   2.9896323  11.3676027  )
        34           O1  tau(  34) = (   6.5712111   2.9825298  10.6251173  )
        35           O1  tau(  35) = (   1.2751242   4.4805681  12.6359318  )
        36           O1  tau(  36) = (   5.2791817   4.4782367  12.6627471  )
        37           Ti1 tau(  37) = (   6.5506445   0.0032150  12.4806913  )
        38           Ti1 tau(  38) = (   3.2507345   4.4881811  12.5195668  )
        39           O1  tau(  39) = (   0.0469291   2.9928743  14.8464778  )
        40           O1  tau(  40) = (   3.2514374   2.9975957  13.9281162  )
        41           O1  tau(  41) = (   4.5866068   4.4203933  16.0984022  )
        42           O1  tau(  42) = (   2.0418857   4.4579080  16.2200674  )
        43           Ti1 tau(  43) = (   3.2648600   0.0292614  15.8571223  )
        44           Ti1 tau(  44) = (   6.5763064   4.6169283  15.9626260  )
        45           O1  tau(  45) = (   3.2900926   2.9813045   4.7018136  )
        46           O1  tau(  46) = (   1.3039711   4.4726057   6.0039043  )
        47           O1  tau(  47) = (   5.2763189   4.4711207   6.0039473  )
        48           C1  tau(  48) = (   6.0301898   2.9050411  18.9351799  )
        49           O1  tau(  49) = (   0.1575529   2.9516393  17.6723866  )
        50           H1  tau(  50) = (   4.9714676   2.8818909  18.6991823  )
        51           H1  tau(  51) = (   1.1132637   2.8218831  17.8130049  )
        52           H1  tau(  52) = (   6.3085093   1.9952365  19.4696065  )
        53           H1  tau(  53) = (   6.2732381   3.7939772  19.5169533  )
        54           N1  tau(  54) = (   4.8840950   3.1052494  22.6850861  )
        55           N1  tau(  55) = (   4.2680757   3.3403818  21.7970487  )
        56           O1  tau(  56) = (   3.8772584   0.1141246  18.3039653  )
        57           H1  tau(  57) = (   4.8407149   0.0692883  18.0716375  )
        58           H1  tau(  58) = (   3.6680196   5.2122673  18.6877519  )

     number of k points=    10  Fermi-Dirac smearing, width (Ry)=  0.0073
                       cart. coord. in units 2pi/alat
        k(    1) = (   0.0000000   0.0000000   0.0000000), wk =   0.1250000
        k(    2) = (   0.0000000   0.0419351   0.0000000), wk =   0.2500000
        k(    3) = (   0.0000000  -0.0838702   0.0000000), wk =   0.1250000
        k(    4) = (   0.0379955   0.0000049   0.0000000), wk =   0.2500000
        k(    5) = (   0.0379955   0.0419400   0.0000000), wk =   0.2500000
        k(    6) = (   0.0379955  -0.0838652   0.0000000), wk =   0.2500000
        k(    7) = (   0.0379955  -0.0419301   0.0000000), wk =   0.2500000
        k(    8) = (  -0.0759910  -0.0000099   0.0000000), wk =   0.1250000
        k(    9) = (  -0.0759910   0.0419252   0.0000000), wk =   0.2500000
        k(   10) = (  -0.0759910  -0.0838800   0.0000000), wk =   0.1250000

     Initial potential from superposition of free atoms

     starting charge  393.99913, renormalised to  410.00000

     negative rho (up, down):  9.553E-03 0.000E+00

     %%%%%%%%%%%%%%%%%%%%%%%%%%%%%%%%%%%%%%%%%%%%%%%%%%%%%%%%%%%%%%%%%%%%%%%%
     %                                                                      %
     % You are using vdW-DF, which was implemented by the Thonhauser group. %
     % Please cite the following two papers that made this development      %
     % possible and the two reviews that describe the various versions:     %
     %                                                                      %
     %   T. Thonhauser et al., PRL 115, 136402 (2015).                      %
     %   T. Thonhauser et al., PRB 76, 125112 (2007).                       %
     %   K. Berland et al., Rep. Prog. Phys. 78, 066501 (2015).             %
     %   D.C. Langreth et al., J. Phys.: Condens. Matter 21, 084203 (2009). %
     %                                                                      %
     %                                                                      %
     % If you are calculating the stress with vdW-DF, please also cite:     %
     %                                                                      %
     %   R. Sabatini et al., J. Phys.: Condens. Matter 24, 424209 (2012).   %
     %                                                                      %
     %%%%%%%%%%%%%%%%%%%%%%%%%%%%%%%%%%%%%%%%%%%%%%%%%%%%%%%%%%%%%%%%%%%%%%%%

     Adding external electric field

     Computed dipole along edir(3) :
        Dipole              -20.0784 Ry au,        -51.0342 Debye
        Dipole field         -0.0379 Ry au,

        Potential amp.        3.5124 Ry
        Total length         46.3494 bohr

     Starting wfcs are  310 atomic wfcs
  @ DRIVER MODE: Message from server: STATUS
  @ DRIVER MODE: Message from server: POSDATA
  @ DRIVER MODE: Reading and sharing cell
  @ DRIVER MODE: Reading and sharing positions
  @ DRIVER MODE: Received positions

     Self-consistent Calculation

     iteration #  1     ecut=    29.40 Ry     beta= 0.05
     Davidson diagonalization with overlap
     c_bands:  1 eigenvalues not converged
     c_bands:  1 eigenvalues not converged
     c_bands:  5 eigenvalues not converged
     c_bands:  1 eigenvalues not converged
     c_bands:  4 eigenvalues not converged
     c_bands:  3 eigenvalues not converged
     ethr =  1.00E-05,  avg # of iterations = 32.1

[...]

     total energy              =   -2098.61816273 Ry
     estimated scf accuracy    <   10668.29688659 Ry

     iteration #  2     ecut=    29.40 Ry     beta= 0.05
     Davidson diagonalization with overlap
     ethr =  1.00E-02,  avg # of iterations = 31.0

[...]

     iteration # 73     ecut=    29.40 Ry     beta= 0.05
     Davidson diagonalization with overlap
     ethr =  3.88E-11,  avg # of iterations =  5.8

[...]

     total energy              =   -3007.66318467 Ry
     estimated scf accuracy    <       0.00000008 Ry

     iteration # 74     ecut=    29.40 Ry     beta= 0.05
     Davidson diagonalization with overlap
     c_bands:  1 eigenvalues not converged
     ethr =  1.96E-11,  avg # of iterations = 13.7

     negative rho (up, down):  1.050E-02 0.000E+00

     Adding external electric field

     Computed dipole along edir(3) :
        Dipole                1.2322 Ry au,          3.1319 Debye
        Dipole field          0.0023 Ry au,

        Potential amp.       -0.2156 Ry
        Total length         46.3494 bohr

     End of self-consistent calculation

          k = 0.0000 0.0000 0.0000 ( 18029 PWs)   bands (ev):

   -54.9345 -54.9105 -54.8985 -54.8761 -54.8614 -54.8559 -54.8290 -54.8095
   -54.7815 -54.7786 -54.7441 -54.7238 -54.6922 -54.6898 -53.9987 -53.9646
   -31.5003 -31.4743 -31.4062 -31.3136 -31.2542 -31.2486 -31.2367 -31.2347
   -31.1991 -31.1648 -31.1556 -31.1532 -31.1490 -31.1259 -31.1192 -31.1133
   -31.0969 -31.0782 -31.0723 -31.0708 -31.0639 -31.0561 -31.0332 -31.0270
   -31.0269 -31.0210 -31.0062 -31.0040 -31.0029 -30.9670 -30.9501 -30.9300
   -30.9285 -30.9276 -30.9191 -30.9182 -30.9081 -30.8777 -30.8636 -30.8594
   -30.8547 -30.8354 -30.4107 -30.3083 -30.2867 -30.2268 -30.1405 -30.0295
   -21.6258 -19.8083 -18.2755 -15.7677 -15.5216 -15.3824 -15.2850 -15.1613
   -15.0312 -14.9573 -14.8369 -14.7650 -14.6713 -14.6578 -14.6396 -14.6181
   -14.5849 -14.5589 -14.5019 -14.4967 -14.4422 -14.4387 -14.4280 -14.4173
   -14.3843 -14.3687 -14.3380 -14.3287 -14.1664 -14.1006 -14.0410 -13.8971
   -12.4995 -12.3801 -10.8183  -6.8764  -6.5526  -6.0332  -4.8574  -4.7821
    -4.7248  -4.6275  -3.5485  -3.1014  -2.9499  -2.9159  -2.8933  -2.8706
    -2.7476  -2.6557  -2.6274  -2.4664  -2.3718  -2.2369  -2.2095  -2.1771
    -2.1392  -2.0708  -2.0147  -1.9283  -1.8986  -1.8585  -1.8385  -1.8147
    -1.7998  -1.7730  -1.7427  -1.6710  -1.6330  -1.5481  -1.5316  -1.4424
    -1.3917  -1.3834  -1.3403  -1.2773  -1.2739  -1.2633  -1.2232  -1.2092
    -1.2013  -1.1910  -1.1842  -1.0240  -0.9780  -0.9437  -0.8209  -0.7107
    -0.6185  -0.6078  -0.5051  -0.4917  -0.4289  -0.4243  -0.3845  -0.3450
    -0.2829  -0.1864  -0.1285  -0.0822  -0.0690   0.0417   0.1074   0.1220
     0.1833   0.2587   0.2739   0.2954   0.3246   0.4117   0.4796   0.5215
     0.5558   0.6208   0.6305   0.6778   0.7068   0.7477   0.8334   0.8872
     0.8908   0.9778   0.9950   1.0083   1.0336   1.0392   1.1373   1.1712
     1.2155   1.2435   1.3947   1.4298   1.6210   1.6566   1.9167   2.0152
     2.0270   2.1883   2.6129   2.6675   4.1554   4.2233   4.2599   4.2671
     4.2818   4.3614   4.6438   4.6508   4.6636   4.6755   4.6834

[...]

          k = 0.0380-0.0419 0.0000 ( 17876 PWs)   bands (ev):

[...]

          k =-0.0760-0.0000 0.0000 ( 17886 PWs)   bands (ev):

[...]

          k =-0.0760-0.0839 0.0000 ( 17948 PWs)   bands (ev):

   -54.9174 -54.9154 -54.8949 -54.8915 -54.8565 -54.8513 -54.8218 -54.8170
   -54.7888 -54.7636 -54.7588 -54.7082 -54.7054 -54.6939 -53.9816 -53.9816
   -31.3870 -31.3092 -31.2990 -31.2227 -31.2194 -31.1972 -31.1898 -31.1878
   -31.1810 -31.1584 -31.1437 -31.1419 -31.1342 -31.1282 -31.1093 -31.0952
   -31.0796 -31.0776 -31.0689 -31.0676 -31.0658 -31.0648 -31.0592 -31.0537
   -31.0289 -31.0236 -31.0196 -31.0142 -31.0139 -31.0114 -31.0106 -31.0102
   -31.0099 -30.9812 -30.9725 -30.9616 -30.9604 -30.9333 -30.9309 -30.8951
   -30.8919 -30.8772 -30.2993 -30.2993 -30.2235 -30.2231 -30.1838 -30.1836
   -21.6257 -19.8047 -18.2744 -15.3427 -15.2294 -15.0635 -14.9550 -14.9453
   -14.9168 -14.8577 -14.8146 -14.7834 -14.7433 -14.7330 -14.7037 -14.6857
   -14.6804 -14.6228 -14.5388 -14.5331 -14.5194 -14.4841 -14.4569 -14.4429
   -14.4409 -14.4266 -14.3896 -14.3877 -14.3685 -14.3574 -14.3010 -14.2090
   -12.4814 -12.4809 -10.8209  -6.8755  -6.5548  -6.0356  -4.8548  -4.7892
    -4.7192  -4.6142  -3.5401  -2.7691  -2.5425  -2.4969  -2.4240  -2.2580
    -2.1783  -2.1575  -2.0818  -2.0578  -2.0224  -1.9440  -1.9402  -1.9063
    -1.8663  -1.8417  -1.8359  -1.8178  -1.7994  -1.7664  -1.7457  -1.7242
    -1.7109  -1.6957  -1.6491  -1.6402  -1.6044  -1.6008  -1.5861  -1.5743
    -1.5552  -1.5443  -1.4631  -1.4358  -1.3947  -1.3083  -1.2924  -1.1627
    -1.1571  -1.1093  -1.0747  -1.0362  -1.0173  -0.9961  -0.9712  -0.9400
    -0.9087  -0.7369  -0.7158  -0.6729  -0.6218  -0.6158  -0.5426  -0.5268
    -0.4724  -0.4402  -0.3508  -0.3096  -0.2700  -0.1614  -0.1345  -0.1222
     0.0160   0.0218   0.0672   0.0688   0.1109   0.1494   0.1616   0.1689
     0.2437   0.2762   0.3126   0.3386   0.3622   0.5403   0.5765   0.6353
     0.7247   0.7429   0.9213   0.9515   0.9955   1.0764   1.1379   1.1917
     1.2139   1.3220   1.3299   1.3532   1.4447   1.4932   1.4945   1.5244
     2.3782   2.3812   2.4820   2.4847   4.2797   4.4106   4.4168   4.4967
     4.5705   4.6633   4.6657   4.6781   4.7082   4.7181   4.7199

     the Fermi energy is     4.2114 ev

!    total energy              =   -3007.66320005 Ry
     estimated scf accuracy    <       0.00000006 Ry
     smearing contrib. (-TS)   =      -0.03684570 Ry
     internal energy E=F+TS    =   -3007.62635435 Ry

     The total energy is F=E-TS. E is the sum of the following terms:
     one-electron contribution =  -22339.07398789 Ry
     hartree contribution      =   11271.33151699 Ry
     xc contribution           =    -502.07914611 Ry
     ewald contribution        =    8562.19239740 Ry
     electric field correction =       0.00286525 Ry

     convergence has been achieved in  74 iterations

     Forces acting on atoms (cartesian axes, Ry/au):

     atom    1 type  1   force =    -0.00027243   -0.00000567    0.09251923
     atom    2 type  1   force =    -0.00013694    0.00114042   -0.18321906
     atom    3 type  2   force =     0.00055113   -0.00040270   -0.02388536
     atom    4 type  2   force =     0.00079698    0.00021094    0.05086203
     atom    5 type  2   force =    -0.01548727   -0.00014384    0.00437795
     atom    6 type  2   force =     0.01420385   -0.00032776    0.00506163
     atom    7 type  1   force =    -0.00011452    0.00020371    0.00004307
     atom    8 type  1   force =    -0.00006347    0.00017102   -0.00001266
     atom    9 type  2   force =     0.00006918    0.00004188    0.00013982
     atom   10 type  2   force =     0.00000009    0.00001763   -0.00004731
     atom   11 type  2   force =     0.00017951    0.00001335   -0.00013007
     atom   12 type  2   force =     0.00003299    0.00003670   -0.00005619
     atom   13 type  1   force =     0.00017741    0.00011322   -0.00003912
     atom   14 type  1   force =     0.00026934    0.00016117   -0.00012036
     atom   15 type  2   force =     0.00027753    0.00040337    0.00000329
     atom   16 type  2   force =     0.00015495   -0.00001774    0.00017301
     atom   17 type  2   force =     0.00000860    0.00013721    0.00011409
     atom   18 type  2   force =     0.00018080    0.00002519    0.00028273
     atom   19 type  1   force =     0.00007254   -0.00015217    0.00004667
     atom   20 type  1   force =     0.00018407   -0.00006443   -0.00020037
     atom   21 type  2   force =     0.00003061    0.00001624    0.10489339
     atom   22 type  2   force =    -0.00023777   -0.00002173    0.00012884
     atom   23 type  2   force =    -0.06801791   -0.00011261   -0.02683146
     atom   24 type  2   force =     0.06788168    0.00034024   -0.02687248
     atom   25 type  1   force =    -0.00012220   -0.00003170    0.09598312
     atom   26 type  1   force =    -0.00011396   -0.00143805   -0.18313312
     atom   27 type  2   force =     0.00050062   -0.00019720   -0.02268957
     atom   28 type  2   force =     0.00086520    0.00017949    0.05125704
     atom   29 type  2   force =    -0.01540516    0.00050180    0.00454911
     atom   30 type  2   force =     0.01415607    0.00077909    0.00525026
     atom   31 type  1   force =    -0.00010267    0.00005369   -0.00001302
     atom   32 type  1   force =    -0.00006728    0.00016314   -0.00005561
     atom   33 type  2   force =     0.00012790   -0.00002855    0.00018816
     atom   34 type  2   force =    -0.00000049    0.00007162    0.00003653
     atom   35 type  2   force =     0.00013770   -0.00000290   -0.00002696
     atom   36 type  2   force =     0.00007439   -0.00000379    0.00009664
     atom   37 type  1   force =     0.00016292    0.00006292   -0.00011525
     atom   38 type  1   force =     0.00015730   -0.00003336    0.00002614
     atom   39 type  2   force =     0.00016770   -0.00008701   -0.00020428
     atom   40 type  2   force =     0.00002723   -0.00018162    0.00002661
     atom   41 type  2   force =     0.00020665   -0.00000491    0.00005070
     atom   42 type  2   force =    -0.00004299    0.00001199    0.00011254
     atom   43 type  1   force =    -0.00003450   -0.00018955    0.00109958
     atom   44 type  1   force =     0.00008567    0.00009165    0.00032652
     atom   45 type  2   force =     0.00003539    0.00001893    0.10482282
     atom   46 type  2   force =    -0.06802706   -0.00050790   -0.02681939
     atom   47 type  2   force =     0.06788778   -0.00008967   -0.02689963
     atom   48 type  3   force =     0.00254480   -0.00237570    0.00119675
     atom   49 type  2   force =    -0.00039970    0.00048862   -0.00064325
     atom   50 type  4   force =     0.00011267   -0.00140737    0.00060942
     atom   51 type  4   force =     0.00005799   -0.00008921    0.00007660
     atom   52 type  4   force =    -0.00231619    0.00199681   -0.00105185
     atom   53 type  4   force =    -0.00003103    0.00045911   -0.00029915
     atom   54 type  5   force =    -0.00083137   -0.00000194   -0.00094459
     atom   55 type  5   force =     0.00027898   -0.00004315    0.00008115
     atom   56 type  2   force =     0.00127219    0.00059082   -0.00081797
     atom   57 type  4   force =    -0.00098893   -0.00041833    0.00025043
     atom   58 type  4   force =    -0.00111654   -0.00012143    0.00044220

     Total force =     0.368160     Total SCF correction =     0.000860
  @ DRIVER MODE: Message from server: STATUS
  @ DRIVER MODE: Message from server: GETFORCE
  @ DRIVER MODE: Returning v,forces,stress,ensemble

     Writing output data file ./calc.save/
  @ DRIVER MODE: Message from server: EXIT
  @ DRIVE MODE: Exiting

     General routines

     Parallel routines

   This run was terminated on:   5:55: 8  28Sep2021

   JOB DONE.