     Program PWSCF v.6.7GPU starts on 20Jul2021 at 12:46: 9

     R & G space division:  proc/nbgrp/npool/nimage =      16
     Reading input from /storage/home/hcoda1/3/ntian30/research/carbon/15Jul_vib/ads_slab/CH3NHH_a/out_0010/pw.inp
Warning: card &CELL ignored
Warning: card   CELL_DYNAMICS='IPI', ignored
Warning: card / ignored

     Current dimensions of program PWSCF are:
     Max number of different atomic species (ntypx) = 10
     Max number of k-points (npk) =  40000
     Max angular momentum in pseudopotentials (lmaxx) =  3
     Presently no symmetry can be used with electric field

     Message from routine cell_base_init:
     DEPRECATED: use true lattice parameter, not A to a.u. conversion factor

     IMPORTANT: XC functional enforced from input :
     Exchange-correlation= BEEF-VDW
                           (   1   4  43  14   2   0   0)
     Any further DFT definition will be discarded
     Please, verify this is what you really want

  @ DRIVER MODE: Connecting to
 qe_1139763_2382402.sched-torque.pace.gatech.edul0cyh08a_scratch
  using UNIX socket
  @ DRIVER MODE: Message from server: STATUS
  @ DRIVER MODE: Message from server: INIT
  @ DRIVER MODE: Receiving replica           0          -1
  @ DRIVER MODE: Receiving encoded integer          25
  @ DRIVER MODE:  SCF:  T  FORCE:  T  STRESS:  F  VC:  F  ENSEMBLE:  F
  @ DRIVER MODE:  SCF:  T  FORCE:  T  STRESS:  F  VC:  F  ENSEMBLE:  F

     Using Slab Decomposition

     bravais-lattice index     =            0
     lattice parameter (alat)  =       1.8897  a.u.
     unit-cell volume          =    6658.9804 (a.u.)^3
     number of atoms/cell      =           54
     number of atomic types    =            5
     number of electrons       =       392.00
     number of Kohn-Sham states=          206
     kinetic-energy cutoff     =      29.3995  Ry
     charge density cutoff     =     293.9946  Ry
     scf convergence threshold =      7.3E-08
     mixing beta               =       0.0500
     number of iterations used =            8  plain     mixing
     Exchange-correlation= BEEF-VDW
                           (   1   4  43  14   2   0   0)

     celldm(1)=   1.889726  celldm(2)=   0.000000  celldm(3)=   0.000000
     celldm(4)=   0.000000  celldm(5)=   0.000000  celldm(6)=   0.000000

     crystal axes: (cart. coord. in units of alat)
               a(1) = (   6.579727   0.000000   0.000000 )
               a(2) = (  -0.000775   5.961596   0.000000 )
               a(3) = (   0.000000   0.000000  25.155947 )

     reciprocal axes: (cart. coord. in units 2 pi/alat)
               b(1) = (  0.151982  0.000020  0.000000 )
               b(2) = (  0.000000  0.167740  0.000000 )
               b(3) = (  0.000000  0.000000  0.039752 )

     PseudoPot. # 1 for Ti read from file:
     /storage/coda1/p-amedford6/0/shared/rich_project_chbe-medford/medford-share/data/pseudos_module/espresso/nninc/pbe/van/Ti.UPF
     MD5 check sum: 8e4df49b7f0d34bbd5052bf3f5ea0213
     Pseudo is Ultrasoft, Zval = 12.0
     Generated by new atomic code, or converted to UPF format
     Using radial grid of  851 points,  6 beta functions with:
                l(1) =   0
                l(2) =   0
                l(3) =   1
                l(4) =   1
                l(5) =   2
                l(6) =   2
     Q(r) pseudized with  8 coefficients,  rinner =    1.000   1.000   1.000
                                                       1.000   1.000

     PseudoPot. # 2 for O  read from file:
     /storage/coda1/p-amedford6/0/shared/rich_project_chbe-medford/medford-share/data/pseudos_module/espresso/nninc/pbe/van/O.UPF
     MD5 check sum: 78c19812648e8988a0fe644b0f25305e
     Pseudo is Ultrasoft, Zval =  6.0
     Generated by new atomic code, or converted to UPF format
     Using radial grid of  737 points,  4 beta functions with:
                l(1) =   0
                l(2) =   0
                l(3) =   1
                l(4) =   1
     Q(r) pseudized with  8 coefficients,  rinner =    0.800   0.800   0.800

     PseudoPot. # 3 for N  read from file:
     /storage/coda1/p-amedford6/0/shared/rich_project_chbe-medford/medford-share/data/pseudos_module/espresso/nninc/pbe/van/N.UPF
     MD5 check sum: 90d10febe142ad51ac9d5be1deb811c4
     Pseudo is Ultrasoft, Zval =  5.0
     Generated by new atomic code, or converted to UPF format
     Using radial grid of  729 points,  4 beta functions with:
                l(1) =   0
                l(2) =   0
                l(3) =   1
                l(4) =   1
     Q(r) pseudized with  8 coefficients,  rinner =    0.800   0.800   0.800

     PseudoPot. # 4 for C  read from file:
     /storage/coda1/p-amedford6/0/shared/rich_project_chbe-medford/medford-share/data/pseudos_module/espresso/nninc/pbe/van/C.UPF
     MD5 check sum: 1a69bf6b8db32088f5b2163dbdb77a27
     Pseudo is Ultrasoft, Zval =  4.0
     Generated by new atomic code, or converted to UPF format
     Using radial grid of  721 points,  4 beta functions with:
                l(1) =   0
                l(2) =   0
                l(3) =   1
                l(4) =   1
     Q(r) pseudized with  8 coefficients,  rinner =    0.800   0.800   0.800

     PseudoPot. # 5 for H  read from file:
     /storage/coda1/p-amedford6/0/shared/rich_project_chbe-medford/medford-share/data/pseudos_module/espresso/nninc/pbe/van/H.UPF
     MD5 check sum: b5ee9d7bfd3a09ee7748110bda690ff7
     Pseudo is Ultrasoft, Zval =  1.0
     Generated by new atomic code, or converted to UPF format
     Using radial grid of  615 points,  1 beta functions with:
                l(1) =   0
     Q(r) pseudized with  8 coefficients,  rinner =    0.800

     atomic species   valence    mass     pseudopotential
        Ti1           12.00    47.86700     Ti( 1.00)
        O1             6.00    15.99900     O ( 1.00)
        N1             5.00    14.00700     N ( 1.00)
        C1             4.00    12.01100     C ( 1.00)
        H1             1.00     1.00800     H ( 1.00)

     Starting magnetic structure
     atomic species   magnetization
        Ti1          0.000
        O1           0.000
        N1           0.000
        C1           0.025
        H1           0.000

     No symmetry found

   Cartesian axes

     site n.     atom                  positions (alat units)
         1           Ti1 tau(   1) = (   0.0004258   2.9801865   6.0000000  )
         2           Ti1 tau(   2) = (   3.2906075   1.4906267   6.0002472  )
         3           O1  tau(   3) = (   0.0006271   0.0005054   7.9858123  )
         4           O1  tau(   4) = (   3.2906025   0.0005020   7.3038282  )
         5           O1  tau(   5) = (   4.5942328   1.4918067   9.2879030  )
         6           O1  tau(   6) = (   1.9868534   1.4903216   9.2879459  )
         7           Ti1 tau(   7) = (   3.2907910   2.8959150   9.1758416  )
         8           Ti1 tau(   8) = (   0.0015273   1.4827037   9.2680791  )
         9           O1  tau(   9) = (   3.2893523   5.9576907  11.3759447  )
        10           O1  tau(  10) = (   0.0116148   5.9584955  10.6183126  )
        11           O1  tau(  11) = (   1.2892553   1.4862333  12.6941169  )
        12           O1  tau(  12) = (   5.2958346   1.4833122  12.6807028  )
        13           Ti1 tau(  13) = (   0.0095698   2.9692159  12.5083673  )
        14           Ti1 tau(  14) = (   3.3108451   1.4743585  12.5306019  )
        15           O1  tau(  15) = (   6.5736105   5.8801748  14.6991865  )
        16           O1  tau(  16) = (   3.2979610   5.9450902  14.0010558  )
        17           O1  tau(  17) = (   4.5273680   1.5185660  16.1654609  )
        18           O1  tau(  18) = (   2.0122787   1.5163527  16.1384539  )
        19           Ti1 tau(  19) = (   3.2802752   2.9921964  15.7561315  )
        20           Ti1 tau(  20) = (   0.0093588   1.3049760  15.8672178  )
        21           O1  tau(  21) = (   3.2904802   0.0005063   4.7018136  )
        22           O1  tau(  22) = (   6.5538635   0.1342075  17.2452287  )
        23           O1  tau(  23) = (   1.3043587   1.4918075   6.0039043  )
        24           O1  tau(  24) = (   5.2767064   1.4903225   6.0039473  )
        25           Ti1 tau(  25) = (   0.0000382   5.9609847   6.0000000  )
        26           Ti1 tau(  26) = (   3.2902200   4.4714249   6.0002472  )
        27           O1  tau(  27) = (   0.0002396   2.9813036   7.9858123  )
        28           O1  tau(  28) = (   3.2902150   2.9813002   7.3038282  )
        29           O1  tau(  29) = (   4.5938453   4.4726049   9.2879030  )
        30           O1  tau(  30) = (   1.9864658   4.4711199   9.2879459  )
        31           Ti1 tau(  31) = (   3.2891106   5.8743827   9.1763621  )
        32           Ti1 tau(  32) = (   0.0006254   4.4649316   9.2693709  )
        33           O1  tau(  33) = (   3.2933707   2.9638296  11.3700534  )
        34           O1  tau(  34) = (   0.0092240   2.9805883  10.6323155  )
        35           O1  tau(  35) = (   1.2923283   4.4540072  12.6594629  )
        36           O1  tau(  36) = (   5.2938616   4.4568750  12.6477176  )
        37           Ti1 tau(  37) = (   0.0202681   5.9396231  12.5027719  )
        38           Ti1 tau(  38) = (   3.3116628   4.4527548  12.5215617  )
        39           O1  tau(  39) = (   6.5466975   3.0260875  14.9671898  )
        40           O1  tau(  40) = (   3.2966604   2.9917109  13.9679302  )
        41           O1  tau(  41) = (   4.5116687   4.4737236  16.2360857  )
        42           O1  tau(  42) = (   2.0028912   4.4646324  16.2202640  )
        43           Ti1 tau(  43) = (   3.2937213   0.0113368  15.7972781  )
        44           Ti1 tau(  44) = (   0.0208052   4.5175143  16.0574476  )
        45           O1  tau(  45) = (   3.2900926   2.9813045   4.7018136  )
        46           O1  tau(  46) = (   1.3039711   4.4726057   6.0039043  )
        47           O1  tau(  47) = (   5.2763189   4.4711207   6.0039473  )
        48           N1  tau(  48) = (   6.3337458   3.3624127  18.1270434  )
        49           C1  tau(  49) = (   0.8795605   3.2739204  19.0799812  )
        50           H1  tau(  50) = (   1.4196110   4.2071110  19.0760701  )
        51           H1  tau(  51) = (   0.5395241   3.0459488  20.0957609  )
        52           H1  tau(  52) = (   1.5475163   2.4696122  18.7548312  )
        53           H1  tau(  53) = (   5.6940081   4.0973896  18.4182617  )
        54           H1  tau(  54) = (   5.7906660   2.4998151  18.1411682  )

     number of k points=    10  Fermi-Dirac smearing, width (Ry)=  0.0073
                       cart. coord. in units 2pi/alat
        k(    1) = (   0.0000000   0.0000000   0.0000000), wk =   0.0625000
        k(    2) = (   0.0000000   0.0419351   0.0000000), wk =   0.1250000
        k(    3) = (   0.0000000  -0.0838702   0.0000000), wk =   0.0625000
        k(    4) = (   0.0379955   0.0000049   0.0000000), wk =   0.1250000
        k(    5) = (   0.0379955   0.0419400   0.0000000), wk =   0.1250000
        k(    6) = (   0.0379955  -0.0838652   0.0000000), wk =   0.1250000
        k(    7) = (   0.0379955  -0.0419301   0.0000000), wk =   0.1250000
[...]
        k(   10) = (  -0.0759910  -0.0838800   0.0000000), wk =   0.0625000

     Initial potential from superposition of free atoms

     starting charge  375.99915, renormalised to  392.00000

     negative rho (up, down):  8.110E-03 8.116E-03

     %%%%%%%%%%%%%%%%%%%%%%%%%%%%%%%%%%%%%%%%%%%%%%%%%%%%%%%%%%%%%%%%%%%%%%%%
     %                                                                      %
     % You are using vdW-DF, which was implemented by the Thonhauser group. %
     % Please cite the following two papers that made this development      %
     % possible and the two reviews that describe the various versions:     %
     %                                                                      %
     %   T. Thonhauser et al., PRL 115, 136402 (2015).                      %
     %   T. Thonhauser et al., PRB 76, 125112 (2007).                       %
     %   K. Berland et al., Rep. Prog. Phys. 78, 066501 (2015).             %
     %   D.C. Langreth et al., J. Phys.: Condens. Matter 21, 084203 (2009). %
     %                                                                      %
     %                                                                      %
     % If you are calculating the stress with vdW-DF, please also cite:     %
     %                                                                      %
     %   R. Sabatini et al., J. Phys.: Condens. Matter 24, 424209 (2012).   %
     %                                                                      %
     %%%%%%%%%%%%%%%%%%%%%%%%%%%%%%%%%%%%%%%%%%%%%%%%%%%%%%%%%%%%%%%%%%%%%%%%

     Adding external electric field

     Computed dipole along edir(3) :
        Dipole               -7.5471 Ry au,        -19.1827 Debye
        Dipole field         -0.0142 Ry au,

        Potential amp.        1.3202 Ry
        Total length         46.3494 bohr

[...]

     Starting wfcs are  297 atomic wfcs
  @ DRIVER MODE: Message from server: STATUS
  @ DRIVER MODE: Message from server: POSDATA
  @ DRIVER MODE: Reading and sharing cell
  @ DRIVER MODE: Reading and sharing positions
  @ DRIVER MODE: Received positions

     Self-consistent Calculation

     iteration #  1     ecut=    29.40 Ry     beta= 0.05
     Davidson diagonalization with overlap
     c_bands:  1 eigenvalues not converged
     c_bands:  2 eigenvalues not converged
     c_bands:  1 eigenvalues not converged
     c_bands:  1 eigenvalues not converged
     c_bands:  1 eigenvalues not converged
     c_bands:  1 eigenvalues not converged
     c_bands:  1 eigenvalues not converged
     c_bands:  2 eigenvalues not converged
     c_bands:  1 eigenvalues not converged
     c_bands:  1 eigenvalues not converged
     c_bands:  1 eigenvalues not converged
     c_bands:  1 eigenvalues not converged
     ethr =  1.00E-05,  avg # of iterations = 19.6

[...]

     total energy              =   -2679.38584035 Ry
     estimated scf accuracy    <    2680.76432207 Ry

     total magnetization       =     0.00 Bohr mag/cell
     absolute magnetization    =     0.01 Bohr mag/cell

[...]

     iteration #  3     ecut=    29.40 Ry     beta= 0.05
     Davidson diagonalization with overlap
     ethr =  1.00E-02,  avg # of iterations = 15.4

[...]

     iteration #192     ecut=    29.40 Ry     beta= 0.05
     Davidson diagonalization with overlap
     c_bands:  1 eigenvalues not converged
     c_bands:  1 eigenvalues not converged
     c_bands:  1 eigenvalues not converged
     ethr =  1.90E-11,  avg # of iterations = 11.6

[...]

     total energy              =   -2921.63308113 Ry
     estimated scf accuracy    <       0.00000008 Ry

[...]

     iteration #193     ecut=    29.40 Ry     beta= 0.05
     Davidson diagonalization with overlap
     ethr =  1.90E-11,  avg # of iterations =  3.9

     negative rho (up, down):  8.573E-03 8.577E-03

[...]

     Adding external electric field

     Computed dipole along edir(3) :
        Dipole                1.2971 Ry au,          3.2969 Debye
        Dipole field          0.0024 Ry au,

        Potential amp.       -0.2269 Ry
        Total length         46.3494 bohr

     Magnetic moment per site  (integrated on atomic sphere of radius R)
     atom   1 (R=0.738)  charge=  8.0426  magn=  0.0084
     atom   2 (R=0.738)  charge=  8.0243  magn=  0.0004
     atom   3 (R=0.738)  charge=  5.0120  magn= -0.0009
     atom   4 (R=0.738)  charge=  5.0490  magn= -0.0001
     atom   5 (R=0.738)  charge=  5.0182  magn= -0.0002
     atom   6 (R=0.738)  charge=  5.0186  magn= -0.0002
     atom   7 (R=0.738)  charge=  8.0244  magn=  0.0008
     atom   8 (R=0.738)  charge=  8.0256  magn=  0.0070
     atom   9 (R=0.738)  charge=  5.0259  magn= -0.0006
     atom  10 (R=0.738)  charge=  5.0261  magn= -0.0005
     atom  11 (R=0.738)  charge=  5.0131  magn= -0.0005
     atom  12 (R=0.738)  charge=  5.0142  magn= -0.0005
     atom  13 (R=0.738)  charge=  8.0323  magn=  0.0035
     atom  14 (R=0.738)  charge=  8.0300  magn=  0.0058
     atom  15 (R=0.738)  charge=  5.0263  magn= -0.0000
     atom  16 (R=0.738)  charge=  5.0222  magn= -0.0015
     atom  17 (R=0.738)  charge=  4.9995  magn= -0.0012
     atom  18 (R=0.738)  charge=  5.0035  magn= -0.0012
     atom  19 (R=0.738)  charge=  8.0638  magn=  0.0190
     atom  20 (R=0.738)  charge=  8.0765  magn=  0.0038
     atom  21 (R=0.738)  charge=  4.8972  magn= -0.0003
     atom  22 (R=0.738)  charge=  4.9759  magn= -0.0007
     atom  23 (R=0.738)  charge=  5.0093  magn= -0.0008
     atom  24 (R=0.738)  charge=  5.0095  magn= -0.0008
     atom  25 (R=0.738)  charge=  8.0426  magn=  0.0084
     atom  26 (R=0.738)  charge=  8.0244  magn=  0.0004
     atom  27 (R=0.738)  charge=  5.0118  magn= -0.0009
     atom  28 (R=0.738)  charge=  5.0493  magn= -0.0001
     atom  29 (R=0.738)  charge=  5.0191  magn= -0.0002
     atom  30 (R=0.738)  charge=  5.0194  magn= -0.0002
     atom  31 (R=0.738)  charge=  8.0246  magn=  0.0008
     atom  32 (R=0.738)  charge=  8.0257  magn=  0.0070
     atom  33 (R=0.738)  charge=  5.0254  magn= -0.0006
     atom  34 (R=0.738)  charge=  5.0228  magn= -0.0005
     atom  35 (R=0.738)  charge=  5.0162  magn= -0.0005
     atom  36 (R=0.738)  charge=  5.0179  magn= -0.0005
     atom  37 (R=0.738)  charge=  8.0280  magn=  0.0040
     atom  38 (R=0.738)  charge=  8.0303  magn=  0.0062
     atom  39 (R=0.738)  charge=  5.0062  magn= -0.0006
     atom  40 (R=0.738)  charge=  5.0343  magn= -0.0014
     atom  41 (R=0.738)  charge=  4.9975  magn= -0.0015
     atom  42 (R=0.738)  charge=  5.0021  magn= -0.0016
     atom  43 (R=0.738)  charge=  8.0614  magn=  0.0198
     atom  44 (R=0.738)  charge=  8.0414  magn=  0.0083
     atom  45 (R=0.738)  charge=  4.8972  magn= -0.0002
     atom  46 (R=0.738)  charge=  5.0093  magn= -0.0008
     atom  47 (R=0.738)  charge=  5.0095  magn= -0.0008
     atom  48 (R=0.420)  charge=  1.3385  magn= -0.0001
     atom  49 (R=0.445)  charge=  0.8259  magn=  0.0000
     atom  50 (R=0.420)  charge=  0.4493  magn= -0.0000
     atom  51 (R=0.420)  charge=  0.4442  magn= -0.0000
     atom  52 (R=0.420)  charge=  0.4400  magn=  0.0000
     atom  53 (R=0.420)  charge=  0.4506  magn=  0.0000
     atom  54 (R=0.420)  charge=  0.4500  magn=  0.0000

     End of self-consistent calculation

 ------ SPIN UP ------------

          k = 0.0000 0.0000 0.0000 ( 18029 PWs)   bands (ev):

   -55.4392 -55.4027 -55.3916 -55.3641 -55.3574 -55.3327 -55.3156 -55.2811
   -55.2543 -55.2531 -55.2211 -55.2197 -55.1875 -55.1192 -54.4144 -54.3803
   -32.0064 -31.8925 -31.8797 -31.8032 -31.7589 -31.7572 -31.7435 -31.7275
   -31.6831 -31.6816 -31.6514 -31.6482 -31.6374 -31.6243 -31.6112 -31.6100
   -31.5933 -31.5806 -31.5764 -31.5522 -31.5449 -31.5361 -31.5213 -31.5011
   -31.4936 -31.4900 -31.4851 -31.4568 -31.4499 -31.4463 -31.4374 -31.4295
   -31.4206 -31.4174 -31.4053 -31.4019 -31.3755 -31.3680 -31.3499 -31.3326
   -31.3269 -31.3014 -30.8234 -30.7295 -30.7073 -30.6399 -30.5531 -30.4421
   -16.2938 -16.1662 -15.9773 -15.8302 -15.7494 -15.6323 -15.5171 -15.4999
   -15.3642 -15.2822 -15.1628 -15.1375 -15.1175 -15.0950 -15.0841 -15.0682
   -14.9779 -14.9723 -14.9579 -14.9268 -14.9244 -14.8795 -14.8719 -14.8305
   -14.8085 -14.8074 -14.6839 -14.5927 -14.5197 -14.2803 -12.9165 -12.7990
   -10.2315  -6.2862  -4.8330  -3.9642  -3.6089  -3.4547  -3.3648  -3.3391
    -3.3257  -3.1911  -3.0454  -2.8995  -2.8470  -2.8446  -2.7217  -2.6483
    -2.6385  -2.6186  -2.4640  -2.4324  -2.3893  -2.3417  -2.2982  -2.2438
    -2.2248  -2.2186  -2.2035  -2.1827  -2.1714  -2.0545  -2.0011  -1.9178
    -1.8603  -1.8376  -1.7874  -1.7661  -1.7434  -1.7234  -1.7145  -1.6694
    -1.6582  -1.6286  -1.5726  -1.4625  -1.3631  -1.3101  -1.1918  -1.0708
    -1.0307  -1.0180  -0.9771  -0.9352  -0.9197  -0.8542  -0.8109  -0.7802
    -0.7161  -0.6634  -0.6006  -0.5528  -0.4826  -0.4673  -0.4205  -0.3668
    -0.2529  -0.2160  -0.2009  -0.1746  -0.0816  -0.0455  -0.0002   0.0823
     0.0922   0.1079   0.2087   0.2220   0.2920   0.3386   0.3557   0.4479
     0.4860   0.4958   0.5010   0.5252   0.5518   0.6035   0.6406   0.6689
     0.7395   0.8649   1.0815   1.1556   1.1791   1.5058   1.5142   1.6088
     1.7922   2.1851   2.2330   3.6571   3.7301   3.8001   3.8101   3.8125
     3.8981   4.1337   4.1559   4.1635   4.1703   4.1914

[...]

          k =-0.0760-0.0000 0.0000 ( 17886 PWs)   bands (ev):

[...]

 ------ SPIN DOWN ----------

[...]

          k = 0.0380-0.0419 0.0000 ( 17876 PWs)   bands (ev):

[...]

          k =-0.0760-0.0839 0.0000 ( 17948 PWs)   bands (ev):

   -55.4140 -55.4071 -55.3602 -55.3597 -55.3482 -55.2945 -55.2939 -55.2900
   -55.2374 -55.2335 -55.2236 -55.1931 -55.1924 -55.1139 -54.3968 -54.3966
   -31.8054 -31.8014 -31.8004 -31.7092 -31.6891 -31.6887 -31.6857 -31.6500
   -31.6498 -31.6402 -31.6328 -31.6257 -31.6181 -31.5949 -31.5789 -31.5699
   -31.5698 -31.5657 -31.5606 -31.5559 -31.5523 -31.5478 -31.5120 -31.5031
   -31.5011 -31.4938 -31.4893 -31.4867 -31.4821 -31.4785 -31.4781 -31.4703
   -31.4665 -31.4501 -31.4463 -31.4281 -31.4253 -31.4118 -31.3768 -31.3733
   -31.3717 -31.3228 -30.7194 -30.7192 -30.6357 -30.6355 -30.5960 -30.5959
   -16.1375 -15.7789 -15.6879 -15.6405 -15.4671 -15.4379 -15.4213 -15.4061
   -15.2738 -15.2554 -15.2316 -15.2037 -15.1816 -15.1469 -15.1376 -15.1347
   -15.0554 -15.0412 -15.0342 -15.0184 -14.9524 -14.9425 -14.9402 -14.9329
   -14.8828 -14.8792 -14.8157 -14.7863 -14.7832 -14.5718 -12.9009 -12.9008
   -10.2348  -6.2571  -4.8295  -3.9270  -2.9591  -2.9384  -2.8939  -2.8886
    -2.6815  -2.6402  -2.6051  -2.5792  -2.4892  -2.4500  -2.4331  -2.4266
    -2.3552  -2.3366  -2.3210  -2.2755  -2.2695  -2.2559  -2.2338  -2.2029
    -2.1804  -2.1624  -2.1529  -2.1332  -2.0874  -2.0765  -2.0519  -2.0370
    -2.0336  -2.0150  -1.9879  -1.9413  -1.8148  -1.8067  -1.7386  -1.6403
    -1.6355  -1.5587  -1.5455  -1.5090  -1.4848  -1.4660  -1.4231  -1.2498
    -1.2060  -1.1799  -1.1703  -1.1120  -1.0477  -1.0254  -0.9548  -0.9396
    -0.9209  -0.8170  -0.7721  -0.7575  -0.6675  -0.6554  -0.5773  -0.5112
    -0.4682  -0.4417  -0.3940  -0.3897  -0.3877  -0.3397  -0.3322  -0.2508
    -0.2038  -0.1679  -0.1538  -0.1232   0.0735   0.0842   0.1105   0.2506
     0.2800   0.4026   0.4370   0.4888   0.5637   0.5963   0.6780   0.7134
     0.8438   0.8721   0.8734   0.9458   0.9571   1.0194   1.0289   1.9652
     1.9659   2.0530   2.0532   3.8398   3.9151   3.9314   3.9730   4.0871
     4.1590   4.1862   4.2070   4.2526   4.2553   4.3202

     the Fermi energy is     3.7278 ev

!    total energy              =   -2921.63308128 Ry
     estimated scf accuracy    <       0.00000007 Ry
     smearing contrib. (-TS)   =      -0.03702642 Ry
     internal energy E=F+TS    =   -2921.59605485 Ry

     The total energy is F=E-TS. E is the sum of the following terms:
     one-electron contribution =  -24028.60923304 Ry
     hartree contribution      =   12103.38505109 Ry
     xc contribution           =    -481.75019649 Ry
     ewald contribution        =    9485.37514856 Ry
     electric field correction =       0.00317503 Ry

     total magnetization       =     0.14 Bohr mag/cell
     absolute magnetization    =     0.19 Bohr mag/cell

     convergence has been achieved in 193 iterations

     Forces acting on atoms (cartesian axes, Ry/au):

     atom    1 type  1   force =     0.00003558   -0.00021736    0.09329043
     atom    2 type  1   force =    -0.00018798   -0.00036728   -0.17831447
     atom    3 type  2   force =     0.00002859   -0.00039855   -0.02023123
     atom    4 type  2   force =    -0.00002689   -0.00194872    0.05878912
     atom    5 type  2   force =    -0.01020119   -0.00112028    0.00777126
     atom    6 type  2   force =     0.01167513   -0.00040166    0.00693736
     atom    7 type  1   force =    -0.00048835    0.00210289   -0.01457615
     atom    8 type  1   force =     0.00024478   -0.00049460   -0.00479938
     atom    9 type  2   force =     0.00015098    0.00011801   -0.00006806
     atom   10 type  2   force =    -0.00113456    0.00137554    0.00053682
     atom   11 type  2   force =    -0.00010937    0.00015722    0.00005830
     atom   12 type  2   force =    -0.00002519    0.00036547    0.00023473
     atom   13 type  1   force =    -0.00004641   -0.00018595   -0.00016179
     atom   14 type  1   force =    -0.00015344    0.00011300    0.00033063
     atom   15 type  2   force =    -0.00021182   -0.00029487    0.00005635
     atom   16 type  2   force =    -0.00022137    0.00019766    0.00010361
     atom   17 type  2   force =     0.00021396   -0.00007885    0.00012372
     atom   18 type  2   force =    -0.00008540   -0.00022086    0.00013855
     atom   19 type  1   force =    -0.00032040    0.00032239    0.00046231
     atom   20 type  1   force =     0.00001498   -0.00005689   -0.00032932
     atom   21 type  2   force =     0.00003028   -0.00006218    0.10392733
     atom   22 type  2   force =     0.00027347    0.00037526    0.00006880
     atom   23 type  2   force =    -0.07042096   -0.00015145   -0.02692725
     atom   24 type  2   force =     0.07026032    0.00029122   -0.02697375
     atom   25 type  1   force =    -0.00000988   -0.00015076    0.09281533
     atom   26 type  1   force =    -0.00021046   -0.00048509   -0.17832966
     atom   27 type  2   force =     0.00008715   -0.00026590   -0.01929912
     atom   28 type  2   force =     0.00004348   -0.00171518    0.05812939
     atom   29 type  2   force =    -0.01072315   -0.00111413    0.00833156
     atom   30 type  2   force =     0.01206984   -0.00083725    0.00745314
     atom   31 type  1   force =    -0.00039975    0.00594243   -0.01545564
     atom   32 type  1   force =     0.00022283   -0.00003699   -0.00517403
     atom   33 type  2   force =    -0.00007747    0.00001144    0.00007577
     atom   34 type  2   force =    -0.00101274   -0.00248407   -0.00000967
     atom   35 type  2   force =    -0.00006437    0.00023789   -0.00006280
     atom   36 type  2   force =    -0.00011588    0.00009372    0.00000014
     atom   37 type  1   force =    -0.00002434    0.00005215   -0.00020037
     atom   38 type  1   force =    -0.00007941    0.00000031    0.00015281
     atom   39 type  2   force =     0.00021663   -0.00002905    0.00013246
     atom   40 type  2   force =    -0.00030026    0.00024211   -0.00012032
     atom   41 type  2   force =     0.00018549    0.00044967    0.00006138
     atom   42 type  2   force =    -0.00012105    0.00014131    0.00039694
     atom   43 type  1   force =    -0.00032092    0.00027545    0.00008614
     atom   44 type  1   force =    -0.00012202   -0.00026937    0.00006236
     atom   45 type  2   force =     0.00002088   -0.00007313    0.10390462
     atom   46 type  2   force =    -0.07039343   -0.00010134   -0.02687502
     atom   47 type  2   force =     0.07024287    0.00032498   -0.02692513
     atom   48 type  3   force =    -0.00045393    0.00231702   -0.00051595
     atom   49 type  4   force =    -0.00086116   -0.02268952   -0.00043810
     atom   50 type  5   force =     0.00484610    0.01066268   -0.00044117
     atom   51 type  5   force =     0.00091366    0.00255784   -0.00219259
     atom   52 type  5   force =    -0.00385432    0.00665919    0.00244041
     atom   53 type  5   force =    -0.00062788    0.00070871    0.00079070
     atom   54 type  5   force =     0.00162875    0.00015573    0.00075849

     Total force =     0.367227     Total SCF correction =     0.000117
  @ DRIVER MODE: Message from server: STATUS
  @ DRIVER MODE: Message from server: GETFORCE
  @ DRIVER MODE: Returning v,forces,stress,ensemble

     Writing output data file ./calc.save/
  @ DRIVER MODE: Message from server: EXIT
  @ DRIVE MODE: Exiting

     General routines

     Parallel routines

   This run was terminated on:  14:22:22  20Jul2021

   JOB DONE.