     Program PWSCF v.6.7GPU starts on 23Sep2021 at  3: 3:55

     R & G space division:  proc/nbgrp/npool/nimage =      10
     Reading input from /storage/home/hcoda1/3/ntian30/research/carbon/CxH_vib/H2O_calc/ads_slab/CH2NHO_a/out_0035/pw.inp
Warning: card &CELL ignored
Warning: card   CELL_DYNAMICS='IPI', ignored
Warning: card / ignored

     Current dimensions of program PWSCF are:
     Max number of different atomic species (ntypx) = 10
     Max number of k-points (npk) =  40000
     Max angular momentum in pseudopotentials (lmaxx) =  3
     Presently no symmetry can be used with electric field

     Message from routine cell_base_init:
     DEPRECATED: use true lattice parameter, not A to a.u. conversion factor

     IMPORTANT: XC functional enforced from input :
     Exchange-correlation= BEEF-VDW
                           (   1   4  43  14   2   0   0)
     Any further DFT definition will be discarded
     Please, verify this is what you really want

  @ DRIVER MODE: Connecting to
 qe_1139763_2937321.sched-torque.pace.gatech.edupd1gjnjt_scratch
  using UNIX socket
  @ DRIVER MODE: Message from server: STATUS
  @ DRIVER MODE: Message from server: INIT
  @ DRIVER MODE: Receiving replica           0          -1
  @ DRIVER MODE: Receiving encoded integer          25
  @ DRIVER MODE:  SCF:  T  FORCE:  T  STRESS:  F  VC:  F  ENSEMBLE:  F
  @ DRIVER MODE:  SCF:  T  FORCE:  T  STRESS:  F  VC:  F  ENSEMBLE:  F

     Using Slab Decomposition

     bravais-lattice index     =            0
     lattice parameter (alat)  =       1.8897  a.u.
     unit-cell volume          =    6658.9804 (a.u.)^3
     number of atoms/cell      =           53
     number of atomic types    =            5
     number of electrons       =       396.00
     number of Kohn-Sham states=          208
     kinetic-energy cutoff     =      29.3995  Ry
     charge density cutoff     =     293.9946  Ry
     scf convergence threshold =      7.3E-08
     mixing beta               =       0.0500
     number of iterations used =            8  plain     mixing
     Exchange-correlation= BEEF-VDW
                           (   1   4  43  14   2   0   0)

     celldm(1)=   1.889726  celldm(2)=   0.000000  celldm(3)=   0.000000
     celldm(4)=   0.000000  celldm(5)=   0.000000  celldm(6)=   0.000000

     crystal axes: (cart. coord. in units of alat)
               a(1) = (   6.579727   0.000000   0.000000 )
               a(2) = (  -0.000775   5.961596   0.000000 )
               a(3) = (   0.000000   0.000000  25.155947 )

     reciprocal axes: (cart. coord. in units 2 pi/alat)
               b(1) = (  0.151982  0.000020  0.000000 )
               b(2) = (  0.000000  0.167740  0.000000 )
               b(3) = (  0.000000  0.000000  0.039752 )

     PseudoPot. # 1 for Ti read from file:
     /storage/coda1/p-amedford6/0/shared/rich_project_chbe-medford/medford-share/data/pseudos_module/espresso/nninc/pbe/van/Ti.UPF
     MD5 check sum: 8e4df49b7f0d34bbd5052bf3f5ea0213
     Pseudo is Ultrasoft, Zval = 12.0
     Generated by new atomic code, or converted to UPF format
     Using radial grid of  851 points,  6 beta functions with:
                l(1) =   0
                l(2) =   0
                l(3) =   1
                l(4) =   1
                l(5) =   2
                l(6) =   2
     Q(r) pseudized with  8 coefficients,  rinner =    1.000   1.000   1.000
                                                       1.000   1.000

     PseudoPot. # 2 for O  read from file:
     /storage/coda1/p-amedford6/0/shared/rich_project_chbe-medford/medford-share/data/pseudos_module/espresso/nninc/pbe/van/O.UPF
     MD5 check sum: 78c19812648e8988a0fe644b0f25305e
     Pseudo is Ultrasoft, Zval =  6.0
     Generated by new atomic code, or converted to UPF format
     Using radial grid of  737 points,  4 beta functions with:
                l(1) =   0
                l(2) =   0
                l(3) =   1
                l(4) =   1
     Q(r) pseudized with  8 coefficients,  rinner =    0.800   0.800   0.800

     PseudoPot. # 3 for N  read from file:
     /storage/coda1/p-amedford6/0/shared/rich_project_chbe-medford/medford-share/data/pseudos_module/espresso/nninc/pbe/van/N.UPF
     MD5 check sum: 90d10febe142ad51ac9d5be1deb811c4
     Pseudo is Ultrasoft, Zval =  5.0
     Generated by new atomic code, or converted to UPF format
     Using radial grid of  729 points,  4 beta functions with:
                l(1) =   0
                l(2) =   0
                l(3) =   1
                l(4) =   1
     Q(r) pseudized with  8 coefficients,  rinner =    0.800   0.800   0.800

     PseudoPot. # 4 for C  read from file:
     /storage/coda1/p-amedford6/0/shared/rich_project_chbe-medford/medford-share/data/pseudos_module/espresso/nninc/pbe/van/C.UPF
     MD5 check sum: 1a69bf6b8db32088f5b2163dbdb77a27
     Pseudo is Ultrasoft, Zval =  4.0
     Generated by new atomic code, or converted to UPF format
     Using radial grid of  721 points,  4 beta functions with:
                l(1) =   0
                l(2) =   0
                l(3) =   1
                l(4) =   1
     Q(r) pseudized with  8 coefficients,  rinner =    0.800   0.800   0.800

     PseudoPot. # 5 for H  read from file:
     /storage/coda1/p-amedford6/0/shared/rich_project_chbe-medford/medford-share/data/pseudos_module/espresso/nninc/pbe/van/H.UPF
     MD5 check sum: b5ee9d7bfd3a09ee7748110bda690ff7
     Pseudo is Ultrasoft, Zval =  1.0
     Generated by new atomic code, or converted to UPF format
     Using radial grid of  615 points,  1 beta functions with:
                l(1) =   0
     Q(r) pseudized with  8 coefficients,  rinner =    0.800

     atomic species   valence    mass     pseudopotential
        Ti1           12.00    47.86700     Ti( 1.00)
        O1             6.00    15.99900     O ( 1.00)
        N1             5.00    14.00700     N ( 1.00)
        C1             4.00    12.01100     C ( 1.00)
        H1             1.00     1.00800     H ( 1.00)

     No symmetry found

   Cartesian axes

     site n.     atom                  positions (alat units)
         1           Ti1 tau(   1) = (   0.0004258   2.9801865   6.0000000  )
         2           Ti1 tau(   2) = (   3.2906075   1.4906267   6.0002472  )
         3           O1  tau(   3) = (   0.0006271   0.0005054   7.9858123  )
         4           O1  tau(   4) = (   3.2906025   0.0005020   7.3038282  )
         5           O1  tau(   5) = (   4.5942328   1.4918067   9.2879030  )
         6           O1  tau(   6) = (   1.9868534   1.4903216   9.2879459  )
         7           Ti1 tau(   7) = (   3.2907910   2.8959150   9.1758416  )
         8           Ti1 tau(   8) = (   0.0015273   1.4827037   9.2680791  )
         9           O1  tau(   9) = (   3.3049783   5.9490022  11.2668993  )
        10           O1  tau(  10) = (   0.0116148   5.9584955  10.6183126  )
        11           O1  tau(  11) = (   1.3054562   1.4902858  12.6165390  )
        12           O1  tau(  12) = (   5.3128925   1.4966897  12.6222362  )
        13           Ti1 tau(  13) = (   0.0227526   2.8513963  12.7011302  )
        14           Ti1 tau(  14) = (   3.3146314   1.3157910  12.6511296  )
        15           O1  tau(  15) = (   0.0292331   0.0037381  14.6451560  )
        16           O1  tau(  16) = (   3.3105559   0.0332628  13.8611824  )
        17           O1  tau(  17) = (   4.5798417   1.5533887  16.0574704  )
        18           O1  tau(  18) = (   2.0659959   1.5620864  16.0379710  )
        19           Ti1 tau(  19) = (   3.3199680   3.0150018  15.6455324  )
        20           Ti1 tau(  20) = (   6.5662113   1.5085715  15.8767718  )
        21           O1  tau(  21) = (   3.2904802   0.0005063   4.7018136  )
        22           O1  tau(  22) = (   0.0336757   0.0283057  17.1922241  )
        23           O1  tau(  23) = (   1.3043587   1.4918075   6.0039043  )
        24           O1  tau(  24) = (   5.2767064   1.4903225   6.0039473  )
        25           Ti1 tau(  25) = (   0.0000382   5.9609847   6.0000000  )
        26           Ti1 tau(  26) = (   3.2902200   4.4714249   6.0002472  )
        27           O1  tau(  27) = (   0.0002396   2.9813036   7.9858123  )
        28           O1  tau(  28) = (   3.2902150   2.9813002   7.3038282  )
        29           O1  tau(  29) = (   4.5938453   4.4726049   9.2879030  )
        30           O1  tau(  30) = (   1.9864658   4.4711199   9.2879459  )
        31           Ti1 tau(  31) = (   3.2891106   5.8743827   9.1763621  )
        32           Ti1 tau(  32) = (   0.0006254   4.4649316   9.2693709  )
        33           O1  tau(  33) = (   3.3044035   3.0314990  11.2389097  )
        34           O1  tau(  34) = (   0.0092240   2.9805883  10.6323155  )
        35           O1  tau(  35) = (   1.3090660   4.4724101  12.6204063  )
        36           O1  tau(  36) = (   5.3093727   4.4739031  12.6240458  )
        37           Ti1 tau(  37) = (   0.0315986   5.8296340  12.6341251  )
        38           Ti1 tau(  38) = (   3.3217628   4.4127071  12.4104736  )
        39           O1  tau(  39) = (   0.0286309   2.9529265  14.6620113  )
        40           O1  tau(  40) = (   3.3111648   2.9942334  13.8608864  )
        41           O1  tau(  41) = (   4.5850423   4.4544105  16.0703757  )
        42           O1  tau(  42) = (   2.0817017   4.4739285  16.0881885  )
        43           Ti1 tau(  43) = (   3.2564312   0.0343949  16.3346327  )
        44           Ti1 tau(  44) = (   6.5491996   4.6347227  16.0815441  )
        45           O1  tau(  45) = (   3.2900926   2.9813045   4.7018136  )
        46           O1  tau(  46) = (   1.3039711   4.4726057   6.0039043  )
        47           O1  tau(  47) = (   5.2763189   4.4711207   6.0039473  )
        48           N1  tau(  48) = (   0.0476609   2.9608057  17.4046342  )
        49           C1  tau(  49) = (   0.0744360   2.8714357  18.6596517  )
        50           H1  tau(  50) = (   0.0810575   3.7616739  19.3027278  )
        51           H1  tau(  51) = (   0.0872865   1.8968143  19.1621030  )
        52           O1  tau(  52) = (   3.2917830   0.0572188  18.1605702  )
        53           H1  tau(  53) = (   2.8914424   5.3141097  18.6796264  )

     number of k points=    10  Fermi-Dirac smearing, width (Ry)=  0.0073
                       cart. coord. in units 2pi/alat
        k(    1) = (   0.0000000   0.0000000   0.0000000), wk =   0.1250000
        k(    2) = (   0.0000000   0.0419351   0.0000000), wk =   0.2500000
        k(    3) = (   0.0000000  -0.0838702   0.0000000), wk =   0.1250000
        k(    4) = (   0.0379955   0.0000049   0.0000000), wk =   0.2500000
        k(    5) = (   0.0379955   0.0419400   0.0000000), wk =   0.2500000
        k(    6) = (   0.0379955  -0.0838652   0.0000000), wk =   0.2500000
        k(    7) = (   0.0379955  -0.0419301   0.0000000), wk =   0.2500000
        k(    8) = (  -0.0759910  -0.0000099   0.0000000), wk =   0.1250000
        k(    9) = (  -0.0759910   0.0419252   0.0000000), wk =   0.2500000
        k(   10) = (  -0.0759910  -0.0838800   0.0000000), wk =   0.1250000

     Initial potential from superposition of free atoms

     starting charge  379.99917, renormalised to  396.00000

     negative rho (up, down):  1.695E-02 0.000E+00

     %%%%%%%%%%%%%%%%%%%%%%%%%%%%%%%%%%%%%%%%%%%%%%%%%%%%%%%%%%%%%%%%%%%%%%%%
     %                                                                      %
     % You are using vdW-DF, which was implemented by the Thonhauser group. %
     % Please cite the following two papers that made this development      %
     % possible and the two reviews that describe the various versions:     %
     %                                                                      %
     %   T. Thonhauser et al., PRL 115, 136402 (2015).                      %
     %   T. Thonhauser et al., PRB 76, 125112 (2007).                       %
     %   K. Berland et al., Rep. Prog. Phys. 78, 066501 (2015).             %
     %   D.C. Langreth et al., J. Phys.: Condens. Matter 21, 084203 (2009). %
     %                                                                      %
     %                                                                      %
     % If you are calculating the stress with vdW-DF, please also cite:     %
     %                                                                      %
     %   R. Sabatini et al., J. Phys.: Condens. Matter 24, 424209 (2012).   %
     %                                                                      %
     %%%%%%%%%%%%%%%%%%%%%%%%%%%%%%%%%%%%%%%%%%%%%%%%%%%%%%%%%%%%%%%%%%%%%%%%

     Adding external electric field

     Computed dipole along edir(3) :
        Dipole               -7.7043 Ry au,        -19.5825 Debye
        Dipole field         -0.0145 Ry au,

        Potential amp.        1.3478 Ry
        Total length         46.3494 bohr

     Starting wfcs are  299 atomic wfcs
  @ DRIVER MODE: Message from server: STATUS
  @ DRIVER MODE: Message from server: POSDATA
  @ DRIVER MODE: Reading and sharing cell
  @ DRIVER MODE: Reading and sharing positions
  @ DRIVER MODE: Received positions

     Self-consistent Calculation

     iteration #  1     ecut=    29.40 Ry     beta= 0.05
     Davidson diagonalization with overlap
     c_bands:  1 eigenvalues not converged
     c_bands:  4 eigenvalues not converged
     c_bands:  2 eigenvalues not converged
     c_bands:  3 eigenvalues not converged
     c_bands:  2 eigenvalues not converged
     c_bands:  3 eigenvalues not converged
     c_bands:  2 eigenvalues not converged
     ethr =  1.00E-05,  avg # of iterations = 19.5

[...]

     total energy              =   -2658.45663363 Ry
     estimated scf accuracy    <    3232.54139650 Ry

[...]

     iteration #  3     ecut=    29.40 Ry     beta= 0.05
     Davidson diagonalization with overlap
     ethr =  1.00E-02,  avg # of iterations = 14.9

[...]

     iteration # 35     ecut=    29.40 Ry     beta= 0.05
     Davidson diagonalization with overlap
     c_bands:  1 eigenvalues not converged
     c_bands:  1 eigenvalues not converged
     ethr =  1.21E-06,  avg # of iterations = 12.5

[...]

     total energy              =   -2951.50533692 Ry
     estimated scf accuracy    <       0.00000007 Ry

     iteration # 58     ecut=    29.40 Ry     beta= 0.05
     Davidson diagonalization with overlap
     ethr =  1.88E-11,  avg # of iterations =  5.0

     negative rho (up, down):  1.701E-02 0.000E+00

     Adding external electric field

     Computed dipole along edir(3) :
        Dipole                0.3586 Ry au,          0.9116 Debye
        Dipole field          0.0007 Ry au,

        Potential amp.       -0.0627 Ry
        Total length         46.3494 bohr

     End of self-consistent calculation

          k = 0.0000 0.0000 0.0000 ( 18029 PWs)   bands (ev):

   -56.8893 -56.8557 -56.0127 -55.9768 -55.7645 -55.7006 -55.5466 -55.4480
   -55.4141 -55.3951 -55.3321 -55.3081 -55.2792 -55.2605 -55.0782 -55.0159
   -33.3093 -33.1627 -33.1346 -33.0667 -32.9764 -32.9362 -32.4958 -32.2421
   -32.2332 -32.2047 -32.1528 -32.1505 -32.1239 -31.9975 -31.9825 -31.9335
   -31.9049 -31.8954 -31.8725 -31.8641 -31.8272 -31.7948 -31.7947 -31.7702
   -31.7671 -31.7624 -31.7206 -31.6934 -31.6619 -31.6526 -31.5964 -31.5720
   -31.5492 -31.5315 -31.5272 -31.5226 -31.5049 -31.4843 -31.4768 -31.4709
   -31.4604 -31.4304 -31.3408 -31.3194 -31.2847 -31.2785 -31.2565 -31.2178
   -17.0013 -16.4936 -16.4609 -16.2111 -16.1038 -16.0886 -16.0614 -15.9879
   -15.8021 -15.7314 -15.7045 -15.6530 -15.5292 -15.4056 -15.3090 -15.1621
   -15.0781 -15.0328 -15.0315 -15.0146 -14.9785 -14.9652 -14.9431 -14.8795
   -14.8595 -14.7885 -14.6513 -14.6112 -14.6049 -14.3354 -14.3264 -13.9452
   -13.8381  -7.2041  -4.5735  -4.1585  -3.9741  -3.9343  -3.7690  -3.5969
    -3.5842  -3.4466  -3.4126  -3.2715  -3.2670  -3.2529  -3.1679  -3.1535
    -3.0326  -2.9658  -2.9513  -2.8504  -2.8095  -2.6577  -2.6197  -2.5295
    -2.4770  -2.4560  -2.3931  -2.3440  -2.3173  -2.2930  -2.2679  -2.2119
    -2.1913  -2.1575  -2.0916  -2.0553  -1.9690  -1.9315  -1.9208  -1.9140
    -1.8007  -1.7739  -1.7334  -1.5938  -1.5351  -1.5168  -1.4943  -1.4418
    -1.3824  -1.3588  -1.3084  -1.2081  -1.1307  -1.1156  -1.0489  -1.0317
    -1.0191  -0.8944  -0.8408  -0.7473  -0.7379  -0.7233  -0.6562  -0.5968
    -0.5591  -0.4748  -0.3996  -0.3907  -0.3767  -0.3406  -0.3170  -0.2591
    -0.1491  -0.1076  -0.0594   0.0138   0.0331   0.1241   0.2187   0.2531
     0.2666   0.3107   0.3401   0.3609   0.4188   0.4829   0.4958   0.5653
     0.5738   0.5775   0.6630   0.7538   0.7917   0.8426   0.8667   0.8775
     0.9999   1.0858   1.1103   1.1556   1.5242   1.7486   2.4015   2.5708
     2.8471   3.0014   3.3247   3.3878   3.4007   3.4040   3.6713   3.8004

[...]

          k = 0.0380-0.0419 0.0000 ( 17876 PWs)   bands (ev):

[...]

          k =-0.0760-0.0000 0.0000 ( 17886 PWs)   bands (ev):

[...]

          k =-0.0760-0.0839 0.0000 ( 17948 PWs)   bands (ev):

   -56.8731 -56.8718 -56.0010 -55.9883 -55.7596 -55.7054 -55.5457 -55.4316
   -55.4304 -55.3914 -55.3328 -55.3115 -55.2778 -55.2593 -55.0795 -55.0169
   -33.1491 -33.1477 -33.1272 -33.1258 -33.0207 -33.0196 -32.3213 -32.3104
   -32.1956 -32.1832 -32.1827 -32.1745 -32.0651 -32.0224 -31.9907 -31.9795
   -31.9327 -31.9281 -31.8410 -31.7934 -31.7838 -31.7828 -31.7492 -31.7221
   -31.7016 -31.6536 -31.6519 -31.6517 -31.6492 -31.6384 -31.6180 -31.6132
   -31.6120 -31.6110 -31.5886 -31.5477 -31.5403 -31.5202 -31.5084 -31.4865
   -31.4792 -31.4281 -31.4268 -31.3499 -31.3425 -31.2887 -31.2586 -31.2378
   -16.4850 -16.3642 -16.3620 -16.3116 -16.3101 -16.0613 -16.0564 -15.8056
   -15.7747 -15.5910 -15.5137 -15.4816 -15.4316 -15.3906 -15.3561 -15.2545
   -15.2415 -15.1457 -15.1164 -15.1067 -15.0596 -15.0157 -14.9727 -14.9431
   -14.9039 -14.8131 -14.7540 -14.7185 -14.6143 -14.5189 -14.4693 -13.9426
   -13.9420  -7.1992  -4.1576  -3.9651  -3.4327  -3.4279  -3.4180  -3.4098
    -3.3542  -3.1860  -3.1782  -2.9927  -2.9650  -2.9625  -2.8917  -2.8853
    -2.7784  -2.7130  -2.7072  -2.7063  -2.6718  -2.6444  -2.6382  -2.5815
    -2.4746  -2.4236  -2.3987  -2.3769  -2.3477  -2.3193  -2.2653  -2.1759
    -2.1681  -2.1586  -2.1286  -2.1085  -2.0831  -2.0779  -1.9401  -1.8382
    -1.7667  -1.7178  -1.7078  -1.6929  -1.6662  -1.6304  -1.5998  -1.5863
    -1.5403  -1.4814  -1.4561  -1.4007  -1.3512  -1.3033  -1.2214  -1.1604
    -1.0928  -1.0718  -0.9395  -0.9236  -0.9043  -0.8657  -0.8323  -0.8230
    -0.7482  -0.6765  -0.6163  -0.5997  -0.5393  -0.5162  -0.4815  -0.4437
    -0.4346  -0.3790  -0.3569  -0.3082  -0.2930  -0.1722  -0.0892   0.0329
     0.0645   0.0826   0.1376   0.1720   0.3098   0.3192   0.3695   0.4834
     0.5196   0.6617   0.6792   0.7816   0.8309   0.8935   0.9502   0.9539
     0.9544   0.9806   1.0144   1.0354   1.1115   1.6864   2.9917   2.9945
     3.0515   3.0572   3.3640   3.3681   3.4726   3.4783   3.7825   3.7891

     the Fermi energy is     2.1393 ev

!    total energy              =   -2951.50539301 Ry
     estimated scf accuracy    <       0.00000005 Ry
     smearing contrib. (-TS)   =      -0.00233051 Ry
     internal energy E=F+TS    =   -2951.50306251 Ry

     The total energy is F=E-TS. E is the sum of the following terms:
     one-electron contribution =  -24182.27618153 Ry
     hartree contribution      =   12180.60455881 Ry
     xc contribution           =    -487.04397434 Ry
     ewald contribution        =    9537.21229182 Ry
     electric field correction =       0.00024273 Ry

     convergence has been achieved in  58 iterations

     Forces acting on atoms (cartesian axes, Ry/au):

     atom    1 type  1   force =     0.00001685   -0.00050381    0.12459303
     atom    2 type  1   force =    -0.00009972    0.00034958   -0.15487916
     atom    3 type  2   force =     0.00004679   -0.00012472   -0.06536701
     atom    4 type  2   force =     0.00007449    0.00024181    0.01706795
     atom    5 type  2   force =    -0.00338484   -0.00145332   -0.01347829
     atom    6 type  2   force =     0.00542420   -0.00094444   -0.01319555
     atom    7 type  1   force =     0.00030140   -0.00646328    0.05887259
     atom    8 type  1   force =     0.00011340    0.00855164    0.09582824
     atom    9 type  2   force =     0.00026612   -0.00011988    0.00026154
     atom   10 type  2   force =    -0.00166808    0.00093284   -0.05963731
     atom   11 type  2   force =     0.00078041   -0.00033920   -0.00032821
     atom   12 type  2   force =    -0.00100959   -0.00073729   -0.00007161
     atom   13 type  1   force =    -0.00020287   -0.00074018    0.00006869
     atom   14 type  1   force =     0.00003820   -0.00068851   -0.00012476
     atom   15 type  2   force =     0.00008216   -0.00025264   -0.00008638
     atom   16 type  2   force =    -0.00008436    0.00001787   -0.00048148
     atom   17 type  2   force =     0.00019014   -0.00013940   -0.00013657
     atom   18 type  2   force =    -0.00035959   -0.00019893   -0.00016602
     atom   19 type  1   force =    -0.00015497   -0.00147282    0.00010500
     atom   20 type  1   force =    -0.00014208   -0.00004828   -0.00016213
     atom   21 type  2   force =     0.00002300    0.00021388    0.09783583
     atom   22 type  2   force =    -0.00026297   -0.00036491    0.00017414
     atom   23 type  2   force =    -0.08254600    0.00005496   -0.03295797
     atom   24 type  2   force =     0.08243118    0.00049492   -0.03301220
     atom   25 type  1   force =     0.00002596   -0.00058086    0.12482174
     atom   26 type  1   force =    -0.00019088   -0.00147513   -0.15525654
     atom   27 type  2   force =     0.00011627   -0.00079757   -0.06368108
     atom   28 type  2   force =     0.00005594    0.00198684    0.01252178
     atom   29 type  2   force =    -0.00155848    0.00507879   -0.01679220
     atom   30 type  2   force =     0.00370598    0.00540160   -0.01640511
     atom   31 type  1   force =     0.00000312    0.00179802    0.04175622
     atom   32 type  1   force =     0.00011373   -0.01184208    0.09590582
     atom   33 type  2   force =     0.00001503   -0.00022131   -0.00027606
     atom   34 type  2   force =    -0.00105274    0.00154155   -0.07415165
     atom   35 type  2   force =    -0.00041472    0.00017886    0.00009870
     atom   36 type  2   force =     0.00112432    0.00043796    0.00016992
     atom   37 type  1   force =    -0.00030270    0.00060580    0.00025334
     atom   38 type  1   force =     0.00020811   -0.00051856    0.00001720
     atom   39 type  2   force =     0.00015504    0.00023725    0.00012156
     atom   40 type  2   force =    -0.00005100   -0.00049718   -0.00054229
     atom   41 type  2   force =     0.00046114    0.00009196   -0.00021470
     atom   42 type  2   force =    -0.00073050   -0.00004044    0.00019011
     atom   43 type  1   force =     0.00020410    0.00139633   -0.00123544
     atom   44 type  1   force =    -0.00007909    0.00002180   -0.00046801
     atom   45 type  2   force =     0.00003912    0.00002140    0.09766325
     atom   46 type  2   force =    -0.08260698    0.00001231   -0.03296727
     atom   47 type  2   force =     0.08248202    0.00044353   -0.03302021
     atom   48 type  3   force =    -0.00014552   -0.00007561    0.00007132
     atom   49 type  4   force =    -0.00013677   -0.00009122    0.00023456
     atom   50 type  5   force =    -0.00010244   -0.00002391   -0.00013609
     atom   51 type  5   force =    -0.00013091    0.00004035    0.00013166
     atom   52 type  2   force =     0.00454712    0.00833365   -0.00602409
     atom   53 type  5   force =    -0.00562750   -0.00773007    0.00649122

     Total force =     0.415797     Total SCF correction =     0.000649
  @ DRIVER MODE: Message from server: STATUS
  @ DRIVER MODE: Message from server: GETFORCE
  @ DRIVER MODE: Returning v,forces,stress,ensemble

     Writing output data file ./calc.save/
  @ DRIVER MODE: Message from server: EXIT
  @ DRIVE MODE: Exiting

     General routines

     Parallel routines

   This run was terminated on:   3:19:30  23Sep2021

   JOB DONE.