     Program PWSCF v.6.7GPU starts on  8Sep2021 at 23:49: 3

     R & G space division:  proc/nbgrp/npool/nimage =      10
     Reading input from /storage/home/hcoda1/3/ntian30/research/carbon/CxH_vib/CH2_calc/ads_slab/CH2NNHHH_a/out_0006/pw.inp
Warning: card &CELL ignored
Warning: card   CELL_DYNAMICS='IPI', ignored
Warning: card / ignored

     Current dimensions of program PWSCF are:
     Max number of different atomic species (ntypx) = 10
     Max number of k-points (npk) =  40000
     Max angular momentum in pseudopotentials (lmaxx) =  3
     Presently no symmetry can be used with electric field

     Message from routine cell_base_init:
     DEPRECATED: use true lattice parameter, not A to a.u. conversion factor

     IMPORTANT: XC functional enforced from input :
     Exchange-correlation= BEEF-VDW
                           (   1   4  43  14   2   0   0)
     Any further DFT definition will be discarded
     Please, verify this is what you really want

  @ DRIVER MODE: Connecting to
 qe_1139763_2767390.sched-torque.pace.gatech.edug1pniomf_scratch
  using UNIX socket
  @ DRIVER MODE: Message from server: STATUS
  @ DRIVER MODE: Message from server: INIT
  @ DRIVER MODE: Receiving replica           0          -1
  @ DRIVER MODE: Receiving encoded integer          25
  @ DRIVER MODE:  SCF:  T  FORCE:  T  STRESS:  F  VC:  F  ENSEMBLE:  F
  @ DRIVER MODE:  SCF:  T  FORCE:  T  STRESS:  F  VC:  F  ENSEMBLE:  F

     Using Slab Decomposition

     bravais-lattice index     =            0
     lattice parameter (alat)  =       1.8897  a.u.
     unit-cell volume          =    6658.9804 (a.u.)^3
     number of atoms/cell      =           55
     number of atomic types    =            5
     number of electrons       =       397.00
     number of Kohn-Sham states=          208
     kinetic-energy cutoff     =      29.3995  Ry
     charge density cutoff     =     293.9946  Ry
     scf convergence threshold =      7.3E-08
     mixing beta               =       0.0500
     number of iterations used =            8  plain     mixing
     Exchange-correlation= BEEF-VDW
                           (   1   4  43  14   2   0   0)

     celldm(1)=   1.889726  celldm(2)=   0.000000  celldm(3)=   0.000000
     celldm(4)=   0.000000  celldm(5)=   0.000000  celldm(6)=   0.000000

     crystal axes: (cart. coord. in units of alat)
               a(1) = (   6.579727   0.000000   0.000000 )
               a(2) = (  -0.000775   5.961596   0.000000 )
               a(3) = (   0.000000   0.000000  25.155947 )

     reciprocal axes: (cart. coord. in units 2 pi/alat)
               b(1) = (  0.151982  0.000020  0.000000 )
               b(2) = (  0.000000  0.167740  0.000000 )
               b(3) = (  0.000000  0.000000  0.039752 )

     PseudoPot. # 1 for Ti read from file:
     /storage/coda1/p-amedford6/0/shared/rich_project_chbe-medford/medford-share/data/pseudos_module/espresso/nninc/pbe/van/Ti.UPF
     MD5 check sum: 8e4df49b7f0d34bbd5052bf3f5ea0213
     Pseudo is Ultrasoft, Zval = 12.0
     Generated by new atomic code, or converted to UPF format
     Using radial grid of  851 points,  6 beta functions with:
                l(1) =   0
                l(2) =   0
                l(3) =   1
                l(4) =   1
                l(5) =   2
                l(6) =   2
     Q(r) pseudized with  8 coefficients,  rinner =    1.000   1.000   1.000
                                                       1.000   1.000

     PseudoPot. # 2 for O  read from file:
     /storage/coda1/p-amedford6/0/shared/rich_project_chbe-medford/medford-share/data/pseudos_module/espresso/nninc/pbe/van/O.UPF
     MD5 check sum: 78c19812648e8988a0fe644b0f25305e
     Pseudo is Ultrasoft, Zval =  6.0
     Generated by new atomic code, or converted to UPF format
     Using radial grid of  737 points,  4 beta functions with:
                l(1) =   0
                l(2) =   0
                l(3) =   1
                l(4) =   1
     Q(r) pseudized with  8 coefficients,  rinner =    0.800   0.800   0.800

     PseudoPot. # 3 for N  read from file:
     /storage/coda1/p-amedford6/0/shared/rich_project_chbe-medford/medford-share/data/pseudos_module/espresso/nninc/pbe/van/N.UPF
     MD5 check sum: 90d10febe142ad51ac9d5be1deb811c4
     Pseudo is Ultrasoft, Zval =  5.0
     Generated by new atomic code, or converted to UPF format
     Using radial grid of  729 points,  4 beta functions with:
                l(1) =   0
                l(2) =   0
                l(3) =   1
                l(4) =   1
     Q(r) pseudized with  8 coefficients,  rinner =    0.800   0.800   0.800

     PseudoPot. # 4 for C  read from file:
     /storage/coda1/p-amedford6/0/shared/rich_project_chbe-medford/medford-share/data/pseudos_module/espresso/nninc/pbe/van/C.UPF
     MD5 check sum: 1a69bf6b8db32088f5b2163dbdb77a27
     Pseudo is Ultrasoft, Zval =  4.0
     Generated by new atomic code, or converted to UPF format
     Using radial grid of  721 points,  4 beta functions with:
                l(1) =   0
                l(2) =   0
                l(3) =   1
                l(4) =   1
     Q(r) pseudized with  8 coefficients,  rinner =    0.800   0.800   0.800

     PseudoPot. # 5 for H  read from file:
     /storage/coda1/p-amedford6/0/shared/rich_project_chbe-medford/medford-share/data/pseudos_module/espresso/nninc/pbe/van/H.UPF
     MD5 check sum: b5ee9d7bfd3a09ee7748110bda690ff7
     Pseudo is Ultrasoft, Zval =  1.0
     Generated by new atomic code, or converted to UPF format
     Using radial grid of  615 points,  1 beta functions with:
                l(1) =   0
     Q(r) pseudized with  8 coefficients,  rinner =    0.800

     atomic species   valence    mass     pseudopotential
        Ti1           12.00    47.86700     Ti( 1.00)
        O1             6.00    15.99900     O ( 1.00)
        N1             5.00    14.00700     N ( 1.00)
        C1             4.00    12.01100     C ( 1.00)
        H1             1.00     1.00800     H ( 1.00)

     No symmetry found

   Cartesian axes

     site n.     atom                  positions (alat units)
         1           Ti1 tau(   1) = (   0.0004258   2.9801865   6.0000000  )
         2           Ti1 tau(   2) = (   3.2906075   1.4906267   6.0002472  )
         3           O1  tau(   3) = (   0.0006271   0.0005054   7.9858123  )
         4           O1  tau(   4) = (   3.2906025   0.0005020   7.3038282  )
         5           O1  tau(   5) = (   4.5942328   1.4918067   9.2879030  )
         6           O1  tau(   6) = (   1.9868534   1.4903216   9.2879459  )
         7           Ti1 tau(   7) = (   3.2907910   2.8959150   9.1758416  )
         8           Ti1 tau(   8) = (   0.0015273   1.4827037   9.2680791  )
         9           O1  tau(   9) = (   3.2797308   5.9473376  11.3602069  )
        10           O1  tau(  10) = (   0.0116148   5.9584955  10.6183126  )
        11           O1  tau(  11) = (   1.2902197   1.4970218  12.6485984  )
        12           O1  tau(  12) = (   5.2825647   1.4998509  12.6204812  )
        13           Ti1 tau(  13) = (   6.5707130   2.9731531  12.5352273  )
        14           Ti1 tau(  14) = (   3.2824754   1.4851695  12.4964603  )
        15           O1  tau(  15) = (   6.5335774   0.0914421  14.6722524  )
        16           O1  tau(  16) = (   3.3157438   0.0180770  13.9903400  )
        17           O1  tau(  17) = (   4.5084513   1.5196572  16.2619966  )
        18           O1  tau(  18) = (   2.0062152   1.4815140  16.1839734  )
        19           Ti1 tau(  19) = (   3.2259906   2.9465836  15.7211513  )
        20           Ti1 tau(  20) = (   6.5090593   1.4075841  16.1508600  )
        21           O1  tau(  21) = (   3.2904802   0.0005063   4.7018136  )
        22           O1  tau(  22) = (   6.5630310   5.8123487  17.2302531  )
        23           O1  tau(  23) = (   1.3043587   1.4918075   6.0039043  )
        24           O1  tau(  24) = (   5.2767064   1.4903225   6.0039473  )
        25           Ti1 tau(  25) = (   0.0000382   5.9609847   6.0000000  )
        26           Ti1 tau(  26) = (   3.2902200   4.4714249   6.0002472  )
        27           O1  tau(  27) = (   0.0002396   2.9813036   7.9858123  )
        28           O1  tau(  28) = (   3.2902150   2.9813002   7.3038282  )
        29           O1  tau(  29) = (   4.5938453   4.4726049   9.2879030  )
        30           O1  tau(  30) = (   1.9864658   4.4711199   9.2879459  )
        31           Ti1 tau(  31) = (   3.2891106   5.8743827   9.1763621  )
        32           Ti1 tau(  32) = (   0.0006254   4.4649316   9.2693709  )
        33           O1  tau(  33) = (   3.2783824   2.9878764  11.3535400  )
        34           O1  tau(  34) = (   0.0092240   2.9805883  10.6323155  )
        35           O1  tau(  35) = (   1.2857266   4.4729298  12.7006550  )
        36           O1  tau(  36) = (   5.2845514   4.4687958  12.6640455  )
        37           Ti1 tau(  37) = (   6.5734551   0.0101047  12.5124135  )
        38           Ti1 tau(  38) = (   3.2852174   4.4611384  12.5175569  )
        39           O1  tau(  39) = (   6.5279837   2.9480221  14.9030702  )
        40           O1  tau(  40) = (   3.2956390   2.9588503  13.9390168  )
        41           O1  tau(  41) = (   4.4992944   4.4159585  16.2207858  )
        42           O1  tau(  42) = (   2.0104883   4.4624356  16.0673450  )
        43           Ti1 tau(  43) = (   3.2790961   0.0058003  15.7788240  )
        44           Ti1 tau(  44) = (   0.0606790   4.6093333  15.7554573  )
        45           O1  tau(  45) = (   3.2900926   2.9813045   4.7018136  )
        46           O1  tau(  46) = (   1.3039711   4.4726057   6.0039043  )
        47           O1  tau(  47) = (   5.2763189   4.4711207   6.0039473  )
        48           N1  tau(  48) = (   0.0403274   2.7191540  18.0126804  )
        49           C1  tau(  49) = (   0.9398849   2.4944932  18.9664025  )
        50           H1  tau(  50) = (   0.9073005   3.0183022  19.9142263  )
        51           H1  tau(  51) = (   1.7098349   1.7704235  18.7615287  )
        52           N1  tau(  52) = (   5.5765855   3.6054979  18.4816711  )
        53           H1  tau(  53) = (   5.9881759   4.5320851  18.7147717  )
        54           H1  tau(  54) = (   4.9344470   3.8465857  17.6610935  )
        55           H1  tau(  55) = (   5.0674124   3.1947177  19.2767304  )

     number of k points=    10  Fermi-Dirac smearing, width (Ry)=  0.0073
                       cart. coord. in units 2pi/alat
        k(    1) = (   0.0000000   0.0000000   0.0000000), wk =   0.1250000
        k(    2) = (   0.0000000   0.0419351   0.0000000), wk =   0.2500000
        k(    3) = (   0.0000000  -0.0838702   0.0000000), wk =   0.1250000
        k(    4) = (   0.0379955   0.0000049   0.0000000), wk =   0.2500000
        k(    5) = (   0.0379955   0.0419400   0.0000000), wk =   0.2500000
        k(    6) = (   0.0379955  -0.0838652   0.0000000), wk =   0.2500000
        k(    7) = (   0.0379955  -0.0419301   0.0000000), wk =   0.2500000
        k(    8) = (  -0.0759910  -0.0000099   0.0000000), wk =   0.1250000
        k(    9) = (  -0.0759910   0.0419252   0.0000000), wk =   0.2500000
        k(   10) = (  -0.0759910  -0.0838800   0.0000000), wk =   0.1250000

     Initial potential from superposition of free atoms

     starting charge  380.99914, renormalised to  397.00000

     negative rho (up, down):  1.589E-02 0.000E+00

     %%%%%%%%%%%%%%%%%%%%%%%%%%%%%%%%%%%%%%%%%%%%%%%%%%%%%%%%%%%%%%%%%%%%%%%%
     %                                                                      %
     % You are using vdW-DF, which was implemented by the Thonhauser group. %
     % Please cite the following two papers that made this development      %
     % possible and the two reviews that describe the various versions:     %
     %                                                                      %
     %   T. Thonhauser et al., PRL 115, 136402 (2015).                      %
     %   T. Thonhauser et al., PRB 76, 125112 (2007).                       %
     %   K. Berland et al., Rep. Prog. Phys. 78, 066501 (2015).             %
     %   D.C. Langreth et al., J. Phys.: Condens. Matter 21, 084203 (2009). %
     %                                                                      %
     %                                                                      %
     % If you are calculating the stress with vdW-DF, please also cite:     %
     %                                                                      %
     %   R. Sabatini et al., J. Phys.: Condens. Matter 24, 424209 (2012).   %
     %                                                                      %
     %%%%%%%%%%%%%%%%%%%%%%%%%%%%%%%%%%%%%%%%%%%%%%%%%%%%%%%%%%%%%%%%%%%%%%%%

     Adding external electric field

     Computed dipole along edir(3) :
        Dipole              -10.3162 Ry au,        -26.2212 Debye
        Dipole field         -0.0195 Ry au,

        Potential amp.        1.8047 Ry
        Total length         46.3494 bohr

     Starting wfcs are  301 atomic wfcs
  @ DRIVER MODE: Message from server: STATUS
  @ DRIVER MODE: Message from server: POSDATA
  @ DRIVER MODE: Reading and sharing cell
  @ DRIVER MODE: Reading and sharing positions
  @ DRIVER MODE: Received positions

     Self-consistent Calculation

     iteration #  1     ecut=    29.40 Ry     beta= 0.05
     Davidson diagonalization with overlap
     c_bands:  3 eigenvalues not converged
     c_bands:  2 eigenvalues not converged
     c_bands:  3 eigenvalues not converged
     c_bands:  2 eigenvalues not converged
     c_bands:  3 eigenvalues not converged
     c_bands:  2 eigenvalues not converged
     c_bands:  3 eigenvalues not converged
     c_bands:  2 eigenvalues not converged
     c_bands:  2 eigenvalues not converged
     c_bands:  3 eigenvalues not converged
     ethr =  1.00E-05,  avg # of iterations = 20.0

[...]

     total energy              =   -2480.03170599 Ry
     estimated scf accuracy    <    5159.47827383 Ry

     iteration #  2     ecut=    29.40 Ry     beta= 0.05
     Davidson diagonalization with overlap
     ethr =  1.00E-02,  avg # of iterations = 22.5

[...]

     iteration # 64     ecut=    29.40 Ry     beta= 0.05
     Davidson diagonalization with overlap
     ethr =  5.89E-11,  avg # of iterations =  5.1

[...]

     total energy              =   -2941.49075204 Ry
     estimated scf accuracy    <       0.00000010 Ry

     iteration # 65     ecut=    29.40 Ry     beta= 0.05
     Davidson diagonalization with overlap
     c_bands:  1 eigenvalues not converged
     ethr =  2.50E-11,  avg # of iterations = 14.2

     negative rho (up, down):  1.338E-02 0.000E+00

     Adding external electric field

     Computed dipole along edir(3) :
        Dipole                1.3690 Ry au,          3.4797 Debye
        Dipole field          0.0026 Ry au,

        Potential amp.       -0.2395 Ry
        Total length         46.3494 bohr

     End of self-consistent calculation

          k = 0.0000 0.0000 0.0000 ( 18029 PWs)   bands (ev):

   -55.2778 -55.2390 -55.2388 -55.2049 -55.1534 -55.1516 -55.1150 -55.0881
   -55.0707 -55.0696 -55.0534 -55.0364 -54.9554 -54.7886 -54.2573 -54.2233
   -31.8501 -31.7297 -31.6401 -31.6051 -31.5779 -31.5754 -31.5728 -31.5287
   -31.5261 -31.4858 -31.4841 -31.4837 -31.4555 -31.4482 -31.4343 -31.4128
   -31.3979 -31.3927 -31.3883 -31.3875 -31.3512 -31.3462 -31.3323 -31.3188
   -31.2959 -31.2907 -31.2844 -31.2803 -31.2681 -31.2653 -31.2551 -31.2449
   -31.2382 -31.2363 -31.2031 -31.1986 -31.1916 -31.1794 -31.1464 -31.1040
   -31.0592 -30.9307 -30.6661 -30.5734 -30.5512 -30.4826 -30.3959 -30.2849
   -19.2833 -16.1210 -15.8601 -15.7318 -15.5395 -15.4720 -15.3770 -15.2415
   -15.1890 -15.1352 -15.0771 -15.0403 -15.0237 -14.9581 -14.9011 -14.8121
   -14.8103 -14.8026 -14.7850 -14.7752 -14.7681 -14.7059 -14.7049 -14.6760
   -14.6617 -14.6511 -14.5111 -14.4265 -14.3649 -14.3319 -14.0291 -12.7598
   -12.6426  -9.1735  -7.8321  -7.0962  -6.0431  -3.8801  -3.4578  -3.2848
    -3.2413  -3.1982  -3.1726  -3.0043  -2.9241  -2.6558  -2.5870  -2.5485
    -2.5007  -2.4892  -2.4638  -2.2926  -2.2620  -2.2234  -2.1864  -2.1625
    -2.1224  -2.0928  -2.0771  -2.0483  -2.0363  -2.0333  -1.8501  -1.7785
    -1.7524  -1.7019  -1.6830  -1.6634  -1.6061  -1.5762  -1.5636  -1.5610
    -1.5414  -1.5220  -1.4988  -1.4577  -1.3794  -1.2785  -1.2387  -1.2170
    -1.1061  -1.0395  -0.9095  -0.8713  -0.8536  -0.8258  -0.7537  -0.6911
    -0.6595  -0.6239  -0.4877  -0.4807  -0.3979  -0.3901  -0.3137  -0.2989
    -0.2556  -0.2146  -0.1012  -0.0649  -0.0432   0.0043   0.0691   0.0914
     0.1755   0.2288   0.2861   0.3004   0.3788   0.4178   0.4547   0.4793
     0.5627   0.6080   0.6677   0.6738   0.7100   0.7143   0.7370   0.8225
     0.8382   0.8591   0.8992   1.0679   1.2636   1.3205   1.3426   1.6754
     1.6943   1.7655   1.9507   2.3402   2.3878   3.8231   3.8885   3.9592
     3.9737   3.9830   4.0560   4.1036   4.2903   4.3196   4.3226   4.3424

[...]

          k = 0.0380-0.0419 0.0000 ( 17876 PWs)   bands (ev):

[...]

          k =-0.0760-0.0000 0.0000 ( 17886 PWs)   bands (ev):

[...]

          k =-0.0760-0.0839 0.0000 ( 17948 PWs)   bands (ev):

   -55.2657 -55.2507 -55.2221 -55.2217 -55.1496 -55.1398 -55.1268 -55.0743
   -55.0719 -55.0689 -55.0537 -55.0528 -54.9538 -54.7901 -54.2403 -54.2403
   -31.6596 -31.6466 -31.5731 -31.5450 -31.5446 -31.5413 -31.5142 -31.5140
   -31.4866 -31.4781 -31.4735 -31.4698 -31.4153 -31.4071 -31.4063 -31.4029
   -31.4010 -31.3969 -31.3902 -31.3770 -31.3628 -31.3522 -31.3482 -31.3414
   -31.3410 -31.3399 -31.3378 -31.3220 -31.3053 -31.3023 -31.2859 -31.2832
   -31.2783 -31.2766 -31.2765 -31.2498 -31.2341 -31.2326 -31.1636 -31.0911
   -31.0601 -31.0082 -30.5639 -30.5639 -30.4787 -30.4786 -30.4393 -30.4393
   -19.2797 -15.5865 -15.5100 -15.4568 -15.3681 -15.2857 -15.2652 -15.2559
   -15.2243 -15.1582 -15.1351 -15.0684 -15.0330 -14.9856 -14.9827 -14.9691
   -14.8833 -14.8639 -14.8491 -14.8449 -14.7832 -14.7818 -14.7550 -14.7325
   -14.7257 -14.7220 -14.6222 -14.6213 -14.4685 -14.4538 -14.2334 -12.7441
   -12.7441  -9.1605  -7.8419  -7.0806  -6.0536  -3.9032  -2.8467  -2.7600
    -2.6707  -2.5142  -2.4760  -2.4665  -2.4092  -2.3232  -2.2973  -2.2819
    -2.2625  -2.2541  -2.1812  -2.1769  -2.1329  -2.1102  -2.1001  -2.0934
    -2.0591  -2.0476  -2.0343  -1.9957  -1.9872  -1.9705  -1.9373  -1.9172
    -1.8933  -1.8650  -1.8507  -1.8219  -1.7001  -1.6712  -1.6255  -1.5631
    -1.5405  -1.4708  -1.4656  -1.3791  -1.3521  -1.3429  -1.3017  -1.2895
    -1.2839  -1.1059  -1.0611  -1.0242  -1.0110  -1.0061  -0.8512  -0.8341
    -0.7656  -0.7522  -0.7359  -0.6599  -0.6180  -0.6074  -0.5234  -0.4817
    -0.4534  -0.4314  -0.2884  -0.2794  -0.2524  -0.2347  -0.2288  -0.1364
    -0.1160  -0.0797  -0.0450  -0.0071   0.0094   0.0673   0.2186   0.2471
     0.2809   0.4257   0.4439   0.5271   0.5738   0.7027   0.7671   0.7704
     0.8525   0.9214   1.0240   1.0373   1.0513   1.1421   1.1882   1.1936
     1.1950   2.1235   2.1243   2.2078   2.2080   3.7010   3.9614   4.0843
     4.0907   4.1334   4.2543   4.3399   4.3627   4.4014   4.4035   4.4768

     the Fermi energy is     3.8781 ev

!    total energy              =   -2941.49077985 Ry
     estimated scf accuracy    <       0.00000006 Ry
     smearing contrib. (-TS)   =      -0.04241359 Ry
     internal energy E=F+TS    =   -2941.44836626 Ry

     The total energy is F=E-TS. E is the sum of the following terms:
     one-electron contribution =  -23919.71772724 Ry
     hartree contribution      =   12053.08044356 Ry
     xc contribution           =    -486.86916214 Ry
     ewald contribution        =    9412.05454277 Ry
     electric field correction =       0.00353679 Ry

     convergence has been achieved in  65 iterations

     Forces acting on atoms (cartesian axes, Ry/au):

     atom    1 type  1   force =     0.00016811   -0.00017622    0.09404406
     atom    2 type  1   force =    -0.00005126   -0.00044235   -0.17755466
     atom    3 type  2   force =     0.00006493   -0.00004550   -0.02099097
     atom    4 type  2   force =     0.00001809   -0.00180646    0.05733290
     atom    5 type  2   force =    -0.01086815   -0.00090430    0.00783109
     atom    6 type  2   force =     0.01207917   -0.00033427    0.00622702
     atom    7 type  1   force =    -0.00065620    0.00289984   -0.01529810
     atom    8 type  1   force =     0.00059050    0.00236354    0.00233497
     atom    9 type  2   force =    -0.00010222    0.00013712    0.00094431
     atom   10 type  2   force =    -0.00165663   -0.00049610   -0.00378606
     atom   11 type  2   force =    -0.00006291   -0.00023487    0.00023355
     atom   12 type  2   force =    -0.00017621   -0.00039299    0.00030010
     atom   13 type  1   force =     0.00042842    0.00109447    0.00041543
     atom   14 type  1   force =     0.00021210   -0.00061990    0.00029452
     atom   15 type  2   force =    -0.00015838    0.00061012    0.00071578
     atom   16 type  2   force =    -0.00016349   -0.00026007   -0.00111109
     atom   17 type  2   force =     0.00039489   -0.00013511    0.00047049
     atom   18 type  2   force =    -0.00103606   -0.00021907    0.00036236
     atom   19 type  1   force =    -0.00051706    0.00097909   -0.00078634
     atom   20 type  1   force =    -0.00030980    0.00098503   -0.00121407
     atom   21 type  2   force =     0.00010950   -0.00004058    0.10375802
     atom   22 type  2   force =     0.00006907    0.00012498    0.00110382
     atom   23 type  2   force =    -0.07063659   -0.00018134   -0.02706877
     atom   24 type  2   force =     0.07058370    0.00029315   -0.02710832
     atom   25 type  1   force =     0.00014172   -0.00023770    0.09336712
     atom   26 type  1   force =    -0.00000169   -0.00036644   -0.17778237
     atom   27 type  2   force =     0.00010847   -0.00039998   -0.02000944
     atom   28 type  2   force =     0.00003386   -0.00146649    0.05682264
     atom   29 type  2   force =    -0.01076830   -0.00065840    0.00674794
     atom   30 type  2   force =     0.01188390   -0.00016597    0.00510484
     atom   31 type  1   force =    -0.00062754    0.00410471   -0.01559876
     atom   32 type  1   force =     0.00068008   -0.00281935    0.00211740
     atom   33 type  2   force =     0.00015724   -0.00022430   -0.00057222
     atom   34 type  2   force =    -0.00109283    0.00272519   -0.00197272
     atom   35 type  2   force =     0.00006954    0.00019566    0.00012814
     atom   36 type  2   force =    -0.00030778    0.00033636   -0.00003488
     atom   37 type  1   force =     0.00046117   -0.00007833    0.00014757
     atom   38 type  1   force =     0.00008549    0.00089158    0.00008343
     atom   39 type  2   force =    -0.00001904   -0.00093902    0.00095877
     atom   40 type  2   force =    -0.00023418   -0.00042338    0.00070375
     atom   41 type  2   force =    -0.00003219   -0.00021466    0.00031924
     atom   42 type  2   force =    -0.00013470   -0.00011046    0.00049350
     atom   43 type  1   force =    -0.00000047   -0.00134145    0.00067349
     atom   44 type  1   force =    -0.00005722   -0.00051370   -0.00200476
     atom   45 type  2   force =     0.00009845   -0.00007988    0.10374328
     atom   46 type  2   force =    -0.07065068   -0.00009435   -0.02707793
     atom   47 type  2   force =     0.07060427    0.00029078   -0.02711839
     atom   48 type  3   force =    -0.00579296   -0.00210278   -0.01416475
     atom   49 type  4   force =     0.00468373   -0.00021488    0.01021308
     atom   50 type  5   force =     0.00170876   -0.00020227   -0.00015993
     atom   51 type  5   force =    -0.00033139    0.00055668   -0.00049137
     atom   52 type  3   force =     0.00045304    0.00091451    0.00420621
     atom   53 type  5   force =    -0.00000019   -0.00086443   -0.00045819
     atom   54 type  5   force =     0.00080153   -0.00064114   -0.00005166
     atom   55 type  5   force =    -0.00024361    0.00094564    0.00021697

     Total force =     0.366246     Total SCF correction =     0.000696
  @ DRIVER MODE: Message from server: STATUS
  @ DRIVER MODE: Message from server: GETFORCE
  @ DRIVER MODE: Returning v,forces,stress,ensemble

     Writing output data file ./calc.save/
  @ DRIVER MODE: Message from server: EXIT
  @ DRIVE MODE: Exiting

     General routines

     Parallel routines

   This run was terminated on:   0: 5:54   9Sep2021

   JOB DONE.