     Program PWSCF v.6.7GPU starts on  9Sep2021 at  7:51:19

     R & G space division:  proc/nbgrp/npool/nimage =      10
     Reading input from /storage/home/hcoda1/3/ntian30/research/carbon/CxH_vib/CH3_calc/ads_slab/CH3NNHHH_a/out_0030/pw.inp
Warning: card &CELL ignored
Warning: card   CELL_DYNAMICS='IPI', ignored
Warning: card / ignored

     Current dimensions of program PWSCF are:
     Max number of different atomic species (ntypx) = 10
     Max number of k-points (npk) =  40000
     Max angular momentum in pseudopotentials (lmaxx) =  3
     Presently no symmetry can be used with electric field

     Message from routine cell_base_init:
     DEPRECATED: use true lattice parameter, not A to a.u. conversion factor

     IMPORTANT: XC functional enforced from input :
     Exchange-correlation= BEEF-VDW
                           (   1   4  43  14   2   0   0)
     Any further DFT definition will be discarded
     Please, verify this is what you really want

  @ DRIVER MODE: Connecting to
 qe_1139763_2767399.sched-torque.pace.gatech.edua26e84bi_scratch
  using UNIX socket
  @ DRIVER MODE: Message from server: STATUS
  @ DRIVER MODE: Message from server: INIT
  @ DRIVER MODE: Receiving replica           0          -1
  @ DRIVER MODE: Receiving encoded integer          25
  @ DRIVER MODE:  SCF:  T  FORCE:  T  STRESS:  F  VC:  F  ENSEMBLE:  F
  @ DRIVER MODE:  SCF:  T  FORCE:  T  STRESS:  F  VC:  F  ENSEMBLE:  F

     Using Slab Decomposition

     bravais-lattice index     =            0
     lattice parameter (alat)  =       1.8897  a.u.
     unit-cell volume          =    6658.9804 (a.u.)^3
     number of atoms/cell      =           56
     number of atomic types    =            5
     number of electrons       =       398.00
     number of Kohn-Sham states=          209
     kinetic-energy cutoff     =      29.3995  Ry
     charge density cutoff     =     293.9946  Ry
     scf convergence threshold =      7.3E-08
     mixing beta               =       0.0500
     number of iterations used =            8  plain     mixing
     Exchange-correlation= BEEF-VDW
                           (   1   4  43  14   2   0   0)

     celldm(1)=   1.889726  celldm(2)=   0.000000  celldm(3)=   0.000000
     celldm(4)=   0.000000  celldm(5)=   0.000000  celldm(6)=   0.000000

     crystal axes: (cart. coord. in units of alat)
               a(1) = (   6.579727   0.000000   0.000000 )
               a(2) = (  -0.000775   5.961596   0.000000 )
               a(3) = (   0.000000   0.000000  25.155947 )

     reciprocal axes: (cart. coord. in units 2 pi/alat)
               b(1) = (  0.151982  0.000020  0.000000 )
               b(2) = (  0.000000  0.167740  0.000000 )
               b(3) = (  0.000000  0.000000  0.039752 )

     PseudoPot. # 1 for Ti read from file:
     /storage/coda1/p-amedford6/0/shared/rich_project_chbe-medford/medford-share/data/pseudos_module/espresso/nninc/pbe/van/Ti.UPF
     MD5 check sum: 8e4df49b7f0d34bbd5052bf3f5ea0213
     Pseudo is Ultrasoft, Zval = 12.0
     Generated by new atomic code, or converted to UPF format
     Using radial grid of  851 points,  6 beta functions with:
                l(1) =   0
                l(2) =   0
                l(3) =   1
                l(4) =   1
                l(5) =   2
                l(6) =   2
     Q(r) pseudized with  8 coefficients,  rinner =    1.000   1.000   1.000
                                                       1.000   1.000

     PseudoPot. # 2 for O  read from file:
     /storage/coda1/p-amedford6/0/shared/rich_project_chbe-medford/medford-share/data/pseudos_module/espresso/nninc/pbe/van/O.UPF
     MD5 check sum: 78c19812648e8988a0fe644b0f25305e
     Pseudo is Ultrasoft, Zval =  6.0
     Generated by new atomic code, or converted to UPF format
     Using radial grid of  737 points,  4 beta functions with:
                l(1) =   0
                l(2) =   0
                l(3) =   1
                l(4) =   1
     Q(r) pseudized with  8 coefficients,  rinner =    0.800   0.800   0.800

     PseudoPot. # 3 for N  read from file:
     /storage/coda1/p-amedford6/0/shared/rich_project_chbe-medford/medford-share/data/pseudos_module/espresso/nninc/pbe/van/N.UPF
     MD5 check sum: 90d10febe142ad51ac9d5be1deb811c4
     Pseudo is Ultrasoft, Zval =  5.0
     Generated by new atomic code, or converted to UPF format
     Using radial grid of  729 points,  4 beta functions with:
                l(1) =   0
                l(2) =   0
                l(3) =   1
                l(4) =   1
     Q(r) pseudized with  8 coefficients,  rinner =    0.800   0.800   0.800

     PseudoPot. # 4 for C  read from file:
     /storage/coda1/p-amedford6/0/shared/rich_project_chbe-medford/medford-share/data/pseudos_module/espresso/nninc/pbe/van/C.UPF
     MD5 check sum: 1a69bf6b8db32088f5b2163dbdb77a27
     Pseudo is Ultrasoft, Zval =  4.0
     Generated by new atomic code, or converted to UPF format
     Using radial grid of  721 points,  4 beta functions with:
                l(1) =   0
                l(2) =   0
                l(3) =   1
                l(4) =   1
     Q(r) pseudized with  8 coefficients,  rinner =    0.800   0.800   0.800

     PseudoPot. # 5 for H  read from file:
     /storage/coda1/p-amedford6/0/shared/rich_project_chbe-medford/medford-share/data/pseudos_module/espresso/nninc/pbe/van/H.UPF
     MD5 check sum: b5ee9d7bfd3a09ee7748110bda690ff7
     Pseudo is Ultrasoft, Zval =  1.0
     Generated by new atomic code, or converted to UPF format
     Using radial grid of  615 points,  1 beta functions with:
                l(1) =   0
     Q(r) pseudized with  8 coefficients,  rinner =    0.800

     atomic species   valence    mass     pseudopotential
        Ti1           12.00    47.86700     Ti( 1.00)
        O1             6.00    15.99900     O ( 1.00)
        N1             5.00    14.00700     N ( 1.00)
        C1             4.00    12.01100     C ( 1.00)
        H1             1.00     1.00800     H ( 1.00)

     No symmetry found

   Cartesian axes

     site n.     atom                  positions (alat units)
         1           Ti1 tau(   1) = (   0.0004258   2.9801865   6.0000000  )
         2           Ti1 tau(   2) = (   3.2906075   1.4906267   6.0002472  )
         3           O1  tau(   3) = (   0.0006271   0.0005054   7.9858123  )
         4           O1  tau(   4) = (   3.2906025   0.0005020   7.3038282  )
         5           O1  tau(   5) = (   4.5942328   1.4918067   9.2879030  )
         6           O1  tau(   6) = (   1.9868534   1.4903216   9.2879459  )
         7           Ti1 tau(   7) = (   3.2907910   2.8959150   9.1758416  )
         8           Ti1 tau(   8) = (   0.0015273   1.4827037   9.2680791  )
         9           O1  tau(   9) = (   3.3120675   0.0079458  11.3762204  )
        10           O1  tau(  10) = (   0.0116148   5.9584955  10.6183126  )
        11           O1  tau(  11) = (   1.3148726   1.5133626  12.6447579  )
        12           O1  tau(  12) = (   5.3140862   1.5122126  12.6508301  )
        13           Ti1 tau(  13) = (   0.0289753   2.9995974  12.5105963  )
        14           Ti1 tau(  14) = (   3.3300932   1.5144954  12.5190352  )
        15           O1  tau(  15) = (   0.0303621   0.0967028  14.6836000  )
        16           O1  tau(  16) = (   3.3188409   0.0235386  14.0025835  )
        17           O1  tau(  17) = (   4.5661268   1.5053193  16.2317874  )
        18           O1  tau(  18) = (   2.0488868   1.5039614  16.2002260  )
        19           Ti1 tau(  19) = (   3.3211226   2.9745325  15.7560014  )
        20           Ti1 tau(  20) = (   0.0641794   1.4487855  16.0607878  )
        21           O1  tau(  21) = (   3.2904802   0.0005063   4.7018136  )
        22           O1  tau(  22) = (   0.0207051   5.8381987  17.2232637  )
        23           O1  tau(  23) = (   1.3043587   1.4918075   6.0039043  )
        24           O1  tau(  24) = (   5.2767064   1.4903225   6.0039473  )
        25           Ti1 tau(  25) = (   0.0000382   5.9609847   6.0000000  )
        26           Ti1 tau(  26) = (   3.2902200   4.4714249   6.0002472  )
        27           O1  tau(  27) = (   0.0002396   2.9813036   7.9858123  )
        28           O1  tau(  28) = (   3.2902150   2.9813002   7.3038282  )
        29           O1  tau(  29) = (   4.5938453   4.4726049   9.2879030  )
        30           O1  tau(  30) = (   1.9864658   4.4711199   9.2879459  )
        31           Ti1 tau(  31) = (   3.2891106   5.8743827   9.1763621  )
        32           Ti1 tau(  32) = (   0.0006254   4.4649316   9.2693709  )
        33           O1  tau(  33) = (   3.3137607   3.0039157  11.3695003  )
        34           O1  tau(  34) = (   0.0092240   2.9805883  10.6323155  )
        35           O1  tau(  35) = (   1.3103219   4.4840529  12.6837359  )
        36           O1  tau(  36) = (   5.3166572   4.4842854  12.6901167  )
        37           Ti1 tau(  37) = (   0.0376818   0.0300362  12.4998423  )
        38           Ti1 tau(  38) = (   3.3279277   4.4933691  12.5326681  )
        39           O1  tau(  39) = (   0.0236785   2.9473731  14.9547601  )
        40           O1  tau(  40) = (   3.3158584   2.9778716  13.9675922  )
        41           O1  tau(  41) = (   4.5769684   4.4551829  16.1482216  )
        42           O1  tau(  42) = (   2.0574928   4.4544973  16.1629196  )
        43           Ti1 tau(  43) = (   3.3270828   0.0048838  15.7999907  )
        44           Ti1 tau(  44) = (   0.0216784   4.6657176  15.8371636  )
        45           O1  tau(  45) = (   3.2900926   2.9813045   4.7018136  )
        46           O1  tau(  46) = (   1.3039711   4.4726057   6.0039043  )
        47           O1  tau(  47) = (   5.2763189   4.4711207   6.0039473  )
        48           N1  tau(  48) = (   1.0300599   3.1028741  18.8625222  )
        49           N1  tau(  49) = (   6.4529598   2.6395754  18.1308714  )
        50           C1  tau(  50) = (   0.6566364   3.8075245  20.0867497  )
        51           H1  tau(  51) = (   6.5334193   4.6337433  19.9095685  )
        52           H1  tau(  52) = (   0.2127083   3.1054723  20.8045791  )
        53           H1  tau(  53) = (   1.5644534   4.2160081  20.5287796  )
        54           H1  tau(  54) = (   5.6912064   3.3271340  18.1715891  )
        55           H1  tau(  55) = (   6.1153184   1.7991689  18.5966666  )
        56           H1  tau(  56) = (   1.4989484   3.7555826  18.2384742  )

     number of k points=    10  Fermi-Dirac smearing, width (Ry)=  0.0073
                       cart. coord. in units 2pi/alat
        k(    1) = (   0.0000000   0.0000000   0.0000000), wk =   0.1250000
        k(    2) = (   0.0000000   0.0419351   0.0000000), wk =   0.2500000
        k(    3) = (   0.0000000  -0.0838702   0.0000000), wk =   0.1250000
        k(    4) = (   0.0379955   0.0000049   0.0000000), wk =   0.2500000
        k(    5) = (   0.0379955   0.0419400   0.0000000), wk =   0.2500000
        k(    6) = (   0.0379955  -0.0838652   0.0000000), wk =   0.2500000
        k(    7) = (   0.0379955  -0.0419301   0.0000000), wk =   0.2500000
        k(    8) = (  -0.0759910  -0.0000099   0.0000000), wk =   0.1250000
        k(    9) = (  -0.0759910   0.0419252   0.0000000), wk =   0.2500000
        k(   10) = (  -0.0759910  -0.0838800   0.0000000), wk =   0.1250000

     Initial potential from superposition of free atoms

     starting charge  381.99914, renormalised to  398.00000

     negative rho (up, down):  1.339E-02 0.000E+00

     %%%%%%%%%%%%%%%%%%%%%%%%%%%%%%%%%%%%%%%%%%%%%%%%%%%%%%%%%%%%%%%%%%%%%%%%
     %                                                                      %
     % You are using vdW-DF, which was implemented by the Thonhauser group. %
     % Please cite the following two papers that made this development      %
     % possible and the two reviews that describe the various versions:     %
     %                                                                      %
     %   T. Thonhauser et al., PRL 115, 136402 (2015).                      %
     %   T. Thonhauser et al., PRB 76, 125112 (2007).                       %
     %   K. Berland et al., Rep. Prog. Phys. 78, 066501 (2015).             %
     %   D.C. Langreth et al., J. Phys.: Condens. Matter 21, 084203 (2009). %
     %                                                                      %
     %                                                                      %
     % If you are calculating the stress with vdW-DF, please also cite:     %
     %                                                                      %
     %   R. Sabatini et al., J. Phys.: Condens. Matter 24, 424209 (2012).   %
     %                                                                      %
     %%%%%%%%%%%%%%%%%%%%%%%%%%%%%%%%%%%%%%%%%%%%%%%%%%%%%%%%%%%%%%%%%%%%%%%%

     Adding external electric field

     Computed dipole along edir(3) :
        Dipole              -11.7472 Ry au,        -29.8584 Debye
        Dipole field         -0.0222 Ry au,

        Potential amp.        2.0550 Ry
        Total length         46.3494 bohr

     Starting wfcs are  302 atomic wfcs
  @ DRIVER MODE: Message from server: STATUS
  @ DRIVER MODE: Message from server: POSDATA
  @ DRIVER MODE: Reading and sharing cell
  @ DRIVER MODE: Reading and sharing positions
  @ DRIVER MODE: Received positions

     Self-consistent Calculation

     iteration #  1     ecut=    29.40 Ry     beta= 0.05
     Davidson diagonalization with overlap
     c_bands:  1 eigenvalues not converged
     c_bands:  1 eigenvalues not converged
     c_bands:  1 eigenvalues not converged
     c_bands:  3 eigenvalues not converged
     c_bands:  3 eigenvalues not converged
     c_bands:  3 eigenvalues not converged
     c_bands:  4 eigenvalues not converged
     c_bands:  2 eigenvalues not converged
     ethr =  1.00E-05,  avg # of iterations = 21.6

[...]

     total energy              =   -2428.11241379 Ry
     estimated scf accuracy    <    5789.65461846 Ry

     iteration #  2     ecut=    29.40 Ry     beta= 0.05
     Davidson diagonalization with overlap
     ethr =  1.00E-02,  avg # of iterations = 22.0

[...]

     iteration # 70     ecut=    29.40 Ry     beta= 0.05
     Davidson diagonalization with overlap
     c_bands:  2 eigenvalues not converged
     c_bands:  1 eigenvalues not converged
     c_bands:  2 eigenvalues not converged
     c_bands:  1 eigenvalues not converged
     ethr =  2.49E-09,  avg # of iterations = 18.4

[...]

     total energy              =   -2942.85972460 Ry
     estimated scf accuracy    <       0.00000025 Ry

     iteration # 78     ecut=    29.40 Ry     beta= 0.05
     Davidson diagonalization with overlap
     ethr =  6.39E-11,  avg # of iterations =  6.4

     negative rho (up, down):  1.463E-02 0.000E+00

     Adding external electric field

     Computed dipole along edir(3) :
        Dipole                1.2218 Ry au,          3.1055 Debye
        Dipole field          0.0023 Ry au,

        Potential amp.       -0.2137 Ry
        Total length         46.3494 bohr

     End of self-consistent calculation

          k = 0.0000 0.0000 0.0000 ( 18029 PWs)   bands (ev):

   -55.3488 -55.3119 -55.3010 -55.2696 -55.2669 -55.2324 -55.2254 -55.1901
   -55.1690 -55.1453 -55.1345 -55.1326 -55.0990 -55.0266 -54.3305 -54.2965
   -31.9172 -31.8013 -31.7935 -31.7140 -31.6644 -31.6583 -31.6516 -31.6383
   -31.5901 -31.5894 -31.5583 -31.5529 -31.5459 -31.5297 -31.5187 -31.5110
   -31.5040 -31.4886 -31.4863 -31.4662 -31.4536 -31.4455 -31.4186 -31.4148
   -31.4036 -31.4010 -31.3998 -31.3716 -31.3583 -31.3559 -31.3510 -31.3315
   -31.3283 -31.3202 -31.3189 -31.3168 -31.2827 -31.2687 -31.2610 -31.2439
   -31.2330 -31.2084 -30.7400 -30.6456 -30.6235 -30.5562 -30.4695 -30.3587
   -17.7981 -16.1848 -15.9172 -15.7772 -15.6673 -15.5485 -15.4298 -15.4104
   -15.2783 -15.1956 -15.0754 -15.0524 -15.0261 -15.0069 -14.9945 -14.9797
   -14.8941 -14.8881 -14.8707 -14.8434 -14.8371 -14.7944 -14.7868 -14.7473
   -14.7258 -14.7245 -14.5959 -14.5082 -14.4365 -14.2001 -13.1755 -12.8332
   -12.7157  -9.7206  -6.3698  -5.3867  -4.8891  -3.5360  -3.4935  -3.3687
    -3.2789  -3.2636  -3.2417  -3.1055  -2.9519  -2.7819  -2.7669  -2.7369
    -2.6384  -2.5609  -2.5547  -2.5299  -2.3784  -2.3569  -2.3059  -2.2404
    -2.2128  -2.1648  -2.1540  -2.1326  -2.1133  -2.0933  -2.0851  -1.9712
    -1.9203  -1.8276  -1.7717  -1.7444  -1.7087  -1.6810  -1.6657  -1.6385
    -1.6305  -1.5879  -1.5609  -1.5390  -1.4879  -1.3758  -1.2668  -1.2368
    -1.1392  -0.9871  -0.9546  -0.9412  -0.9298  -0.8531  -0.8359  -0.7876
    -0.7352  -0.7272  -0.6962  -0.5854  -0.5269  -0.4619  -0.3954  -0.3837
    -0.3369  -0.2751  -0.1628  -0.1385  -0.1161  -0.0910   0.0029   0.0423
     0.0872   0.1620   0.1813   0.1950   0.3018   0.3095   0.3896   0.4017
     0.4473   0.5337   0.5681   0.5904   0.5942   0.6077   0.6376   0.7048
     0.7290   0.7554   0.8304   0.9543   1.0240   1.1864   1.2494   1.2630
     1.5927   1.5969   1.6921   1.8759   2.2683   2.3165   3.7486   3.8182
     3.8930   3.8997   3.9117   3.9854   4.2227   4.2389   4.2513   4.2575
     4.2923

[...]

          k = 0.0380-0.0419 0.0000 ( 17876 PWs)   bands (ev):

[...]

          k =-0.0760-0.0000 0.0000 ( 17886 PWs)   bands (ev):

[...]

          k =-0.0760-0.0839 0.0000 ( 17948 PWs)   bands (ev):

   -55.3346 -55.3259 -55.2839 -55.2838 -55.2681 -55.2291 -55.2119 -55.2036
   -55.1533 -55.1497 -55.1487 -55.1161 -55.1157 -55.0279 -54.3135 -54.3133
   -31.7244 -31.7214 -31.7179 -31.6341 -31.6087 -31.6084 -31.6058 -31.5754
   -31.5750 -31.5571 -31.5498 -31.5473 -31.5413 -31.5111 -31.5044 -31.4863
   -31.4861 -31.4820 -31.4787 -31.4736 -31.4703 -31.4697 -31.4325 -31.4274
   -31.4254 -31.4206 -31.4166 -31.4052 -31.4037 -31.4036 -31.3964 -31.3868
   -31.3827 -31.3665 -31.3631 -31.3471 -31.3463 -31.3372 -31.2969 -31.2967
   -31.2862 -31.2377 -30.6362 -30.6361 -30.5525 -30.5525 -30.5130 -30.5128
   -17.7934 -15.7080 -15.5963 -15.5500 -15.3769 -15.3547 -15.3321 -15.3173
   -15.1893 -15.1709 -15.1429 -15.1166 -15.0915 -15.0639 -15.0528 -15.0477
   -14.9653 -14.9534 -14.9460 -14.9298 -14.8619 -14.8589 -14.8546 -14.8488
   -14.7982 -14.7956 -14.7146 -14.7017 -14.7002 -14.5025 -13.1765 -12.8173
   -12.8172  -9.7171  -6.3572  -5.3865  -4.8949  -3.4657  -2.8647  -2.8292
    -2.8057  -2.7639  -2.5924  -2.5542  -2.5174  -2.5050  -2.4058  -2.3637
    -2.3459  -2.3387  -2.2683  -2.2649  -2.2341  -2.2040  -2.1831  -2.1660
    -2.1521  -2.1303  -2.1054  -2.0761  -2.0700  -2.0548  -2.0009  -1.9983
    -1.9826  -1.9605  -1.9431  -1.9220  -1.9055  -1.8488  -1.7265  -1.7163
    -1.6622  -1.5557  -1.5512  -1.4711  -1.4659  -1.4220  -1.3940  -1.3821
    -1.3548  -1.1746  -1.1210  -1.0947  -1.0872  -1.0754  -0.9668  -0.9328
    -0.8747  -0.8590  -0.8329  -0.7350  -0.6845  -0.6801  -0.5987  -0.5670
    -0.5279  -0.4863  -0.3851  -0.3555  -0.3357  -0.3067  -0.3033  -0.2497
    -0.2443  -0.1676  -0.1198  -0.0837  -0.0693  -0.0382   0.1612   0.1709
     0.1892   0.3361   0.3588   0.4991   0.5431   0.5849   0.6457   0.6974
     0.7633   0.8040   0.9309   0.9586   0.9594   1.0297   1.0502   1.0547
     1.1079   1.1097   2.0486   2.0492   2.1364   2.1368   3.8916   3.9962
     4.0111   4.0565   4.1663   4.2402   4.2633   4.2902   4.3329   4.3358
     4.4003

     the Fermi energy is     3.8114 ev

!    total energy              =   -2942.85973666 Ry
     estimated scf accuracy    <       0.00000007 Ry
     smearing contrib. (-TS)   =      -0.03700755 Ry
     internal energy E=F+TS    =   -2942.82272912 Ry

     The total energy is F=E-TS. E is the sum of the following terms:
     one-electron contribution =  -23389.09182114 Ry
     hartree contribution      =   11787.08006432 Ry
     xc contribution           =    -487.75163354 Ry
     ewald contribution        =    9146.93784416 Ry
     electric field correction =       0.00281708 Ry

     convergence has been achieved in  78 iterations

     Forces acting on atoms (cartesian axes, Ry/au):

     atom    1 type  1   force =     0.00000104   -0.00025995    0.09309864
     atom    2 type  1   force =    -0.00014533   -0.00044129   -0.17827826
     atom    3 type  2   force =     0.00007424   -0.00009616   -0.02025526
     atom    4 type  2   force =     0.00001639   -0.00186029    0.05880926
     atom    5 type  2   force =    -0.01020961   -0.00054039    0.00774497
     atom    6 type  2   force =     0.01226059    0.00007988    0.00820287
     atom    7 type  1   force =     0.00038863    0.00327297   -0.01426754
     atom    8 type  1   force =    -0.00045654    0.00046788   -0.00455737
     atom    9 type  2   force =    -0.00002582   -0.00061991   -0.00035813
     atom   10 type  2   force =    -0.00059550    0.00090562   -0.00140438
     atom   11 type  2   force =    -0.00038018   -0.00012643    0.00024072
     atom   12 type  2   force =     0.00007221   -0.00007277    0.00004912
     atom   13 type  1   force =     0.00005485   -0.00032135    0.00018905
     atom   14 type  1   force =    -0.00036354    0.00013077    0.00042235
     atom   15 type  2   force =    -0.00015784    0.00079969    0.00023658
     atom   16 type  2   force =    -0.00008747   -0.00018746    0.00032343
     atom   17 type  2   force =    -0.00045560    0.00004448    0.00041247
     atom   18 type  2   force =     0.00013984   -0.00021027   -0.00008918
     atom   19 type  1   force =     0.00035374    0.00027111    0.00089358
     atom   20 type  1   force =    -0.00062867   -0.00068256    0.00030227
     atom   21 type  2   force =     0.00000236   -0.00010033    0.10394303
     atom   22 type  2   force =    -0.00018819    0.00001722   -0.00061622
     atom   23 type  2   force =    -0.07034235   -0.00024655   -0.02687327
     atom   24 type  2   force =     0.07024394    0.00018191   -0.02695443
     atom   25 type  1   force =     0.00001944   -0.00026933    0.09277966
     atom   26 type  1   force =    -0.00011606   -0.00044148   -0.17831554
     atom   27 type  2   force =     0.00013937   -0.00032234   -0.01926334
     atom   28 type  2   force =     0.00008168   -0.00155628    0.05821296
     atom   29 type  2   force =    -0.01020602   -0.00034026    0.00696478
     atom   30 type  2   force =     0.01215861   -0.00009511    0.00749892
     atom   31 type  1   force =     0.00040078    0.00496047   -0.01539848
     atom   32 type  1   force =    -0.00037711   -0.00034034   -0.00466457
     atom   33 type  2   force =    -0.00021810   -0.00047639    0.00016921
     atom   34 type  2   force =    -0.00014166    0.00364929   -0.00059500
     atom   35 type  2   force =     0.00003331   -0.00055567    0.00032567
     atom   36 type  2   force =    -0.00019050   -0.00052363   -0.00002478
     atom   37 type  1   force =    -0.00025901   -0.00049562    0.00050631
     atom   38 type  1   force =    -0.00019272   -0.00089687    0.00045210
     atom   39 type  2   force =    -0.00047810   -0.00052806    0.00052339
     atom   40 type  2   force =     0.00001488   -0.00048694   -0.00041931
     atom   41 type  2   force =    -0.00080578   -0.00011258   -0.00012403
     atom   42 type  2   force =     0.00029765   -0.00026407   -0.00028238
     atom   43 type  1   force =     0.00006335   -0.00030538   -0.00005938
     atom   44 type  1   force =    -0.00009266   -0.00064088    0.00067387
     atom   45 type  2   force =     0.00001013   -0.00014814    0.10390496
     atom   46 type  2   force =    -0.07039587   -0.00016352   -0.02688023
     atom   47 type  2   force =     0.07025518    0.00028227   -0.02695013
     atom   48 type  3   force =    -0.00000455    0.00111836    0.00054430
     atom   49 type  3   force =     0.00016902    0.00098379   -0.00034140
     atom   50 type  4   force =    -0.00404372   -0.00375847    0.00530860
     atom   51 type  5   force =    -0.00061406   -0.00014571    0.00021217
     atom   52 type  5   force =     0.00302206    0.00399059   -0.00584196
     atom   53 type  5   force =     0.00119757    0.00055286    0.00055191
     atom   54 type  5   force =     0.00003918   -0.00055389   -0.00039352
     atom   55 type  5   force =     0.00054648   -0.00173434   -0.00030918
     atom   56 type  5   force =     0.00011605   -0.00078816    0.00002012

     Total force =     0.366300     Total SCF correction =     0.000465
  @ DRIVER MODE: Message from server: STATUS
  @ DRIVER MODE: Message from server: GETFORCE
  @ DRIVER MODE: Returning v,forces,stress,ensemble

     Writing output data file ./calc.save/
  @ DRIVER MODE: Message from server: EXIT
  @ DRIVE MODE: Exiting

     General routines

     Parallel routines

   This run was terminated on:   8:12:36   9Sep2021

   JOB DONE.