     Program PWSCF v.6.7GPU starts on  2Aug2021 at 17: 1:39

     R & G space division:  proc/nbgrp/npool/nimage =      16
     Reading input from /storage/home/hcoda1/3/ntian30/research/carbon/02Aug_vib_paired/ads_slab/CH3NNHH_a/out_0014/pw.inp
Warning: card &CELL ignored
Warning: card   CELL_DYNAMICS='IPI', ignored
Warning: card / ignored

     Current dimensions of program PWSCF are:
     Max number of different atomic species (ntypx) = 10
     Max number of k-points (npk) =  40000
     Max angular momentum in pseudopotentials (lmaxx) =  3
     Presently no symmetry can be used with electric field

     Message from routine cell_base_init:
     DEPRECATED: use true lattice parameter, not A to a.u. conversion factor

     IMPORTANT: XC functional enforced from input :
     Exchange-correlation= BEEF-VDW
                           (   1   4  43  14   2   0   0)
     Any further DFT definition will be discarded
     Please, verify this is what you really want

  @ DRIVER MODE: Connecting to
 qe_1139763_2482543.sched-torque.pace.gatech.edutx70bt2t_scratch
  using UNIX socket
  @ DRIVER MODE: Message from server: STATUS
  @ DRIVER MODE: Message from server: INIT
  @ DRIVER MODE: Receiving replica           0          -1
  @ DRIVER MODE: Receiving encoded integer          25
  @ DRIVER MODE:  SCF:  T  FORCE:  T  STRESS:  F  VC:  F  ENSEMBLE:  F
  @ DRIVER MODE:  SCF:  T  FORCE:  T  STRESS:  F  VC:  F  ENSEMBLE:  F

     Using Slab Decomposition

     bravais-lattice index     =            0
     lattice parameter (alat)  =       1.8897  a.u.
     unit-cell volume          =    6658.9804 (a.u.)^3
     number of atoms/cell      =           55
     number of atomic types    =            5
     number of electrons       =       397.00
     number of Kohn-Sham states=          208
     kinetic-energy cutoff     =      29.3995  Ry
     charge density cutoff     =     293.9946  Ry
     scf convergence threshold =      7.3E-08
     mixing beta               =       0.0500
     number of iterations used =            8  plain     mixing
     Exchange-correlation= BEEF-VDW
                           (   1   4  43  14   2   0   0)

     celldm(1)=   1.889726  celldm(2)=   0.000000  celldm(3)=   0.000000
     celldm(4)=   0.000000  celldm(5)=   0.000000  celldm(6)=   0.000000

     crystal axes: (cart. coord. in units of alat)
               a(1) = (   6.579727   0.000000   0.000000 )
               a(2) = (  -0.000775   5.961596   0.000000 )
               a(3) = (   0.000000   0.000000  25.155947 )

     reciprocal axes: (cart. coord. in units 2 pi/alat)
               b(1) = (  0.151982  0.000020  0.000000 )
               b(2) = (  0.000000  0.167740  0.000000 )
               b(3) = (  0.000000  0.000000  0.039752 )

     PseudoPot. # 1 for Ti read from file:
     /storage/coda1/p-amedford6/0/shared/rich_project_chbe-medford/medford-share/data/pseudos_module/espresso/nninc/pbe/van/Ti.UPF
     MD5 check sum: 8e4df49b7f0d34bbd5052bf3f5ea0213
     Pseudo is Ultrasoft, Zval = 12.0
     Generated by new atomic code, or converted to UPF format
     Using radial grid of  851 points,  6 beta functions with:
                l(1) =   0
                l(2) =   0
                l(3) =   1
                l(4) =   1
                l(5) =   2
                l(6) =   2
     Q(r) pseudized with  8 coefficients,  rinner =    1.000   1.000   1.000
                                                       1.000   1.000

     PseudoPot. # 2 for O  read from file:
     /storage/coda1/p-amedford6/0/shared/rich_project_chbe-medford/medford-share/data/pseudos_module/espresso/nninc/pbe/van/O.UPF
     MD5 check sum: 78c19812648e8988a0fe644b0f25305e
     Pseudo is Ultrasoft, Zval =  6.0
     Generated by new atomic code, or converted to UPF format
     Using radial grid of  737 points,  4 beta functions with:
                l(1) =   0
                l(2) =   0
                l(3) =   1
                l(4) =   1
     Q(r) pseudized with  8 coefficients,  rinner =    0.800   0.800   0.800

     PseudoPot. # 3 for N  read from file:
     /storage/coda1/p-amedford6/0/shared/rich_project_chbe-medford/medford-share/data/pseudos_module/espresso/nninc/pbe/van/N.UPF
     MD5 check sum: 90d10febe142ad51ac9d5be1deb811c4
     Pseudo is Ultrasoft, Zval =  5.0
     Generated by new atomic code, or converted to UPF format
     Using radial grid of  729 points,  4 beta functions with:
                l(1) =   0
                l(2) =   0
                l(3) =   1
                l(4) =   1
     Q(r) pseudized with  8 coefficients,  rinner =    0.800   0.800   0.800

     PseudoPot. # 4 for C  read from file:
     /storage/coda1/p-amedford6/0/shared/rich_project_chbe-medford/medford-share/data/pseudos_module/espresso/nninc/pbe/van/C.UPF
     MD5 check sum: 1a69bf6b8db32088f5b2163dbdb77a27
     Pseudo is Ultrasoft, Zval =  4.0
     Generated by new atomic code, or converted to UPF format
     Using radial grid of  721 points,  4 beta functions with:
                l(1) =   0
                l(2) =   0
                l(3) =   1
                l(4) =   1
     Q(r) pseudized with  8 coefficients,  rinner =    0.800   0.800   0.800

     PseudoPot. # 5 for H  read from file:
     /storage/coda1/p-amedford6/0/shared/rich_project_chbe-medford/medford-share/data/pseudos_module/espresso/nninc/pbe/van/H.UPF
     MD5 check sum: b5ee9d7bfd3a09ee7748110bda690ff7
     Pseudo is Ultrasoft, Zval =  1.0
     Generated by new atomic code, or converted to UPF format
     Using radial grid of  615 points,  1 beta functions with:
                l(1) =   0
     Q(r) pseudized with  8 coefficients,  rinner =    0.800

     atomic species   valence    mass     pseudopotential
        Ti1           12.00    47.86700     Ti( 1.00)
        O1             6.00    15.99900     O ( 1.00)
        N1             5.00    14.00700     N ( 1.00)
        C1             4.00    12.01100     C ( 1.00)
        H1             1.00     1.00800     H ( 1.00)

     No symmetry found

   Cartesian axes

     site n.     atom                  positions (alat units)
         1           Ti1 tau(   1) = (   0.0004258   2.9801865   6.0000000  )
         2           Ti1 tau(   2) = (   3.2906075   1.4906267   6.0002472  )
         3           O1  tau(   3) = (   0.0006271   0.0005054   7.9858123  )
         4           O1  tau(   4) = (   3.2906025   0.0005020   7.3038282  )
         5           O1  tau(   5) = (   4.5942328   1.4918067   9.2879030  )
         6           O1  tau(   6) = (   1.9868534   1.4903216   9.2879459  )
         7           Ti1 tau(   7) = (   3.2907910   2.8959150   9.1758416  )
         8           Ti1 tau(   8) = (   0.0015273   1.4827037   9.2680791  )
         9           O1  tau(   9) = (   3.3049802   0.0007868  11.3057318  )
        10           O1  tau(  10) = (   0.0116148   5.9584955  10.6183126  )
        11           O1  tau(  11) = (   1.3244024   1.4905818  12.6109357  )
        12           O1  tau(  12) = (   5.3168099   1.4893704  12.6271843  )
        13           Ti1 tau(  13) = (   6.5373159   3.0114403  12.6515439  )
        14           Ti1 tau(  14) = (   3.2156784   1.4952808  12.4541107  )
        15           O1  tau(  15) = (   0.0550716   5.9579553  14.6769760  )
        16           O1  tau(  16) = (   3.3119233   0.0240268  13.8744051  )
        17           O1  tau(  17) = (   4.5754650   1.5399768  16.1198157  )
        18           O1  tau(  18) = (   2.0928293   1.5118261  15.9950610  )
        19           Ti1 tau(  19) = (   3.3312717   3.0210965  15.6459898  )
        20           Ti1 tau(  20) = (   0.0837956   1.4057146  15.8023643  )
        21           O1  tau(  21) = (   3.2904802   0.0005063   4.7018136  )
        22           O1  tau(  22) = (   0.0662678   0.0194342  17.2484716  )
        23           O1  tau(  23) = (   1.3043587   1.4918075   6.0039043  )
        24           O1  tau(  24) = (   5.2767064   1.4903225   6.0039473  )
        25           Ti1 tau(  25) = (   0.0000382   5.9609847   6.0000000  )
        26           Ti1 tau(  26) = (   3.2902200   4.4714249   6.0002472  )
        27           O1  tau(  27) = (   0.0002396   2.9813036   7.9858123  )
        28           O1  tau(  28) = (   3.2902150   2.9813002   7.3038282  )
        29           O1  tau(  29) = (   4.5938453   4.4726049   9.2879030  )
        30           O1  tau(  30) = (   1.9864658   4.4711199   9.2879459  )
        31           Ti1 tau(  31) = (   3.2891106   5.8743827   9.1763621  )
        32           Ti1 tau(  32) = (   0.0006254   4.4649316   9.2693709  )
        33           O1  tau(  33) = (   3.3066024   2.9928613  11.3071500  )
        34           O1  tau(  34) = (   0.0092240   2.9805883  10.6323155  )
        35           O1  tau(  35) = (   1.3207996   4.4694119  12.6241097  )
        36           O1  tau(  36) = (   5.3140488   4.4801720  12.6365454  )
        37           Ti1 tau(  37) = (   6.5381296   0.0208815  12.5444857  )
        38           Ti1 tau(  38) = (   3.2183512   4.4801350  12.4586296  )
        39           O1  tau(  39) = (   0.0202472   2.9427232  14.7250097  )
        40           O1  tau(  40) = (   3.3152672   2.9848540  13.8607131  )
        41           O1  tau(  41) = (   4.5737023   4.5140360  15.9163038  )
        42           O1  tau(  42) = (   2.1295162   4.4918226  16.0779194  )
        43           Ti1 tau(  43) = (   3.3279662   0.0229233  15.6733299  )
        44           Ti1 tau(  44) = (   6.5520288   4.5036137  16.2892914  )
        45           O1  tau(  45) = (   3.2900926   2.9813045   4.7018136  )
        46           O1  tau(  46) = (   1.3039711   4.4726057   6.0039043  )
        47           O1  tau(  47) = (   5.2763189   4.4711207   6.0039473  )
        48           N1  tau(  48) = (   0.3708600   2.9881754  17.6030774  )
        49           C1  tau(  49) = (   1.3543844   2.7351176  18.6431602  )
        50           H1  tau(  50) = (   1.5186739   3.6319226  19.2591966  )
        51           H1  tau(  51) = (   1.0320479   1.9069190  19.2840631  )
        52           H1  tau(  52) = (   2.3019873   2.4496563  18.1994378  )
        53           N1  tau(  53) = (   5.7269228   3.4566738  18.1314761  )
        54           H1  tau(  54) = (   5.8315057   4.0292447  18.9662490  )
        55           H1  tau(  55) = (   5.0361168   2.7172796  18.2515220  )

     number of k points=    10  Fermi-Dirac smearing, width (Ry)=  0.0073
                       cart. coord. in units 2pi/alat
        k(    1) = (   0.0000000   0.0000000   0.0000000), wk =   0.1250000
        k(    2) = (   0.0000000   0.0419351   0.0000000), wk =   0.2500000
        k(    3) = (   0.0000000  -0.0838702   0.0000000), wk =   0.1250000
        k(    4) = (   0.0379955   0.0000049   0.0000000), wk =   0.2500000
        k(    5) = (   0.0379955   0.0419400   0.0000000), wk =   0.2500000
        k(    6) = (   0.0379955  -0.0838652   0.0000000), wk =   0.2500000
        k(    7) = (   0.0379955  -0.0419301   0.0000000), wk =   0.2500000
        k(    8) = (  -0.0759910  -0.0000099   0.0000000), wk =   0.1250000
        k(    9) = (  -0.0759910   0.0419252   0.0000000), wk =   0.2500000
        k(   10) = (  -0.0759910  -0.0838800   0.0000000), wk =   0.1250000

     Initial potential from superposition of free atoms

     starting charge  380.99914, renormalised to  397.00000

     negative rho (up, down):  1.665E-02 0.000E+00

     %%%%%%%%%%%%%%%%%%%%%%%%%%%%%%%%%%%%%%%%%%%%%%%%%%%%%%%%%%%%%%%%%%%%%%%%
     %                                                                      %
     % You are using vdW-DF, which was implemented by the Thonhauser group. %
     % Please cite the following two papers that made this development      %
     % possible and the two reviews that describe the various versions:     %
     %                                                                      %
     %   T. Thonhauser et al., PRL 115, 136402 (2015).                      %
     %   T. Thonhauser et al., PRB 76, 125112 (2007).                       %
     %   K. Berland et al., Rep. Prog. Phys. 78, 066501 (2015).             %
     %   D.C. Langreth et al., J. Phys.: Condens. Matter 21, 084203 (2009). %
     %                                                                      %
     %                                                                      %
     % If you are calculating the stress with vdW-DF, please also cite:     %
     %                                                                      %
     %   R. Sabatini et al., J. Phys.: Condens. Matter 24, 424209 (2012).   %
     %                                                                      %
     %%%%%%%%%%%%%%%%%%%%%%%%%%%%%%%%%%%%%%%%%%%%%%%%%%%%%%%%%%%%%%%%%%%%%%%%

     Adding external electric field

     Computed dipole along edir(3) :
        Dipole               -9.2540 Ry au,        -23.5213 Debye
        Dipole field         -0.0175 Ry au,

        Potential amp.        1.6188 Ry
        Total length         46.3494 bohr

     Starting wfcs are  301 atomic wfcs
  @ DRIVER MODE: Message from server: STATUS
  @ DRIVER MODE: Message from server: POSDATA
  @ DRIVER MODE: Reading and sharing cell
  @ DRIVER MODE: Reading and sharing positions
  @ DRIVER MODE: Received positions

     Self-consistent Calculation

     iteration #  1     ecut=    29.40 Ry     beta= 0.05
     Davidson diagonalization with overlap
     c_bands:  1 eigenvalues not converged
     c_bands:  2 eigenvalues not converged
     c_bands:  1 eigenvalues not converged
     c_bands:  2 eigenvalues not converged
     c_bands:  2 eigenvalues not converged
     c_bands:  1 eigenvalues not converged
     c_bands:  2 eigenvalues not converged
     c_bands:  2 eigenvalues not converged
     c_bands:  4 eigenvalues not converged
     ethr =  1.00E-05,  avg # of iterations = 19.7

[...]

     total energy              =   -2525.58777236 Ry
     estimated scf accuracy    <    4612.75748158 Ry

     iteration #  2     ecut=    29.40 Ry     beta= 0.05
     Davidson diagonalization with overlap
     ethr =  1.00E-02,  avg # of iterations = 22.9

[...]

     iteration # 68     ecut=    29.40 Ry     beta= 0.05
     Davidson diagonalization with overlap
     c_bands:  2 eigenvalues not converged
     ethr =  1.97E-09,  avg # of iterations = 14.3

[...]

     total energy              =   -2941.63749959 Ry
     estimated scf accuracy    <       0.00000009 Ry

     iteration # 75     ecut=    29.40 Ry     beta= 0.05
     Davidson diagonalization with overlap
     ethr =  2.39E-11,  avg # of iterations =  9.6

     negative rho (up, down):  1.675E-02 0.000E+00

     Adding external electric field

     Computed dipole along edir(3) :
        Dipole                1.1494 Ry au,          2.9215 Debye
        Dipole field          0.0022 Ry au,

        Potential amp.       -0.2011 Ry
        Total length         46.3494 bohr

     End of self-consistent calculation

          k = 0.0000 0.0000 0.0000 ( 18029 PWs)   bands (ev):

   -55.5727 -55.5699 -55.5358 -55.5358 -55.4588 -55.4227 -55.4209 -55.3876
   -55.3699 -55.3359 -55.3247 -55.2908 -55.0322 -54.8880 -54.5358 -54.5018
   -32.1354 -32.0511 -31.9561 -31.8921 -31.8871 -31.8721 -31.8624 -31.8172
   -31.8103 -31.8039 -31.7836 -31.7585 -31.7546 -31.7252 -31.7222 -31.7146
   -31.6731 -31.6597 -31.6568 -31.6475 -31.6468 -31.6272 -31.6106 -31.5950
   -31.5681 -31.5675 -31.5655 -31.5575 -31.5551 -31.5285 -31.5049 -31.5041
   -31.4989 -31.4920 -31.4791 -31.4733 -31.4383 -31.3086 -31.2571 -31.1588
   -31.1408 -31.0487 -30.9423 -30.8556 -30.8331 -30.7593 -30.6729 -30.5615
   -17.5923 -16.3612 -16.0480 -15.8368 -15.7257 -15.7211 -15.6374 -15.4162
   -15.2962 -15.2807 -15.1645 -15.1595 -15.1011 -15.0602 -15.0538 -15.0480
   -15.0133 -15.0009 -14.9830 -14.9527 -14.9140 -14.8962 -14.8765 -14.7703
   -14.7086 -14.6987 -14.6827 -14.6156 -14.5718 -14.2078 -13.0379 -12.9217
   -12.5420  -9.2067  -6.3476  -5.0997  -4.2013  -3.7395  -3.5485  -3.4730
    -3.4378  -3.3721  -3.3497  -3.1812  -3.1743  -2.7964  -2.7755  -2.7564
    -2.7348  -2.7322  -2.4642  -2.4108  -2.3948  -2.3924  -2.3748  -2.3571
    -2.3358  -2.3248  -2.2968  -2.2891  -2.1552  -2.1104  -2.0316  -2.0011
    -1.9909  -1.8781  -1.8544  -1.8330  -1.8221  -1.8074  -1.7793  -1.7714
    -1.7510  -1.6422  -1.5334  -1.4599  -1.4134  -1.3605  -1.3413  -1.1616
    -1.1113  -1.0524  -1.0270  -1.0021  -0.9869  -0.9534  -0.8792  -0.8560
    -0.7133  -0.6747  -0.6222  -0.5959  -0.5653  -0.5095  -0.4745  -0.4467
    -0.3508  -0.3374  -0.3258  -0.3129  -0.2533  -0.0650  -0.0175   0.0005
     0.0162   0.1163   0.1559   0.1789   0.2157   0.2714   0.2974   0.3641
     0.3942   0.4135   0.4236   0.4475   0.4699   0.6015   0.6290   0.6592
     0.7183   0.7722   0.8487   0.9608   1.0469   1.0998   1.2010   1.4195
     1.4866   1.5704   1.6803   1.7011   2.0561   2.1011   3.5654   3.6559
     3.6942   3.7081   3.8150   3.8666   4.0143   4.0242   4.0670   4.0958

[...]

          k = 0.0380-0.0419 0.0000 ( 17876 PWs)   bands (ev):

[...]

          k =-0.0760-0.0000 0.0000 ( 17886 PWs)   bands (ev):

[...]

          k =-0.0760-0.0839 0.0000 ( 17948 PWs)   bands (ev):

   -55.5574 -55.5533 -55.5522 -55.5508 -55.4481 -55.4316 -55.4077 -55.4025
   -55.3543 -55.3511 -55.3093 -55.3062 -55.0307 -54.8893 -54.5188 -54.5187
   -31.9404 -31.9316 -31.8668 -31.8661 -31.8483 -31.8474 -31.8425 -31.8273
   -31.8003 -31.7866 -31.7673 -31.7485 -31.7203 -31.7117 -31.7067 -31.6818
   -31.6792 -31.6731 -31.6718 -31.6669 -31.6640 -31.6508 -31.6476 -31.6438
   -31.6247 -31.6128 -31.6027 -31.6007 -31.5516 -31.5495 -31.5423 -31.5406
   -31.5337 -31.5302 -31.5246 -31.5231 -31.4140 -31.3209 -31.2589 -31.2199
   -31.1464 -31.0606 -30.8459 -30.8458 -30.7552 -30.7550 -30.7161 -30.7161
   -17.5805 -15.8189 -15.7833 -15.5255 -15.5180 -15.5163 -15.4746 -15.3520
   -15.3034 -15.2768 -15.2653 -15.2465 -15.2400 -15.1352 -15.1226 -15.1053
   -15.0955 -15.0696 -15.0258 -15.0200 -15.0128 -15.0026 -14.9907 -14.9262
   -14.8713 -14.8675 -14.7592 -14.6644 -14.5220 -14.4381 -13.0237 -13.0235
   -12.5614  -9.1673  -6.3073  -5.1299  -4.1317  -3.4203  -3.1201  -3.0761
    -2.7875  -2.7683  -2.7544  -2.6380  -2.5178  -2.5091  -2.4843  -2.4608
    -2.4284  -2.4139  -2.4051  -2.3970  -2.3791  -2.3602  -2.3491  -2.3106
    -2.2413  -2.2336  -2.2250  -2.2163  -2.1999  -2.1761  -2.1660  -2.1381
    -2.1138  -2.0804  -2.0209  -1.9904  -1.8397  -1.7934  -1.7386  -1.6948
    -1.6864  -1.6574  -1.6240  -1.6164  -1.5085  -1.4940  -1.4588  -1.3289
    -1.2673  -1.2595  -1.2268  -1.1414  -1.1018  -0.9722  -0.9593  -0.9234
    -0.8693  -0.8585  -0.8215  -0.7840  -0.7318  -0.6801  -0.6361  -0.6118
    -0.5953  -0.5235  -0.5227  -0.4763  -0.4189  -0.3502  -0.3257  -0.3180
    -0.2867  -0.2425  -0.1967  -0.1317  -0.0571  -0.0373  -0.0213   0.0765
     0.1526   0.3686   0.4143   0.5160   0.5358   0.5606   0.6240   0.6727
     0.7424   0.7564   0.7857   0.8596   0.8813   0.9727   0.9832   0.9996
     1.1783   1.6333   1.8520   1.8529   1.9207   1.9213   3.8596   3.8731
     3.8993   3.9233   4.0848   4.0886   4.1007   4.1034   4.2237   4.2570

     the Fermi energy is     3.5643 ev

!    total energy              =   -2941.63751964 Ry
     estimated scf accuracy    <       0.00000006 Ry
     smearing contrib. (-TS)   =      -0.02170804 Ry
     internal energy E=F+TS    =   -2941.61581160 Ry

     The total energy is F=E-TS. E is the sum of the following terms:
     one-electron contribution =  -24405.26635801 Ry
     hartree contribution      =   12294.58537175 Ry
     xc contribution           =    -486.94361727 Ry
     ewald contribution        =    9656.00629876 Ry
     electric field correction =       0.00249318 Ry

     convergence has been achieved in  75 iterations

     Forces acting on atoms (cartesian axes, Ry/au):

     atom    1 type  1   force =     0.00002213   -0.00018813    0.09680961
     atom    2 type  1   force =     0.00010930   -0.00067248   -0.17456944
     atom    3 type  2   force =     0.00019954   -0.00005907   -0.02508520
     atom    4 type  2   force =     0.00001585   -0.00122169    0.05106239
     atom    5 type  2   force =    -0.01106288   -0.00078390    0.00213676
     atom    6 type  2   force =     0.01301596   -0.00028425    0.00281505
     atom    7 type  1   force =     0.00113728    0.00020487   -0.01335899
     atom    8 type  1   force =    -0.00018606    0.01540685    0.02797864
     atom    9 type  2   force =    -0.00011344    0.00045091    0.00001238
     atom   10 type  2   force =    -0.00221584    0.00097563   -0.01125002
     atom   11 type  2   force =     0.00028149   -0.00011298    0.00017690
     atom   12 type  2   force =    -0.00025760   -0.00011990    0.00040415
     atom   13 type  1   force =    -0.00008598   -0.00027726    0.00009929
     atom   14 type  1   force =     0.00012000    0.00012320   -0.00004440
     atom   15 type  2   force =     0.00010866   -0.00053204   -0.00034282
     atom   16 type  2   force =    -0.00043833    0.00016929    0.00028186
     atom   17 type  2   force =    -0.00015836   -0.00002995   -0.00008529
     atom   18 type  2   force =    -0.00039336   -0.00003740    0.00011552
     atom   19 type  1   force =    -0.00004470    0.00034013   -0.00024602
     atom   20 type  1   force =    -0.00029544   -0.00004628    0.00019881
     atom   21 type  2   force =     0.00004971   -0.00009879    0.10296766
     atom   22 type  2   force =    -0.00075358   -0.00040234    0.00035223
     atom   23 type  2   force =    -0.07180041   -0.00021880   -0.02779550
     atom   24 type  2   force =     0.07177109    0.00023560   -0.02785306
     atom   25 type  1   force =     0.00004712   -0.00022951    0.09635611
     atom   26 type  1   force =    -0.00001155   -0.00030607   -0.17484260
     atom   27 type  2   force =     0.00020221   -0.00025344   -0.02393034
     atom   28 type  2   force =     0.00007572   -0.00096187    0.05129011
     atom   29 type  2   force =    -0.01106025    0.00095833    0.00149933
     atom   30 type  2   force =     0.01286682    0.00120146    0.00213257
     atom   31 type  1   force =     0.00115251    0.00257803   -0.01567043
     atom   32 type  1   force =    -0.00002088   -0.01667550    0.02889130
     atom   33 type  2   force =    -0.00017650   -0.00045488    0.00044106
     atom   34 type  2   force =    -0.00258482    0.00114751   -0.01889265
     atom   35 type  2   force =    -0.00012014   -0.00011317    0.00004484
     atom   36 type  2   force =    -0.00003187   -0.00018888    0.00023412
     atom   37 type  1   force =    -0.00024837   -0.00016380    0.00047714
     atom   38 type  1   force =     0.00010459   -0.00054057    0.00035217
     atom   39 type  2   force =     0.00004927    0.00047288    0.00021531
     atom   40 type  2   force =    -0.00031707   -0.00013120   -0.00069923
     atom   41 type  2   force =     0.00019140    0.00001083    0.00004570
     atom   42 type  2   force =    -0.00017268    0.00019822    0.00020609
     atom   43 type  1   force =     0.00003333   -0.00043860   -0.00077302
     atom   44 type  1   force =    -0.00054929    0.00141865   -0.00026114
     atom   45 type  2   force =     0.00006027   -0.00011228    0.10297308
     atom   46 type  2   force =    -0.07182222   -0.00017032   -0.02780650
     atom   47 type  2   force =     0.07178133    0.00021569   -0.02785367
     atom   48 type  3   force =     0.00021938   -0.00076556    0.00072852
     atom   49 type  4   force =     0.00199153    0.00178242    0.00087987
     atom   50 type  5   force =    -0.00197470   -0.00105156   -0.00052523
     atom   51 type  5   force =    -0.00082713   -0.00029135    0.00011939
     atom   52 type  5   force =     0.00118005   -0.00114570   -0.00051094
     atom   53 type  3   force =     0.00025182    0.00058246    0.00079208
     atom   54 type  5   force =     0.00063941   -0.00026023    0.00106183
     atom   55 type  5   force =     0.00004565    0.00086680   -0.00175537

     Total force =     0.367102     Total SCF correction =     0.000575
  @ DRIVER MODE: Message from server: STATUS
  @ DRIVER MODE: Message from server: GETFORCE
  @ DRIVER MODE: Returning v,forces,stress,ensemble

     Writing output data file ./calc.save/
  @ DRIVER MODE: Message from server: EXIT
  @ DRIVE MODE: Exiting

     General routines

     Parallel routines

   This run was terminated on:  17:19:30   2Aug2021

   JOB DONE.