     Program PWSCF v.6.7GPU starts on 20Sep2021 at 10:42: 1

     R & G space division:  proc/nbgrp/npool/nimage =      10
     Reading input from /storage/home/hcoda1/3/ntian30/research/carbon/CxH_vib/CH3_calc/ads_slab/CH3O_a/out_0006/pw.inp
Warning: card &CELL ignored
Warning: card   CELL_DYNAMICS='IPI', ignored
Warning: card / ignored

     Current dimensions of program PWSCF are:
     Max number of different atomic species (ntypx) = 10
     Max number of k-points (npk) =  40000
     Max angular momentum in pseudopotentials (lmaxx) =  3
     Presently no symmetry can be used with electric field

     Message from routine cell_base_init:
     DEPRECATED: use true lattice parameter, not A to a.u. conversion factor

     IMPORTANT: XC functional enforced from input :
     Exchange-correlation= BEEF-VDW
                           (   1   4  43  14   2   0   0)
     Any further DFT definition will be discarded
     Please, verify this is what you really want

  @ DRIVER MODE: Connecting to
 qe_1139763_2907627.sched-torque.pace.gatech.eduzri2oqth_scratch
  using UNIX socket
  @ DRIVER MODE: Message from server: STATUS
  @ DRIVER MODE: Message from server: INIT
  @ DRIVER MODE: Receiving replica           0          -1
  @ DRIVER MODE: Receiving encoded integer          25
  @ DRIVER MODE:  SCF:  T  FORCE:  T  STRESS:  F  VC:  F  ENSEMBLE:  F
  @ DRIVER MODE:  SCF:  T  FORCE:  T  STRESS:  F  VC:  F  ENSEMBLE:  F

     Using Slab Decomposition

     bravais-lattice index     =            0
     lattice parameter (alat)  =       1.8897  a.u.
     unit-cell volume          =    6658.9804 (a.u.)^3
     number of atoms/cell      =           52
     number of atomic types    =            4
     number of electrons       =       391.00
     number of Kohn-Sham states=          205
     kinetic-energy cutoff     =      29.3995  Ry
     charge density cutoff     =     293.9946  Ry
     scf convergence threshold =      7.3E-08
     mixing beta               =       0.0500
     number of iterations used =            8  plain     mixing
     Exchange-correlation= BEEF-VDW
                           (   1   4  43  14   2   0   0)

     celldm(1)=   1.889726  celldm(2)=   0.000000  celldm(3)=   0.000000
     celldm(4)=   0.000000  celldm(5)=   0.000000  celldm(6)=   0.000000

     crystal axes: (cart. coord. in units of alat)
               a(1) = (   6.579727   0.000000   0.000000 )
               a(2) = (  -0.000775   5.961596   0.000000 )
               a(3) = (   0.000000   0.000000  25.155947 )

     reciprocal axes: (cart. coord. in units 2 pi/alat)
               b(1) = (  0.151982  0.000020  0.000000 )
               b(2) = (  0.000000  0.167740  0.000000 )
               b(3) = (  0.000000  0.000000  0.039752 )

     PseudoPot. # 1 for Ti read from file:
     /storage/coda1/p-amedford6/0/shared/rich_project_chbe-medford/medford-share/data/pseudos_module/espresso/nninc/pbe/van/Ti.UPF
     MD5 check sum: 8e4df49b7f0d34bbd5052bf3f5ea0213
     Pseudo is Ultrasoft, Zval = 12.0
     Generated by new atomic code, or converted to UPF format
     Using radial grid of  851 points,  6 beta functions with:
                l(1) =   0
                l(2) =   0
                l(3) =   1
                l(4) =   1
                l(5) =   2
                l(6) =   2
     Q(r) pseudized with  8 coefficients,  rinner =    1.000   1.000   1.000
                                                       1.000   1.000

     PseudoPot. # 2 for O  read from file:
     /storage/coda1/p-amedford6/0/shared/rich_project_chbe-medford/medford-share/data/pseudos_module/espresso/nninc/pbe/van/O.UPF
     MD5 check sum: 78c19812648e8988a0fe644b0f25305e
     Pseudo is Ultrasoft, Zval =  6.0
     Generated by new atomic code, or converted to UPF format
     Using radial grid of  737 points,  4 beta functions with:
                l(1) =   0
                l(2) =   0
                l(3) =   1
                l(4) =   1
     Q(r) pseudized with  8 coefficients,  rinner =    0.800   0.800   0.800

     PseudoPot. # 3 for C  read from file:
     /storage/coda1/p-amedford6/0/shared/rich_project_chbe-medford/medford-share/data/pseudos_module/espresso/nninc/pbe/van/C.UPF
     MD5 check sum: 1a69bf6b8db32088f5b2163dbdb77a27
     Pseudo is Ultrasoft, Zval =  4.0
     Generated by new atomic code, or converted to UPF format
     Using radial grid of  721 points,  4 beta functions with:
                l(1) =   0
                l(2) =   0
                l(3) =   1
                l(4) =   1
     Q(r) pseudized with  8 coefficients,  rinner =    0.800   0.800   0.800

     PseudoPot. # 4 for H  read from file:
     /storage/coda1/p-amedford6/0/shared/rich_project_chbe-medford/medford-share/data/pseudos_module/espresso/nninc/pbe/van/H.UPF
     MD5 check sum: b5ee9d7bfd3a09ee7748110bda690ff7
     Pseudo is Ultrasoft, Zval =  1.0
     Generated by new atomic code, or converted to UPF format
     Using radial grid of  615 points,  1 beta functions with:
                l(1) =   0
     Q(r) pseudized with  8 coefficients,  rinner =    0.800

     atomic species   valence    mass     pseudopotential
        Ti1           12.00    47.86700     Ti( 1.00)
        O1             6.00    15.99900     O ( 1.00)
        C1             4.00    12.01100     C ( 1.00)
        H1             1.00     1.00800     H ( 1.00)

     No symmetry found

   Cartesian axes

     site n.     atom                  positions (alat units)
         1           Ti1 tau(   1) = (   0.0004258   2.9801865   6.0000000  )
         2           Ti1 tau(   2) = (   3.2906075   1.4906267   6.0002472  )
         3           O1  tau(   3) = (   0.0006271   0.0005054   7.9858123  )
         4           O1  tau(   4) = (   3.2906025   0.0005020   7.3038282  )
         5           O1  tau(   5) = (   4.5942328   1.4918067   9.2879030  )
         6           O1  tau(   6) = (   1.9868534   1.4903216   9.2879459  )
         7           Ti1 tau(   7) = (   3.3187032   3.0312427   9.1575206  )
         8           Ti1 tau(   8) = (   0.0282419   1.6147502   9.3704053  )
         9           O1  tau(   9) = (   3.3236385   0.0141534  11.3532293  )
        10           O1  tau(  10) = (   0.0104197   0.0125229  10.6127740  )
        11           O1  tau(  11) = (   1.3245732   1.5021988  12.6430083  )
        12           O1  tau(  12) = (   5.3244981   1.5061434  12.6562219  )
        13           Ti1 tau(  13) = (   0.0403031   3.0097444  12.8244759  )
        14           Ti1 tau(  14) = (   3.3296682   1.5108177  12.4986020  )
        15           O1  tau(  15) = (   0.0398480   0.0117783  14.7343716  )
        16           O1  tau(  16) = (   3.3300567   0.0146708  13.9469669  )
        17           O1  tau(  17) = (   4.5805658   1.5026465  16.1145873  )
        18           O1  tau(  18) = (   2.0880061   1.5021997  16.1152651  )
        19           Ti1 tau(  19) = (   3.3307167   2.9906167  15.7324548  )
        20           Ti1 tau(  20) = (   0.0579274   1.3843852  16.1188819  )
        21           O1  tau(  21) = (   3.2904802   0.0005063   4.7018136  )
        22           O1  tau(  22) = (   0.0436517   5.9586681  17.2572535  )
        23           O1  tau(  23) = (   1.3043587   1.4918075   6.0039043  )
        24           O1  tau(  24) = (   5.2767064   1.4903225   6.0039473  )
        25           Ti1 tau(  25) = (   0.0000382   5.9609847   6.0000000  )
        26           Ti1 tau(  26) = (   3.2902200   4.4714249   6.0002472  )
        27           O1  tau(  27) = (   0.0002396   2.9813036   7.9858123  )
        28           O1  tau(  28) = (   3.2902150   2.9813002   7.3038282  )
        29           O1  tau(  29) = (   4.5938453   4.4726049   9.2879030  )
        30           O1  tau(  30) = (   1.9864658   4.4711199   9.2879459  )
        31           Ti1 tau(  31) = (   3.3083866   0.0539517   9.1541167  )
        32           Ti1 tau(  32) = (   0.0315341   4.5377404   9.2709708  )
        33           O1  tau(  33) = (   3.3215087   2.9954721  11.3555336  )
        34           O1  tau(  34) = (   0.0112336   2.9957203  10.5730616  )
        35           O1  tau(  35) = (   1.3257220   4.4896437  12.6447561  )
        36           O1  tau(  36) = (   5.3225596   4.4851362  12.6583724  )
        37           Ti1 tau(  37) = (   0.0354833   0.0274604  12.5282598  )
        38           Ti1 tau(  38) = (   3.3297026   4.4921445  12.4963722  )
        39           O1  tau(  39) = (   0.0599690   3.0154325  14.7102929  )
        40           O1  tau(  40) = (   3.3251099   2.9889739  13.9402376  )
        41           O1  tau(  41) = (   4.5781535   4.4756942  16.0984728  )
        42           O1  tau(  42) = (   2.0867977   4.4764083  16.0997756  )
        43           Ti1 tau(  43) = (   3.3478802   0.0108728  15.7387323  )
        44           Ti1 tau(  44) = (   0.0598937   4.5429110  15.9843511  )
        45           O1  tau(  45) = (   3.2900926   2.9813045   4.7018136  )
        46           O1  tau(  46) = (   1.3039711   4.4726057   6.0039043  )
        47           O1  tau(  47) = (   5.2763189   4.4711207   6.0039473  )
        48           C1  tau(  48) = (   6.0696523   3.0631652  18.6764891  )
        49           O1  tau(  49) = (   0.0149881   2.9985468  17.3426271  )
        50           H1  tau(  50) = (   4.9903245   2.8753800  18.6581135  )
        51           H1  tau(  51) = (   6.5502243   2.3063723  19.2898855  )
        52           H1  tau(  52) = (   6.2508803   4.0560215  19.0798806  )

     number of k points=    10  Fermi-Dirac smearing, width (Ry)=  0.0073
                       cart. coord. in units 2pi/alat
        k(    1) = (   0.0000000   0.0000000   0.0000000), wk =   0.1250000
        k(    2) = (   0.0000000   0.0419351   0.0000000), wk =   0.2500000
        k(    3) = (   0.0000000  -0.0838702   0.0000000), wk =   0.1250000
        k(    4) = (   0.0379955   0.0000049   0.0000000), wk =   0.2500000
        k(    5) = (   0.0379955   0.0419400   0.0000000), wk =   0.2500000
        k(    6) = (   0.0379955  -0.0838652   0.0000000), wk =   0.2500000
        k(    7) = (   0.0379955  -0.0419301   0.0000000), wk =   0.2500000
        k(    8) = (  -0.0759910  -0.0000099   0.0000000), wk =   0.1250000
        k(    9) = (  -0.0759910   0.0419252   0.0000000), wk =   0.2500000
        k(   10) = (  -0.0759910  -0.0838800   0.0000000), wk =   0.1250000

     Initial potential from superposition of free atoms

     starting charge  374.99918, renormalised to  391.00000

     negative rho (up, down):  1.818E-02 0.000E+00

     %%%%%%%%%%%%%%%%%%%%%%%%%%%%%%%%%%%%%%%%%%%%%%%%%%%%%%%%%%%%%%%%%%%%%%%%
     %                                                                      %
     % You are using vdW-DF, which was implemented by the Thonhauser group. %
     % Please cite the following two papers that made this development      %
     % possible and the two reviews that describe the various versions:     %
     %                                                                      %
     %   T. Thonhauser et al., PRL 115, 136402 (2015).                      %
     %   T. Thonhauser et al., PRB 76, 125112 (2007).                       %
     %   K. Berland et al., Rep. Prog. Phys. 78, 066501 (2015).             %
     %   D.C. Langreth et al., J. Phys.: Condens. Matter 21, 084203 (2009). %
     %                                                                      %
     %                                                                      %
     % If you are calculating the stress with vdW-DF, please also cite:     %
     %                                                                      %
     %   R. Sabatini et al., J. Phys.: Condens. Matter 24, 424209 (2012).   %
     %                                                                      %
     %%%%%%%%%%%%%%%%%%%%%%%%%%%%%%%%%%%%%%%%%%%%%%%%%%%%%%%%%%%%%%%%%%%%%%%%

     Adding external electric field

     Computed dipole along edir(3) :
        Dipole               -5.5433 Ry au,        -14.0897 Debye
        Dipole field         -0.0105 Ry au,

        Potential amp.        0.9697 Ry
        Total length         46.3494 bohr

     Starting wfcs are  295 atomic wfcs
  @ DRIVER MODE: Message from server: STATUS
  @ DRIVER MODE: Message from server: POSDATA
  @ DRIVER MODE: Reading and sharing cell
  @ DRIVER MODE: Reading and sharing positions
  @ DRIVER MODE: Received positions

     Self-consistent Calculation

     iteration #  1     ecut=    29.40 Ry     beta= 0.05
     Davidson diagonalization with overlap
     c_bands:  3 eigenvalues not converged
     c_bands:  2 eigenvalues not converged
     c_bands:  3 eigenvalues not converged
     c_bands:  2 eigenvalues not converged
     c_bands:  3 eigenvalues not converged
     c_bands:  2 eigenvalues not converged
     c_bands:  1 eigenvalues not converged
     c_bands:  1 eigenvalues not converged
     c_bands:  2 eigenvalues not converged
     ethr =  1.00E-05,  avg # of iterations = 19.7

[...]

     total energy              =   -2791.60305206 Ry
     estimated scf accuracy    <    1532.57676905 Ry

     iteration #  2     ecut=    29.40 Ry     beta= 0.05
     Davidson diagonalization with overlap
     ethr =  1.00E-02,  avg # of iterations = 17.7

[...]

     iteration # 55     ecut=    29.40 Ry     beta= 0.05
     Davidson diagonalization with overlap
     ethr =  3.07E-11,  avg # of iterations =  5.5

[...]

     total energy              =   -2931.50264900 Ry
     estimated scf accuracy    <       0.00000009 Ry

     iteration # 56     ecut=    29.40 Ry     beta= 0.05
     Davidson diagonalization with overlap
     c_bands:  1 eigenvalues not converged
     ethr =  2.41E-11,  avg # of iterations = 14.2

     negative rho (up, down):  1.844E-02 0.000E+00

     Adding external electric field

     Computed dipole along edir(3) :
        Dipole                0.7645 Ry au,          1.9432 Debye
        Dipole field          0.0014 Ry au,

        Potential amp.       -0.1337 Ry
        Total length         46.3494 bohr

     End of self-consistent calculation

          k = 0.0000 0.0000 0.0000 ( 18029 PWs)   bands (ev):

   -55.9471 -55.9322 -55.9104 -55.8961 -55.8315 -55.8273 -55.8059 -55.7760
   -55.7719 -55.7211 -55.7112 -55.7056 -55.6716 -55.5887 -54.9602 -54.9261
   -32.4979 -32.4144 -32.3424 -32.2899 -32.2646 -32.2451 -32.2378 -32.2153
   -32.1841 -32.1715 -32.1515 -32.1460 -32.1426 -32.1128 -32.1077 -32.0855
   -32.0797 -32.0781 -32.0624 -32.0370 -32.0361 -32.0125 -32.0062 -31.9882
   -31.9880 -31.9873 -31.9586 -31.9582 -31.9462 -31.9364 -31.9297 -31.9267
   -31.9191 -31.9070 -31.8817 -31.8792 -31.8698 -31.8491 -31.8133 -31.8078
   -31.7853 -31.7773 -31.3701 -31.2728 -31.2504 -31.1868 -31.1007 -30.9895
   -17.5946 -16.6744 -16.3887 -16.2244 -16.0927 -16.0569 -15.9537 -15.7692
   -15.6305 -15.6129 -15.5491 -15.5100 -15.4947 -15.4686 -15.4649 -15.4515
   -15.4491 -15.3992 -15.3640 -15.3630 -15.3478 -15.3256 -15.2643 -15.2233
   -15.1416 -15.0879 -15.0634 -15.0090 -14.9463 -14.9274 -13.4610 -13.3428
    -9.5374  -4.3542  -4.1556  -4.0333  -3.8683  -3.8551  -3.8313  -3.8075
    -3.7456  -3.4954  -3.4797  -3.1615  -3.1019  -3.0776  -3.0637  -3.0577
    -2.8202  -2.7999  -2.7713  -2.7610  -2.7530  -2.7238  -2.6964  -2.6864
    -2.6628  -2.6467  -2.5513  -2.4677  -2.4605  -2.3542  -2.3082  -2.2967
    -2.2469  -2.2086  -2.2011  -2.1816  -2.1565  -2.1394  -2.1123  -2.1090
    -2.0127  -1.8828  -1.7785  -1.7497  -1.7097  -1.6467  -1.4407  -1.3948
    -1.3599  -1.3465  -1.2892  -1.2571  -1.2510  -1.1756  -1.1366  -1.1209
    -1.0136  -0.9523  -0.9411  -0.9012  -0.8377  -0.8019  -0.7571  -0.6827
    -0.6638  -0.6488  -0.4379  -0.4112  -0.4054  -0.3941  -0.2820  -0.2303
    -0.1757  -0.1635  -0.1510  -0.1201  -0.0484   0.0163   0.0276   0.0496
     0.0827   0.1091   0.1844   0.2082   0.2383   0.2623   0.2961   0.3832
     0.4285   0.5712   0.7003   0.7213   0.8233   0.9661   1.0640   1.1368
     1.2343   1.6536   1.7137   3.2386   3.2579   3.3026   3.3323   3.3906
     3.5119   3.6314   3.6666   3.7014   3.7235

[...]

          k = 0.0380-0.0419 0.0000 ( 17876 PWs)   bands (ev):

[...]

          k =-0.0760-0.0000 0.0000 ( 17886 PWs)   bands (ev):

[...]

          k =-0.0760-0.0839 0.0000 ( 17948 PWs)   bands (ev):

   -55.9355 -55.9218 -55.9144 -55.9137 -55.8263 -55.8244 -55.7892 -55.7887
   -55.7812 -55.7183 -55.7137 -55.6918 -55.6856 -55.5909 -54.9437 -54.9424
   -32.3019 -32.2975 -32.2422 -32.2380 -32.2270 -32.2234 -32.2056 -32.2002
   -32.1964 -32.1536 -32.1328 -32.1258 -32.1218 -32.0848 -32.0757 -32.0700
   -32.0622 -32.0585 -32.0552 -32.0532 -32.0427 -32.0306 -32.0267 -32.0207
   -32.0129 -32.0082 -32.0051 -31.9925 -31.9875 -31.9863 -31.9608 -31.9438
   -31.9416 -31.9382 -31.9314 -31.9152 -31.9122 -31.9013 -31.8954 -31.8836
   -31.8210 -31.7854 -31.2638 -31.2623 -31.1835 -31.1826 -31.1443 -31.1432
   -17.5549 -16.1155 -16.0994 -15.8654 -15.8599 -15.8555 -15.7858 -15.7008
   -15.6809 -15.6657 -15.6600 -15.6051 -15.5908 -15.5793 -15.5178 -15.4803
   -15.4542 -15.4462 -15.4427 -15.3940 -15.3900 -15.3368 -15.3186 -15.3042
   -15.2932 -15.2775 -15.2700 -15.1748 -15.1727 -15.1025 -13.4452 -13.4429
    -9.5381  -4.2156  -4.1269  -3.8698  -3.4057  -3.3877  -3.1071  -3.0742
    -3.0706  -2.9814  -2.8962  -2.8534  -2.8174  -2.7855  -2.7810  -2.7787
    -2.7590  -2.7295  -2.7258  -2.7063  -2.6845  -2.6741  -2.6202  -2.5851
    -2.5764  -2.5741  -2.5624  -2.5342  -2.5173  -2.4957  -2.4869  -2.4774
    -2.4571  -2.3594  -2.2294  -2.1967  -2.0848  -2.0766  -2.0399  -2.0266
    -1.9990  -1.9897  -1.9707  -1.8628  -1.7976  -1.6697  -1.6661  -1.6470
    -1.5899  -1.5217  -1.4500  -1.3816  -1.3585  -1.3429  -1.2474  -1.2346
    -1.1643  -1.1450  -1.0887  -1.0614  -1.0448  -0.9466  -0.9119  -0.8984
    -0.8910  -0.8113  -0.7957  -0.7793  -0.7419  -0.6812  -0.6703  -0.6009
    -0.5660  -0.5219  -0.4583  -0.4342  -0.3859  -0.2967  -0.1227  -0.0402
     0.0626   0.1057   0.1640   0.1766   0.2690   0.3128   0.3280   0.3348
     0.4230   0.4865   0.5163   0.5796   0.5929   0.6188   0.6806   1.4237
     1.4254   1.5162   1.5264   3.4467   3.4771   3.4910   3.5395   3.6986
     3.7038   3.7237   3.7287   3.8021   3.8646

     the Fermi energy is     3.2081 ev

!    total energy              =   -2931.50270804 Ry
     estimated scf accuracy    <       0.00000006 Ry
     smearing contrib. (-TS)   =      -0.02313124 Ry
     internal energy E=F+TS    =   -2931.47957679 Ry

     The total energy is F=E-TS. E is the sum of the following terms:
     one-electron contribution =  -24508.34162690 Ry
     hartree contribution      =   12339.25818568 Ry
     xc contribution           =    -482.05067465 Ry
     ewald contribution        =    9719.65343610 Ry
     electric field correction =       0.00110298 Ry

     convergence has been achieved in  56 iterations

     Forces acting on atoms (cartesian axes, Ry/au):

     atom    1 type  1   force =    -0.00013991   -0.00171979    0.10703283
     atom    2 type  1   force =    -0.00040787    0.00038574   -0.17993951
     atom    3 type  2   force =     0.00029739   -0.00715174   -0.03305398
     atom    4 type  2   force =     0.00067582    0.00052308    0.04595901
     atom    5 type  2   force =    -0.01814996    0.00043998    0.00391492
     atom    6 type  2   force =     0.02137225   -0.00104302    0.00543772
     atom    7 type  1   force =    -0.00016258   -0.00030909   -0.00013683
     atom    8 type  1   force =    -0.00008774   -0.00029664   -0.00174047
     atom    9 type  2   force =    -0.00030617   -0.00017952    0.00030611
     atom   10 type  2   force =    -0.00014537   -0.00052699    0.00015001
     atom   11 type  2   force =    -0.00034792    0.00013827    0.00060055
     atom   12 type  2   force =    -0.00018402    0.00021388    0.00021006
     atom   13 type  1   force =    -0.00018037   -0.00038950   -0.00100881
     atom   14 type  1   force =     0.00029909    0.00021793   -0.00049510
     atom   15 type  2   force =    -0.00015277    0.00017746   -0.00124255
     atom   16 type  2   force =    -0.00039663   -0.00027666   -0.00086732
     atom   17 type  2   force =    -0.00140170    0.00040203   -0.00069760
     atom   18 type  2   force =     0.00019058    0.00018684   -0.00076874
     atom   19 type  1   force =    -0.00008204   -0.00003340    0.00001012
     atom   20 type  1   force =    -0.00087202   -0.00024982    0.00150435
     atom   21 type  2   force =    -0.00005656    0.00009479    0.10424959
     atom   22 type  2   force =     0.00008169    0.00022536   -0.00052090
     atom   23 type  2   force =    -0.06896972    0.00066353   -0.02969580
     atom   24 type  2   force =     0.06867701    0.00113777   -0.02975083
     atom   25 type  1   force =    -0.00011603    0.00159981    0.11784158
     atom   26 type  1   force =    -0.00015553    0.00003352   -0.17997869
     atom   27 type  2   force =     0.00043807    0.00401624   -0.02694049
     atom   28 type  2   force =     0.00078220    0.00082664    0.04758257
     atom   29 type  2   force =    -0.01697040    0.00167071    0.00318853
     atom   30 type  2   force =     0.01945604    0.00119234    0.00453822
     atom   31 type  1   force =    -0.00025646    0.00052999   -0.00019062
     atom   32 type  1   force =    -0.00001033    0.00018992   -0.00096015
     atom   33 type  2   force =    -0.00030589   -0.00006824   -0.00007540
     atom   34 type  2   force =    -0.00012521    0.00070420    0.00048815
     atom   35 type  2   force =    -0.00030826   -0.00002229    0.00013501
     atom   36 type  2   force =    -0.00020625   -0.00003226   -0.00021520
     atom   37 type  1   force =    -0.00012242    0.00061368    0.00083301
     atom   38 type  1   force =     0.00020260   -0.00029871   -0.00050306
     atom   39 type  2   force =    -0.00027630   -0.00021996    0.00031843
     atom   40 type  2   force =    -0.00034393    0.00023887   -0.00034119
     atom   41 type  2   force =    -0.00088052   -0.00005533   -0.00036591
     atom   42 type  2   force =     0.00037471    0.00015849   -0.00058717
     atom   43 type  1   force =    -0.00013349    0.00021261    0.00040570
     atom   44 type  1   force =    -0.00075535    0.00016391    0.00172170
     atom   45 type  2   force =    -0.00006357    0.00006408    0.10428967
     atom   46 type  2   force =    -0.06851865   -0.00129042   -0.02972710
     atom   47 type  2   force =     0.06833429   -0.00085096   -0.02980453
     atom   48 type  3   force =    -0.00213049   -0.00096069   -0.01657730
     atom   49 type  2   force =    -0.00270215    0.00040285    0.00720298
     atom   50 type  4   force =     0.00115607   -0.00010302    0.00160201
     atom   51 type  4   force =     0.00276615   -0.00423507    0.00368624
     atom   52 type  4   force =     0.00132064    0.00288862    0.00297618

     Total force =     0.377451     Total SCF correction =     0.000673
  @ DRIVER MODE: Message from server: STATUS
  @ DRIVER MODE: Message from server: GETFORCE
  @ DRIVER MODE: Returning v,forces,stress,ensemble

     Writing output data file ./calc.save/
  @ DRIVER MODE: Message from server: EXIT
  @ DRIVE MODE: Exiting

     General routines

     Parallel routines

   This run was terminated on:  10:57:34  20Sep2021

   JOB DONE.