     Program PWSCF v.6.7GPU starts on 22Sep2021 at 23:51:17

     R & G space division:  proc/nbgrp/npool/nimage =       8
     Reading input from /storage/home/hcoda1/3/ntian30/research/carbon/CxH_vib/H2O_calc/ads_slab/CH2OHHO_a/out_0005/pw.inp
Warning: card &CELL ignored
Warning: card   CELL_DYNAMICS='IPI', ignored
Warning: card / ignored

     Current dimensions of program PWSCF are:
     Max number of different atomic species (ntypx) = 10
     Max number of k-points (npk) =  40000
     Max angular momentum in pseudopotentials (lmaxx) =  3
     Presently no symmetry can be used with electric field

     Message from routine cell_base_init:
     DEPRECATED: use true lattice parameter, not A to a.u. conversion factor

     IMPORTANT: XC functional enforced from input :
     Exchange-correlation= BEEF-VDW
                           (   1   4  43  14   2   0   0)
     Any further DFT definition will be discarded
     Please, verify this is what you really want

  @ DRIVER MODE: Connecting to
 qe_1139763_2941013.sched-torque.pace.gatech.eduujdv45kq_scratch
  using UNIX socket
  @ DRIVER MODE: Message from server: STATUS
  @ DRIVER MODE: Message from server: INIT
  @ DRIVER MODE: Receiving replica           0          -1
  @ DRIVER MODE: Receiving encoded integer          25
  @ DRIVER MODE:  SCF:  T  FORCE:  T  STRESS:  F  VC:  F  ENSEMBLE:  F
  @ DRIVER MODE:  SCF:  T  FORCE:  T  STRESS:  F  VC:  F  ENSEMBLE:  F

     Using Slab Decomposition

     bravais-lattice index     =            0
     lattice parameter (alat)  =       1.8897  a.u.
     unit-cell volume          =    6658.9804 (a.u.)^3
     number of atoms/cell      =           54
     number of atomic types    =            4
     number of electrons       =       398.00
     number of Kohn-Sham states=          209
     kinetic-energy cutoff     =      29.3995  Ry
     charge density cutoff     =     293.9946  Ry
     scf convergence threshold =      7.3E-08
     mixing beta               =       0.0500
     number of iterations used =            8  plain     mixing
     Exchange-correlation= BEEF-VDW
                           (   1   4  43  14   2   0   0)

     celldm(1)=   1.889726  celldm(2)=   0.000000  celldm(3)=   0.000000
     celldm(4)=   0.000000  celldm(5)=   0.000000  celldm(6)=   0.000000

     crystal axes: (cart. coord. in units of alat)
               a(1) = (   6.579727   0.000000   0.000000 )
               a(2) = (  -0.000775   5.961596   0.000000 )
               a(3) = (   0.000000   0.000000  25.155947 )

     reciprocal axes: (cart. coord. in units 2 pi/alat)
               b(1) = (  0.151982  0.000020  0.000000 )
               b(2) = (  0.000000  0.167740  0.000000 )
               b(3) = (  0.000000  0.000000  0.039752 )

     PseudoPot. # 1 for Ti read from file:
     /storage/coda1/p-amedford6/0/shared/rich_project_chbe-medford/medford-share/data/pseudos_module/espresso/nninc/pbe/van/Ti.UPF
     MD5 check sum: 8e4df49b7f0d34bbd5052bf3f5ea0213
     Pseudo is Ultrasoft, Zval = 12.0
     Generated by new atomic code, or converted to UPF format
     Using radial grid of  851 points,  6 beta functions with:
                l(1) =   0
                l(2) =   0
                l(3) =   1
                l(4) =   1
                l(5) =   2
                l(6) =   2
     Q(r) pseudized with  8 coefficients,  rinner =    1.000   1.000   1.000
                                                       1.000   1.000

     PseudoPot. # 2 for O  read from file:
     /storage/coda1/p-amedford6/0/shared/rich_project_chbe-medford/medford-share/data/pseudos_module/espresso/nninc/pbe/van/O.UPF
     MD5 check sum: 78c19812648e8988a0fe644b0f25305e
     Pseudo is Ultrasoft, Zval =  6.0
     Generated by new atomic code, or converted to UPF format
     Using radial grid of  737 points,  4 beta functions with:
                l(1) =   0
                l(2) =   0
                l(3) =   1
                l(4) =   1
     Q(r) pseudized with  8 coefficients,  rinner =    0.800   0.800   0.800

     PseudoPot. # 3 for C  read from file:
     /storage/coda1/p-amedford6/0/shared/rich_project_chbe-medford/medford-share/data/pseudos_module/espresso/nninc/pbe/van/C.UPF
     MD5 check sum: 1a69bf6b8db32088f5b2163dbdb77a27
     Pseudo is Ultrasoft, Zval =  4.0
     Generated by new atomic code, or converted to UPF format
     Using radial grid of  721 points,  4 beta functions with:
                l(1) =   0
                l(2) =   0
                l(3) =   1
                l(4) =   1
     Q(r) pseudized with  8 coefficients,  rinner =    0.800   0.800   0.800

     PseudoPot. # 4 for H  read from file:
     /storage/coda1/p-amedford6/0/shared/rich_project_chbe-medford/medford-share/data/pseudos_module/espresso/nninc/pbe/van/H.UPF
     MD5 check sum: b5ee9d7bfd3a09ee7748110bda690ff7
     Pseudo is Ultrasoft, Zval =  1.0
     Generated by new atomic code, or converted to UPF format
     Using radial grid of  615 points,  1 beta functions with:
                l(1) =   0
     Q(r) pseudized with  8 coefficients,  rinner =    0.800

     atomic species   valence    mass     pseudopotential
        Ti1           12.00    47.86700     Ti( 1.00)
        O1             6.00    15.99900     O ( 1.00)
        C1             4.00    12.01100     C ( 1.00)
        H1             1.00     1.00800     H ( 1.00)

     No symmetry found

   Cartesian axes

     site n.     atom                  positions (alat units)
         1           Ti1 tau(   1) = (   0.0004258   2.9801865   6.0000000  )
         2           Ti1 tau(   2) = (   3.2906075   1.4906267   6.0002472  )
         3           O1  tau(   3) = (   0.0006271   0.0005054   7.9858123  )
         4           O1  tau(   4) = (   3.2906025   0.0005020   7.3038282  )
         5           O1  tau(   5) = (   4.5942328   1.4918067   9.2879030  )
         6           O1  tau(   6) = (   1.9868534   1.4903216   9.2879459  )
         7           Ti1 tau(   7) = (   3.2053781   3.0281819   9.2289109  )
         8           Ti1 tau(   8) = (   6.4789090   1.5422439   9.3246958  )
         9           O1  tau(   9) = (   3.3131828   0.0076525  11.3143355  )
        10           O1  tau(  10) = (   0.0036331   0.0073455  10.5537702  )
        11           O1  tau(  11) = (   1.2849538   1.5262321  12.5678262  )
        12           O1  tau(  12) = (   5.3289628   1.4687457  12.6164477  )
        13           Ti1 tau(  13) = (   0.0494698   3.0469090  12.7547230  )
        14           Ti1 tau(  14) = (   3.2845375   1.6334081  12.5308488  )
        15           O1  tau(  15) = (   0.1943872   0.0117586  14.6058021  )
        16           O1  tau(  16) = (   3.1943342   5.9422946  13.9142442  )
        17           O1  tau(  17) = (   4.6623408   1.4089460  15.7678261  )
        18           O1  tau(  18) = (   2.0428328   1.6351894  16.0888801  )
        19           Ti1 tau(  19) = (   3.4388860   2.9458104  15.8736401  )
        20           Ti1 tau(  20) = (   0.1295272   1.3814375  15.8666627  )
        21           O1  tau(  21) = (   3.2904802   0.0005063   4.7018136  )
        22           O1  tau(  22) = (   0.0846747   0.0144810  17.1090220  )
        23           O1  tau(  23) = (   1.3043587   1.4918075   6.0039043  )
        24           O1  tau(  24) = (   5.2767064   1.4903225   6.0039473  )
        25           Ti1 tau(  25) = (   0.0000382   5.9609847   6.0000000  )
        26           Ti1 tau(  26) = (   3.2902200   4.4714249   6.0002472  )
        27           O1  tau(  27) = (   0.0002396   2.9813036   7.9858123  )
        28           O1  tau(  28) = (   3.2902150   2.9813002   7.3038282  )
        29           O1  tau(  29) = (   4.5938453   4.4726049   9.2879030  )
        30           O1  tau(  30) = (   1.9864658   4.4711199   9.2879459  )
        31           Ti1 tau(  31) = (   3.2224821   0.0470802   9.2230333  )
        32           Ti1 tau(  32) = (   6.4759698   4.4664252   9.3127940  )
        33           O1  tau(  33) = (   3.3094535   2.9663607  11.2852029  )
        34           O1  tau(  34) = (   6.5591786   2.9896559  10.5312464  )
        35           O1  tau(  35) = (   1.2916819   4.4480478  12.5709280  )
        36           O1  tau(  36) = (   5.3369627   4.5124161  12.6303246  )
        37           Ti1 tau(  37) = (   6.5569224   0.0640291  12.4639877  )
        38           Ti1 tau(  38) = (   3.2972653   4.6387695  12.6472152  )
        39           O1  tau(  39) = (   0.0654804   2.9943531  14.6628162  )
        40           O1  tau(  40) = (   3.3673531   2.9793459  13.8791815  )
        41           O1  tau(  41) = (   4.6654837   4.5585741  15.7845026  )
        42           O1  tau(  42) = (   2.0434307   4.3527116  16.0649513  )
        43           Ti1 tau(  43) = (   3.4443475   5.9291804  16.0141943  )
        44           Ti1 tau(  44) = (   0.1552736   4.5966999  15.8683145  )
        45           O1  tau(  45) = (   3.2900926   2.9813045   4.7018136  )
        46           O1  tau(  46) = (   1.3039711   4.4726057   6.0039043  )
        47           O1  tau(  47) = (   5.2763189   4.4711207   6.0039473  )
        48           C1  tau(  48) = (   4.6056898   2.9812133  17.8128851  )
        49           O1  tau(  49) = (   6.0966523   2.9907575  17.4046881  )
        50           H1  tau(  50) = (   0.0599730   2.9907033  18.2108262  )
        51           H1  tau(  51) = (   4.4920754   2.0732530  18.4117920  )
        52           H1  tau(  52) = (   4.4771298   3.8877196  18.4106030  )
        53           O1  tau(  53) = (   3.3127961   5.9530928  17.8757943  )
        54           H1  tau(  54) = (   2.4287022   0.1083392  18.2542858  )

     number of k points=    10  Fermi-Dirac smearing, width (Ry)=  0.0073
                       cart. coord. in units 2pi/alat
        k(    1) = (   0.0000000   0.0000000   0.0000000), wk =   0.1250000
        k(    2) = (   0.0000000   0.0419351   0.0000000), wk =   0.2500000
        k(    3) = (   0.0000000  -0.0838702   0.0000000), wk =   0.1250000
        k(    4) = (   0.0379955   0.0000049   0.0000000), wk =   0.2500000
        k(    5) = (   0.0379955   0.0419400   0.0000000), wk =   0.2500000
        k(    6) = (   0.0379955  -0.0838652   0.0000000), wk =   0.2500000
        k(    7) = (   0.0379955  -0.0419301   0.0000000), wk =   0.2500000
        k(    8) = (  -0.0759910  -0.0000099   0.0000000), wk =   0.1250000
        k(    9) = (  -0.0759910   0.0419252   0.0000000), wk =   0.2500000
        k(   10) = (  -0.0759910  -0.0838800   0.0000000), wk =   0.1250000

     Initial potential from superposition of free atoms

     starting charge  381.99917, renormalised to  398.00000

     negative rho (up, down):  1.911E-02 0.000E+00

     %%%%%%%%%%%%%%%%%%%%%%%%%%%%%%%%%%%%%%%%%%%%%%%%%%%%%%%%%%%%%%%%%%%%%%%%
     %                                                                      %
     % You are using vdW-DF, which was implemented by the Thonhauser group. %
     % Please cite the following two papers that made this development      %
     % possible and the two reviews that describe the various versions:     %
     %                                                                      %
     %   T. Thonhauser et al., PRL 115, 136402 (2015).                      %
     %   T. Thonhauser et al., PRB 76, 125112 (2007).                       %
     %   K. Berland et al., Rep. Prog. Phys. 78, 066501 (2015).             %
     %   D.C. Langreth et al., J. Phys.: Condens. Matter 21, 084203 (2009). %
     %                                                                      %
     %                                                                      %
     % If you are calculating the stress with vdW-DF, please also cite:     %
     %                                                                      %
     %   R. Sabatini et al., J. Phys.: Condens. Matter 24, 424209 (2012).   %
     %                                                                      %
     %%%%%%%%%%%%%%%%%%%%%%%%%%%%%%%%%%%%%%%%%%%%%%%%%%%%%%%%%%%%%%%%%%%%%%%%

     Adding external electric field

     Computed dipole along edir(3) :
        Dipole               -7.9360 Ry au,        -20.1714 Debye
        Dipole field         -0.0150 Ry au,

        Potential amp.        1.3883 Ry
        Total length         46.3494 bohr

     Starting wfcs are  300 atomic wfcs
  @ DRIVER MODE: Message from server: STATUS
  @ DRIVER MODE: Message from server: POSDATA
  @ DRIVER MODE: Reading and sharing cell
  @ DRIVER MODE: Reading and sharing positions
  @ DRIVER MODE: Received positions

     Self-consistent Calculation

     iteration #  1     ecut=    29.40 Ry     beta= 0.05
     Davidson diagonalization with overlap
     c_bands:  1 eigenvalues not converged
     c_bands:  2 eigenvalues not converged
     c_bands:  2 eigenvalues not converged
     c_bands:  1 eigenvalues not converged
     c_bands:  1 eigenvalues not converged
     c_bands:  1 eigenvalues not converged
     ethr =  1.00E-05,  avg # of iterations = 18.8

[...]

     total energy              =   -2649.55610067 Ry
     estimated scf accuracy    <    3499.93114073 Ry

[...]

     iteration #  3     ecut=    29.40 Ry     beta= 0.05
     Davidson diagonalization with overlap
     ethr =  1.00E-02,  avg # of iterations = 13.7

[...]

     iteration # 39     ecut=    29.40 Ry     beta= 0.05
     Davidson diagonalization with overlap
     c_bands:  1 eigenvalues not converged
     c_bands:  1 eigenvalues not converged
     ethr =  1.39E-07,  avg # of iterations =  6.6

[...]

     total energy              =   -2964.91868530 Ry
     estimated scf accuracy    <       0.00000025 Ry

     iteration # 63     ecut=    29.40 Ry     beta= 0.05
     Davidson diagonalization with overlap
     ethr =  6.37E-11,  avg # of iterations =  5.7

     negative rho (up, down):  1.875E-02 0.000E+00

     Adding external electric field

     Computed dipole along edir(3) :
        Dipole                0.6458 Ry au,          1.6414 Debye
        Dipole field          0.0012 Ry au,

        Potential amp.       -0.1130 Ry
        Total length         46.3494 bohr

     End of self-consistent calculation

          k = 0.0000 0.0000 0.0000 ( 18029 PWs)   bands (ev):

   -56.4312 -56.3664 -55.7972 -55.7935 -55.7492 -55.7443 -55.7398 -55.7001
   -55.6942 -55.6466 -55.4556 -55.4426 -55.3785 -55.3571 -54.9566 -54.9227
   -32.8336 -32.7069 -32.6301 -32.6022 -32.5004 -32.4583 -32.4091 -32.3218
   -32.2139 -32.1830 -32.1029 -32.0611 -32.0408 -32.0027 -32.0012 -31.9940
   -31.9751 -31.9609 -31.9560 -31.9422 -31.9368 -31.9348 -31.9226 -31.9060
   -31.8933 -31.8904 -31.8731 -31.8616 -31.8516 -31.8326 -31.8237 -31.7988
   -31.7568 -31.7022 -31.6582 -31.6462 -31.6200 -31.5917 -31.5887 -31.5565
   -31.5477 -31.4158 -31.3493 -31.3037 -31.2792 -31.1652 -31.0790 -30.9701
   -19.3375 -16.5886 -16.4364 -16.3062 -16.1693 -15.9551 -15.9267 -15.8234
   -15.7239 -15.6807 -15.6016 -15.5717 -15.4341 -15.3834 -15.3553 -15.3338
   -15.3158 -15.2948 -15.2815 -15.2434 -15.2277 -15.1924 -15.1398 -15.0748
   -15.0537 -15.0000 -14.9699 -14.9523 -14.8684 -14.8037 -14.7231 -13.4641
   -13.3582  -9.1584  -6.1996  -4.0871  -3.9723  -3.9243  -3.8779  -3.7836
    -3.7171  -3.6839  -3.6186  -3.3057  -3.1736  -3.0794  -3.0259  -3.0022
    -2.9279  -2.9260  -2.9115  -2.7937  -2.7345  -2.7082  -2.6468  -2.6297
    -2.5867  -2.5513  -2.5488  -2.5323  -2.4913  -2.4507  -2.4115  -2.3911
    -2.3462  -2.2627  -2.2446  -2.1679  -2.1330  -2.1106  -2.0243  -1.9596
    -1.9498  -1.9117  -1.8880  -1.7784  -1.6063  -1.5185  -1.4601  -1.4054
    -1.3857  -1.3164  -1.3073  -1.2425  -1.1856  -1.1673  -1.1625  -1.0479
    -0.9963  -0.9630  -0.9172  -0.8831  -0.8176  -0.7707  -0.7540  -0.7245
    -0.7106  -0.6022  -0.5157  -0.4973  -0.4706  -0.4349  -0.3138  -0.2606
    -0.2337  -0.2051  -0.1908  -0.1499  -0.1051  -0.0370   0.0076   0.0642
     0.1015   0.1734   0.1828   0.2217   0.2574   0.2933   0.3583   0.3728
     0.4753   0.5047   0.5603   0.5978   0.7419   0.7710   0.9324   0.9923
     1.0538   1.1486   1.2749   1.3367   1.5842   1.6235   1.7645   2.8839
     3.0469   3.3145   3.3598   3.4949   3.5670   3.6236   3.7655   3.7925
     3.8459

[...]

          k = 0.0380-0.0419 0.0000 ( 17876 PWs)   bands (ev):

[...]

          k =-0.0760-0.0000 0.0000 ( 17886 PWs)   bands (ev):

[...]

          k =-0.0760-0.0839 0.0000 ( 17948 PWs)   bands (ev):

   -56.4265 -56.3710 -55.7894 -55.7871 -55.7567 -55.7460 -55.7369 -55.7072
   -55.6869 -55.6538 -55.4526 -55.4378 -55.3833 -55.3600 -54.9398 -54.9394
   -32.7039 -32.6725 -32.6321 -32.6268 -32.5738 -32.5261 -32.3314 -32.1609
   -32.1066 -32.0717 -32.0522 -32.0349 -32.0329 -32.0207 -32.0145 -32.0124
   -31.9969 -31.9795 -31.9744 -31.9564 -31.9533 -31.9519 -31.9488 -31.9367
   -31.9227 -31.9035 -31.8912 -31.8837 -31.8671 -31.8381 -31.7840 -31.7663
   -31.7544 -31.7206 -31.7115 -31.6788 -31.6600 -31.6478 -31.6321 -31.6004
   -31.5950 -31.4168 -31.2924 -31.2921 -31.1631 -31.1626 -31.1224 -31.1220
   -19.3301 -16.2382 -16.1272 -15.9403 -15.9042 -15.8287 -15.8269 -15.7773
   -15.7367 -15.6401 -15.5845 -15.5663 -15.4934 -15.4696 -15.4526 -15.4273
   -15.3762 -15.3512 -15.3276 -15.3164 -15.2718 -15.2480 -15.2456 -15.1980
   -15.1437 -15.1194 -15.1012 -15.0482 -14.9931 -14.9342 -14.8808 -13.4655
   -13.4597  -9.1664  -6.1815  -4.0786  -3.6668  -3.6232  -3.3367  -3.1552
    -2.9754  -2.9640  -2.9506  -2.9425  -2.8731  -2.8667  -2.8164  -2.7773
    -2.7219  -2.7023  -2.6752  -2.6695  -2.6635  -2.6218  -2.6113  -2.5849
    -2.5582  -2.5529  -2.5092  -2.5024  -2.4822  -2.4351  -2.4214  -2.3878
    -2.3585  -2.3320  -2.2791  -2.2242  -2.2053  -2.1918  -2.0633  -1.9920
    -1.9905  -1.9144  -1.9001  -1.8715  -1.8316  -1.7562  -1.6931  -1.6546
    -1.5234  -1.5040  -1.4471  -1.4087  -1.3358  -1.3245  -1.2408  -1.2116
    -1.1607  -1.1383  -1.0988  -1.0826  -1.0650  -1.0611  -0.9394  -0.9048
    -0.8451  -0.8356  -0.8060  -0.7722  -0.7491  -0.6930  -0.6240  -0.6156
    -0.5671  -0.5173  -0.4526  -0.4120  -0.3328  -0.2723  -0.2369  -0.1689
    -0.0632   0.0574   0.0989   0.2022   0.2977   0.3060   0.3718   0.4213
     0.4485   0.4936   0.5816   0.5905   0.6562   0.6682   0.7011   0.7587
     0.8082   0.8791   1.4242   1.4402   1.4618   1.4645   1.7015   3.4275
     3.4543   3.4743   3.5171   3.6651   3.7568   3.7838   3.8503   3.9011
     3.9164

     the Fermi energy is     2.3991 ev

!    total energy              =   -2964.91871717 Ry
     estimated scf accuracy    <       0.00000004 Ry
     smearing contrib. (-TS)   =      -0.00041220 Ry
     internal energy E=F+TS    =   -2964.91830497 Ry

     The total energy is F=E-TS. E is the sum of the following terms:
     one-electron contribution =  -24902.89140473 Ry
     hartree contribution      =   12541.83296388 Ry
     xc contribution           =    -490.06594897 Ry
     ewald contribution        =    9886.20529783 Ry
     electric field correction =       0.00078703 Ry

     convergence has been achieved in  63 iterations

     Forces acting on atoms (cartesian axes, Ry/au):

     atom    1 type  1   force =     0.00009652   -0.00023127    0.12245794
     atom    2 type  1   force =     0.00009737    0.00183348   -0.15175129
     atom    3 type  2   force =    -0.00067972   -0.00092106   -0.05779196
     atom    4 type  2   force =    -0.00119330    0.00052239    0.04759779
     atom    5 type  2   force =    -0.01071668   -0.00518999   -0.00143977
     atom    6 type  2   force =     0.01359959    0.00025746   -0.00015081
     atom    7 type  1   force =    -0.00027148    0.00014889    0.00014067
     atom    8 type  1   force =     0.00040160   -0.00013337   -0.00034476
     atom    9 type  2   force =     0.00001344   -0.00023500    0.00037128
     atom   10 type  2   force =    -0.00012395   -0.00005855    0.00008001
     atom   11 type  2   force =    -0.00046848   -0.00026671    0.00026177
     atom   12 type  2   force =     0.00019025    0.00007455   -0.00001916
     atom   13 type  1   force =     0.00040450   -0.00010339    0.00003070
     atom   14 type  1   force =    -0.00009972   -0.00025641    0.00008414
     atom   15 type  2   force =    -0.00028970   -0.00017182   -0.00022275
     atom   16 type  2   force =     0.00017474    0.00006043   -0.00016338
     atom   17 type  2   force =    -0.00003826   -0.00051798   -0.00038367
     atom   18 type  2   force =    -0.00012090   -0.00024634    0.00015644
     atom   19 type  1   force =    -0.00074481    0.00003001   -0.00123599
     atom   20 type  1   force =    -0.00004209   -0.00001363   -0.00063756
     atom   21 type  2   force =     0.00026902    0.00013093    0.09729826
     atom   22 type  2   force =    -0.00032324   -0.00033115   -0.00024869
     atom   23 type  2   force =    -0.08312590    0.00238652   -0.03358115
     atom   24 type  2   force =     0.08317463    0.00267535   -0.03364788
     atom   25 type  1   force =     0.00042457    0.00037683    0.13902113
     atom   26 type  1   force =     0.00005152   -0.00119050   -0.15158131
     atom   27 type  2   force =    -0.00069634    0.00143679   -0.05292913
     atom   28 type  2   force =    -0.00117639    0.00017426    0.04591134
     atom   29 type  2   force =    -0.01132732    0.00058428   -0.00073570
     atom   30 type  2   force =     0.01406764    0.00412442    0.00076558
     atom   31 type  1   force =    -0.00049397   -0.00016796    0.00021675
     atom   32 type  1   force =     0.00035232   -0.00004992   -0.00010565
     atom   33 type  2   force =    -0.00024642    0.00012309    0.00005394
     atom   34 type  2   force =     0.00013455    0.00008509    0.00009123
     atom   35 type  2   force =    -0.00020433    0.00054144    0.00034291
     atom   36 type  2   force =     0.00023679   -0.00000581   -0.00018014
     atom   37 type  1   force =    -0.00063094    0.00028413    0.00031622
     atom   38 type  1   force =    -0.00032725   -0.00040874   -0.00009849
     atom   39 type  2   force =     0.00005754   -0.00010342    0.00029281
     atom   40 type  2   force =    -0.00023583   -0.00011236    0.00016098
     atom   41 type  2   force =     0.00004686   -0.00002814   -0.00039013
     atom   42 type  2   force =    -0.00043514   -0.00019910    0.00033917
     atom   43 type  1   force =    -0.00005175   -0.00000820   -0.00032647
     atom   44 type  1   force =    -0.00004696    0.00005839   -0.00012500
     atom   45 type  2   force =     0.00023410    0.00013274    0.09737422
     atom   46 type  2   force =    -0.08304763   -0.00265059   -0.03359812
     atom   47 type  2   force =     0.08308306   -0.00230518   -0.03370171
     atom   48 type  3   force =    -0.00104485   -0.00001982    0.01295193
     atom   49 type  2   force =     0.00128545    0.00002806   -0.00238282
     atom   50 type  4   force =    -0.00040744    0.00006259    0.00009824
     atom   51 type  4   force =     0.00027872    0.00417781   -0.00419117
     atom   52 type  4   force =     0.00003814   -0.00432921   -0.00456706
     atom   53 type  2   force =    -0.00075590    0.00056328    0.00072919
     atom   54 type  4   force =     0.00065378   -0.00061760   -0.00061291

     Total force =     0.378043     Total SCF correction =     0.000597
  @ DRIVER MODE: Message from server: STATUS
  @ DRIVER MODE: Message from server: GETFORCE
  @ DRIVER MODE: Returning v,forces,stress,ensemble

     Writing output data file ./calc.save/
  @ DRIVER MODE: Message from server: EXIT
  @ DRIVE MODE: Exiting

     General routines

     Parallel routines

   This run was terminated on:   0:11:59  23Sep2021

   JOB DONE.