     Program PWSCF v.6.7GPU starts on 12Oct2021 at 16: 2:56

     R & G space division:  proc/nbgrp/npool/nimage =       8
     Reading input from /storage/home/hcoda1/3/ntian30/research/carbon/CxH_vib/CH_calc/ads_slab/CHNHH_b/out_0012/pw.inp
Warning: card &CELL ignored
Warning: card   CELL_DYNAMICS='IPI', ignored
Warning: card / ignored

     Current dimensions of program PWSCF are:
     Max number of different atomic species (ntypx) = 10
     Max number of k-points (npk) =  40000
     Max angular momentum in pseudopotentials (lmaxx) =  3
     Presently no symmetry can be used with electric field

     Message from routine cell_base_init:
     DEPRECATED: use true lattice parameter, not A to a.u. conversion factor

     IMPORTANT: XC functional enforced from input :
     Exchange-correlation= BEEF-VDW
                           (   1   4  43  14   2   0   0)
     Any further DFT definition will be discarded
     Please, verify this is what you really want

  @ DRIVER MODE: Connecting to
 qe_1139763_3182856.sched-torque.pace.gatech.edupfmq8k0s_scratch
  using UNIX socket
  @ DRIVER MODE: Message from server: STATUS
  @ DRIVER MODE: Message from server: INIT
  @ DRIVER MODE: Receiving replica           0          -1
  @ DRIVER MODE: Receiving encoded integer          25
  @ DRIVER MODE:  SCF:  T  FORCE:  T  STRESS:  F  VC:  F  ENSEMBLE:  F
  @ DRIVER MODE:  SCF:  T  FORCE:  T  STRESS:  F  VC:  F  ENSEMBLE:  F

     Using Slab Decomposition

     bravais-lattice index     =            0
     lattice parameter (alat)  =       1.8897  a.u.
     unit-cell volume          =    6658.9804 (a.u.)^3
     number of atoms/cell      =           52
     number of atomic types    =            5
     number of electrons       =       390.00
     number of Kohn-Sham states=          205
     kinetic-energy cutoff     =      29.3995  Ry
     charge density cutoff     =     293.9946  Ry
     scf convergence threshold =      7.3E-08
     mixing beta               =       0.0500
     number of iterations used =            8  plain     mixing
     Exchange-correlation= BEEF-VDW
                           (   1   4  43  14   2   0   0)

     celldm(1)=   1.889726  celldm(2)=   0.000000  celldm(3)=   0.000000
     celldm(4)=   0.000000  celldm(5)=   0.000000  celldm(6)=   0.000000

     crystal axes: (cart. coord. in units of alat)
               a(1) = (   6.579727   0.000000   0.000000 )
               a(2) = (  -0.000775   5.961596   0.000000 )
               a(3) = (   0.000000   0.000000  25.155947 )

     reciprocal axes: (cart. coord. in units 2 pi/alat)
               b(1) = (  0.151982  0.000020  0.000000 )
               b(2) = (  0.000000  0.167740  0.000000 )
               b(3) = (  0.000000  0.000000  0.039752 )

     PseudoPot. # 1 for Ti read from file:
     /storage/coda1/p-amedford6/0/shared/rich_project_chbe-medford/medford-share/data/pseudos_module/espresso/nninc/pbe/van/Ti.UPF
     MD5 check sum: 8e4df49b7f0d34bbd5052bf3f5ea0213
     Pseudo is Ultrasoft, Zval = 12.0
     Generated by new atomic code, or converted to UPF format
     Using radial grid of  851 points,  6 beta functions with:
                l(1) =   0
                l(2) =   0
                l(3) =   1
                l(4) =   1
                l(5) =   2
                l(6) =   2
     Q(r) pseudized with  8 coefficients,  rinner =    1.000   1.000   1.000
                                                       1.000   1.000

     PseudoPot. # 2 for O  read from file:
     /storage/coda1/p-amedford6/0/shared/rich_project_chbe-medford/medford-share/data/pseudos_module/espresso/nninc/pbe/van/O.UPF
     MD5 check sum: 78c19812648e8988a0fe644b0f25305e
     Pseudo is Ultrasoft, Zval =  6.0
     Generated by new atomic code, or converted to UPF format
     Using radial grid of  737 points,  4 beta functions with:
                l(1) =   0
                l(2) =   0
                l(3) =   1
                l(4) =   1
     Q(r) pseudized with  8 coefficients,  rinner =    0.800   0.800   0.800

     PseudoPot. # 3 for C  read from file:
     /storage/coda1/p-amedford6/0/shared/rich_project_chbe-medford/medford-share/data/pseudos_module/espresso/nninc/pbe/van/C.UPF
     MD5 check sum: 1a69bf6b8db32088f5b2163dbdb77a27
     Pseudo is Ultrasoft, Zval =  4.0
     Generated by new atomic code, or converted to UPF format
     Using radial grid of  721 points,  4 beta functions with:
                l(1) =   0
                l(2) =   0
                l(3) =   1
                l(4) =   1
     Q(r) pseudized with  8 coefficients,  rinner =    0.800   0.800   0.800

     PseudoPot. # 4 for H  read from file:
     /storage/coda1/p-amedford6/0/shared/rich_project_chbe-medford/medford-share/data/pseudos_module/espresso/nninc/pbe/van/H.UPF
     MD5 check sum: b5ee9d7bfd3a09ee7748110bda690ff7
     Pseudo is Ultrasoft, Zval =  1.0
     Generated by new atomic code, or converted to UPF format
     Using radial grid of  615 points,  1 beta functions with:
                l(1) =   0
     Q(r) pseudized with  8 coefficients,  rinner =    0.800

     PseudoPot. # 5 for N  read from file:
     /storage/coda1/p-amedford6/0/shared/rich_project_chbe-medford/medford-share/data/pseudos_module/espresso/nninc/pbe/van/N.UPF
     MD5 check sum: 90d10febe142ad51ac9d5be1deb811c4
     Pseudo is Ultrasoft, Zval =  5.0
     Generated by new atomic code, or converted to UPF format
     Using radial grid of  729 points,  4 beta functions with:
                l(1) =   0
                l(2) =   0
                l(3) =   1
                l(4) =   1
     Q(r) pseudized with  8 coefficients,  rinner =    0.800   0.800   0.800

     atomic species   valence    mass     pseudopotential
        Ti1           12.00    47.86700     Ti( 1.00)
        O1             6.00    15.99900     O ( 1.00)
        C1             4.00    12.01100     C ( 1.00)
        H1             1.00     1.00800     H ( 1.00)
        N1             5.00    14.00700     N ( 1.00)

     No symmetry found

   Cartesian axes

     site n.     atom                  positions (alat units)
         1           Ti1 tau(   1) = (   0.0004258   2.9801865   6.0000000  )
         2           Ti1 tau(   2) = (   3.2906075   1.4906267   6.0002472  )
         3           O1  tau(   3) = (   0.0006271   0.0005054   7.9858123  )
         4           O1  tau(   4) = (   3.2906025   0.0005020   7.3038282  )
         5           O1  tau(   5) = (   4.5942328   1.4918067   9.2879030  )
         6           O1  tau(   6) = (   1.9868534   1.4903216   9.2879459  )
         7           Ti1 tau(   7) = (   3.2907309   2.9776765   9.1658812  )
         8           Ti1 tau(   8) = (   0.0014263   1.4814950   9.2876947  )
         9           O1  tau(   9) = (   3.2944750   0.0002302  11.3604974  )
        10           O1  tau(  10) = (   0.0008895   5.9586890  10.6035392  )
        11           O1  tau(  11) = (   1.2972031   1.4939413  12.6393260  )
        12           O1  tau(  12) = (   5.2935702   1.4970258  12.6342454  )
        13           Ti1 tau(  13) = (   6.5783930   2.9813526  12.8381062  )
        14           Ti1 tau(  14) = (   3.2906537   1.4978773  12.4963327  )
        15           O1  tau(  15) = (   6.5733175   0.0290402  14.6574804  )
        16           O1  tau(  16) = (   3.3054662   0.0216765  13.9740687  )
        17           O1  tau(  17) = (   4.5350609   1.5403548  16.2059549  )
        18           O1  tau(  18) = (   2.0349166   1.5291342  16.1470642  )
        19           Ti1 tau(  19) = (   3.2872240   3.0047607  15.7234092  )
        20           Ti1 tau(  20) = (   0.0410825   1.5194215  16.1276637  )
        21           O1  tau(  21) = (   3.2904802   0.0005063   4.7018136  )
        22           O1  tau(  22) = (   6.5652676   5.8907541  17.2497628  )
        23           O1  tau(  23) = (   1.3043587   1.4918075   6.0039043  )
        24           O1  tau(  24) = (   5.2767064   1.4903225   6.0039473  )
        25           Ti1 tau(  25) = (   0.0000382   5.9609847   6.0000000  )
        26           Ti1 tau(  26) = (   3.2902200   4.4714249   6.0002472  )
        27           O1  tau(  27) = (   0.0002396   2.9813036   7.9858123  )
        28           O1  tau(  28) = (   3.2902150   2.9813002   7.3038282  )
        29           O1  tau(  29) = (   4.5938453   4.4726049   9.2879030  )
        30           O1  tau(  30) = (   1.9864658   4.4711199   9.2879459  )
        31           Ti1 tau(  31) = (   3.2906741   5.9584693   9.1623309  )
        32           Ti1 tau(  32) = (   0.0012165   4.4014169   9.3465426  )
        33           O1  tau(  33) = (   3.2924083   2.9889881  11.3543434  )
        34           O1  tau(  34) = (   0.0022264   2.9772995  10.5544931  )
        35           O1  tau(  35) = (   1.2986444   4.4679898  12.6568800  )
        36           O1  tau(  36) = (   5.2923799   4.4657857  12.6543205  )
        37           Ti1 tau(  37) = (   0.0025552   0.0092372  12.5181211  )
        38           Ti1 tau(  38) = (   3.2887235   4.4740353  12.4983661  )
        39           O1  tau(  39) = (   0.0036310   2.9570434  14.7349056  )
        40           O1  tau(  40) = (   3.2990611   2.9752856  13.9364830  )
        41           O1  tau(  41) = (   4.5418486   4.4722619  16.1017917  )
        42           O1  tau(  42) = (   2.0452692   4.4787779  16.1069431  )
        43           Ti1 tau(  43) = (   3.3182015   0.0155015  15.7624703  )
        44           Ti1 tau(  44) = (   0.0016332   4.6944760  15.9151726  )
        45           O1  tau(  45) = (   3.2900926   2.9813045   4.7018136  )
        46           C1  tau(  46) = (   0.0781255   2.7894620  17.8686468  )
        47           O1  tau(  47) = (   1.3039711   4.4726057   6.0039043  )
        48           O1  tau(  48) = (   5.2763189   4.4711207   6.0039473  )
        49           H1  tau(  49) = (   0.9954384   3.2332450  18.2719424  )
        50           H1  tau(  50) = (   4.7724221   2.4647446  18.5698542  )
        51           N1  tau(  51) = (   5.6845287   2.8438018  18.7814782  )
        52           H1  tau(  52) = (   5.7759989   3.3395087  19.6567880  )

     number of k points=    10  Fermi-Dirac smearing, width (Ry)=  0.0073
                       cart. coord. in units 2pi/alat
        k(    1) = (   0.0000000   0.0000000   0.0000000), wk =   0.1250000
        k(    2) = (   0.0000000   0.0419351   0.0000000), wk =   0.2500000
        k(    3) = (   0.0000000  -0.0838702   0.0000000), wk =   0.1250000
        k(    4) = (   0.0379955   0.0000049   0.0000000), wk =   0.2500000
        k(    5) = (   0.0379955   0.0419400   0.0000000), wk =   0.2500000
        k(    6) = (   0.0379955  -0.0838652   0.0000000), wk =   0.2500000
        k(    7) = (   0.0379955  -0.0419301   0.0000000), wk =   0.2500000
        k(    8) = (  -0.0759910  -0.0000099   0.0000000), wk =   0.1250000
        k(    9) = (  -0.0759910   0.0419252   0.0000000), wk =   0.2500000
        k(   10) = (  -0.0759910  -0.0838800   0.0000000), wk =   0.1250000

     Initial potential from superposition of free atoms

     starting charge  373.99917, renormalised to  390.00000

     negative rho (up, down):  1.780E-02 0.000E+00

     %%%%%%%%%%%%%%%%%%%%%%%%%%%%%%%%%%%%%%%%%%%%%%%%%%%%%%%%%%%%%%%%%%%%%%%%
     %                                                                      %
     % You are using vdW-DF, which was implemented by the Thonhauser group. %
     % Please cite the following two papers that made this development      %
     % possible and the two reviews that describe the various versions:     %
     %                                                                      %
     %   T. Thonhauser et al., PRL 115, 136402 (2015).                      %
     %   T. Thonhauser et al., PRB 76, 125112 (2007).                       %
     %   K. Berland et al., Rep. Prog. Phys. 78, 066501 (2015).             %
     %   D.C. Langreth et al., J. Phys.: Condens. Matter 21, 084203 (2009). %
     %                                                                      %
     %                                                                      %
     % If you are calculating the stress with vdW-DF, please also cite:     %
     %                                                                      %
     %   R. Sabatini et al., J. Phys.: Condens. Matter 24, 424209 (2012).   %
     %                                                                      %
     %%%%%%%%%%%%%%%%%%%%%%%%%%%%%%%%%%%%%%%%%%%%%%%%%%%%%%%%%%%%%%%%%%%%%%%%

     Adding external electric field

     Computed dipole along edir(3) :
        Dipole               -5.3784 Ry au,        -13.6705 Debye
        Dipole field         -0.0101 Ry au,

        Potential amp.        0.9409 Ry
        Total length         46.3494 bohr

     Starting wfcs are  295 atomic wfcs
  @ DRIVER MODE: Message from server: STATUS
  @ DRIVER MODE: Message from server: POSDATA
  @ DRIVER MODE: Reading and sharing cell
  @ DRIVER MODE: Reading and sharing positions
  @ DRIVER MODE: Received positions

     Self-consistent Calculation

     iteration #  1     ecut=    29.40 Ry     beta= 0.05
     Davidson diagonalization with overlap
     c_bands:  5 eigenvalues not converged
     c_bands:  1 eigenvalues not converged
     c_bands:  2 eigenvalues not converged
     c_bands:  5 eigenvalues not converged
     c_bands:  1 eigenvalues not converged
     c_bands:  5 eigenvalues not converged
     c_bands:  1 eigenvalues not converged
     c_bands:  1 eigenvalues not converged
     ethr =  1.00E-05,  avg # of iterations = 20.9

[...]

     total energy              =   -2826.67793158 Ry
     estimated scf accuracy    <    1028.74151320 Ry

     iteration #  2     ecut=    29.40 Ry     beta= 0.05
     Davidson diagonalization with overlap
     ethr =  1.00E-02,  avg # of iterations = 16.2

[...]

     iteration # 72     ecut=    29.40 Ry     beta= 0.05
     Davidson diagonalization with overlap
     c_bands:  2 eigenvalues not converged
     ethr =  1.20E-10,  avg # of iterations = 15.0

[...]

     total energy              =   -2919.05163289 Ry
     estimated scf accuracy    <       0.00000024 Ry

     iteration # 82     ecut=    29.40 Ry     beta= 0.05
     Davidson diagonalization with overlap
     ethr =  3.45E-11,  avg # of iterations =  9.4

     negative rho (up, down):  1.780E-02 0.000E+00

     Adding external electric field

     Computed dipole along edir(3) :
        Dipole                1.2277 Ry au,          3.1205 Debye
        Dipole field          0.0023 Ry au,

        Potential amp.       -0.2148 Ry
        Total length         46.3494 bohr

     End of self-consistent calculation

          k = 0.0000 0.0000 0.0000 ( 18029 PWs)   bands (ev):

   -55.6384 -55.6191 -55.5979 -55.5829 -55.5440 -55.5001 -55.4511 -55.4428
   -55.3947 -55.3823 -55.3599 -55.2979 -55.0195 -54.9629 -54.6202 -54.5862
   -32.1893 -32.0996 -31.9700 -31.9589 -31.9537 -31.9294 -31.8932 -31.8799
   -31.8661 -31.8515 -31.8323 -31.8231 -31.8018 -31.7997 -31.7674 -31.7662
   -31.7487 -31.7220 -31.7169 -31.7041 -31.6805 -31.6671 -31.6610 -31.6432
   -31.6419 -31.6297 -31.6135 -31.6007 -31.5920 -31.5816 -31.5499 -31.5481
   -31.5322 -31.5076 -31.4904 -31.4870 -31.4564 -31.3728 -31.3163 -31.2517
   -31.0764 -31.0408 -31.0295 -30.9347 -30.9121 -30.8457 -30.7594 -30.6487
   -16.5547 -16.3762 -16.0726 -15.9469 -15.7835 -15.7430 -15.6635 -15.4496
   -15.3311 -15.2583 -15.2385 -15.2226 -15.2047 -15.1955 -15.1521 -15.1397
   -15.1190 -15.0729 -15.0506 -15.0212 -15.0157 -14.9923 -14.9367 -14.8959
   -14.8947 -14.7768 -14.7362 -14.6101 -14.5727 -14.4305 -13.1221 -13.0046
    -9.1517  -6.8806  -4.3618  -3.7307  -3.5384  -3.5101  -3.5036  -3.4332
    -3.2091  -3.1874  -2.8557  -2.7964  -2.7867  -2.7531  -2.7357  -2.5923
    -2.5411  -2.4771  -2.4399  -2.4297  -2.4228  -2.4086  -2.3889  -2.3578
    -2.3434  -2.3162  -2.2254  -2.1531  -2.0504  -2.0395  -1.9740  -1.9234
    -1.8884  -1.8795  -1.8451  -1.8324  -1.8084  -1.7912  -1.7595  -1.7143
    -1.5283  -1.5223  -1.4847  -1.4394  -1.2873  -1.2537  -1.2206  -1.0915
    -1.0454  -1.0184  -0.9421  -0.9382  -0.9266  -0.8698  -0.8306  -0.7756
    -0.6793  -0.6540  -0.5697  -0.5541  -0.4991  -0.4677  -0.3478  -0.3379
    -0.3196  -0.3078  -0.1163  -0.1090  -0.0815  -0.0684   0.0320   0.0713
     0.0930   0.1672   0.1783   0.1936   0.2152   0.3355   0.3721   0.3803
     0.4005   0.4091   0.4183   0.5828   0.6112   0.6797   0.7026   0.7617
     0.9182   0.9425   1.0422   1.1075   1.3101   1.4024   1.4691   1.5795
     1.9894   2.0542   3.4376   3.5698   3.5755   3.6277   3.6540   3.7096
     3.9150   3.9517   3.9783   4.0118   4.0378

[...]

          k = 0.0380-0.0419 0.0000 ( 17876 PWs)   bands (ev):

[...]

          k =-0.0760-0.0000 0.0000 ( 17886 PWs)   bands (ev):

[...]

          k =-0.0760-0.0839 0.0000 ( 17948 PWs)   bands (ev):

   -55.6291 -55.6070 -55.6023 -55.5995 -55.5407 -55.4952 -55.4542 -55.4476
   -55.3792 -55.3790 -55.3747 -55.3015 -55.0145 -54.9678 -54.6034 -54.6029
   -31.9927 -31.9908 -31.9320 -31.9261 -31.9208 -31.9049 -31.8861 -31.8855
   -31.8317 -31.8297 -31.8243 -31.7980 -31.7950 -31.7573 -31.7453 -31.7424
   -31.7419 -31.7404 -31.7363 -31.7192 -31.7061 -31.6955 -31.6936 -31.6869
   -31.6606 -31.6593 -31.6545 -31.6266 -31.6263 -31.6196 -31.5809 -31.5783
   -31.5679 -31.5665 -31.5141 -31.4970 -31.4806 -31.3769 -31.3104 -31.2541
   -31.1523 -31.0437 -30.9251 -30.9245 -30.8425 -30.8421 -30.8028 -30.8024
   -16.5447 -15.8496 -15.7905 -15.5745 -15.5539 -15.5534 -15.4687 -15.3967
   -15.3909 -15.3596 -15.3414 -15.3164 -15.3083 -15.2547 -15.2314 -15.1657
   -15.1421 -15.1257 -15.1234 -15.0662 -15.0581 -15.0262 -15.0064 -14.9926
   -14.9694 -14.9387 -14.9281 -14.8005 -14.7625 -14.5581 -13.1079 -13.1042
    -9.1618  -6.8845  -4.3174  -3.1406  -3.0712  -2.7860  -2.7772  -2.7604
    -2.6556  -2.5746  -2.5615  -2.5288  -2.4723  -2.4478  -2.4426  -2.4293
    -2.4110  -2.4061  -2.4009  -2.3923  -2.3481  -2.3224  -2.2927  -2.2485
    -2.2401  -2.2292  -2.2170  -2.1739  -2.1630  -2.1545  -2.1497  -2.1405
    -2.0907  -1.9152  -1.8892  -1.8708  -1.7632  -1.7420  -1.7072  -1.6789
    -1.6770  -1.6358  -1.6267  -1.5565  -1.4602  -1.3728  -1.3380  -1.3183
    -1.2857  -1.2444  -1.1518  -1.0457  -1.0070  -0.9785  -0.9456  -0.9122
    -0.8803  -0.8768  -0.7690  -0.7192  -0.6999  -0.6477  -0.5916  -0.5686
    -0.5378  -0.4935  -0.4827  -0.4328  -0.3605  -0.3430  -0.2823  -0.2324
    -0.2058  -0.2046  -0.1496  -0.1373  -0.0264   0.0221   0.2112   0.2849
     0.3563   0.3984   0.4150   0.5589   0.5681   0.6733   0.7258   0.7310
     0.7687   0.8483   0.9262   0.9409   0.9725   1.0276   1.7639   1.7663
     1.8494   1.8629   3.5643   3.7343   3.7660   3.7718   3.8718   4.0161
     4.0298   4.0401   4.0499   4.1498   4.2095

     the Fermi energy is     3.5189 ev

!    total energy              =   -2919.05163797 Ry
     estimated scf accuracy    <       0.00000005 Ry
     smearing contrib. (-TS)   =      -0.03132287 Ry
     internal energy E=F+TS    =   -2919.02031510 Ry

     The total energy is F=E-TS. E is the sum of the following terms:
     one-electron contribution =  -24311.03901944 Ry
     hartree contribution      =   12243.02646076 Ry
     xc contribution           =    -479.92558332 Ry
     ewald contribution        =    9628.91498259 Ry
     electric field correction =       0.00284432 Ry

     convergence has been achieved in  82 iterations

     Forces acting on atoms (cartesian axes, Ry/au):

     atom    1 type  1   force =     0.00006389    0.00096766    0.10694670
     atom    2 type  1   force =    -0.00004488    0.00020354   -0.17811574
     atom    3 type  2   force =     0.00008032    0.00467649   -0.03578077
     atom    4 type  2   force =     0.00003191    0.00016446    0.04946892
     atom    5 type  2   force =    -0.02036036   -0.00163601    0.00504706
     atom    6 type  2   force =     0.02052541   -0.00127917    0.00512933
     atom    7 type  1   force =     0.00005791    0.00148508   -0.00758258
     atom    8 type  1   force =     0.00002298   -0.00050765   -0.00008830
     atom    9 type  2   force =    -0.00003007    0.00001228   -0.00042516
     atom   10 type  2   force =     0.00010332   -0.00036114    0.00071163
     atom   11 type  2   force =     0.00037588   -0.00019056    0.00001774
     atom   12 type  2   force =    -0.00029202   -0.00020353   -0.00008253
     atom   13 type  1   force =    -0.00021286   -0.00063665   -0.00022900
     atom   14 type  1   force =    -0.00012003   -0.00008409    0.00004831
     atom   15 type  2   force =     0.00009918    0.00035732    0.00063157
     atom   16 type  2   force =     0.00012263    0.00024599   -0.00059558
     atom   17 type  2   force =    -0.00018701    0.00001413    0.00036678
     atom   18 type  2   force =     0.00047589   -0.00019006    0.00009771
     atom   19 type  1   force =    -0.00005325    0.00031520    0.00036225
     atom   20 type  1   force =    -0.00010538   -0.00021914    0.00016739
     atom   21 type  2   force =     0.00003799    0.00000272    0.10386308
     atom   22 type  2   force =     0.00000757   -0.00020423   -0.00168138
     atom   23 type  2   force =    -0.06935312    0.00127644   -0.03017624
     atom   24 type  2   force =     0.06922540    0.00170664   -0.03021752
     atom   25 type  1   force =     0.00003049   -0.00088748    0.12350519
     atom   26 type  1   force =    -0.00007979   -0.00067917   -0.17772925
     atom   27 type  2   force =     0.00001182   -0.00219660   -0.03269249
     atom   28 type  2   force =     0.00001439   -0.00014397    0.05053341
     atom   29 type  2   force =    -0.02134806    0.00085943    0.00494609
     atom   30 type  2   force =     0.02154765    0.00149015    0.00503906
     atom   31 type  1   force =     0.00025593   -0.00214338   -0.00796566
     atom   32 type  1   force =     0.00000504   -0.00075373    0.00062125
     atom   33 type  2   force =    -0.00002917   -0.00000544   -0.00020824
     atom   34 type  2   force =     0.00002207    0.00023898    0.00080429
     atom   35 type  2   force =     0.00022433    0.00028695   -0.00008192
     atom   36 type  2   force =    -0.00015128    0.00032128   -0.00020408
     atom   37 type  1   force =    -0.00000575    0.00057301    0.00112156
     atom   38 type  1   force =    -0.00010076   -0.00033108    0.00035224
     atom   39 type  2   force =    -0.00004738    0.00053194    0.00016237
     atom   40 type  2   force =     0.00004504    0.00023714   -0.00124501
     atom   41 type  2   force =    -0.00089595    0.00050484    0.00040265
     atom   42 type  2   force =     0.00111387    0.00052206    0.00048896
     atom   43 type  1   force =     0.00006941    0.00023455    0.00008469
     atom   44 type  1   force =     0.00052547    0.00011221    0.00111681
     atom   45 type  2   force =     0.00005080    0.00006750    0.10391870
     atom   46 type  3   force =     0.00413212    0.00206786    0.00349711
     atom   47 type  2   force =    -0.06958466   -0.00177517   -0.03016074
     atom   48 type  2   force =     0.06949559   -0.00133342   -0.03022326
     atom   49 type  4   force =    -0.00350292   -0.00171357   -0.00288468
     atom   50 type  4   force =     0.00052379   -0.00032991   -0.00037771
     atom   51 type  5   force =    -0.00200267   -0.00103097   -0.00071024
     atom   52 type  4   force =    -0.00079073   -0.00063973    0.00000521

     Total force =     0.379438     Total SCF correction =     0.000720
  @ DRIVER MODE: Message from server: STATUS
  @ DRIVER MODE: Message from server: GETFORCE
  @ DRIVER MODE: Returning v,forces,stress,ensemble

     Writing output data file ./calc.save/
  @ DRIVER MODE: Message from server: EXIT
  @ DRIVE MODE: Exiting

     General routines

     Parallel routines

   This run was terminated on:  16:33:45  12Oct2021

   JOB DONE.