     Program PWSCF v.6.7GPU starts on 23Sep2021 at  0: 0:26

     R & G space division:  proc/nbgrp/npool/nimage =      10
     Reading input from /storage/home/hcoda1/3/ntian30/research/carbon/CxH_vib/H2O_calc/ads_slab/CH2NHNHO_a/out_0024/pw.inp
Warning: card &CELL ignored
Warning: card   CELL_DYNAMICS='IPI', ignored
Warning: card / ignored

     Current dimensions of program PWSCF are:
     Max number of different atomic species (ntypx) = 10
     Max number of k-points (npk) =  40000
     Max angular momentum in pseudopotentials (lmaxx) =  3
     Presently no symmetry can be used with electric field

     Message from routine cell_base_init:
     DEPRECATED: use true lattice parameter, not A to a.u. conversion factor

     IMPORTANT: XC functional enforced from input :
     Exchange-correlation= BEEF-VDW
                           (   1   4  43  14   2   0   0)
     Any further DFT definition will be discarded
     Please, verify this is what you really want

  @ DRIVER MODE: Connecting to
 qe_1139763_2937322.sched-torque.pace.gatech.eduts3kz2p3_scratch
  using UNIX socket
  @ DRIVER MODE: Message from server: STATUS
  @ DRIVER MODE: Message from server: INIT
  @ DRIVER MODE: Receiving replica           0          -1
  @ DRIVER MODE: Receiving encoded integer          25
  @ DRIVER MODE:  SCF:  T  FORCE:  T  STRESS:  F  VC:  F  ENSEMBLE:  F
  @ DRIVER MODE:  SCF:  T  FORCE:  T  STRESS:  F  VC:  F  ENSEMBLE:  F

     Using Slab Decomposition

     bravais-lattice index     =            0
     lattice parameter (alat)  =       1.8897  a.u.
     unit-cell volume          =    6658.9804 (a.u.)^3
     number of atoms/cell      =           55
     number of atomic types    =            5
     number of electrons       =       402.00
     number of Kohn-Sham states=          211
     kinetic-energy cutoff     =      29.3995  Ry
     charge density cutoff     =     293.9946  Ry
     scf convergence threshold =      7.3E-08
     mixing beta               =       0.0500
     number of iterations used =            8  plain     mixing
     Exchange-correlation= BEEF-VDW
                           (   1   4  43  14   2   0   0)

     celldm(1)=   1.889726  celldm(2)=   0.000000  celldm(3)=   0.000000
     celldm(4)=   0.000000  celldm(5)=   0.000000  celldm(6)=   0.000000

     crystal axes: (cart. coord. in units of alat)
               a(1) = (   6.579727   0.000000   0.000000 )
               a(2) = (  -0.000775   5.961596   0.000000 )
               a(3) = (   0.000000   0.000000  25.155947 )

     reciprocal axes: (cart. coord. in units 2 pi/alat)
               b(1) = (  0.151982  0.000020  0.000000 )
               b(2) = (  0.000000  0.167740  0.000000 )
               b(3) = (  0.000000  0.000000  0.039752 )

     PseudoPot. # 1 for Ti read from file:
     /storage/coda1/p-amedford6/0/shared/rich_project_chbe-medford/medford-share/data/pseudos_module/espresso/nninc/pbe/van/Ti.UPF
     MD5 check sum: 8e4df49b7f0d34bbd5052bf3f5ea0213
     Pseudo is Ultrasoft, Zval = 12.0
     Generated by new atomic code, or converted to UPF format
     Using radial grid of  851 points,  6 beta functions with:
                l(1) =   0
                l(2) =   0
                l(3) =   1
                l(4) =   1
                l(5) =   2
                l(6) =   2
     Q(r) pseudized with  8 coefficients,  rinner =    1.000   1.000   1.000
                                                       1.000   1.000

     PseudoPot. # 2 for O  read from file:
     /storage/coda1/p-amedford6/0/shared/rich_project_chbe-medford/medford-share/data/pseudos_module/espresso/nninc/pbe/van/O.UPF
     MD5 check sum: 78c19812648e8988a0fe644b0f25305e
     Pseudo is Ultrasoft, Zval =  6.0
     Generated by new atomic code, or converted to UPF format
     Using radial grid of  737 points,  4 beta functions with:
                l(1) =   0
                l(2) =   0
                l(3) =   1
                l(4) =   1
     Q(r) pseudized with  8 coefficients,  rinner =    0.800   0.800   0.800

     PseudoPot. # 3 for N  read from file:
     /storage/coda1/p-amedford6/0/shared/rich_project_chbe-medford/medford-share/data/pseudos_module/espresso/nninc/pbe/van/N.UPF
     MD5 check sum: 90d10febe142ad51ac9d5be1deb811c4
     Pseudo is Ultrasoft, Zval =  5.0
     Generated by new atomic code, or converted to UPF format
     Using radial grid of  729 points,  4 beta functions with:
                l(1) =   0
                l(2) =   0
                l(3) =   1
                l(4) =   1
     Q(r) pseudized with  8 coefficients,  rinner =    0.800   0.800   0.800

     PseudoPot. # 4 for C  read from file:
     /storage/coda1/p-amedford6/0/shared/rich_project_chbe-medford/medford-share/data/pseudos_module/espresso/nninc/pbe/van/C.UPF
     MD5 check sum: 1a69bf6b8db32088f5b2163dbdb77a27
     Pseudo is Ultrasoft, Zval =  4.0
     Generated by new atomic code, or converted to UPF format
     Using radial grid of  721 points,  4 beta functions with:
                l(1) =   0
                l(2) =   0
                l(3) =   1
                l(4) =   1
     Q(r) pseudized with  8 coefficients,  rinner =    0.800   0.800   0.800

     PseudoPot. # 5 for H  read from file:
     /storage/coda1/p-amedford6/0/shared/rich_project_chbe-medford/medford-share/data/pseudos_module/espresso/nninc/pbe/van/H.UPF
     MD5 check sum: b5ee9d7bfd3a09ee7748110bda690ff7
     Pseudo is Ultrasoft, Zval =  1.0
     Generated by new atomic code, or converted to UPF format
     Using radial grid of  615 points,  1 beta functions with:
                l(1) =   0
     Q(r) pseudized with  8 coefficients,  rinner =    0.800

     atomic species   valence    mass     pseudopotential
        Ti1           12.00    47.86700     Ti( 1.00)
        O1             6.00    15.99900     O ( 1.00)
        N1             5.00    14.00700     N ( 1.00)
        C1             4.00    12.01100     C ( 1.00)
        H1             1.00     1.00800     H ( 1.00)

     No symmetry found

   Cartesian axes

     site n.     atom                  positions (alat units)
         1           Ti1 tau(   1) = (   0.0004258   2.9801865   6.0000000  )
         2           Ti1 tau(   2) = (   3.2906075   1.4906267   6.0002472  )
         3           O1  tau(   3) = (   0.0006271   0.0005054   7.9858123  )
         4           O1  tau(   4) = (   3.2906025   0.0005020   7.3038282  )
         5           O1  tau(   5) = (   4.5942328   1.4918067   9.2879030  )
         6           O1  tau(   6) = (   1.9868534   1.4903216   9.2879459  )
         7           Ti1 tau(   7) = (   3.2907910   2.8959150   9.1758416  )
         8           Ti1 tau(   8) = (   0.0015273   1.4827037   9.2680791  )
         9           O1  tau(   9) = (   3.2865774   0.0244666  11.2672233  )
        10           O1  tau(  10) = (   0.0116148   5.9584955  10.6183126  )
        11           O1  tau(  11) = (   1.2851059   1.4881214  12.6284388  )
        12           O1  tau(  12) = (   5.2821296   1.4859116  12.6239949  )
        13           Ti1 tau(  13) = (   6.5757640   3.1226837  12.6583379  )
        14           Ti1 tau(  14) = (   3.2808560   1.5553189  12.4169499  )
        15           O1  tau(  15) = (   6.5631415   0.0020138  14.6662933  )
        16           O1  tau(  16) = (   3.2768600   5.9282172  13.8639556  )
        17           O1  tau(  17) = (   4.5247100   1.5609280  15.9911388  )
        18           O1  tau(  18) = (   2.0319249   1.5505618  16.0334288  )
        19           Ti1 tau(  19) = (   3.2655126   3.0139642  15.6417618  )
        20           Ti1 tau(  20) = (   6.4701730   1.5779936  15.7979382  )
        21           O1  tau(  21) = (   3.2904802   0.0005063   4.7018136  )
        22           O1  tau(  22) = (   6.5470303   0.0764028  17.2486596  )
        23           O1  tau(  23) = (   1.3043587   1.4918075   6.0039043  )
        24           O1  tau(  24) = (   5.2767064   1.4903225   6.0039473  )
        25           Ti1 tau(  25) = (   0.0000382   5.9609847   6.0000000  )
        26           Ti1 tau(  26) = (   3.2902200   4.4714249   6.0002472  )
        27           O1  tau(  27) = (   0.0002396   2.9813036   7.9858123  )
        28           O1  tau(  28) = (   3.2902150   2.9813002   7.3038282  )
        29           O1  tau(  29) = (   4.5938453   4.4726049   9.2879030  )
        30           O1  tau(  30) = (   1.9864658   4.4711199   9.2879459  )
        31           Ti1 tau(  31) = (   3.2891106   5.8743827   9.1763621  )
        32           Ti1 tau(  32) = (   0.0006254   4.4649316   9.2693709  )
        33           O1  tau(  33) = (   3.2856154   2.9374191  11.2445503  )
        34           O1  tau(  34) = (   0.0092240   2.9805883  10.6323155  )
        35           O1  tau(  35) = (   1.2776263   4.4762221  12.6158080  )
        36           O1  tau(  36) = (   5.2889682   4.4773653  12.6103441  )
        37           Ti1 tau(  37) = (   6.5721904   0.1276321  12.6579576  )
        38           Ti1 tau(  38) = (   3.2825792   4.6513186  12.6446142  )
        39           O1  tau(  39) = (   6.5601178   2.9984380  14.6401328  )
        40           O1  tau(  40) = (   3.2784952   3.0022753  13.8540846  )
        41           O1  tau(  41) = (   4.5130724   4.4679886  16.1105769  )
        42           O1  tau(  42) = (   2.0068779   4.4712703  16.0772645  )
        43           Ti1 tau(  43) = (   3.1879138   0.0422448  16.2953621  )
        44           Ti1 tau(  44) = (   6.5239028   4.6756254  16.1574449  )
        45           O1  tau(  45) = (   3.2900926   2.9813045   4.7018136  )
        46           O1  tau(  46) = (   1.3039711   4.4726057   6.0039043  )
        47           O1  tau(  47) = (   5.2763189   4.4711207   6.0039473  )
        48           N1  tau(  48) = (   0.1470516   2.5879757  18.5611170  )
        49           N1  tau(  49) = (   6.5778558   2.9357776  17.3215245  )
        50           C1  tau(  50) = (   0.2601206   3.3452726  19.6311682  )
        51           H1  tau(  51) = (   0.3627438   2.8498571  20.5912141  )
        52           H1  tau(  52) = (   0.2464683   4.4174571  19.5160682  )
        53           H1  tau(  53) = (   0.1772712   1.5612145  18.6921905  )
        54           O1  tau(  54) = (   3.2326362   0.0923429  18.1472848  )
        55           H1  tau(  55) = (   3.6209404   5.2806276  18.5811828  )

     number of k points=    10  Fermi-Dirac smearing, width (Ry)=  0.0073
                       cart. coord. in units 2pi/alat
        k(    1) = (   0.0000000   0.0000000   0.0000000), wk =   0.1250000
        k(    2) = (   0.0000000   0.0419351   0.0000000), wk =   0.2500000
        k(    3) = (   0.0000000  -0.0838702   0.0000000), wk =   0.1250000
        k(    4) = (   0.0379955   0.0000049   0.0000000), wk =   0.2500000
        k(    5) = (   0.0379955   0.0419400   0.0000000), wk =   0.2500000
        k(    6) = (   0.0379955  -0.0838652   0.0000000), wk =   0.2500000
        k(    7) = (   0.0379955  -0.0419301   0.0000000), wk =   0.2500000
        k(    8) = (  -0.0759910  -0.0000099   0.0000000), wk =   0.1250000
        k(    9) = (  -0.0759910   0.0419252   0.0000000), wk =   0.2500000
        k(   10) = (  -0.0759910  -0.0838800   0.0000000), wk =   0.1250000

     Initial potential from superposition of free atoms

     starting charge  385.99915, renormalised to  402.00000

     negative rho (up, down):  1.461E-02 0.000E+00

     %%%%%%%%%%%%%%%%%%%%%%%%%%%%%%%%%%%%%%%%%%%%%%%%%%%%%%%%%%%%%%%%%%%%%%%%
     %                                                                      %
     % You are using vdW-DF, which was implemented by the Thonhauser group. %
     % Please cite the following two papers that made this development      %
     % possible and the two reviews that describe the various versions:     %
     %                                                                      %
     %   T. Thonhauser et al., PRL 115, 136402 (2015).                      %
     %   T. Thonhauser et al., PRB 76, 125112 (2007).                       %
     %   K. Berland et al., Rep. Prog. Phys. 78, 066501 (2015).             %
     %   D.C. Langreth et al., J. Phys.: Condens. Matter 21, 084203 (2009). %
     %                                                                      %
     %                                                                      %
     % If you are calculating the stress with vdW-DF, please also cite:     %
     %                                                                      %
     %   R. Sabatini et al., J. Phys.: Condens. Matter 24, 424209 (2012).   %
     %                                                                      %
     %%%%%%%%%%%%%%%%%%%%%%%%%%%%%%%%%%%%%%%%%%%%%%%%%%%%%%%%%%%%%%%%%%%%%%%%

     Adding external electric field

     Computed dipole along edir(3) :
        Dipole              -11.6298 Ry au,        -29.5601 Debye
        Dipole field         -0.0219 Ry au,

        Potential amp.        2.0345 Ry
        Total length         46.3494 bohr

     Starting wfcs are  304 atomic wfcs
  @ DRIVER MODE: Message from server: STATUS
  @ DRIVER MODE: Message from server: POSDATA
  @ DRIVER MODE: Reading and sharing cell
  @ DRIVER MODE: Reading and sharing positions
  @ DRIVER MODE: Received positions

     Self-consistent Calculation

     iteration #  1     ecut=    29.40 Ry     beta= 0.05
     Davidson diagonalization with overlap
     c_bands:  3 eigenvalues not converged
     c_bands:  2 eigenvalues not converged
     c_bands:  3 eigenvalues not converged
     c_bands:  4 eigenvalues not converged
     c_bands:  1 eigenvalues not converged
     c_bands:  4 eigenvalues not converged
     c_bands:  5 eigenvalues not converged
     c_bands:  5 eigenvalues not converged
     c_bands:  5 eigenvalues not converged
     ethr =  1.00E-05,  avg # of iterations = 23.9

[...]

     total energy              =   -2412.22428329 Ry
     estimated scf accuracy    <    6292.73939364 Ry

     iteration #  2     ecut=    29.40 Ry     beta= 0.05
     Davidson diagonalization with overlap
     ethr =  1.00E-02,  avg # of iterations = 23.5

[...]

     iteration # 48     ecut=    29.40 Ry     beta= 0.05
     Davidson diagonalization with overlap
     c_bands:  1 eigenvalues not converged
     ethr =  2.70E-07,  avg # of iterations = 10.3

[...]

     total energy              =   -2972.74102200 Ry
     estimated scf accuracy    <       0.00000027 Ry

     iteration # 78     ecut=    29.40 Ry     beta= 0.05
     Davidson diagonalization with overlap
     ethr =  6.76E-11,  avg # of iterations =  4.8

     negative rho (up, down):  1.519E-02 0.000E+00

     Adding external electric field

     Computed dipole along edir(3) :
        Dipole                0.6666 Ry au,          1.6942 Debye
        Dipole field          0.0013 Ry au,

        Potential amp.       -0.1166 Ry
        Total length         46.3494 bohr

     End of self-consistent calculation

          k = 0.0000 0.0000 0.0000 ( 18029 PWs)   bands (ev):

   -56.4993 -56.4657 -55.6996 -55.6655 -55.4404 -55.3841 -55.1386 -55.1068
   -55.0873 -55.0534 -55.0334 -54.9823 -54.9782 -54.7859 -54.7537 -54.6410
   -32.9232 -32.7769 -32.7488 -32.6730 -32.5824 -32.5497 -32.1829 -31.9216
   -31.9208 -31.8910 -31.8397 -31.8351 -31.8154 -31.6697 -31.6616 -31.6145
   -31.5911 -31.5867 -31.5447 -31.5127 -31.4740 -31.4598 -31.4322 -31.4079
   -31.3722 -31.3710 -31.3675 -31.3561 -31.3048 -31.2941 -31.2719 -31.2487
   -31.2302 -31.2146 -31.2124 -31.2015 -31.1822 -31.1713 -31.1561 -31.1007
   -31.0459 -31.0253 -30.9962 -30.9848 -30.9693 -30.9179 -30.8560 -30.8317
   -18.6489 -16.6340 -16.1273 -16.0779 -15.8365 -15.7743 -15.7184 -15.7142
   -15.6689 -15.4277 -15.3899 -15.3571 -15.3130 -15.2165 -15.0861 -14.9894
   -14.7982 -14.7437 -14.7417 -14.7117 -14.6869 -14.6545 -14.6294 -14.5976
   -14.5934 -14.5604 -14.5052 -14.3333 -14.2681 -14.0585 -14.0435 -13.5853
   -13.4773 -12.4019  -8.5590  -5.9814  -4.5873  -4.2002  -3.6409  -3.6068
    -3.4292  -3.3424  -3.2485  -3.1663  -3.0522  -3.0407  -2.9609  -2.9215
    -2.9050  -2.8339  -2.8165  -2.6540  -2.6276  -2.6088  -2.5203  -2.4921
    -2.3296  -2.3055  -2.2232  -2.1503  -2.1304  -2.0731  -2.0602  -2.0001
    -1.9482  -1.9310  -1.8647  -1.8586  -1.8442  -1.7311  -1.7158  -1.6796
    -1.6319  -1.5708  -1.5607  -1.5067  -1.4219  -1.4083  -1.2753  -1.1916
    -1.1474  -1.1426  -1.1061  -1.0635  -1.0166  -0.8827  -0.8721  -0.7620
    -0.7423  -0.7405  -0.6728  -0.5766  -0.5551  -0.5224  -0.4469  -0.4104
    -0.3668  -0.3160  -0.2621  -0.1404  -0.1330  -0.1164  -0.0715  -0.0295
    -0.0141   0.0609   0.1515   0.1681   0.2733   0.2896   0.3377   0.4307
     0.5122   0.5223   0.5414   0.6028   0.6453   0.6799   0.7545   0.7734
     0.8142   0.8262   0.8752   0.9342   0.9612   1.0619   1.1094   1.1283
     1.1619   1.2102   1.2891   1.3722   1.4689   1.5106   1.5409   1.8122
     2.3287   2.7836   2.9463   3.2238   3.3352   3.6461   3.7706   3.7718
     3.7822   3.9858   4.1346

[...]

          k = 0.0380-0.0419 0.0000 ( 17876 PWs)   bands (ev):

[...]

          k =-0.0760-0.0000 0.0000 ( 17886 PWs)   bands (ev):

[...]

          k =-0.0760-0.0839 0.0000 ( 17948 PWs)   bands (ev):

   -56.4827 -56.4821 -55.6855 -55.6794 -55.4347 -55.3897 -55.1374 -55.1025
   -55.0705 -55.0701 -55.0375 -54.9813 -54.9788 -54.7873 -54.7515 -54.6431
   -32.7628 -32.7623 -32.7405 -32.7399 -32.6265 -32.6260 -32.0054 -32.0006
   -31.8803 -31.8748 -31.8699 -31.8599 -31.7420 -31.7071 -31.6631 -31.6561
   -31.6161 -31.6123 -31.4438 -31.4347 -31.4210 -31.4209 -31.3819 -31.3766
   -31.3612 -31.3532 -31.3402 -31.3211 -31.2997 -31.2922 -31.2915 -31.2739
   -31.2539 -31.2537 -31.2527 -31.2389 -31.2206 -31.1859 -31.1781 -31.1485
   -31.1334 -31.0497 -31.0057 -31.0003 -30.9859 -30.9480 -30.8706 -30.8581
   -18.6453 -16.0684 -16.0031 -16.0004 -15.9401 -15.9383 -15.7056 -15.7016
   -15.4657 -15.4375 -15.2795 -15.1862 -15.1683 -15.1064 -15.0683 -15.0165
   -14.9620 -14.9328 -14.8224 -14.7849 -14.7536 -14.7158 -14.6891 -14.6690
   -14.6087 -14.5722 -14.5486 -14.4496 -14.4255 -14.1908 -14.1824 -13.5815
   -13.5813 -12.4068  -8.5616  -5.9760  -4.5441  -3.6630  -3.3341  -3.0703
    -3.0658  -3.0606  -3.0556  -2.9905  -2.8163  -2.8127  -2.6595  -2.6260
    -2.6143  -2.5888  -2.5579  -2.4543  -2.3781  -2.3612  -2.3596  -2.3555
    -2.3063  -2.2982  -2.2470  -2.1689  -2.1059  -2.0974  -2.0632  -2.0016
    -1.9426  -1.8941  -1.8897  -1.8517  -1.8286  -1.7974  -1.7781  -1.7567
    -1.7119  -1.6285  -1.5042  -1.4285  -1.3970  -1.3798  -1.3418  -1.2949
    -1.2818  -1.2700  -1.2181  -1.2034  -1.1388  -1.1092  -1.0686  -0.9726
    -0.9127  -0.8815  -0.8569  -0.7523  -0.7134  -0.6385  -0.5934  -0.5589
    -0.5232  -0.5000  -0.4385  -0.4272  -0.3452  -0.2774  -0.2501  -0.1944
    -0.1807  -0.1687  -0.1509  -0.1061  -0.0007   0.0150   0.0486   0.1473
     0.2106   0.2829   0.3010   0.3928   0.4215   0.4924   0.6078   0.6458
     0.7151   0.7790   0.8528   0.9380   0.9859   1.0311   1.1369   1.2219
     1.2372   1.2845   1.3117   1.3167   1.3181   1.3708   1.3909   1.5182
     2.1649   3.3670   3.3687   3.4256   3.4303   3.7300   3.7353   3.8413
     3.8448   4.0948   4.1160

     the Fermi energy is     2.5949 ev

!    total energy              =   -2972.74103026 Ry
     estimated scf accuracy    <       0.00000007 Ry
     smearing contrib. (-TS)   =      -0.00419780 Ry
     internal energy E=F+TS    =   -2972.73683246 Ry

     The total energy is F=E-TS. E is the sum of the following terms:
     one-electron contribution =  -23699.60495025 Ry
     hartree contribution      =   11945.10728703 Ry
     xc contribution           =    -493.11590575 Ry
     ewald contribution        =    9274.87589804 Ry
     electric field correction =       0.00083847 Ry

     convergence has been achieved in  78 iterations

     Forces acting on atoms (cartesian axes, Ry/au):

     atom    1 type  1   force =     0.00016508   -0.00043535    0.12198109
     atom    2 type  1   force =    -0.00004354    0.00027799   -0.15637847
     atom    3 type  2   force =     0.00004681   -0.00048025   -0.06053051
     atom    4 type  2   force =     0.00005336    0.00071410    0.01973192
     atom    5 type  2   force =    -0.00085876   -0.00259920   -0.01519671
     atom    6 type  2   force =     0.00221367   -0.00198454   -0.01655490
     atom    7 type  1   force =    -0.00030083   -0.00091343    0.05416502
     atom    8 type  1   force =     0.00081845    0.00108054    0.09007751
     atom    9 type  2   force =    -0.00035825   -0.00027816    0.00005477
     atom   10 type  2   force =    -0.00295996    0.00316463   -0.05931051
     atom   11 type  2   force =    -0.00024985    0.00019215    0.00005224
     atom   12 type  2   force =    -0.00023230    0.00014242   -0.00038003
     atom   13 type  1   force =    -0.00052373    0.00040095    0.00035249
     atom   14 type  1   force =     0.00006713    0.00141584   -0.00111611
     atom   15 type  2   force =    -0.00001846   -0.00065355   -0.00145424
     atom   16 type  2   force =     0.00011624    0.00067333    0.00049116
     atom   17 type  2   force =    -0.00083476   -0.00041807   -0.00011799
     atom   18 type  2   force =     0.00044157    0.00012521   -0.00032128
     atom   19 type  1   force =     0.00003380    0.00124399   -0.00010415
     atom   20 type  1   force =     0.00010161    0.00044094    0.00033436
     atom   21 type  2   force =     0.00009537   -0.00002756    0.09828014
     atom   22 type  2   force =     0.00035514   -0.00048234    0.00022904
     atom   23 type  2   force =    -0.08160121   -0.00005278   -0.03247842
     atom   24 type  2   force =     0.08158682    0.00036616   -0.03250782
     atom   25 type  1   force =     0.00002898   -0.00029039    0.12166942
     atom   26 type  1   force =     0.00002983   -0.00153872   -0.15641568
     atom   27 type  2   force =     0.00012856    0.00020986   -0.05948953
     atom   28 type  2   force =     0.00005658    0.00039062    0.01459738
     atom   29 type  2   force =    -0.00456936    0.00218182   -0.01162866
     atom   30 type  2   force =     0.00590266    0.00262847   -0.01293647
     atom   31 type  1   force =    -0.00043993   -0.00214364    0.04016615
     atom   32 type  1   force =     0.00079251   -0.00225234    0.09109855
     atom   33 type  2   force =    -0.00012445    0.00037762    0.00006756
     atom   34 type  2   force =    -0.00234901    0.00049146   -0.06882294
     atom   35 type  2   force =    -0.00021859    0.00005817    0.00026806
     atom   36 type  2   force =     0.00059593   -0.00026935    0.00003005
     atom   37 type  1   force =    -0.00002773    0.00021530   -0.00072530
     atom   38 type  1   force =     0.00013477    0.00105221   -0.00048027
     atom   39 type  2   force =    -0.00049097   -0.00119673    0.00041748
     atom   40 type  2   force =    -0.00001599    0.00044580   -0.00010016
     atom   41 type  2   force =     0.00077563   -0.00042767   -0.00001905
     atom   42 type  2   force =    -0.00058551   -0.00071218   -0.00072184
     atom   43 type  1   force =    -0.00018186   -0.00128013    0.00008297
     atom   44 type  1   force =    -0.00011428   -0.00065451    0.00054893
     atom   45 type  2   force =     0.00009685    0.00008243    0.09807817
     atom   46 type  2   force =    -0.08155407   -0.00002861   -0.03247429
     atom   47 type  2   force =     0.08154094    0.00041386   -0.03249226
     atom   48 type  3   force =     0.00029528   -0.00045383    0.00129607
     atom   49 type  3   force =    -0.00019392   -0.00125544    0.00031790
     atom   50 type  4   force =     0.00136054   -0.00417647    0.00998534
     atom   51 type  5   force =    -0.00040594    0.00483679   -0.01146676
     atom   52 type  5   force =     0.00053618   -0.00091709   -0.00022699
     atom   53 type  5   force =     0.00001008    0.00128834    0.00006535
     atom   54 type  2   force =    -0.00050837    0.00104279   -0.00097980
     atom   55 type  5   force =     0.00138126   -0.00003145    0.00099198

     Total force =     0.408629     Total SCF correction =     0.000609
  @ DRIVER MODE: Message from server: STATUS
  @ DRIVER MODE: Message from server: GETFORCE
  @ DRIVER MODE: Returning v,forces,stress,ensemble

     Writing output data file ./calc.save/
  @ DRIVER MODE: Message from server: EXIT
  @ DRIVE MODE: Exiting

     General routines

     Parallel routines

   This run was terminated on:   0:21: 9  23Sep2021

   JOB DONE.