     Program PWSCF v.6.7GPU starts on 22Sep2021 at 22:24:54

     R & G space division:  proc/nbgrp/npool/nimage =       8
     Reading input from /storage/home/hcoda1/3/ntian30/research/carbon/CxH_vib/H2O_calc/ads_slab/CH3N2HO_c/out_0001/pw.inp
Warning: card &CELL ignored
Warning: card   CELL_DYNAMICS='IPI', ignored
Warning: card / ignored

     Current dimensions of program PWSCF are:
     Max number of different atomic species (ntypx) = 10
     Max number of k-points (npk) =  40000
     Max angular momentum in pseudopotentials (lmaxx) =  3
     Presently no symmetry can be used with electric field

     Message from routine cell_base_init:
     DEPRECATED: use true lattice parameter, not A to a.u. conversion factor

     IMPORTANT: XC functional enforced from input :
     Exchange-correlation= BEEF-VDW
                           (   1   4  43  14   2   0   0)
     Any further DFT definition will be discarded
     Please, verify this is what you really want

  @ DRIVER MODE: Connecting to
 qe_1139763_2941007.sched-torque.pace.gatech.edusoq99yjp_scratch
  using UNIX socket
  @ DRIVER MODE: Message from server: STATUS
  @ DRIVER MODE: Message from server: INIT
  @ DRIVER MODE: Receiving replica           0          -1
  @ DRIVER MODE: Receiving encoded integer          25
  @ DRIVER MODE:  SCF:  T  FORCE:  T  STRESS:  F  VC:  F  ENSEMBLE:  F
  @ DRIVER MODE:  SCF:  T  FORCE:  T  STRESS:  F  VC:  F  ENSEMBLE:  F

     Using Slab Decomposition

     bravais-lattice index     =            0
     lattice parameter (alat)  =       1.8897  a.u.
     unit-cell volume          =    6658.9804 (a.u.)^3
     number of atoms/cell      =           55
     number of atomic types    =            5
     number of electrons       =       402.00
     number of Kohn-Sham states=          211
     kinetic-energy cutoff     =      29.3995  Ry
     charge density cutoff     =     293.9946  Ry
     scf convergence threshold =      7.3E-08
     mixing beta               =       0.0500
     number of iterations used =            8  plain     mixing
     Exchange-correlation= BEEF-VDW
                           (   1   4  43  14   2   0   0)

     celldm(1)=   1.889726  celldm(2)=   0.000000  celldm(3)=   0.000000
     celldm(4)=   0.000000  celldm(5)=   0.000000  celldm(6)=   0.000000

     crystal axes: (cart. coord. in units of alat)
               a(1) = (   6.579727   0.000000   0.000000 )
               a(2) = (  -0.000775   5.961596   0.000000 )
               a(3) = (   0.000000   0.000000  25.155947 )

     reciprocal axes: (cart. coord. in units 2 pi/alat)
               b(1) = (  0.151982  0.000020  0.000000 )
               b(2) = (  0.000000  0.167740  0.000000 )
               b(3) = (  0.000000  0.000000  0.039752 )

     PseudoPot. # 1 for Ti read from file:
     /storage/coda1/p-amedford6/0/shared/rich_project_chbe-medford/medford-share/data/pseudos_module/espresso/nninc/pbe/van/Ti.UPF
     MD5 check sum: 8e4df49b7f0d34bbd5052bf3f5ea0213
     Pseudo is Ultrasoft, Zval = 12.0
     Generated by new atomic code, or converted to UPF format
     Using radial grid of  851 points,  6 beta functions with:
                l(1) =   0
                l(2) =   0
                l(3) =   1
                l(4) =   1
                l(5) =   2
                l(6) =   2
     Q(r) pseudized with  8 coefficients,  rinner =    1.000   1.000   1.000
                                                       1.000   1.000

     PseudoPot. # 2 for O  read from file:
     /storage/coda1/p-amedford6/0/shared/rich_project_chbe-medford/medford-share/data/pseudos_module/espresso/nninc/pbe/van/O.UPF
     MD5 check sum: 78c19812648e8988a0fe644b0f25305e
     Pseudo is Ultrasoft, Zval =  6.0
     Generated by new atomic code, or converted to UPF format
     Using radial grid of  737 points,  4 beta functions with:
                l(1) =   0
                l(2) =   0
                l(3) =   1
                l(4) =   1
     Q(r) pseudized with  8 coefficients,  rinner =    0.800   0.800   0.800

     PseudoPot. # 3 for N  read from file:
     /storage/coda1/p-amedford6/0/shared/rich_project_chbe-medford/medford-share/data/pseudos_module/espresso/nninc/pbe/van/N.UPF
     MD5 check sum: 90d10febe142ad51ac9d5be1deb811c4
     Pseudo is Ultrasoft, Zval =  5.0
     Generated by new atomic code, or converted to UPF format
     Using radial grid of  729 points,  4 beta functions with:
                l(1) =   0
                l(2) =   0
                l(3) =   1
                l(4) =   1
     Q(r) pseudized with  8 coefficients,  rinner =    0.800   0.800   0.800

     PseudoPot. # 4 for C  read from file:
     /storage/coda1/p-amedford6/0/shared/rich_project_chbe-medford/medford-share/data/pseudos_module/espresso/nninc/pbe/van/C.UPF
     MD5 check sum: 1a69bf6b8db32088f5b2163dbdb77a27
     Pseudo is Ultrasoft, Zval =  4.0
     Generated by new atomic code, or converted to UPF format
     Using radial grid of  721 points,  4 beta functions with:
                l(1) =   0
                l(2) =   0
                l(3) =   1
                l(4) =   1
     Q(r) pseudized with  8 coefficients,  rinner =    0.800   0.800   0.800

     PseudoPot. # 5 for H  read from file:
     /storage/coda1/p-amedford6/0/shared/rich_project_chbe-medford/medford-share/data/pseudos_module/espresso/nninc/pbe/van/H.UPF
     MD5 check sum: b5ee9d7bfd3a09ee7748110bda690ff7
     Pseudo is Ultrasoft, Zval =  1.0
     Generated by new atomic code, or converted to UPF format
     Using radial grid of  615 points,  1 beta functions with:
                l(1) =   0
     Q(r) pseudized with  8 coefficients,  rinner =    0.800

     atomic species   valence    mass     pseudopotential
        Ti1           12.00    47.86700     Ti( 1.00)
        O1             6.00    15.99900     O ( 1.00)
        N1             5.00    14.00700     N ( 1.00)
        C1             4.00    12.01100     C ( 1.00)
        H1             1.00     1.00800     H ( 1.00)

     No symmetry found

   Cartesian axes

     site n.     atom                  positions (alat units)
         1           Ti1 tau(   1) = (   0.0004258   2.9801865   6.0000000  )
         2           Ti1 tau(   2) = (   3.2906075   1.4906267   6.0002472  )
         3           O1  tau(   3) = (   0.0006271   0.0005054   7.9858123  )
         4           O1  tau(   4) = (   3.2906025   0.0005020   7.3038282  )
         5           O1  tau(   5) = (   4.5942328   1.4918067   9.2879030  )
         6           O1  tau(   6) = (   1.9868534   1.4903216   9.2879459  )
         7           Ti1 tau(   7) = (   3.2907910   2.8959150   9.1758416  )
         8           Ti1 tau(   8) = (   0.0015273   1.4827037   9.2680791  )
         9           O1  tau(   9) = (   3.2989311   0.0219330  11.3020621  )
        10           O1  tau(  10) = (   0.0116148   5.9584955  10.6183126  )
        11           O1  tau(  11) = (   1.3029919   1.4976758  12.6257209  )
        12           O1  tau(  12) = (   5.3026591   1.4951023  12.6306759  )
        13           Ti1 tau(  13) = (   0.0286689   2.8598525  12.6759356  )
        14           Ti1 tau(  14) = (   3.3054201   1.5706400  12.4108957  )
        15           O1  tau(  15) = (   0.0066217   5.9386728  14.6456674  )
        16           O1  tau(  16) = (   3.2936494   5.9217248  13.9190535  )
        17           O1  tau(  17) = (   4.5783085   1.5227378  16.0725395  )
        18           O1  tau(  18) = (   2.0661487   1.5008106  16.0935948  )
        19           Ti1 tau(  19) = (   3.3004316   2.9577776  15.6622982  )
        20           Ti1 tau(  20) = (   6.5114840   1.4532315  15.8500040  )
        21           O1  tau(  21) = (   3.2904802   0.0005063   4.7018136  )
        22           O1  tau(  22) = (   0.0101108   5.9483577  17.1703567  )
        23           O1  tau(  23) = (   1.3043587   1.4918075   6.0039043  )
        24           O1  tau(  24) = (   5.2767064   1.4903225   6.0039473  )
        25           Ti1 tau(  25) = (   0.0000382   5.9609847   6.0000000  )
        26           Ti1 tau(  26) = (   3.2902200   4.4714249   6.0002472  )
        27           O1  tau(  27) = (   0.0002396   2.9813036   7.9858123  )
        28           O1  tau(  28) = (   3.2902150   2.9813002   7.3038282  )
        29           O1  tau(  29) = (   4.5938453   4.4726049   9.2879030  )
        30           O1  tau(  30) = (   1.9864658   4.4711199   9.2879459  )
        31           Ti1 tau(  31) = (   3.2891106   5.8743827   9.1763621  )
        32           Ti1 tau(  32) = (   0.0006254   4.4649316   9.2693709  )
        33           O1  tau(  33) = (   3.2985377   2.9527140  11.2683515  )
        34           O1  tau(  34) = (   0.0092240   2.9805883  10.6323155  )
        35           O1  tau(  35) = (   1.2869011   4.4751273  12.6337776  )
        36           O1  tau(  36) = (   5.3033013   4.4751711  12.6363117  )
        37           Ti1 tau(  37) = (   6.5677423   5.8343599  12.5653580  )
        38           Ti1 tau(  38) = (   3.2861748   4.6640272  12.6826305  )
        39           O1  tau(  39) = (   0.0268303   2.9326313  14.6927244  )
        40           O1  tau(  40) = (   3.2973518   2.9805258  13.8830516  )
        41           O1  tau(  41) = (   4.5656241   4.3944478  16.1024780  )
        42           O1  tau(  42) = (   2.0389263   4.3990843  16.1000718  )
        43           Ti1 tau(  43) = (   3.2183859   5.9292641  16.3327267  )
        44           Ti1 tau(  44) = (   6.5399727   4.6159235  16.0325440  )
        45           O1  tau(  45) = (   3.2900926   2.9813045   4.7018136  )
        46           O1  tau(  46) = (   1.3039711   4.4726057   6.0039043  )
        47           O1  tau(  47) = (   5.2763189   4.4711207   6.0039473  )
        48           N1  tau(  48) = (   0.1283159   2.7169024  18.7005470  )
        49           N1  tau(  49) = (   0.0454196   2.8879789  17.5111406  )
        50           C1  tau(  50) = (   0.1807782   3.8735959  19.6428767  )
        51           H1  tau(  51) = (   6.4938760   4.8136915  19.1652781  )
        52           H1  tau(  52) = (   6.0945921   3.6282151  20.4682347  )
        53           H1  tau(  53) = (   1.2016282   3.9139503  20.0277151  )
        54           O1  tau(  54) = (   3.2907091   5.9158944  18.1602194  )
        55           H1  tau(  55) = (   3.1351319   0.7410148  18.7017648  )

     number of k points=    10  Fermi-Dirac smearing, width (Ry)=  0.0073
                       cart. coord. in units 2pi/alat
        k(    1) = (   0.0000000   0.0000000   0.0000000), wk =   0.1250000
        k(    2) = (   0.0000000   0.0419351   0.0000000), wk =   0.2500000
        k(    3) = (   0.0000000  -0.0838702   0.0000000), wk =   0.1250000
        k(    4) = (   0.0379955   0.0000049   0.0000000), wk =   0.2500000
        k(    5) = (   0.0379955   0.0419400   0.0000000), wk =   0.2500000
        k(    6) = (   0.0379955  -0.0838652   0.0000000), wk =   0.2500000
        k(    7) = (   0.0379955  -0.0419301   0.0000000), wk =   0.2500000
        k(    8) = (  -0.0759910  -0.0000099   0.0000000), wk =   0.1250000
        k(    9) = (  -0.0759910   0.0419252   0.0000000), wk =   0.2500000
        k(   10) = (  -0.0759910  -0.0838800   0.0000000), wk =   0.1250000

     Initial potential from superposition of free atoms

     starting charge  385.99915, renormalised to  402.00000

     negative rho (up, down):  1.431E-02 0.000E+00

     %%%%%%%%%%%%%%%%%%%%%%%%%%%%%%%%%%%%%%%%%%%%%%%%%%%%%%%%%%%%%%%%%%%%%%%%
     %                                                                      %
     % You are using vdW-DF, which was implemented by the Thonhauser group. %
     % Please cite the following two papers that made this development      %
     % possible and the two reviews that describe the various versions:     %
     %                                                                      %
     %   T. Thonhauser et al., PRL 115, 136402 (2015).                      %
     %   T. Thonhauser et al., PRB 76, 125112 (2007).                       %
     %   K. Berland et al., Rep. Prog. Phys. 78, 066501 (2015).             %
     %   D.C. Langreth et al., J. Phys.: Condens. Matter 21, 084203 (2009). %
     %                                                                      %
     %                                                                      %
     % If you are calculating the stress with vdW-DF, please also cite:     %
     %                                                                      %
     %   R. Sabatini et al., J. Phys.: Condens. Matter 24, 424209 (2012).   %
     %                                                                      %
     %%%%%%%%%%%%%%%%%%%%%%%%%%%%%%%%%%%%%%%%%%%%%%%%%%%%%%%%%%%%%%%%%%%%%%%%

     Adding external electric field

     Computed dipole along edir(3) :
        Dipole              -12.0462 Ry au,        -30.6184 Debye
        Dipole field         -0.0227 Ry au,

        Potential amp.        2.1073 Ry
        Total length         46.3494 bohr

     Starting wfcs are  304 atomic wfcs
  @ DRIVER MODE: Message from server: STATUS
  @ DRIVER MODE: Message from server: POSDATA
  @ DRIVER MODE: Reading and sharing cell
  @ DRIVER MODE: Reading and sharing positions
  @ DRIVER MODE: Received positions

     Self-consistent Calculation

     iteration #  1     ecut=    29.40 Ry     beta= 0.05
     Davidson diagonalization with overlap
     c_bands:  5 eigenvalues not converged
     c_bands:  3 eigenvalues not converged
     c_bands:  5 eigenvalues not converged
     c_bands:  3 eigenvalues not converged
     c_bands:  3 eigenvalues not converged
     c_bands:  2 eigenvalues not converged
     c_bands:  5 eigenvalues not converged
     c_bands:  5 eigenvalues not converged
     ethr =  1.00E-05,  avg # of iterations = 21.5

[...]

     total energy              =   -2397.69927822 Ry
     estimated scf accuracy    <    6480.69097118 Ry

     iteration #  2     ecut=    29.40 Ry     beta= 0.05
     Davidson diagonalization with overlap
     ethr =  1.00E-02,  avg # of iterations = 22.5

[...]

     iteration # 44     ecut=    29.40 Ry     beta= 0.05
     Davidson diagonalization with overlap
     c_bands:  1 eigenvalues not converged
     c_bands:  1 eigenvalues not converged
     ethr =  9.14E-07,  avg # of iterations = 15.1

[...]

     total energy              =   -2972.75303262 Ry
     estimated scf accuracy    <       0.00000009 Ry

     iteration # 76     ecut=    29.40 Ry     beta= 0.05
     Davidson diagonalization with overlap
     ethr =  2.14E-11,  avg # of iterations =  4.0

     negative rho (up, down):  1.493E-02 0.000E+00

     Adding external electric field

     Computed dipole along edir(3) :
        Dipole                0.6528 Ry au,          1.6594 Debye
        Dipole field          0.0012 Ry au,

        Potential amp.       -0.1142 Ry
        Total length         46.3494 bohr

     End of self-consistent calculation

          k = 0.0000 0.0000 0.0000 ( 18029 PWs)   bands (ev):

   -56.2004 -56.1666 -55.7866 -55.7530 -55.5844 -55.5466 -55.4967 -55.3485
   -55.3153 -55.3128 -55.1685 -55.1559 -55.0284 -55.0049 -54.9721 -54.9381
   -32.6508 -32.4928 -32.4659 -32.3588 -32.2750 -32.2662 -32.2661 -32.0306
   -32.0054 -31.9859 -31.9338 -31.9285 -31.9274 -31.8936 -31.8460 -31.8213
   -31.7936 -31.7690 -31.7672 -31.7254 -31.7105 -31.6968 -31.6856 -31.6545
   -31.6379 -31.6247 -31.5543 -31.5341 -31.5258 -31.5208 -31.4988 -31.4651
   -31.4349 -31.4031 -31.3687 -31.3632 -31.3588 -31.3053 -31.2851 -31.2817
   -31.2575 -31.2406 -31.2403 -31.2373 -31.2163 -31.1874 -31.1029 -30.9909
   -18.8199 -16.4942 -16.4438 -16.1599 -15.9541 -15.7783 -15.6955 -15.6818
   -15.6319 -15.5109 -15.5008 -15.3875 -15.3001 -15.2240 -15.1973 -15.1958
   -15.1006 -15.0574 -15.0154 -14.9907 -14.9782 -14.9716 -14.9389 -14.8314
   -14.8227 -14.7952 -14.6965 -14.6872 -14.5820 -14.2868 -14.2705 -13.4698
   -13.3576 -11.4404  -6.8933  -4.3565  -4.1602  -4.0035  -3.9819  -3.9410
    -3.7079  -3.4955  -3.4108  -3.2495  -3.1933  -3.1153  -2.9170  -2.9071
    -2.8522  -2.7817  -2.7073  -2.6484  -2.6016  -2.5848  -2.4912  -2.4519
    -2.4313  -2.4273  -2.3959  -2.3795  -2.2549  -2.2534  -2.2214  -2.1714
    -2.1115  -2.0978  -2.0303  -2.0219  -2.0045  -1.9568  -1.9231  -1.8749
    -1.8040  -1.7907  -1.6559  -1.6298  -1.6228  -1.5432  -1.5150  -1.5056
    -1.4576  -1.2959  -1.2248  -1.1778  -1.1742  -1.0355  -1.0223  -0.9852
    -0.9039  -0.8688  -0.7796  -0.7695  -0.7598  -0.7513  -0.6667  -0.6302
    -0.6153  -0.5894  -0.4064  -0.3786  -0.3169  -0.2632  -0.1640  -0.1201
    -0.1140  -0.1047  -0.0659  -0.0091   0.0118   0.0269   0.1249   0.1493
     0.2030   0.2725   0.3072   0.3795   0.4000   0.4029   0.4137   0.4694
     0.5609   0.6535   0.6967   0.7115   0.7803   0.7940   0.9311   0.9444
     1.0523   1.0935   1.1010   1.1615   1.2832   1.5650   1.6005   1.6398
     2.7588   3.0259   3.1534   3.3099   3.4579   3.5537   3.8438   3.8911
     3.9301   3.9523   3.9946

[...]

          k = 0.0380-0.0419 0.0000 ( 17876 PWs)   bands (ev):

[...]

          k =-0.0760-0.0000 0.0000 ( 17886 PWs)   bands (ev):

[...]

          k =-0.0760-0.0839 0.0000 ( 17948 PWs)   bands (ev):

   -56.1835 -56.1833 -55.7705 -55.7689 -55.5837 -55.5399 -55.5032 -55.3357
   -55.3253 -55.3158 -55.1666 -55.1540 -55.0302 -55.0067 -54.9551 -54.9550
   -32.4784 -32.4782 -32.4669 -32.4667 -32.3110 -32.3105 -32.0908 -32.0872
   -31.9646 -31.9619 -31.9592 -31.9584 -31.8714 -31.8458 -31.8224 -31.8194
   -31.7842 -31.7620 -31.7614 -31.7280 -31.7199 -31.6919 -31.6696 -31.6579
   -31.6057 -31.5988 -31.5746 -31.5581 -31.5422 -31.5420 -31.5272 -31.5057
   -31.4271 -31.4077 -31.3730 -31.3691 -31.3567 -31.3017 -31.2946 -31.2945
   -31.2899 -31.2498 -31.2458 -31.2413 -31.1836 -31.1832 -31.1455 -31.1451
   -18.8171 -16.4348 -15.9028 -15.8937 -15.7673 -15.7622 -15.5879 -15.5758
   -15.5739 -15.4907 -15.4523 -15.4282 -15.2858 -15.2725 -15.2124 -15.1875
   -15.1715 -15.1482 -15.1373 -15.1051 -15.0950 -15.0436 -14.9864 -14.9788
   -14.9197 -14.9121 -14.7549 -14.6924 -14.6465 -14.5001 -14.4056 -13.4609
   -13.4603 -11.4383  -6.9071  -4.2973  -4.1812  -3.9689  -3.9362  -3.0683
    -3.0195  -2.9173  -2.8798  -2.7992  -2.7872  -2.6757  -2.6596  -2.6125
    -2.5964  -2.5880  -2.5433  -2.4970  -2.4876  -2.4648  -2.4385  -2.4241
    -2.4108  -2.3741  -2.3242  -2.3076  -2.3023  -2.2769  -2.1745  -2.1450
    -2.1312  -2.1235  -2.0975  -2.0728  -2.0301  -1.9584  -1.9250  -1.8868
    -1.8750  -1.8063  -1.7453  -1.6948  -1.6806  -1.6119  -1.5584  -1.5316
    -1.4532  -1.4044  -1.2906  -1.2783  -1.2599  -1.1969  -1.1748  -1.1213
    -1.1012  -1.0393  -0.9886  -0.9655  -0.9618  -0.9482  -0.8813  -0.8195
    -0.7115  -0.6641  -0.6480  -0.6125  -0.6089  -0.5792  -0.5453  -0.5088
    -0.4082  -0.3942  -0.3830  -0.3303  -0.3211  -0.2473  -0.1708  -0.0555
     0.0646   0.1422   0.1523   0.1718   0.2121   0.2934   0.3725   0.4131
     0.4579   0.5178   0.5603   0.5991   0.6649   0.8077   0.8589   0.8803
     0.9658   1.0028   1.0732   1.1609   1.4405   1.4513   1.4558   1.4567
     2.8114   3.5750   3.5775   3.6069   3.6177   3.7292   3.8124   3.8301
     3.9544   4.0123   4.0700

     the Fermi energy is     2.9623 ev

!    total energy              =   -2972.75304283 Ry
     estimated scf accuracy    <       0.00000004 Ry
     smearing contrib. (-TS)   =      -0.01285174 Ry
     internal energy E=F+TS    =   -2972.74019109 Ry

     The total energy is F=E-TS. E is the sum of the following terms:
     one-electron contribution =  -23538.60821602 Ry
     hartree contribution      =   11862.91813346 Ry
     xc contribution           =    -493.07127573 Ry
     ewald contribution        =    9196.02036289 Ry
     electric field correction =       0.00080431 Ry

     convergence has been achieved in  76 iterations

     Forces acting on atoms (cartesian axes, Ry/au):

     atom    1 type  1   force =     0.00007350   -0.00036042    0.10676433
     atom    2 type  1   force =    -0.00013380    0.00016301   -0.16546686
     atom    3 type  2   force =     0.00006935   -0.00044719   -0.03886846
     atom    4 type  2   force =     0.00000373    0.00016073    0.03539514
     atom    5 type  2   force =    -0.00263200   -0.00317978   -0.00912768
     atom    6 type  2   force =     0.00445296   -0.00251430   -0.00941390
     atom    7 type  1   force =    -0.00001100    0.00132625    0.03444004
     atom    8 type  1   force =     0.00024706    0.01555666    0.06075963
     atom    9 type  2   force =    -0.00018046   -0.00045556    0.00009469
     atom   10 type  2   force =    -0.00255613    0.00087813   -0.04249766
     atom   11 type  2   force =    -0.00098174    0.00035292    0.00039963
     atom   12 type  2   force =     0.00048412    0.00024192    0.00030585
     atom   13 type  1   force =     0.00046346    0.00067598   -0.00048990
     atom   14 type  1   force =     0.00025076   -0.00015337    0.00036221
     atom   15 type  2   force =     0.00024806    0.00063857    0.00011743
     atom   16 type  2   force =    -0.00009523   -0.00036030   -0.00070603
     atom   17 type  2   force =    -0.00019759    0.00021009    0.00002119
     atom   18 type  2   force =     0.00004219    0.00002056   -0.00004471
     atom   19 type  1   force =     0.00020769   -0.00093129    0.00003352
     atom   20 type  1   force =     0.00014309    0.00013025   -0.00055123
     atom   21 type  2   force =     0.00003364    0.00013367    0.10042878
     atom   22 type  2   force =     0.00012244    0.00069958    0.00007413
     atom   23 type  2   force =    -0.07679655   -0.00000539   -0.03010097
     atom   24 type  2   force =     0.07666810    0.00046653   -0.03014437
     atom   25 type  1   force =    -0.00008185   -0.00045087    0.10714792
     atom   26 type  1   force =    -0.00021571   -0.00130583   -0.16552011
     atom   27 type  2   force =     0.00010211   -0.00031820   -0.03716180
     atom   28 type  2   force =     0.00004638   -0.00000484    0.03056059
     atom   29 type  2   force =    -0.00566800    0.00365885   -0.00699685
     atom   30 type  2   force =     0.00730709    0.00400799   -0.00726890
     atom   31 type  1   force =    -0.00011380   -0.00228056    0.02263384
     atom   32 type  1   force =     0.00033200   -0.01776335    0.06123498
     atom   33 type  2   force =    -0.00016936    0.00019786   -0.00012029
     atom   34 type  2   force =    -0.00143500    0.00001344   -0.05422263
     atom   35 type  2   force =    -0.00001426   -0.00017457   -0.00018830
     atom   36 type  2   force =    -0.00031088    0.00004500   -0.00004410
     atom   37 type  1   force =     0.00013646   -0.00004996    0.00047713
     atom   38 type  1   force =     0.00034781    0.00000398    0.00006913
     atom   39 type  2   force =    -0.00015006    0.00030003   -0.00031078
     atom   40 type  2   force =     0.00001142    0.00030550    0.00053205
     atom   41 type  2   force =    -0.00014377    0.00017681   -0.00001917
     atom   42 type  2   force =     0.00034340    0.00005867   -0.00005682
     atom   43 type  1   force =     0.00022493    0.00043181    0.00028384
     atom   44 type  1   force =     0.00050033    0.00016928   -0.00050621
     atom   45 type  2   force =     0.00003601    0.00013411    0.10027117
     atom   46 type  2   force =    -0.07677215    0.00003437   -0.03009005
     atom   47 type  2   force =     0.07663491    0.00047154   -0.03010842
     atom   48 type  3   force =     0.00255454    0.00041071    0.00069548
     atom   49 type  3   force =    -0.00058125   -0.00011755   -0.00222411
     atom   50 type  4   force =    -0.00181540   -0.00009396    0.00009574
     atom   51 type  5   force =    -0.00001997   -0.00038000   -0.00044891
     atom   52 type  5   force =    -0.00009155    0.00021611    0.00015358
     atom   53 type  5   force =     0.00029813   -0.00066563   -0.00121364
     atom   54 type  2   force =     0.00014248   -0.00018679    0.00169762
     atom   55 type  5   force =    -0.00136065   -0.00009116   -0.00113679

     Total force =     0.380751     Total SCF correction =     0.000566
  @ DRIVER MODE: Message from server: STATUS
  @ DRIVER MODE: Message from server: GETFORCE
  @ DRIVER MODE: Returning v,forces,stress,ensemble

     Writing output data file ./calc.save/
  @ DRIVER MODE: Message from server: EXIT
  @ DRIVE MODE: Exiting

     General routines

     Parallel routines

   This run was terminated on:  22:49:45  22Sep2021

   JOB DONE.