     Program PWSCF v.6.8 starts on 30Aug2021 at 14:39:21

     R & G space division:  proc/nbgrp/npool/nimage =      24

     Reading input from /storage/home/hcoda1/3/ntian30/research/carbon/methanol/ads_slab/CH3OHN2_A/methanol.log/pw.inp
Warning: card &CELL ignored
Warning: card   CELL_DYNAMICS='IPI', ignored
Warning: card / ignored

     Current dimensions of program PWSCF are:
     Max number of different atomic species (ntypx) = 10
     Max number of k-points (npk) =  40000
     Max angular momentum in pseudopotentials (lmaxx) =  4
     Presently no symmetry can be used with electric field

     Message from routine cell_base_init:
     DEPRECATED: use true lattice parameter, not A to a.u. conversion factor

     IMPORTANT: XC functional enforced from input :
     Exchange-correlation= BEEF-VDW
                           (   1   4  43  14   2   0   0)
     Any further DFT definition will be discarded
     Please, verify this is what you really want

  @ DRIVER MODE: Connecting to
 qe_1139763_2685185.sched-torque.pace.gatech.edubzx9ntuo_scratch
  using UNIX socket
  @ DRIVER MODE: Message from server: STATUS
  @ DRIVER MODE: Message from server: INIT
  @ DRIVER MODE: Receiving replica           0          -1
  @ DRIVER MODE: Receiving encoded integer          25
  @ DRIVER MODE:  SCF:  T  FORCE:  T  STRESS:  F  VC:  F  ENSEMBLE:  F
  @ DRIVER MODE:  SCF:  T  FORCE:  T  STRESS:  F  VC:  F  ENSEMBLE:  F

     Using Slab Decomposition

     bravais-lattice index     =            0
     lattice parameter (alat)  =       1.8897  a.u.
     unit-cell volume          =    6658.9804 (a.u.)^3
     number of atoms/cell      =           55
     number of atomic types    =            5
     number of electrons       =       402.00
     number of Kohn-Sham states=          211
     kinetic-energy cutoff     =      29.3995  Ry
     charge density cutoff     =     293.9946  Ry
     scf convergence threshold =      7.3E-08
     mixing beta               =       0.0500
     number of iterations used =            8  plain     mixing
     Exchange-correlation= BEEF-VDW
                           (   1   4  43  14   2   0   0)

     celldm(1)=   1.889726  celldm(2)=   0.000000  celldm(3)=   0.000000
     celldm(4)=   0.000000  celldm(5)=   0.000000  celldm(6)=   0.000000

     crystal axes: (cart. coord. in units of alat)
               a(1) = (   6.579727   0.000000   0.000000 )
               a(2) = (  -0.000775   5.961596   0.000000 )
               a(3) = (   0.000000   0.000000  25.155947 )

     reciprocal axes: (cart. coord. in units 2 pi/alat)
               b(1) = (  0.151982  0.000020  0.000000 )
               b(2) = (  0.000000  0.167740  0.000000 )
               b(3) = (  0.000000  0.000000  0.039752 )

     PseudoPot. # 1 for Ti read from file:
     /storage/coda1/p-amedford6/0/shared/rich_project_chbe-medford/medford-share/data/pseudos_module/espresso/nninc/pbe/van/Ti.UPF
     MD5 check sum: 8e4df49b7f0d34bbd5052bf3f5ea0213
     Pseudo is Ultrasoft, Zval = 12.0
     Generated by new atomic code, or converted to UPF format
     Using radial grid of  851 points,  6 beta functions with:
                l(1) =   0
                l(2) =   0
                l(3) =   1
                l(4) =   1
                l(5) =   2
                l(6) =   2
     Q(r) pseudized with  8 coefficients,  rinner =    1.000   1.000   1.000
                                                       1.000   1.000

     PseudoPot. # 2 for O  read from file:
     /storage/coda1/p-amedford6/0/shared/rich_project_chbe-medford/medford-share/data/pseudos_module/espresso/nninc/pbe/van/O.UPF
     MD5 check sum: 78c19812648e8988a0fe644b0f25305e
     Pseudo is Ultrasoft, Zval =  6.0
     Generated by new atomic code, or converted to UPF format
     Using radial grid of  737 points,  4 beta functions with:
                l(1) =   0
                l(2) =   0
                l(3) =   1
                l(4) =   1
     Q(r) pseudized with  8 coefficients,  rinner =    0.800   0.800   0.800

     PseudoPot. # 3 for C  read from file:
     /storage/coda1/p-amedford6/0/shared/rich_project_chbe-medford/medford-share/data/pseudos_module/espresso/nninc/pbe/van/C.UPF
     MD5 check sum: 1a69bf6b8db32088f5b2163dbdb77a27
     Pseudo is Ultrasoft, Zval =  4.0
     Generated by new atomic code, or converted to UPF format
     Using radial grid of  721 points,  4 beta functions with:
                l(1) =   0
                l(2) =   0
                l(3) =   1
                l(4) =   1
     Q(r) pseudized with  8 coefficients,  rinner =    0.800   0.800   0.800

     PseudoPot. # 4 for H  read from file:
     /storage/coda1/p-amedford6/0/shared/rich_project_chbe-medford/medford-share/data/pseudos_module/espresso/nninc/pbe/van/H.UPF
     MD5 check sum: b5ee9d7bfd3a09ee7748110bda690ff7
     Pseudo is Ultrasoft, Zval =  1.0
     Generated by new atomic code, or converted to UPF format
     Using radial grid of  615 points,  1 beta functions with:
                l(1) =   0
     Q(r) pseudized with  8 coefficients,  rinner =    0.800

     PseudoPot. # 5 for N  read from file:
     /storage/coda1/p-amedford6/0/shared/rich_project_chbe-medford/medford-share/data/pseudos_module/espresso/nninc/pbe/van/N.UPF
     MD5 check sum: 90d10febe142ad51ac9d5be1deb811c4
     Pseudo is Ultrasoft, Zval =  5.0
     Generated by new atomic code, or converted to UPF format
     Using radial grid of  729 points,  4 beta functions with:
                l(1) =   0
                l(2) =   0
                l(3) =   1
                l(4) =   1
     Q(r) pseudized with  8 coefficients,  rinner =    0.800   0.800   0.800

     atomic species   valence    mass     pseudopotential
        Ti1           12.00    47.86700     Ti( 1.00)
        O1             6.00    15.99900     O ( 1.00)
        C1             4.00    12.01100     C ( 1.00)
        H1             1.00     1.00800     H ( 1.00)
        N1             5.00    14.00700     N ( 1.00)

     No symmetry found

   Cartesian axes

     site n.     atom                  positions (alat units)
         1           Ti1 tau(   1) = (   0.0004258   2.9801865   6.0000000  )
         2           Ti1 tau(   2) = (   3.2906075   1.4906267   6.0002472  )
         3           O1  tau(   3) = (   0.0006271   0.0005054   7.9858123  )
         4           O1  tau(   4) = (   3.2906025   0.0005020   7.3038282  )
         5           O1  tau(   5) = (   4.5942328   1.4918067   9.2879030  )
         6           O1  tau(   6) = (   1.9868534   1.4903216   9.2879459  )
         7           Ti1 tau(   7) = (   3.3184627   3.0104606   9.1553648  )
         8           Ti1 tau(   8) = (   0.0346466   1.5145919   9.2725854  )
         9           O1  tau(   9) = (   3.3323670   0.0074739  11.3628161  )
        10           O1  tau(  10) = (   0.0072146   0.0022432  10.6032180  )
        11           O1  tau(  11) = (   1.3334854   1.5010653  12.6312402  )
        12           O1  tau(  12) = (   5.3322653   1.4967215  12.6661074  )
        13           Ti1 tau(  13) = (   0.0399007   3.0049294  12.5399032  )
        14           Ti1 tau(  14) = (   3.3257882   1.5006484  12.5017209  )
        15           O1  tau(  15) = (   0.0958175   0.0109015  14.6781201  )
        16           O1  tau(  16) = (   3.3209445   0.0065530  13.9947117  )
        17           O1  tau(  17) = (   4.6470289   1.5235192  16.1521327  )
        18           O1  tau(  18) = (   2.1274687   1.5288575  16.1863263  )
        19           Ti1 tau(  19) = (   3.3866828   2.9872137  15.7186651  )
        20           Ti1 tau(  20) = (   0.0851359   1.3433488  15.9962781  )
        21           O1  tau(  21) = (   3.2904802   0.0005063   4.7018136  )
        22           O1  tau(  22) = (   0.0861787   0.0156205  17.2101336  )
        23           O1  tau(  23) = (   1.3043587   1.4918075   6.0039043  )
        24           O1  tau(  24) = (   5.2767064   1.4903225   6.0039473  )
        25           Ti1 tau(  25) = (   0.0000382   5.9609847   6.0000000  )
        26           Ti1 tau(  26) = (   3.2902200   4.4714249   6.0002472  )
        27           O1  tau(  27) = (   0.0002396   2.9813036   7.9858123  )
        28           O1  tau(  28) = (   3.2902150   2.9813002   7.3038282  )
        29           O1  tau(  29) = (   4.5938453   4.4726049   9.2879030  )
        30           O1  tau(  30) = (   1.9864658   4.4711199   9.2879459  )
        31           Ti1 tau(  31) = (   3.3160408   0.0312979   9.1533790  )
        32           Ti1 tau(  32) = (   0.0342031   4.4824714   9.2635914  )
        33           O1  tau(  33) = (   3.3296961   2.9874083  11.3532073  )
        34           O1  tau(  34) = (   0.0071558   2.9827229  10.6249429  )
        35           O1  tau(  35) = (   1.3339759   4.4780823  12.6303471  )
        36           O1  tau(  36) = (   5.3316377   4.4803543  12.6653953  )
        37           Ti1 tau(  37) = (   0.0318003   0.0267859  12.4824326  )
        38           Ti1 tau(  38) = (   3.3243002   4.4792164  12.4996646  )
        39           O1  tau(  39) = (   0.1017966   3.0039049  14.8467192  )
        40           O1  tau(  40) = (   3.3365867   2.9884115  13.9371009  )
        41           O1  tau(  41) = (   4.6519449   4.4651455  16.1366910  )
        42           O1  tau(  42) = (   2.1329502   4.4467914  16.2189938  )
        43           Ti1 tau(  43) = (   3.3530478   0.0116223  15.7847896  )
        44           Ti1 tau(  44) = (   0.0420906   4.5503417  15.8661587  )
        45           O1  tau(  45) = (   3.2900926   2.9813045   4.7018136  )
        46           O1  tau(  46) = (   1.3039711   4.4726057   6.0039043  )
        47           O1  tau(  47) = (   5.2763189   4.4711207   6.0039473  )
        48           C1  tau(  48) = (   6.0571888   3.1179766  18.9039971  )
        49           O1  tau(  49) = (   0.2335693   3.0433622  17.6694830  )
        50           H1  tau(  50) = (   5.0284728   2.8969007  18.6408099  )
        51           H1  tau(  51) = (   1.1757692   3.2348548  17.8288520  )
        52           H1  tau(  52) = (   6.4315421   2.3664480  19.5988381  )
        53           H1  tau(  53) = (   6.1352977   4.1238860  19.3131673  )
        54           N1  tau(  54) = (   3.3866828   2.9872137  19.0186651  )
        55           N1  tau(  55) = (   3.3866828   2.9872137  17.8886851  )

     number of k points=    10  Fermi-Dirac smearing, width (Ry)=  0.0073
                       cart. coord. in units 2pi/alat
        k(    1) = (   0.0000000   0.0000000   0.0000000), wk =   0.1250000
        k(    2) = (   0.0000000   0.0419351   0.0000000), wk =   0.2500000
        k(    3) = (   0.0000000  -0.0838702   0.0000000), wk =   0.1250000
        k(    4) = (   0.0379955   0.0000049   0.0000000), wk =   0.2500000
        k(    5) = (   0.0379955   0.0419400   0.0000000), wk =   0.2500000
        k(    6) = (   0.0379955  -0.0838652   0.0000000), wk =   0.2500000
        k(    7) = (   0.0379955  -0.0419301   0.0000000), wk =   0.2500000
        k(    8) = (  -0.0759910  -0.0000099   0.0000000), wk =   0.1250000
        k(    9) = (  -0.0759910   0.0419252   0.0000000), wk =   0.2500000
[...]
        47           O1  tau(  47) = (   5.2763189   4.4711207   6.0039473  )
        48           C1  tau(  48) = (   5.9190596   2.9957339  18.8987609  )
        49           O1  tau(  49) = (   0.1724663   2.9583060  17.7109309  )
        50           H1  tau(  50) = (   4.9280915   2.6946531  18.5848024  )
        51           H1  tau(  51) = (   1.1083601   3.0240620  17.9653591  )
        52           H1  tau(  52) = (   6.2997076   2.2854567  19.6319697  )
        53           H1  tau(  53) = (   5.9070960   4.0110839  19.2936236  )
        54           N1  tau(  54) = (   2.8467074   3.2315379  21.0775989  )
        55           N1  tau(  55) = (   2.5081340   3.1721534  20.0244574  )

     number of k points=    10  Fermi-Dirac smearing, width (Ry)=  0.0073
                       cart. coord. in units 2pi/alat
        k(    1) = (   0.0000000   0.0000000   0.0000000), wk =   0.1250000
        k(    2) = (   0.0000000   0.0419351   0.0000000), wk =   0.2500000
        k(    3) = (   0.0000000  -0.0838702   0.0000000), wk =   0.1250000
        k(    4) = (   0.0379955   0.0000049   0.0000000), wk =   0.2500000
        k(    5) = (   0.0379955   0.0419400   0.0000000), wk =   0.2500000
        k(    6) = (   0.0379955  -0.0838652   0.0000000), wk =   0.2500000
        k(    7) = (   0.0379955  -0.0419301   0.0000000), wk =   0.2500000
        k(    8) = (  -0.0759910  -0.0000099   0.0000000), wk =   0.1250000
        k(    9) = (  -0.0759910   0.0419252   0.0000000), wk =   0.2500000
        k(   10) = (  -0.0759910  -0.0838800   0.0000000), wk =   0.1250000

     Initial potential from superposition of free atoms

     starting charge  385.99915, renormalised to  402.00000

[...]

     %%%%%%%%%%%%%%%%%%%%%%%%%%%%%%%%%%%%%%%%%%%%%%%%%%%%%%%%%%%%%%%%%%%%%%%%
     %                                                                      %
     % You are using vdW-DF, which was implemented by the Thonhauser group. %
     % Please cite the following two papers that made this development      %
     % possible and the two reviews that describe the various versions:     %
     %                                                                      %
     %   T. Thonhauser et al., PRL 115, 136402 (2015).                      %
     %   T. Thonhauser et al., PRB 76, 125112 (2007).                       %
     %   K. Berland et al., Rep. Prog. Phys. 78, 066501 (2015).             %
     %   D.C. Langreth et al., J. Phys.: Condens. Matter 21, 084203 (2009). %
     %                                                                      %
     %                                                                      %
     % If you are calculating the stress with vdW-DF, please also cite:     %
     %                                                                      %
     %   R. Sabatini et al., J. Phys.: Condens. Matter 24, 424209 (2012).   %
     %                                                                      %
     %%%%%%%%%%%%%%%%%%%%%%%%%%%%%%%%%%%%%%%%%%%%%%%%%%%%%%%%%%%%%%%%%%%%%%%%

[...]

     Starting wfcs are  304 atomic wfcs
  @ DRIVER MODE: Message from server: STATUS
  @ DRIVER MODE: Message from server: POSDATA
  @ DRIVER MODE: Reading and sharing cell
  @ DRIVER MODE: Reading and sharing positions
  @ DRIVER MODE: Received positions

[...]

     Self-consistent Calculation

[...]

     iteration # 11     ecut=    29.40 Ry     beta= 0.05
     Davidson diagonalization with overlap
     ethr =  3.84E-09,  avg # of iterations =  4.3

[...]

     total energy              =   -2972.83397532 Ry
     estimated scf accuracy    <       0.00000010 Ry

     iteration # 16     ecut=    29.40 Ry     beta= 0.05
     Davidson diagonalization with overlap
     c_bands:  1 eigenvalues not converged
     c_bands:  1 eigenvalues not converged
     c_bands:  3 eigenvalues not converged
     c_bands:  1 eigenvalues not converged
     c_bands:  1 eigenvalues not converged
     c_bands:  1 eigenvalues not converged
     c_bands:  1 eigenvalues not converged
     c_bands:  1 eigenvalues not converged
     ethr =  2.48E-11,  avg # of iterations = 19.9

[...]

     End of self-consistent calculation

[...]

          k = 0.0380-0.0419 0.0000 ( 17876 PWs)   bands (ev):

[...]

          k =-0.0760-0.0839 0.0000 ( 17948 PWs)   bands (ev):

   -55.1736 -55.1715 -55.1417 -55.1386 -55.0743 -55.0699 -55.0651 -55.0432
   -55.0187 -55.0093 -55.0065 -54.9812 -54.9555 -54.9537 -54.2348 -54.2346
   -31.6022 -31.5664 -31.5643 -31.4854 -31.4698 -31.4670 -31.4526 -31.4337
   -31.4277 -31.4068 -31.3941 -31.3916 -31.3855 -31.3497 -31.3395 -31.3260
   -31.3249 -31.3237 -31.3173 -31.3132 -31.3120 -31.3076 -31.2951 -31.2702
   -31.2701 -31.2667 -31.2666 -31.2655 -31.2604 -31.2585 -31.2577 -31.2350
   -31.2338 -31.2157 -31.2081 -31.2067 -31.2060 -31.1815 -31.1798 -31.1663
   -31.1396 -31.1370 -30.5520 -30.5518 -30.4768 -30.4766 -30.4373 -30.4371
   -21.8547 -19.9443 -15.5305 -15.4518 -15.3791 -15.1909 -15.1882 -15.1770
   -15.1629 -15.0284 -15.0128 -14.9997 -14.9539 -14.9480 -14.9344 -14.9258
   -14.9084 -14.7846 -14.7798 -14.7723 -14.7708 -14.7067 -14.7033 -14.6846
   -14.6709 -14.6354 -14.6307 -14.6173 -14.6139 -14.4543 -14.3319 -12.7340
   -12.7332 -10.9081  -7.2576  -6.6310  -5.0626  -5.0210  -4.8557  -4.7214
    -3.8167  -2.8217  -2.7268  -2.6420  -2.6332  -2.4029  -2.3984  -2.3539
    -2.2915  -2.2414  -2.1888  -2.1737  -2.1701  -2.0989  -2.0932  -2.0918
    -2.0749  -2.0319  -2.0301  -1.9944  -1.9754  -1.9296  -1.8948  -1.8888
    -1.8768  -1.8546  -1.8527  -1.8429  -1.8138  -1.8071  -1.7945  -1.6969
    -1.6335  -1.5508  -1.5437  -1.5121  -1.4167  -1.4060  -1.3252  -1.3199
    -1.2735  -1.2567  -1.2138  -1.1578  -1.1118  -1.0041  -0.9866  -0.9819
    -0.9075  -0.8364  -0.8015  -0.7802  -0.7303  -0.6734  -0.6357  -0.5945
    -0.5261  -0.4781  -0.3998  -0.3898  -0.3441  -0.2137  -0.2029  -0.1845
    -0.1787  -0.1750  -0.0911  -0.0742  -0.0237   0.0175   0.0694   0.0912
     0.1094   0.3120   0.3228   0.4006   0.4945   0.5377   0.6772   0.7053
     0.7480   0.8127   0.8670   0.8849   0.9595   1.0779   1.0871   1.1136
     1.2042   1.2395   1.2439   1.2713   2.1259   2.1266   2.2312   2.2338
     4.0602   4.1284   4.1621   4.2258   4.2866   4.3741   4.3856   4.4162
     4.4392   4.4583   4.4652

     the Fermi energy is     3.9637 ev

!    total energy              =   -2972.83394316 Ry
     estimated scf accuracy    <       0.00000007 Ry
     smearing contrib. (-TS)   =      -0.03735380 Ry
     internal energy E=F+TS    =   -2972.79658937 Ry

     The total energy is F=E-TS. E is the sum of the following terms:
     one-electron contribution =  -22960.31471832 Ry
     hartree contribution      =   11575.90249588 Ry
     xc contribution           =    -493.18666744 Ry
     ewald contribution        =    8904.79949177 Ry
     electric field correction =       0.00280874 Ry

     convergence has been achieved in  16 iterations

     Forces acting on atoms (cartesian axes, Ry/au):

     atom    1 type  1   force =    -0.00033793    0.00015792    0.09338625
     atom    2 type  1   force =    -0.00025730    0.00045325   -0.18368986
     atom    3 type  2   force =     0.00051635   -0.00053307   -0.02206119
     atom    4 type  2   force =     0.00065281    0.00032121    0.05070158
     atom    5 type  2   force =    -0.01363249   -0.00039226    0.00465290
     atom    6 type  2   force =     0.01570104   -0.00033704    0.00569321
     atom    7 type  1   force =     0.00026122    0.00064637    0.00019043
     atom    8 type  1   force =    -0.00026224   -0.00000292   -0.00013560
     atom    9 type  2   force =     0.00000757   -0.00029987   -0.00020075
     atom   10 type  2   force =     0.00021836    0.00000079   -0.00013907
     atom   11 type  2   force =     0.00012444   -0.00006932   -0.00033554
     atom   12 type  2   force =     0.00064499   -0.00004793   -0.00024444
     atom   13 type  1   force =    -0.00139455   -0.00060082    0.00054669
     atom   14 type  1   force =     0.00051113   -0.00022329   -0.00027855
     atom   15 type  2   force =     0.00011571    0.00018475    0.00004428
     atom   16 type  2   force =    -0.00006042   -0.00009370   -0.00021750
     atom   17 type  2   force =    -0.00035341   -0.00012367    0.00005230
     atom   18 type  2   force =    -0.00027886    0.00004335   -0.00007408
     atom   19 type  1   force =    -0.00039938    0.00023961    0.00000654
     atom   20 type  1   force =    -0.00007602    0.00022640   -0.00024010
     atom   21 type  2   force =    -0.00004730    0.00015607    0.10507456
     atom   22 type  2   force =    -0.00031428    0.00013758   -0.00015070
     atom   23 type  2   force =    -0.06779476    0.00005492   -0.02679763
     atom   24 type  2   force =     0.06759923    0.00047707   -0.02686806
     atom   25 type  1   force =    -0.00030344    0.00010064    0.09667610
     atom   26 type  1   force =    -0.00026225   -0.00019219   -0.18370630
     atom   27 type  2   force =     0.00045725   -0.00065271   -0.02099387
     atom   28 type  2   force =     0.00065913    0.00020569    0.05036611
     atom   29 type  2   force =    -0.01365658   -0.00014920    0.00469533
     atom   30 type  2   force =     0.01564922    0.00002178    0.00571008
     atom   31 type  1   force =     0.00019817   -0.00061799   -0.00001637
     atom   32 type  1   force =    -0.00024239    0.00030766   -0.00018048
     atom   33 type  2   force =    -0.00001357    0.00005665   -0.00006966
     atom   34 type  2   force =     0.00014337   -0.00001724   -0.00004237
     atom   35 type  2   force =     0.00041393    0.00003251   -0.00022970
     atom   36 type  2   force =     0.00043028   -0.00006825   -0.00015313
     atom   37 type  1   force =    -0.00111243    0.00040776   -0.00013502
     atom   38 type  1   force =     0.00038464   -0.00004679   -0.00040554
     atom   39 type  2   force =    -0.00007985    0.00002953   -0.00036221
     atom   40 type  2   force =    -0.00014916   -0.00014722    0.00008083
     atom   41 type  2   force =    -0.00046885   -0.00029095   -0.00050155
     atom   42 type  2   force =     0.00023943   -0.00021751   -0.00039886
     atom   43 type  1   force =    -0.00023825   -0.00075678   -0.00010481
     atom   44 type  1   force =    -0.00049486   -0.00015122   -0.00021673
     atom   45 type  2   force =    -0.00004498    0.00016908    0.10508190
     atom   46 type  2   force =    -0.06783066   -0.00044662   -0.02681288
     atom   47 type  2   force =     0.06761151    0.00001186   -0.02689105
     atom   48 type  3   force =     0.00015735    0.00026264   -0.00005829
     atom   49 type  2   force =    -0.00147972   -0.00003416    0.00006571
     atom   50 type  4   force =    -0.00097935    0.00029860   -0.00037834
     atom   51 type  4   force =     0.00046290    0.00122209   -0.00014039
     atom   52 type  4   force =    -0.00011017   -0.00008535   -0.00070317
     atom   53 type  4   force =    -0.00041849   -0.00000127    0.00009728
     atom   54 type  5   force =     0.00067129    0.00032889    0.00005023
     atom   55 type  5   force =    -0.00073740    0.00004467    0.00076147

     Total force =     0.368631     Total SCF correction =     0.000986
  @ DRIVER MODE: Message from server: STATUS
  @ DRIVER MODE: Message from server: GETFORCE
  @ DRIVER MODE: Returning v,forces,stress,ensemble

     Writing config to output data dir ./calc.save/
  @ DRIVER MODE: Message from server: STATUS
  @ DRIVER MODE: Message from server: INIT
  @ DRIVER MODE: Receiving replica           0           0
  @ DRIVER MODE: Receiving encoded integer           2
  @ DRIVER MODE:  SCF:  T  FORCE:  T  STRESS:  F  VC:  F  ENSEMBLE:  F
  @ DRIVER MODE:  SCF:  F  FORCE:  F  STRESS:  F  VC:  F  ENSEMBLE:  T
  @ DRIVER MODE: Message from server: STATUS
  @ DRIVER MODE: Message from server: POSDATA
  @ DRIVER MODE: Reading and sharing positions
  @ DRIVER MODE: Received positions
     NEW-OLD atomic charge density approx. for the potential

[...]

     Adding external electric field

     Computed dipole along edir(3) :
        Dipole                1.2200 Ry au,          3.1009 Debye
        Dipole field          0.0023 Ry au,

        Potential amp.       -0.2134 Ry
        Total length         46.3494 bohr

  @ DRIVER MODE: BEEF-vdw

[...]

     negative rho (up, down):  1.360E-02 0.000E+00

     negative rho (up, down):  1.360E-02 0.000E+00
 BEEFens 2000 ensemble energies
             -0.354072873759486E+02
             -0.204370607623643E+01
             -0.729993766590594E+01
              0.245625619547145E+02
             -0.121713914334476E+02
             -0.940456581190344E+01
             -0.246023066819711E+02
             -0.514063520509645E+02
             -0.219247667773852E+02
             -0.230757794344950E+02
             -0.213911709699425E+02
              0.432162774367392E+01
              0.202648613240885E+01
             -0.109564916980339E+01
              0.177574197204889E+01
              0.270551057901426E+02
             -0.104513194415962E+02
             -0.735580119505136E+01
              0.119731576348250E+02
             -0.632272820993348E+02
              0.316800944817984E+02
             -0.135596615234101E+02
             -0.247473023348544E+01
             -0.572426746657868E+01
             -0.952241856238743E+00
             -0.220864607347075E+01
              0.490592257929893E+02
             -0.153008787295447E+02
             -0.412633217869183E+01
             -0.310043399171386E+02
              0.400776672846488E+02
             -0.442675197213472E+01
             -0.218237464110268E+02
              0.114534031060470E+02
             -0.209478818096227E+01
              0.132941182019160E+02
             -0.552739816117764E+00
              0.276688048678612E+01
              0.193164714275891E+02
             -0.558270457774908E+02
              0.311107722657541E+02
              0.828310304333115E+01
             -0.640007751364433E+01
             -0.178419208846219E+02
              0.704618194937811E+01
             -0.111611408007303E+02
              0.254429001243893E+02
              0.203054663333581E+02
             -0.130792754437451E+02
             -0.167199017455225E+02
             -0.176329030091773E+02
             -0.212400668758446E+02
              0.107882459950422E+02
             -0.276819631755645E+02
              0.848608139576646E+01
              0.353292041318096E+02
              0.407345847485394E+02
              0.189770773666757E+02
              0.851693239371082E+01
              0.177171446803727E+02
[...]
             -0.416598003094537E+02
              0.284305295261100E+01
             -0.144113246770291E+01
             -0.580588173087108E+01
              0.588851125822885E-01
             -0.370945307215515E+02
             -0.715882444246520E+01
              0.505640659568000E+01
              0.756099656606335E+01
              0.277904944634318E+02
             -0.242766042482575E+02
              0.317138874689409E+02
             -0.226994736081074E+02
              0.145990427893715E+02
              0.229902349773000E+02

 BEEF-vdW xc energy contributions
           1 :   -417.745625559135
           2 :    363.674562001578
           3 :   -276.675165247494
           4 :    186.157168930201
           5 :   -115.223812636849
           6 :    72.8285083307775
           7 :   -55.0210159981862
           8 :    51.6032919567743
           9 :   -53.0814341486904
          10 :    54.2284686961872
          11 :   -53.8165423578046
          12 :    52.3505908746842
          13 :   -50.1791226333380
          14 :    47.0089522658532
          15 :   -42.4819821419455
          16 :    36.8267326819279
          17 :   -30.9874741622030
          18 :    26.1866175113618
          19 :   -23.3089830968347
          20 :    22.5156540552782
          21 :   -23.3052192347474
          22 :    24.8835338359492
          23 :   -26.5285569565479
          24 :    27.7133441904647
          25 :   -28.0712598014068
          26 :    27.3872383433507
          27 :   -25.6559659299494
          28 :    23.1260566124292
          29 :   -20.2810305288263
          30 :    17.7279367408668
          31 :   -49.1643669560511
          32 :   -33.3334234976002
  @ DRIVER MODE: Message from server: STATUS
  @ DRIVER MODE: Message from server: GETFORCE
  @ DRIVER MODE: Returning v,forces,stress,ensemble
  @ DRIVE MODE: Returning Ensemble Energies

     Writing config to output data dir ./calc.save/
  @ DRIVER MODE: Message from server: EXIT
  @ DRIVE MODE: Exiting

     General routines

     Parallel routines

   This run was terminated on:   0: 7:16  31Aug2021

   JOB DONE.