     Program PWSCF v.6.8 starts on 30Aug2021 at 14:39:27

     R & G space division:  proc/nbgrp/npool/nimage =      24

     Reading input from /storage/home/hcoda1/3/ntian30/research/carbon/methanol/ads_slab/CH3OHN2_a/methanol.log/pw.inp
Warning: card &CELL ignored
Warning: card   CELL_DYNAMICS='IPI', ignored
Warning: card / ignored

     Current dimensions of program PWSCF are:
     Max number of different atomic species (ntypx) = 10
     Max number of k-points (npk) =  40000
     Max angular momentum in pseudopotentials (lmaxx) =  4
     Presently no symmetry can be used with electric field

     Message from routine cell_base_init:
     DEPRECATED: use true lattice parameter, not A to a.u. conversion factor

     IMPORTANT: XC functional enforced from input :
     Exchange-correlation= BEEF-VDW
                           (   1   4  43  14   2   0   0)
     Any further DFT definition will be discarded
     Please, verify this is what you really want

  @ DRIVER MODE: Connecting to
 qe_1139763_2685211.sched-torque.pace.gatech.edu50sqptr__scratch
  using UNIX socket
  @ DRIVER MODE: Message from server: STATUS
  @ DRIVER MODE: Message from server: INIT
  @ DRIVER MODE: Receiving replica           0          -1
  @ DRIVER MODE: Receiving encoded integer          25
  @ DRIVER MODE:  SCF:  T  FORCE:  T  STRESS:  F  VC:  F  ENSEMBLE:  F
  @ DRIVER MODE:  SCF:  T  FORCE:  T  STRESS:  F  VC:  F  ENSEMBLE:  F

     Using Slab Decomposition

     bravais-lattice index     =            0
     lattice parameter (alat)  =       1.8897  a.u.
     unit-cell volume          =    6658.9804 (a.u.)^3
     number of atoms/cell      =           55
     number of atomic types    =            5
     number of electrons       =       402.00
     number of Kohn-Sham states=          211
     kinetic-energy cutoff     =      29.3995  Ry
     charge density cutoff     =     293.9946  Ry
     scf convergence threshold =      7.3E-08
     mixing beta               =       0.0500
     number of iterations used =            8  plain     mixing
     Exchange-correlation= BEEF-VDW
                           (   1   4  43  14   2   0   0)

     celldm(1)=   1.889726  celldm(2)=   0.000000  celldm(3)=   0.000000
     celldm(4)=   0.000000  celldm(5)=   0.000000  celldm(6)=   0.000000

     crystal axes: (cart. coord. in units of alat)
               a(1) = (   6.579727   0.000000   0.000000 )
               a(2) = (  -0.000775   5.961596   0.000000 )
               a(3) = (   0.000000   0.000000  25.155947 )

     reciprocal axes: (cart. coord. in units 2 pi/alat)
               b(1) = (  0.151982  0.000020  0.000000 )
               b(2) = (  0.000000  0.167740  0.000000 )
               b(3) = (  0.000000  0.000000  0.039752 )

     PseudoPot. # 1 for Ti read from file:
     /storage/coda1/p-amedford6/0/shared/rich_project_chbe-medford/medford-share/data/pseudos_module/espresso/nninc/pbe/van/Ti.UPF
     MD5 check sum: 8e4df49b7f0d34bbd5052bf3f5ea0213
     Pseudo is Ultrasoft, Zval = 12.0
     Generated by new atomic code, or converted to UPF format
     Using radial grid of  851 points,  6 beta functions with:
                l(1) =   0
                l(2) =   0
                l(3) =   1
                l(4) =   1
                l(5) =   2
                l(6) =   2
     Q(r) pseudized with  8 coefficients,  rinner =    1.000   1.000   1.000
                                                       1.000   1.000

     PseudoPot. # 2 for O  read from file:
     /storage/coda1/p-amedford6/0/shared/rich_project_chbe-medford/medford-share/data/pseudos_module/espresso/nninc/pbe/van/O.UPF
     MD5 check sum: 78c19812648e8988a0fe644b0f25305e
     Pseudo is Ultrasoft, Zval =  6.0
     Generated by new atomic code, or converted to UPF format
     Using radial grid of  737 points,  4 beta functions with:
                l(1) =   0
                l(2) =   0
                l(3) =   1
                l(4) =   1
     Q(r) pseudized with  8 coefficients,  rinner =    0.800   0.800   0.800

     PseudoPot. # 3 for C  read from file:
     /storage/coda1/p-amedford6/0/shared/rich_project_chbe-medford/medford-share/data/pseudos_module/espresso/nninc/pbe/van/C.UPF
     MD5 check sum: 1a69bf6b8db32088f5b2163dbdb77a27
     Pseudo is Ultrasoft, Zval =  4.0
     Generated by new atomic code, or converted to UPF format
     Using radial grid of  721 points,  4 beta functions with:
                l(1) =   0
                l(2) =   0
                l(3) =   1
                l(4) =   1
     Q(r) pseudized with  8 coefficients,  rinner =    0.800   0.800   0.800

     PseudoPot. # 4 for H  read from file:
     /storage/coda1/p-amedford6/0/shared/rich_project_chbe-medford/medford-share/data/pseudos_module/espresso/nninc/pbe/van/H.UPF
     MD5 check sum: b5ee9d7bfd3a09ee7748110bda690ff7
     Pseudo is Ultrasoft, Zval =  1.0
     Generated by new atomic code, or converted to UPF format
     Using radial grid of  615 points,  1 beta functions with:
                l(1) =   0
     Q(r) pseudized with  8 coefficients,  rinner =    0.800

     PseudoPot. # 5 for N  read from file:
     /storage/coda1/p-amedford6/0/shared/rich_project_chbe-medford/medford-share/data/pseudos_module/espresso/nninc/pbe/van/N.UPF
     MD5 check sum: 90d10febe142ad51ac9d5be1deb811c4
     Pseudo is Ultrasoft, Zval =  5.0
     Generated by new atomic code, or converted to UPF format
     Using radial grid of  729 points,  4 beta functions with:
                l(1) =   0
                l(2) =   0
                l(3) =   1
                l(4) =   1
     Q(r) pseudized with  8 coefficients,  rinner =    0.800   0.800   0.800

     atomic species   valence    mass     pseudopotential
        Ti1           12.00    47.86700     Ti( 1.00)
        O1             6.00    15.99900     O ( 1.00)
        C1             4.00    12.01100     C ( 1.00)
        H1             1.00     1.00800     H ( 1.00)
        N1             5.00    14.00700     N ( 1.00)

     No symmetry found

   Cartesian axes

     site n.     atom                  positions (alat units)
         1           Ti1 tau(   1) = (   0.0004258   2.9801865   6.0000000  )
         2           Ti1 tau(   2) = (   3.2906075   1.4906267   6.0002472  )
         3           O1  tau(   3) = (   0.0006271   0.0005054   7.9858123  )
         4           O1  tau(   4) = (   3.2906025   0.0005020   7.3038282  )
         5           O1  tau(   5) = (   4.5942328   1.4918067   9.2879030  )
         6           O1  tau(   6) = (   1.9868534   1.4903216   9.2879459  )
         7           Ti1 tau(   7) = (   3.3158351   2.9795272   9.1571407  )
         8           Ti1 tau(   8) = (   0.0345117   1.4954568   9.2575666  )
         9           O1  tau(   9) = (   3.2804148   0.0005216  11.3961210  )
        10           O1  tau(  10) = (   6.5754384   0.0027490  10.6104223  )
        11           O1  tau(  11) = (   1.2711157   1.5048091  12.6625889  )
        12           O1  tau(  12) = (   5.2819882   1.5086244  12.6575238  )
        13           Ti1 tau(  13) = (   6.5611464   2.9928142  12.4891984  )
        14           Ti1 tau(  14) = (   3.2628853   1.4881963  12.5400211  )
        15           O1  tau(  15) = (   6.5462708   0.0383706  14.6849076  )
        16           O1  tau(  16) = (   3.2762351   0.0314270  14.0210983  )
        17           O1  tau(  17) = (   4.5480503   1.5258664  16.2093047  )
        18           O1  tau(  18) = (   2.0091799   1.5236472  16.2076768  )
        19           Ti1 tau(  19) = (   3.2615833   3.0079505  15.7899682  )
        20           Ti1 tau(  20) = (   6.5461430   1.3591503  15.9841226  )
        21           O1  tau(  21) = (   3.2904802   0.0005063   4.7018136  )
        22           O1  tau(  22) = (   0.0055641   5.9323274  17.2271586  )
        23           O1  tau(  23) = (   1.3043587   1.4918075   6.0039043  )
        24           O1  tau(  24) = (   5.2767064   1.4903225   6.0039473  )
        25           Ti1 tau(  25) = (   0.0000382   5.9609847   6.0000000  )
        26           Ti1 tau(  26) = (   3.2902200   4.4714249   6.0002472  )
        27           O1  tau(  27) = (   0.0002396   2.9813036   7.9858123  )
        28           O1  tau(  28) = (   3.2902150   2.9813002   7.3038282  )
        29           O1  tau(  29) = (   4.5938453   4.4726049   9.2879030  )
        30           O1  tau(  30) = (   1.9864658   4.4711199   9.2879459  )
        31           Ti1 tau(  31) = (   3.3150948   5.9586858   9.1561628  )
        32           Ti1 tau(  32) = (   0.0340967   4.4763829   9.2524718  )
        33           O1  tau(  33) = (   3.2753113   2.9914731  11.3901290  )
        34           O1  tau(  34) = (   6.5780236   2.9893894  10.6266999  )
        35           O1  tau(  35) = (   1.2714098   4.4783180  12.6834591  )
        36           O1  tau(  36) = (   5.2817444   4.4746391  12.6770453  )
        37           Ti1 tau(  37) = (   6.5518553   0.0146490  12.4787168  )
        38           Ti1 tau(  38) = (   3.2609386   4.4666435  12.5436525  )
        39           O1  tau(  39) = (   6.5727554   2.9765611  15.0046942  )
        40           O1  tau(  40) = (   3.2753211   2.9893216  13.9945429  )
        41           O1  tau(  41) = (   4.5407595   4.4795142  16.1711177  )
        42           O1  tau(  42) = (   2.0079144   4.4851887  16.1445895  )
        43           Ti1 tau(  43) = (   3.2645986   0.0272911  15.8248446  )
        44           Ti1 tau(  44) = (   6.5393768   4.6192689  15.8991084  )
        45           O1  tau(  45) = (   3.2900926   2.9813045   4.7018136  )
        46           O1  tau(  46) = (   1.3039711   4.4726057   6.0039043  )
        47           O1  tau(  47) = (   5.2763189   4.4711207   6.0039473  )
        48           C1  tau(  48) = (   0.2825875   3.2559775  19.2685358  )
        49           O1  tau(  49) = (   1.2951032   4.2390751  19.3812768  )
        50           H1  tau(  50) = (   0.6415048   2.3562466  19.7635977  )
        51           H1  tau(  51) = (   0.9956314   5.0335145  18.9054436  )
        52           H1  tau(  52) = (   5.9119845   3.5690521  19.7114027  )
        53           H1  tau(  53) = (   0.0782633   2.9856970  18.2099924  )
        54           N1  tau(  54) = (   3.2645986   0.0272911  19.1248446  )
        55           N1  tau(  55) = (   3.2645986   0.0272911  17.9948646  )

     number of k points=    10  Fermi-Dirac smearing, width (Ry)=  0.0073
                       cart. coord. in units 2pi/alat
        k(    1) = (   0.0000000   0.0000000   0.0000000), wk =   0.1250000
        k(    2) = (   0.0000000   0.0419351   0.0000000), wk =   0.2500000
        k(    3) = (   0.0000000  -0.0838702   0.0000000), wk =   0.1250000
        k(    4) = (   0.0379955   0.0000049   0.0000000), wk =   0.2500000
        k(    5) = (   0.0379955   0.0419400   0.0000000), wk =   0.2500000
        k(    6) = (   0.0379955  -0.0838652   0.0000000), wk =   0.2500000
        k(    7) = (   0.0379955  -0.0419301   0.0000000), wk =   0.2500000
        k(    8) = (  -0.0759910  -0.0000099   0.0000000), wk =   0.1250000
        k(    9) = (  -0.0759910   0.0419252   0.0000000), wk =   0.2500000
[...]
     atom   20 type  1   force =    -0.00005110    0.00138276   -0.00667824
     atom   21 type  2   force =     0.00009288    0.00000215    0.10522262
     atom   22 type  2   force =    -0.00028027    0.00018872    0.00742850
     atom   23 type  2   force =    -0.06767523   -0.00024052   -0.02598631
     atom   24 type  2   force =     0.06759456    0.00016684   -0.02608495
     atom   25 type  1   force =    -0.00013845    0.00014307    0.08949799
     atom   26 type  1   force =    -0.00008948   -0.00041994   -0.18427046
     atom   27 type  2   force =     0.00044162    0.00033384   -0.02301676
     atom   28 type  2   force =     0.00068507   -0.00000539    0.05243662
     atom   29 type  2   force =    -0.01409667   -0.00016161    0.00556420
     atom   30 type  2   force =     0.01373659    0.00070083    0.00527985
     atom   31 type  1   force =    -0.00005999    0.00045951    0.00044823
     atom   32 type  1   force =     0.00000704    0.00031913    0.00116306
     atom   33 type  2   force =     0.00019479   -0.00021927   -0.00112382
     atom   34 type  2   force =    -0.00004435   -0.00034919   -0.00067930
     atom   35 type  2   force =    -0.00104589   -0.00024979   -0.00029320
     atom   36 type  2   force =     0.00076375   -0.00017386    0.00008173
     atom   37 type  1   force =     0.00059013    0.00074441   -0.00003026
     atom   38 type  1   force =    -0.00009981    0.00498641    0.00319051
     atom   39 type  2   force =     0.00016540   -0.00004981    0.00180779
     atom   40 type  2   force =     0.00015893   -0.00013632   -0.00021709
     atom   41 type  2   force =     0.00728688   -0.01185649   -0.00809489
     atom   42 type  2   force =    -0.00695827   -0.01138950   -0.00834492
     atom   43 type  1   force =    -0.00125271   -0.00071642    0.00016191
     atom   44 type  1   force =     0.00058831   -0.00187274   -0.00530995
     atom   45 type  2   force =     0.00007154    0.00003108    0.10517758
     atom   46 type  2   force =    -0.06764451   -0.00027421   -0.02598937
     atom   47 type  2   force =     0.06758522    0.00019784   -0.02607902
     atom   48 type  3   force =    -0.00127968   -0.00111009   -0.00281405
     atom   49 type  2   force =    -0.00869919   -0.00644469    0.00034612
     atom   50 type  4   force =    -0.00056419   -0.00120342    0.00091635
     atom   51 type  4   force =    -0.00645111   -0.00423631   -0.00038568
     atom   52 type  4   force =    -0.00067708   -0.00008890    0.00033215
     atom   53 type  4   force =     0.00128241    0.00099662    0.00301254
     atom   54 type  5   force =     0.01161448    0.00942921   -0.13117614
     atom   55 type  5   force =     0.00455685    0.00026535    0.19054464

     Total force =     0.436490     Total SCF correction =     0.000276
  @ DRIVER MODE: Message from server: STATUS
  @ DRIVER MODE: Message from server: GETFORCE
  @ DRIVER MODE: Returning v,forces,stress,ensemble

     Writing config to output data dir ./calc.save/
  @ DRIVER MODE: Message from server: STATUS
  @ DRIVER MODE: Message from server: INIT
  @ DRIVER MODE: Receiving replica           0           0
  @ DRIVER MODE: Receiving encoded integer          25
  @ DRIVER MODE:  SCF:  T  FORCE:  T  STRESS:  F  VC:  F  ENSEMBLE:  F
  @ DRIVER MODE:  SCF:  T  FORCE:  T  STRESS:  F  VC:  F  ENSEMBLE:  F
  @ DRIVER MODE: Message from server: STATUS
  @ DRIVER MODE: Message from server: POSDATA
  @ DRIVER MODE: Reading and sharing positions
  @ DRIVER MODE: Received positions
     NEW-OLD atomic charge density approx. for the potential

[...]

     Self-consistent Calculation

[...]

     iteration # 18     ecut=    29.40 Ry     beta= 0.05
     Davidson diagonalization with overlap
     c_bands:  1 eigenvalues not converged
     c_bands:  1 eigenvalues not converged
     ethr =  5.65E-11,  avg # of iterations = 16.0

[...]

     total energy              =   -2972.79024160 Ry
     estimated scf accuracy    <       0.00000013 Ry

     iteration # 19     ecut=    29.40 Ry     beta= 0.05
     Davidson diagonalization with overlap
     ethr =  3.26E-11,  avg # of iterations =  9.6

[...]

     End of self-consistent calculation

[...]

          k = 0.0380-0.0419 0.0000 ( 17876 PWs)   bands (ev):

[...]

          k =-0.0760-0.0839 0.0000 ( 17948 PWs)   bands (ev):

   -55.7799 -55.7782 -55.7351 -55.7350 -55.6935 -55.6509 -55.6502 -55.6335
   -55.6285 -55.6259 -55.6070 -55.5667 -55.5613 -55.5594 -54.8399 -54.8399
   -32.2455 -32.1629 -32.1603 -32.0681 -32.0681 -32.0671 -32.0466 -32.0282
   -32.0276 -31.9983 -31.9945 -31.9914 -31.9880 -31.9537 -31.9436 -31.9427
   -31.9417 -31.9397 -31.9289 -31.9191 -31.9158 -31.9135 -31.9031 -31.8873
   -31.8865 -31.8818 -31.8782 -31.8757 -31.8530 -31.8530 -31.8455 -31.8441
   -31.8257 -31.8233 -31.8123 -31.7931 -31.7913 -31.7876 -31.7680 -31.7580
   -31.7476 -31.7457 -31.1571 -31.1571 -31.0823 -31.0821 -31.0424 -31.0423
   -20.9781 -18.0798 -16.3434 -15.9831 -15.9286 -15.8559 -15.8539 -15.7439
   -15.7168 -15.6463 -15.6033 -15.5748 -15.5678 -15.5365 -15.5024 -15.4937
   -15.4703 -15.4198 -15.4072 -15.3753 -15.3674 -15.3195 -15.3163 -15.3120
   -15.3114 -15.2807 -15.2755 -15.2331 -15.2294 -15.1626 -15.0121 -13.3397
   -13.3397  -9.6335  -6.2861  -5.2294  -4.1461  -4.1054  -3.5471  -3.3686
    -3.2527  -3.2103  -3.1300  -3.0807  -3.0161  -2.9711  -2.9623  -2.9209
    -2.9133  -2.8448  -2.7999  -2.7869  -2.7081  -2.7015  -2.6990  -2.6859
    -2.6246  -2.6146  -2.5881  -2.5589  -2.5570  -2.5162  -2.5097  -2.5042
    -2.4693  -2.4631  -2.4603  -2.4364  -2.4108  -2.3946  -2.3826  -2.3462
    -2.2007  -2.1842  -2.0817  -2.0358  -2.0309  -1.9599  -1.9479  -1.9128
    -1.8727  -1.8312  -1.7814  -1.5992  -1.5969  -1.5865  -1.5309  -1.4907
    -1.4283  -1.3859  -1.3459  -1.3104  -1.2745  -1.1366  -1.1243  -1.0664
    -0.9994  -0.9863  -0.8957  -0.8526  -0.8044  -0.7923  -0.7892  -0.7665
    -0.7524  -0.7436  -0.6910  -0.6355  -0.5888  -0.5460  -0.5397  -0.5153
    -0.3252  -0.2661  -0.2487  -0.1359  -0.0811   0.0955   0.1036   0.1437
     0.2668   0.2811   0.2870   0.3196   0.4445   0.4587   0.5322   0.5620
     0.5785   0.6174   0.6228   1.0376   1.5176   1.5192   1.6242   1.6248
     3.4562   3.5292   3.5779   3.6156   3.7298   3.7483   3.8032   3.8435
     3.8556   3.8612   3.9319

     the Fermi energy is     3.3621 ev

!    total energy              =   -2972.79024088 Ry
     estimated scf accuracy    <       0.00000005 Ry
     smearing contrib. (-TS)   =      -0.03680737 Ry
     internal energy E=F+TS    =   -2972.75343351 Ry

     The total energy is F=E-TS. E is the sum of the following terms:
     one-electron contribution =  -22758.79841427 Ry
     hartree contribution      =   11470.33668464 Ry
     xc contribution           =    -493.18407943 Ry
     ewald contribution        =    8808.89203283 Ry
     electric field correction =       0.00034273 Ry

     convergence has been achieved in  19 iterations

     Forces acting on atoms (cartesian axes, Ry/au):

     atom    1 type  1   force =    -0.00009619   -0.00000913    0.09026321
     atom    2 type  1   force =    -0.00013459    0.00032798   -0.18379971
     atom    3 type  2   force =     0.00048126    0.00036929   -0.02444284
     atom    4 type  2   force =     0.00070065    0.00004772    0.05349405
     atom    5 type  2   force =    -0.01400009   -0.00020252    0.00647844
     atom    6 type  2   force =     0.01359745    0.00015997    0.00605248
     atom    7 type  1   force =     0.00005491   -0.00001974   -0.00051336
     atom    8 type  1   force =     0.00017404    0.00138322   -0.00010871
     atom    9 type  2   force =     0.00006780   -0.00000481   -0.00008266
     atom   10 type  2   force =    -0.00032113   -0.00003445    0.00013827
     atom   11 type  2   force =     0.00070745   -0.00017367    0.00013335
     atom   12 type  2   force =    -0.00099277   -0.00012213    0.00043426
     atom   13 type  1   force =     0.00015475   -0.00028708   -0.00030638
     atom   14 type  1   force =     0.00007388    0.00123488   -0.00026810
     atom   15 type  2   force =    -0.00004514   -0.00008632    0.00026897
     atom   16 type  2   force =    -0.00004631   -0.00000919   -0.00113650
     atom   17 type  2   force =     0.00011798    0.00029891   -0.00008888
     atom   18 type  2   force =    -0.00024465    0.00050669   -0.00008330
     atom   19 type  1   force =     0.00040725    0.00016649   -0.00184897
     atom   20 type  1   force =    -0.00019282   -0.00136112    0.00006275
     atom   21 type  2   force =     0.00006955    0.00001902    0.10512583
     atom   22 type  2   force =     0.00010649   -0.00056321   -0.00082546
     atom   23 type  2   force =    -0.06783012   -0.00033931   -0.02606990
     atom   24 type  2   force =     0.06772801    0.00008715   -0.02616939
     atom   25 type  1   force =    -0.00017057   -0.00001519    0.08911974
     atom   26 type  1   force =    -0.00014315   -0.00048646   -0.18382161
     atom   27 type  2   force =     0.00043368   -0.00009238   -0.02316712
     atom   28 type  2   force =     0.00056020    0.00009873    0.05314354
     atom   29 type  2   force =    -0.01416173    0.00010652    0.00603347
     atom   30 type  2   force =     0.01376517    0.00053340    0.00557368
     atom   31 type  1   force =    -0.00002848    0.00008676   -0.00101695
     atom   32 type  1   force =     0.00019993   -0.00125343   -0.00011378
     atom   33 type  2   force =     0.00011418   -0.00019015    0.00055309
     atom   34 type  2   force =    -0.00014188    0.00003372    0.00063726
     atom   35 type  2   force =     0.00069550   -0.00008676    0.00010878
     atom   36 type  2   force =    -0.00096740   -0.00012157    0.00041606
     atom   37 type  1   force =     0.00006472    0.00031118    0.00057618
     atom   38 type  1   force =     0.00006998   -0.00125438   -0.00010169
     atom   39 type  2   force =    -0.00021648    0.00084133   -0.00030962
     atom   40 type  2   force =    -0.00031982    0.00004975    0.00151190
     atom   41 type  2   force =     0.00082402   -0.00017081    0.00018865
     atom   42 type  2   force =    -0.00097712   -0.00036727   -0.00006869
     atom   43 type  1   force =     0.00047657    0.00019328    0.00079657
     atom   44 type  1   force =    -0.00028415    0.00021819    0.00021520
     atom   45 type  2   force =     0.00005486    0.00004461    0.10505439
     atom   46 type  2   force =    -0.06784117   -0.00021149   -0.02609062
     atom   47 type  2   force =     0.06777406    0.00025452   -0.02618050
     atom   48 type  3   force =    -0.00034294    0.00020577    0.00049127
     atom   49 type  2   force =    -0.00076315    0.00100535   -0.00032433
     atom   50 type  4   force =    -0.00079760   -0.00038657    0.00005652
     atom   51 type  4   force =     0.00006832   -0.00106255    0.00101882
     atom   52 type  4   force =     0.00078804    0.00010915   -0.00051804
     atom   53 type  4   force =     0.00036243    0.00039530   -0.00022843
     atom   54 type  5   force =     0.00082812    0.00051354   -0.00078352
     atom   55 type  5   force =    -0.00046179   -0.00069074    0.00052233

     Total force =     0.366934     Total SCF correction =     0.000847
  @ DRIVER MODE: Message from server: STATUS
  @ DRIVER MODE: Message from server: GETFORCE
  @ DRIVER MODE: Returning v,forces,stress,ensemble

     Writing config to output data dir ./calc.save/
  @ DRIVER MODE: Message from server: STATUS
  @ DRIVER MODE: Message from server: INIT
  @ DRIVER MODE: Receiving replica           0           0
  @ DRIVER MODE: Receiving encoded integer           2
  @ DRIVER MODE:  SCF:  T  FORCE:  T  STRESS:  F  VC:  F  ENSEMBLE:  F
  @ DRIVER MODE:  SCF:  F  FORCE:  F  STRESS:  F  VC:  F  ENSEMBLE:  T
  @ DRIVER MODE: Message from server: STATUS
  @ DRIVER MODE: Message from server: POSDATA
  @ DRIVER MODE: Reading and sharing positions
  @ DRIVER MODE: Received positions
     NEW-OLD atomic charge density approx. for the potential

[...]

     Adding external electric field

     Computed dipole along edir(3) :
        Dipole                0.4262 Ry au,          1.0832 Debye
        Dipole field          0.0008 Ry au,

        Potential amp.       -0.0746 Ry
        Total length         46.3494 bohr

  @ DRIVER MODE: BEEF-vdw

[...]

     negative rho (up, down):  1.457E-02 0.000E+00

     negative rho (up, down):  1.457E-02 0.000E+00
 BEEFens 2000 ensemble energies
             -0.354095250550681E+02
             -0.203759192029474E+01
             -0.731051254978075E+01
              0.245596881372186E+02
             -0.121761843461570E+02
             -0.941550713838069E+01
             -0.246142791878802E+02
             -0.514231465333978E+02
             -0.219549188882973E+02
             -0.230688782943869E+02
             -0.213652922112199E+02
              0.431776430724325E+01
              0.202991898422933E+01
             -0.108712964180603E+01
              0.178125614077051E+01
              0.270472737399253E+02
             -0.104686899962419E+02
             -0.737195609415305E+01
              0.119387268533645E+02
             -0.632416110085229E+02
              0.316620627225678E+02
             -0.135387074448143E+02
             -0.247788190717220E+01
             -0.572835295151451E+01
             -0.942896499398898E+00
             -0.222040437552077E+01
              0.490732278779018E+02
             -0.152623298381847E+02
             -0.415413483130709E+01
             -0.309858223342246E+02
              0.400763117927506E+02
             -0.444608319010524E+01
             -0.218128298689532E+02
              0.114675177668387E+02
             -0.209091587428810E+01
              0.132683659833639E+02
             -0.552177092699651E+00
              0.278596614301676E+01
              0.192921109672273E+02
             -0.558491653303193E+02
              0.311229461538978E+02
              0.828418390334406E+01
             -0.638463184969589E+01
             -0.178601674751295E+02
              0.703678799476853E+01
             -0.111597777074222E+02
              0.254285917802494E+02
              0.203022250529543E+02
             -0.130775152569152E+02
             -0.166975168545104E+02
             -0.176019989206310E+02
             -0.212406619608327E+02
              0.107776003231279E+02
             -0.277015652399826E+02
              0.849353259703963E+01
              0.353426079879913E+02
              0.407175666283100E+02
              0.189882122806421E+02
              0.854093956730762E+01
              0.177229489094097E+02
[...]
             -0.416460525822368E+02
              0.283394221071956E+01
             -0.142056820337169E+01
             -0.580775594634241E+01
              0.563571385911814E-01
             -0.370811089625652E+02
             -0.716739578482095E+01
              0.506544676637888E+01
              0.755233706848848E+01
              0.277802310343808E+02
             -0.242604206016997E+02
              0.317379614907503E+02
             -0.227029545731154E+02
              0.145986526368986E+02
              0.229787698910230E+02

 BEEF-vdW xc energy contributions
           1 :   -417.725870471134
           2 :    363.593460813060
           3 :   -276.593521657175
           4 :    186.205259438094
           5 :   -115.414428479494
           6 :    73.0413171430719
           7 :   -55.1320833348026
           8 :    51.5981908672364
           9 :   -53.0350722792705
          10 :    54.2166515944647
          11 :   -53.8538799400145
          12 :    52.4026890851399
          13 :   -50.2047939362769
          14 :    46.9888212384345
          15 :   -42.4199030622106
          16 :    36.7460993126612
          17 :   -30.9271148865954
          18 :    26.1850331436725
          19 :   -23.3768752177800
          20 :    22.6246729110131
          21 :   -23.4104891569347
          22 :    24.9564909539927
          23 :   -26.5593880531503
          24 :    27.6897680214535
          25 :   -27.9725362042856
          26 :    27.2009048528136
          27 :   -25.3902738805808
          28 :    22.8016472559524
          29 :   -19.9146612169579
          30 :    17.3270735682017
          31 :   -49.1603467554920
          32 :   -33.3200116557221
  @ DRIVER MODE: Message from server: STATUS
  @ DRIVER MODE: Message from server: GETFORCE
  @ DRIVER MODE: Returning v,forces,stress,ensemble
  @ DRIVE MODE: Returning Ensemble Energies

     Writing config to output data dir ./calc.save/
  @ DRIVER MODE: Message from server: EXIT
  @ DRIVE MODE: Exiting

     General routines

     Parallel routines

   This run was terminated on:  18:32:40  30Aug2021

   JOB DONE.