     Program PWSCF v.6.7GPU starts on 23Sep2021 at 15:55:28

     R & G space division:  proc/nbgrp/npool/nimage =       8
     Reading input from /storage/home/hcoda1/3/ntian30/research/carbon/CxH_vib/H2O_calc/ads_slab/CH3NHHHO_a/out_0013/pw.inp
Warning: card &CELL ignored
Warning: card   CELL_DYNAMICS='IPI', ignored
Warning: card / ignored

     Current dimensions of program PWSCF are:
     Max number of different atomic species (ntypx) = 10
     Max number of k-points (npk) =  40000
     Max angular momentum in pseudopotentials (lmaxx) =  3
     Presently no symmetry can be used with electric field

     Message from routine cell_base_init:
     DEPRECATED: use true lattice parameter, not A to a.u. conversion factor

     IMPORTANT: XC functional enforced from input :
     Exchange-correlation= BEEF-VDW
                           (   1   4  43  14   2   0   0)
     Any further DFT definition will be discarded
     Please, verify this is what you really want

  @ DRIVER MODE: Connecting to
 qe_1139763_2947311.sched-torque.pace.gatech.edubnde00ln_scratch
  using UNIX socket
  @ DRIVER MODE: Message from server: STATUS
  @ DRIVER MODE: Message from server: INIT
  @ DRIVER MODE: Receiving replica           0          -1
  @ DRIVER MODE: Receiving encoded integer          25
  @ DRIVER MODE:  SCF:  T  FORCE:  T  STRESS:  F  VC:  F  ENSEMBLE:  F
  @ DRIVER MODE:  SCF:  T  FORCE:  T  STRESS:  F  VC:  F  ENSEMBLE:  F

     Using Slab Decomposition

     bravais-lattice index     =            0
     lattice parameter (alat)  =       1.8897  a.u.
     unit-cell volume          =    6658.9804 (a.u.)^3
     number of atoms/cell      =           56
     number of atomic types    =            5
     number of electrons       =       399.00
     number of Kohn-Sham states=          209
     kinetic-energy cutoff     =      29.3995  Ry
     charge density cutoff     =     293.9946  Ry
     scf convergence threshold =      7.3E-08
     mixing beta               =       0.0500
     number of iterations used =            8  plain     mixing
     Exchange-correlation= BEEF-VDW
                           (   1   4  43  14   2   0   0)

     celldm(1)=   1.889726  celldm(2)=   0.000000  celldm(3)=   0.000000
     celldm(4)=   0.000000  celldm(5)=   0.000000  celldm(6)=   0.000000

     crystal axes: (cart. coord. in units of alat)
               a(1) = (   6.579727   0.000000   0.000000 )
               a(2) = (  -0.000775   5.961596   0.000000 )
               a(3) = (   0.000000   0.000000  25.155947 )

     reciprocal axes: (cart. coord. in units 2 pi/alat)
               b(1) = (  0.151982  0.000020  0.000000 )
               b(2) = (  0.000000  0.167740  0.000000 )
               b(3) = (  0.000000  0.000000  0.039752 )

     PseudoPot. # 1 for Ti read from file:
     /storage/coda1/p-amedford6/0/shared/rich_project_chbe-medford/medford-share/data/pseudos_module/espresso/nninc/pbe/van/Ti.UPF
     MD5 check sum: 8e4df49b7f0d34bbd5052bf3f5ea0213
     Pseudo is Ultrasoft, Zval = 12.0
     Generated by new atomic code, or converted to UPF format
     Using radial grid of  851 points,  6 beta functions with:
                l(1) =   0
                l(2) =   0
                l(3) =   1
                l(4) =   1
                l(5) =   2
                l(6) =   2
     Q(r) pseudized with  8 coefficients,  rinner =    1.000   1.000   1.000
                                                       1.000   1.000

     PseudoPot. # 2 for O  read from file:
     /storage/coda1/p-amedford6/0/shared/rich_project_chbe-medford/medford-share/data/pseudos_module/espresso/nninc/pbe/van/O.UPF
     MD5 check sum: 78c19812648e8988a0fe644b0f25305e
     Pseudo is Ultrasoft, Zval =  6.0
     Generated by new atomic code, or converted to UPF format
     Using radial grid of  737 points,  4 beta functions with:
                l(1) =   0
                l(2) =   0
                l(3) =   1
                l(4) =   1
     Q(r) pseudized with  8 coefficients,  rinner =    0.800   0.800   0.800

     PseudoPot. # 3 for N  read from file:
     /storage/coda1/p-amedford6/0/shared/rich_project_chbe-medford/medford-share/data/pseudos_module/espresso/nninc/pbe/van/N.UPF
     MD5 check sum: 90d10febe142ad51ac9d5be1deb811c4
     Pseudo is Ultrasoft, Zval =  5.0
     Generated by new atomic code, or converted to UPF format
     Using radial grid of  729 points,  4 beta functions with:
                l(1) =   0
                l(2) =   0
                l(3) =   1
                l(4) =   1
     Q(r) pseudized with  8 coefficients,  rinner =    0.800   0.800   0.800

     PseudoPot. # 4 for C  read from file:
     /storage/coda1/p-amedford6/0/shared/rich_project_chbe-medford/medford-share/data/pseudos_module/espresso/nninc/pbe/van/C.UPF
     MD5 check sum: 1a69bf6b8db32088f5b2163dbdb77a27
     Pseudo is Ultrasoft, Zval =  4.0
     Generated by new atomic code, or converted to UPF format
     Using radial grid of  721 points,  4 beta functions with:
                l(1) =   0
                l(2) =   0
                l(3) =   1
                l(4) =   1
     Q(r) pseudized with  8 coefficients,  rinner =    0.800   0.800   0.800

     PseudoPot. # 5 for H  read from file:
     /storage/coda1/p-amedford6/0/shared/rich_project_chbe-medford/medford-share/data/pseudos_module/espresso/nninc/pbe/van/H.UPF
     MD5 check sum: b5ee9d7bfd3a09ee7748110bda690ff7
     Pseudo is Ultrasoft, Zval =  1.0
     Generated by new atomic code, or converted to UPF format
     Using radial grid of  615 points,  1 beta functions with:
                l(1) =   0
     Q(r) pseudized with  8 coefficients,  rinner =    0.800

     atomic species   valence    mass     pseudopotential
        Ti1           12.00    47.86700     Ti( 1.00)
        O1             6.00    15.99900     O ( 1.00)
        N1             5.00    14.00700     N ( 1.00)
        C1             4.00    12.01100     C ( 1.00)
        H1             1.00     1.00800     H ( 1.00)

     No symmetry found

   Cartesian axes

     site n.     atom                  positions (alat units)
         1           Ti1 tau(   1) = (   0.0004258   2.9801865   6.0000000  )
         2           Ti1 tau(   2) = (   3.2906075   1.4906267   6.0002472  )
         3           O1  tau(   3) = (   0.0006271   0.0005054   7.9858123  )
         4           O1  tau(   4) = (   3.2906025   0.0005020   7.3038282  )
         5           O1  tau(   5) = (   4.5942328   1.4918067   9.2879030  )
         6           O1  tau(   6) = (   1.9868534   1.4903216   9.2879459  )
         7           Ti1 tau(   7) = (   3.2907910   2.8959150   9.1758416  )
         8           Ti1 tau(   8) = (   0.0015273   1.4827037   9.2680791  )
         9           O1  tau(   9) = (   3.2949530   5.9481847  11.3666340  )
        10           O1  tau(  10) = (   0.0116148   5.9584955  10.6183126  )
        11           O1  tau(  11) = (   1.2732546   1.4916747  12.6876809  )
        12           O1  tau(  12) = (   5.3119445   1.4892451  12.6851550  )
        13           Ti1 tau(  13) = (   6.5688325   2.9465269  12.5174317  )
        14           Ti1 tau(  14) = (   3.2996026   1.2975375  12.7241829  )
        15           O1  tau(  15) = (   0.0172205   5.8793003  14.6619373  )
        16           O1  tau(  16) = (   3.2917661   0.0702926  14.0149596  )
        17           O1  tau(  17) = (   4.5643074   1.5920826  16.1346482  )
        18           O1  tau(  18) = (   2.0131957   1.5841813  16.0575481  )
        19           Ti1 tau(  19) = (   3.2662748   3.0407108  15.6947786  )
        20           Ti1 tau(  20) = (   0.0618610   1.3206105  15.7998127  )
        21           O1  tau(  21) = (   3.2904802   0.0005063   4.7018136  )
        22           O1  tau(  22) = (   0.0233933   0.1570098  17.1842078  )
        23           O1  tau(  23) = (   1.3043587   1.4918075   6.0039043  )
        24           O1  tau(  24) = (   5.2767064   1.4903225   6.0039473  )
        25           Ti1 tau(  25) = (   0.0000382   5.9609847   6.0000000  )
        26           Ti1 tau(  26) = (   3.2902200   4.4714249   6.0002472  )
        27           O1  tau(  27) = (   0.0002396   2.9813036   7.9858123  )
        28           O1  tau(  28) = (   3.2902150   2.9813002   7.3038282  )
        29           O1  tau(  29) = (   4.5938453   4.4726049   9.2879030  )
        30           O1  tau(  30) = (   1.9864658   4.4711199   9.2879459  )
        31           Ti1 tau(  31) = (   3.2891106   5.8743827   9.1763621  )
        32           Ti1 tau(  32) = (   0.0006254   4.4649316   9.2693709  )
        33           O1  tau(  33) = (   3.2948289   2.9949798  11.3176834  )
        34           O1  tau(  34) = (   0.0092240   2.9805883  10.6323155  )
        35           O1  tau(  35) = (   1.2828652   4.4571597  12.6432593  )
        36           O1  tau(  36) = (   5.3079144   4.4605214  12.6419564  )
        37           Ti1 tau(  37) = (   0.0266940   5.9154698  12.5044250  )
        38           Ti1 tau(  38) = (   3.3008436   4.3760658  12.4353554  )
        39           O1  tau(  39) = (   6.5507285   3.0461080  14.9005035  )
        40           O1  tau(  40) = (   3.2938476   3.0131494  13.9233183  )
        41           O1  tau(  41) = (   4.5350990   4.4864192  16.1518712  )
        42           O1  tau(  42) = (   1.9883536   4.4285065  16.1690201  )
        43           Ti1 tau(  43) = (   3.3916644   0.0784854  16.2809578  )
        44           Ti1 tau(  44) = (   0.0590441   4.5159846  16.0209683  )
        45           O1  tau(  45) = (   3.2900926   2.9813045   4.7018136  )
        46           O1  tau(  46) = (   1.3039711   4.4726057   6.0039043  )
        47           O1  tau(  47) = (   5.2763189   4.4711207   6.0039473  )
        48           N1  tau(  48) = (   6.2706434   3.3837210  18.0754458  )
        49           C1  tau(  49) = (   0.7642246   3.1223808  19.0622891  )
        50           H1  tau(  50) = (   1.3058356   4.0410886  19.2409436  )
        51           H1  tau(  51) = (   0.3597117   2.7583523  20.0089400  )
        52           H1  tau(  52) = (   1.4517744   2.3810259  18.6668870  )
        53           H1  tau(  53) = (   5.6745199   4.1349376  18.4206214  )
        54           H1  tau(  54) = (   5.6587021   2.5696541  18.0151127  )
        55           O1  tau(  55) = (   3.1972372   0.0910451  18.1323504  )
        56           H1  tau(  56) = (   2.2767176   0.1080423  18.4377142  )

     number of k points=    10  Fermi-Dirac smearing, width (Ry)=  0.0073
                       cart. coord. in units 2pi/alat
        k(    1) = (   0.0000000   0.0000000   0.0000000), wk =   0.1250000
        k(    2) = (   0.0000000   0.0419351   0.0000000), wk =   0.2500000
        k(    3) = (   0.0000000  -0.0838702   0.0000000), wk =   0.1250000
        k(    4) = (   0.0379955   0.0000049   0.0000000), wk =   0.2500000
        k(    5) = (   0.0379955   0.0419400   0.0000000), wk =   0.2500000
        k(    6) = (   0.0379955  -0.0838652   0.0000000), wk =   0.2500000
        k(    7) = (   0.0379955  -0.0419301   0.0000000), wk =   0.2500000
        k(    8) = (  -0.0759910  -0.0000099   0.0000000), wk =   0.1250000
        k(    9) = (  -0.0759910   0.0419252   0.0000000), wk =   0.2500000
        k(   10) = (  -0.0759910  -0.0838800   0.0000000), wk =   0.1250000

     Initial potential from superposition of free atoms

     starting charge  382.99914, renormalised to  399.00000

     negative rho (up, down):  1.588E-02 0.000E+00

     %%%%%%%%%%%%%%%%%%%%%%%%%%%%%%%%%%%%%%%%%%%%%%%%%%%%%%%%%%%%%%%%%%%%%%%%
     %                                                                      %
     % You are using vdW-DF, which was implemented by the Thonhauser group. %
     % Please cite the following two papers that made this development      %
     % possible and the two reviews that describe the various versions:     %
     %                                                                      %
     %   T. Thonhauser et al., PRL 115, 136402 (2015).                      %
     %   T. Thonhauser et al., PRB 76, 125112 (2007).                       %
     %   K. Berland et al., Rep. Prog. Phys. 78, 066501 (2015).             %
     %   D.C. Langreth et al., J. Phys.: Condens. Matter 21, 084203 (2009). %
     %                                                                      %
     %                                                                      %
     % If you are calculating the stress with vdW-DF, please also cite:     %
     %                                                                      %
     %   R. Sabatini et al., J. Phys.: Condens. Matter 24, 424209 (2012).   %
     %                                                                      %
     %%%%%%%%%%%%%%%%%%%%%%%%%%%%%%%%%%%%%%%%%%%%%%%%%%%%%%%%%%%%%%%%%%%%%%%%

     Adding external electric field

     Computed dipole along edir(3) :
        Dipole              -10.6962 Ry au,        -27.1870 Debye
        Dipole field         -0.0202 Ry au,

        Potential amp.        1.8711 Ry
        Total length         46.3494 bohr

     Starting wfcs are  302 atomic wfcs
  @ DRIVER MODE: Message from server: STATUS
  @ DRIVER MODE: Message from server: POSDATA
  @ DRIVER MODE: Reading and sharing cell
  @ DRIVER MODE: Reading and sharing positions
  @ DRIVER MODE: Received positions

     Self-consistent Calculation

     iteration #  1     ecut=    29.40 Ry     beta= 0.05
     Davidson diagonalization with overlap
     c_bands:  3 eigenvalues not converged
     c_bands:  2 eigenvalues not converged
     c_bands:  2 eigenvalues not converged
     c_bands:  5 eigenvalues not converged
     c_bands:  2 eigenvalues not converged
     c_bands:  5 eigenvalues not converged
     c_bands:  4 eigenvalues not converged
     c_bands:  3 eigenvalues not converged
     ethr =  1.00E-05,  avg # of iterations = 21.6

[...]

     total energy              =   -2438.24031533 Ry
     estimated scf accuracy    <    5770.45388951 Ry

     iteration #  2     ecut=    29.40 Ry     beta= 0.05
     Davidson diagonalization with overlap
     ethr =  1.00E-02,  avg # of iterations = 23.6

[...]

     iteration # 63     ecut=    29.40 Ry     beta= 0.05
     Davidson diagonalization with overlap
     c_bands:  1 eigenvalues not converged
     c_bands:  2 eigenvalues not converged
     c_bands:  2 eigenvalues not converged
     ethr =  5.02E-09,  avg # of iterations = 16.2

[...]

     total energy              =   -2955.26289035 Ry
     estimated scf accuracy    <       0.00000010 Ry

     iteration # 77     ecut=    29.40 Ry     beta= 0.05
     Davidson diagonalization with overlap
     ethr =  2.55E-11,  avg # of iterations = 13.1

     negative rho (up, down):  1.647E-02 0.000E+00

     Adding external electric field

     Computed dipole along edir(3) :
        Dipole                0.9738 Ry au,          2.4751 Debye
        Dipole field          0.0018 Ry au,

        Potential amp.       -0.1703 Ry
        Total length         46.3494 bohr

     End of self-consistent calculation

          k = 0.0000 0.0000 0.0000 ( 18029 PWs)   bands (ev):

   -55.6828 -55.6364 -55.6023 -55.5121 -55.5018 -55.4660 -55.4654 -55.4635
   -55.4313 -55.4179 -55.3673 -55.2723 -55.2264 -55.2121 -54.6122 -54.5782
   -32.1217 -32.0195 -32.0117 -31.9879 -31.9683 -31.9562 -31.9271 -31.9011
   -31.8940 -31.8824 -31.8823 -31.7896 -31.7890 -31.7742 -31.7488 -31.7451
   -31.7437 -31.7425 -31.7418 -31.7054 -31.6939 -31.6645 -31.6616 -31.6555
   -31.6499 -31.6438 -31.6359 -31.6055 -31.6036 -31.5979 -31.5925 -31.5893
   -31.5783 -31.5632 -31.5487 -31.5234 -31.4638 -31.4550 -31.4455 -31.4221
   -31.4187 -31.4140 -31.0183 -30.9318 -30.9094 -30.8358 -30.7494 -30.6376
   -16.5111 -16.2959 -16.1493 -15.9786 -15.8390 -15.8101 -15.7691 -15.5986
   -15.5058 -15.4420 -15.2418 -15.2208 -15.1749 -15.1637 -15.1584 -15.1355
   -15.1259 -15.0808 -15.0623 -15.0589 -15.0490 -15.0315 -14.9950 -14.9528
   -14.9096 -14.8886 -14.7760 -14.7197 -14.6791 -14.4680 -14.3998 -13.1107
   -12.9942  -9.9962  -6.0240  -4.5870  -4.0616  -3.7594  -3.6438  -3.5464
    -3.5351  -3.4143  -3.4050  -3.1654  -3.0420  -2.9830  -2.9046  -2.7832
    -2.7523  -2.6870  -2.6453  -2.5889  -2.5686  -2.5331  -2.4934  -2.4479
    -2.4228  -2.3954  -2.3623  -2.3058  -2.2943  -2.1959  -2.1814  -2.1589
    -2.0532  -2.0122  -1.9720  -1.9539  -1.9489  -1.9298  -1.8911  -1.8848
    -1.8651  -1.7870  -1.7179  -1.6717  -1.6370  -1.6091  -1.3314  -1.2460
    -1.2024  -1.1880  -1.0839  -1.0602  -1.0319  -1.0183  -0.9815  -0.9652
    -0.8532  -0.8365  -0.7680  -0.7183  -0.7036  -0.6664  -0.5473  -0.5107
    -0.4601  -0.4199  -0.3698  -0.3521  -0.3474  -0.2528  -0.2261  -0.1913
    -0.0829  -0.0661  -0.0036   0.0816   0.0913   0.1426   0.1662   0.2265
     0.2308   0.2855   0.3152   0.3375   0.3908   0.4232   0.4596   0.4925
     0.5097   0.6120   0.6872   0.7000   0.7969   0.8716   0.9251   1.0292
     1.0969   1.3608   1.4144   1.4382   1.6064   1.9817   2.0271   3.4453
     3.5944   3.6099   3.6845   3.6971   3.7742   3.9349   3.9597   4.0947
     4.1333

[...]

          k = 0.0380-0.0419 0.0000 ( 17876 PWs)   bands (ev):

[...]

          k =-0.0760-0.0000 0.0000 ( 17886 PWs)   bands (ev):

[...]

          k =-0.0760-0.0839 0.0000 ( 17948 PWs)   bands (ev):

   -55.6818 -55.6195 -55.6190 -55.5108 -55.4906 -55.4746 -55.4669 -55.4490
   -55.4473 -55.4116 -55.3737 -55.2676 -55.2275 -55.2168 -54.5957 -54.5946
   -31.9526 -31.9447 -31.9372 -31.9368 -31.9299 -31.9128 -31.9123 -31.8965
   -31.8518 -31.8107 -31.7926 -31.7798 -31.7758 -31.7742 -31.7525 -31.7429
   -31.7394 -31.7388 -31.7284 -31.7247 -31.7171 -31.7161 -31.7014 -31.6775
   -31.6713 -31.6668 -31.6575 -31.6471 -31.6320 -31.6309 -31.6287 -31.6233
   -31.6217 -31.5964 -31.5958 -31.5549 -31.5303 -31.4950 -31.4681 -31.4632
   -31.4478 -31.4181 -30.9225 -30.9217 -30.8318 -30.8305 -30.7931 -30.7923
   -16.4811 -15.9389 -15.8575 -15.7443 -15.6212 -15.6079 -15.4968 -15.4138
   -15.4103 -15.3797 -15.3490 -15.3212 -15.3118 -15.2948 -15.2479 -15.2043
   -15.1691 -15.1413 -15.1393 -15.0935 -15.0865 -15.0751 -15.0625 -15.0402
   -15.0064 -14.9566 -14.9422 -14.9035 -14.7656 -14.6897 -14.5903 -13.0963
   -13.0958  -9.9982  -6.0040  -4.5845  -4.0264  -3.7141  -3.0558  -2.9596
    -2.8478  -2.7352  -2.7192  -2.7037  -2.6421  -2.6118  -2.5853  -2.5439
    -2.4866  -2.4697  -2.4466  -2.4298  -2.4084  -2.3901  -2.3815  -2.3763
    -2.3397  -2.3220  -2.3136  -2.2725  -2.2649  -2.2502  -2.2285  -2.2109
    -2.1804  -2.1764  -2.1465  -2.0949  -2.0455  -1.9719  -1.8789  -1.7975
    -1.7864  -1.7680  -1.7184  -1.7118  -1.6663  -1.6585  -1.6338  -1.5476
    -1.4362  -1.3859  -1.2750  -1.2551  -1.2284  -1.1887  -1.1359  -1.1217
    -1.0762  -1.0459  -0.9860  -0.8849  -0.8548  -0.7996  -0.6862  -0.6485
    -0.6102  -0.5901  -0.5780  -0.5530  -0.5363  -0.4966  -0.4684  -0.4201
    -0.3810  -0.3468  -0.3199  -0.2944  -0.2479  -0.1460  -0.0517  -0.0141
     0.0872   0.1335   0.1756   0.2073   0.2692   0.4041   0.4309   0.5269
     0.5416   0.5707   0.6723   0.6825   0.7835   0.8076   0.8458   0.8868
     0.9116   0.9326   0.9523   1.7760   1.7845   1.8474   1.8475   3.7381
     3.9307   3.9458   3.9621   4.0068   4.0140   4.0409   4.0467   4.1133
     4.1240

     the Fermi energy is     3.4842 ev

!    total energy              =   -2955.26289983 Ry
     estimated scf accuracy    <       0.00000004 Ry
     smearing contrib. (-TS)   =      -0.01953172 Ry
     internal energy E=F+TS    =   -2955.24336811 Ry

     The total energy is F=E-TS. E is the sum of the following terms:
     one-electron contribution =  -23741.60736100 Ry
     hartree contribution      =   11962.91355718 Ry
     xc contribution           =    -489.74089087 Ry
     ewald contribution        =    9313.18953710 Ry
     electric field correction =       0.00178948 Ry

     convergence has been achieved in  77 iterations

     Forces acting on atoms (cartesian axes, Ry/au):

     atom    1 type  1   force =     0.00009569   -0.00029442    0.09413659
     atom    2 type  1   force =    -0.00004034    0.00042507   -0.17541854
     atom    3 type  2   force =     0.00003973   -0.00033535   -0.02110875
     atom    4 type  2   force =     0.00002275   -0.00197930    0.05461858
     atom    5 type  2   force =    -0.00674503   -0.00244735    0.00300433
     atom    6 type  2   force =     0.00834850   -0.00187097    0.00242505
     atom    7 type  1   force =    -0.00017779   -0.00405067    0.00897051
     atom    8 type  1   force =     0.00031659    0.00082130    0.00312145
     atom    9 type  2   force =    -0.00058145    0.00058990   -0.00017606
     atom   10 type  2   force =    -0.00139226    0.00173038   -0.00927232
     atom   11 type  2   force =     0.00003379   -0.00015577    0.00036655
     atom   12 type  2   force =    -0.00005137   -0.00010960   -0.00031652
     atom   13 type  1   force =    -0.00049055   -0.00025790    0.00004438
     atom   14 type  1   force =     0.00000831   -0.00033796   -0.00005833
     atom   15 type  2   force =    -0.00031351   -0.00001605   -0.00015342
     atom   16 type  2   force =     0.00032122   -0.00053841   -0.00041405
     atom   17 type  2   force =     0.00043862   -0.00015766   -0.00079783
     atom   18 type  2   force =    -0.00048954    0.00015767   -0.00012923
     atom   19 type  1   force =     0.00048823   -0.00061775    0.00071995
     atom   20 type  1   force =     0.00048495    0.00031419    0.00040741
     atom   21 type  2   force =     0.00007566    0.00004521    0.10327803
     atom   22 type  2   force =    -0.00046494    0.00037803    0.00027249
     atom   23 type  2   force =    -0.07192794   -0.00019413   -0.02720703
     atom   24 type  2   force =     0.07185401    0.00024582   -0.02724913
     atom   25 type  1   force =     0.00002675   -0.00024184    0.09380709
     atom   26 type  1   force =    -0.00006461   -0.00132265   -0.17560029
     atom   27 type  2   force =     0.00015543   -0.00011474   -0.01986979
     atom   28 type  2   force =     0.00006903   -0.00032386    0.04989515
     atom   29 type  2   force =    -0.00613431    0.00232471    0.00250999
     atom   30 type  2   force =     0.00762506    0.00268923    0.00195898
     atom   31 type  1   force =     0.00002515    0.00839310   -0.00275258
     atom   32 type  1   force =     0.00011729   -0.00235749    0.00260010
     atom   33 type  2   force =     0.00005000   -0.00000145   -0.00004775
     atom   34 type  2   force =    -0.00211780   -0.00248969   -0.01004054
     atom   35 type  2   force =    -0.00015415   -0.00002234    0.00052180
     atom   36 type  2   force =    -0.00006507    0.00006636   -0.00008843
     atom   37 type  1   force =     0.00016851   -0.00008748   -0.00024301
     atom   38 type  1   force =     0.00005974   -0.00017460    0.00024368
     atom   39 type  2   force =    -0.00013152    0.00009397   -0.00028496
     atom   40 type  2   force =     0.00017086   -0.00025803   -0.00009642
     atom   41 type  2   force =    -0.00036549   -0.00073666    0.00062303
     atom   42 type  2   force =     0.00049393    0.00004259   -0.00019220
     atom   43 type  1   force =    -0.00077330   -0.00061659    0.00027929
     atom   44 type  1   force =     0.00041069    0.00041408   -0.00023588
     atom   45 type  2   force =     0.00006762   -0.00007091    0.10307148
     atom   46 type  2   force =    -0.07194401   -0.00003929   -0.02723788
     atom   47 type  2   force =     0.07190695    0.00039865   -0.02728912
     atom   48 type  3   force =    -0.00074413   -0.00048383   -0.00002859
     atom   49 type  4   force =    -0.00351143   -0.00373890   -0.00023950
     atom   50 type  5   force =     0.00515305    0.00556661    0.00088605
     atom   51 type  5   force =    -0.00029940    0.00029051    0.00010303
     atom   52 type  5   force =     0.00077708    0.00043857   -0.00057755
     atom   53 type  5   force =    -0.00034486    0.00052059   -0.00067890
     atom   54 type  5   force =     0.00022547    0.00006765   -0.00011977
     atom   55 type  2   force =    -0.00045181    0.00038045    0.00048904
     atom   56 type  5   force =    -0.00025406    0.00004904   -0.00042969

     Total force =     0.362335     Total SCF correction =     0.000580
  @ DRIVER MODE: Message from server: STATUS
  @ DRIVER MODE: Message from server: GETFORCE
  @ DRIVER MODE: Returning v,forces,stress,ensemble

     Writing output data file ./calc.save/
  @ DRIVER MODE: Message from server: EXIT
  @ DRIVE MODE: Exiting

     General routines

     Parallel routines

   This run was terminated on:  16:21:41  23Sep2021

   JOB DONE.