     Program PWSCF v.6.7GPU starts on  2Aug2021 at 13:13:53

     R & G space division:  proc/nbgrp/npool/nimage =      16
     Reading input from /storage/home/hcoda1/3/ntian30/research/carbon/02Aug_vib_paired/ads_slab/CH3NH3_a/out_0004/pw.inp
Warning: card &CELL ignored
Warning: card   CELL_DYNAMICS='IPI', ignored
Warning: card / ignored

     Current dimensions of program PWSCF are:
     Max number of different atomic species (ntypx) = 10
     Max number of k-points (npk) =  40000
     Max angular momentum in pseudopotentials (lmaxx) =  3
     Presently no symmetry can be used with electric field

     Message from routine cell_base_init:
     DEPRECATED: use true lattice parameter, not A to a.u. conversion factor

     IMPORTANT: XC functional enforced from input :
     Exchange-correlation= BEEF-VDW
                           (   1   4  43  14   2   0   0)
     Any further DFT definition will be discarded
     Please, verify this is what you really want

  @ DRIVER MODE: Connecting to
 qe_1139763_2482539.sched-torque.pace.gatech.edutf4ebobj_scratch
  using UNIX socket
  @ DRIVER MODE: Message from server: STATUS
  @ DRIVER MODE: Message from server: INIT
  @ DRIVER MODE: Receiving replica           0          -1
  @ DRIVER MODE: Receiving encoded integer          25
  @ DRIVER MODE:  SCF:  T  FORCE:  T  STRESS:  F  VC:  F  ENSEMBLE:  F
  @ DRIVER MODE:  SCF:  T  FORCE:  T  STRESS:  F  VC:  F  ENSEMBLE:  F

     Using Slab Decomposition

     bravais-lattice index     =            0
     lattice parameter (alat)  =       1.8897  a.u.
     unit-cell volume          =    6658.9804 (a.u.)^3
     number of atoms/cell      =           55
     number of atomic types    =            5
     number of electrons       =       393.00
     number of Kohn-Sham states=          206
     kinetic-energy cutoff     =      29.3995  Ry
     charge density cutoff     =     293.9946  Ry
     scf convergence threshold =      7.3E-08
     mixing beta               =       0.0500
     number of iterations used =            8  plain     mixing
     Exchange-correlation= BEEF-VDW
                           (   1   4  43  14   2   0   0)

     celldm(1)=   1.889726  celldm(2)=   0.000000  celldm(3)=   0.000000
     celldm(4)=   0.000000  celldm(5)=   0.000000  celldm(6)=   0.000000

     crystal axes: (cart. coord. in units of alat)
               a(1) = (   6.579727   0.000000   0.000000 )
               a(2) = (  -0.000775   5.961596   0.000000 )
               a(3) = (   0.000000   0.000000  25.155947 )

     reciprocal axes: (cart. coord. in units 2 pi/alat)
               b(1) = (  0.151982  0.000020  0.000000 )
               b(2) = (  0.000000  0.167740  0.000000 )
               b(3) = (  0.000000  0.000000  0.039752 )

     PseudoPot. # 1 for Ti read from file:
     /storage/coda1/p-amedford6/0/shared/rich_project_chbe-medford/medford-share/data/pseudos_module/espresso/nninc/pbe/van/Ti.UPF
     MD5 check sum: 8e4df49b7f0d34bbd5052bf3f5ea0213
     Pseudo is Ultrasoft, Zval = 12.0
     Generated by new atomic code, or converted to UPF format
     Using radial grid of  851 points,  6 beta functions with:
                l(1) =   0
                l(2) =   0
                l(3) =   1
                l(4) =   1
                l(5) =   2
                l(6) =   2
     Q(r) pseudized with  8 coefficients,  rinner =    1.000   1.000   1.000
                                                       1.000   1.000

     PseudoPot. # 2 for O  read from file:
     /storage/coda1/p-amedford6/0/shared/rich_project_chbe-medford/medford-share/data/pseudos_module/espresso/nninc/pbe/van/O.UPF
     MD5 check sum: 78c19812648e8988a0fe644b0f25305e
     Pseudo is Ultrasoft, Zval =  6.0
     Generated by new atomic code, or converted to UPF format
     Using radial grid of  737 points,  4 beta functions with:
                l(1) =   0
                l(2) =   0
                l(3) =   1
                l(4) =   1
     Q(r) pseudized with  8 coefficients,  rinner =    0.800   0.800   0.800

     PseudoPot. # 3 for C  read from file:
     /storage/coda1/p-amedford6/0/shared/rich_project_chbe-medford/medford-share/data/pseudos_module/espresso/nninc/pbe/van/C.UPF
     MD5 check sum: 1a69bf6b8db32088f5b2163dbdb77a27
     Pseudo is Ultrasoft, Zval =  4.0
     Generated by new atomic code, or converted to UPF format
     Using radial grid of  721 points,  4 beta functions with:
                l(1) =   0
                l(2) =   0
                l(3) =   1
                l(4) =   1
     Q(r) pseudized with  8 coefficients,  rinner =    0.800   0.800   0.800

     PseudoPot. # 4 for H  read from file:
     /storage/coda1/p-amedford6/0/shared/rich_project_chbe-medford/medford-share/data/pseudos_module/espresso/nninc/pbe/van/H.UPF
     MD5 check sum: b5ee9d7bfd3a09ee7748110bda690ff7
     Pseudo is Ultrasoft, Zval =  1.0
     Generated by new atomic code, or converted to UPF format
     Using radial grid of  615 points,  1 beta functions with:
                l(1) =   0
     Q(r) pseudized with  8 coefficients,  rinner =    0.800

     PseudoPot. # 5 for N  read from file:
     /storage/coda1/p-amedford6/0/shared/rich_project_chbe-medford/medford-share/data/pseudos_module/espresso/nninc/pbe/van/N.UPF
     MD5 check sum: 90d10febe142ad51ac9d5be1deb811c4
     Pseudo is Ultrasoft, Zval =  5.0
     Generated by new atomic code, or converted to UPF format
     Using radial grid of  729 points,  4 beta functions with:
                l(1) =   0
                l(2) =   0
                l(3) =   1
                l(4) =   1
     Q(r) pseudized with  8 coefficients,  rinner =    0.800   0.800   0.800

     atomic species   valence    mass     pseudopotential
        Ti1           12.00    47.86700     Ti( 1.00)
        O1             6.00    15.99900     O ( 1.00)
        C1             4.00    12.01100     C ( 1.00)
        H1             1.00     1.00800     H ( 1.00)
        N1             5.00    14.00700     N ( 1.00)

     No symmetry found

   Cartesian axes

     site n.     atom                  positions (alat units)
         1           Ti1 tau(   1) = (   0.0004258   2.9801865   6.0000000  )
         2           Ti1 tau(   2) = (   3.2906075   1.4906267   6.0002472  )
         3           O1  tau(   3) = (   0.0006271   0.0005054   7.9858123  )
         4           O1  tau(   4) = (   3.2906025   0.0005020   7.3038282  )
         5           O1  tau(   5) = (   4.5942328   1.4918067   9.2879030  )
         6           O1  tau(   6) = (   1.9868534   1.4903216   9.2879459  )
         7           Ti1 tau(   7) = (   3.2907910   2.8959150   9.1758416  )
         8           Ti1 tau(   8) = (   0.0015273   1.4827037   9.2680791  )
         9           O1  tau(   9) = (   3.2981156   0.0012339  11.3300471  )
        10           O1  tau(  10) = (   0.0116148   5.9584955  10.6183126  )
        11           O1  tau(  11) = (   1.3033605   1.5036236  12.6199488  )
        12           O1  tau(  12) = (   5.2811161   1.5074500  12.6162500  )
        13           Ti1 tau(  13) = (   0.0407500   2.9455431  12.6352795  )
        14           Ti1 tau(  14) = (   3.3444429   1.4910927  12.4779025  )
        15           O1  tau(  15) = (   0.0052662   0.0451097  14.6026341  )
        16           O1  tau(  16) = (   3.2946143   0.0124870  13.9210852  )
        17           O1  tau(  17) = (   4.5465206   1.5046604  16.0624161  )
        18           O1  tau(  18) = (   2.0546879   1.5048301  16.0609706  )
        19           Ti1 tau(  19) = (   3.2991624   2.9918142  15.6995589  )
        20           Ti1 tau(  20) = (   6.5707204   1.4025535  15.8059435  )
        21           O1  tau(  21) = (   3.2904802   0.0005063   4.7018136  )
        22           O1  tau(  22) = (   0.0164654   0.0145536  17.1360041  )
        23           O1  tau(  23) = (   1.3043587   1.4918075   6.0039043  )
        24           O1  tau(  24) = (   5.2767064   1.4903225   6.0039473  )
        25           Ti1 tau(  25) = (   0.0000382   5.9609847   6.0000000  )
        26           Ti1 tau(  26) = (   3.2902200   4.4714249   6.0002472  )
        27           O1  tau(  27) = (   0.0002396   2.9813036   7.9858123  )
        28           O1  tau(  28) = (   3.2902150   2.9813002   7.3038282  )
        29           O1  tau(  29) = (   4.5938453   4.4726049   9.2879030  )
        30           O1  tau(  30) = (   1.9864658   4.4711199   9.2879459  )
        31           Ti1 tau(  31) = (   3.2891106   5.8743827   9.1763621  )
        32           Ti1 tau(  32) = (   0.0006254   4.4649316   9.2693709  )
        33           O1  tau(  33) = (   3.2977166   2.9913250  11.3287690  )
        34           O1  tau(  34) = (   0.0092240   2.9805883  10.6323155  )
        35           O1  tau(  35) = (   1.3008534   4.4801743  12.6308489  )
        36           O1  tau(  36) = (   5.2850400   4.4860598  12.6280017  )
        37           Ti1 tau(  37) = (   0.0409916   5.9178611  12.5441859  )
        38           Ti1 tau(  38) = (   3.3442415   4.4710906  12.4862270  )
        39           O1  tau(  39) = (   0.0109228   2.9791018  14.7123696  )
        40           O1  tau(  40) = (   3.2998940   2.9912248  13.9043662  )
        41           O1  tau(  41) = (   4.5474046   4.4713503  16.0779382  )
        42           O1  tau(  42) = (   2.0618872   4.4767818  16.0643778  )
        43           Ti1 tau(  43) = (   3.2722838   0.0128901  15.7174356  )
        44           Ti1 tau(  44) = (   6.5592075   4.4947239  16.1563676  )
        45           O1  tau(  45) = (   3.2900926   2.9813045   4.7018136  )
        46           O1  tau(  46) = (   1.3039711   4.4726057   6.0039043  )
        47           O1  tau(  47) = (   5.2763189   4.4711207   6.0039473  )
        48           C1  tau(  48) = (   0.0359503   3.0970652  17.8341721  )
        49           H1  tau(  49) = (   5.8142062   3.6010452  18.3763092  )
        50           H1  tau(  50) = (   6.4784518   2.0305676  18.0614951  )
        51           H1  tau(  51) = (   0.9863100   3.3782628  18.2908018  )
        52           N1  tau(  52) = (   4.7642638   1.7931862  21.6370373  )
        53           H1  tau(  53) = (   4.5527921   2.7808570  21.5386679  )
        54           H1  tau(  54) = (   4.1042548   1.2952780  21.0483319  )
        55           H1  tau(  55) = (   4.5435699   1.5432347  22.5953497  )

     number of k points=    10  Fermi-Dirac smearing, width (Ry)=  0.0073
                       cart. coord. in units 2pi/alat
        k(    1) = (   0.0000000   0.0000000   0.0000000), wk =   0.1250000
        k(    2) = (   0.0000000   0.0419351   0.0000000), wk =   0.2500000
        k(    3) = (   0.0000000  -0.0838702   0.0000000), wk =   0.1250000
        k(    4) = (   0.0379955   0.0000049   0.0000000), wk =   0.2500000
        k(    5) = (   0.0379955   0.0419400   0.0000000), wk =   0.2500000
        k(    6) = (   0.0379955  -0.0838652   0.0000000), wk =   0.2500000
        k(    7) = (   0.0379955  -0.0419301   0.0000000), wk =   0.2500000
        k(    8) = (  -0.0759910  -0.0000099   0.0000000), wk =   0.1250000
        k(    9) = (  -0.0759910   0.0419252   0.0000000), wk =   0.2500000
        k(   10) = (  -0.0759910  -0.0838800   0.0000000), wk =   0.1250000

     Initial potential from superposition of free atoms

     starting charge  376.99914, renormalised to  393.00000

     negative rho (up, down):  1.001E-02 0.000E+00

     %%%%%%%%%%%%%%%%%%%%%%%%%%%%%%%%%%%%%%%%%%%%%%%%%%%%%%%%%%%%%%%%%%%%%%%%
     %                                                                      %
     % You are using vdW-DF, which was implemented by the Thonhauser group. %
     % Please cite the following two papers that made this development      %
     % possible and the two reviews that describe the various versions:     %
     %                                                                      %
     %   T. Thonhauser et al., PRL 115, 136402 (2015).                      %
     %   T. Thonhauser et al., PRB 76, 125112 (2007).                       %
     %   K. Berland et al., Rep. Prog. Phys. 78, 066501 (2015).             %
     %   D.C. Langreth et al., J. Phys.: Condens. Matter 21, 084203 (2009). %
     %                                                                      %
     %                                                                      %
     % If you are calculating the stress with vdW-DF, please also cite:     %
     %                                                                      %
     %   R. Sabatini et al., J. Phys.: Condens. Matter 24, 424209 (2012).   %
     %                                                                      %
     %%%%%%%%%%%%%%%%%%%%%%%%%%%%%%%%%%%%%%%%%%%%%%%%%%%%%%%%%%%%%%%%%%%%%%%%

     Adding external electric field

     Computed dipole along edir(3) :
        Dipole               -9.0616 Ry au,        -23.0322 Debye
        Dipole field         -0.0171 Ry au,

        Potential amp.        1.5852 Ry
        Total length         46.3494 bohr

     Starting wfcs are  298 atomic wfcs
  @ DRIVER MODE: Message from server: STATUS
  @ DRIVER MODE: Message from server: POSDATA
  @ DRIVER MODE: Reading and sharing cell
  @ DRIVER MODE: Reading and sharing positions
  @ DRIVER MODE: Received positions

     Self-consistent Calculation

     iteration #  1     ecut=    29.40 Ry     beta= 0.05
     Davidson diagonalization with overlap
     c_bands:  1 eigenvalues not converged
     c_bands:  1 eigenvalues not converged
     c_bands:  1 eigenvalues not converged
     ethr =  1.00E-05,  avg # of iterations = 17.8

[...]

     total energy              =   -2692.43299452 Ry
     estimated scf accuracy    <    2566.19339045 Ry

[...]

     iteration #  3     ecut=    29.40 Ry     beta= 0.05
     Davidson diagonalization with overlap
     ethr =  1.00E-02,  avg # of iterations = 15.4

[...]

     iteration # 51     ecut=    29.40 Ry     beta= 0.05
     Davidson diagonalization with overlap
     c_bands:  1 eigenvalues not converged
     ethr =  1.40E-07,  avg # of iterations = 12.5

[...]

     total energy              =   -2922.78941820 Ry
     estimated scf accuracy    <       0.00000009 Ry

     iteration # 69     ecut=    29.40 Ry     beta= 0.05
     Davidson diagonalization with overlap
     ethr =  2.20E-11,  avg # of iterations = 13.1

     negative rho (up, down):  1.131E-02 0.000E+00

     Adding external electric field

     Computed dipole along edir(3) :
        Dipole                0.5514 Ry au,          1.4016 Debye
        Dipole field          0.0010 Ry au,

        Potential amp.       -0.0965 Ry
        Total length         46.3494 bohr

     End of self-consistent calculation

          k = 0.0000 0.0000 0.0000 ( 18029 PWs)   bands (ev):

   -56.0326 -56.0287 -55.9985 -55.9922 -55.9003 -55.8655 -55.8652 -55.8405
   -55.8221 -55.8065 -55.8016 -55.7679 -55.5686 -55.3926 -55.0081 -54.9740
   -32.5870 -32.5146 -32.3598 -32.3538 -32.3398 -32.3387 -32.3256 -32.2922
   -32.2751 -32.2382 -32.2322 -32.2317 -32.2081 -32.1848 -32.1718 -32.1656
   -32.1365 -32.1340 -32.1199 -32.0897 -32.0797 -32.0688 -32.0374 -32.0323
   -32.0280 -32.0265 -32.0121 -32.0106 -32.0039 -31.9788 -31.9781 -31.9757
   -31.9708 -31.9700 -31.9547 -31.9454 -31.9139 -31.8466 -31.7827 -31.6807
   -31.6225 -31.5124 -31.4151 -31.3270 -31.3045 -31.2318 -31.1453 -31.0343
   -16.7670 -16.5037 -16.2716 -16.1811 -16.1312 -16.0447 -15.8673 -15.7507
   -15.7022 -15.6013 -15.5689 -15.5490 -15.5324 -15.5017 -15.4935 -15.4689
   -15.4576 -15.4512 -15.4165 -15.3886 -15.3635 -15.3487 -15.2284 -15.1767
   -15.1605 -15.1294 -15.0814 -15.0649 -14.6093 -13.6590 -13.5108 -13.3944
    -9.0437  -4.1417  -3.9615  -3.9362  -3.8878  -3.8460  -3.7177  -3.7004
    -3.6435  -3.5831  -3.2647  -3.2085  -3.2000  -3.1593  -3.1446  -2.9816
    -2.9206  -2.8489  -2.8339  -2.8267  -2.8016  -2.7962  -2.7913  -2.7488
    -2.7051  -2.6479  -2.6239  -2.5622  -2.5108  -2.4421  -2.3700  -2.3422
    -2.3020  -2.2997  -2.2607  -2.2477  -2.2408  -2.2302  -2.1934  -2.1862
    -1.9998  -1.9603  -1.8729  -1.8152  -1.7970  -1.6370  -1.5294  -1.4796
    -1.4633  -1.4567  -1.4384  -1.4216  -1.3257  -1.2079  -1.1748  -1.1250
    -1.0777  -1.0297  -0.9990  -0.8987  -0.8821  -0.7910  -0.7778  -0.7592
    -0.6517  -0.6244  -0.4898  -0.4671  -0.4618  -0.4014  -0.3862  -0.3139
    -0.2898  -0.2327  -0.1681  -0.1559  -0.0878  -0.0617  -0.0584  -0.0017
     0.0033   0.0479   0.0650   0.1718   0.2281   0.2772   0.3315   0.4402
     0.5177   0.6321   0.6795   0.7382   0.9400   1.0135   1.1229   1.1746
     1.2066   1.4628   1.5848   1.6304   3.1060   3.1910   3.2127   3.2385
     3.3459   3.3714   3.5566   3.5734   3.6076   3.6276

[...]

          k = 0.0380-0.0419 0.0000 ( 17876 PWs)   bands (ev):

[...]

          k =-0.0760-0.0000 0.0000 ( 17886 PWs)   bands (ev):

[...]

          k =-0.0760-0.0839 0.0000 ( 17948 PWs)   bands (ev):

   -56.0160 -56.0150 -56.0134 -56.0072 -55.8856 -55.8801 -55.8569 -55.8305
   -55.8241 -55.8223 -55.7860 -55.7837 -55.5672 -55.3939 -54.9911 -54.9909
   -32.3930 -32.3863 -32.3302 -32.3296 -32.3114 -32.3106 -32.2919 -32.2872
   -32.2209 -32.2200 -32.2170 -32.2060 -32.1660 -32.1647 -32.1455 -32.1411
   -32.1369 -32.1355 -32.1344 -32.1262 -32.1252 -32.1224 -32.0869 -32.0762
   -32.0717 -32.0493 -32.0451 -32.0314 -32.0224 -32.0215 -32.0177 -32.0158
   -32.0005 -31.9992 -31.9950 -31.9890 -31.9255 -31.8291 -31.7849 -31.6835
   -31.6675 -31.5548 -31.3173 -31.3172 -31.2280 -31.2278 -31.1887 -31.1886
   -16.2089 -16.1859 -15.9795 -15.9452 -15.9419 -15.9347 -15.8036 -15.7237
   -15.7232 -15.6974 -15.6364 -15.6250 -15.6029 -15.5646 -15.5401 -15.5376
   -15.5191 -15.5141 -15.4879 -15.4777 -15.4649 -15.4577 -15.3650 -15.3455
   -15.3417 -15.2913 -15.1468 -15.0010 -14.8888 -13.6582 -13.4963 -13.4961
    -9.0580  -3.7200  -3.7112  -3.5051  -3.4737  -3.2312  -3.1931  -3.1799
    -3.1110  -2.9543  -2.9146  -2.8967  -2.8892  -2.8449  -2.8373  -2.8322
    -2.8202  -2.7928  -2.7753  -2.7403  -2.7337  -2.7164  -2.7091  -2.6979
    -2.6809  -2.6511  -2.6422  -2.6075  -2.6028  -2.5797  -2.5689  -2.5421
    -2.5364  -2.4004  -2.2504  -2.2268  -2.1665  -2.1588  -2.1229  -2.1012
    -2.0928  -2.0653  -2.0413  -2.0087  -1.8534  -1.7375  -1.7244  -1.7075
    -1.6383  -1.6109  -1.5208  -1.4359  -1.3947  -1.3760  -1.3070  -1.3044
    -1.2561  -1.2303  -1.2092  -1.1421  -1.0864  -1.0470  -0.9914  -0.9853
    -0.9772  -0.9069  -0.8646  -0.7898  -0.7810  -0.7438  -0.7089  -0.6539
    -0.6244  -0.6085  -0.5186  -0.4859  -0.3734  -0.3244  -0.0656  -0.0126
     0.0356   0.0629   0.1283   0.1865   0.1898   0.2877   0.2915   0.3300
     0.4074   0.4295   0.4995   0.5190   0.5690   0.7306   1.2709   1.3776
     1.3784   1.4499   1.4502   1.4531   3.4040   3.4155   3.4230   3.4674
     3.6126   3.6172   3.6359   3.6375   3.7918   3.7978

     the Fermi energy is     3.1026 ev

!    total energy              =   -2922.78944079 Ry
     estimated scf accuracy    <       0.00000005 Ry
     smearing contrib. (-TS)   =      -0.02169155 Ry
     internal energy E=F+TS    =   -2922.76774924 Ry

     The total energy is F=E-TS. E is the sum of the following terms:
     one-electron contribution =  -23651.40526561 Ry
     hartree contribution      =   11909.92681309 Ry
     xc contribution           =    -482.26388395 Ry
     ewald contribution        =    9300.97401343 Ry
     electric field correction =       0.00057380 Ry

     convergence has been achieved in  69 iterations

     Forces acting on atoms (cartesian axes, Ry/au):

     atom    1 type  1   force =     0.00004982   -0.00022479    0.09686318
     atom    2 type  1   force =    -0.00017566   -0.00056454   -0.17514584
     atom    3 type  2   force =     0.00002196   -0.00005058   -0.02505139
     atom    4 type  2   force =     0.00002664   -0.00139746    0.05262478
     atom    5 type  2   force =    -0.01205785   -0.00050686    0.00330418
     atom    6 type  2   force =     0.01378483    0.00008793    0.00270473
     atom    7 type  1   force =    -0.00058242    0.00056452   -0.01155482
     atom    8 type  1   force =     0.00020658    0.01201281    0.02900151
     atom    9 type  2   force =    -0.00029633    0.00057619    0.00058601
     atom   10 type  2   force =    -0.00153299    0.00253432   -0.01946516
     atom   11 type  2   force =    -0.00015520   -0.00035897   -0.00015428
     atom   12 type  2   force =    -0.00092768    0.00004652   -0.00030537
     atom   13 type  1   force =     0.00055040   -0.00098591    0.00103370
     atom   14 type  1   force =     0.00145861    0.00057445   -0.00068306
     atom   15 type  2   force =    -0.00012778   -0.00034950    0.00032805
     atom   16 type  2   force =    -0.00020942   -0.00018629   -0.00145605
     atom   17 type  2   force =    -0.00061275    0.00081615    0.00001703
     atom   18 type  2   force =     0.00038173    0.00103597    0.00010922
     atom   19 type  1   force =    -0.00018585   -0.00098081    0.00053970
     atom   20 type  1   force =    -0.00012930   -0.00037125   -0.00022414
     atom   21 type  2   force =     0.00004732   -0.00003829    0.10324378
     atom   22 type  2   force =     0.00026560    0.00025614    0.00087915
     atom   23 type  2   force =    -0.07156739   -0.00014585   -0.02769841
     atom   24 type  2   force =     0.07146081    0.00026777   -0.02772922
     atom   25 type  1   force =     0.00005228   -0.00028326    0.09645688
     atom   26 type  1   force =    -0.00019160   -0.00030123   -0.17537419
     atom   27 type  2   force =     0.00008710   -0.00017362   -0.02383818
     atom   28 type  2   force =     0.00004300   -0.00113856    0.05270932
     atom   29 type  2   force =    -0.01209531    0.00085095    0.00276983
     atom   30 type  2   force =     0.01373909    0.00123732    0.00218729
     atom   31 type  1   force =    -0.00047237    0.00303958   -0.01242119
     atom   32 type  1   force =     0.00019358   -0.01422253    0.02941638
     atom   33 type  2   force =    -0.00023045   -0.00063157    0.00044222
     atom   34 type  2   force =    -0.00098179    0.00176136   -0.02264360
     atom   35 type  2   force =    -0.00065933   -0.00060970   -0.00011589
     atom   36 type  2   force =     0.00001887   -0.00015216   -0.00033297
     atom   37 type  1   force =     0.00065164    0.00029323    0.00060448
     atom   38 type  1   force =     0.00150368    0.00018449   -0.00067580
     atom   39 type  2   force =     0.00007060    0.00012371   -0.00099919
     atom   40 type  2   force =    -0.00034843   -0.00011424    0.00176595
     atom   41 type  2   force =    -0.00089574   -0.00111778   -0.00011736
     atom   42 type  2   force =     0.00041895   -0.00149577    0.00020223
     atom   43 type  1   force =     0.00023783    0.00052092    0.00106428
     atom   44 type  1   force =     0.00045722    0.00088090   -0.00015284
     atom   45 type  2   force =     0.00005680   -0.00009147    0.10320148
     atom   46 type  2   force =    -0.07155285   -0.00011517   -0.02770422
     atom   47 type  2   force =     0.07145960    0.00031488   -0.02773734
     atom   48 type  3   force =     0.00023105   -0.01659696   -0.00131430
     atom   49 type  4   force =    -0.00401055    0.00333056    0.00247839
     atom   50 type  4   force =     0.00082932    0.00986859   -0.00201365
     atom   51 type  4   force =     0.00135926    0.00192713    0.00132479
     atom   52 type  5   force =    -0.00010838   -0.00017278   -0.00038323
     atom   53 type  4   force =     0.00064654   -0.00005078   -0.00036544
     atom   54 type  4   force =     0.00007606    0.00019704   -0.00010561
     atom   55 type  4   force =    -0.00027934    0.00012528   -0.00009581

     Total force =     0.368937     Total SCF correction =     0.000443
  @ DRIVER MODE: Message from server: STATUS
  @ DRIVER MODE: Message from server: GETFORCE
  @ DRIVER MODE: Returning v,forces,stress,ensemble

     Writing output data file ./calc.save/
  @ DRIVER MODE: Message from server: EXIT
  @ DRIVE MODE: Exiting

     General routines

     Parallel routines

   This run was terminated on:  13:29:36   2Aug2021

   JOB DONE.