     Program PWSCF v.6.7GPU starts on 15Sep2021 at 23:23:22

     R & G space division:  proc/nbgrp/npool/nimage =      10
     Reading input from /storage/home/hcoda1/3/ntian30/research/carbon/CxH_vib/H2O_calc/ads_slab/CH2NNHHHH2O_a/out_0022/pw.inp
Warning: card &CELL ignored
Warning: card   CELL_DYNAMICS='IPI', ignored
Warning: card / ignored

     Current dimensions of program PWSCF are:
     Max number of different atomic species (ntypx) = 10
     Max number of k-points (npk) =  40000
     Max angular momentum in pseudopotentials (lmaxx) =  3
     Presently no symmetry can be used with electric field

     Message from routine cell_base_init:
     DEPRECATED: use true lattice parameter, not A to a.u. conversion factor

     IMPORTANT: XC functional enforced from input :
     Exchange-correlation= BEEF-VDW
                           (   1   4  43  14   2   0   0)
     Any further DFT definition will be discarded
     Please, verify this is what you really want

  @ DRIVER MODE: Connecting to
 qe_1139763_2852612.sched-torque.pace.gatech.eduxqh0eqr2_scratch
  using UNIX socket
  @ DRIVER MODE: Message from server: STATUS
  @ DRIVER MODE: Message from server: INIT
  @ DRIVER MODE: Receiving replica           0          -1
  @ DRIVER MODE: Receiving encoded integer          25
  @ DRIVER MODE:  SCF:  T  FORCE:  T  STRESS:  F  VC:  F  ENSEMBLE:  F
  @ DRIVER MODE:  SCF:  T  FORCE:  T  STRESS:  F  VC:  F  ENSEMBLE:  F

     Using Slab Decomposition

     bravais-lattice index     =            0
     lattice parameter (alat)  =       1.8897  a.u.
     unit-cell volume          =    6658.9804 (a.u.)^3
     number of atoms/cell      =           58
     number of atomic types    =            5
     number of electrons       =       405.00
     number of Kohn-Sham states=          212
     kinetic-energy cutoff     =      29.3995  Ry
     charge density cutoff     =     293.9946  Ry
     scf convergence threshold =      7.3E-08
     mixing beta               =       0.0500
     number of iterations used =            8  plain     mixing
     Exchange-correlation= BEEF-VDW
                           (   1   4  43  14   2   0   0)

     celldm(1)=   1.889726  celldm(2)=   0.000000  celldm(3)=   0.000000
     celldm(4)=   0.000000  celldm(5)=   0.000000  celldm(6)=   0.000000

     crystal axes: (cart. coord. in units of alat)
               a(1) = (   6.579727   0.000000   0.000000 )
               a(2) = (  -0.000775   5.961596   0.000000 )
               a(3) = (   0.000000   0.000000  25.155947 )

     reciprocal axes: (cart. coord. in units 2 pi/alat)
               b(1) = (  0.151982  0.000020  0.000000 )
               b(2) = (  0.000000  0.167740  0.000000 )
               b(3) = (  0.000000  0.000000  0.039752 )

     PseudoPot. # 1 for Ti read from file:
     /storage/coda1/p-amedford6/0/shared/rich_project_chbe-medford/medford-share/data/pseudos_module/espresso/nninc/pbe/van/Ti.UPF
     MD5 check sum: 8e4df49b7f0d34bbd5052bf3f5ea0213
     Pseudo is Ultrasoft, Zval = 12.0
     Generated by new atomic code, or converted to UPF format
     Using radial grid of  851 points,  6 beta functions with:
                l(1) =   0
                l(2) =   0
                l(3) =   1
                l(4) =   1
                l(5) =   2
                l(6) =   2
     Q(r) pseudized with  8 coefficients,  rinner =    1.000   1.000   1.000
                                                       1.000   1.000

     PseudoPot. # 2 for O  read from file:
     /storage/coda1/p-amedford6/0/shared/rich_project_chbe-medford/medford-share/data/pseudos_module/espresso/nninc/pbe/van/O.UPF
     MD5 check sum: 78c19812648e8988a0fe644b0f25305e
     Pseudo is Ultrasoft, Zval =  6.0
     Generated by new atomic code, or converted to UPF format
     Using radial grid of  737 points,  4 beta functions with:
                l(1) =   0
                l(2) =   0
                l(3) =   1
                l(4) =   1
     Q(r) pseudized with  8 coefficients,  rinner =    0.800   0.800   0.800

     PseudoPot. # 3 for N  read from file:
     /storage/coda1/p-amedford6/0/shared/rich_project_chbe-medford/medford-share/data/pseudos_module/espresso/nninc/pbe/van/N.UPF
     MD5 check sum: 90d10febe142ad51ac9d5be1deb811c4
     Pseudo is Ultrasoft, Zval =  5.0
     Generated by new atomic code, or converted to UPF format
     Using radial grid of  729 points,  4 beta functions with:
                l(1) =   0
                l(2) =   0
                l(3) =   1
                l(4) =   1
     Q(r) pseudized with  8 coefficients,  rinner =    0.800   0.800   0.800

     PseudoPot. # 4 for C  read from file:
     /storage/coda1/p-amedford6/0/shared/rich_project_chbe-medford/medford-share/data/pseudos_module/espresso/nninc/pbe/van/C.UPF
     MD5 check sum: 1a69bf6b8db32088f5b2163dbdb77a27
     Pseudo is Ultrasoft, Zval =  4.0
     Generated by new atomic code, or converted to UPF format
     Using radial grid of  721 points,  4 beta functions with:
                l(1) =   0
                l(2) =   0
                l(3) =   1
                l(4) =   1
     Q(r) pseudized with  8 coefficients,  rinner =    0.800   0.800   0.800

     PseudoPot. # 5 for H  read from file:
     /storage/coda1/p-amedford6/0/shared/rich_project_chbe-medford/medford-share/data/pseudos_module/espresso/nninc/pbe/van/H.UPF
     MD5 check sum: b5ee9d7bfd3a09ee7748110bda690ff7
     Pseudo is Ultrasoft, Zval =  1.0
     Generated by new atomic code, or converted to UPF format
     Using radial grid of  615 points,  1 beta functions with:
                l(1) =   0
     Q(r) pseudized with  8 coefficients,  rinner =    0.800

     atomic species   valence    mass     pseudopotential
        Ti1           12.00    47.86700     Ti( 1.00)
        O1             6.00    15.99900     O ( 1.00)
        N1             5.00    14.00700     N ( 1.00)
        C1             4.00    12.01100     C ( 1.00)
        H1             1.00     1.00800     H ( 1.00)

     No symmetry found

   Cartesian axes

     site n.     atom                  positions (alat units)
         1           Ti1 tau(   1) = (   0.0004258   2.9801865   6.0000000  )
         2           Ti1 tau(   2) = (   3.2906075   1.4906267   6.0002472  )
         3           O1  tau(   3) = (   0.0006271   0.0005054   7.9858123  )
         4           O1  tau(   4) = (   3.2906025   0.0005020   7.3038282  )
         5           O1  tau(   5) = (   4.5942328   1.4918067   9.2879030  )
         6           O1  tau(   6) = (   1.9868534   1.4903216   9.2879459  )
         7           Ti1 tau(   7) = (   3.2907910   2.8959150   9.1758416  )
         8           Ti1 tau(   8) = (   0.0015273   1.4827037   9.2680791  )
         9           O1  tau(   9) = (   3.2987819   5.9401718  11.3551833  )
        10           O1  tau(  10) = (   0.0116148   5.9584955  10.6183126  )
        11           O1  tau(  11) = (   1.3094369   1.4889762  12.6418845  )
        12           O1  tau(  12) = (   5.3041503   1.4933078  12.6143371  )
        13           Ti1 tau(  13) = (   0.0302489   2.9730182  12.5448133  )
        14           Ti1 tau(  14) = (   3.3273137   1.4751619  12.4920661  )
        15           O1  tau(  15) = (   6.5331299   0.0759724  14.6728253  )
        16           O1  tau(  16) = (   3.3443954   0.0128112  13.9985917  )
        17           O1  tau(  17) = (   4.5384157   1.5150964  16.2525342  )
        18           O1  tau(  18) = (   2.0107438   1.5096167  16.1239609  )
        19           Ti1 tau(  19) = (   3.2468703   2.9375149  15.6823127  )
        20           Ti1 tau(  20) = (   6.5402329   1.3810098  16.1103674  )
        21           O1  tau(  21) = (   3.2904802   0.0005063   4.7018136  )
        22           O1  tau(  22) = (   0.0855018   5.8309792  17.2460454  )
        23           O1  tau(  23) = (   1.3043587   1.4918075   6.0039043  )
        24           O1  tau(  24) = (   5.2767064   1.4903225   6.0039473  )
        25           Ti1 tau(  25) = (   0.0000382   5.9609847   6.0000000  )
        26           Ti1 tau(  26) = (   3.2902200   4.4714249   6.0002472  )
        27           O1  tau(  27) = (   0.0002396   2.9813036   7.9858123  )
        28           O1  tau(  28) = (   3.2902150   2.9813002   7.3038282  )
        29           O1  tau(  29) = (   4.5938453   4.4726049   9.2879030  )
        30           O1  tau(  30) = (   1.9864658   4.4711199   9.2879459  )
        31           Ti1 tau(  31) = (   3.2891106   5.8743827   9.1763621  )
        32           Ti1 tau(  32) = (   0.0006254   4.4649316   9.2693709  )
        33           O1  tau(  33) = (   3.2978634   2.9839445  11.3486163  )
        34           O1  tau(  34) = (   0.0092240   2.9805883  10.6323155  )
        35           O1  tau(  35) = (   1.3057425   4.4725738  12.6940039  )
        36           O1  tau(  36) = (   5.3035974   4.4670288  12.6562451  )
        37           Ti1 tau(  37) = (   0.0240142   0.0094741  12.5095027  )
        38           Ti1 tau(  38) = (   3.3290383   4.4615466  12.5202027  )
        39           O1  tau(  39) = (   6.5484913   2.9337383  14.8377676  )
        40           O1  tau(  40) = (   3.3243726   2.9440003  13.9069550  )
        41           O1  tau(  41) = (   4.5478640   4.3999133  16.1372545  )
        42           O1  tau(  42) = (   2.0209518   4.4226222  15.9786897  )
        43           Ti1 tau(  43) = (   3.3220059   5.9437776  15.8132296  )
        44           Ti1 tau(  44) = (   0.0730556   4.5544523  15.7304118  )
        45           O1  tau(  45) = (   3.2900926   2.9813045   4.7018136  )
        46           O1  tau(  46) = (   1.3039711   4.4726057   6.0039043  )
        47           O1  tau(  47) = (   5.2763189   4.4711207   6.0039473  )
        48           N1  tau(  48) = (   0.0453545   2.8788619  17.9090770  )
        49           C1  tau(  49) = (   1.0089482   2.8008358  18.8431878  )
        50           H1  tau(  50) = (   1.0080222   3.4413729  19.7168629  )
        51           H1  tau(  51) = (   1.8954070   2.2643435  18.5800802  )
        52           N1  tau(  52) = (   5.5320326   3.6725468  18.4365114  )
        53           H1  tau(  53) = (   5.8975581   4.6271042  18.6377988  )
        54           H1  tau(  54) = (   4.8553295   3.8628436  17.6443034  )
        55           H1  tau(  55) = (   5.1025442   3.2364756  19.2632064  )
        56           O1  tau(  56) = (   2.8928424   5.6518753  18.2681889  )
        57           H1  tau(  57) = (   3.0708471   0.5134993  18.7460362  )
        58           H1  tau(  58) = (   1.9180978   5.6479514  18.1114729  )

     number of k points=    10  Fermi-Dirac smearing, width (Ry)=  0.0073
                       cart. coord. in units 2pi/alat
        k(    1) = (   0.0000000   0.0000000   0.0000000), wk =   0.1250000
        k(    2) = (   0.0000000   0.0419351   0.0000000), wk =   0.2500000
        k(    3) = (   0.0000000  -0.0838702   0.0000000), wk =   0.1250000
        k(    4) = (   0.0379955   0.0000049   0.0000000), wk =   0.2500000
        k(    5) = (   0.0379955   0.0419400   0.0000000), wk =   0.2500000
        k(    6) = (   0.0379955  -0.0838652   0.0000000), wk =   0.2500000
        k(    7) = (   0.0379955  -0.0419301   0.0000000), wk =   0.2500000
        k(    8) = (  -0.0759910  -0.0000099   0.0000000), wk =   0.1250000
        k(    9) = (  -0.0759910   0.0419252   0.0000000), wk =   0.2500000
        k(   10) = (  -0.0759910  -0.0838800   0.0000000), wk =   0.1250000

     Initial potential from superposition of free atoms

     starting charge  388.99913, renormalised to  405.00000

     negative rho (up, down):  1.580E-02 0.000E+00

     %%%%%%%%%%%%%%%%%%%%%%%%%%%%%%%%%%%%%%%%%%%%%%%%%%%%%%%%%%%%%%%%%%%%%%%%
     %                                                                      %
     % You are using vdW-DF, which was implemented by the Thonhauser group. %
     % Please cite the following two papers that made this development      %
     % possible and the two reviews that describe the various versions:     %
     %                                                                      %
     %   T. Thonhauser et al., PRL 115, 136402 (2015).                      %
     %   T. Thonhauser et al., PRB 76, 125112 (2007).                       %
     %   K. Berland et al., Rep. Prog. Phys. 78, 066501 (2015).             %
     %   D.C. Langreth et al., J. Phys.: Condens. Matter 21, 084203 (2009). %
     %                                                                      %
     %                                                                      %
     % If you are calculating the stress with vdW-DF, please also cite:     %
     %                                                                      %
     %   R. Sabatini et al., J. Phys.: Condens. Matter 24, 424209 (2012).   %
     %                                                                      %
     %%%%%%%%%%%%%%%%%%%%%%%%%%%%%%%%%%%%%%%%%%%%%%%%%%%%%%%%%%%%%%%%%%%%%%%%

     Adding external electric field

     Computed dipole along edir(3) :
        Dipole              -14.4816 Ry au,        -36.8086 Debye
        Dipole field         -0.0273 Ry au,

        Potential amp.        2.5333 Ry
        Total length         46.3494 bohr

     Starting wfcs are  307 atomic wfcs
  @ DRIVER MODE: Message from server: STATUS
  @ DRIVER MODE: Message from server: POSDATA
  @ DRIVER MODE: Reading and sharing cell
  @ DRIVER MODE: Reading and sharing positions
  @ DRIVER MODE: Received positions

     Self-consistent Calculation

     iteration #  1     ecut=    29.40 Ry     beta= 0.05
     Davidson diagonalization with overlap
     c_bands:  2 eigenvalues not converged
     c_bands:  5 eigenvalues not converged
     c_bands:  1 eigenvalues not converged
     c_bands:  3 eigenvalues not converged
     c_bands:  3 eigenvalues not converged
     c_bands:  4 eigenvalues not converged
     ethr =  1.00E-05,  avg # of iterations = 27.0

[...]

     total energy              =   -2173.25556452 Ry
     estimated scf accuracy    <    9121.33457061 Ry

     iteration #  2     ecut=    29.40 Ry     beta= 0.05
     Davidson diagonalization with overlap
     ethr =  1.00E-02,  avg # of iterations = 27.6

[...]

     iteration # 84     ecut=    29.40 Ry     beta= 0.05
     Davidson diagonalization with overlap
     ethr =  1.88E-10,  avg # of iterations =  4.0

[...]

     total energy              =   -2976.32719881 Ry
     estimated scf accuracy    <       0.00000008 Ry

     iteration # 87     ecut=    29.40 Ry     beta= 0.05
     Davidson diagonalization with overlap
     c_bands:  1 eigenvalues not converged
     ethr =  1.90E-11,  avg # of iterations =  6.4

     negative rho (up, down):  1.317E-02 0.000E+00

     Adding external electric field

     Computed dipole along edir(3) :
        Dipole                1.3375 Ry au,          3.3996 Debye
        Dipole field          0.0025 Ry au,

        Potential amp.       -0.2340 Ry
        Total length         46.3494 bohr

     End of self-consistent calculation

          k = 0.0000 0.0000 0.0000 ( 18029 PWs)   bands (ev):

   -55.1722 -55.1428 -55.1312 -55.1087 -55.0928 -55.0495 -55.0083 -54.9819
   -54.9710 -54.9557 -54.9464 -54.9382 -54.8724 -54.7256 -54.1548 -54.1208
   -31.7389 -31.6326 -31.5368 -31.5031 -31.4818 -31.4741 -31.4710 -31.4326
   -31.4098 -31.3878 -31.3820 -31.3796 -31.3676 -31.3465 -31.3201 -31.3171
   -31.3072 -31.2956 -31.2899 -31.2851 -31.2542 -31.2372 -31.2306 -31.2111
   -31.1997 -31.1821 -31.1801 -31.1795 -31.1703 -31.1678 -31.1513 -31.1420
   -31.1320 -31.1307 -31.1088 -31.1012 -31.0972 -31.0795 -31.0536 -31.0174
   -31.0023 -30.8713 -30.5633 -30.4713 -30.4492 -30.3799 -30.2932 -30.1821
   -19.0892 -18.7989 -16.0090 -15.7513 -15.6240 -15.4465 -15.3667 -15.2131
   -15.1430 -15.0605 -15.0331 -14.9688 -14.9302 -14.8997 -14.7870 -14.7796
   -14.7065 -14.7060 -14.6974 -14.6653 -14.6616 -14.6573 -14.6014 -14.5987
   -14.5593 -14.5481 -14.5358 -14.3939 -14.3188 -14.2618 -14.0907 -13.9756
   -12.6571 -12.5400  -9.0106  -7.6902  -6.9477  -6.5488  -5.7616  -3.8092
    -3.3471  -3.2146  -3.1759  -3.1160  -3.0722  -2.9888  -2.8951  -2.7732
    -2.5549  -2.4780  -2.4376  -2.3886  -2.3805  -2.3336  -2.2447  -2.1612
    -2.1286  -2.0929  -2.0435  -2.0282  -1.9871  -1.9609  -1.9417  -1.9003
    -1.8914  -1.7447  -1.6847  -1.6296  -1.5808  -1.5604  -1.5591  -1.5020
    -1.4879  -1.4665  -1.4636  -1.4533  -1.4226  -1.3860  -1.3812  -1.3277
    -1.2902  -1.1646  -1.0907  -0.9746  -0.9159  -0.8843  -0.8009  -0.7322
    -0.7159  -0.6438  -0.5794  -0.5600  -0.5027  -0.4648  -0.3745  -0.3405
    -0.2911  -0.2651  -0.1564  -0.1435  -0.1277  -0.0568   0.0322   0.0412
     0.0653   0.1109   0.1950   0.2301   0.2835   0.3099   0.4097   0.4409
     0.4830   0.5008   0.5263   0.6074   0.6787   0.7155   0.7762   0.7856
     0.8205   0.8255   0.8485   0.9428   0.9735   0.9782   1.0263   1.1932
     1.2507   1.4496   1.4517   1.7819   1.8175   1.8680   2.0543   2.4419
     2.4892   3.9270   3.9932   4.0420   4.0588   4.0771   4.1346   4.1696
     4.3975   4.4204   4.4345   4.4481

[...]

          k = 0.0380-0.0419 0.0000 ( 17876 PWs)   bands (ev):

[...]

          k =-0.0760-0.0000 0.0000 ( 17886 PWs)   bands (ev):

[...]

          k =-0.0760-0.0839 0.0000 ( 17948 PWs)   bands (ev):

   -55.1615 -55.1417 -55.1257 -55.1257 -55.0906 -55.0403 -55.0175 -54.9663
   -54.9607 -54.9577 -54.9561 -54.9541 -54.8706 -54.7272 -54.1378 -54.1377
   -31.5500 -31.5350 -31.4478 -31.4477 -31.4477 -31.4380 -31.4180 -31.4180
   -31.3837 -31.3782 -31.3686 -31.3669 -31.3367 -31.3085 -31.3010 -31.2990
   -31.2964 -31.2928 -31.2903 -31.2856 -31.2763 -31.2626 -31.2487 -31.2450
   -31.2450 -31.2429 -31.2406 -31.2143 -31.1996 -31.1917 -31.1805 -31.1762
   -31.1757 -31.1750 -31.1562 -31.1551 -31.1360 -31.1334 -31.0716 -31.0098
   -31.0060 -30.9453 -30.4618 -30.4618 -30.3760 -30.3757 -30.3366 -30.3365
   -19.0817 -18.8020 -15.5109 -15.3745 -15.3360 -15.2457 -15.1640 -15.1479
   -15.1401 -15.1059 -15.0535 -14.9938 -14.9490 -14.9140 -14.8736 -14.8720
   -14.8591 -14.7589 -14.7478 -14.7403 -14.7235 -14.6753 -14.6655 -14.6487
   -14.6234 -14.6218 -14.5967 -14.5160 -14.5151 -14.4164 -14.3104 -14.0372
   -12.6417 -12.6416  -8.9980  -7.7058  -6.9044  -6.5383  -5.7760  -3.8909
    -3.0088  -2.7688  -2.5740  -2.5461  -2.4268  -2.3748  -2.3292  -2.3077
    -2.2214  -2.1812  -2.1644  -2.1586  -2.1388  -2.0820  -2.0606  -2.0213
    -2.0016  -1.9874  -1.9786  -1.9544  -1.9498  -1.9178  -1.9017  -1.8832
    -1.8774  -1.8407  -1.8019  -1.7908  -1.7531  -1.7327  -1.7242  -1.6667
    -1.5676  -1.5344  -1.4908  -1.4250  -1.3620  -1.3583  -1.2891  -1.2686
    -1.2498  -1.2316  -1.1961  -1.1839  -1.0712  -1.0143  -0.9100  -0.8973
    -0.8913  -0.7869  -0.7522  -0.7109  -0.6803  -0.6433  -0.5875  -0.5088
    -0.5025  -0.4268  -0.3895  -0.3779  -0.3592  -0.2189  -0.1875  -0.1544
    -0.1303  -0.1256  -0.0720  -0.0287   0.0015   0.0390   0.0660   0.0988
     0.1149   0.1910   0.3280   0.3598   0.4020   0.5345   0.5620   0.6772
     0.7029   0.8229   0.8966   0.9412   0.9613   1.0391   1.1165   1.1380
     1.1436   1.2543   1.3051   1.3071   1.3245   2.2268   2.2283   2.3092
     2.3094   3.7808   4.0728   4.1978   4.2146   4.2553   4.3792   4.4446
     4.4802   4.5020   4.5045   4.5902

     the Fermi energy is     3.9759 ev

!    total energy              =   -2976.32720525 Ry
     estimated scf accuracy    <       0.00000004 Ry
     smearing contrib. (-TS)   =      -0.04069915 Ry
     internal energy E=F+TS    =   -2976.28650610 Ry

     The total energy is F=E-TS. E is the sum of the following terms:
     one-electron contribution =  -23820.70702013 Ry
     hartree contribution      =   12009.19504129 Ry
     xc contribution           =    -495.76206402 Ry
     ewald contribution        =    9330.98416074 Ry
     electric field correction =       0.00337601 Ry

     convergence has been achieved in  87 iterations

     Forces acting on atoms (cartesian axes, Ry/au):

     atom    1 type  1   force =     0.00015533   -0.00019744    0.09422813
     atom    2 type  1   force =    -0.00011671   -0.00035933   -0.17723944
     atom    3 type  2   force =     0.00008530    0.00004007   -0.02133791
     atom    4 type  2   force =     0.00001915   -0.00174383    0.05668514
     atom    5 type  2   force =    -0.01044384   -0.00127772    0.00673501
     atom    6 type  2   force =     0.01220022   -0.00072265    0.00624752
     atom    7 type  1   force =    -0.00028384    0.00287922   -0.01266168
     atom    8 type  1   force =    -0.00014677    0.00438603    0.00453529
     atom    9 type  2   force =    -0.00036404    0.00008770    0.00075858
     atom   10 type  2   force =    -0.00008270   -0.00088749   -0.00640052
     atom   11 type  2   force =    -0.00041005   -0.00033083    0.00005934
     atom   12 type  2   force =    -0.00032827   -0.00042709    0.00014648
     atom   13 type  1   force =    -0.00034428   -0.00017391   -0.00032712
     atom   14 type  1   force =     0.00003151   -0.00043994   -0.00033936
     atom   15 type  2   force =    -0.00019776   -0.00010433    0.00002957
     atom   16 type  2   force =    -0.00065731    0.00022994   -0.00033220
     atom   17 type  2   force =    -0.00013803    0.00006883    0.00018023
     atom   18 type  2   force =     0.00038077   -0.00004192    0.00032402
     atom   19 type  1   force =     0.00024913   -0.00100757   -0.00003143
     atom   20 type  1   force =     0.00023456   -0.00022482    0.00072156
     atom   21 type  2   force =     0.00004562    0.00001797    0.10367522
     atom   22 type  2   force =    -0.00033127    0.00014950    0.00050358
     atom   23 type  2   force =    -0.07081998   -0.00010505   -0.02715467
     atom   24 type  2   force =     0.07071611    0.00033135   -0.02718671
     atom   25 type  1   force =    -0.00006232   -0.00023028    0.09365244
     atom   26 type  1   force =    -0.00013502   -0.00041597   -0.17736779
     atom   27 type  2   force =     0.00014860   -0.00039390   -0.02029312
     atom   28 type  2   force =     0.00005246   -0.00138061    0.05584021
     atom   29 type  2   force =    -0.01031395   -0.00029685    0.00538764
     atom   30 type  2   force =     0.01198448    0.00010130    0.00502460
     atom   31 type  1   force =    -0.00017298    0.00358028   -0.01531119
     atom   32 type  1   force =    -0.00019102   -0.00484781    0.00438907
     atom   33 type  2   force =    -0.00006856   -0.00016901    0.00031511
     atom   34 type  2   force =     0.00120491    0.00258516   -0.00430921
     atom   35 type  2   force =    -0.00069996   -0.00016032    0.00017598
     atom   36 type  2   force =    -0.00002200   -0.00002566    0.00045199
     atom   37 type  1   force =     0.00038860    0.00041569   -0.00030909
     atom   38 type  1   force =    -0.00000046    0.00053377   -0.00157449
     atom   39 type  2   force =     0.00026540   -0.00046264   -0.00022824
     atom   40 type  2   force =     0.00004689    0.00004916    0.00058536
     atom   41 type  2   force =    -0.00022000   -0.00027690   -0.00017954
     atom   42 type  2   force =     0.00048172   -0.00037400    0.00005603
     atom   43 type  1   force =    -0.00067065    0.00070928    0.00064525
     atom   44 type  1   force =    -0.00008964    0.00006140   -0.00003661
     atom   45 type  2   force =     0.00004052   -0.00002448    0.10367607
     atom   46 type  2   force =    -0.07085298   -0.00006638   -0.02715329
     atom   47 type  2   force =     0.07074875    0.00033755   -0.02718393
     atom   48 type  3   force =     0.00023770    0.00045959   -0.00036989
     atom   49 type  4   force =    -0.00432696    0.00336307    0.00257470
     atom   50 type  5   force =     0.00072596    0.00004262   -0.00022123
     atom   51 type  5   force =     0.00483565   -0.00334996   -0.00250084
     atom   52 type  3   force =     0.00060058   -0.00030374    0.00017588
     atom   53 type  5   force =    -0.00131960   -0.00011613    0.00038759
     atom   54 type  5   force =     0.00026002   -0.00039974    0.00055665
     atom   55 type  5   force =    -0.00061395   -0.00001272    0.00021881
     atom   56 type  2   force =    -0.00029089    0.00123864   -0.00057807
     atom   57 type  5   force =    -0.00034167   -0.00072249    0.00037414
     atom   58 type  5   force =    -0.00108249    0.00040540    0.00131037

     Total force =     0.365423     Total SCF correction =     0.000360
  @ DRIVER MODE: Message from server: STATUS
  @ DRIVER MODE: Message from server: GETFORCE
  @ DRIVER MODE: Returning v,forces,stress,ensemble

     Writing output data file ./calc.save/
  @ DRIVER MODE: Message from server: EXIT
  @ DRIVE MODE: Exiting

     General routines

     Parallel routines

   This run was terminated on:  23:46:57  15Sep2021

   JOB DONE.