     Program PWSCF v.6.7GPU starts on 16Sep2021 at  1: 2:24

     R & G space division:  proc/nbgrp/npool/nimage =      10
     Reading input from /storage/home/hcoda1/3/ntian30/research/carbon/CxH_vib/H2O_calc/ads_slab/CH2OHH2O_a/out_0030/pw.inp
Warning: card &CELL ignored
Warning: card   CELL_DYNAMICS='IPI', ignored
Warning: card / ignored

     Current dimensions of program PWSCF are:
     Max number of different atomic species (ntypx) = 10
     Max number of k-points (npk) =  40000
     Max angular momentum in pseudopotentials (lmaxx) =  3
     Presently no symmetry can be used with electric field

     Message from routine cell_base_init:
     DEPRECATED: use true lattice parameter, not A to a.u. conversion factor

     IMPORTANT: XC functional enforced from input :
     Exchange-correlation= BEEF-VDW
                           (   1   4  43  14   2   0   0)
     Any further DFT definition will be discarded
     Please, verify this is what you really want

  @ DRIVER MODE: Connecting to
 qe_1139763_2852615.sched-torque.pace.gatech.edu42frttco_scratch
  using UNIX socket
  @ DRIVER MODE: Message from server: STATUS
  @ DRIVER MODE: Message from server: INIT
  @ DRIVER MODE: Receiving replica           0          -1
  @ DRIVER MODE: Receiving encoded integer          25
  @ DRIVER MODE:  SCF:  T  FORCE:  T  STRESS:  F  VC:  F  ENSEMBLE:  F
  @ DRIVER MODE:  SCF:  T  FORCE:  T  STRESS:  F  VC:  F  ENSEMBLE:  F

     Using Slab Decomposition

     bravais-lattice index     =            0
     lattice parameter (alat)  =       1.8897  a.u.
     unit-cell volume          =    6658.9804 (a.u.)^3
     number of atoms/cell      =           55
     number of atomic types    =            4
     number of electrons       =       399.00
     number of Kohn-Sham states=          209
     kinetic-energy cutoff     =      29.3995  Ry
     charge density cutoff     =     293.9946  Ry
     scf convergence threshold =      7.3E-08
     mixing beta               =       0.0500
     number of iterations used =            8  plain     mixing
     Exchange-correlation= BEEF-VDW
                           (   1   4  43  14   2   0   0)

     celldm(1)=   1.889726  celldm(2)=   0.000000  celldm(3)=   0.000000
     celldm(4)=   0.000000  celldm(5)=   0.000000  celldm(6)=   0.000000

     crystal axes: (cart. coord. in units of alat)
               a(1) = (   6.579727   0.000000   0.000000 )
               a(2) = (  -0.000775   5.961596   0.000000 )
               a(3) = (   0.000000   0.000000  25.155947 )

     reciprocal axes: (cart. coord. in units 2 pi/alat)
               b(1) = (  0.151982  0.000020  0.000000 )
               b(2) = (  0.000000  0.167740  0.000000 )
               b(3) = (  0.000000  0.000000  0.039752 )

     PseudoPot. # 1 for Ti read from file:
     /storage/coda1/p-amedford6/0/shared/rich_project_chbe-medford/medford-share/data/pseudos_module/espresso/nninc/pbe/van/Ti.UPF
     MD5 check sum: 8e4df49b7f0d34bbd5052bf3f5ea0213
     Pseudo is Ultrasoft, Zval = 12.0
     Generated by new atomic code, or converted to UPF format
     Using radial grid of  851 points,  6 beta functions with:
                l(1) =   0
                l(2) =   0
                l(3) =   1
                l(4) =   1
                l(5) =   2
                l(6) =   2
     Q(r) pseudized with  8 coefficients,  rinner =    1.000   1.000   1.000
                                                       1.000   1.000

     PseudoPot. # 2 for O  read from file:
     /storage/coda1/p-amedford6/0/shared/rich_project_chbe-medford/medford-share/data/pseudos_module/espresso/nninc/pbe/van/O.UPF
     MD5 check sum: 78c19812648e8988a0fe644b0f25305e
     Pseudo is Ultrasoft, Zval =  6.0
     Generated by new atomic code, or converted to UPF format
     Using radial grid of  737 points,  4 beta functions with:
                l(1) =   0
                l(2) =   0
                l(3) =   1
                l(4) =   1
     Q(r) pseudized with  8 coefficients,  rinner =    0.800   0.800   0.800

     PseudoPot. # 3 for C  read from file:
     /storage/coda1/p-amedford6/0/shared/rich_project_chbe-medford/medford-share/data/pseudos_module/espresso/nninc/pbe/van/C.UPF
     MD5 check sum: 1a69bf6b8db32088f5b2163dbdb77a27
     Pseudo is Ultrasoft, Zval =  4.0
     Generated by new atomic code, or converted to UPF format
     Using radial grid of  721 points,  4 beta functions with:
                l(1) =   0
                l(2) =   0
                l(3) =   1
                l(4) =   1
     Q(r) pseudized with  8 coefficients,  rinner =    0.800   0.800   0.800

     PseudoPot. # 4 for H  read from file:
     /storage/coda1/p-amedford6/0/shared/rich_project_chbe-medford/medford-share/data/pseudos_module/espresso/nninc/pbe/van/H.UPF
     MD5 check sum: b5ee9d7bfd3a09ee7748110bda690ff7
     Pseudo is Ultrasoft, Zval =  1.0
     Generated by new atomic code, or converted to UPF format
     Using radial grid of  615 points,  1 beta functions with:
                l(1) =   0
     Q(r) pseudized with  8 coefficients,  rinner =    0.800

     atomic species   valence    mass     pseudopotential
        Ti1           12.00    47.86700     Ti( 1.00)
        O1             6.00    15.99900     O ( 1.00)
        C1             4.00    12.01100     C ( 1.00)
        H1             1.00     1.00800     H ( 1.00)

     No symmetry found

   Cartesian axes

     site n.     atom                  positions (alat units)
         1           Ti1 tau(   1) = (   0.0004258   2.9801865   6.0000000  )
         2           Ti1 tau(   2) = (   3.2906075   1.4906267   6.0002472  )
         3           O1  tau(   3) = (   0.0006271   0.0005054   7.9858123  )
         4           O1  tau(   4) = (   3.2906025   0.0005020   7.3038282  )
         5           O1  tau(   5) = (   4.5942328   1.4918067   9.2879030  )
         6           O1  tau(   6) = (   1.9868534   1.4903216   9.2879459  )
         7           Ti1 tau(   7) = (   3.2434587   3.0186650   9.1693953  )
         8           Ti1 tau(   8) = (   6.5248695   1.5265067   9.2859949  )
         9           O1  tau(   9) = (   3.3238096   0.0077392  11.3399147  )
        10           O1  tau(  10) = (   0.0083103   0.0007143  10.5763085  )
        11           O1  tau(  11) = (   1.3076427   1.5153157  12.5877682  )
        12           O1  tau(  12) = (   5.3324098   1.4751673  12.6362968  )
        13           Ti1 tau(  13) = (   0.0822926   2.9518924  12.6100891  )
        14           Ti1 tau(  14) = (   3.3652580   1.6116561  12.6031695  )
        15           O1  tau(  15) = (   0.1623142   0.0003102  14.6136642  )
        16           O1  tau(  16) = (   3.2083997   0.0016335  13.9229753  )
        17           O1  tau(  17) = (   4.6427586   1.3635169  15.8692112  )
        18           O1  tau(  18) = (   2.0707938   1.5934636  16.1317492  )
        19           Ti1 tau(  19) = (   3.4055461   2.9583945  15.9219660  )
        20           Ti1 tau(  20) = (   0.0529163   1.3399360  15.9091509  )
        21           O1  tau(  21) = (   3.2904802   0.0005063   4.7018136  )
        22           O1  tau(  22) = (   0.1143047   5.9459637  17.1421970  )
        23           O1  tau(  23) = (   1.3043587   1.4918075   6.0039043  )
        24           O1  tau(  24) = (   5.2767064   1.4903225   6.0039473  )
        25           Ti1 tau(  25) = (   0.0000382   5.9609847   6.0000000  )
        26           Ti1 tau(  26) = (   3.2902200   4.4714249   6.0002472  )
        27           O1  tau(  27) = (   0.0002396   2.9813036   7.9858123  )
        28           O1  tau(  28) = (   3.2902150   2.9813002   7.3038282  )
        29           O1  tau(  29) = (   4.5938453   4.4726049   9.2879030  )
        30           O1  tau(  30) = (   1.9864658   4.4711199   9.2879459  )
        31           Ti1 tau(  31) = (   3.2519499   0.0415563   9.1803751  )
        32           Ti1 tau(  32) = (   6.5223785   4.4699269   9.2708698  )
        33           O1  tau(  33) = (   3.3249262   3.0006027  11.3427062  )
        34           O1  tau(  34) = (   6.5728067   2.9803724  10.5910131  )
        35           O1  tau(  35) = (   1.3048910   4.4590737  12.5876729  )
        36           O1  tau(  36) = (   5.3248012   4.5079456  12.6396186  )
        37           Ti1 tau(  37) = (   0.0305998   5.9348532  12.4502240  )
        38           Ti1 tau(  38) = (   3.3518916   4.5407868  12.4757475  )
        39           O1  tau(  39) = (   0.0741357   2.9755951  14.7167286  )
        40           O1  tau(  40) = (   3.3703583   2.9475192  13.9294239  )
        41           O1  tau(  41) = (   4.6408928   4.5782690  15.8216857  )
        42           O1  tau(  42) = (   2.0743197   4.3710070  16.0958311  )
        43           Ti1 tau(  43) = (   3.3271525   5.9323444  15.7323421  )
        44           Ti1 tau(  44) = (   0.0603002   4.5335970  15.7939964  )
        45           O1  tau(  45) = (   3.2900926   2.9813045   4.7018136  )
        46           O1  tau(  46) = (   1.3039711   4.4726057   6.0039043  )
        47           O1  tau(  47) = (   5.2763189   4.4711207   6.0039473  )
        48           C1  tau(  48) = (   4.5917920   3.0228413  17.9030398  )
        49           O1  tau(  49) = (   6.0625861   3.0006587  17.4562122  )
        50           H1  tau(  50) = (   0.0503952   3.1075262  18.2373115  )
        51           H1  tau(  51) = (   4.5265887   2.1706275  18.5876854  )
        52           H1  tau(  52) = (   4.4781653   3.9549082  18.4651422  )
        53           O1  tau(  53) = (   2.8659371   5.8926936  18.2031264  )
        54           H1  tau(  54) = (   3.0528466   0.8172038  18.5446680  )
        55           H1  tau(  55) = (   1.8959954   5.8777970  18.0521013  )

     number of k points=    10  Fermi-Dirac smearing, width (Ry)=  0.0073
                       cart. coord. in units 2pi/alat
        k(    1) = (   0.0000000   0.0000000   0.0000000), wk =   0.1250000
        k(    2) = (   0.0000000   0.0419351   0.0000000), wk =   0.2500000
        k(    3) = (   0.0000000  -0.0838702   0.0000000), wk =   0.1250000
        k(    4) = (   0.0379955   0.0000049   0.0000000), wk =   0.2500000
        k(    5) = (   0.0379955   0.0419400   0.0000000), wk =   0.2500000
        k(    6) = (   0.0379955  -0.0838652   0.0000000), wk =   0.2500000
        k(    7) = (   0.0379955  -0.0419301   0.0000000), wk =   0.2500000
        k(    8) = (  -0.0759910  -0.0000099   0.0000000), wk =   0.1250000
        k(    9) = (  -0.0759910   0.0419252   0.0000000), wk =   0.2500000
        k(   10) = (  -0.0759910  -0.0838800   0.0000000), wk =   0.1250000

     Initial potential from superposition of free atoms

     starting charge  382.99916, renormalised to  399.00000

     negative rho (up, down):  1.857E-02 0.000E+00

     %%%%%%%%%%%%%%%%%%%%%%%%%%%%%%%%%%%%%%%%%%%%%%%%%%%%%%%%%%%%%%%%%%%%%%%%
     %                                                                      %
     % You are using vdW-DF, which was implemented by the Thonhauser group. %
     % Please cite the following two papers that made this development      %
     % possible and the two reviews that describe the various versions:     %
     %                                                                      %
     %   T. Thonhauser et al., PRL 115, 136402 (2015).                      %
     %   T. Thonhauser et al., PRB 76, 125112 (2007).                       %
     %   K. Berland et al., Rep. Prog. Phys. 78, 066501 (2015).             %
     %   D.C. Langreth et al., J. Phys.: Condens. Matter 21, 084203 (2009). %
     %                                                                      %
     %                                                                      %
     % If you are calculating the stress with vdW-DF, please also cite:     %
     %                                                                      %
     %   R. Sabatini et al., J. Phys.: Condens. Matter 24, 424209 (2012).   %
     %                                                                      %
     %%%%%%%%%%%%%%%%%%%%%%%%%%%%%%%%%%%%%%%%%%%%%%%%%%%%%%%%%%%%%%%%%%%%%%%%

     Adding external electric field

     Computed dipole along edir(3) :
        Dipole               -9.7312 Ry au,        -24.7341 Debye
        Dipole field         -0.0184 Ry au,

        Potential amp.        1.7023 Ry
        Total length         46.3494 bohr

     Starting wfcs are  301 atomic wfcs
  @ DRIVER MODE: Message from server: STATUS
  @ DRIVER MODE: Message from server: POSDATA
  @ DRIVER MODE: Reading and sharing cell
  @ DRIVER MODE: Reading and sharing positions
  @ DRIVER MODE: Received positions

     Self-consistent Calculation

     iteration #  1     ecut=    29.40 Ry     beta= 0.05
     Davidson diagonalization with overlap
     c_bands:  1 eigenvalues not converged
     c_bands:  2 eigenvalues not converged
     c_bands:  3 eigenvalues not converged
     c_bands:  5 eigenvalues not converged
     c_bands:  3 eigenvalues not converged
     c_bands:  2 eigenvalues not converged
     c_bands:  3 eigenvalues not converged
     c_bands:  2 eigenvalues not converged
     ethr =  1.00E-05,  avg # of iterations = 19.8

[...]

     total energy              =   -2478.52967418 Ry
     estimated scf accuracy    <    5415.90156212 Ry

     iteration #  2     ecut=    29.40 Ry     beta= 0.05
     Davidson diagonalization with overlap
     ethr =  1.00E-02,  avg # of iterations = 24.2

[...]

     iteration # 59     ecut=    29.40 Ry     beta= 0.05
     Davidson diagonalization with overlap
     c_bands:  2 eigenvalues not converged
     ethr =  4.93E-10,  avg # of iterations = 12.1

[...]

     total energy              =   -2966.15818821 Ry
     estimated scf accuracy    <       0.00000014 Ry

     iteration # 68     ecut=    29.40 Ry     beta= 0.05
     Davidson diagonalization with overlap
     ethr =  3.42E-11,  avg # of iterations = 10.1

     negative rho (up, down):  1.797E-02 0.000E+00

     Adding external electric field

     Computed dipole along edir(3) :
        Dipole                1.0049 Ry au,          2.5541 Debye
        Dipole field          0.0019 Ry au,

        Potential amp.       -0.1758 Ry
        Total length         46.3494 bohr

     End of self-consistent calculation

          k = 0.0000 0.0000 0.0000 ( 18029 PWs)   bands (ev):

   -55.6900 -55.6534 -55.5821 -55.5742 -55.5174 -55.5152 -55.5096 -55.5067
   -55.4787 -55.4613 -55.4544 -55.4433 -55.4277 -55.3397 -54.6594 -54.6254
   -32.1799 -32.1660 -32.0558 -32.0262 -32.0037 -31.9772 -31.9564 -31.9444
   -31.9311 -31.8713 -31.8443 -31.8373 -31.8340 -31.8247 -31.7974 -31.7880
   -31.7844 -31.7650 -31.7600 -31.7490 -31.7379 -31.7323 -31.6988 -31.6932
   -31.6908 -31.6841 -31.6788 -31.6708 -31.6658 -31.6608 -31.6531 -31.6365
   -31.6325 -31.6301 -31.6246 -31.6220 -31.6140 -31.6126 -31.5873 -31.5644
   -31.5536 -31.4266 -31.0664 -30.9779 -30.9554 -30.8832 -30.7968 -30.6855
   -19.3893 -18.7422 -16.3752 -16.1784 -15.9736 -15.8601 -15.8403 -15.6592
   -15.5354 -15.3890 -15.3365 -15.3075 -15.2870 -15.2177 -15.2108 -15.1958
   -15.1606 -15.1553 -15.1194 -15.0996 -15.0935 -15.0658 -15.0144 -14.9927
   -14.9427 -14.8828 -14.8143 -14.7943 -14.7854 -14.7099 -14.6173 -13.1600
   -13.0434  -9.4230  -6.5034  -6.2791  -4.0581  -3.8412  -3.6869  -3.6440
    -3.6123  -3.5761  -3.4158  -3.3046  -3.1240  -3.0182  -2.9534  -2.9029
    -2.8663  -2.7889  -2.7474  -2.6231  -2.5991  -2.5496  -2.5170  -2.4805
    -2.4740  -2.4528  -2.4079  -2.3900  -2.3744  -2.2178  -2.2074  -2.1736
    -2.1090  -2.0777  -2.0505  -2.0133  -1.9918  -1.9645  -1.9460  -1.8999
    -1.8815  -1.8095  -1.8016  -1.7579  -1.6906  -1.6567  -1.3932  -1.3150
    -1.2958  -1.2572  -1.1936  -1.0969  -1.0930  -1.0866  -1.0862  -1.0285
    -1.0023  -0.8633  -0.8490  -0.8343  -0.7543  -0.6753  -0.5959  -0.5590
    -0.4945  -0.4442  -0.4120  -0.3841  -0.3574  -0.3022  -0.2333  -0.2110
    -0.1401  -0.0666  -0.0333   0.0190   0.0450   0.0900   0.1202   0.1961
     0.2352   0.2691   0.2970   0.3151   0.3251   0.3687   0.3884   0.4778
     0.5553   0.5833   0.5897   0.6641   0.7907   0.8731   0.9848   1.0764
     1.2986   1.3648   1.4161   1.5450   1.5550   1.9366   1.9871   3.4515
     3.5205   3.5800   3.5805   3.6154   3.6959   3.8989   3.9461   4.0043
     4.0376

[...]

          k = 0.0380-0.0419 0.0000 ( 17876 PWs)   bands (ev):

[...]

          k =-0.0760-0.0000 0.0000 ( 17886 PWs)   bands (ev):

[...]

          k =-0.0760-0.0839 0.0000 ( 17948 PWs)   bands (ev):

   -55.6783 -55.6650 -55.5767 -55.5694 -55.5218 -55.5138 -55.5119 -55.5033
   -55.4636 -55.4606 -55.4577 -55.4465 -55.4429 -55.3412 -54.6423 -54.6423
   -32.0988 -31.9875 -31.9766 -31.9747 -31.9525 -31.9020 -31.8754 -31.8541
   -31.8470 -31.8423 -31.8391 -31.8160 -31.8150 -31.8003 -31.7991 -31.7896
   -31.7888 -31.7804 -31.7787 -31.7755 -31.7727 -31.7632 -31.7416 -31.7359
   -31.7304 -31.7184 -31.7115 -31.7047 -31.7024 -31.6882 -31.6737 -31.6671
   -31.6656 -31.6629 -31.6612 -31.6547 -31.6532 -31.6513 -31.6494 -31.6467
   -31.6300 -31.4288 -30.9682 -30.9681 -30.8796 -30.8789 -30.8401 -30.8397
   -19.3828 -18.7411 -15.9932 -15.6542 -15.6414 -15.6362 -15.6055 -15.4839
   -15.4599 -15.4376 -15.3920 -15.3619 -15.3562 -15.3329 -15.2885 -15.2321
   -15.2131 -15.2054 -15.1956 -15.1433 -15.1289 -15.1180 -15.0723 -15.0317
   -15.0291 -15.0054 -14.9792 -14.9738 -14.9736 -14.9459 -14.8776 -13.1468
   -13.1437  -9.4291  -6.5034  -6.2593  -4.0140  -3.7279  -3.1613  -3.0395
    -2.8719  -2.8485  -2.7986  -2.7766  -2.7235  -2.6547  -2.6262  -2.6146
    -2.6130  -2.5791  -2.5163  -2.4825  -2.4785  -2.4392  -2.4210  -2.4132
    -2.3929  -2.3676  -2.3429  -2.3241  -2.3180  -2.2824  -2.2699  -2.2549
    -2.2490  -2.2376  -2.2188  -2.1778  -2.0696  -1.9485  -1.9146  -1.8787
    -1.8393  -1.7806  -1.7742  -1.7602  -1.7261  -1.7253  -1.7092  -1.6305
    -1.4660  -1.4034  -1.3434  -1.3214  -1.2472  -1.2353  -1.2201  -1.1759
    -1.1356  -1.0849  -1.0387  -1.0202  -0.9654  -0.9210  -0.7929  -0.7379
    -0.6541  -0.6489  -0.6263  -0.6113  -0.5572  -0.5323  -0.5071  -0.4628
    -0.4285  -0.3843  -0.3519  -0.3433  -0.3213  -0.2604  -0.1599  -0.1113
    -0.0486  -0.0430   0.0404   0.1692   0.3546   0.3848   0.4434   0.4942
     0.5839   0.6059   0.6548   0.6746   0.7322   0.7591   0.8005   0.8607
     0.9214   0.9495   1.5084   1.7282   1.7347   1.7978   1.8072   3.7430
     3.8304   3.9230   3.9369   3.9711   3.9835   3.9891   4.0186   4.0753
     4.1129

     the Fermi energy is     3.4490 ev

!    total energy              =   -2966.15821816 Ry
     estimated scf accuracy    <       0.00000007 Ry
     smearing contrib. (-TS)   =      -0.02139787 Ry
     internal energy E=F+TS    =   -2966.13682029 Ry

     The total energy is F=E-TS. E is the sum of the following terms:
     one-electron contribution =  -24755.07172051 Ry
     hartree contribution      =   12470.04618105 Ry
     xc contribution           =    -490.95534238 Ry
     ewald contribution        =    9809.84215605 Ry
     electric field correction =       0.00190550 Ry

     convergence has been achieved in  68 iterations

     Forces acting on atoms (cartesian axes, Ry/au):

     atom    1 type  1   force =     0.00075187   -0.00018446    0.09533149
     atom    2 type  1   force =     0.00024277   -0.00220451   -0.17569633
     atom    3 type  2   force =    -0.00066104   -0.00040929   -0.03008131
     atom    4 type  2   force =    -0.00084957    0.00063547    0.05234026
     atom    5 type  2   force =    -0.01386457   -0.00100112    0.00147086
     atom    6 type  2   force =     0.01581946    0.00240827    0.00319536
     atom    7 type  1   force =     0.00034086    0.00038873   -0.00028439
     atom    8 type  1   force =    -0.00036519    0.00140480    0.00065574
     atom    9 type  2   force =     0.00011206   -0.00002380    0.00025285
     atom   10 type  2   force =     0.00017475    0.00017074   -0.00056813
     atom   11 type  2   force =    -0.00023161    0.00025183    0.00018659
     atom   12 type  2   force =    -0.00038748    0.00008971    0.00008002
     atom   13 type  1   force =     0.00022728   -0.00017867   -0.00060925
     atom   14 type  1   force =    -0.00101430   -0.00000925    0.00026977
     atom   15 type  2   force =     0.00006584   -0.00108807   -0.00012049
     atom   16 type  2   force =    -0.00000983   -0.00006191   -0.00020728
     atom   17 type  2   force =    -0.00039586   -0.00021429   -0.00009439
     atom   18 type  2   force =     0.00038100   -0.00027736    0.00006024
     atom   19 type  1   force =     0.00006101    0.00050400    0.00026476
     atom   20 type  1   force =     0.00024614    0.00081748    0.00031972
     atom   21 type  2   force =     0.00014838    0.00019637    0.10300408
     atom   22 type  2   force =     0.00016572   -0.00108766    0.00008448
     atom   23 type  2   force =    -0.07128286    0.00094073   -0.02829873
     atom   24 type  2   force =     0.07133685    0.00133603   -0.02833435
     atom   25 type  1   force =     0.00022371    0.00038482    0.10640748
     atom   26 type  1   force =     0.00000182    0.00253077   -0.17559266
     atom   27 type  2   force =    -0.00037696    0.00013268   -0.02786562
     atom   28 type  2   force =    -0.00096112    0.00075971    0.05164734
     atom   29 type  2   force =    -0.01301437   -0.00123180    0.00107695
     atom   30 type  2   force =     0.01546352    0.00037096    0.00295880
     atom   31 type  1   force =     0.00051545    0.00002637   -0.00002698
     atom   32 type  1   force =    -0.00041612   -0.00140797    0.00017326
     atom   33 type  2   force =    -0.00016547   -0.00032034    0.00021724
     atom   34 type  2   force =     0.00000755    0.00010590   -0.00013864
     atom   35 type  2   force =    -0.00061816   -0.00019618    0.00066317
     atom   36 type  2   force =     0.00002704   -0.00036972    0.00024075
     atom   37 type  1   force =     0.00060110    0.00027087    0.00053066
     atom   38 type  1   force =    -0.00092404    0.00015677    0.00045831
     atom   39 type  2   force =    -0.00016660    0.00065052    0.00025196
     atom   40 type  2   force =    -0.00004791   -0.00051122   -0.00061544
     atom   41 type  2   force =     0.00117850   -0.00002708   -0.00013769
     atom   42 type  2   force =    -0.00088657   -0.00018846    0.00011514
     atom   43 type  1   force =     0.00020282   -0.00109114    0.00008707
     atom   44 type  1   force =    -0.00038837    0.00032782   -0.00009956
     atom   45 type  2   force =     0.00012287    0.00015520    0.10326258
     atom   46 type  2   force =    -0.07120761   -0.00126004   -0.02829403
     atom   47 type  2   force =     0.07127835   -0.00086376   -0.02833190
     atom   48 type  3   force =    -0.00158923    0.00452105    0.00395472
     atom   49 type  2   force =     0.00039044    0.00020990    0.00016510
     atom   50 type  4   force =     0.00001921   -0.00042124   -0.00017229
     atom   51 type  4   force =    -0.00057043   -0.00085467   -0.00020430
     atom   52 type  4   force =     0.00051180   -0.00447030   -0.00441602
     atom   53 type  2   force =     0.00144607   -0.00033830    0.00078833
     atom   54 type  4   force =    -0.00022521    0.00043075    0.00007864
     atom   55 type  4   force =    -0.00144375    0.00011433   -0.00040396

     Total force =     0.367436     Total SCF correction =     0.000927
  @ DRIVER MODE: Message from server: STATUS
  @ DRIVER MODE: Message from server: GETFORCE
  @ DRIVER MODE: Returning v,forces,stress,ensemble

     Writing output data file ./calc.save/
  @ DRIVER MODE: Message from server: EXIT
  @ DRIVE MODE: Exiting

     General routines

     Parallel routines

   This run was terminated on:   1:21:34  16Sep2021

   JOB DONE.