     Program PWSCF v.6.7GPU starts on 27Sep2021 at 20:49:57

     R & G space division:  proc/nbgrp/npool/nimage =       8
     Reading input from /storage/home/hcoda1/3/ntian30/research/carbon/CxH_vib/H2O_calc/ads_slab/CHOHO_b/out_0013/pw.inp
Warning: card &CELL ignored
Warning: card   CELL_DYNAMICS='IPI', ignored
Warning: card / ignored

     Current dimensions of program PWSCF are:
     Max number of different atomic species (ntypx) = 10
     Max number of k-points (npk) =  40000
     Max angular momentum in pseudopotentials (lmaxx) =  3
     Presently no symmetry can be used with electric field

     Message from routine cell_base_init:
     DEPRECATED: use true lattice parameter, not A to a.u. conversion factor

     IMPORTANT: XC functional enforced from input :
     Exchange-correlation= BEEF-VDW
                           (   1   4  43  14   2   0   0)
     Any further DFT definition will be discarded
     Please, verify this is what you really want

  @ DRIVER MODE: Connecting to
 qe_1139763_3000314.sched-torque.pace.gatech.edu2gam2d3s_scratch
  using UNIX socket
  @ DRIVER MODE: Message from server: STATUS
  @ DRIVER MODE: Message from server: INIT
  @ DRIVER MODE: Receiving replica           0          -1
  @ DRIVER MODE: Receiving encoded integer          25
  @ DRIVER MODE:  SCF:  T  FORCE:  T  STRESS:  F  VC:  F  ENSEMBLE:  F
  @ DRIVER MODE:  SCF:  T  FORCE:  T  STRESS:  F  VC:  F  ENSEMBLE:  F

     Using Slab Decomposition

     bravais-lattice index     =            0
     lattice parameter (alat)  =       1.8897  a.u.
     unit-cell volume          =    6658.9804 (a.u.)^3
     number of atoms/cell      =           52
     number of atomic types    =            4
     number of electrons       =       396.00
     number of Kohn-Sham states=          208
     kinetic-energy cutoff     =      29.3995  Ry
     charge density cutoff     =     293.9946  Ry
     scf convergence threshold =      7.3E-08
     mixing beta               =       0.0500
     number of iterations used =            8  plain     mixing
     Exchange-correlation= BEEF-VDW
                           (   1   4  43  14   2   0   0)

     celldm(1)=   1.889726  celldm(2)=   0.000000  celldm(3)=   0.000000
     celldm(4)=   0.000000  celldm(5)=   0.000000  celldm(6)=   0.000000

     crystal axes: (cart. coord. in units of alat)
               a(1) = (   6.579727   0.000000   0.000000 )
               a(2) = (  -0.000775   5.961596   0.000000 )
               a(3) = (   0.000000   0.000000  25.155947 )

     reciprocal axes: (cart. coord. in units 2 pi/alat)
               b(1) = (  0.151982  0.000020  0.000000 )
               b(2) = (  0.000000  0.167740  0.000000 )
               b(3) = (  0.000000  0.000000  0.039752 )

     PseudoPot. # 1 for C  read from file:
     /storage/coda1/p-amedford6/0/shared/rich_project_chbe-medford/medford-share/data/pseudos_module/espresso/nninc/pbe/van/C.UPF
     MD5 check sum: 1a69bf6b8db32088f5b2163dbdb77a27
     Pseudo is Ultrasoft, Zval =  4.0
     Generated by new atomic code, or converted to UPF format
     Using radial grid of  721 points,  4 beta functions with:
                l(1) =   0
                l(2) =   0
                l(3) =   1
                l(4) =   1
     Q(r) pseudized with  8 coefficients,  rinner =    0.800   0.800   0.800

     PseudoPot. # 2 for H  read from file:
     /storage/coda1/p-amedford6/0/shared/rich_project_chbe-medford/medford-share/data/pseudos_module/espresso/nninc/pbe/van/H.UPF
     MD5 check sum: b5ee9d7bfd3a09ee7748110bda690ff7
     Pseudo is Ultrasoft, Zval =  1.0
     Generated by new atomic code, or converted to UPF format
     Using radial grid of  615 points,  1 beta functions with:
                l(1) =   0
     Q(r) pseudized with  8 coefficients,  rinner =    0.800

     PseudoPot. # 3 for O  read from file:
     /storage/coda1/p-amedford6/0/shared/rich_project_chbe-medford/medford-share/data/pseudos_module/espresso/nninc/pbe/van/O.UPF
     MD5 check sum: 78c19812648e8988a0fe644b0f25305e
     Pseudo is Ultrasoft, Zval =  6.0
     Generated by new atomic code, or converted to UPF format
     Using radial grid of  737 points,  4 beta functions with:
                l(1) =   0
                l(2) =   0
                l(3) =   1
                l(4) =   1
     Q(r) pseudized with  8 coefficients,  rinner =    0.800   0.800   0.800

     PseudoPot. # 4 for Ti read from file:
     /storage/coda1/p-amedford6/0/shared/rich_project_chbe-medford/medford-share/data/pseudos_module/espresso/nninc/pbe/van/Ti.UPF
     MD5 check sum: 8e4df49b7f0d34bbd5052bf3f5ea0213
     Pseudo is Ultrasoft, Zval = 12.0
     Generated by new atomic code, or converted to UPF format
     Using radial grid of  851 points,  6 beta functions with:
                l(1) =   0
                l(2) =   0
                l(3) =   1
                l(4) =   1
                l(5) =   2
                l(6) =   2
     Q(r) pseudized with  8 coefficients,  rinner =    1.000   1.000   1.000
                                                       1.000   1.000

     atomic species   valence    mass     pseudopotential
        C1             4.00    12.01100     C ( 1.00)
        H1             1.00     1.00800     H ( 1.00)
        O1             6.00    15.99900     O ( 1.00)
        Ti1           12.00    47.86700     Ti( 1.00)

     No symmetry found

   Cartesian axes

     site n.     atom                  positions (alat units)
         1           C1  tau(   1) = (   6.4174581   3.0630250  18.7433229  )
         2           H1  tau(   2) = (   6.4111689   4.1212957  19.1161716  )
         3           O1  tau(   3) = (   3.2904802   0.0005063   4.7018136  )
         4           O1  tau(   4) = (   3.2900926   2.9813045   4.7018136  )
         5           O1  tau(   5) = (   1.3043587   1.4918075   6.0039043  )
         6           O1  tau(   6) = (   1.3039711   4.4726057   6.0039043  )
         7           O1  tau(   7) = (   5.2767064   1.4903225   6.0039473  )
         8           O1  tau(   8) = (   5.2763189   4.4711207   6.0039473  )
         9           O1  tau(   9) = (   3.2906025   0.0005020   7.3038282  )
        10           O1  tau(  10) = (   3.2902150   2.9813002   7.3038282  )
        11           O1  tau(  11) = (   0.0006271   0.0005054   7.9858123  )
        12           O1  tau(  12) = (   0.0002396   2.9813036   7.9858123  )
        13           O1  tau(  13) = (   4.5942328   1.4918067   9.2879030  )
        14           O1  tau(  14) = (   4.5938453   4.4726049   9.2879030  )
        15           O1  tau(  15) = (   1.9868534   1.4903216   9.2879459  )
        16           O1  tau(  16) = (   1.9864658   4.4711199   9.2879459  )
        17           O1  tau(  17) = (   0.0063547   0.0038039  10.5886533  )
        18           O1  tau(  18) = (   0.0036009   2.9935247  10.5534957  )
        19           O1  tau(  19) = (   3.2887833   2.9558164  11.3026950  )
        20           O1  tau(  20) = (   3.2889155   0.0180965  11.3284547  )
        21           O1  tau(  21) = (   1.2693144   4.4854729  12.6486175  )
        22           O1  tau(  22) = (   1.2682469   1.5082983  12.6349555  )
        23           O1  tau(  23) = (   5.3117200   4.4832310  12.6447022  )
        24           O1  tau(  24) = (   5.3022439   1.5078309  12.6340177  )
        25           O1  tau(  25) = (   3.2906411   2.9682164  13.9081918  )
        26           O1  tau(  26) = (   3.2897682   5.9313675  13.9192633  )
        27           O1  tau(  27) = (   0.0102991   0.0146890  14.6966064  )
        28           O1  tau(  28) = (   6.5585574   2.9631049  14.7216645  )
        29           O1  tau(  29) = (   4.5396285   4.4015509  16.0671556  )
        30           O1  tau(  30) = (   4.5390945   1.4941059  16.1279003  )
        31           O1  tau(  31) = (   2.0082845   1.5156796  16.1272261  )
        32           O1  tau(  32) = (   2.0064512   4.3952525  16.0627866  )
        33           O1  tau(  33) = (   6.5747792   5.9015977  17.1979186  )
        34           O1  tau(  34) = (   6.5364340   3.0300823  17.4955599  )
        35           Ti1 tau(  35) = (   0.0004258   2.9801865   6.0000000  )
        36           Ti1 tau(  36) = (   0.0000382   5.9609847   6.0000000  )
        37           Ti1 tau(  37) = (   3.2906075   1.4906267   6.0002472  )
        38           Ti1 tau(  38) = (   3.2902200   4.4714249   6.0002472  )
        39           Ti1 tau(  39) = (   3.3327010   0.0642822   9.1729847  )
        40           Ti1 tau(  40) = (   3.3370945   3.0443960   9.2119432  )
        41           Ti1 tau(  41) = (   0.0627859   4.5109727   9.2698030  )
        42           Ti1 tau(  42) = (   0.0576648   1.5917673   9.3593984  )
        43           Ti1 tau(  43) = (   0.0253163   5.9063241  12.4905130  )
        44           Ti1 tau(  44) = (   3.2927504   4.6587819  12.6908054  )
        45           Ti1 tau(  45) = (   3.2752962   1.5585801  12.4345831  )
        46           Ti1 tau(  46) = (   6.5429176   2.9239390  12.8034251  )
        47           Ti1 tau(  47) = (   3.2945171   2.9475426  15.6852994  )
        48           Ti1 tau(  48) = (   3.3539256   5.9263172  16.3551506  )
        49           Ti1 tau(  49) = (   0.0620310   4.5244698  15.8688857  )
        50           Ti1 tau(  50) = (   0.0404038   1.3137671  16.0740927  )
        51           O1  tau(  51) = (   3.3002437   5.8605330  18.1582223  )
        52           H1  tau(  52) = (   3.3828385   0.6075072  18.8126307  )

     number of k points=    10  Fermi-Dirac smearing, width (Ry)=  0.0073
                       cart. coord. in units 2pi/alat
        k(    1) = (   0.0000000   0.0000000   0.0000000), wk =   0.1250000
        k(    2) = (   0.0000000   0.0419351   0.0000000), wk =   0.2500000
        k(    3) = (   0.0000000  -0.0838702   0.0000000), wk =   0.1250000
        k(    4) = (   0.0379955   0.0000049   0.0000000), wk =   0.2500000
        k(    5) = (   0.0379955   0.0419400   0.0000000), wk =   0.2500000
        k(    6) = (   0.0379955  -0.0838652   0.0000000), wk =   0.2500000
        k(    7) = (   0.0379955  -0.0419301   0.0000000), wk =   0.2500000
        k(    8) = (  -0.0759910  -0.0000099   0.0000000), wk =   0.1250000
        k(    9) = (  -0.0759910   0.0419252   0.0000000), wk =   0.2500000
        k(   10) = (  -0.0759910  -0.0838800   0.0000000), wk =   0.1250000

     Initial potential from superposition of free atoms

     starting charge  379.99919, renormalised to  396.00000

     negative rho (up, down):  1.746E-02 0.000E+00

     %%%%%%%%%%%%%%%%%%%%%%%%%%%%%%%%%%%%%%%%%%%%%%%%%%%%%%%%%%%%%%%%%%%%%%%%
     %                                                                      %
     % You are using vdW-DF, which was implemented by the Thonhauser group. %
     % Please cite the following two papers that made this development      %
     % possible and the two reviews that describe the various versions:     %
     %                                                                      %
     %   T. Thonhauser et al., PRL 115, 136402 (2015).                      %
     %   T. Thonhauser et al., PRB 76, 125112 (2007).                       %
     %   K. Berland et al., Rep. Prog. Phys. 78, 066501 (2015).             %
     %   D.C. Langreth et al., J. Phys.: Condens. Matter 21, 084203 (2009). %
     %                                                                      %
     %                                                                      %
     % If you are calculating the stress with vdW-DF, please also cite:     %
     %                                                                      %
     %   R. Sabatini et al., J. Phys.: Condens. Matter 24, 424209 (2012).   %
     %                                                                      %
     %%%%%%%%%%%%%%%%%%%%%%%%%%%%%%%%%%%%%%%%%%%%%%%%%%%%%%%%%%%%%%%%%%%%%%%%

     Adding external electric field

     Computed dipole along edir(3) :
        Dipole               -7.6492 Ry au,        -19.4423 Debye
        Dipole field         -0.0144 Ry au,

        Potential amp.        1.3381 Ry
        Total length         46.3494 bohr

     Starting wfcs are  298 atomic wfcs
  @ DRIVER MODE: Message from server: STATUS
  @ DRIVER MODE: Message from server: POSDATA
  @ DRIVER MODE: Reading and sharing cell
  @ DRIVER MODE: Reading and sharing positions
  @ DRIVER MODE: Received positions

     Self-consistent Calculation

     iteration #  1     ecut=    29.40 Ry     beta= 0.05
     Davidson diagonalization with overlap
     c_bands:  1 eigenvalues not converged
     c_bands:  2 eigenvalues not converged
     c_bands:  1 eigenvalues not converged
     c_bands:  1 eigenvalues not converged
     c_bands:  3 eigenvalues not converged
     c_bands:  1 eigenvalues not converged
     c_bands:  3 eigenvalues not converged
     c_bands:  1 eigenvalues not converged
     c_bands:  2 eigenvalues not converged
     c_bands:  1 eigenvalues not converged
     ethr =  1.00E-05,  avg # of iterations = 20.0

[...]

     total energy              =   -2670.43225515 Ry
     estimated scf accuracy    <    3232.48483308 Ry

[...]

     iteration #  3     ecut=    29.40 Ry     beta= 0.05
     Davidson diagonalization with overlap
     ethr =  1.00E-02,  avg # of iterations = 15.0

[...]

     iteration # 51     ecut=    29.40 Ry     beta= 0.05
     Davidson diagonalization with overlap
     c_bands:  1 eigenvalues not converged
     ethr =  3.99E-07,  avg # of iterations =  8.3

[...]

     total energy              =   -2962.43524883 Ry
     estimated scf accuracy    <       0.00000009 Ry

     iteration # 72     ecut=    29.40 Ry     beta= 0.05
     Davidson diagonalization with overlap
     ethr =  2.27E-11,  avg # of iterations =  5.5

     negative rho (up, down):  1.661E-02 0.000E+00

     Adding external electric field

     Computed dipole along edir(3) :
        Dipole                0.3228 Ry au,          0.8205 Debye
        Dipole field          0.0006 Ry au,

        Potential amp.       -0.0565 Ry
        Total length         46.3494 bohr

     End of self-consistent calculation

          k = 0.0000 0.0000 0.0000 ( 18029 PWs)   bands (ev):

   -56.3717 -56.3261 -56.1741 -56.0691 -56.0379 -56.0260 -55.9702 -55.9420
   -55.9141 -55.9081 -55.8939 -55.8766 -55.7929 -55.6652 -55.1526 -55.1186
   -32.8110 -32.6615 -32.6119 -32.5621 -32.5346 -32.5329 -32.5279 -32.5135
   -32.4378 -32.4346 -32.4221 -32.3994 -32.3880 -32.3464 -32.3204 -32.3192
   -32.2733 -32.2598 -32.2570 -32.2486 -32.2182 -32.2054 -32.1986 -32.1622
   -32.1534 -32.1474 -32.1385 -32.1361 -32.1352 -32.1141 -32.1012 -32.0991
   -32.0814 -32.0739 -32.0703 -32.0526 -32.0442 -32.0215 -31.9946 -31.9200
   -31.8773 -31.8750 -31.5534 -31.4829 -31.4593 -31.3700 -31.2842 -31.1730
   -19.9958 -16.9799 -16.7676 -16.6060 -16.4146 -16.2991 -16.2189 -16.0265
   -15.9190 -15.8655 -15.7879 -15.7478 -15.6675 -15.6625 -15.6503 -15.6200
   -15.5978 -15.5837 -15.5418 -15.5404 -15.5040 -15.4917 -15.4306 -15.3816
   -15.3391 -15.3029 -15.2387 -15.2261 -15.1564 -15.1507 -14.8699 -13.6544
   -13.5420  -8.1640  -5.0475  -4.8248  -4.1674  -4.1034  -4.0118  -3.9302
    -3.8526  -3.6593  -3.5648  -3.4912  -3.4061  -3.3069  -3.2542  -3.2178
    -3.1186  -3.1068  -3.0531  -3.0111  -2.9764  -2.9454  -2.8993  -2.8646
    -2.8163  -2.7881  -2.7751  -2.7310  -2.6897  -2.6751  -2.5871  -2.5668
    -2.5618  -2.5176  -2.4846  -2.4378  -2.4216  -2.3778  -2.3522  -2.3408
    -2.2228  -2.1526  -2.1396  -2.0661  -1.9425  -1.7368  -1.7006  -1.6718
    -1.6650  -1.5458  -1.5093  -1.4928  -1.4638  -1.4315  -1.3953  -1.2869
    -1.2810  -1.2201  -1.1808  -1.1672  -1.0214  -1.0020  -0.9721  -0.9008
    -0.8762  -0.8156  -0.8015  -0.6862  -0.6366  -0.6077  -0.5050  -0.4621
    -0.4448  -0.4310  -0.3853  -0.3582  -0.3536  -0.3045  -0.2281  -0.2200
    -0.1827  -0.1606  -0.1436  -0.1080  -0.0318   0.0086   0.0740   0.1525
     0.1819   0.1985   0.2632   0.3275   0.4402   0.5375   0.6678   0.8670
     0.8674   0.9895   1.0943   1.4248   1.4701   2.6452   2.8742   2.9797
     3.1338   3.1903   3.2097   3.2952   3.3319   3.4152   3.6258   3.6604

[...]

          k = 0.0380-0.0419 0.0000 ( 17876 PWs)   bands (ev):

[...]

          k =-0.0760-0.0000 0.0000 ( 17886 PWs)   bands (ev):

[...]

          k =-0.0760-0.0839 0.0000 ( 17948 PWs)   bands (ev):

   -56.3642 -56.3335 -56.1733 -56.0615 -56.0355 -56.0333 -55.9662 -55.9427
   -55.9111 -55.9020 -55.8977 -55.8879 -55.7907 -55.6673 -55.1362 -55.1349
   -32.6567 -32.6401 -32.6134 -32.6129 -32.4951 -32.4817 -32.4762 -32.4720
   -32.4179 -32.3840 -32.3707 -32.3688 -32.3534 -32.3154 -32.3098 -32.2767
   -32.2583 -32.2567 -32.2504 -32.2428 -32.2402 -32.2328 -32.2270 -32.2125
   -32.1852 -32.1807 -32.1733 -32.1609 -32.1408 -32.1401 -32.1237 -32.1160
   -32.1112 -32.1075 -32.1020 -32.0905 -32.0865 -32.0415 -31.9986 -31.9925
   -31.9215 -31.8799 -31.4728 -31.4715 -31.3682 -31.3660 -31.3271 -31.3256
   -19.9894 -16.9679 -16.2123 -16.1786 -16.0844 -16.0275 -16.0131 -15.9518
   -15.9253 -15.8781 -15.8728 -15.7922 -15.7745 -15.7560 -15.7178 -15.6926
   -15.6733 -15.6516 -15.6234 -15.5920 -15.5806 -15.5599 -15.5277 -15.4981
   -15.4484 -15.4425 -15.3788 -15.3530 -15.3297 -15.2157 -15.0260 -13.6457
   -13.6440  -8.1649  -5.0264  -4.8331  -3.6193  -3.4815  -3.3985  -3.2987
    -3.2105  -3.1610  -3.1373  -3.0976  -3.0771  -3.0265  -3.0244  -2.9804
    -2.9695  -2.9276  -2.9124  -2.8739  -2.8408  -2.8245  -2.8221  -2.8115
    -2.8103  -2.7947  -2.7629  -2.7515  -2.7347  -2.7308  -2.6753  -2.6464
    -2.6289  -2.5368  -2.4779  -2.4494  -2.3890  -2.3352  -2.3088  -2.2910
    -2.2759  -2.2299  -2.2110  -2.1825  -2.0733  -2.0294  -1.8674  -1.8085
    -1.7695  -1.7191  -1.6902  -1.6464  -1.5971  -1.5774  -1.5538  -1.5020
    -1.4908  -1.3578  -1.3521  -1.2986  -1.2167  -1.1876  -1.1797  -1.1687
    -1.1033  -1.0459  -1.0306  -1.0250  -0.9870  -0.8922  -0.8840  -0.8390
    -0.8274  -0.7915  -0.7206  -0.6520  -0.5545  -0.5223  -0.4691  -0.4381
    -0.3082  -0.2691  -0.1302  -0.1132  -0.0247   0.0121   0.0415   0.1217
     0.1432   0.1789   0.2570   0.2839   0.3664   0.4154   0.4585   0.4685
     0.5316   1.2442   1.2599   1.2769   1.2886   2.5473   3.2665   3.3737
     3.3788   3.4066   3.4194   3.5207   3.5342   3.6045   3.6384   3.6835

     the Fermi energy is     2.7861 ev

!    total energy              =   -2962.43526492 Ry
     estimated scf accuracy    <       0.00000005 Ry
     smearing contrib. (-TS)   =      -0.01290145 Ry
     internal energy E=F+TS    =   -2962.42236346 Ry

     The total energy is F=E-TS. E is the sum of the following terms:
     one-electron contribution =  -24149.88818803 Ry
     hartree contribution      =   12160.88152789 Ry
     xc contribution           =    -488.27375473 Ry
     ewald contribution        =    9514.85785476 Ry
     electric field correction =       0.00019666 Ry

     convergence has been achieved in  72 iterations

     Forces acting on atoms (cartesian axes, Ry/au):

     atom    1 type  1   force =    -0.00025550   -0.00008953    0.00029827
     atom    2 type  2   force =     0.00014345   -0.00043667   -0.00029992
     atom    3 type  3   force =    -0.00000737    0.00008395    0.10097932
     atom    4 type  3   force =    -0.00000390    0.00014208    0.10054620
     atom    5 type  3   force =    -0.07612714    0.00087544   -0.03117476
     atom    6 type  3   force =    -0.07557587   -0.00154665   -0.03118059
     atom    7 type  3   force =     0.07595369    0.00141606   -0.03123872
     atom    8 type  3   force =     0.07556508   -0.00104765   -0.03119984
     atom    9 type  3   force =     0.00101980    0.00071390    0.04689104
     atom   10 type  3   force =     0.00093592    0.00022908    0.04949704
     atom   11 type  3   force =     0.00037622   -0.00605650   -0.04131368
     atom   12 type  3   force =     0.00101328    0.00275148   -0.03527942
     atom   13 type  3   force =    -0.01264622   -0.00287590    0.00043886
     atom   14 type  3   force =    -0.01412051    0.00447967    0.00143368
     atom   15 type  3   force =     0.01209482   -0.00536923    0.00102902
     atom   16 type  3   force =     0.01169551    0.00182051    0.00133161
     atom   17 type  3   force =     0.00006879    0.00034868    0.00074832
     atom   18 type  3   force =     0.00012624   -0.00027357    0.00016480
     atom   19 type  3   force =    -0.00011900   -0.00001539    0.00019559
     atom   20 type  3   force =    -0.00005827    0.00053257   -0.00044396
     atom   21 type  3   force =     0.00027791    0.00007321   -0.00005490
     atom   22 type  3   force =    -0.00008586   -0.00000400   -0.00002172
     atom   23 type  3   force =    -0.00011039    0.00005973    0.00001018
     atom   24 type  3   force =    -0.00001901    0.00001274   -0.00015138
     atom   25 type  3   force =    -0.00001988    0.00022267   -0.00045200
     atom   26 type  3   force =     0.00008161    0.00056691    0.00034504
     atom   27 type  3   force =    -0.00060942   -0.00002644   -0.00052970
     atom   28 type  3   force =    -0.00029468    0.00016686   -0.00016189
     atom   29 type  3   force =     0.00020519   -0.00026049   -0.00019798
     atom   30 type  3   force =     0.00072550    0.00054147   -0.00038303
     atom   31 type  3   force =    -0.00007532    0.00044953   -0.00048061
     atom   32 type  3   force =    -0.00013677    0.00012263   -0.00013621
     atom   33 type  3   force =    -0.00057448   -0.00007131    0.00092420
     atom   34 type  3   force =    -0.00008731    0.00023842   -0.00023123
     atom   35 type  4   force =    -0.00008121   -0.00133125    0.10983093
     atom   36 type  4   force =    -0.00019902    0.00142483    0.12390152
     atom   37 type  4   force =    -0.00029141    0.00759282   -0.16582760
     atom   38 type  4   force =    -0.00000463   -0.00693123   -0.16567348
     atom   39 type  4   force =     0.00075368   -0.00133143   -0.00021102
     atom   40 type  4   force =     0.00082467    0.00162250   -0.00031233
     atom   41 type  4   force =    -0.00063013    0.00000593   -0.00007057
     atom   42 type  4   force =    -0.00069610    0.00002365   -0.00030382
     atom   43 type  4   force =     0.00018684   -0.00016778   -0.00001722
     atom   44 type  4   force =     0.00029420    0.00009155   -0.00024394
     atom   45 type  4   force =     0.00003711    0.00100003   -0.00010181
     atom   46 type  4   force =     0.00009412   -0.00004581   -0.00045983
     atom   47 type  4   force =    -0.00203972   -0.00013159    0.00034239
     atom   48 type  4   force =    -0.00221175   -0.00014308    0.00005856
     atom   49 type  4   force =     0.00030770    0.00057938    0.00000311
     atom   50 type  4   force =     0.00338392   -0.00021623   -0.00056094
     atom   51 type  3   force =     0.00034739    0.00022344    0.00027726
     atom   52 type  2   force =     0.00056826   -0.00003998   -0.00053283

     Total force =     0.371558     Total SCF correction =     0.000420
  @ DRIVER MODE: Message from server: STATUS
  @ DRIVER MODE: Message from server: GETFORCE
  @ DRIVER MODE: Returning v,forces,stress,ensemble

     Writing output data file ./calc.save/
  @ DRIVER MODE: Message from server: EXIT
  @ DRIVE MODE: Exiting

     General routines

     Parallel routines

   This run was terminated on:  21:14:32  27Sep2021

   JOB DONE.