     Program PWSCF v.6.7GPU starts on 15Sep2021 at 23:26:29

     R & G space division:  proc/nbgrp/npool/nimage =      10
     Reading input from /storage/home/hcoda1/3/ntian30/research/carbon/CxH_vib/H2O_calc/ads_slab/CH3NH2O_a/out_0026/pw.inp
Warning: card &CELL ignored
Warning: card   CELL_DYNAMICS='IPI', ignored
Warning: card / ignored

     Current dimensions of program PWSCF are:
     Max number of different atomic species (ntypx) = 10
     Max number of k-points (npk) =  40000
     Max angular momentum in pseudopotentials (lmaxx) =  3
     Presently no symmetry can be used with electric field

     Message from routine cell_base_init:
     DEPRECATED: use true lattice parameter, not A to a.u. conversion factor

     IMPORTANT: XC functional enforced from input :
     Exchange-correlation= BEEF-VDW
                           (   1   4  43  14   2   0   0)
     Any further DFT definition will be discarded
     Please, verify this is what you really want

  @ DRIVER MODE: Connecting to
 qe_1139763_2852618.sched-torque.pace.gatech.eduskep66kj_scratch
  using UNIX socket
  @ DRIVER MODE: Message from server: STATUS
  @ DRIVER MODE: Message from server: INIT
  @ DRIVER MODE: Receiving replica           0          -1
  @ DRIVER MODE: Receiving encoded integer          25
  @ DRIVER MODE:  SCF:  T  FORCE:  T  STRESS:  F  VC:  F  ENSEMBLE:  F
  @ DRIVER MODE:  SCF:  T  FORCE:  T  STRESS:  F  VC:  F  ENSEMBLE:  F

     Using Slab Decomposition

     bravais-lattice index     =            0
     lattice parameter (alat)  =       1.8897  a.u.
     unit-cell volume          =    6658.9804 (a.u.)^3
     number of atoms/cell      =           55
     number of atomic types    =            5
     number of electrons       =       398.00
     number of Kohn-Sham states=          209
     kinetic-energy cutoff     =      29.3995  Ry
     charge density cutoff     =     293.9946  Ry
     scf convergence threshold =      7.3E-08
     mixing beta               =       0.0500
     number of iterations used =            8  plain     mixing
     Exchange-correlation= BEEF-VDW
                           (   1   4  43  14   2   0   0)

     celldm(1)=   1.889726  celldm(2)=   0.000000  celldm(3)=   0.000000
     celldm(4)=   0.000000  celldm(5)=   0.000000  celldm(6)=   0.000000

     crystal axes: (cart. coord. in units of alat)
               a(1) = (   6.579727   0.000000   0.000000 )
               a(2) = (  -0.000775   5.961596   0.000000 )
               a(3) = (   0.000000   0.000000  25.155947 )

     reciprocal axes: (cart. coord. in units 2 pi/alat)
               b(1) = (  0.151982  0.000020  0.000000 )
               b(2) = (  0.000000  0.167740  0.000000 )
               b(3) = (  0.000000  0.000000  0.039752 )

     PseudoPot. # 1 for Ti read from file:
     /storage/coda1/p-amedford6/0/shared/rich_project_chbe-medford/medford-share/data/pseudos_module/espresso/nninc/pbe/van/Ti.UPF
     MD5 check sum: 8e4df49b7f0d34bbd5052bf3f5ea0213
     Pseudo is Ultrasoft, Zval = 12.0
     Generated by new atomic code, or converted to UPF format
     Using radial grid of  851 points,  6 beta functions with:
                l(1) =   0
                l(2) =   0
                l(3) =   1
                l(4) =   1
                l(5) =   2
                l(6) =   2
     Q(r) pseudized with  8 coefficients,  rinner =    1.000   1.000   1.000
                                                       1.000   1.000

     PseudoPot. # 2 for O  read from file:
     /storage/coda1/p-amedford6/0/shared/rich_project_chbe-medford/medford-share/data/pseudos_module/espresso/nninc/pbe/van/O.UPF
     MD5 check sum: 78c19812648e8988a0fe644b0f25305e
     Pseudo is Ultrasoft, Zval =  6.0
     Generated by new atomic code, or converted to UPF format
     Using radial grid of  737 points,  4 beta functions with:
                l(1) =   0
                l(2) =   0
                l(3) =   1
                l(4) =   1
     Q(r) pseudized with  8 coefficients,  rinner =    0.800   0.800   0.800

     PseudoPot. # 3 for N  read from file:
     /storage/coda1/p-amedford6/0/shared/rich_project_chbe-medford/medford-share/data/pseudos_module/espresso/nninc/pbe/van/N.UPF
     MD5 check sum: 90d10febe142ad51ac9d5be1deb811c4
     Pseudo is Ultrasoft, Zval =  5.0
     Generated by new atomic code, or converted to UPF format
     Using radial grid of  729 points,  4 beta functions with:
                l(1) =   0
                l(2) =   0
                l(3) =   1
                l(4) =   1
     Q(r) pseudized with  8 coefficients,  rinner =    0.800   0.800   0.800

     PseudoPot. # 4 for C  read from file:
     /storage/coda1/p-amedford6/0/shared/rich_project_chbe-medford/medford-share/data/pseudos_module/espresso/nninc/pbe/van/C.UPF
     MD5 check sum: 1a69bf6b8db32088f5b2163dbdb77a27
     Pseudo is Ultrasoft, Zval =  4.0
     Generated by new atomic code, or converted to UPF format
     Using radial grid of  721 points,  4 beta functions with:
                l(1) =   0
                l(2) =   0
                l(3) =   1
                l(4) =   1
     Q(r) pseudized with  8 coefficients,  rinner =    0.800   0.800   0.800

     PseudoPot. # 5 for H  read from file:
     /storage/coda1/p-amedford6/0/shared/rich_project_chbe-medford/medford-share/data/pseudos_module/espresso/nninc/pbe/van/H.UPF
     MD5 check sum: b5ee9d7bfd3a09ee7748110bda690ff7
     Pseudo is Ultrasoft, Zval =  1.0
     Generated by new atomic code, or converted to UPF format
     Using radial grid of  615 points,  1 beta functions with:
                l(1) =   0
     Q(r) pseudized with  8 coefficients,  rinner =    0.800

     atomic species   valence    mass     pseudopotential
        Ti1           12.00    47.86700     Ti( 1.00)
        O1             6.00    15.99900     O ( 1.00)
        N1             5.00    14.00700     N ( 1.00)
        C1             4.00    12.01100     C ( 1.00)
        H1             1.00     1.00800     H ( 1.00)

     No symmetry found

   Cartesian axes

     site n.     atom                  positions (alat units)
         1           Ti1 tau(   1) = (   0.0004258   2.9801865   6.0000000  )
         2           Ti1 tau(   2) = (   3.2906075   1.4906267   6.0002472  )
         3           O1  tau(   3) = (   0.0006271   0.0005054   7.9858123  )
         4           O1  tau(   4) = (   3.2906025   0.0005020   7.3038282  )
         5           O1  tau(   5) = (   4.5942328   1.4918067   9.2879030  )
         6           O1  tau(   6) = (   1.9868534   1.4903216   9.2879459  )
         7           Ti1 tau(   7) = (   3.2907910   2.8959150   9.1758416  )
         8           Ti1 tau(   8) = (   0.0015273   1.4827037   9.2680791  )
         9           O1  tau(   9) = (   3.2951577   0.0167633  11.2896499  )
        10           O1  tau(  10) = (   0.0116148   5.9584955  10.6183126  )
        11           O1  tau(  11) = (   1.3222759   1.5071707  12.6129440  )
        12           O1  tau(  12) = (   5.3060066   1.5095485  12.6267335  )
        13           Ti1 tau(  13) = (   6.4824898   3.0013615  12.7357613  )
        14           Ti1 tau(  14) = (   3.1735365   1.4973312  12.4739500  )
        15           O1  tau(  15) = (   0.0245190   0.0017265  14.5963640  )
        16           O1  tau(  16) = (   3.2983568   0.0259644  13.8884976  )
        17           O1  tau(  17) = (   4.5535709   1.5599051  15.9919625  )
        18           O1  tau(  18) = (   2.0723989   1.5598234  15.9883263  )
        19           Ti1 tau(  19) = (   3.3263631   3.0313633  15.6478355  )
        20           Ti1 tau(  20) = (   0.0083359   1.6222165  16.0589653  )
        21           O1  tau(  21) = (   3.2904802   0.0005063   4.7018136  )
        22           O1  tau(  22) = (   0.0206953   0.0548308  17.2083480  )
        23           O1  tau(  23) = (   1.3043587   1.4918075   6.0039043  )
        24           O1  tau(  24) = (   5.2767064   1.4903225   6.0039473  )
        25           Ti1 tau(  25) = (   0.0000382   5.9609847   6.0000000  )
        26           Ti1 tau(  26) = (   3.2902200   4.4714249   6.0002472  )
        27           O1  tau(  27) = (   0.0002396   2.9813036   7.9858123  )
        28           O1  tau(  28) = (   3.2902150   2.9813002   7.3038282  )
        29           O1  tau(  29) = (   4.5938453   4.4726049   9.2879030  )
        30           O1  tau(  30) = (   1.9864658   4.4711199   9.2879459  )
        31           Ti1 tau(  31) = (   3.2891106   5.8743827   9.1763621  )
        32           Ti1 tau(  32) = (   0.0006254   4.4649316   9.2693709  )
        33           O1  tau(  33) = (   3.2909539   2.9954008  11.2901670  )
        34           O1  tau(  34) = (   0.0092240   2.9805883  10.6323155  )
        35           O1  tau(  35) = (   1.3211080   4.4795309  12.6092917  )
        36           O1  tau(  36) = (   5.3058445   4.4798052  12.6251394  )
        37           Ti1 tau(  37) = (   6.5140999   0.0198189  12.7603067  )
        38           Ti1 tau(  38) = (   3.1705570   4.4938763  12.4677136  )
        39           O1  tau(  39) = (   0.0016069   2.9863809  14.6467327  )
        40           O1  tau(  40) = (   3.3112668   3.0122049  13.8485686  )
        41           O1  tau(  41) = (   4.5534170   4.5051619  16.0179686  )
        42           O1  tau(  42) = (   2.0797414   4.5084034  16.0201905  )
        43           Ti1 tau(  43) = (   3.2815144   0.0627375  15.7417980  )
        44           Ti1 tau(  44) = (   0.0076503   4.5954094  16.1032789  )
        45           O1  tau(  45) = (   3.2900926   2.9813045   4.7018136  )
        46           O1  tau(  46) = (   1.3039711   4.4726057   6.0039043  )
        47           O1  tau(  47) = (   5.2763189   4.4711207   6.0039473  )
        48           N1  tau(  48) = (   0.0651939   3.0276870  17.3150544  )
        49           C1  tau(  49) = (   0.3375872   3.0185870  18.7284822  )
        50           H1  tau(  50) = (   0.4544735   4.0311245  19.1352477  )
        51           H1  tau(  51) = (   6.1015407   2.5302758  19.2785169  )
        52           H1  tau(  52) = (   1.2608204   2.4494767  18.9518403  )
        53           O1  tau(  53) = (   3.3357083   0.1159715  18.1615364  )
        54           H1  tau(  54) = (   4.1514219   5.6051498  18.3929375  )
        55           H1  tau(  55) = (   2.5926282   5.5337384  18.4710493  )

     number of k points=    10  Fermi-Dirac smearing, width (Ry)=  0.0073
                       cart. coord. in units 2pi/alat
        k(    1) = (   0.0000000   0.0000000   0.0000000), wk =   0.1250000
        k(    2) = (   0.0000000   0.0419351   0.0000000), wk =   0.2500000
        k(    3) = (   0.0000000  -0.0838702   0.0000000), wk =   0.1250000
        k(    4) = (   0.0379955   0.0000049   0.0000000), wk =   0.2500000
        k(    5) = (   0.0379955   0.0419400   0.0000000), wk =   0.2500000
        k(    6) = (   0.0379955  -0.0838652   0.0000000), wk =   0.2500000
        k(    7) = (   0.0379955  -0.0419301   0.0000000), wk =   0.2500000
        k(    8) = (  -0.0759910  -0.0000099   0.0000000), wk =   0.1250000
        k(    9) = (  -0.0759910   0.0419252   0.0000000), wk =   0.2500000
        k(   10) = (  -0.0759910  -0.0838800   0.0000000), wk =   0.1250000

     Initial potential from superposition of free atoms

     starting charge  381.99915, renormalised to  398.00000

     negative rho (up, down):  1.656E-02 0.000E+00

     %%%%%%%%%%%%%%%%%%%%%%%%%%%%%%%%%%%%%%%%%%%%%%%%%%%%%%%%%%%%%%%%%%%%%%%%
     %                                                                      %
     % You are using vdW-DF, which was implemented by the Thonhauser group. %
     % Please cite the following two papers that made this development      %
     % possible and the two reviews that describe the various versions:     %
     %                                                                      %
     %   T. Thonhauser et al., PRL 115, 136402 (2015).                      %
     %   T. Thonhauser et al., PRB 76, 125112 (2007).                       %
     %   K. Berland et al., Rep. Prog. Phys. 78, 066501 (2015).             %
     %   D.C. Langreth et al., J. Phys.: Condens. Matter 21, 084203 (2009). %
     %                                                                      %
     %                                                                      %
     % If you are calculating the stress with vdW-DF, please also cite:     %
     %                                                                      %
     %   R. Sabatini et al., J. Phys.: Condens. Matter 24, 424209 (2012).   %
     %                                                                      %
     %%%%%%%%%%%%%%%%%%%%%%%%%%%%%%%%%%%%%%%%%%%%%%%%%%%%%%%%%%%%%%%%%%%%%%%%

     Adding external electric field

     Computed dipole along edir(3) :
        Dipole               -9.1079 Ry au,        -23.1500 Debye
        Dipole field         -0.0172 Ry au,

        Potential amp.        1.5933 Ry
        Total length         46.3494 bohr

     Starting wfcs are  301 atomic wfcs
  @ DRIVER MODE: Message from server: STATUS
  @ DRIVER MODE: Message from server: POSDATA
  @ DRIVER MODE: Reading and sharing cell
  @ DRIVER MODE: Reading and sharing positions
  @ DRIVER MODE: Received positions

     Self-consistent Calculation

     iteration #  1     ecut=    29.40 Ry     beta= 0.05
     Davidson diagonalization with overlap
     c_bands:  1 eigenvalues not converged
     c_bands:  1 eigenvalues not converged
     c_bands:  1 eigenvalues not converged
     c_bands:  1 eigenvalues not converged
     c_bands:  1 eigenvalues not converged
     c_bands:  1 eigenvalues not converged
     c_bands:  1 eigenvalues not converged
     c_bands:  2 eigenvalues not converged
     ethr =  1.00E-05,  avg # of iterations = 19.6

[...]

     total energy              =   -2564.51095446 Ry
     estimated scf accuracy    <    4317.47516682 Ry

     iteration #  2     ecut=    29.40 Ry     beta= 0.05
     Davidson diagonalization with overlap
     ethr =  1.00E-02,  avg # of iterations = 24.1

[...]

     iteration # 41     ecut=    29.40 Ry     beta= 0.05
     Davidson diagonalization with overlap
     c_bands:  1 eigenvalues not converged
     ethr =  3.56E-07,  avg # of iterations = 10.5

[...]

     total energy              =   -2953.97101700 Ry
     estimated scf accuracy    <       0.00000026 Ry

     iteration # 65     ecut=    29.40 Ry     beta= 0.05
     Davidson diagonalization with overlap
     ethr =  2.97E-11,  avg # of iterations =  5.0

     negative rho (up, down):  1.668E-02 0.000E+00

     Adding external electric field

     Computed dipole along edir(3) :
        Dipole                0.5287 Ry au,          1.3439 Debye
        Dipole field          0.0010 Ry au,

        Potential amp.       -0.0925 Ry
        Total length         46.3494 bohr

     End of self-consistent calculation

          k = 0.0000 0.0000 0.0000 ( 18029 PWs)   bands (ev):

   -56.5952 -56.5616 -55.7132 -55.6792 -55.6690 -55.6342 -55.4921 -55.4560
   -55.3616 -55.2436 -55.2300 -55.2282 -55.2097 -55.1327 -54.7257 -54.6765
   -33.0219 -32.8697 -32.8415 -32.7717 -32.6808 -32.6481 -32.1810 -32.1516
   -32.0277 -31.9781 -31.9302 -31.9110 -31.8820 -31.8716 -31.8441 -31.8380
   -31.8189 -31.8140 -31.7910 -31.7758 -31.7681 -31.7120 -31.7073 -31.6698
   -31.6562 -31.6345 -31.6265 -31.6183 -31.5953 -31.5866 -31.5834 -31.5592
   -31.4661 -31.4537 -31.4196 -31.4065 -31.3796 -31.3706 -31.3569 -31.3379
   -31.3100 -31.2595 -31.2406 -30.9694 -30.9479 -30.9187 -30.8948 -30.7856
   -18.7855 -16.7506 -16.2869 -16.0456 -15.9513 -15.8691 -15.8294 -15.7860
   -15.6382 -15.5656 -15.5454 -15.5432 -15.4752 -15.3309 -15.2772 -15.1793
   -15.0929 -14.9517 -14.9401 -14.9003 -14.8863 -14.8501 -14.8461 -14.7954
   -14.6271 -14.5913 -14.5456 -14.4866 -14.3949 -14.1736 -13.7419 -13.6322
   -12.9675  -7.7572  -6.5798  -4.3178  -3.7855  -3.5202  -3.4881  -3.3598
    -3.3554  -3.3120  -3.1695  -3.1616  -3.0877  -3.0642  -3.0170  -2.9502
    -2.8965  -2.8679  -2.7794  -2.7658  -2.7463  -2.7358  -2.7170  -2.6000
    -2.5557  -2.5054  -2.4020  -2.2921  -2.2494  -2.2224  -2.1765  -2.1432
    -2.0922  -2.0807  -2.0684  -2.0570  -1.9527  -1.8313  -1.8056  -1.7826
    -1.7367  -1.7217  -1.7134  -1.6899  -1.6049  -1.4966  -1.4036  -1.3359
    -1.3288  -1.2537  -1.2456  -1.1874  -1.0759  -1.0135  -1.0110  -0.9892
    -0.8854  -0.8602  -0.7888  -0.7261  -0.6671  -0.6142  -0.5514  -0.4992
    -0.4764  -0.4666  -0.3688  -0.2994  -0.2745  -0.2188  -0.2107  -0.2057
    -0.1790  -0.0836  -0.0484   0.0285   0.0635   0.1115   0.1469   0.2263
     0.2857   0.3517   0.3986   0.4203   0.4859   0.5413   0.5970   0.6878
     0.7449   0.7510   0.7782   0.8370   0.8504   0.9248   1.0069   1.0266
     1.0934   1.1644   1.3280   1.3670   1.6152   1.6867   2.3107   2.6821
     2.8432   3.1385   3.3280   3.4661   3.6613   3.6717   3.6790   3.9003
     3.9286

[...]

          k = 0.0380-0.0419 0.0000 ( 17876 PWs)   bands (ev):

[...]

          k =-0.0760-0.0000 0.0000 ( 17886 PWs)   bands (ev):

[...]

          k =-0.0760-0.0839 0.0000 ( 17948 PWs)   bands (ev):

   -56.5786 -56.5781 -55.6982 -55.6938 -55.6562 -55.6472 -55.4781 -55.4698
   -55.3592 -55.2323 -55.2267 -55.2265 -55.2249 -55.1359 -54.7185 -54.6836
   -32.8556 -32.8552 -32.8389 -32.8387 -32.7249 -32.7245 -32.0047 -31.9988
   -31.9873 -31.9804 -31.9040 -31.8894 -31.8883 -31.8840 -31.8773 -31.8758
   -31.8683 -31.8603 -31.8335 -31.8165 -31.7232 -31.7168 -31.6851 -31.6773
   -31.6540 -31.6185 -31.5865 -31.5723 -31.5721 -31.5700 -31.5489 -31.5310
   -31.4801 -31.4514 -31.4512 -31.4472 -31.4313 -31.4124 -31.4123 -31.4013
   -31.3749 -31.3394 -31.1014 -31.0391 -30.9454 -30.9198 -30.9045 -30.8575
   -18.7846 -16.1013 -16.0993 -16.0639 -16.0632 -15.7967 -15.7934 -15.7035
   -15.6980 -15.5662 -15.4458 -15.3417 -15.3291 -15.2951 -15.2685 -15.1583
   -15.1373 -15.1259 -15.1156 -15.0078 -14.9885 -14.9406 -14.9265 -14.9107
   -14.9034 -14.6087 -14.5923 -14.4923 -14.4663 -14.3259 -13.7358 -13.7357
   -12.9860  -7.7506  -6.5729  -3.1976  -3.1912  -3.1506  -3.1366  -3.1357
    -3.0636  -2.9779  -2.9300  -2.9288  -2.9245  -2.8417  -2.7829  -2.7751
    -2.7009  -2.6681  -2.6509  -2.5936  -2.5780  -2.5154  -2.4889  -2.4807
    -2.4627  -2.4393  -2.4381  -2.3440  -2.2780  -2.2321  -2.2269  -2.1672
    -2.1377  -2.0781  -2.0557  -2.0446  -2.0122  -1.9706  -1.9583  -1.9202
    -1.8782  -1.8428  -1.7801  -1.6141  -1.6049  -1.5958  -1.5754  -1.4535
    -1.4458  -1.4114  -1.3801  -1.3745  -1.3033  -1.2538  -1.2163  -1.1645
    -1.0774  -1.0560  -0.9511  -0.8990  -0.8558  -0.8000  -0.6946  -0.6745
    -0.6670  -0.6559  -0.6251  -0.5555  -0.5205  -0.5174  -0.3944  -0.3701
    -0.3317  -0.3025  -0.2443  -0.2155  -0.1565  -0.1245  -0.0547  -0.0406
    -0.0008   0.0767   0.1513   0.1865   0.2362   0.2426   0.5171   0.5906
     0.7201   0.7833   0.8459   0.9137   0.9793   1.0075   1.0369   1.1621
     1.1664   1.1758   1.1763   1.2466   1.2519   1.5936   2.1888   3.2582
     3.2585   3.3247   3.3253   3.6462   3.6525   3.7595   3.7698   3.9300
     3.9443

     the Fermi energy is     2.5090 ev

!    total energy              =   -2953.97104358 Ry
     estimated scf accuracy    <       0.00000005 Ry
     smearing contrib. (-TS)   =      -0.00442858 Ry
     internal energy E=F+TS    =   -2953.96661500 Ry

     The total energy is F=E-TS. E is the sum of the following terms:
     one-electron contribution =  -24343.86656921 Ry
     hartree contribution      =   12263.82002912 Ry
     xc contribution           =    -488.76560045 Ry
     ewald contribution        =    9614.84499796 Ry
     electric field correction =       0.00052757 Ry

     convergence has been achieved in  65 iterations

     Forces acting on atoms (cartesian axes, Ry/au):

     atom    1 type  1   force =    -0.00002384   -0.00048186    0.12442658
     atom    2 type  1   force =    -0.00003685   -0.00048693   -0.15980488
     atom    3 type  2   force =     0.00019967   -0.00023629   -0.06783812
     atom    4 type  2   force =     0.00000284   -0.00009123    0.02613352
     atom    5 type  2   force =    -0.01437163    0.00191428   -0.00990703
     atom    6 type  2   force =     0.01615624    0.00232573   -0.01028381
     atom    7 type  1   force =     0.00071762   -0.00389180    0.02847204
     atom    8 type  1   force =    -0.00033589   -0.00435822    0.10934103
     atom    9 type  2   force =     0.00002382    0.00001548    0.00007812
     atom   10 type  2   force =    -0.00225787    0.00266800   -0.07363157
     atom   11 type  2   force =     0.00080494   -0.00003140   -0.00023435
     atom   12 type  2   force =    -0.00043606    0.00004749   -0.00019494
     atom   13 type  1   force =    -0.00000966    0.00013480   -0.00008778
     atom   14 type  1   force =    -0.00034674    0.00048046   -0.00038482
     atom   15 type  2   force =     0.00001842   -0.00065899   -0.00022968
     atom   16 type  2   force =    -0.00018522   -0.00000421    0.00040123
     atom   17 type  2   force =    -0.00064600   -0.00032042   -0.00032998
     atom   18 type  2   force =     0.00027267   -0.00018089    0.00010213
     atom   19 type  1   force =     0.00043994   -0.00000824   -0.00021765
     atom   20 type  1   force =    -0.00021647   -0.00073016   -0.00082154
     atom   21 type  2   force =     0.00006693   -0.00003994    0.09953033
     atom   22 type  2   force =     0.00004025   -0.00051524    0.00013886
     atom   23 type  2   force =    -0.07971778   -0.00006451   -0.03246041
     atom   24 type  2   force =     0.07958922    0.00037712   -0.03251653
     atom   25 type  1   force =    -0.00000216   -0.00057874    0.12406101
     atom   26 type  1   force =    -0.00010728   -0.00062317   -0.15993544
     atom   27 type  2   force =     0.00033182   -0.00035833   -0.06690836
     atom   28 type  2   force =    -0.00002369    0.00017831    0.02515760
     atom   29 type  2   force =    -0.01496168    0.00189712   -0.00988402
     atom   30 type  2   force =     0.01664954    0.00242508   -0.01021726
     atom   31 type  1   force =     0.00077961   -0.00077063    0.02374470
     atom   32 type  1   force =    -0.00022826    0.00200514    0.10997285
     atom   33 type  2   force =     0.00004633   -0.00027147    0.00034013
     atom   34 type  2   force =    -0.00212306    0.00207054   -0.07174899
     atom   35 type  2   force =     0.00023123   -0.00012203   -0.00008637
     atom   36 type  2   force =    -0.00016563   -0.00024765   -0.00015571
     atom   37 type  1   force =     0.00042926   -0.00002553    0.00039916
     atom   38 type  1   force =     0.00001198   -0.00056802   -0.00016600
     atom   39 type  2   force =     0.00006461    0.00019158    0.00062875
     atom   40 type  2   force =    -0.00008810   -0.00024024    0.00025743
     atom   41 type  2   force =     0.00070480   -0.00034121    0.00010218
     atom   42 type  2   force =    -0.00097636   -0.00040219    0.00059389
     atom   43 type  1   force =     0.00001265   -0.00035235    0.00011569
     atom   44 type  1   force =    -0.00027603    0.00009375   -0.00092781
     atom   45 type  2   force =     0.00005770   -0.00004602    0.09948365
     atom   46 type  2   force =    -0.07972758    0.00000354   -0.03248149
     atom   47 type  2   force =     0.07960652    0.00043109   -0.03250783
     atom   48 type  3   force =    -0.00041607   -0.00016708    0.00004456
     atom   49 type  4   force =     0.00723056   -0.00354047    0.00121597
     atom   50 type  5   force =    -0.00060545    0.00009308    0.00011248
     atom   51 type  5   force =     0.00067158   -0.00115033    0.00065234
     atom   52 type  5   force =    -0.00772297    0.00426588   -0.00124995
     atom   53 type  2   force =    -0.00060206   -0.00012816   -0.00073899
     atom   54 type  5   force =     0.00080029    0.00037834    0.00067764
     atom   55 type  5   force =     0.00064931    0.00003715   -0.00023254

     Total force =     0.423561     Total SCF correction =     0.000558
  @ DRIVER MODE: Message from server: STATUS
  @ DRIVER MODE: Message from server: GETFORCE
  @ DRIVER MODE: Returning v,forces,stress,ensemble

     Writing output data file ./calc.save/
  @ DRIVER MODE: Message from server: EXIT
  @ DRIVE MODE: Exiting

     General routines

     Parallel routines

   This run was terminated on:  23:43:45  15Sep2021

   JOB DONE.