     Program PWSCF v.6.7GPU starts on 23Sep2021 at  0:35:26

     R & G space division:  proc/nbgrp/npool/nimage =      10
     Reading input from /storage/home/hcoda1/3/ntian30/research/carbon/CxH_vib/H2O_calc/ads_slab/CH2NHNHH2O_b/out_0024/pw.inp
Warning: card &CELL ignored
Warning: card   CELL_DYNAMICS='IPI', ignored
Warning: card / ignored

     Current dimensions of program PWSCF are:
     Max number of different atomic species (ntypx) = 10
     Max number of k-points (npk) =  40000
     Max angular momentum in pseudopotentials (lmaxx) =  3
     Presently no symmetry can be used with electric field

     Message from routine cell_base_init:
     DEPRECATED: use true lattice parameter, not A to a.u. conversion factor

     IMPORTANT: XC functional enforced from input :
     Exchange-correlation= BEEF-VDW
                           (   1   4  43  14   2   0   0)
     Any further DFT definition will be discarded
     Please, verify this is what you really want

  @ DRIVER MODE: Connecting to
 qe_1139763_2937310.sched-torque.pace.gatech.edurbvlekcb_scratch
  using UNIX socket
  @ DRIVER MODE: Message from server: STATUS
  @ DRIVER MODE: Message from server: INIT
  @ DRIVER MODE: Receiving replica           0          -1
  @ DRIVER MODE: Receiving encoded integer          25
  @ DRIVER MODE:  SCF:  T  FORCE:  T  STRESS:  F  VC:  F  ENSEMBLE:  F
  @ DRIVER MODE:  SCF:  T  FORCE:  T  STRESS:  F  VC:  F  ENSEMBLE:  F

     Using Slab Decomposition

     bravais-lattice index     =            0
     lattice parameter (alat)  =       1.8897  a.u.
     unit-cell volume          =    6658.9804 (a.u.)^3
     number of atoms/cell      =           57
     number of atomic types    =            5
     number of electrons       =       404.00
     number of Kohn-Sham states=          212
     kinetic-energy cutoff     =      29.3995  Ry
     charge density cutoff     =     293.9946  Ry
     scf convergence threshold =      7.3E-08
     mixing beta               =       0.0500
     number of iterations used =            8  plain     mixing
     Exchange-correlation= BEEF-VDW
                           (   1   4  43  14   2   0   0)

     celldm(1)=   1.889726  celldm(2)=   0.000000  celldm(3)=   0.000000
     celldm(4)=   0.000000  celldm(5)=   0.000000  celldm(6)=   0.000000

     crystal axes: (cart. coord. in units of alat)
               a(1) = (   6.579727   0.000000   0.000000 )
               a(2) = (  -0.000775   5.961596   0.000000 )
               a(3) = (   0.000000   0.000000  25.155947 )

     reciprocal axes: (cart. coord. in units 2 pi/alat)
               b(1) = (  0.151982  0.000020  0.000000 )
               b(2) = (  0.000000  0.167740  0.000000 )
               b(3) = (  0.000000  0.000000  0.039752 )

     PseudoPot. # 1 for Ti read from file:
     /storage/coda1/p-amedford6/0/shared/rich_project_chbe-medford/medford-share/data/pseudos_module/espresso/nninc/pbe/van/Ti.UPF
     MD5 check sum: 8e4df49b7f0d34bbd5052bf3f5ea0213
     Pseudo is Ultrasoft, Zval = 12.0
     Generated by new atomic code, or converted to UPF format
     Using radial grid of  851 points,  6 beta functions with:
                l(1) =   0
                l(2) =   0
                l(3) =   1
                l(4) =   1
                l(5) =   2
                l(6) =   2
     Q(r) pseudized with  8 coefficients,  rinner =    1.000   1.000   1.000
                                                       1.000   1.000

     PseudoPot. # 2 for O  read from file:
     /storage/coda1/p-amedford6/0/shared/rich_project_chbe-medford/medford-share/data/pseudos_module/espresso/nninc/pbe/van/O.UPF
     MD5 check sum: 78c19812648e8988a0fe644b0f25305e
     Pseudo is Ultrasoft, Zval =  6.0
     Generated by new atomic code, or converted to UPF format
     Using radial grid of  737 points,  4 beta functions with:
                l(1) =   0
                l(2) =   0
                l(3) =   1
                l(4) =   1
     Q(r) pseudized with  8 coefficients,  rinner =    0.800   0.800   0.800

     PseudoPot. # 3 for N  read from file:
     /storage/coda1/p-amedford6/0/shared/rich_project_chbe-medford/medford-share/data/pseudos_module/espresso/nninc/pbe/van/N.UPF
     MD5 check sum: 90d10febe142ad51ac9d5be1deb811c4
     Pseudo is Ultrasoft, Zval =  5.0
     Generated by new atomic code, or converted to UPF format
     Using radial grid of  729 points,  4 beta functions with:
                l(1) =   0
                l(2) =   0
                l(3) =   1
                l(4) =   1
     Q(r) pseudized with  8 coefficients,  rinner =    0.800   0.800   0.800

     PseudoPot. # 4 for C  read from file:
     /storage/coda1/p-amedford6/0/shared/rich_project_chbe-medford/medford-share/data/pseudos_module/espresso/nninc/pbe/van/C.UPF
     MD5 check sum: 1a69bf6b8db32088f5b2163dbdb77a27
     Pseudo is Ultrasoft, Zval =  4.0
     Generated by new atomic code, or converted to UPF format
     Using radial grid of  721 points,  4 beta functions with:
                l(1) =   0
                l(2) =   0
                l(3) =   1
                l(4) =   1
     Q(r) pseudized with  8 coefficients,  rinner =    0.800   0.800   0.800

     PseudoPot. # 5 for H  read from file:
     /storage/coda1/p-amedford6/0/shared/rich_project_chbe-medford/medford-share/data/pseudos_module/espresso/nninc/pbe/van/H.UPF
     MD5 check sum: b5ee9d7bfd3a09ee7748110bda690ff7
     Pseudo is Ultrasoft, Zval =  1.0
     Generated by new atomic code, or converted to UPF format
     Using radial grid of  615 points,  1 beta functions with:
                l(1) =   0
     Q(r) pseudized with  8 coefficients,  rinner =    0.800

     atomic species   valence    mass     pseudopotential
        Ti1           12.00    47.86700     Ti( 1.00)
        O1             6.00    15.99900     O ( 1.00)
        N1             5.00    14.00700     N ( 1.00)
        C1             4.00    12.01100     C ( 1.00)
        H1             1.00     1.00800     H ( 1.00)

     No symmetry found

   Cartesian axes

     site n.     atom                  positions (alat units)
         1           Ti1 tau(   1) = (   0.0004258   2.9801865   6.0000000  )
         2           Ti1 tau(   2) = (   3.2906075   1.4906267   6.0002472  )
         3           O1  tau(   3) = (   0.0006271   0.0005054   7.9858123  )
         4           O1  tau(   4) = (   3.2906025   0.0005020   7.3038282  )
         5           O1  tau(   5) = (   4.5942328   1.4918067   9.2879030  )
         6           O1  tau(   6) = (   1.9868534   1.4903216   9.2879459  )
         7           Ti1 tau(   7) = (   3.2907910   2.8959150   9.1758416  )
         8           Ti1 tau(   8) = (   0.0015273   1.4827037   9.2680791  )
         9           O1  tau(   9) = (   3.2740695   5.9399032  11.3612631  )
        10           O1  tau(  10) = (   0.0116148   5.9584955  10.6183126  )
        11           O1  tau(  11) = (   1.2665466   1.4659349  12.6457467  )
        12           O1  tau(  12) = (   5.2636777   1.4644475  12.6520517  )
        13           Ti1 tau(  13) = (   0.0254019   2.9535957  12.5508080  )
        14           Ti1 tau(  14) = (   3.3235577   1.4585364  12.5144190  )
        15           O1  tau(  15) = (   0.0066209   5.9388471  14.7046414  )
        16           O1  tau(  16) = (   3.2471877   5.9405099  14.0100224  )
        17           O1  tau(  17) = (   4.5302733   1.5208160  16.0462967  )
        18           O1  tau(  18) = (   1.9955500   1.4995475  16.2009832  )
        19           Ti1 tau(  19) = (   3.2567830   2.9699832  15.6929747  )
        20           Ti1 tau(  20) = (   6.4949666   1.4732860  15.8443191  )
        21           O1  tau(  21) = (   3.2904802   0.0005063   4.7018136  )
        22           O1  tau(  22) = (   6.4419287   5.8812218  17.2824568  )
        23           O1  tau(  23) = (   1.3043587   1.4918075   6.0039043  )
        24           O1  tau(  24) = (   5.2767064   1.4903225   6.0039473  )
        25           Ti1 tau(  25) = (   0.0000382   5.9609847   6.0000000  )
        26           Ti1 tau(  26) = (   3.2902200   4.4714249   6.0002472  )
        27           O1  tau(  27) = (   0.0002396   2.9813036   7.9858123  )
        28           O1  tau(  28) = (   3.2902150   2.9813002   7.3038282  )
        29           O1  tau(  29) = (   4.5938453   4.4726049   9.2879030  )
        30           O1  tau(  30) = (   1.9864658   4.4711199   9.2879459  )
        31           Ti1 tau(  31) = (   3.2891106   5.8743827   9.1763621  )
        32           Ti1 tau(  32) = (   0.0006254   4.4649316   9.2693709  )
        33           O1  tau(  33) = (   3.2800166   2.9600013  11.3546200  )
        34           O1  tau(  34) = (   0.0092240   2.9805883  10.6323155  )
        35           O1  tau(  35) = (   1.2663080   4.4508225  12.6496728  )
        36           O1  tau(  36) = (   5.2650692   4.4524444  12.6537221  )
        37           Ti1 tau(  37) = (   0.0180281   5.9297397  12.5120547  )
        38           Ti1 tau(  38) = (   3.3242103   4.4456960  12.5094407  )
        39           O1  tau(  39) = (   0.0028395   2.9305241  14.7702868  )
        40           O1  tau(  40) = (   3.2369197   2.9632653  13.9133312  )
        41           O1  tau(  41) = (   4.5259019   4.3784886  16.1008109  )
        42           O1  tau(  42) = (   2.0017919   4.4285960  16.1845674  )
        43           Ti1 tau(  43) = (   3.2453488   5.9423767  15.8283900  )
        44           Ti1 tau(  44) = (   6.5728488   4.6138345  16.0446011  )
        45           O1  tau(  45) = (   3.2900926   2.9813045   4.7018136  )
        46           O1  tau(  46) = (   1.3039711   4.4726057   6.0039043  )
        47           O1  tau(  47) = (   5.2763189   4.4711207   6.0039473  )
        48           N1  tau(  48) = (   0.9567011   2.5879941  18.4848429  )
        49           N1  tau(  49) = (   6.5185693   2.8362889  17.6364570  )
        50           C1  tau(  50) = (   1.0658718   2.8740630  19.7563100  )
        51           H1  tau(  51) = (   1.9437682   2.5238050  20.2823566  )
        52           H1  tau(  52) = (   0.2809834   3.4210577  20.2544045  )
        53           H1  tau(  53) = (   1.7014144   2.0656717  17.9989220  )
        54           H1  tau(  54) = (   5.6742842   3.0275795  18.1730567  )
        55           O1  tau(  55) = (   3.7618585   0.1297276  18.3074903  )
        56           H1  tau(  56) = (   4.7330396   0.0541995  18.1289380  )
        57           H1  tau(  57) = (   3.4892521   5.2388606  18.6788193  )

     number of k points=    10  Fermi-Dirac smearing, width (Ry)=  0.0073
                       cart. coord. in units 2pi/alat
        k(    1) = (   0.0000000   0.0000000   0.0000000), wk =   0.1250000
        k(    2) = (   0.0000000   0.0419351   0.0000000), wk =   0.2500000
        k(    3) = (   0.0000000  -0.0838702   0.0000000), wk =   0.1250000
        k(    4) = (   0.0379955   0.0000049   0.0000000), wk =   0.2500000
        k(    5) = (   0.0379955   0.0419400   0.0000000), wk =   0.2500000
        k(    6) = (   0.0379955  -0.0838652   0.0000000), wk =   0.2500000
        k(    7) = (   0.0379955  -0.0419301   0.0000000), wk =   0.2500000
        k(    8) = (  -0.0759910  -0.0000099   0.0000000), wk =   0.1250000
        k(    9) = (  -0.0759910   0.0419252   0.0000000), wk =   0.2500000
        k(   10) = (  -0.0759910  -0.0838800   0.0000000), wk =   0.1250000

     Initial potential from superposition of free atoms

     starting charge  387.99913, renormalised to  404.00000

     negative rho (up, down):  1.393E-02 0.000E+00

     %%%%%%%%%%%%%%%%%%%%%%%%%%%%%%%%%%%%%%%%%%%%%%%%%%%%%%%%%%%%%%%%%%%%%%%%
     %                                                                      %
     % You are using vdW-DF, which was implemented by the Thonhauser group. %
     % Please cite the following two papers that made this development      %
     % possible and the two reviews that describe the various versions:     %
     %                                                                      %
     %   T. Thonhauser et al., PRL 115, 136402 (2015).                      %
     %   T. Thonhauser et al., PRB 76, 125112 (2007).                       %
     %   K. Berland et al., Rep. Prog. Phys. 78, 066501 (2015).             %
     %   D.C. Langreth et al., J. Phys.: Condens. Matter 21, 084203 (2009). %
     %                                                                      %
     %                                                                      %
     % If you are calculating the stress with vdW-DF, please also cite:     %
     %                                                                      %
     %   R. Sabatini et al., J. Phys.: Condens. Matter 24, 424209 (2012).   %
     %                                                                      %
     %%%%%%%%%%%%%%%%%%%%%%%%%%%%%%%%%%%%%%%%%%%%%%%%%%%%%%%%%%%%%%%%%%%%%%%%

     Adding external electric field

     Computed dipole along edir(3) :
        Dipole              -14.1780 Ry au,        -36.0369 Debye
        Dipole field         -0.0268 Ry au,

        Potential amp.        2.4802 Ry
        Total length         46.3494 bohr

     Starting wfcs are  306 atomic wfcs
  @ DRIVER MODE: Message from server: STATUS
  @ DRIVER MODE: Message from server: POSDATA
  @ DRIVER MODE: Reading and sharing cell
  @ DRIVER MODE: Reading and sharing positions
  @ DRIVER MODE: Received positions

     Self-consistent Calculation

     iteration #  1     ecut=    29.40 Ry     beta= 0.05
     Davidson diagonalization with overlap
     c_bands:  4 eigenvalues not converged
     c_bands:  2 eigenvalues not converged
     c_bands:  2 eigenvalues not converged
     c_bands:  1 eigenvalues not converged
     c_bands:  1 eigenvalues not converged
     c_bands:  4 eigenvalues not converged
     c_bands:  1 eigenvalues not converged
     c_bands:  1 eigenvalues not converged
     ethr =  1.00E-05,  avg # of iterations = 30.8

[...]

     total energy              =   -2249.30223739 Ry
     estimated scf accuracy    <    8255.36337341 Ry

     iteration #  2     ecut=    29.40 Ry     beta= 0.05
     Davidson diagonalization with overlap
     ethr =  1.00E-02,  avg # of iterations = 29.3

[...]

     iteration # 71     ecut=    29.40 Ry     beta= 0.05
     Davidson diagonalization with overlap
     c_bands:  2 eigenvalues not converged
     ethr =  1.30E-10,  avg # of iterations = 11.6

[...]

     total energy              =   -2975.20160178 Ry
     estimated scf accuracy    <       0.00000012 Ry

     iteration # 74     ecut=    29.40 Ry     beta= 0.05
     Davidson diagonalization with overlap
     ethr =  2.87E-11,  avg # of iterations = 13.4

     negative rho (up, down):  1.354E-02 0.000E+00

     Adding external electric field

     Computed dipole along edir(3) :
        Dipole                1.4227 Ry au,          3.6162 Debye
        Dipole field          0.0027 Ry au,

        Potential amp.       -0.2489 Ry
        Total length         46.3494 bohr

     End of self-consistent calculation

          k = 0.0000 0.0000 0.0000 ( 18029 PWs)   bands (ev):

   -55.1441 -55.1157 -55.1074 -55.0816 -55.0792 -55.0302 -54.9883 -54.9554
   -54.9404 -54.9243 -54.9201 -54.9171 -54.9073 -54.8352 -54.1284 -54.0943
   -31.7070 -31.6055 -31.5233 -31.4800 -31.4599 -31.4548 -31.4446 -31.4424
   -31.4055 -31.3854 -31.3634 -31.3600 -31.3436 -31.3215 -31.3049 -31.2909
   -31.2852 -31.2685 -31.2660 -31.2566 -31.2270 -31.2141 -31.2103 -31.1851
   -31.1785 -31.1727 -31.1632 -31.1576 -31.1557 -31.1486 -31.1371 -31.1352
   -31.1131 -31.1046 -31.1009 -31.0925 -31.0844 -31.0717 -31.0691 -31.0515
   -31.0485 -31.0153 -30.5369 -30.4448 -30.4226 -30.3535 -30.2668 -30.1558
   -19.2628 -18.5894 -15.9612 -15.6964 -15.5654 -15.3997 -15.3359 -15.1647
   -15.0843 -15.0189 -14.9333 -14.8748 -14.8603 -14.8544 -14.7624 -14.7443
   -14.6917 -14.6789 -14.6722 -14.6414 -14.6331 -14.5757 -14.5710 -14.5661
   -14.5317 -14.5189 -14.4893 -14.3714 -14.2906 -14.2338 -14.0233 -13.6651
   -12.6308 -12.5137 -10.0188  -6.8173  -6.4865  -6.3636  -4.0729  -3.8828
    -3.3126  -3.1710  -3.1512  -3.0684  -3.0448  -2.9224  -2.8663  -2.7054
    -2.5978  -2.4997  -2.4098  -2.3401  -2.3322  -2.3039  -2.1877  -2.1249
    -2.0788  -2.0356  -2.0170  -2.0041  -1.9556  -1.9197  -1.9173  -1.8506
    -1.8489  -1.7114  -1.6178  -1.6128  -1.5786  -1.5626  -1.4738  -1.4511
    -1.4414  -1.4354  -1.4289  -1.4215  -1.3872  -1.3430  -1.3178  -1.2346
    -1.1804  -1.1371  -1.0060  -0.9042  -0.8307  -0.7737  -0.6854  -0.6822
    -0.6144  -0.5490  -0.5349  -0.5327  -0.4723  -0.3511  -0.3053  -0.2544
    -0.2335  -0.2085  -0.1190  -0.1020  -0.0321   0.0406   0.0691   0.0791
     0.1007   0.2739   0.2818   0.3110   0.3297   0.4194   0.4717   0.5134
     0.5198   0.5424   0.6085   0.6471   0.7387   0.7860   0.7968   0.8176
     0.8393   0.8785   0.9552   0.9651   1.0062   1.0295   1.1702   1.2060
     1.2594   1.4758   1.4780   1.8072   1.8471   1.8943   2.0805   2.4687
     2.5161   3.9553   4.0449   4.0841   4.0858   4.1048   4.1904   4.3241
     4.4364   4.4469   4.4590   4.4810

[...]

          k = 0.0380-0.0419 0.0000 ( 17876 PWs)   bands (ev):

[...]

          k =-0.0760-0.0000 0.0000 ( 17886 PWs)   bands (ev):

[...]

          k =-0.0760-0.0839 0.0000 ( 17948 PWs)   bands (ev):

   -55.1293 -55.1219 -55.0988 -55.0984 -55.0772 -55.0211 -54.9973 -54.9405
   -54.9341 -54.9256 -54.9247 -54.9237 -54.9139 -54.8387 -54.1114 -54.1112
   -31.5155 -31.5072 -31.4221 -31.4208 -31.4204 -31.4050 -31.3911 -31.3906
   -31.3667 -31.3645 -31.3594 -31.3527 -31.3415 -31.3112 -31.2814 -31.2745
   -31.2740 -31.2735 -31.2690 -31.2635 -31.2565 -31.2383 -31.2243 -31.2217
   -31.2186 -31.2182 -31.2178 -31.1965 -31.1737 -31.1651 -31.1638 -31.1544
   -31.1483 -31.1460 -31.1438 -31.1430 -31.1414 -31.1116 -31.1054 -31.1036
   -31.0894 -31.0590 -30.4354 -30.4352 -30.3496 -30.3494 -30.3102 -30.3101
   -19.2602 -18.5889 -15.4553 -15.2986 -15.2851 -15.1337 -15.1193 -15.1110
   -15.0864 -15.0112 -14.9921 -14.9282 -14.9156 -14.8718 -14.8453 -14.8326
   -14.8217 -14.7282 -14.7208 -14.7146 -14.6987 -14.6481 -14.6360 -14.6189
   -14.5956 -14.5915 -14.5549 -14.4901 -14.4869 -14.4552 -14.2245 -13.6759
   -12.6153 -12.6153 -10.0216  -6.8112  -6.4896  -6.3556  -4.0468  -3.8715
    -2.9346  -2.7204  -2.5281  -2.5070  -2.4643  -2.3666  -2.3255  -2.2848
    -2.1887  -2.1393  -2.1237  -2.1018  -2.0882  -2.0288  -2.0245  -2.0218
    -1.9855  -1.9772  -1.9630  -1.9381  -1.9155  -1.8820  -1.8680  -1.8571
    -1.8443  -1.8052  -1.7854  -1.7571  -1.7441  -1.7147  -1.6983  -1.6295
    -1.5252  -1.4954  -1.4421  -1.3496  -1.3308  -1.3251  -1.2401  -1.2074
    -1.1943  -1.1790  -1.1653  -1.1033  -0.9683  -0.8793  -0.8692  -0.8174
    -0.7520  -0.7181  -0.6755  -0.6485  -0.6207  -0.5664  -0.5169  -0.4928
    -0.4192  -0.3657  -0.3596  -0.3273  -0.1813  -0.1574  -0.1100  -0.1078
    -0.0934  -0.0845   0.0053   0.0220   0.0664   0.0862   0.1260   0.1446
     0.2173   0.2339   0.3534   0.4229   0.4849   0.5912   0.7320   0.7452
     0.8170   0.8783   0.9172   0.9831   1.0406   1.0734   1.1563   1.1664
     1.1823   1.2840   1.3335   1.3400   1.3568   2.2529   2.2544   2.3361
     2.3362   4.1176   4.1403   4.2294   4.2431   4.2953   4.3781   4.4676
     4.4941   4.5292   4.5333   4.6112

     the Fermi energy is     4.0035 ev

!    total energy              =   -2975.20161677 Ry
     estimated scf accuracy    <       0.00000006 Ry
     smearing contrib. (-TS)   =      -0.03820599 Ry
     internal energy E=F+TS    =   -2975.16341078 Ry

     The total energy is F=E-TS. E is the sum of the following terms:
     one-electron contribution =  -23645.93041643 Ry
     hartree contribution      =   11921.13417797 Ry
     xc contribution           =    -494.97158983 Ry
     ewald contribution        =    9244.60059771 Ry
     electric field correction =       0.00381980 Ry

     convergence has been achieved in  74 iterations

     Forces acting on atoms (cartesian axes, Ry/au):

     atom    1 type  1   force =     0.00013903   -0.00013220    0.09421275
     atom    2 type  1   force =    -0.00023107   -0.00027830   -0.17730785
     atom    3 type  2   force =     0.00001708   -0.00026095   -0.02170710
     atom    4 type  2   force =    -0.00004238   -0.00184620    0.05695588
     atom    5 type  2   force =    -0.01107541   -0.00171746    0.00686583
     atom    6 type  2   force =     0.01216342   -0.00091160    0.00493227
     atom    7 type  1   force =    -0.00121884    0.00155815   -0.01218891
     atom    8 type  1   force =     0.00072491    0.00496006    0.00602903
     atom    9 type  2   force =     0.00026815    0.00050686    0.00032504
     atom   10 type  2   force =    -0.00307190   -0.00067153   -0.00506261
     atom   11 type  2   force =     0.00082010    0.00021293   -0.00023180
     atom   12 type  2   force =    -0.00007798    0.00051114    0.00001539
     atom   13 type  1   force =    -0.00021728    0.00010546   -0.00008403
     atom   14 type  1   force =    -0.00001093    0.00012072   -0.00009686
     atom   15 type  2   force =    -0.00006070    0.00004846    0.00027481
     atom   16 type  2   force =     0.00040853    0.00035405   -0.00012900
     atom   17 type  2   force =     0.00019643   -0.00007898    0.00032278
     atom   18 type  2   force =     0.00009253   -0.00018838    0.00015056
     atom   19 type  1   force =     0.00029201    0.00034216   -0.00010706
     atom   20 type  1   force =     0.00002400    0.00044534    0.00016569
     atom   21 type  2   force =     0.00005017    0.00002651    0.10365505
     atom   22 type  2   force =     0.00056597   -0.00002459   -0.00017791
     atom   23 type  2   force =    -0.07082697   -0.00009785   -0.02719014
     atom   24 type  2   force =     0.07066247    0.00038525   -0.02722714
     atom   25 type  1   force =    -0.00006670   -0.00027949    0.09392867
     atom   26 type  1   force =    -0.00031347   -0.00034621   -0.17748475
     atom   27 type  2   force =     0.00000779   -0.00023446   -0.02074503
     atom   28 type  2   force =     0.00003679   -0.00148889    0.05599083
     atom   29 type  2   force =    -0.01134948   -0.00053245    0.00690200
     atom   30 type  2   force =     0.01231106   -0.00025358    0.00492059
     atom   31 type  1   force =    -0.00121548    0.00506118   -0.01497488
     atom   32 type  1   force =     0.00092471   -0.00602058    0.00586379
     atom   33 type  2   force =     0.00035508   -0.00013501    0.00011637
     atom   34 type  2   force =    -0.00261046   -0.00151594   -0.00576520
     atom   35 type  2   force =     0.00037883    0.00030067   -0.00029787
     atom   36 type  2   force =     0.00043071    0.00040548   -0.00006030
     atom   37 type  1   force =    -0.00016560   -0.00015551   -0.00017099
     atom   38 type  1   force =     0.00005065    0.00032691    0.00044787
     atom   39 type  2   force =     0.00007950    0.00086687   -0.00075614
     atom   40 type  2   force =     0.00004023   -0.00008487    0.00005191
     atom   41 type  2   force =     0.00091733    0.00040392    0.00053208
     atom   42 type  2   force =    -0.00081856    0.00020066   -0.00009408
     atom   43 type  1   force =     0.00044580   -0.00073637    0.00009494
     atom   44 type  1   force =     0.00014889   -0.00000159   -0.00053050
     atom   45 type  2   force =     0.00001884   -0.00002410    0.10364718
     atom   46 type  2   force =    -0.07081852    0.00000179   -0.02720542
     atom   47 type  2   force =     0.07064781    0.00040785   -0.02720144
     atom   48 type  3   force =     0.00050388   -0.00032887    0.00112352
     atom   49 type  3   force =     0.00017015    0.00022952   -0.00078009
     atom   50 type  4   force =     0.00418058   -0.00140481    0.00435449
     atom   51 type  5   force =    -0.00476397    0.00139198   -0.00451981
     atom   52 type  5   force =    -0.00011292   -0.00049641   -0.00054200
     atom   53 type  5   force =    -0.00050175    0.00058944    0.00035948
     atom   54 type  5   force =     0.00092520    0.00046275    0.00020072
     atom   55 type  2   force =     0.00010745    0.00019036    0.00003934
     atom   56 type  5   force =     0.00068075   -0.00019419   -0.00052404
     atom   57 type  5   force =    -0.00021645    0.00002494    0.00068409

     Total force =     0.365786     Total SCF correction =     0.000557
  @ DRIVER MODE: Message from server: STATUS
  @ DRIVER MODE: Message from server: GETFORCE
  @ DRIVER MODE: Returning v,forces,stress,ensemble

     Writing output data file ./calc.save/
  @ DRIVER MODE: Message from server: EXIT
  @ DRIVE MODE: Exiting

     General routines

     Parallel routines

   This run was terminated on:   0:56:12  23Sep2021

   JOB DONE.