     Program PWSCF v.6.7GPU starts on  9Sep2021 at  1:30:33

     R & G space division:  proc/nbgrp/npool/nimage =      10
     Reading input from /storage/home/hcoda1/3/ntian30/research/carbon/CxH_vib/CH2_calc/ads_slab/CH2N_a/out_0014/pw.inp
Warning: card &CELL ignored
Warning: card   CELL_DYNAMICS='IPI', ignored
Warning: card / ignored

     Current dimensions of program PWSCF are:
     Max number of different atomic species (ntypx) = 10
     Max number of k-points (npk) =  40000
     Max angular momentum in pseudopotentials (lmaxx) =  3
     Presently no symmetry can be used with electric field

     Message from routine cell_base_init:
     DEPRECATED: use true lattice parameter, not A to a.u. conversion factor

     IMPORTANT: XC functional enforced from input :
     Exchange-correlation= BEEF-VDW
                           (   1   4  43  14   2   0   0)
     Any further DFT definition will be discarded
     Please, verify this is what you really want

  @ DRIVER MODE: Connecting to
 qe_1139763_2767392.sched-torque.pace.gatech.edufkzg8jvv_scratch
  using UNIX socket
  @ DRIVER MODE: Message from server: STATUS
  @ DRIVER MODE: Message from server: INIT
  @ DRIVER MODE: Receiving replica           0          -1
  @ DRIVER MODE: Receiving encoded integer          25
  @ DRIVER MODE:  SCF:  T  FORCE:  T  STRESS:  F  VC:  F  ENSEMBLE:  F
  @ DRIVER MODE:  SCF:  T  FORCE:  T  STRESS:  F  VC:  F  ENSEMBLE:  F

     Using Slab Decomposition

     bravais-lattice index     =            0
     lattice parameter (alat)  =       1.8897  a.u.
     unit-cell volume          =    6658.9804 (a.u.)^3
     number of atoms/cell      =           51
     number of atomic types    =            5
     number of electrons       =       389.00
     number of Kohn-Sham states=          204
     kinetic-energy cutoff     =      29.3995  Ry
     charge density cutoff     =     293.9946  Ry
     scf convergence threshold =      7.3E-08
     mixing beta               =       0.0500
     number of iterations used =            8  plain     mixing
     Exchange-correlation= BEEF-VDW
                           (   1   4  43  14   2   0   0)

     celldm(1)=   1.889726  celldm(2)=   0.000000  celldm(3)=   0.000000
     celldm(4)=   0.000000  celldm(5)=   0.000000  celldm(6)=   0.000000

     crystal axes: (cart. coord. in units of alat)
               a(1) = (   6.579727   0.000000   0.000000 )
               a(2) = (  -0.000775   5.961596   0.000000 )
               a(3) = (   0.000000   0.000000  25.155947 )

     reciprocal axes: (cart. coord. in units 2 pi/alat)
               b(1) = (  0.151982  0.000020  0.000000 )
               b(2) = (  0.000000  0.167740  0.000000 )
               b(3) = (  0.000000  0.000000  0.039752 )

     PseudoPot. # 1 for Ti read from file:
     /storage/coda1/p-amedford6/0/shared/rich_project_chbe-medford/medford-share/data/pseudos_module/espresso/nninc/pbe/van/Ti.UPF
     MD5 check sum: 8e4df49b7f0d34bbd5052bf3f5ea0213
     Pseudo is Ultrasoft, Zval = 12.0
     Generated by new atomic code, or converted to UPF format
     Using radial grid of  851 points,  6 beta functions with:
                l(1) =   0
                l(2) =   0
                l(3) =   1
                l(4) =   1
                l(5) =   2
                l(6) =   2
     Q(r) pseudized with  8 coefficients,  rinner =    1.000   1.000   1.000
                                                       1.000   1.000

     PseudoPot. # 2 for O  read from file:
     /storage/coda1/p-amedford6/0/shared/rich_project_chbe-medford/medford-share/data/pseudos_module/espresso/nninc/pbe/van/O.UPF
     MD5 check sum: 78c19812648e8988a0fe644b0f25305e
     Pseudo is Ultrasoft, Zval =  6.0
     Generated by new atomic code, or converted to UPF format
     Using radial grid of  737 points,  4 beta functions with:
                l(1) =   0
                l(2) =   0
                l(3) =   1
                l(4) =   1
     Q(r) pseudized with  8 coefficients,  rinner =    0.800   0.800   0.800

     PseudoPot. # 3 for N  read from file:
     /storage/coda1/p-amedford6/0/shared/rich_project_chbe-medford/medford-share/data/pseudos_module/espresso/nninc/pbe/van/N.UPF
     MD5 check sum: 90d10febe142ad51ac9d5be1deb811c4
     Pseudo is Ultrasoft, Zval =  5.0
     Generated by new atomic code, or converted to UPF format
     Using radial grid of  729 points,  4 beta functions with:
                l(1) =   0
                l(2) =   0
                l(3) =   1
                l(4) =   1
     Q(r) pseudized with  8 coefficients,  rinner =    0.800   0.800   0.800

     PseudoPot. # 4 for C  read from file:
     /storage/coda1/p-amedford6/0/shared/rich_project_chbe-medford/medford-share/data/pseudos_module/espresso/nninc/pbe/van/C.UPF
     MD5 check sum: 1a69bf6b8db32088f5b2163dbdb77a27
     Pseudo is Ultrasoft, Zval =  4.0
     Generated by new atomic code, or converted to UPF format
     Using radial grid of  721 points,  4 beta functions with:
                l(1) =   0
                l(2) =   0
                l(3) =   1
                l(4) =   1
     Q(r) pseudized with  8 coefficients,  rinner =    0.800   0.800   0.800

     PseudoPot. # 5 for H  read from file:
     /storage/coda1/p-amedford6/0/shared/rich_project_chbe-medford/medford-share/data/pseudos_module/espresso/nninc/pbe/van/H.UPF
     MD5 check sum: b5ee9d7bfd3a09ee7748110bda690ff7
     Pseudo is Ultrasoft, Zval =  1.0
     Generated by new atomic code, or converted to UPF format
     Using radial grid of  615 points,  1 beta functions with:
                l(1) =   0
     Q(r) pseudized with  8 coefficients,  rinner =    0.800

     atomic species   valence    mass     pseudopotential
        Ti1           12.00    47.86700     Ti( 1.00)
        O1             6.00    15.99900     O ( 1.00)
        N1             5.00    14.00700     N ( 1.00)
        C1             4.00    12.01100     C ( 1.00)
        H1             1.00     1.00800     H ( 1.00)

     No symmetry found

   Cartesian axes

     site n.     atom                  positions (alat units)
         1           Ti1 tau(   1) = (   0.0004258   2.9801865   6.0000000  )
         2           Ti1 tau(   2) = (   3.2906075   1.4906267   6.0002472  )
         3           O1  tau(   3) = (   0.0006271   0.0005054   7.9858123  )
         4           O1  tau(   4) = (   3.2906025   0.0005020   7.3038282  )
         5           O1  tau(   5) = (   4.5942328   1.4918067   9.2879030  )
         6           O1  tau(   6) = (   1.9868534   1.4903216   9.2879459  )
         7           Ti1 tau(   7) = (   3.2907910   2.8959150   9.1758416  )
         8           Ti1 tau(   8) = (   0.0015273   1.4827037   9.2680791  )
         9           O1  tau(   9) = (   3.3121109   0.0111249  11.3310253  )
        10           O1  tau(  10) = (   0.0116148   5.9584955  10.6183126  )
        11           O1  tau(  11) = (   1.3329579   1.5011098  12.6063046  )
        12           O1  tau(  12) = (   5.3158149   1.4916659  12.6245769  )
        13           Ti1 tau(  13) = (   6.5431557   2.9598450  12.6156978  )
        14           Ti1 tau(  14) = (   3.2273839   1.5049138  12.4779161  )
        15           O1  tau(  15) = (   0.0471551   0.0364395  14.6528705  )
        16           O1  tau(  16) = (   3.3160098   0.0207640  13.9215624  )
        17           O1  tau(  17) = (   4.5810600   1.5471256  16.0564497  )
        18           O1  tau(  18) = (   2.0947546   1.5446786  16.0656860  )
        19           Ti1 tau(  19) = (   3.3354243   3.0239694  15.7034691  )
        20           Ti1 tau(  20) = (   0.0419518   1.5622418  15.8401859  )
        21           O1  tau(  21) = (   3.2904802   0.0005063   4.7018136  )
        22           O1  tau(  22) = (   0.0415632   0.0558952  17.2248266  )
        23           O1  tau(  23) = (   1.3043587   1.4918075   6.0039043  )
        24           O1  tau(  24) = (   5.2767064   1.4903225   6.0039473  )
        25           Ti1 tau(  25) = (   0.0000382   5.9609847   6.0000000  )
        26           Ti1 tau(  26) = (   3.2902200   4.4714249   6.0002472  )
        27           O1  tau(  27) = (   0.0002396   2.9813036   7.9858123  )
        28           O1  tau(  28) = (   3.2902150   2.9813002   7.3038282  )
        29           O1  tau(  29) = (   4.5938453   4.4726049   9.2879030  )
        30           O1  tau(  30) = (   1.9864658   4.4711199   9.2879459  )
        31           Ti1 tau(  31) = (   3.2891106   5.8743827   9.1763621  )
        32           Ti1 tau(  32) = (   0.0006254   4.4649316   9.2693709  )
        33           O1  tau(  33) = (   3.3101407   2.9955762  11.3294870  )
        34           O1  tau(  34) = (   0.0092240   2.9805883  10.6323155  )
        35           O1  tau(  35) = (   1.3272401   4.4878838  12.6173354  )
        36           O1  tau(  36) = (   5.3164082   4.4812184  12.6342743  )
        37           Ti1 tau(  37) = (   6.5430856   5.9365306  12.5602028  )
        38           Ti1 tau(  38) = (   3.2246414   4.4845729  12.4831641  )
        39           O1  tau(  39) = (   0.0420920   2.9623338  14.6463429  )
        40           O1  tau(  40) = (   3.3182946   3.0055568  13.9055467  )
        41           O1  tau(  41) = (   4.5797692   4.5125808  16.0776662  )
        42           O1  tau(  42) = (   2.0972274   4.5146901  16.0918111  )
        43           Ti1 tau(  43) = (   3.3319946   0.0399457  15.7186693  )
        44           Ti1 tau(  44) = (   0.0407629   4.6953510  16.1098173  )
        45           O1  tau(  45) = (   3.2900926   2.9813045   4.7018136  )
        46           O1  tau(  46) = (   1.3039711   4.4726057   6.0039043  )
        47           O1  tau(  47) = (   5.2763189   4.4711207   6.0039473  )
        48           N1  tau(  48) = (   0.0554023   2.9932257  17.3910969  )
        49           C1  tau(  49) = (   0.1090839   2.9222626  18.6472186  )
        50           H1  tau(  50) = (   0.1325839   3.8204711  19.2773028  )
        51           H1  tau(  51) = (   0.1417253   1.9549180  19.1625725  )

     number of k points=    10  Fermi-Dirac smearing, width (Ry)=  0.0073
                       cart. coord. in units 2pi/alat
        k(    1) = (   0.0000000   0.0000000   0.0000000), wk =   0.1250000
        k(    2) = (   0.0000000   0.0419351   0.0000000), wk =   0.2500000
        k(    3) = (   0.0000000  -0.0838702   0.0000000), wk =   0.1250000
        k(    4) = (   0.0379955   0.0000049   0.0000000), wk =   0.2500000
        k(    5) = (   0.0379955   0.0419400   0.0000000), wk =   0.2500000
        k(    6) = (   0.0379955  -0.0838652   0.0000000), wk =   0.2500000
        k(    7) = (   0.0379955  -0.0419301   0.0000000), wk =   0.2500000
        k(    8) = (  -0.0759910  -0.0000099   0.0000000), wk =   0.1250000
        k(    9) = (  -0.0759910   0.0419252   0.0000000), wk =   0.2500000
        k(   10) = (  -0.0759910  -0.0838800   0.0000000), wk =   0.1250000

     Initial potential from superposition of free atoms

     starting charge  372.99918, renormalised to  389.00000

     negative rho (up, down):  1.813E-02 0.000E+00

     %%%%%%%%%%%%%%%%%%%%%%%%%%%%%%%%%%%%%%%%%%%%%%%%%%%%%%%%%%%%%%%%%%%%%%%%
     %                                                                      %
     % You are using vdW-DF, which was implemented by the Thonhauser group. %
     % Please cite the following two papers that made this development      %
     % possible and the two reviews that describe the various versions:     %
     %                                                                      %
     %   T. Thonhauser et al., PRL 115, 136402 (2015).                      %
     %   T. Thonhauser et al., PRB 76, 125112 (2007).                       %
     %   K. Berland et al., Rep. Prog. Phys. 78, 066501 (2015).             %
     %   D.C. Langreth et al., J. Phys.: Condens. Matter 21, 084203 (2009). %
     %                                                                      %
     %                                                                      %
     % If you are calculating the stress with vdW-DF, please also cite:     %
     %                                                                      %
     %   R. Sabatini et al., J. Phys.: Condens. Matter 24, 424209 (2012).   %
     %                                                                      %
     %%%%%%%%%%%%%%%%%%%%%%%%%%%%%%%%%%%%%%%%%%%%%%%%%%%%%%%%%%%%%%%%%%%%%%%%

     Adding external electric field

     Computed dipole along edir(3) :
        Dipole               -4.6856 Ry au,        -11.9097 Debye
        Dipole field         -0.0088 Ry au,

        Potential amp.        0.8197 Ry
        Total length         46.3494 bohr

     Starting wfcs are  294 atomic wfcs
  @ DRIVER MODE: Message from server: STATUS
  @ DRIVER MODE: Message from server: POSDATA
  @ DRIVER MODE: Reading and sharing cell
  @ DRIVER MODE: Reading and sharing positions
  @ DRIVER MODE: Received positions

     Self-consistent Calculation

     iteration #  1     ecut=    29.40 Ry     beta= 0.05
     Davidson diagonalization with overlap
     c_bands:  3 eigenvalues not converged
     c_bands:  1 eigenvalues not converged
     c_bands:  1 eigenvalues not converged
     c_bands:  3 eigenvalues not converged
     c_bands:  3 eigenvalues not converged
     c_bands:  2 eigenvalues not converged
     c_bands:  2 eigenvalues not converged
     ethr =  1.00E-05,  avg # of iterations = 19.9

[...]

     total energy              =   -2865.79310419 Ry
     estimated scf accuracy    <     594.21279792 Ry

     iteration #  2     ecut=    29.40 Ry     beta= 0.05
     Davidson diagonalization with overlap
     ethr =  1.00E-02,  avg # of iterations = 14.1

[...]

     iteration # 58     ecut=    29.40 Ry     beta= 0.05
     Davidson diagonalization with overlap
     c_bands:  1 eigenvalues not converged
     ethr =  5.90E-11,  avg # of iterations = 14.9

[...]

     total energy              =   -2917.92295584 Ry
     estimated scf accuracy    <       0.00000008 Ry

     iteration # 59     ecut=    29.40 Ry     beta= 0.05
     Davidson diagonalization with overlap
     ethr =  2.06E-11,  avg # of iterations =  2.2

     negative rho (up, down):  1.843E-02 0.000E+00

     Adding external electric field

     Computed dipole along edir(3) :
        Dipole                0.7694 Ry au,          1.9556 Debye
        Dipole field          0.0015 Ry au,

        Potential amp.       -0.1346 Ry
        Total length         46.3494 bohr

     End of self-consistent calculation

          k = 0.0000 0.0000 0.0000 ( 18029 PWs)   bands (ev):

   -55.9943 -55.9849 -55.9603 -55.9486 -55.8716 -55.8418 -55.8217 -55.8074
   -55.8031 -55.7692 -55.7666 -55.7329 -55.5210 -55.2469 -54.9713 -54.9373
   -32.5393 -32.4768 -32.3430 -32.3238 -32.3020 -32.2967 -32.2873 -32.2572
   -32.2369 -32.2117 -32.2048 -32.1827 -32.1651 -32.1464 -32.1381 -32.1248
   -32.1042 -32.0987 -32.0839 -32.0513 -32.0506 -32.0477 -32.0015 -32.0001
   -31.9989 -31.9972 -31.9910 -31.9832 -31.9689 -31.9567 -31.9491 -31.9422
   -31.9335 -31.9332 -31.9198 -31.9106 -31.8788 -31.7707 -31.7029 -31.5360
   -31.5016 -31.4592 -31.3785 -31.2901 -31.2677 -31.1952 -31.1087 -30.9976
   -16.7365 -16.4682 -16.2431 -16.1462 -16.1152 -15.9987 -15.8329 -15.7145
   -15.6634 -15.5654 -15.5518 -15.5303 -15.4964 -15.4657 -15.4637 -15.4374
   -15.4340 -15.4147 -15.4013 -15.3535 -15.3312 -15.2967 -15.1990 -15.1681
   -15.1284 -15.1002 -15.0592 -15.0498 -14.9246 -14.5614 -13.4740 -13.3576
    -7.5584  -4.3321  -4.1141  -4.0028  -3.9490  -3.8997  -3.8408  -3.6341
    -3.5431  -3.5198  -3.2245  -3.1780  -3.1605  -3.1481  -3.1096  -2.8941
    -2.8404  -2.8089  -2.7878  -2.7736  -2.7624  -2.7546  -2.7345  -2.7076
    -2.5943  -2.5384  -2.5353  -2.4121  -2.3844  -2.3276  -2.3063  -2.2593
    -2.2436  -2.2350  -2.2080  -2.1971  -2.1839  -2.1529  -2.0754  -1.9618
    -1.8111  -1.7921  -1.7565  -1.6307  -1.6012  -1.5400  -1.4496  -1.4342
    -1.4196  -1.3855  -1.3683  -1.2968  -1.1710  -1.1468  -1.1372  -1.0365
    -0.9897  -0.9713  -0.8748  -0.8393  -0.7694  -0.7582  -0.7469  -0.7095
    -0.5477  -0.4922  -0.4628  -0.3958  -0.3661  -0.3074  -0.2941  -0.2655
    -0.1831  -0.1309  -0.1107  -0.1043  -0.0556  -0.0194  -0.0026   0.0069
     0.0181   0.0323   0.2047   0.2777   0.2846   0.3637   0.3734   0.5345
     0.5954   0.6629   0.7711   0.9761   1.0505   1.1399   1.2430   1.4377
     1.6218   1.6674   3.1422   3.2258   3.2740   3.2836   3.3849   3.4217
     3.5952   3.6018   3.6161   3.6901

[...]

          k = 0.0380-0.0419 0.0000 ( 17876 PWs)   bands (ev):

[...]

          k =-0.0760-0.0000 0.0000 ( 17886 PWs)   bands (ev):

[...]

          k =-0.0760-0.0839 0.0000 ( 17948 PWs)   bands (ev):

   -55.9776 -55.9769 -55.9694 -55.9639 -55.8646 -55.8286 -55.8249 -55.8242
   -55.7867 -55.7851 -55.7506 -55.7490 -55.5200 -55.2478 -54.9543 -54.9541
   -32.3451 -32.3399 -32.2923 -32.2918 -32.2730 -32.2722 -32.2548 -32.2427
   -32.1947 -32.1885 -32.1823 -32.1755 -32.1387 -32.1204 -32.1154 -32.1141
   -32.1048 -32.0989 -32.0970 -32.0962 -32.0897 -32.0871 -32.0680 -32.0439
   -32.0404 -32.0299 -32.0203 -32.0067 -31.9856 -31.9852 -31.9823 -31.9808
   -31.9653 -31.9645 -31.9609 -31.9578 -31.8831 -31.7733 -31.6991 -31.6015
   -31.5032 -31.4800 -31.2805 -31.2804 -31.1913 -31.1911 -31.1520 -31.1519
   -16.1688 -16.1495 -15.9378 -15.9106 -15.9056 -15.8942 -15.7659 -15.7053
   -15.6889 -15.6870 -15.6081 -15.5863 -15.5650 -15.5375 -15.5258 -15.5135
   -15.5074 -15.4988 -15.4557 -15.4496 -15.4301 -15.4230 -15.3201 -15.3105
   -15.3065 -15.2507 -15.1770 -15.0382 -14.9417 -14.7295 -13.4594 -13.4593
    -7.5543  -4.3142  -3.6882  -3.4592  -3.4365  -3.1680  -3.1509  -3.1420
    -3.0819  -2.9092  -2.8933  -2.8702  -2.8493  -2.8207  -2.8189  -2.7977
    -2.7956  -2.7847  -2.7405  -2.7333  -2.7077  -2.6710  -2.6608  -2.6493
    -2.6407  -2.6169  -2.6065  -2.5647  -2.5352  -2.5279  -2.5131  -2.4895
    -2.3040  -2.2212  -2.1948  -2.1316  -2.1242  -2.0893  -2.0580  -2.0460
    -2.0299  -1.9794  -1.9014  -1.7271  -1.6942  -1.6761  -1.6183  -1.5896
    -1.5488  -1.4626  -1.3946  -1.3699  -1.3640  -1.3154  -1.2067  -1.1850
    -1.1711  -1.0975  -1.0623  -1.0438  -1.0026  -0.9875  -0.9545  -0.9491
    -0.8555  -0.8062  -0.7595  -0.7572  -0.7116  -0.6453  -0.6323  -0.6048
    -0.4959  -0.4769  -0.4053  -0.3782  -0.2764  -0.2076  -0.0103   0.0520
     0.0775   0.1359   0.2161   0.2971   0.3115   0.3254   0.3257   0.3732
     0.4421   0.5384   0.5478   0.6013   0.7060   1.3317   1.4143   1.4149
     1.4872   1.4873   3.4281   3.4379   3.4771   3.4990   3.6351   3.6506
     3.6735   3.6746   3.7298   3.8126

     the Fermi energy is     3.1399 ev

!    total energy              =   -2917.92299913 Ry
     estimated scf accuracy    <       0.00000006 Ry
     smearing contrib. (-TS)   =      -0.02181411 Ry
     internal energy E=F+TS    =   -2917.90118502 Ry

     The total energy is F=E-TS. E is the sum of the following terms:
     one-electron contribution =  -24778.20903079 Ry
     hartree contribution      =   12472.76780313 Ry
     xc contribution           =    -479.18523049 Ry
     ewald contribution        =    9866.72415597 Ry
     electric field correction =       0.00111716 Ry

     convergence has been achieved in  59 iterations

     Forces acting on atoms (cartesian axes, Ry/au):

     atom    1 type  1   force =     0.00017267   -0.00023777    0.09669872
     atom    2 type  1   force =     0.00007075   -0.00053518   -0.17540049
     atom    3 type  2   force =     0.00018071    0.00000513   -0.02480838
     atom    4 type  2   force =     0.00005750   -0.00133348    0.05290500
     atom    5 type  2   force =    -0.01178469    0.00012854    0.00257780
     atom    6 type  2   force =     0.01395415    0.00051584    0.00337968
     atom    7 type  1   force =     0.00129379    0.00070839   -0.01176178
     atom    8 type  1   force =    -0.00005509    0.00766451    0.02821712
     atom    9 type  2   force =    -0.00024147   -0.00024023   -0.00012666
     atom   10 type  2   force =    -0.00220630    0.00207196   -0.01527844
     atom   11 type  2   force =    -0.00000103   -0.00009261    0.00022632
     atom   12 type  2   force =    -0.00003164    0.00014358   -0.00006095
     atom   13 type  1   force =    -0.00104494   -0.00025283   -0.00001594
     atom   14 type  1   force =    -0.00023144   -0.00026266    0.00059076
     atom   15 type  2   force =    -0.00031190   -0.00002239   -0.00021058
     atom   16 type  2   force =     0.00025280    0.00007560   -0.00052834
     atom   17 type  2   force =     0.00001538    0.00005593   -0.00025274
     atom   18 type  2   force =    -0.00017491    0.00033143   -0.00050300
     atom   19 type  1   force =    -0.00060499    0.00011073   -0.00033036
     atom   20 type  1   force =     0.00008620   -0.00100536    0.00022597
     atom   21 type  2   force =     0.00008873   -0.00004933    0.10326197
     atom   22 type  2   force =     0.00045406   -0.00026345   -0.00000853
     atom   23 type  2   force =    -0.07149770   -0.00015922   -0.02768878
     atom   24 type  2   force =     0.07148963    0.00033088   -0.02777423
     atom   25 type  1   force =     0.00018504   -0.00022795    0.09620722
     atom   26 type  1   force =     0.00011293   -0.00029161   -0.17553877
     atom   27 type  2   force =     0.00022276   -0.00011772   -0.02389063
     atom   28 type  2   force =     0.00008952   -0.00110224    0.05285002
     atom   29 type  2   force =    -0.01198943    0.00068284    0.00232858
     atom   30 type  2   force =     0.01402251    0.00103274    0.00317976
     atom   31 type  1   force =     0.00114171    0.00334968   -0.01208473
     atom   32 type  1   force =    -0.00024608   -0.00974301    0.02865185
     atom   33 type  2   force =    -0.00017550    0.00031756   -0.00010194
     atom   34 type  2   force =    -0.00172806    0.00175448   -0.02356857
     atom   35 type  2   force =    -0.00000397    0.00009336    0.00022900
     atom   36 type  2   force =     0.00056024    0.00012205    0.00021197
     atom   37 type  1   force =    -0.00098938   -0.00038799    0.00026248
     atom   38 type  1   force =     0.00023143   -0.00012087    0.00052492
     atom   39 type  2   force =    -0.00006293   -0.00054315   -0.00073733
     atom   40 type  2   force =    -0.00004445    0.00025691    0.00047037
     atom   41 type  2   force =    -0.00065629   -0.00046626   -0.00016726
     atom   42 type  2   force =    -0.00011086   -0.00073706   -0.00074072
     atom   43 type  1   force =    -0.00045351    0.00001051   -0.00009889
     atom   44 type  1   force =     0.00014570    0.00029894    0.00043109
     atom   45 type  2   force =     0.00006626   -0.00006786    0.10327333
     atom   46 type  2   force =    -0.07150086   -0.00008304   -0.02770364
     atom   47 type  2   force =     0.07151574    0.00033801   -0.02778221
     atom   48 type  3   force =     0.00055230   -0.00055246    0.00025453
     atom   49 type  4   force =     0.00024329   -0.00050971   -0.00030179
     atom   50 type  5   force =    -0.00042744   -0.00029672   -0.00001558
     atom   51 type  5   force =    -0.00063094   -0.00069745    0.00052284

     Total force =     0.367994     Total SCF correction =     0.000742
  @ DRIVER MODE: Message from server: STATUS
  @ DRIVER MODE: Message from server: GETFORCE
  @ DRIVER MODE: Returning v,forces,stress,ensemble

     Writing output data file ./calc.save/
  @ DRIVER MODE: Message from server: EXIT
  @ DRIVE MODE: Exiting

     General routines

     Parallel routines

   This run was terminated on:   1:46: 7   9Sep2021

   JOB DONE.