     Program PWSCF v.6.7GPU starts on 18Oct2021 at 22:49:50

     R & G space division:  proc/nbgrp/npool/nimage =       8
     Reading input from /storage/home/hcoda1/3/ntian30/research/carbon/CxH_vib/Thiel_calc/ads_slab/NH2NH2_perslab/out_0026/pw.inp
Warning: card &CELL ignored
Warning: card   CELL_DYNAMICS='IPI', ignored
Warning: card / ignored

     Current dimensions of program PWSCF are:
     Max number of different atomic species (ntypx) = 10
     Max number of k-points (npk) =  40000
     Max angular momentum in pseudopotentials (lmaxx) =  3
     Presently no symmetry can be used with electric field

     Message from routine cell_base_init:
     DEPRECATED: use true lattice parameter, not A to a.u. conversion factor

     IMPORTANT: XC functional enforced from input :
     Exchange-correlation= BEEF-VDW
                           (   1   4  43  14   2   0   0)
     Any further DFT definition will be discarded
     Please, verify this is what you really want

  @ DRIVER MODE: Connecting to
 qe_1139763_3255136.sched-torque.pace.gatech.eduheme5ihi_scratch
  using UNIX socket
  @ DRIVER MODE: Message from server: STATUS
  @ DRIVER MODE: Message from server: INIT
  @ DRIVER MODE: Receiving replica           0          -1
  @ DRIVER MODE: Receiving encoded integer          25
  @ DRIVER MODE:  SCF:  T  FORCE:  T  STRESS:  F  VC:  F  ENSEMBLE:  F
  @ DRIVER MODE:  SCF:  T  FORCE:  T  STRESS:  F  VC:  F  ENSEMBLE:  F

     Using Slab Decomposition

     bravais-lattice index     =            0
     lattice parameter (alat)  =       1.8897  a.u.
     unit-cell volume          =    9988.4706 (a.u.)^3
     number of atoms/cell      =           59
     number of atomic types    =            4
     number of electrons       =       440.00
     number of Kohn-Sham states=          230
     kinetic-energy cutoff     =      29.3995  Ry
     charge density cutoff     =     293.9946  Ry
     scf convergence threshold =      7.3E-08
     mixing beta               =       0.0500
     number of iterations used =            8  plain     mixing
     Exchange-correlation= BEEF-VDW
                           (   1   4  43  14   2   0   0)

     celldm(1)=   1.889726  celldm(2)=   0.000000  celldm(3)=   0.000000
     celldm(4)=   0.000000  celldm(5)=   0.000000  celldm(6)=   0.000000

     crystal axes: (cart. coord. in units of alat)
               a(1) = (   6.579727   0.000000   0.000000 )
               a(2) = (  -0.001163   8.942395   0.000000 )
               a(3) = (   0.000000   0.000000  25.155947 )

     reciprocal axes: (cart. coord. in units 2 pi/alat)
               b(1) = (  0.151982  0.000020  0.000000 )
               b(2) = (  0.000000  0.111827  0.000000 )
               b(3) = (  0.000000  0.000000  0.039752 )

     PseudoPot. # 1 for O  read from file:
     /storage/coda1/p-amedford6/0/shared/rich_project_chbe-medford/medford-share/data/pseudos_module/espresso/nninc/pbe/van/O.UPF
     MD5 check sum: 78c19812648e8988a0fe644b0f25305e
     Pseudo is Ultrasoft, Zval =  6.0
     Generated by new atomic code, or converted to UPF format
     Using radial grid of  737 points,  4 beta functions with:
                l(1) =   0
                l(2) =   0
                l(3) =   1
                l(4) =   1
     Q(r) pseudized with  8 coefficients,  rinner =    0.800   0.800   0.800

     PseudoPot. # 2 for Ti read from file:
     /storage/coda1/p-amedford6/0/shared/rich_project_chbe-medford/medford-share/data/pseudos_module/espresso/nninc/pbe/van/Ti.UPF
     MD5 check sum: 8e4df49b7f0d34bbd5052bf3f5ea0213
     Pseudo is Ultrasoft, Zval = 12.0
     Generated by new atomic code, or converted to UPF format
     Using radial grid of  851 points,  6 beta functions with:
                l(1) =   0
                l(2) =   0
                l(3) =   1
                l(4) =   1
                l(5) =   2
                l(6) =   2
     Q(r) pseudized with  8 coefficients,  rinner =    1.000   1.000   1.000
                                                       1.000   1.000

     PseudoPot. # 3 for N  read from file:
     /storage/coda1/p-amedford6/0/shared/rich_project_chbe-medford/medford-share/data/pseudos_module/espresso/nninc/pbe/van/N.UPF
     MD5 check sum: 90d10febe142ad51ac9d5be1deb811c4
     Pseudo is Ultrasoft, Zval =  5.0
     Generated by new atomic code, or converted to UPF format
     Using radial grid of  729 points,  4 beta functions with:
                l(1) =   0
                l(2) =   0
                l(3) =   1
                l(4) =   1
     Q(r) pseudized with  8 coefficients,  rinner =    0.800   0.800   0.800

     PseudoPot. # 4 for H  read from file:
     /storage/coda1/p-amedford6/0/shared/rich_project_chbe-medford/medford-share/data/pseudos_module/espresso/nninc/pbe/van/H.UPF
     MD5 check sum: b5ee9d7bfd3a09ee7748110bda690ff7
     Pseudo is Ultrasoft, Zval =  1.0
     Generated by new atomic code, or converted to UPF format
     Using radial grid of  615 points,  1 beta functions with:
                l(1) =   0
     Q(r) pseudized with  8 coefficients,  rinner =    0.800

     atomic species   valence    mass     pseudopotential
        O1             6.00    15.99900     O ( 1.00)
        Ti1           12.00    47.86700     Ti( 1.00)
        N1             5.00    14.00700     N ( 1.00)
        H1             1.00     1.00800     H ( 1.00)

     No symmetry found

   Cartesian axes

     site n.     atom                  positions (alat units)
         1           O1  tau(   1) = (   0.0007354   0.0005023  10.5931620  )
         2           O1  tau(   2) = (   3.2892726   8.9022636  13.7900476  )
         3           O1  tau(   3) = (  -0.0000012   0.0159539  17.0845323  )
         4           O1  tau(   4) = (   0.0006271   0.0005054   7.9858123  )
         5           O1  tau(   5) = (   3.2903981   0.0001071  11.1466942  )
         6           O1  tau(   6) = (   6.5796972   0.0370899  14.4522764  )
         7           O1  tau(   7) = (   1.9868534   1.4903216   9.2879459  )
         8           O1  tau(   8) = (   5.2071659   1.5879261  12.5336177  )
         9           O1  tau(   9) = (   2.0150580   1.5800225  15.9505780  )
        10           Ti1 tau(  10) = (   0.0007404   1.4906270   9.2895810  )
        11           Ti1 tau(  11) = (   3.2907621   1.2831726  12.4565622  )
        12           Ti1 tau(  12) = (   6.5792216   1.1939559  15.8009323  )
        13           O1  tau(  13) = (   4.5942328   1.4918067   9.2879030  )
        14           O1  tau(  14) = (   1.3733293   1.5875306  12.5337771  )
        15           O1  tau(  15) = (   4.5635363   1.5794237  15.9511286  )
        16           Ti1 tau(  16) = (   3.2902859   2.9801868   9.2893338  )
        17           Ti1 tau(  17) = (   0.0006963   2.7899128  12.4910476  )
        18           Ti1 tau(  18) = (   3.2889055   2.8853182  15.6510148  )
        19           O1  tau(  19) = (   0.0003479   2.9813005  10.5931620  )
        20           O1  tau(  20) = (   3.2901137   2.9323735  13.8075185  )
        21           O1  tau(  21) = (   0.0002396   2.9813036   7.9858123  )
        22           O1  tau(  22) = (   3.2901566   2.9796509  11.1657827  )
        23           O1  tau(  23) = (  -0.0001005   3.0518452  14.6148139  )
        24           O1  tau(  24) = (   1.9864658   4.4711199   9.2879459  )
        25           O1  tau(  25) = (   5.2244327   4.5330399  12.5550231  )
        26           O1  tau(  26) = (   2.0317078   4.4891842  16.0144209  )
        27           Ti1 tau(  27) = (   0.0003529   4.4714252   9.2895810  )
        28           Ti1 tau(  28) = (   3.2908221   4.3047718  12.5439168  )
        29           Ti1 tau(  29) = (   0.0007318   4.2809743  15.9563396  )
        30           O1  tau(  30) = (   4.5938453   4.4726049   9.2879030  )
        31           O1  tau(  31) = (   1.3553747   4.5324408  12.5551093  )
        32           O1  tau(  32) = (   4.5484712   4.4888783  16.0159471  )
        33           Ti1 tau(  33) = (   3.2898983   5.9609850   9.2893338  )
        34           Ti1 tau(  34) = (   0.0004637   5.7541984  12.5654138  )
        35           Ti1 tau(  35) = (   3.2913524   5.8154114  16.2798070  )
        36           O1  tau(  36) = (  -0.0000397   5.9620987  10.5931620  )
        37           O1  tau(  37) = (   3.2897947   5.8994426  13.7907643  )
        38           O1  tau(  38) = (   0.0001798   5.9238570  17.1594641  )
        39           O1  tau(  39) = (  -0.0001480   5.9621018   7.9858123  )
        40           O1  tau(  40) = (   3.2896433   5.9245955  11.1661191  )
        41           O1  tau(  41) = (   0.0000838   5.9808129  14.5563373  )
        42           O1  tau(  42) = (   1.9860782   7.4519181   9.2879459  )
        43           O1  tau(  43) = (   5.2244350   7.5051086  12.5363475  )
        44           O1  tau(  44) = (   2.0177701   7.5673364  15.9764862  )
        45           Ti1 tau(  45) = (  -0.0000347   7.4522234   9.2895810  )
        46           Ti1 tau(  46) = (   3.2896674   7.1828241  12.5854878  )
        47           Ti1 tau(  47) = (   0.0003403   7.2137487  16.0183084  )
        48           O1  tau(  48) = (   4.5934577   7.4534031   9.2879030  )
        49           O1  tau(  49) = (   1.3543201   7.5047529  12.5365769  )
        50           O1  tau(  50) = (   4.5609347   7.5656990  15.9757490  )
        51           Ti1 tau(  51) = (   3.2895107   8.9417832   9.2893338  )
        52           Ti1 tau(  52) = (  -0.0005834   8.7067995  12.4790564  )
        53           Ti1 tau(  53) = (   3.2900135   8.8028796  15.6464995  )
        54           N1  tau(  54) = (   3.2900669   5.9334594  18.1702238  )
        55           H1  tau(  55) = (   3.2900466   5.1481598  18.8081281  )
        56           H1  tau(  56) = (   3.2872703   6.8047138  18.6863891  )
        57           N1  tau(  57) = (   0.0002662   3.1405291  17.5522950  )
        58           H1  tau(  58) = (   0.0107553   2.2326612  18.0099153  )
        59           H1  tau(  59) = (   6.5771877   3.8386968  18.2941669  )

     number of k points=    10  Fermi-Dirac smearing, width (Ry)=  0.0073
                       cart. coord. in units 2pi/alat
        k(    1) = (   0.0000000   0.0000000   0.0000000), wk =   0.1250000
        k(    2) = (   0.0000000   0.0279567   0.0000000), wk =   0.2500000
        k(    3) = (   0.0000000  -0.0559134   0.0000000), wk =   0.1250000
        k(    4) = (   0.0379955   0.0000049   0.0000000), wk =   0.2500000
        k(    5) = (   0.0379955   0.0279617   0.0000000), wk =   0.2500000
        k(    6) = (   0.0379955  -0.0559085   0.0000000), wk =   0.2500000
        k(    7) = (   0.0379955  -0.0279518   0.0000000), wk =   0.2500000
        k(    8) = (  -0.0759910  -0.0000099   0.0000000), wk =   0.1250000
        k(    9) = (  -0.0759910   0.0279468   0.0000000), wk =   0.2500000
        k(   10) = (  -0.0759910  -0.0559233   0.0000000), wk =   0.1250000

     Initial potential from superposition of free atoms

     starting charge  421.99910, renormalised to  440.00000

     negative rho (up, down):  3.741E-02 0.000E+00

     %%%%%%%%%%%%%%%%%%%%%%%%%%%%%%%%%%%%%%%%%%%%%%%%%%%%%%%%%%%%%%%%%%%%%%%%
     %                                                                      %
     % You are using vdW-DF, which was implemented by the Thonhauser group. %
     % Please cite the following two papers that made this development      %
     % possible and the two reviews that describe the various versions:     %
     %                                                                      %
     %   T. Thonhauser et al., PRL 115, 136402 (2015).                      %
     %   T. Thonhauser et al., PRB 76, 125112 (2007).                       %
     %   K. Berland et al., Rep. Prog. Phys. 78, 066501 (2015).             %
     %   D.C. Langreth et al., J. Phys.: Condens. Matter 21, 084203 (2009). %
     %                                                                      %
     %                                                                      %
     % If you are calculating the stress with vdW-DF, please also cite:     %
     %                                                                      %
     %   R. Sabatini et al., J. Phys.: Condens. Matter 24, 424209 (2012).   %
     %                                                                      %
     %%%%%%%%%%%%%%%%%%%%%%%%%%%%%%%%%%%%%%%%%%%%%%%%%%%%%%%%%%%%%%%%%%%%%%%%

     Adding external electric field

     Computed dipole along edir(3) :
        Dipole               -3.9767 Ry au,        -10.1078 Debye
        Dipole field         -0.0050 Ry au,

        Potential amp.        0.4638 Ry
        Total length         46.3494 bohr

     Starting wfcs are  332 atomic wfcs
  @ DRIVER MODE: Message from server: STATUS
  @ DRIVER MODE: Message from server: POSDATA
  @ DRIVER MODE: Reading and sharing cell
  @ DRIVER MODE: Reading and sharing positions
  @ DRIVER MODE: Received positions

     Self-consistent Calculation

     iteration #  1     ecut=    29.40 Ry     beta= 0.05
     Davidson diagonalization with overlap
     c_bands:  1 eigenvalues not converged
     c_bands:  2 eigenvalues not converged
     c_bands:  3 eigenvalues not converged
     c_bands:  4 eigenvalues not converged
     c_bands:  1 eigenvalues not converged
     c_bands:  4 eigenvalues not converged
     c_bands:  4 eigenvalues not converged
     c_bands:  3 eigenvalues not converged
     c_bands:  3 eigenvalues not converged
     ethr =  1.00E-05,  avg # of iterations = 19.2

[...]

     total energy              =   -3293.79815766 Ry
     estimated scf accuracy    <      28.14880220 Ry

     iteration #  2     ecut=    29.40 Ry     beta= 0.05
     Davidson diagonalization with overlap
     ethr =  6.40E-03,  avg # of iterations =  1.0

[...]

     iteration # 17     ecut=    29.40 Ry     beta= 0.05
     Davidson diagonalization with overlap
     c_bands:  1 eigenvalues not converged
     c_bands:  1 eigenvalues not converged
     c_bands:  1 eigenvalues not converged
     ethr =  1.73E-05,  avg # of iterations = 15.2

[...]

     total energy              =   -3293.29562153 Ry
     estimated scf accuracy    <       0.00000027 Ry

     iteration # 57     ecut=    29.40 Ry     beta= 0.05
     Davidson diagonalization with overlap
     ethr =  1.72E-11,  avg # of iterations =  5.3

     negative rho (up, down):  3.610E-02 0.000E+00

     Adding external electric field

     Computed dipole along edir(3) :
        Dipole                0.9487 Ry au,          2.4112 Debye
        Dipole field          0.0012 Ry au,

        Potential amp.       -0.1106 Ry
        Total length         46.3494 bohr

     End of self-consistent calculation

          k = 0.0000 0.0000 0.0000 ( 26871 PWs)   bands (ev):

   -58.4698 -58.4463 -58.4403 -58.4027 -58.3577 -58.0052 -57.9661 -57.9630
   -57.8790 -57.7592 -57.6861 -57.5724 -57.4750 -57.2235 -57.1425 -57.0725
   -57.0323 -57.0194 -34.8705 -34.8350 -34.8078 -34.7914 -34.7880 -34.7816
   -34.7329 -34.6724 -34.6453 -34.5946 -34.5821 -34.5794 -34.5736 -34.5519
   -34.5067 -34.4069 -34.3711 -34.3457 -34.3223 -34.3178 -34.2735 -34.2405
   -34.2285 -34.2241 -34.1893 -34.1865 -34.1538 -34.0567 -34.0453 -33.9868
   -33.9831 -33.9540 -33.8985 -33.8830 -33.8635 -33.8044 -33.7407 -33.7264
   -33.6846 -33.6719 -33.5819 -33.4613 -33.4478 -33.4169 -33.4153 -33.3802
   -33.3744 -33.3700 -33.3550 -33.3447 -33.2764 -33.2119 -33.1908 -33.0708
   -19.0219 -18.5588 -18.5001 -18.3505 -18.3015 -18.2812 -18.2750 -18.1243
   -17.9076 -17.8622 -17.8479 -17.8267 -17.7438 -17.7237 -17.7078 -17.6860
   -17.6708 -17.6500 -17.5613 -17.5558 -17.5348 -17.5103 -17.4904 -17.4357
   -17.3762 -17.3545 -17.2667 -17.1917 -17.1514 -16.9285 -16.6713 -16.5921
   -15.5383 -15.4971 -15.4887 -15.2741 -15.1459  -6.7507  -6.5937  -6.3568
    -6.1625  -5.9503  -5.8142  -5.6965  -5.6432  -5.5620  -5.4961  -5.4584
    -5.4563  -5.3956  -5.3488  -5.2548  -5.2486  -5.1566  -5.1070  -5.0907
    -5.0614  -5.0125  -4.9664  -4.9209  -4.9055  -4.8444  -4.8006  -4.7904
    -4.7409  -4.6792  -4.6754  -4.6550  -4.6529  -4.6187  -4.5847  -4.4636
    -4.4603  -4.4153  -4.3519  -4.3005  -4.2633  -4.2228  -4.1897  -4.1891
    -4.1724  -4.1282  -4.0933  -3.9214  -3.8680  -3.8299  -3.7977  -3.7194
    -3.6520  -3.5948  -3.5594  -3.5165  -3.4280  -3.3591  -3.3514  -3.3426
    -3.2762  -3.2329  -3.1954  -3.1641  -3.1455  -3.0825  -3.0298  -3.0295
    -2.9881  -2.9716  -2.9574  -2.9118  -2.8572  -2.8334  -2.8311  -2.7919
    -2.7851  -2.7428  -2.6453  -2.6160  -2.5554  -2.5171  -2.4623  -2.4145
    -2.4084  -2.3736  -2.3362  -2.2678  -2.1757  -2.1255  -1.9947  -1.9898
    -1.9121  -1.9019  -1.8354  -1.8070  -1.7907  -1.7438  -1.7164  -1.6023
    -1.5265  -1.4079  -1.1941  -0.9901  -0.8441  -0.7650  -0.7504  -0.7065
    -0.5674  -0.5483  -0.4628  -0.4516   0.8062   0.9417   1.1015   1.1194
     1.3193   1.4481   1.4662   1.5086   1.5657   1.6959

[...]

          k = 0.0380-0.0280 0.0000 ( 26873 PWs)   bands (ev):

[...]

          k =-0.0760-0.0000 0.0000 ( 26902 PWs)   bands (ev):

[...]

          k =-0.0760-0.0559 0.0000 ( 26868 PWs)   bands (ev):

   -58.4639 -58.4578 -58.4346 -58.4025 -58.3579 -58.0051 -57.9662 -57.9629
   -57.8789 -57.7594 -57.6859 -57.5723 -57.4750 -57.2236 -57.1424 -57.0712
   -57.0363 -57.0167 -34.8985 -34.8828 -34.8386 -34.8102 -34.7789 -34.6883
   -34.6718 -34.6234 -34.6169 -34.6048 -34.6024 -34.5912 -34.5767 -34.5552
   -34.5537 -34.4351 -34.3790 -34.3590 -34.3444 -34.3242 -34.2560 -34.2227
   -34.2190 -34.1887 -34.1801 -34.1640 -34.1176 -34.0645 -34.0567 -34.0303
   -33.9906 -33.9743 -33.9032 -33.8974 -33.8760 -33.7894 -33.7405 -33.7043
   -33.6827 -33.6578 -33.5699 -33.4812 -33.4518 -33.4506 -33.4185 -33.4163
   -33.3854 -33.3668 -33.3654 -33.2682 -33.2334 -33.1825 -33.1806 -33.1518
   -18.8088 -18.6602 -18.4147 -18.3161 -18.1529 -18.1056 -18.0526 -18.0423
   -18.0364 -17.9407 -17.9234 -17.8790 -17.8724 -17.8225 -17.7978 -17.7862
   -17.7792 -17.7474 -17.6803 -17.6241 -17.5386 -17.4464 -17.4340 -17.4181
   -17.4115 -17.3323 -17.2340 -17.1885 -17.1512 -16.9514 -16.6809 -16.5540
   -15.5501 -15.5369 -15.4274 -15.2692 -15.1468  -6.7464  -6.6048  -6.1207
    -5.9256  -5.8939  -5.8529  -5.5355  -5.4924  -5.3880  -5.3590  -5.3553
    -5.3281  -5.2839  -5.2455  -5.1903  -5.1551  -5.1373  -5.1287  -5.1111
    -5.0842  -5.0363  -5.0113  -4.9688  -4.9636  -4.9484  -4.9184  -4.8953
    -4.8462  -4.8371  -4.7657  -4.7561  -4.7220  -4.5276  -4.4736  -4.4115
    -4.3623  -4.2962  -4.2468  -4.1893  -4.1888  -4.1067  -4.1020  -4.0379
    -3.9779  -3.8913  -3.8109  -3.8032  -3.7805  -3.7524  -3.7195  -3.6869
    -3.6637  -3.6434  -3.6039  -3.5559  -3.5182  -3.4448  -3.4121  -3.4059
    -3.3650  -3.3458  -3.3346  -3.3305  -3.3139  -3.2102  -3.2030  -3.1431
    -3.1092  -3.1037  -3.0336  -3.0273  -2.9761  -2.9503  -2.8810  -2.8442
    -2.8340  -2.7454  -2.7380  -2.7343  -2.6526  -2.6431  -2.5431  -2.5098
    -2.4252  -2.3003  -2.1802  -2.1785  -2.1691  -2.0476  -2.0456  -2.0338
    -1.9898  -1.9270  -1.9024  -1.7195  -1.7162  -1.6710  -1.6007  -1.5793
    -1.5551  -1.5403  -1.4240  -1.4023  -0.9976  -0.7161  -0.6824  -0.6774
    -0.6437  -0.6149  -0.5817  -0.5728   0.8578   1.0183   1.0962   1.1617
     1.1874   1.2312   1.2629   1.4375   1.4999   1.5064

     the Fermi energy is     0.2186 ev

!    total energy              =   -3293.29567321 Ry
     estimated scf accuracy    <       0.00000004 Ry
     smearing contrib. (-TS)   =      -0.00052630 Ry
     internal energy E=F+TS    =   -3293.29514691 Ry

     The total energy is F=E-TS. E is the sum of the following terms:
     one-electron contribution =  -34586.25335296 Ry
     hartree contribution      =   17354.95985326 Ry
     xc contribution           =    -542.07656260 Ry
     ewald contribution        =   14480.07378318 Ry
     electric field correction =       0.00113222 Ry

     convergence has been achieved in  57 iterations

     Forces acting on atoms (cartesian axes, Ry/au):

     atom    1 type  1   force =    -0.00000762    0.00891432    0.04220172
     atom    2 type  1   force =     0.00001963   -0.00249200   -0.00298306
     atom    3 type  1   force =     0.00002143   -0.00630691   -0.00112625
     atom    4 type  1   force =     0.00004760    0.00395135    0.10168709
     atom    5 type  1   force =     0.00002068   -0.00059538    0.00717952
     atom    6 type  1   force =    -0.00003184    0.00085636    0.00283531
     atom    7 type  1   force =     0.07635488    0.00119792   -0.03509893
     atom    8 type  1   force =     0.00753640   -0.02412952    0.00123251
     atom    9 type  1   force =     0.00780418   -0.02072035    0.00183379
     atom   10 type  2   force =    -0.00003515   -0.00384459   -0.16974543
     atom   11 type  2   force =    -0.00011248    0.02225191   -0.00322901
     atom   12 type  2   force =    -0.00020056    0.02021277   -0.00569514
     atom   13 type  1   force =    -0.07644849    0.00074508   -0.03505020
     atom   14 type  1   force =    -0.00761457   -0.02400532    0.00122763
     atom   15 type  1   force =    -0.00790663   -0.02081904    0.00170140
     atom   16 type  2   force =     0.00010281    0.00207649    0.07522277
     atom   17 type  2   force =     0.00020677    0.02912095    0.00187076
     atom   18 type  2   force =     0.00000922    0.02415359    0.00016163
     atom   19 type  1   force =     0.00000492    0.00222772    0.05609524
     atom   20 type  1   force =     0.00000059   -0.00075248   -0.00270554
     atom   21 type  1   force =     0.00004788   -0.00273792    0.10232600
     atom   22 type  1   force =     0.00000928   -0.00165797    0.00633546
     atom   23 type  1   force =     0.00002408   -0.00391971    0.00176887
     atom   24 type  1   force =     0.07835073   -0.00055687   -0.03677715
     atom   25 type  1   force =     0.00978155   -0.02949279   -0.00097217
     atom   26 type  1   force =     0.01106376   -0.02685432   -0.00660111
     atom   27 type  2   force =    -0.00005759    0.01458707   -0.15613161
     atom   28 type  2   force =    -0.00013153    0.02624126   -0.00047669
     atom   29 type  2   force =    -0.00002053    0.02326584    0.00312177
     atom   30 type  1   force =    -0.07844625   -0.00098613   -0.03672588
     atom   31 type  1   force =    -0.00984781   -0.02934511   -0.00097342
     atom   32 type  1   force =    -0.01087623   -0.02690922   -0.00662530
     atom   33 type  2   force =     0.00010260   -0.00383310    0.07802403
     atom   34 type  2   force =     0.00019788    0.03435077    0.00328539
     atom   35 type  2   force =    -0.00014150    0.03155479    0.00676593
     atom   36 type  1   force =     0.00001833    0.00148720    0.05145679
     atom   37 type  1   force =     0.00002516   -0.00165824   -0.00238578
     atom   38 type  1   force =    -0.00006150   -0.00346572    0.00003445
     atom   39 type  1   force =     0.00004914    0.00037393    0.09994741
     atom   40 type  1   force =     0.00001713   -0.00069060    0.00653205
     atom   41 type  1   force =     0.00001959   -0.00091710    0.00423546
     atom   42 type  1   force =     0.07942906    0.00172171   -0.03466639
     atom   43 type  1   force =     0.00606728   -0.02325967    0.00044156
     atom   44 type  1   force =     0.00712078   -0.02150346    0.00387311
     atom   45 type  2   force =    -0.00005578   -0.01583311   -0.15541271
     atom   46 type  2   force =    -0.00011027    0.01694957    0.00086611
     atom   47 type  2   force =     0.00002532    0.02049663   -0.00089634
     atom   48 type  1   force =    -0.07952044    0.00128285   -0.03461355
     atom   49 type  1   force =    -0.00617955   -0.02314308    0.00043187
     atom   50 type  1   force =    -0.00699029   -0.02152626    0.00386638
     atom   51 type  2   force =     0.00008372   -0.00446948    0.06173464
     atom   52 type  2   force =     0.00020064    0.02907531    0.00061722
     atom   53 type  2   force =    -0.00009253    0.02937550    0.00014873
     atom   54 type  3   force =     0.00001025    0.00162088   -0.00123242
     atom   55 type  4   force =     0.00003206   -0.00045470    0.00024973
     atom   56 type  4   force =    -0.00005030   -0.00007756   -0.00008061
     atom   57 type  3   force =     0.00033154   -0.00127605    0.00121591
     atom   58 type  4   force =     0.00005919    0.00193751   -0.00063049
     atom   59 type  4   force =    -0.00025664   -0.00179553    0.00030695

     Total force =     0.439094     Total SCF correction =     0.000640
  @ DRIVER MODE: Message from server: STATUS
  @ DRIVER MODE: Message from server: GETFORCE
  @ DRIVER MODE: Returning v,forces,stress,ensemble

     Writing output data file ./calc.save/
  @ DRIVER MODE: Message from server: EXIT
  @ DRIVE MODE: Exiting

     General routines

     Parallel routines

   This run was terminated on:  23:16:59  18Oct2021

   JOB DONE.