     Program PWSCF v.6.7GPU starts on 15Jul2021 at 20:22:43

     R & G space division:  proc/nbgrp/npool/nimage =      16
     Reading input from /storage/home/hcoda1/3/ntian30/research/carbon/15Jul_vib/ads_slab/CH3NH_a/out_0008/pw.inp
Warning: card &CELL ignored
Warning: card   CELL_DYNAMICS='IPI', ignored
Warning: card / ignored

     Current dimensions of program PWSCF are:
     Max number of different atomic species (ntypx) = 10
     Max number of k-points (npk) =  40000
     Max angular momentum in pseudopotentials (lmaxx) =  3
     Presently no symmetry can be used with electric field

     Message from routine cell_base_init:
     DEPRECATED: use true lattice parameter, not A to a.u. conversion factor

     IMPORTANT: XC functional enforced from input :
     Exchange-correlation= BEEF-VDW
                           (   1   4  43  14   2   0   0)
     Any further DFT definition will be discarded
     Please, verify this is what you really want

  @ DRIVER MODE: Connecting to
 qe_1139763_2351648.sched-torque.pace.gatech.educqgynfw3_scratch
  using UNIX socket
  @ DRIVER MODE: Message from server: STATUS
  @ DRIVER MODE: Message from server: INIT
  @ DRIVER MODE: Receiving replica           0          -1
  @ DRIVER MODE: Receiving encoded integer          25
  @ DRIVER MODE:  SCF:  T  FORCE:  T  STRESS:  F  VC:  F  ENSEMBLE:  F
  @ DRIVER MODE:  SCF:  T  FORCE:  T  STRESS:  F  VC:  F  ENSEMBLE:  F

     Using Slab Decomposition

     bravais-lattice index     =            0
     lattice parameter (alat)  =       1.8897  a.u.
     unit-cell volume          =    6658.9804 (a.u.)^3
     number of atoms/cell      =           53
     number of atomic types    =            5
     number of electrons       =       391.00
     number of Kohn-Sham states=          205
     kinetic-energy cutoff     =      29.3995  Ry
     charge density cutoff     =     293.9946  Ry
     scf convergence threshold =      7.3E-08
     mixing beta               =       0.0500
     number of iterations used =            8  plain     mixing
     Exchange-correlation= BEEF-VDW
                           (   1   4  43  14   2   0   0)

     celldm(1)=   1.889726  celldm(2)=   0.000000  celldm(3)=   0.000000
     celldm(4)=   0.000000  celldm(5)=   0.000000  celldm(6)=   0.000000

     crystal axes: (cart. coord. in units of alat)
               a(1) = (   6.579727   0.000000   0.000000 )
               a(2) = (  -0.000775   5.961596   0.000000 )
               a(3) = (   0.000000   0.000000  25.155947 )

     reciprocal axes: (cart. coord. in units 2 pi/alat)
               b(1) = (  0.151982  0.000020  0.000000 )
               b(2) = (  0.000000  0.167740  0.000000 )
               b(3) = (  0.000000  0.000000  0.039752 )

     PseudoPot. # 1 for Ti read from file:
     /storage/coda1/p-amedford6/0/shared/rich_project_chbe-medford/medford-share/data/pseudos_module/espresso/nninc/pbe/van/Ti.UPF
     MD5 check sum: 8e4df49b7f0d34bbd5052bf3f5ea0213
     Pseudo is Ultrasoft, Zval = 12.0
     Generated by new atomic code, or converted to UPF format
     Using radial grid of  851 points,  6 beta functions with:
                l(1) =   0
                l(2) =   0
                l(3) =   1
                l(4) =   1
                l(5) =   2
                l(6) =   2
     Q(r) pseudized with  8 coefficients,  rinner =    1.000   1.000   1.000
                                                       1.000   1.000

     PseudoPot. # 2 for O  read from file:
     /storage/coda1/p-amedford6/0/shared/rich_project_chbe-medford/medford-share/data/pseudos_module/espresso/nninc/pbe/van/O.UPF
     MD5 check sum: 78c19812648e8988a0fe644b0f25305e
     Pseudo is Ultrasoft, Zval =  6.0
     Generated by new atomic code, or converted to UPF format
     Using radial grid of  737 points,  4 beta functions with:
                l(1) =   0
                l(2) =   0
                l(3) =   1
                l(4) =   1
     Q(r) pseudized with  8 coefficients,  rinner =    0.800   0.800   0.800

     PseudoPot. # 3 for H  read from file:
     /storage/coda1/p-amedford6/0/shared/rich_project_chbe-medford/medford-share/data/pseudos_module/espresso/nninc/pbe/van/H.UPF
     MD5 check sum: b5ee9d7bfd3a09ee7748110bda690ff7
     Pseudo is Ultrasoft, Zval =  1.0
     Generated by new atomic code, or converted to UPF format
     Using radial grid of  615 points,  1 beta functions with:
                l(1) =   0
     Q(r) pseudized with  8 coefficients,  rinner =    0.800

     PseudoPot. # 4 for N  read from file:
     /storage/coda1/p-amedford6/0/shared/rich_project_chbe-medford/medford-share/data/pseudos_module/espresso/nninc/pbe/van/N.UPF
     MD5 check sum: 90d10febe142ad51ac9d5be1deb811c4
     Pseudo is Ultrasoft, Zval =  5.0
     Generated by new atomic code, or converted to UPF format
     Using radial grid of  729 points,  4 beta functions with:
                l(1) =   0
                l(2) =   0
                l(3) =   1
                l(4) =   1
     Q(r) pseudized with  8 coefficients,  rinner =    0.800   0.800   0.800

     PseudoPot. # 5 for C  read from file:
     /storage/coda1/p-amedford6/0/shared/rich_project_chbe-medford/medford-share/data/pseudos_module/espresso/nninc/pbe/van/C.UPF
     MD5 check sum: 1a69bf6b8db32088f5b2163dbdb77a27
     Pseudo is Ultrasoft, Zval =  4.0
     Generated by new atomic code, or converted to UPF format
     Using radial grid of  721 points,  4 beta functions with:
                l(1) =   0
                l(2) =   0
                l(3) =   1
                l(4) =   1
     Q(r) pseudized with  8 coefficients,  rinner =    0.800   0.800   0.800

     atomic species   valence    mass     pseudopotential
        Ti1           12.00    47.86700     Ti( 1.00)
        O1             6.00    15.99900     O ( 1.00)
        H1             1.00     1.00800     H ( 1.00)
        N1             5.00    14.00700     N ( 1.00)
        C1             4.00    12.01100     C ( 1.00)

     Starting magnetic structure
     atomic species   magnetization
        Ti1          0.000
        O1           0.000
        H1           0.000
        N1           0.000
        C1           0.025

     No symmetry found

   Cartesian axes

     site n.     atom                  positions (alat units)
         1           Ti1 tau(   1) = (   0.0004258   2.9801865   6.0000000  )
         2           Ti1 tau(   2) = (   3.2906075   1.4906267   6.0002472  )
         3           O1  tau(   3) = (   0.0006271   0.0005054   7.9858123  )
         4           O1  tau(   4) = (   3.2906025   0.0005020   7.3038282  )
         5           O1  tau(   5) = (   4.5942328   1.4918067   9.2879030  )
         6           O1  tau(   6) = (   1.9868534   1.4903216   9.2879459  )
         7           Ti1 tau(   7) = (   3.2907910   2.8959150   9.1758416  )
         8           Ti1 tau(   8) = (   0.0015273   1.4827037   9.2680791  )
         9           O1  tau(   9) = (   3.2884659   0.0075485  11.3235732  )
        10           O1  tau(  10) = (   0.0116148   5.9584955  10.6183126  )
        11           O1  tau(  11) = (   1.3171120   1.5008813  12.6157184  )
        12           O1  tau(  12) = (   5.2946386   1.4924346  12.6071097  )
        13           Ti1 tau(  13) = (   6.5241923   2.9548932  12.6217359  )
        14           Ti1 tau(  14) = (   3.2094326   1.4975571  12.4685497  )
        15           O1  tau(  15) = (   6.5712017   0.0435206  14.6415704  )
        16           O1  tau(  16) = (   3.3105969   0.0188825  13.9167609  )
        17           O1  tau(  17) = (   4.5276945   1.5520673  16.0775932  )
        18           O1  tau(  18) = (   2.0451199   1.5488911  16.0433559  )
        19           Ti1 tau(  19) = (   3.3056363   3.0248959  15.6834923  )
        20           Ti1 tau(  20) = (   0.0598299   1.5678558  15.8702049  )
        21           O1  tau(  21) = (   3.2904802   0.0005063   4.7018136  )
        22           O1  tau(  22) = (   0.0261329   0.0581799  17.1997403  )
        23           O1  tau(  23) = (   1.3043587   1.4918075   6.0039043  )
        24           O1  tau(  24) = (   5.2767064   1.4903225   6.0039473  )
        25           Ti1 tau(  25) = (   0.0000382   5.9609847   6.0000000  )
        26           Ti1 tau(  26) = (   3.2902200   4.4714249   6.0002472  )
        27           O1  tau(  27) = (   0.0002396   2.9813036   7.9858123  )
        28           O1  tau(  28) = (   3.2902150   2.9813002   7.3038282  )
        29           O1  tau(  29) = (   4.5938453   4.4726049   9.2879030  )
        30           O1  tau(  30) = (   1.9864658   4.4711199   9.2879459  )
        31           Ti1 tau(  31) = (   3.2891106   5.8743827   9.1763621  )
        32           Ti1 tau(  32) = (   0.0006254   4.4649316   9.2693709  )
        33           O1  tau(  33) = (   3.2900467   2.9919642  11.3219399  )
        34           O1  tau(  34) = (   0.0092240   2.9805883  10.6323155  )
        35           O1  tau(  35) = (   1.3109590   4.4888342  12.6262493  )
        36           O1  tau(  36) = (   5.2962169   4.4808628  12.6191006  )
        37           Ti1 tau(  37) = (   6.5213093   5.9327278  12.5667326  )
        38           Ti1 tau(  38) = (   3.2063601   4.4772876  12.4706241  )
        39           O1  tau(  39) = (   6.5765807   2.9606619  14.6437028  )
        40           O1  tau(  40) = (   3.3047873   3.0036736  13.8926904  )
        41           O1  tau(  41) = (   4.5386289   4.5058657  16.0833063  )
        42           O1  tau(  42) = (   2.0584685   4.5123608  16.0729366  )
        43           Ti1 tau(  43) = (   3.3398093   0.0384087  15.7085799  )
        44           Ti1 tau(  44) = (   0.0478225   4.6849499  16.0879628  )
        45           O1  tau(  45) = (   3.2900926   2.9813045   4.7018136  )
        46           O1  tau(  46) = (   1.3039711   4.4726057   6.0039043  )
        47           O1  tau(  47) = (   5.2763189   4.4711207   6.0039473  )
        48           H1  tau(  48) = (   5.6109407   2.9912845  17.7881963  )
        49           N1  tau(  49) = (   6.5752763   3.0051276  17.4431066  )
        50           C1  tau(  50) = (   0.8863280   2.9891452  18.6126320  )
        51           H1  tau(  51) = (   1.3596840   3.9617220  18.7724638  )
        52           H1  tau(  52) = (   0.3315535   2.7344040  19.5171108  )
        53           H1  tau(  53) = (   1.6705027   2.2407838  18.4910999  )

     number of k points=    10  Fermi-Dirac smearing, width (Ry)=  0.0073
                       cart. coord. in units 2pi/alat
        k(    1) = (   0.0000000   0.0000000   0.0000000), wk =   0.0625000
        k(    2) = (   0.0000000   0.0419351   0.0000000), wk =   0.1250000
        k(    3) = (   0.0000000  -0.0838702   0.0000000), wk =   0.0625000
        k(    4) = (   0.0379955   0.0000049   0.0000000), wk =   0.1250000
        k(    5) = (   0.0379955   0.0419400   0.0000000), wk =   0.1250000
        k(    6) = (   0.0379955  -0.0838652   0.0000000), wk =   0.1250000
        k(    7) = (   0.0379955  -0.0419301   0.0000000), wk =   0.1250000
        k(    8) = (  -0.0759910  -0.0000099   0.0000000), wk =   0.0625000
[...]

     Initial potential from superposition of free atoms

     starting charge  374.99916, renormalised to  391.00000

     negative rho (up, down):  8.889E-03 8.896E-03

     %%%%%%%%%%%%%%%%%%%%%%%%%%%%%%%%%%%%%%%%%%%%%%%%%%%%%%%%%%%%%%%%%%%%%%%%
     %                                                                      %
     % You are using vdW-DF, which was implemented by the Thonhauser group. %
     % Please cite the following two papers that made this development      %
     % possible and the two reviews that describe the various versions:     %
     %                                                                      %
     %   T. Thonhauser et al., PRL 115, 136402 (2015).                      %
     %   T. Thonhauser et al., PRB 76, 125112 (2007).                       %
     %   K. Berland et al., Rep. Prog. Phys. 78, 066501 (2015).             %
     %   D.C. Langreth et al., J. Phys.: Condens. Matter 21, 084203 (2009). %
     %                                                                      %
     %                                                                      %
     % If you are calculating the stress with vdW-DF, please also cite:     %
     %                                                                      %
     %   R. Sabatini et al., J. Phys.: Condens. Matter 24, 424209 (2012).   %
     %                                                                      %
     %%%%%%%%%%%%%%%%%%%%%%%%%%%%%%%%%%%%%%%%%%%%%%%%%%%%%%%%%%%%%%%%%%%%%%%%

     Adding external electric field

     Computed dipole along edir(3) :
        Dipole               -5.8084 Ry au,        -14.7635 Debye
        Dipole field         -0.0110 Ry au,

        Potential amp.        1.0161 Ry
        Total length         46.3494 bohr

[...]

     Starting wfcs are  296 atomic wfcs
  @ DRIVER MODE: Message from server: STATUS
  @ DRIVER MODE: Message from server: POSDATA
  @ DRIVER MODE: Reading and sharing cell
  @ DRIVER MODE: Reading and sharing positions
  @ DRIVER MODE: Received positions

     Self-consistent Calculation

     iteration #  1     ecut=    29.40 Ry     beta= 0.05
     Davidson diagonalization with overlap
     c_bands:  1 eigenvalues not converged
     c_bands:  1 eigenvalues not converged
     c_bands:  1 eigenvalues not converged
     c_bands:  2 eigenvalues not converged
     c_bands:  4 eigenvalues not converged
     c_bands:  2 eigenvalues not converged
     c_bands:  1 eigenvalues not converged
     c_bands:  1 eigenvalues not converged
     c_bands:  2 eigenvalues not converged
     c_bands:  3 eigenvalues not converged
     c_bands:  1 eigenvalues not converged
     c_bands:  1 eigenvalues not converged
     c_bands:  2 eigenvalues not converged
     c_bands:  4 eigenvalues not converged
     c_bands:  2 eigenvalues not converged
     c_bands:  1 eigenvalues not converged
     c_bands:  1 eigenvalues not converged
     c_bands:  2 eigenvalues not converged
     ethr =  1.00E-05,  avg # of iterations = 19.5

[...]

     total energy              =   -2770.89081087 Ry
     estimated scf accuracy    <    1638.93691011 Ry

     total magnetization       =     0.01 Bohr mag/cell
     absolute magnetization    =     0.02 Bohr mag/cell

[...]

     iteration #  3     ecut=    29.40 Ry     beta= 0.05
     Davidson diagonalization with overlap
     ethr =  1.00E-02,  avg # of iterations = 14.4

[...]

     iteration # 74     ecut=    29.40 Ry     beta= 0.05
     Davidson diagonalization with overlap
     c_bands:  1 eigenvalues not converged
     ethr =  3.13E-11,  avg # of iterations = 10.4

[...]

     total energy              =   -2920.42028472 Ry
     estimated scf accuracy    <       0.00000012 Ry

[...]

     iteration # 76     ecut=    29.40 Ry     beta= 0.05
     Davidson diagonalization with overlap
     ethr =  2.99E-11,  avg # of iterations =  9.8

     negative rho (up, down):  9.153E-03 9.152E-03

[...]

     Adding external electric field

     Computed dipole along edir(3) :
        Dipole                0.6932 Ry au,          1.7620 Debye
        Dipole field          0.0013 Ry au,

        Potential amp.       -0.1213 Ry
        Total length         46.3494 bohr

     Magnetic moment per site  (integrated on atomic sphere of radius R)
     atom   1 (R=0.717)  charge=  7.8575  magn= -0.0045
     atom   2 (R=0.717)  charge=  7.8411  magn= -0.0002
     atom   3 (R=0.717)  charge=  4.8648  magn=  0.0003
     atom   4 (R=0.717)  charge=  4.9003  magn=  0.0000
     atom   5 (R=0.717)  charge=  4.8705  magn=  0.0000
     atom   6 (R=0.717)  charge=  4.8712  magn=  0.0000
     atom   7 (R=0.717)  charge=  7.8399  magn= -0.0001
     atom   8 (R=0.717)  charge=  7.8316  magn= -0.0011
     atom   9 (R=0.717)  charge=  4.8873  magn= -0.0001
     atom  10 (R=0.717)  charge=  4.8598  magn=  0.0001
     atom  11 (R=0.717)  charge=  4.8722  magn= -0.0000
     atom  12 (R=0.717)  charge=  4.8711  magn= -0.0000
     atom  13 (R=0.717)  charge=  7.8297  magn= -0.0001
     atom  14 (R=0.717)  charge=  7.8427  magn=  0.0002
     atom  15 (R=0.717)  charge=  4.8599  magn= -0.0000
     atom  16 (R=0.717)  charge=  4.8822  magn= -0.0001
     atom  17 (R=0.717)  charge=  4.8580  magn= -0.0000
     atom  18 (R=0.717)  charge=  4.8644  magn= -0.0000
     atom  19 (R=0.717)  charge=  7.8684  magn=  0.0002
     atom  20 (R=0.717)  charge=  7.8398  magn=  0.0000
     atom  21 (R=0.717)  charge=  4.7571  magn=  0.0002
     atom  22 (R=0.717)  charge=  4.8380  magn= -0.0000
     atom  23 (R=0.717)  charge=  4.8628  magn=  0.0005
     atom  24 (R=0.717)  charge=  4.8628  magn=  0.0005
     atom  25 (R=0.717)  charge=  7.8575  magn= -0.0044
     atom  26 (R=0.717)  charge=  7.8411  magn= -0.0002
     atom  27 (R=0.717)  charge=  4.8641  magn=  0.0003
     atom  28 (R=0.717)  charge=  4.9005  magn=  0.0000
     atom  29 (R=0.717)  charge=  4.8713  magn=  0.0000
     atom  30 (R=0.717)  charge=  4.8719  magn=  0.0000
     atom  31 (R=0.717)  charge=  7.8400  magn= -0.0001
     atom  32 (R=0.717)  charge=  7.8317  magn= -0.0011
     atom  33 (R=0.717)  charge=  4.8864  magn= -0.0001
     atom  34 (R=0.717)  charge=  4.8464  magn=  0.0001
     atom  35 (R=0.717)  charge=  4.8727  magn= -0.0000
     atom  36 (R=0.717)  charge=  4.8718  magn= -0.0000
     atom  37 (R=0.717)  charge=  7.8315  magn= -0.0001
     atom  38 (R=0.717)  charge=  7.8429  magn=  0.0002
     atom  39 (R=0.717)  charge=  4.8525  magn= -0.0000
     atom  40 (R=0.717)  charge=  4.8881  magn= -0.0001
     atom  41 (R=0.717)  charge=  4.8603  magn= -0.0000
     atom  42 (R=0.717)  charge=  4.8621  magn= -0.0000
     atom  43 (R=0.717)  charge=  7.8658  magn=  0.0002
     atom  44 (R=0.717)  charge=  7.8696  magn=  0.0000
     atom  45 (R=0.717)  charge=  4.7571  magn=  0.0002
     atom  46 (R=0.717)  charge=  4.8628  magn=  0.0005
     atom  47 (R=0.717)  charge=  4.8628  magn=  0.0005
     atom  48 (R=0.423)  charge=  0.4556  magn=  0.0000
     atom  49 (R=0.423)  charge=  1.3512  magn= -0.0000
     atom  50 (R=0.450)  charge=  0.8499  magn=  0.0000
     atom  51 (R=0.423)  charge=  0.4509  magn= -0.0000
     atom  52 (R=0.423)  charge=  0.4521  magn= -0.0000
     atom  53 (R=0.423)  charge=  0.4520  magn= -0.0000

     End of self-consistent calculation

 ------ SPIN UP ------------

          k = 0.0000 0.0000 0.0000 ( 18029 PWs)   bands (ev):

   -55.9786 -55.9745 -55.9445 -55.9383 -55.8864 -55.8254 -55.8206 -55.7867
   -55.7859 -55.7527 -55.7470 -55.7133 -55.5558 -55.2763 -54.9550 -54.9210
   -32.5342 -32.4623 -32.3352 -32.3219 -32.3015 -32.2846 -32.2708 -32.2381
   -32.2216 -32.2202 -32.1971 -32.1901 -32.1576 -32.1298 -32.1260 -32.1190
   -32.1172 -32.0842 -32.0651 -32.0347 -32.0317 -32.0270 -32.0118 -31.9903
   -31.9805 -31.9784 -31.9731 -31.9633 -31.9502 -31.9437 -31.9413 -31.9360
   -31.9234 -31.9169 -31.9002 -31.8934 -31.8595 -31.8204 -31.7246 -31.5505
   -31.5437 -31.4730 -31.3617 -31.2739 -31.2515 -31.1784 -31.0919 -30.9809
   -16.7433 -16.4601 -16.2806 -16.1378 -16.1045 -16.0193 -15.8190 -15.6939
   -15.6807 -15.5776 -15.5397 -15.5172 -15.5086 -15.4827 -15.4792 -15.4203
   -15.4173 -15.4050 -15.3926 -15.3363 -15.3125 -15.2727 -15.1781 -15.1545
   -15.1388 -15.1127 -15.0315 -15.0242 -14.5845 -14.1152 -13.4576 -13.3413
    -8.9029  -4.3755  -4.1141  -3.9373  -3.8990  -3.8849  -3.8364  -3.5848
    -3.5686  -3.3214  -3.1969  -3.1808  -3.1683  -3.1537  -3.1382  -3.1193
    -2.8815  -2.8113  -2.7972  -2.7747  -2.7678  -2.7647  -2.7529  -2.7484
    -2.7062  -2.6455  -2.5269  -2.5147  -2.4095  -2.3624  -2.3387  -2.2918
    -2.2480  -2.2417  -2.2291  -2.2121  -2.1976  -2.1784  -2.1607  -2.0263
    -1.9623  -1.8352  -1.7870  -1.7807  -1.5831  -1.5368  -1.4488  -1.4249
    -1.4087  -1.4014  -1.3693  -1.2890  -1.1979  -1.1407  -1.1267  -1.0748
    -0.9982  -0.9860  -0.8759  -0.8713  -0.8127  -0.7513  -0.7426  -0.7328
    -0.6874  -0.5985  -0.5404  -0.4671  -0.4170  -0.3945  -0.3678  -0.2901
    -0.2600  -0.1627  -0.1454  -0.0980  -0.0951  -0.0459  -0.0044   0.0057
     0.0124   0.0270   0.0449   0.1934   0.3003   0.3568   0.3897   0.4022
     0.5566   0.5932   0.6809   0.7685   0.9940   1.0670   1.1606   1.2599
     1.3307   1.6375   1.6830   3.1628   3.2446   3.2939   3.3012   3.4028
     3.4056   3.6131   3.6232   3.6337   3.7014

[...]

          k =-0.0760-0.0000 0.0000 ( 17886 PWs)   bands (ev):

[...]

 ------ SPIN DOWN ----------

[...]

          k = 0.0380-0.0419 0.0000 ( 17876 PWs)   bands (ev):

[...]

          k =-0.0760-0.0839 0.0000 ( 17948 PWs)   bands (ev):

   -55.9701 -55.9694 -55.9566 -55.9546 -55.8803 -55.8301 -55.8056 -55.8013
   -55.7724 -55.7706 -55.7309 -55.7297 -55.5546 -55.2770 -54.9384 -54.9383
   -32.3380 -32.3352 -32.2813 -32.2808 -32.2664 -32.2660 -32.2652 -32.2458
   -32.1836 -32.1826 -32.1763 -32.1725 -32.1491 -32.1207 -32.1026 -32.0985
   -32.0902 -32.0894 -32.0890 -32.0841 -32.0836 -32.0709 -32.0685 -32.0361
   -32.0260 -32.0201 -31.9959 -31.9867 -31.9688 -31.9683 -31.9637 -31.9626
   -31.9458 -31.9452 -31.9435 -31.9417 -31.8890 -31.8229 -31.7195 -31.6137
   -31.5458 -31.4983 -31.2648 -31.2647 -31.1748 -31.1747 -31.1356 -31.1356
   -16.1953 -16.1619 -15.9263 -15.9167 -15.9079 -15.8915 -15.7470 -15.6948
   -15.6869 -15.6799 -15.6554 -15.6319 -15.5809 -15.5501 -15.5166 -15.5098
   -15.5032 -15.4980 -15.4416 -15.4352 -15.4127 -15.4053 -15.2919 -15.2877
   -15.2863 -15.2101 -15.1459 -15.0127 -14.7545 -14.1366 -13.4428 -13.4427
    -8.9066  -4.3873  -3.4897  -3.4516  -3.2872  -3.1983  -3.1665  -3.1532
    -3.1323  -3.0528  -2.8929  -2.8783  -2.8599  -2.8468  -2.8066  -2.8015
    -2.7898  -2.7758  -2.7690  -2.7510  -2.7173  -2.6761  -2.6482  -2.6410
    -2.6321  -2.6077  -2.5953  -2.5689  -2.5632  -2.5303  -2.5224  -2.5039
    -2.4799  -2.2210  -2.1999  -2.1820  -2.1129  -2.1061  -2.0712  -2.0630
    -2.0440  -2.0307  -1.9783  -1.8779  -1.7141  -1.6813  -1.6653  -1.6485
    -1.5847  -1.5649  -1.4173  -1.3880  -1.3719  -1.3308  -1.2829  -1.2520
    -1.2165  -1.1769  -1.1400  -1.0790  -1.0709  -0.9920  -0.9419  -0.9414
    -0.9135  -0.8446  -0.7663  -0.7486  -0.7368  -0.6951  -0.6803  -0.6003
    -0.5776  -0.4794  -0.4665  -0.3936  -0.3628  -0.2979  -0.0917   0.0027
     0.0618   0.0851   0.1384   0.2358   0.2901   0.3033   0.3374   0.3424
     0.4023   0.4429   0.5571   0.5647   0.6332   0.7367   1.2778   1.4315
     1.4321   1.5030   1.5031   3.4229   3.4285   3.4779   3.5087   3.6576
     3.6619   3.6857   3.6868   3.8098   3.8263

     the Fermi energy is     3.1537 ev

!    total energy              =   -2920.42029662 Ry
     estimated scf accuracy    <       0.00000003 Ry
     smearing contrib. (-TS)   =      -0.02202648 Ry
     internal energy E=F+TS    =   -2920.39827014 Ry

     The total energy is F=E-TS. E is the sum of the following terms:
     one-electron contribution =  -24727.76588973 Ry
     hartree contribution      =   12448.54433923 Ry
     xc contribution           =    -480.87395580 Ry
     ewald contribution        =    9839.69632930 Ry
     electric field correction =       0.00090685 Ry

     total magnetization       =    -0.02 Bohr mag/cell
     absolute magnetization    =     0.03 Bohr mag/cell

     convergence has been achieved in  76 iterations

     Forces acting on atoms (cartesian axes, Ry/au):

     atom    1 type  1   force =     0.00010127   -0.00019298    0.09687212
     atom    2 type  1   force =     0.00004137   -0.00050567   -0.17506437
     atom    3 type  2   force =     0.00013065    0.00001059   -0.02535182
     atom    4 type  2   force =    -0.00003137   -0.00128382    0.05237307
     atom    5 type  2   force =    -0.01222327   -0.00001337    0.00298913
     atom    6 type  2   force =     0.01365742    0.00058306    0.00232584
     atom    7 type  1   force =     0.00058721    0.00033592   -0.01303974
     atom    8 type  1   force =     0.00047811    0.00729393    0.03066848
     atom    9 type  2   force =     0.00056246    0.00003790   -0.00022515
     atom   10 type  2   force =    -0.00266898    0.00211190   -0.01739373
     atom   11 type  2   force =    -0.00013478    0.00008591   -0.00002434
     atom   12 type  2   force =     0.00045477    0.00033775    0.00018347
     atom   13 type  1   force =    -0.00010504   -0.00056257   -0.00017948
     atom   14 type  1   force =    -0.00043613    0.00005007    0.00081904
     atom   15 type  2   force =     0.00024862   -0.00081492    0.00078247
     atom   16 type  2   force =     0.00027349    0.00063210   -0.00048193
     atom   17 type  2   force =     0.00092278    0.00024802    0.00080848
     atom   18 type  2   force =     0.00015843   -0.00023866   -0.00009715
     atom   19 type  1   force =    -0.00023305    0.00048474   -0.00019316
     atom   20 type  1   force =    -0.00003864   -0.00055250   -0.00001418
     atom   21 type  2   force =     0.00005576   -0.00002526    0.10312787
     atom   22 type  2   force =     0.00006410   -0.00091415    0.00108792
     atom   23 type  2   force =    -0.07165643   -0.00015414   -0.02781610
     atom   24 type  2   force =     0.07156111    0.00034518   -0.02787302
     atom   25 type  1   force =     0.00009136   -0.00014040    0.09658947
     atom   26 type  1   force =     0.00009254   -0.00023733   -0.17519900
     atom   27 type  2   force =     0.00011791   -0.00011432   -0.02441654
     atom   28 type  2   force =     0.00004302   -0.00103894    0.05228736
     atom   29 type  2   force =    -0.01242321    0.00063602    0.00278313
     atom   30 type  2   force =     0.01372964    0.00098153    0.00213124
     atom   31 type  1   force =     0.00044630    0.00313205   -0.01358941
     atom   32 type  1   force =     0.00033079   -0.00950702    0.03107045
     atom   33 type  2   force =    -0.00006816    0.00031582   -0.00061811
     atom   34 type  2   force =    -0.00206971    0.00181959   -0.02538091
     atom   35 type  2   force =    -0.00016978   -0.00029699    0.00036966
     atom   36 type  2   force =     0.00025044   -0.00077650    0.00041127
     atom   37 type  1   force =     0.00003894    0.00022327    0.00101870
     atom   38 type  1   force =    -0.00022566    0.00040777    0.00078423
     atom   39 type  2   force =    -0.00021219   -0.00012972   -0.00052891
     atom   40 type  2   force =     0.00043532    0.00007779    0.00057868
     atom   41 type  2   force =     0.00058000   -0.00041621    0.00012310
     atom   42 type  2   force =    -0.00021473   -0.00021905   -0.00050018
     atom   43 type  1   force =    -0.00098706   -0.00018220    0.00048975
     atom   44 type  1   force =    -0.00015304   -0.00054568    0.00037706
     atom   45 type  2   force =     0.00004019   -0.00004743    0.10313903
     atom   46 type  2   force =    -0.07164866   -0.00006477   -0.02781552
     atom   47 type  2   force =     0.07157168    0.00034910   -0.02787616
     atom   48 type  3   force =     0.01319076   -0.00013471   -0.00534857
     atom   49 type  4   force =    -0.02004402   -0.00043287    0.00062633
     atom   50 type  5   force =     0.00490246   -0.00060663    0.00332975
     atom   51 type  3   force =    -0.00037475    0.00030118    0.00094483
     atom   52 type  3   force =     0.00003395   -0.00063872   -0.00058606
     atom   53 type  3   force =     0.00092584   -0.00001364    0.00052165

     Total force =     0.369335     Total SCF correction =     0.000375
  @ DRIVER MODE: Message from server: STATUS
  @ DRIVER MODE: Message from server: GETFORCE
  @ DRIVER MODE: Returning v,forces,stress,ensemble

     Writing output data file ./calc.save/
  @ DRIVER MODE: Message from server: EXIT
  @ DRIVE MODE: Exiting

     General routines

     Parallel routines

   This run was terminated on:  20:58:35  15Jul2021

   JOB DONE.