     Program PWSCF v.6.7GPU starts on 14Sep2021 at 23: 7:24

     R & G space division:  proc/nbgrp/npool/nimage =      10
     Reading input from /storage/home/hcoda1/3/ntian30/research/carbon/CxH_vib/CH2_calc/ads_slab/CH2ON2_b/out_0028/pw.inp
Warning: card &CELL ignored
Warning: card   CELL_DYNAMICS='IPI', ignored
Warning: card / ignored

     Current dimensions of program PWSCF are:
     Max number of different atomic species (ntypx) = 10
     Max number of k-points (npk) =  40000
     Max angular momentum in pseudopotentials (lmaxx) =  3
     Presently no symmetry can be used with electric field

     Message from routine cell_base_init:
     DEPRECATED: use true lattice parameter, not A to a.u. conversion factor

     IMPORTANT: XC functional enforced from input :
     Exchange-correlation= BEEF-VDW
                           (   1   4  43  14   2   0   0)
     Any further DFT definition will be discarded
     Please, verify this is what you really want

  @ DRIVER MODE: Connecting to
 qe_1139763_2840441.sched-torque.pace.gatech.edupfsjuzaw_scratch
  using UNIX socket
  @ DRIVER MODE: Message from server: STATUS
  @ DRIVER MODE: Message from server: INIT
  @ DRIVER MODE: Receiving replica           0          -1
  @ DRIVER MODE: Receiving encoded integer          25
  @ DRIVER MODE:  SCF:  T  FORCE:  T  STRESS:  F  VC:  F  ENSEMBLE:  F
  @ DRIVER MODE:  SCF:  T  FORCE:  T  STRESS:  F  VC:  F  ENSEMBLE:  F

     Using Slab Decomposition

     bravais-lattice index     =            0
     lattice parameter (alat)  =       1.8897  a.u.
     unit-cell volume          =    6658.9804 (a.u.)^3
     number of atoms/cell      =           53
     number of atomic types    =            5
     number of electrons       =       400.00
     number of Kohn-Sham states=          210
     kinetic-energy cutoff     =      29.3995  Ry
     charge density cutoff     =     293.9946  Ry
     scf convergence threshold =      7.3E-08
     mixing beta               =       0.0500
     number of iterations used =            8  plain     mixing
     Exchange-correlation= BEEF-VDW
                           (   1   4  43  14   2   0   0)

     celldm(1)=   1.889726  celldm(2)=   0.000000  celldm(3)=   0.000000
     celldm(4)=   0.000000  celldm(5)=   0.000000  celldm(6)=   0.000000

     crystal axes: (cart. coord. in units of alat)
               a(1) = (   6.579727   0.000000   0.000000 )
               a(2) = (  -0.000775   5.961596   0.000000 )
               a(3) = (   0.000000   0.000000  25.155947 )

     reciprocal axes: (cart. coord. in units 2 pi/alat)
               b(1) = (  0.151982  0.000020  0.000000 )
               b(2) = (  0.000000  0.167740  0.000000 )
               b(3) = (  0.000000  0.000000  0.039752 )

     PseudoPot. # 1 for C  read from file:
     /storage/coda1/p-amedford6/0/shared/rich_project_chbe-medford/medford-share/data/pseudos_module/espresso/nninc/pbe/van/C.UPF
     MD5 check sum: 1a69bf6b8db32088f5b2163dbdb77a27
     Pseudo is Ultrasoft, Zval =  4.0
     Generated by new atomic code, or converted to UPF format
     Using radial grid of  721 points,  4 beta functions with:
                l(1) =   0
                l(2) =   0
                l(3) =   1
                l(4) =   1
     Q(r) pseudized with  8 coefficients,  rinner =    0.800   0.800   0.800

     PseudoPot. # 2 for H  read from file:
     /storage/coda1/p-amedford6/0/shared/rich_project_chbe-medford/medford-share/data/pseudos_module/espresso/nninc/pbe/van/H.UPF
     MD5 check sum: b5ee9d7bfd3a09ee7748110bda690ff7
     Pseudo is Ultrasoft, Zval =  1.0
     Generated by new atomic code, or converted to UPF format
     Using radial grid of  615 points,  1 beta functions with:
                l(1) =   0
     Q(r) pseudized with  8 coefficients,  rinner =    0.800

     PseudoPot. # 3 for O  read from file:
     /storage/coda1/p-amedford6/0/shared/rich_project_chbe-medford/medford-share/data/pseudos_module/espresso/nninc/pbe/van/O.UPF
     MD5 check sum: 78c19812648e8988a0fe644b0f25305e
     Pseudo is Ultrasoft, Zval =  6.0
     Generated by new atomic code, or converted to UPF format
     Using radial grid of  737 points,  4 beta functions with:
                l(1) =   0
                l(2) =   0
                l(3) =   1
                l(4) =   1
     Q(r) pseudized with  8 coefficients,  rinner =    0.800   0.800   0.800

     PseudoPot. # 4 for Ti read from file:
     /storage/coda1/p-amedford6/0/shared/rich_project_chbe-medford/medford-share/data/pseudos_module/espresso/nninc/pbe/van/Ti.UPF
     MD5 check sum: 8e4df49b7f0d34bbd5052bf3f5ea0213
     Pseudo is Ultrasoft, Zval = 12.0
     Generated by new atomic code, or converted to UPF format
     Using radial grid of  851 points,  6 beta functions with:
                l(1) =   0
                l(2) =   0
                l(3) =   1
                l(4) =   1
                l(5) =   2
                l(6) =   2
     Q(r) pseudized with  8 coefficients,  rinner =    1.000   1.000   1.000
                                                       1.000   1.000

     PseudoPot. # 5 for N  read from file:
     /storage/coda1/p-amedford6/0/shared/rich_project_chbe-medford/medford-share/data/pseudos_module/espresso/nninc/pbe/van/N.UPF
     MD5 check sum: 90d10febe142ad51ac9d5be1deb811c4
     Pseudo is Ultrasoft, Zval =  5.0
     Generated by new atomic code, or converted to UPF format
     Using radial grid of  729 points,  4 beta functions with:
                l(1) =   0
                l(2) =   0
                l(3) =   1
                l(4) =   1
     Q(r) pseudized with  8 coefficients,  rinner =    0.800   0.800   0.800

     atomic species   valence    mass     pseudopotential
        C1             4.00    12.01100     C ( 1.00)
        H1             1.00     1.00800     H ( 1.00)
        O1             6.00    15.99900     O ( 1.00)
        Ti1           12.00    47.86700     Ti( 1.00)
        N1             5.00    14.00700     N ( 1.00)

     No symmetry found

   Cartesian axes

     site n.     atom                  positions (alat units)
         1           C1  tau(   1) = (   6.4247902   2.9910588  18.6917704  )
         2           H1  tau(   2) = (   6.3980358   3.9338040  19.2291268  )
         3           H1  tau(   3) = (   6.3671137   2.0386567  19.2103458  )
         4           O1  tau(   4) = (   3.2904802   0.0005063   4.7018136  )
         5           O1  tau(   5) = (   3.2900926   2.9813045   4.7018136  )
         6           O1  tau(   6) = (   1.3043587   1.4918075   6.0039043  )
         7           O1  tau(   7) = (   1.3039711   4.4726057   6.0039043  )
         8           O1  tau(   8) = (   5.2767064   1.4903225   6.0039473  )
         9           O1  tau(   9) = (   5.2763189   4.4711207   6.0039473  )
        10           O1  tau(  10) = (   3.2906025   0.0005020   7.3038282  )
        11           O1  tau(  11) = (   3.2902150   2.9813002   7.3038282  )
        12           O1  tau(  12) = (   0.0006271   0.0005054   7.9858123  )
        13           O1  tau(  13) = (   0.0002396   2.9813036   7.9858123  )
        14           O1  tau(  14) = (   4.5942328   1.4918067   9.2879030  )
        15           O1  tau(  15) = (   4.5938453   4.4726049   9.2879030  )
        16           O1  tau(  16) = (   1.9868534   1.4903216   9.2879459  )
        17           O1  tau(  17) = (   1.9864658   4.4711199   9.2879459  )
        18           O1  tau(  18) = (   0.0058113   2.9878523  10.5832334  )
        19           O1  tau(  19) = (   0.0062988   0.0093020  10.6005518  )
        20           O1  tau(  20) = (   3.2955317   2.9954032  11.3404818  )
        21           O1  tau(  21) = (   3.2944299   0.0136787  11.3445968  )
        22           O1  tau(  22) = (   5.2904553   1.5027675  12.6317203  )
        23           O1  tau(  23) = (   5.2914467   4.4836083  12.6349631  )
        24           O1  tau(  24) = (   1.2933861   1.5040032  12.6362007  )
        25           O1  tau(  25) = (   1.2922507   4.4849626  12.6395598  )
        26           O1  tau(  26) = (   3.2955364   2.9961609  13.9180299  )
        27           O1  tau(  27) = (   3.2969677   0.0155663  13.9438287  )
        28           O1  tau(  28) = (   0.0016464   0.0229801  14.6780835  )
        29           O1  tau(  29) = (   0.0078505   2.9966620  14.7218711  )
        30           O1  tau(  30) = (   4.5417949   4.4807699  16.1031406  )
        31           O1  tau(  31) = (   4.5422182   1.5234006  16.1020929  )
        32           O1  tau(  32) = (   2.0382733   4.4802786  16.1011463  )
        33           O1  tau(  33) = (   2.0385641   1.5240134  16.0993588  )
        34           O1  tau(  34) = (   6.5794991   0.0244991  17.1995468  )
        35           O1  tau(  35) = (   6.5588415   3.0026814  17.4289308  )
        36           Ti1 tau(  36) = (   0.0004258   2.9801865   6.0000000  )
        37           Ti1 tau(  37) = (   0.0000382   5.9609847   6.0000000  )
        38           Ti1 tau(  38) = (   3.2906075   1.4906267   6.0002472  )
        39           Ti1 tau(  39) = (   3.2902200   4.4714249   6.0002472  )
        40           Ti1 tau(  40) = (   3.2947477   0.0499856   9.1537742  )
        41           Ti1 tau(  41) = (   3.3215383   3.0289251   9.1580241  )
        42           Ti1 tau(  42) = (   0.0276872   4.5181110   9.2597866  )
        43           Ti1 tau(  43) = (   0.0223396   1.5961087   9.3523429  )
        44           Ti1 tau(  44) = (   3.3278215   4.4891914  12.4850086  )
        45           Ti1 tau(  45) = (   3.3277968   1.5111787  12.4828596  )
        46           Ti1 tau(  46) = (   0.0250534   0.0277200  12.4935153  )
        47           Ti1 tau(  47) = (   0.0290128   3.0118426  12.7617797  )
        48           Ti1 tau(  48) = (   3.2948489   3.0033751  15.7103116  )
        49           Ti1 tau(  49) = (   3.2995243   0.0226186  15.7353524  )
        50           Ti1 tau(  50) = (   0.0095488   1.4190105  15.9501391  )
        51           Ti1 tau(  51) = (   0.0117608   4.6113996  15.9785021  )
        52           N1  tau(  52) = (   3.7826193   3.0601191  20.3090129  )
        53           N1  tau(  53) = (   2.7364546   2.9530354  19.9655958  )

     number of k points=    10  Fermi-Dirac smearing, width (Ry)=  0.0073
                       cart. coord. in units 2pi/alat
        k(    1) = (   0.0000000   0.0000000   0.0000000), wk =   0.1250000
        k(    2) = (   0.0000000   0.0419351   0.0000000), wk =   0.2500000
        k(    3) = (   0.0000000  -0.0838702   0.0000000), wk =   0.1250000
        k(    4) = (   0.0379955   0.0000049   0.0000000), wk =   0.2500000
        k(    5) = (   0.0379955   0.0419400   0.0000000), wk =   0.2500000
        k(    6) = (   0.0379955  -0.0838652   0.0000000), wk =   0.2500000
        k(    7) = (   0.0379955  -0.0419301   0.0000000), wk =   0.2500000
        k(    8) = (  -0.0759910  -0.0000099   0.0000000), wk =   0.1250000
        k(    9) = (  -0.0759910   0.0419252   0.0000000), wk =   0.2500000
        k(   10) = (  -0.0759910  -0.0838800   0.0000000), wk =   0.1250000

     Initial potential from superposition of free atoms

     starting charge  383.99917, renormalised to  400.00000

     negative rho (up, down):  1.498E-02 0.000E+00

     %%%%%%%%%%%%%%%%%%%%%%%%%%%%%%%%%%%%%%%%%%%%%%%%%%%%%%%%%%%%%%%%%%%%%%%%
     %                                                                      %
     % You are using vdW-DF, which was implemented by the Thonhauser group. %
     % Please cite the following two papers that made this development      %
     % possible and the two reviews that describe the various versions:     %
     %                                                                      %
     %   T. Thonhauser et al., PRL 115, 136402 (2015).                      %
     %   T. Thonhauser et al., PRB 76, 125112 (2007).                       %
     %   K. Berland et al., Rep. Prog. Phys. 78, 066501 (2015).             %
     %   D.C. Langreth et al., J. Phys.: Condens. Matter 21, 084203 (2009). %
     %                                                                      %
     %                                                                      %
     % If you are calculating the stress with vdW-DF, please also cite:     %
     %                                                                      %
     %   R. Sabatini et al., J. Phys.: Condens. Matter 24, 424209 (2012).   %
     %                                                                      %
     %%%%%%%%%%%%%%%%%%%%%%%%%%%%%%%%%%%%%%%%%%%%%%%%%%%%%%%%%%%%%%%%%%%%%%%%

     Adding external electric field

     Computed dipole along edir(3) :
        Dipole              -12.3567 Ry au,        -31.4077 Debye
        Dipole field         -0.0233 Ry au,

        Potential amp.        2.1616 Ry
        Total length         46.3494 bohr

     Starting wfcs are  302 atomic wfcs
  @ DRIVER MODE: Message from server: STATUS
  @ DRIVER MODE: Message from server: POSDATA
  @ DRIVER MODE: Reading and sharing cell
  @ DRIVER MODE: Reading and sharing positions
  @ DRIVER MODE: Received positions

     Self-consistent Calculation

     iteration #  1     ecut=    29.40 Ry     beta= 0.05
     Davidson diagonalization with overlap
     c_bands:  2 eigenvalues not converged
     c_bands:  2 eigenvalues not converged
     c_bands:  2 eigenvalues not converged
     c_bands:  2 eigenvalues not converged
     c_bands:  4 eigenvalues not converged
     c_bands:  2 eigenvalues not converged
     c_bands:  5 eigenvalues not converged
     c_bands:  1 eigenvalues not converged
     c_bands:  3 eigenvalues not converged
     ethr =  1.00E-05,  avg # of iterations = 23.3

[...]

     total energy              =   -2430.19602681 Ry
     estimated scf accuracy    <    6093.30480954 Ry

     iteration #  2     ecut=    29.40 Ry     beta= 0.05
     Davidson diagonalization with overlap
     ethr =  1.00E-02,  avg # of iterations = 22.0

[...]

     iteration # 70     ecut=    29.40 Ry     beta= 0.05
     Davidson diagonalization with overlap
     ethr =  5.30E-11,  avg # of iterations =  1.1

[...]

     total energy              =   -2970.35126932 Ry
     estimated scf accuracy    <       0.00000010 Ry

     iteration # 74     ecut=    29.40 Ry     beta= 0.05
     Davidson diagonalization with overlap
     c_bands:  1 eigenvalues not converged
     ethr =  2.42E-11,  avg # of iterations = 15.5

     negative rho (up, down):  1.509E-02 0.000E+00

     Adding external electric field

     Computed dipole along edir(3) :
        Dipole                0.9933 Ry au,          2.5247 Debye
        Dipole field          0.0019 Ry au,

        Potential amp.       -0.1738 Ry
        Total length         46.3494 bohr

     End of self-consistent calculation

          k = 0.0000 0.0000 0.0000 ( 18029 PWs)   bands (ev):

   -55.5227 -55.5134 -55.4857 -55.4771 -55.4186 -55.4016 -55.3767 -55.3127
   -55.3070 -55.2970 -55.2940 -55.2607 -55.2420 -55.2176 -54.5477 -54.5137
   -32.0843 -31.9957 -31.8966 -31.8866 -31.8323 -31.8284 -31.8210 -31.8013
   -31.7733 -31.7573 -31.7550 -31.7298 -31.7060 -31.6954 -31.6808 -31.6624
   -31.6477 -31.6470 -31.6378 -31.6175 -31.5980 -31.5935 -31.5852 -31.5799
   -31.5752 -31.5484 -31.5478 -31.5264 -31.5208 -31.5193 -31.4981 -31.4757
   -31.4706 -31.4477 -31.4388 -31.4384 -31.4311 -31.4260 -31.4046 -31.4001
   -31.3945 -31.3872 -30.9577 -30.8602 -30.8379 -30.7744 -30.6884 -30.5771
   -21.3872 -19.7416 -16.3064 -16.0059 -15.8641 -15.7338 -15.6772 -15.5657
   -15.4090 -15.3493 -15.2521 -15.2029 -15.1525 -15.1182 -15.1113 -15.0891
   -15.0810 -15.0559 -15.0529 -14.9852 -14.9741 -14.9380 -14.9249 -14.9245
   -14.8271 -14.7783 -14.7121 -14.6530 -14.5992 -14.5458 -14.5209 -13.0482
   -12.9298  -9.1239  -6.6706  -5.3893  -5.3872  -4.5483  -4.5378  -3.6554
    -3.4770  -3.4339  -3.4278  -3.3716  -3.3626  -3.2616  -3.1459  -3.1096
    -2.8247  -2.7356  -2.7024  -2.6888  -2.6804  -2.5512  -2.4905  -2.3731
    -2.3669  -2.3531  -2.3515  -2.3426  -2.2991  -2.2953  -2.2522  -2.2199
    -2.1346  -2.0743  -1.9648  -1.9536  -1.9284  -1.8658  -1.8328  -1.8102
    -1.8077  -1.7621  -1.7597  -1.7568  -1.7122  -1.6244  -1.5203  -1.4790
    -1.3833  -1.3495  -1.2376  -1.1056  -1.0281  -0.9878  -0.9353  -0.8850
    -0.8795  -0.8583  -0.8386  -0.8223  -0.8072  -0.6911  -0.5765  -0.5742
    -0.4733  -0.4205  -0.3947  -0.3821  -0.2835  -0.2650  -0.2575  -0.1794
    -0.0232  -0.0194  -0.0070   0.1122   0.1406   0.1574   0.2075   0.2291
     0.2700   0.2940   0.3479   0.4041   0.4134   0.4627   0.4713   0.4927
     0.5983   0.6569   0.6628   0.7211   0.7651   0.9507   0.9652   1.1058
     1.1642   1.3804   1.4772   1.5276   1.6462   2.0642   2.1233   3.6374
     3.6729   3.6932   3.7417   3.7742   3.8083   3.8727   4.0798   4.0973
     4.0993   4.1266

[...]

          k = 0.0380-0.0419 0.0000 ( 17876 PWs)   bands (ev):

[...]

          k =-0.0760-0.0000 0.0000 ( 17886 PWs)   bands (ev):

[...]

          k =-0.0760-0.0839 0.0000 ( 17948 PWs)   bands (ev):

   -55.5115 -55.4967 -55.4963 -55.4940 -55.4107 -55.3980 -55.3845 -55.3159
   -55.3029 -55.2910 -55.2778 -55.2774 -55.2481 -55.2210 -54.5311 -54.5302
   -31.8870 -31.8842 -31.8197 -31.8059 -31.8038 -31.8014 -31.7918 -31.7811
   -31.7693 -31.7442 -31.7283 -31.7152 -31.7027 -31.6635 -31.6519 -31.6453
   -31.6402 -31.6353 -31.6299 -31.6258 -31.6139 -31.6078 -31.6052 -31.6020
   -31.5987 -31.5965 -31.5789 -31.5723 -31.5445 -31.5347 -31.5303 -31.5167
   -31.5051 -31.4957 -31.4908 -31.4834 -31.4811 -31.4766 -31.4596 -31.4393
   -31.4282 -31.4150 -30.8512 -30.8500 -30.7710 -30.7703 -30.7319 -30.7310
   -21.3870 -19.7344 -15.7373 -15.7072 -15.6080 -15.4739 -15.4633 -15.4226
   -15.3815 -15.3226 -15.2644 -15.2617 -15.2196 -15.2038 -15.1909 -15.1541
   -15.1218 -15.0757 -15.0627 -15.0580 -15.0461 -14.9911 -14.9845 -14.9448
   -14.9266 -14.9195 -14.8752 -14.8677 -14.7931 -14.7530 -14.7306 -13.0323
   -13.0297  -9.1365  -6.6542  -5.3656  -5.3193  -4.5532  -4.5472  -3.5696
    -3.1682  -3.0269  -2.9909  -2.8320  -2.6960  -2.6853  -2.6308  -2.5406
    -2.5070  -2.4633  -2.4110  -2.3973  -2.3742  -2.3697  -2.3600  -2.3562
    -2.3481  -2.2969  -2.2785  -2.2418  -2.1873  -2.1799  -2.1667  -2.1603
    -2.1173  -2.1016  -2.0936  -2.0879  -2.0814  -2.0149  -1.9447  -1.8727
    -1.7824  -1.7419  -1.7203  -1.6840  -1.6483  -1.6132  -1.5916  -1.5738
    -1.4623  -1.4344  -1.2912  -1.2670  -1.2502  -1.2395  -1.1987  -1.1945
    -1.0616  -0.9846  -0.9745  -0.9507  -0.8961  -0.8623  -0.8175  -0.7920
    -0.7042  -0.6690  -0.6278  -0.5771  -0.4976  -0.4876  -0.4361  -0.4203
    -0.3387  -0.3245  -0.2935  -0.2905  -0.2244  -0.1789  -0.1047  -0.0982
    -0.0724   0.0346   0.0901   0.1041   0.2867   0.4606   0.4736   0.4845
     0.5963   0.6068   0.6521   0.7269   0.7373   0.8216   0.8772   0.9745
     0.9938   1.0033   1.0824   1.8363   1.8372   1.9267   1.9382   3.6343
     3.8536   3.8855   3.9055   3.9580   4.1145   4.1192   4.1324   4.1451
     4.2579   4.2755

     the Fermi energy is     3.6261 ev

!    total energy              =   -2970.35128154 Ry
     estimated scf accuracy    <       0.00000007 Ry
     smearing contrib. (-TS)   =      -0.03416565 Ry
     internal energy E=F+TS    =   -2970.31711589 Ry

     The total energy is F=E-TS. E is the sum of the following terms:
     one-electron contribution =  -23485.51843319 Ry
     hartree contribution      =   11835.38940819 Ry
     xc contribution           =    -491.50562348 Ry
     ewald contribution        =    9171.31567064 Ry
     electric field correction =       0.00186194 Ry

     convergence has been achieved in  74 iterations

     Forces acting on atoms (cartesian axes, Ry/au):

     atom    1 type  1   force =    -0.00027788    0.00014579   -0.00007490
     atom    2 type  2   force =    -0.00045956    0.00077087    0.00026042
     atom    3 type  2   force =     0.00015657   -0.00058461   -0.00028291
     atom    4 type  3   force =    -0.00007534    0.00001956    0.10425053
     atom    5 type  3   force =    -0.00006325   -0.00001361    0.10431528
     atom    6 type  3   force =    -0.06902648    0.00075891   -0.02907284
     atom    7 type  3   force =    -0.06857530   -0.00135952   -0.02907895
     atom    8 type  3   force =     0.06868828    0.00128715   -0.02914638
     atom    9 type  3   force =     0.06834054   -0.00098282   -0.02915495
     atom   10 type  3   force =     0.00016622    0.00038847    0.04598055
     atom   11 type  3   force =     0.00058426    0.00071965    0.04715604
     atom   12 type  3   force =     0.00031032   -0.00528788   -0.03194434
     atom   13 type  3   force =     0.00035977    0.00311391   -0.02592475
     atom   14 type  3   force =    -0.01816792   -0.00007327    0.00387458
     atom   15 type  3   force =    -0.01658537    0.00120325    0.00341342
     atom   16 type  3   force =     0.01842858   -0.00125520    0.00384167
     atom   17 type  3   force =     0.01758599    0.00141800    0.00328010
     atom   18 type  3   force =     0.00002078    0.00031405    0.00044004
     atom   19 type  3   force =     0.00003507   -0.00012263    0.00014049
     atom   20 type  3   force =    -0.00005594    0.00028591    0.00035322
     atom   21 type  3   force =    -0.00008336   -0.00030276   -0.00037453
     atom   22 type  3   force =     0.00036524    0.00031316    0.00030624
     atom   23 type  3   force =     0.00029683   -0.00027874    0.00029320
     atom   24 type  3   force =    -0.00036019    0.00038636    0.00017324
     atom   25 type  3   force =    -0.00025896   -0.00032115    0.00015333
     atom   26 type  3   force =    -0.00018227    0.00013703    0.00032144
     atom   27 type  3   force =    -0.00013595   -0.00009064    0.00018466
     atom   28 type  3   force =     0.00007768   -0.00002810   -0.00018061
     atom   29 type  3   force =     0.00001258    0.00021232   -0.00053407
     atom   30 type  3   force =    -0.00024576   -0.00042428    0.00001025
     atom   31 type  3   force =    -0.00048074    0.00049816    0.00005023
     atom   32 type  3   force =     0.00044857   -0.00053976    0.00029521
     atom   33 type  3   force =     0.00067138    0.00059689    0.00029890
     atom   34 type  3   force =    -0.00015557    0.00000582    0.00082469
     atom   35 type  3   force =    -0.00034835   -0.00058102   -0.00028663
     atom   36 type  4   force =    -0.00025959   -0.00177102    0.10172951
     atom   37 type  4   force =    -0.00008632    0.00135567    0.11445785
     atom   38 type  4   force =    -0.00032142    0.00053699   -0.18033046
     atom   39 type  4   force =    -0.00020572   -0.00040510   -0.18063718
     atom   40 type  4   force =     0.00025641    0.00082148   -0.00110395
     atom   41 type  4   force =     0.00020584   -0.00079120   -0.00086903
     atom   42 type  4   force =    -0.00022146    0.00087251   -0.00018905
     atom   43 type  4   force =    -0.00016780   -0.00020289    0.00002086
     atom   44 type  4   force =     0.00001363   -0.00009507    0.00030835
     atom   45 type  4   force =     0.00005286    0.00009558    0.00038074
     atom   46 type  4   force =    -0.00018254    0.00048810   -0.00009058
     atom   47 type  4   force =    -0.00030045   -0.00043273    0.00045176
     atom   48 type  4   force =    -0.00058255   -0.00006784    0.00088354
     atom   49 type  4   force =    -0.00051038    0.00007453    0.00025009
     atom   50 type  4   force =     0.00023204    0.00030218   -0.00020388
     atom   51 type  4   force =     0.00021395   -0.00054976   -0.00044916
     atom   52 type  5   force =    -0.00376867    0.00001710   -0.00028809
     atom   53 type  5   force =     0.00462166   -0.00057780    0.00151683

     Total force =     0.374217     Total SCF correction =     0.000903
  @ DRIVER MODE: Message from server: STATUS
  @ DRIVER MODE: Message from server: GETFORCE
  @ DRIVER MODE: Returning v,forces,stress,ensemble

     Writing output data file ./calc.save/
  @ DRIVER MODE: Message from server: EXIT
  @ DRIVE MODE: Exiting

     General routines

     Parallel routines

   This run was terminated on:  23:27: 4  14Sep2021

   JOB DONE.