     Program PWSCF v.6.7GPU starts on  2Aug2021 at 19: 9: 9

     R & G space division:  proc/nbgrp/npool/nimage =      16
     Reading input from /storage/home/hcoda1/3/ntian30/research/carbon/02Aug_vib_paired/ads_slab/CH3NNHH_a/out_0022/pw.inp
Warning: card &CELL ignored
Warning: card   CELL_DYNAMICS='IPI', ignored
Warning: card / ignored

     Current dimensions of program PWSCF are:
     Max number of different atomic species (ntypx) = 10
     Max number of k-points (npk) =  40000
     Max angular momentum in pseudopotentials (lmaxx) =  3
     Presently no symmetry can be used with electric field

     Message from routine cell_base_init:
     DEPRECATED: use true lattice parameter, not A to a.u. conversion factor

     IMPORTANT: XC functional enforced from input :
     Exchange-correlation= BEEF-VDW
                           (   1   4  43  14   2   0   0)
     Any further DFT definition will be discarded
     Please, verify this is what you really want

  @ DRIVER MODE: Connecting to
 qe_1139763_2482543.sched-torque.pace.gatech.edu_0ax1r11_scratch
  using UNIX socket
  @ DRIVER MODE: Message from server: STATUS
  @ DRIVER MODE: Message from server: INIT
  @ DRIVER MODE: Receiving replica           0          -1
  @ DRIVER MODE: Receiving encoded integer          25
  @ DRIVER MODE:  SCF:  T  FORCE:  T  STRESS:  F  VC:  F  ENSEMBLE:  F
  @ DRIVER MODE:  SCF:  T  FORCE:  T  STRESS:  F  VC:  F  ENSEMBLE:  F

     Using Slab Decomposition

     bravais-lattice index     =            0
     lattice parameter (alat)  =       1.8897  a.u.
     unit-cell volume          =    6658.9804 (a.u.)^3
     number of atoms/cell      =           55
     number of atomic types    =            5
     number of electrons       =       397.00
     number of Kohn-Sham states=          208
     kinetic-energy cutoff     =      29.3995  Ry
     charge density cutoff     =     293.9946  Ry
     scf convergence threshold =      7.3E-08
     mixing beta               =       0.0500
     number of iterations used =            8  plain     mixing
     Exchange-correlation= BEEF-VDW
                           (   1   4  43  14   2   0   0)

     celldm(1)=   1.889726  celldm(2)=   0.000000  celldm(3)=   0.000000
     celldm(4)=   0.000000  celldm(5)=   0.000000  celldm(6)=   0.000000

     crystal axes: (cart. coord. in units of alat)
               a(1) = (   6.579727   0.000000   0.000000 )
               a(2) = (  -0.000775   5.961596   0.000000 )
               a(3) = (   0.000000   0.000000  25.155947 )

     reciprocal axes: (cart. coord. in units 2 pi/alat)
               b(1) = (  0.151982  0.000020  0.000000 )
               b(2) = (  0.000000  0.167740  0.000000 )
               b(3) = (  0.000000  0.000000  0.039752 )

     PseudoPot. # 1 for Ti read from file:
     /storage/coda1/p-amedford6/0/shared/rich_project_chbe-medford/medford-share/data/pseudos_module/espresso/nninc/pbe/van/Ti.UPF
     MD5 check sum: 8e4df49b7f0d34bbd5052bf3f5ea0213
     Pseudo is Ultrasoft, Zval = 12.0
     Generated by new atomic code, or converted to UPF format
     Using radial grid of  851 points,  6 beta functions with:
                l(1) =   0
                l(2) =   0
                l(3) =   1
                l(4) =   1
                l(5) =   2
                l(6) =   2
     Q(r) pseudized with  8 coefficients,  rinner =    1.000   1.000   1.000
                                                       1.000   1.000

     PseudoPot. # 2 for O  read from file:
     /storage/coda1/p-amedford6/0/shared/rich_project_chbe-medford/medford-share/data/pseudos_module/espresso/nninc/pbe/van/O.UPF
     MD5 check sum: 78c19812648e8988a0fe644b0f25305e
     Pseudo is Ultrasoft, Zval =  6.0
     Generated by new atomic code, or converted to UPF format
     Using radial grid of  737 points,  4 beta functions with:
                l(1) =   0
                l(2) =   0
                l(3) =   1
                l(4) =   1
     Q(r) pseudized with  8 coefficients,  rinner =    0.800   0.800   0.800

     PseudoPot. # 3 for N  read from file:
     /storage/coda1/p-amedford6/0/shared/rich_project_chbe-medford/medford-share/data/pseudos_module/espresso/nninc/pbe/van/N.UPF
     MD5 check sum: 90d10febe142ad51ac9d5be1deb811c4
     Pseudo is Ultrasoft, Zval =  5.0
     Generated by new atomic code, or converted to UPF format
     Using radial grid of  729 points,  4 beta functions with:
                l(1) =   0
                l(2) =   0
                l(3) =   1
                l(4) =   1
     Q(r) pseudized with  8 coefficients,  rinner =    0.800   0.800   0.800

     PseudoPot. # 4 for C  read from file:
     /storage/coda1/p-amedford6/0/shared/rich_project_chbe-medford/medford-share/data/pseudos_module/espresso/nninc/pbe/van/C.UPF
     MD5 check sum: 1a69bf6b8db32088f5b2163dbdb77a27
     Pseudo is Ultrasoft, Zval =  4.0
     Generated by new atomic code, or converted to UPF format
     Using radial grid of  721 points,  4 beta functions with:
                l(1) =   0
                l(2) =   0
                l(3) =   1
                l(4) =   1
     Q(r) pseudized with  8 coefficients,  rinner =    0.800   0.800   0.800

     PseudoPot. # 5 for H  read from file:
     /storage/coda1/p-amedford6/0/shared/rich_project_chbe-medford/medford-share/data/pseudos_module/espresso/nninc/pbe/van/H.UPF
     MD5 check sum: b5ee9d7bfd3a09ee7748110bda690ff7
     Pseudo is Ultrasoft, Zval =  1.0
     Generated by new atomic code, or converted to UPF format
     Using radial grid of  615 points,  1 beta functions with:
                l(1) =   0
     Q(r) pseudized with  8 coefficients,  rinner =    0.800

     atomic species   valence    mass     pseudopotential
        Ti1           12.00    47.86700     Ti( 1.00)
        O1             6.00    15.99900     O ( 1.00)
        N1             5.00    14.00700     N ( 1.00)
        C1             4.00    12.01100     C ( 1.00)
        H1             1.00     1.00800     H ( 1.00)

     No symmetry found

   Cartesian axes

     site n.     atom                  positions (alat units)
         1           Ti1 tau(   1) = (   0.0004258   2.9801865   6.0000000  )
         2           Ti1 tau(   2) = (   3.2906075   1.4906267   6.0002472  )
         3           O1  tau(   3) = (   0.0006271   0.0005054   7.9858123  )
         4           O1  tau(   4) = (   3.2906025   0.0005020   7.3038282  )
         5           O1  tau(   5) = (   4.5942328   1.4918067   9.2879030  )
         6           O1  tau(   6) = (   1.9868534   1.4903216   9.2879459  )
         7           Ti1 tau(   7) = (   3.2907910   2.8959150   9.1758416  )
         8           Ti1 tau(   8) = (   0.0015273   1.4827037   9.2680791  )
         9           O1  tau(   9) = (   3.3049802   0.0007868  11.3057318  )
        10           O1  tau(  10) = (   0.0116148   5.9584955  10.6183126  )
        11           O1  tau(  11) = (   1.3244024   1.4905818  12.6109357  )
        12           O1  tau(  12) = (   5.3168099   1.4893704  12.6271843  )
        13           Ti1 tau(  13) = (   6.5373159   3.0114403  12.6515439  )
        14           Ti1 tau(  14) = (   3.2156784   1.4952808  12.4541107  )
        15           O1  tau(  15) = (   0.0550716   5.9579553  14.6769760  )
        16           O1  tau(  16) = (   3.3119233   0.0240268  13.8744051  )
        17           O1  tau(  17) = (   4.5754650   1.5399768  16.1198157  )
        18           O1  tau(  18) = (   2.0928293   1.5118261  15.9950610  )
        19           Ti1 tau(  19) = (   3.3312717   3.0210965  15.6459898  )
        20           Ti1 tau(  20) = (   0.0837956   1.4057146  15.8023643  )
        21           O1  tau(  21) = (   3.2904802   0.0005063   4.7018136  )
        22           O1  tau(  22) = (   0.0662678   0.0194342  17.2484716  )
        23           O1  tau(  23) = (   1.3043587   1.4918075   6.0039043  )
        24           O1  tau(  24) = (   5.2767064   1.4903225   6.0039473  )
        25           Ti1 tau(  25) = (   0.0000382   5.9609847   6.0000000  )
        26           Ti1 tau(  26) = (   3.2902200   4.4714249   6.0002472  )
        27           O1  tau(  27) = (   0.0002396   2.9813036   7.9858123  )
        28           O1  tau(  28) = (   3.2902150   2.9813002   7.3038282  )
        29           O1  tau(  29) = (   4.5938453   4.4726049   9.2879030  )
        30           O1  tau(  30) = (   1.9864658   4.4711199   9.2879459  )
        31           Ti1 tau(  31) = (   3.2891106   5.8743827   9.1763621  )
        32           Ti1 tau(  32) = (   0.0006254   4.4649316   9.2693709  )
        33           O1  tau(  33) = (   3.3066024   2.9928613  11.3071500  )
        34           O1  tau(  34) = (   0.0092240   2.9805883  10.6323155  )
        35           O1  tau(  35) = (   1.3207996   4.4694119  12.6241097  )
        36           O1  tau(  36) = (   5.3140488   4.4801720  12.6365454  )
        37           Ti1 tau(  37) = (   6.5381296   0.0208815  12.5444857  )
        38           Ti1 tau(  38) = (   3.2183512   4.4801350  12.4586296  )
        39           O1  tau(  39) = (   0.0202472   2.9427232  14.7250097  )
        40           O1  tau(  40) = (   3.3152672   2.9848540  13.8607131  )
        41           O1  tau(  41) = (   4.5737023   4.5140360  15.9163038  )
        42           O1  tau(  42) = (   2.1295162   4.4918226  16.0779194  )
        43           Ti1 tau(  43) = (   3.3279662   0.0229233  15.6733299  )
        44           Ti1 tau(  44) = (   6.5520288   4.5036137  16.2892914  )
        45           O1  tau(  45) = (   3.2900926   2.9813045   4.7018136  )
        46           O1  tau(  46) = (   1.3039711   4.4726057   6.0039043  )
        47           O1  tau(  47) = (   5.2763189   4.4711207   6.0039473  )
        48           N1  tau(  48) = (   0.3708600   2.9881754  17.6030774  )
        49           C1  tau(  49) = (   1.3543844   2.7351176  18.6431602  )
        50           H1  tau(  50) = (   1.5086739   3.6319226  19.2591966  )
        51           H1  tau(  51) = (   1.0320479   1.9169190  19.2840631  )
        52           H1  tau(  52) = (   2.3019873   2.4496563  18.1994378  )
        53           N1  tau(  53) = (   5.7269228   3.4566738  18.1314761  )
        54           H1  tau(  54) = (   5.8315057   4.0292447  18.9662490  )
        55           H1  tau(  55) = (   5.0361168   2.7172796  18.2515220  )

     number of k points=    10  Fermi-Dirac smearing, width (Ry)=  0.0073
                       cart. coord. in units 2pi/alat
        k(    1) = (   0.0000000   0.0000000   0.0000000), wk =   0.1250000
        k(    2) = (   0.0000000   0.0419351   0.0000000), wk =   0.2500000
        k(    3) = (   0.0000000  -0.0838702   0.0000000), wk =   0.1250000
        k(    4) = (   0.0379955   0.0000049   0.0000000), wk =   0.2500000
        k(    5) = (   0.0379955   0.0419400   0.0000000), wk =   0.2500000
        k(    6) = (   0.0379955  -0.0838652   0.0000000), wk =   0.2500000
        k(    7) = (   0.0379955  -0.0419301   0.0000000), wk =   0.2500000
        k(    8) = (  -0.0759910  -0.0000099   0.0000000), wk =   0.1250000
        k(    9) = (  -0.0759910   0.0419252   0.0000000), wk =   0.2500000
        k(   10) = (  -0.0759910  -0.0838800   0.0000000), wk =   0.1250000

     Initial potential from superposition of free atoms

     starting charge  380.99914, renormalised to  397.00000

     negative rho (up, down):  1.666E-02 0.000E+00

     %%%%%%%%%%%%%%%%%%%%%%%%%%%%%%%%%%%%%%%%%%%%%%%%%%%%%%%%%%%%%%%%%%%%%%%%
     %                                                                      %
     % You are using vdW-DF, which was implemented by the Thonhauser group. %
     % Please cite the following two papers that made this development      %
     % possible and the two reviews that describe the various versions:     %
     %                                                                      %
     %   T. Thonhauser et al., PRL 115, 136402 (2015).                      %
     %   T. Thonhauser et al., PRB 76, 125112 (2007).                       %
     %   K. Berland et al., Rep. Prog. Phys. 78, 066501 (2015).             %
     %   D.C. Langreth et al., J. Phys.: Condens. Matter 21, 084203 (2009). %
     %                                                                      %
     %                                                                      %
     % If you are calculating the stress with vdW-DF, please also cite:     %
     %                                                                      %
     %   R. Sabatini et al., J. Phys.: Condens. Matter 24, 424209 (2012).   %
     %                                                                      %
     %%%%%%%%%%%%%%%%%%%%%%%%%%%%%%%%%%%%%%%%%%%%%%%%%%%%%%%%%%%%%%%%%%%%%%%%

     Adding external electric field

     Computed dipole along edir(3) :
        Dipole               -9.2540 Ry au,        -23.5213 Debye
        Dipole field         -0.0175 Ry au,

        Potential amp.        1.6188 Ry
        Total length         46.3494 bohr

     Starting wfcs are  301 atomic wfcs
  @ DRIVER MODE: Message from server: STATUS
  @ DRIVER MODE: Message from server: POSDATA
  @ DRIVER MODE: Reading and sharing cell
  @ DRIVER MODE: Reading and sharing positions
  @ DRIVER MODE: Received positions

     Self-consistent Calculation

     iteration #  1     ecut=    29.40 Ry     beta= 0.05
     Davidson diagonalization with overlap
     c_bands:  1 eigenvalues not converged
     c_bands:  2 eigenvalues not converged
     c_bands:  1 eigenvalues not converged
     c_bands:  2 eigenvalues not converged
     c_bands:  2 eigenvalues not converged
     c_bands:  1 eigenvalues not converged
     c_bands:  2 eigenvalues not converged
     c_bands:  2 eigenvalues not converged
     c_bands:  4 eigenvalues not converged
     ethr =  1.00E-05,  avg # of iterations = 19.7

[...]

     total energy              =   -2525.58040058 Ry
     estimated scf accuracy    <    4612.66522907 Ry

     iteration #  2     ecut=    29.40 Ry     beta= 0.05
     Davidson diagonalization with overlap
     ethr =  1.00E-02,  avg # of iterations = 22.9

[...]

     iteration # 56     ecut=    29.40 Ry     beta= 0.05
     Davidson diagonalization with overlap
     c_bands:  1 eigenvalues not converged
     ethr =  5.72E-11,  avg # of iterations = 14.5

[...]

     total energy              =   -2941.63739722 Ry
     estimated scf accuracy    <       0.00000020 Ry

     iteration # 58     ecut=    29.40 Ry     beta= 0.05
     Davidson diagonalization with overlap
     ethr =  4.93E-11,  avg # of iterations =  9.8

     negative rho (up, down):  1.675E-02 0.000E+00

     Adding external electric field

     Computed dipole along edir(3) :
        Dipole                1.1523 Ry au,          2.9289 Debye
        Dipole field          0.0022 Ry au,

        Potential amp.       -0.2016 Ry
        Total length         46.3494 bohr

     End of self-consistent calculation

          k = 0.0000 0.0000 0.0000 ( 18029 PWs)   bands (ev):

   -55.5712 -55.5685 -55.5344 -55.5343 -55.4575 -55.4212 -55.4195 -55.3861
   -55.3689 -55.3348 -55.3236 -55.2898 -55.0307 -54.8861 -54.5348 -54.5007
   -32.1339 -32.0497 -31.9547 -31.8905 -31.8856 -31.8710 -31.8610 -31.8162
   -31.8091 -31.8024 -31.7821 -31.7570 -31.7531 -31.7237 -31.7207 -31.7130
   -31.6717 -31.6582 -31.6553 -31.6464 -31.6455 -31.6258 -31.6092 -31.5937
   -31.5667 -31.5659 -31.5644 -31.5565 -31.5540 -31.5275 -31.5039 -31.5030
   -31.4972 -31.4904 -31.4781 -31.4723 -31.4373 -31.3069 -31.2556 -31.1571
   -31.1389 -31.0468 -30.9412 -30.8546 -30.8321 -30.7583 -30.6718 -30.5604
   -17.5930 -16.3600 -16.0469 -15.8356 -15.7245 -15.7199 -15.6361 -15.4151
   -15.2950 -15.2796 -15.1633 -15.1583 -15.0998 -15.0590 -15.0525 -15.0468
   -15.0121 -15.0001 -14.9817 -14.9513 -14.9129 -14.8953 -14.8753 -14.7691
   -14.7072 -14.6974 -14.6814 -14.6147 -14.5707 -14.2061 -13.0370 -12.9208
   -12.5480  -9.2173  -6.3493  -5.1052  -4.2103  -3.7382  -3.5472  -3.4717
    -3.4369  -3.3732  -3.3590  -3.1805  -3.1732  -2.7952  -2.7743  -2.7552
    -2.7336  -2.7309  -2.4631  -2.4103  -2.3938  -2.3914  -2.3742  -2.3559
    -2.3348  -2.3242  -2.2956  -2.2902  -2.1537  -2.1093  -2.0303  -1.9997
    -1.9904  -1.8767  -1.8532  -1.8317  -1.8208  -1.8064  -1.7783  -1.7702
    -1.7500  -1.6411  -1.5325  -1.4588  -1.4146  -1.3596  -1.3444  -1.1605
    -1.1100  -1.0510  -1.0259  -1.0007  -0.9858  -0.9523  -0.8779  -0.8543
    -0.7121  -0.6738  -0.6209  -0.5947  -0.5641  -0.5081  -0.4732  -0.4455
    -0.3493  -0.3362  -0.3245  -0.3116  -0.2519  -0.0637  -0.0162   0.0018
     0.0174   0.1174   0.1572   0.1800   0.2167   0.2727   0.2985   0.3652
     0.3954   0.4148   0.4247   0.4487   0.4712   0.6028   0.6306   0.6603
     0.7194   0.7734   0.8502   0.9621   1.0481   1.1009   1.2022   1.4205
     1.4875   1.5716   1.6813   1.7041   2.0570   2.1021   3.5667   3.6572
     3.6955   3.7093   3.8163   3.8679   4.0157   4.0255   4.0683   4.0971

[...]

          k = 0.0380-0.0419 0.0000 ( 17876 PWs)   bands (ev):

[...]

          k =-0.0760-0.0000 0.0000 ( 17886 PWs)   bands (ev):

[...]

          k =-0.0760-0.0839 0.0000 ( 17948 PWs)   bands (ev):

   -55.5560 -55.5520 -55.5507 -55.5493 -55.4467 -55.4302 -55.4061 -55.4010
   -55.3533 -55.3500 -55.3083 -55.3052 -55.0292 -54.8874 -54.5178 -54.5176
   -31.9389 -31.9300 -31.8654 -31.8647 -31.8469 -31.8459 -31.8410 -31.8258
   -31.7989 -31.7852 -31.7658 -31.7470 -31.7189 -31.7102 -31.7051 -31.6802
   -31.6781 -31.6717 -31.6702 -31.6658 -31.6626 -31.6498 -31.6466 -31.6423
   -31.6233 -31.6113 -31.6012 -31.5993 -31.5506 -31.5484 -31.5413 -31.5395
   -31.5326 -31.5291 -31.5237 -31.5221 -31.4123 -31.3192 -31.2574 -31.2182
   -31.1446 -31.0587 -30.8448 -30.8447 -30.7541 -30.7539 -30.7151 -30.7150
   -17.5812 -15.8176 -15.7821 -15.5244 -15.5169 -15.5151 -15.4736 -15.3508
   -15.3022 -15.2756 -15.2641 -15.2452 -15.2388 -15.1339 -15.1214 -15.1040
   -15.0943 -15.0682 -15.0248 -15.0190 -15.0115 -15.0015 -14.9897 -14.9252
   -14.8702 -14.8665 -14.7577 -14.6633 -14.5206 -14.4363 -13.0229 -13.0224
   -12.5673  -9.1783  -6.3090  -5.1336  -4.1441  -3.4288  -3.1188  -3.0748
    -2.7862  -2.7671  -2.7533  -2.6370  -2.5170  -2.5079  -2.4831  -2.4604
    -2.4271  -2.4133  -2.4049  -2.3965  -2.3781  -2.3591  -2.3480  -2.3094
    -2.2402  -2.2332  -2.2254  -2.2153  -2.1988  -2.1749  -2.1651  -2.1369
    -2.1127  -2.0797  -2.0206  -1.9889  -1.8388  -1.7921  -1.7397  -1.6938
    -1.6855  -1.6561  -1.6228  -1.6151  -1.5080  -1.4932  -1.4574  -1.3280
    -1.2664  -1.2585  -1.2257  -1.1401  -1.1007  -0.9712  -0.9584  -0.9223
    -0.8690  -0.8573  -0.8202  -0.7828  -0.7304  -0.6789  -0.6348  -0.6105
    -0.5942  -0.5222  -0.5214  -0.4753  -0.4177  -0.3495  -0.3245  -0.3168
    -0.2856  -0.2416  -0.1955  -0.1305  -0.0559  -0.0356  -0.0201   0.0778
     0.1540   0.3702   0.4156   0.5173   0.5369   0.5623   0.6253   0.6741
     0.7437   0.7576   0.7870   0.8609   0.8828   0.9737   0.9843   1.0008
     1.1793   1.6361   1.8530   1.8539   1.9216   1.9223   3.8609   3.8744
     3.9006   3.9246   4.0860   4.0898   4.1020   4.1047   4.2259   4.2841

     the Fermi energy is     3.5656 ev

!    total energy              =   -2941.63745424 Ry
     estimated scf accuracy    <       0.00000005 Ry
     smearing contrib. (-TS)   =      -0.02170571 Ry
     internal energy E=F+TS    =   -2941.61574854 Ry

     The total energy is F=E-TS. E is the sum of the following terms:
     one-electron contribution =  -24405.39215989 Ry
     hartree contribution      =   12294.66351738 Ry
     xc contribution           =    -486.95032134 Ry
     ewald contribution        =    9656.06070954 Ry
     electric field correction =       0.00250577 Ry

     convergence has been achieved in  58 iterations

     Forces acting on atoms (cartesian axes, Ry/au):

     atom    1 type  1   force =     0.00002840   -0.00018855    0.09683035
     atom    2 type  1   force =     0.00010548   -0.00065863   -0.17454914
     atom    3 type  2   force =     0.00020102   -0.00005477   -0.02507983
     atom    4 type  2   force =     0.00001431   -0.00122313    0.05106873
     atom    5 type  2   force =    -0.01107552   -0.00078555    0.00212988
     atom    6 type  2   force =     0.01302914   -0.00028379    0.00280474
     atom    7 type  1   force =     0.00113686    0.00020783   -0.01335939
     atom    8 type  1   force =    -0.00018313    0.01540578    0.02796399
     atom    9 type  2   force =    -0.00011320    0.00044782    0.00002019
     atom   10 type  2   force =    -0.00221717    0.00097646   -0.01127508
     atom   11 type  2   force =     0.00029354   -0.00011745    0.00016855
     atom   12 type  2   force =    -0.00025662   -0.00012302    0.00039470
     atom   13 type  1   force =    -0.00009114   -0.00028010    0.00011927
     atom   14 type  1   force =     0.00012041    0.00011966   -0.00004272
     atom   15 type  2   force =     0.00011030   -0.00052767   -0.00034496
     atom   16 type  2   force =    -0.00044212    0.00016579    0.00028648
     atom   17 type  2   force =    -0.00020121   -0.00003434   -0.00005902
     atom   18 type  2   force =    -0.00036171   -0.00001221    0.00019474
     atom   19 type  1   force =    -0.00002628    0.00037176   -0.00032228
     atom   20 type  1   force =    -0.00031952   -0.00000011    0.00023271
     atom   21 type  2   force =     0.00004828   -0.00009918    0.10294937
     atom   22 type  2   force =    -0.00075128   -0.00040154    0.00038714
     atom   23 type  2   force =    -0.07181403   -0.00021100   -0.02780361
     atom   24 type  2   force =     0.07178328    0.00024469   -0.02785908
     atom   25 type  1   force =     0.00004034   -0.00022729    0.09636914
     atom   26 type  1   force =    -0.00000629   -0.00031027   -0.17482718
     atom   27 type  2   force =     0.00020390   -0.00025116   -0.02393071
     atom   28 type  2   force =     0.00007602   -0.00096170    0.05129040
     atom   29 type  2   force =    -0.01107172    0.00095747    0.00148899
     atom   30 type  2   force =     0.01287958    0.00120135    0.00211895
     atom   31 type  1   force =     0.00115092    0.00258470   -0.01567569
     atom   32 type  1   force =    -0.00002080   -0.01667928    0.02888338
     atom   33 type  2   force =    -0.00017861   -0.00044860    0.00044345
     atom   34 type  2   force =    -0.00258295    0.00114603   -0.01891562
     atom   35 type  2   force =    -0.00010713   -0.00010693    0.00003974
     atom   36 type  2   force =    -0.00002906   -0.00018485    0.00022459
     atom   37 type  1   force =    -0.00023960   -0.00016899    0.00050137
     atom   38 type  1   force =     0.00009925   -0.00053793    0.00034276
     atom   39 type  2   force =     0.00004922    0.00046198    0.00019553
     atom   40 type  2   force =    -0.00032071   -0.00013132   -0.00069311
     atom   41 type  2   force =     0.00014799    0.00001694    0.00006705
     atom   42 type  2   force =    -0.00013764    0.00019533    0.00021782
     atom   43 type  1   force =     0.00004582   -0.00047376   -0.00076693
     atom   44 type  1   force =    -0.00051763    0.00128558   -0.00023281
     atom   45 type  2   force =     0.00006081   -0.00011042    0.10297064
     atom   46 type  2   force =    -0.07183327   -0.00017398   -0.02781681
     atom   47 type  2   force =     0.07179023    0.00020776   -0.02786127
     atom   48 type  3   force =    -0.00043680   -0.00111609   -0.00042060
     atom   49 type  4   force =     0.00246237    0.00797664   -0.00347391
     atom   50 type  5   force =     0.00044091    0.00063793   -0.00017985
     atom   51 type  5   force =    -0.00330860   -0.00826318    0.00446501
     atom   52 type  5   force =     0.00127061   -0.00055659    0.00022139
     atom   53 type  3   force =     0.00039648    0.00038853    0.00073093
     atom   54 type  5   force =     0.00063199   -0.00018336    0.00111621
     atom   55 type  5   force =     0.00002628    0.00088671   -0.00174857

     Total force =     0.367329     Total SCF correction =     0.000739
  @ DRIVER MODE: Message from server: STATUS
  @ DRIVER MODE: Message from server: GETFORCE
  @ DRIVER MODE: Returning v,forces,stress,ensemble

     Writing output data file ./calc.save/
  @ DRIVER MODE: Message from server: EXIT
  @ DRIVE MODE: Exiting

     General routines

     Parallel routines

   This run was terminated on:  19:23: 0   2Aug2021

   JOB DONE.