     Program PWSCF v.6.7GPU starts on 29Sep2021 at 19:50:27

     R & G space division:  proc/nbgrp/npool/nimage =       8
     Reading input from /storage/home/hcoda1/3/ntian30/research/carbon/CxH_vib/pristine/ads_slab/CH2N2_c/out_0012/pw.inp
Warning: card &CELL ignored
Warning: card   CELL_DYNAMICS='IPI', ignored
Warning: card / ignored

     Current dimensions of program PWSCF are:
     Max number of different atomic species (ntypx) = 10
     Max number of k-points (npk) =  40000
     Max angular momentum in pseudopotentials (lmaxx) =  3
     Presently no symmetry can be used with electric field

     Message from routine cell_base_init:
     DEPRECATED: use true lattice parameter, not A to a.u. conversion factor

     IMPORTANT: XC functional enforced from input :
     Exchange-correlation= BEEF-VDW
                           (   1   4  43  14   2   0   0)
     Any further DFT definition will be discarded
     Please, verify this is what you really want

  @ DRIVER MODE: Connecting to
 qe_1139763_3025227.sched-torque.pace.gatech.eduu05fr4ro_scratch
  using UNIX socket
  @ DRIVER MODE: Message from server: STATUS
  @ DRIVER MODE: Message from server: INIT
  @ DRIVER MODE: Receiving replica           0          -1
  @ DRIVER MODE: Receiving encoded integer          25
  @ DRIVER MODE:  SCF:  T  FORCE:  T  STRESS:  F  VC:  F  ENSEMBLE:  F
  @ DRIVER MODE:  SCF:  T  FORCE:  T  STRESS:  F  VC:  F  ENSEMBLE:  F

     Using Slab Decomposition

     bravais-lattice index     =            0
     lattice parameter (alat)  =       1.8897  a.u.
     unit-cell volume          =    6658.9804 (a.u.)^3
     number of atoms/cell      =           53
     number of atomic types    =            5
     number of electrons       =       400.00
     number of Kohn-Sham states=          210
     kinetic-energy cutoff     =      29.3995  Ry
     charge density cutoff     =     293.9946  Ry
     scf convergence threshold =      7.3E-08
     mixing beta               =       0.0500
     number of iterations used =            8  plain     mixing
     Exchange-correlation= BEEF-VDW
                           (   1   4  43  14   2   0   0)

     celldm(1)=   1.889726  celldm(2)=   0.000000  celldm(3)=   0.000000
     celldm(4)=   0.000000  celldm(5)=   0.000000  celldm(6)=   0.000000

     crystal axes: (cart. coord. in units of alat)
               a(1) = (   6.579727   0.000000   0.000000 )
               a(2) = (  -0.000775   5.961596   0.000000 )
               a(3) = (   0.000000   0.000000  25.155947 )

     reciprocal axes: (cart. coord. in units 2 pi/alat)
               b(1) = (  0.151982  0.000020  0.000000 )
               b(2) = (  0.000000  0.167740  0.000000 )
               b(3) = (  0.000000  0.000000  0.039752 )

     PseudoPot. # 1 for Ti read from file:
     /storage/coda1/p-amedford6/0/shared/rich_project_chbe-medford/medford-share/data/pseudos_module/espresso/nninc/pbe/van/Ti.UPF
     MD5 check sum: 8e4df49b7f0d34bbd5052bf3f5ea0213
     Pseudo is Ultrasoft, Zval = 12.0
     Generated by new atomic code, or converted to UPF format
     Using radial grid of  851 points,  6 beta functions with:
                l(1) =   0
                l(2) =   0
                l(3) =   1
                l(4) =   1
                l(5) =   2
                l(6) =   2
     Q(r) pseudized with  8 coefficients,  rinner =    1.000   1.000   1.000
                                                       1.000   1.000

     PseudoPot. # 2 for O  read from file:
     /storage/coda1/p-amedford6/0/shared/rich_project_chbe-medford/medford-share/data/pseudos_module/espresso/nninc/pbe/van/O.UPF
     MD5 check sum: 78c19812648e8988a0fe644b0f25305e
     Pseudo is Ultrasoft, Zval =  6.0
     Generated by new atomic code, or converted to UPF format
     Using radial grid of  737 points,  4 beta functions with:
                l(1) =   0
                l(2) =   0
                l(3) =   1
                l(4) =   1
     Q(r) pseudized with  8 coefficients,  rinner =    0.800   0.800   0.800

     PseudoPot. # 3 for N  read from file:
     /storage/coda1/p-amedford6/0/shared/rich_project_chbe-medford/medford-share/data/pseudos_module/espresso/nninc/pbe/van/N.UPF
     MD5 check sum: 90d10febe142ad51ac9d5be1deb811c4
     Pseudo is Ultrasoft, Zval =  5.0
     Generated by new atomic code, or converted to UPF format
     Using radial grid of  729 points,  4 beta functions with:
                l(1) =   0
                l(2) =   0
                l(3) =   1
                l(4) =   1
     Q(r) pseudized with  8 coefficients,  rinner =    0.800   0.800   0.800

     PseudoPot. # 4 for C  read from file:
     /storage/coda1/p-amedford6/0/shared/rich_project_chbe-medford/medford-share/data/pseudos_module/espresso/nninc/pbe/van/C.UPF
     MD5 check sum: 1a69bf6b8db32088f5b2163dbdb77a27
     Pseudo is Ultrasoft, Zval =  4.0
     Generated by new atomic code, or converted to UPF format
     Using radial grid of  721 points,  4 beta functions with:
                l(1) =   0
                l(2) =   0
                l(3) =   1
                l(4) =   1
     Q(r) pseudized with  8 coefficients,  rinner =    0.800   0.800   0.800

     PseudoPot. # 5 for H  read from file:
     /storage/coda1/p-amedford6/0/shared/rich_project_chbe-medford/medford-share/data/pseudos_module/espresso/nninc/pbe/van/H.UPF
     MD5 check sum: b5ee9d7bfd3a09ee7748110bda690ff7
     Pseudo is Ultrasoft, Zval =  1.0
     Generated by new atomic code, or converted to UPF format
     Using radial grid of  615 points,  1 beta functions with:
                l(1) =   0
     Q(r) pseudized with  8 coefficients,  rinner =    0.800

     atomic species   valence    mass     pseudopotential
        Ti1           12.00    47.86700     Ti( 1.00)
        O1             6.00    15.99900     O ( 1.00)
        N1             5.00    14.00700     N ( 1.00)
        C1             4.00    12.01100     C ( 1.00)
        H1             1.00     1.00800     H ( 1.00)

     No symmetry found

   Cartesian axes

     site n.     atom                  positions (alat units)
         1           Ti1 tau(   1) = (   0.0004258   2.9801865   6.0000000  )
         2           Ti1 tau(   2) = (   3.2906075   1.4906267   6.0002472  )
         3           O1  tau(   3) = (   0.0006271   0.0005054   7.9858123  )
         4           O1  tau(   4) = (   3.2906025   0.0005020   7.3038282  )
         5           O1  tau(   5) = (   4.5942328   1.4918067   9.2879030  )
         6           O1  tau(   6) = (   1.9868534   1.4903216   9.2879459  )
         7           Ti1 tau(   7) = (   3.2785950   2.8620264   9.1674676  )
         8           Ti1 tau(   8) = (   6.5781813   1.4341531   9.3833155  )
         9           O1  tau(   9) = (   3.3145900   5.9487502  11.3480437  )
        10           O1  tau(  10) = (   0.0063384   5.9489964  10.5610107  )
        11           O1  tau(  11) = (   1.3034973   1.4807819  12.6446922  )
        12           O1  tau(  12) = (   5.3015769   1.4818569  12.6358846  )
        13           Ti1 tau(  13) = (   0.1076100   2.9713955  12.8282313  )
        14           Ti1 tau(  14) = (   3.4293281   1.4717859  12.4936833  )
        15           O1  tau(  15) = (   0.0296261   0.0013950  14.6649934  )
        16           O1  tau(  16) = (   3.3139734   5.9559375  13.9452938  )
        17           O1  tau(  17) = (   4.5568938   1.4842850  16.0642655  )
        18           O1  tau(  18) = (   2.0675170   1.4827017  16.0617013  )
        19           Ti1 tau(  19) = (   3.3081901   2.9629817  15.7008690  )
        20           Ti1 tau(  20) = (   0.0097687   1.4520379  16.1724920  )
        21           O1  tau(  21) = (   3.2904802   0.0005063   4.7018136  )
        22           O1  tau(  22) = (   0.0191552   5.9343797  17.2479478  )
        23           O1  tau(  23) = (   1.3043587   1.4918075   6.0039043  )
        24           O1  tau(  24) = (   5.2767064   1.4903225   6.0039473  )
        25           Ti1 tau(  25) = (   0.0000382   5.9609847   6.0000000  )
        26           Ti1 tau(  26) = (   3.2902200   4.4714249   6.0002472  )
        27           O1  tau(  27) = (   0.0002396   2.9813036   7.9858123  )
        28           O1  tau(  28) = (   3.2902150   2.9813002   7.3038282  )
        29           O1  tau(  29) = (   4.5938453   4.4726049   9.2879030  )
        30           O1  tau(  30) = (   1.9864658   4.4711199   9.2879459  )
        31           Ti1 tau(  31) = (   3.2981115   5.8424800   9.1654069  )
        32           Ti1 tau(  32) = (   0.0061885   4.4171606   9.3817948  )
        33           O1  tau(  33) = (   3.3160899   2.9715062  11.3475872  )
        34           O1  tau(  34) = (   0.0081518   2.9687805  10.5628331  )
        35           O1  tau(  35) = (   1.3040072   4.4662140  12.6497434  )
        36           O1  tau(  36) = (   5.3008443   4.4652654  12.6404979  )
        37           Ti1 tau(  37) = (   0.1012718   5.9536009  12.8334903  )
        38           Ti1 tau(  38) = (   3.4286588   4.4602296  12.4928226  )
        39           O1  tau(  39) = (   0.0319021   2.9714116  14.6601935  )
        40           O1  tau(  40) = (   3.3101560   2.9646938  13.9065487  )
        41           O1  tau(  41) = (   4.5621106   4.4348364  16.0307704  )
        42           O1  tau(  42) = (   2.0631145   4.4362735  16.0340239  )
        43           Ti1 tau(  43) = (   3.3022073   5.9430436  15.7660435  )
        44           Ti1 tau(  44) = (   0.0096536   4.4281594  16.1671579  )
        45           O1  tau(  45) = (   3.2900926   2.9813045   4.7018136  )
        46           O1  tau(  46) = (   0.0201356   2.9582321  17.2481609  )
        47           O1  tau(  47) = (   1.3039711   4.4726057   6.0039043  )
        48           O1  tau(  48) = (   5.2763189   4.4711207   6.0039473  )
        49           N1  tau(  49) = (   3.1912726   0.1001446  19.4138715  )
        50           N1  tau(  50) = (   3.2720412   5.7295159  18.3336336  )
        51           C1  tau(  51) = (   3.0989320   0.4433392  20.6510207  )
        52           H1  tau(  52) = (   2.1138422   0.5496673  21.0731464  )
        53           H1  tau(  53) = (   4.0116933   0.5939059  21.2009644  )

     number of k points=    10  Fermi-Dirac smearing, width (Ry)=  0.0073
                       cart. coord. in units 2pi/alat
        k(    1) = (   0.0000000   0.0000000   0.0000000), wk =   0.1250000
        k(    2) = (   0.0000000   0.0419351   0.0000000), wk =   0.2500000
        k(    3) = (   0.0000000  -0.0838702   0.0000000), wk =   0.1250000
        k(    4) = (   0.0379955   0.0000049   0.0000000), wk =   0.2500000
        k(    5) = (   0.0379955   0.0419400   0.0000000), wk =   0.2500000
        k(    6) = (   0.0379955  -0.0838652   0.0000000), wk =   0.2500000
        k(    7) = (   0.0379955  -0.0419301   0.0000000), wk =   0.2500000
        k(    8) = (  -0.0759910  -0.0000099   0.0000000), wk =   0.1250000
        k(    9) = (  -0.0759910   0.0419252   0.0000000), wk =   0.2500000
        k(   10) = (  -0.0759910  -0.0838800   0.0000000), wk =   0.1250000

     Initial potential from superposition of free atoms

     starting charge  383.99917, renormalised to  400.00000

     negative rho (up, down):  1.243E-02 0.000E+00

     %%%%%%%%%%%%%%%%%%%%%%%%%%%%%%%%%%%%%%%%%%%%%%%%%%%%%%%%%%%%%%%%%%%%%%%%
     %                                                                      %
     % You are using vdW-DF, which was implemented by the Thonhauser group. %
     % Please cite the following two papers that made this development      %
     % possible and the two reviews that describe the various versions:     %
     %                                                                      %
     %   T. Thonhauser et al., PRL 115, 136402 (2015).                      %
     %   T. Thonhauser et al., PRB 76, 125112 (2007).                       %
     %   K. Berland et al., Rep. Prog. Phys. 78, 066501 (2015).             %
     %   D.C. Langreth et al., J. Phys.: Condens. Matter 21, 084203 (2009). %
     %                                                                      %
     %                                                                      %
     % If you are calculating the stress with vdW-DF, please also cite:     %
     %                                                                      %
     %   R. Sabatini et al., J. Phys.: Condens. Matter 24, 424209 (2012).   %
     %                                                                      %
     %%%%%%%%%%%%%%%%%%%%%%%%%%%%%%%%%%%%%%%%%%%%%%%%%%%%%%%%%%%%%%%%%%%%%%%%

     Adding external electric field

     Computed dipole along edir(3) :
        Dipole              -11.0110 Ry au,        -27.9873 Debye
        Dipole field         -0.0208 Ry au,

        Potential amp.        1.9262 Ry
        Total length         46.3494 bohr

     Starting wfcs are  302 atomic wfcs
  @ DRIVER MODE: Message from server: STATUS
  @ DRIVER MODE: Message from server: POSDATA
  @ DRIVER MODE: Reading and sharing cell
  @ DRIVER MODE: Reading and sharing positions
  @ DRIVER MODE: Received positions

     Self-consistent Calculation

     iteration #  1     ecut=    29.40 Ry     beta= 0.05
     Davidson diagonalization with overlap
     c_bands:  1 eigenvalues not converged
     c_bands:  1 eigenvalues not converged
     c_bands:  1 eigenvalues not converged
     c_bands:  2 eigenvalues not converged
     c_bands:  2 eigenvalues not converged
     c_bands:  2 eigenvalues not converged
     c_bands:  2 eigenvalues not converged
     c_bands:  4 eigenvalues not converged
     c_bands:  2 eigenvalues not converged
     ethr =  1.00E-05,  avg # of iterations = 20.0

[...]

     total energy              =   -2516.81208657 Ry
     estimated scf accuracy    <    5071.05345916 Ry

     iteration #  2     ecut=    29.40 Ry     beta= 0.05
     Davidson diagonalization with overlap
     ethr =  1.00E-02,  avg # of iterations = 22.0

[...]

     iteration # 33     ecut=    29.40 Ry     beta= 0.05
     Davidson diagonalization with overlap
     c_bands:  2 eigenvalues not converged
     c_bands:  1 eigenvalues not converged
     ethr =  6.16E-07,  avg # of iterations =  9.6

[...]

     total energy              =   -2970.32611934 Ry
     estimated scf accuracy    <       0.00000010 Ry

     iteration # 64     ecut=    29.40 Ry     beta= 0.05
     Davidson diagonalization with overlap
     ethr =  2.47E-11,  avg # of iterations =  2.0

     negative rho (up, down):  1.352E-02 0.000E+00

     Adding external electric field

     Computed dipole along edir(3) :
        Dipole                0.8841 Ry au,          2.2473 Debye
        Dipole field          0.0017 Ry au,

        Potential amp.       -0.1547 Ry
        Total length         46.3494 bohr

     End of self-consistent calculation

          k = 0.0000 0.0000 0.0000 ( 18029 PWs)   bands (ev):

   -56.0002 -55.9666 -55.6815 -55.6456 -55.6114 -55.4927 -55.4033 -55.3787
   -55.3684 -55.3448 -55.2929 -55.2578 -55.2502 -55.2131 -54.7840 -54.7501
   -32.4277 -32.2471 -32.2201 -32.2190 -32.1921 -32.1009 -32.0546 -32.0411
   -31.9848 -31.9058 -31.8990 -31.8887 -31.8749 -31.8587 -31.8485 -31.8400
   -31.8293 -31.8062 -31.7963 -31.7628 -31.6818 -31.6532 -31.6448 -31.6385
   -31.6328 -31.6251 -31.5960 -31.5874 -31.5720 -31.5376 -31.5371 -31.5157
   -31.5070 -31.4956 -31.4737 -31.4736 -31.4719 -31.4556 -31.4494 -31.4261
   -31.3947 -31.3209 -31.1838 -31.1103 -31.0865 -31.0022 -30.9173 -30.8053
   -20.9933 -16.3403 -16.1616 -15.9356 -15.7923 -15.7156 -15.5790 -15.3672
   -15.3539 -15.2800 -15.2465 -15.2274 -15.1629 -15.1553 -15.1275 -15.1188
   -15.0931 -15.0666 -15.0324 -15.0163 -15.0033 -14.9620 -14.9116 -14.8737
   -14.7950 -14.7373 -14.6418 -14.6174 -14.5888 -14.5144 -14.4809 -14.2070
   -13.2775 -13.1638  -6.7579  -5.8485  -4.8069  -4.4281  -3.7497  -3.6792
    -3.5394  -3.5365  -3.4084  -3.1509  -3.0533  -2.8413  -2.8229  -2.7728
    -2.7322  -2.7135  -2.6744  -2.6135  -2.5101  -2.4927  -2.4639  -2.4389
    -2.4191  -2.4138  -2.4016  -2.3422  -2.3211  -2.2358  -2.2292  -2.2239
    -2.1852  -2.0529  -2.0064  -1.9605  -1.9531  -1.9225  -1.8417  -1.8289
    -1.8118  -1.7691  -1.6773  -1.6435  -1.5138  -1.4130  -1.4084  -1.3669
    -1.3091  -1.2589  -1.0628  -1.0229  -1.0108  -0.9887  -0.9805  -0.9654
    -0.8919  -0.8316  -0.7042  -0.5996  -0.5792  -0.5439  -0.5246  -0.5193
    -0.4899  -0.4249  -0.4154  -0.3924  -0.3515  -0.2187  -0.0756  -0.0450
    -0.0158   0.0080   0.0262   0.0986   0.1074   0.1532   0.1844   0.2311
     0.2405   0.2794   0.2989   0.3227   0.4069   0.4372   0.4896   0.5206
     0.5438   0.5652   0.6051   0.7719   0.8423   0.9567   0.9767   1.0516
     1.1884   1.2095   1.2440   1.4560   1.5016   1.6490   1.8321   1.9078
     3.2700   3.4551   3.6600   3.7432   3.7721   3.8624   3.9413   3.9904
     4.1426   4.2115

[...]

          k = 0.0380-0.0419 0.0000 ( 17876 PWs)   bands (ev):

[...]

          k =-0.0760-0.0000 0.0000 ( 17886 PWs)   bands (ev):

[...]

          k =-0.0760-0.0839 0.0000 ( 17948 PWs)   bands (ev):

   -55.9843 -55.9823 -55.6649 -55.6620 -55.6088 -55.4951 -55.3881 -55.3835
   -55.3623 -55.3610 -55.2762 -55.2745 -55.2339 -55.2293 -54.7670 -54.7670
   -32.2460 -32.2444 -32.2340 -32.2313 -32.1457 -32.1439 -32.0294 -32.0188
   -31.9415 -31.9299 -31.9005 -31.8758 -31.8665 -31.8630 -31.8330 -31.8067
   -31.7939 -31.7097 -31.7056 -31.6948 -31.6925 -31.6918 -31.6238 -31.6226
   -31.6153 -31.6117 -31.6111 -31.6071 -31.5994 -31.5984 -31.5716 -31.5703
   -31.5606 -31.5550 -31.4907 -31.4897 -31.4846 -31.4828 -31.4695 -31.4653
   -31.4531 -31.4495 -31.0994 -31.0994 -30.9981 -30.9980 -30.9599 -30.9599
   -20.9931 -15.8049 -15.7353 -15.5575 -15.5301 -15.4685 -15.4669 -15.4453
   -15.4326 -15.3782 -15.3768 -15.2447 -15.2347 -15.2287 -15.2227 -15.1613
   -15.1563 -15.1526 -15.1486 -15.0987 -15.0937 -14.9611 -14.9579 -14.8641
   -14.8585 -14.8190 -14.8112 -14.7573 -14.7468 -14.6600 -14.6512 -14.2066
   -13.2662 -13.2660  -6.7548  -5.8502  -4.8144  -4.4259  -3.1038  -2.9865
    -2.8110  -2.7810  -2.7514  -2.6246  -2.6200  -2.5994  -2.5944  -2.5362
    -2.4973  -2.4803  -2.4758  -2.4442  -2.4399  -2.3836  -2.3784  -2.3634
    -2.3538  -2.3486  -2.3437  -2.3369  -2.3292  -2.2494  -2.2424  -2.2275
    -2.2248  -2.1560  -2.1500  -2.1203  -2.1103  -1.8899  -1.8888  -1.8341
    -1.8236  -1.7076  -1.7032  -1.6850  -1.6826  -1.6239  -1.5986  -1.3786
    -1.3710  -1.3175  -1.2986  -1.2459  -1.2422  -1.1199  -1.0952  -0.9865
    -0.9467  -0.9406  -0.9335  -0.8027  -0.7917  -0.7831  -0.7670  -0.7582
    -0.7503  -0.6557  -0.5974  -0.5530  -0.5436  -0.5121  -0.5026  -0.4805
    -0.4339  -0.2930  -0.2895  -0.2842  -0.2748  -0.1390  -0.1370  -0.0756
    -0.0706   0.1688   0.1815   0.2950   0.2978   0.5543   0.5602   0.5870
     0.6016   0.7289   0.7419   0.7506   0.7843   0.8941   0.8986   0.9044
     0.9144   1.0058   1.0102   1.6290   1.6317   1.6378   1.6866   1.6872
     3.7844   3.7942   3.8157   3.8172   3.8435   3.8601   3.8895   3.8977
     4.1491   4.2241

     the Fermi energy is     2.6449 ev

!    total energy              =   -2970.32616451 Ry
     estimated scf accuracy    <       0.00000005 Ry
     smearing contrib. (-TS)   =      -0.00010189 Ry
     internal energy E=F+TS    =   -2970.32606262 Ry

     The total energy is F=E-TS. E is the sum of the following terms:
     one-electron contribution =  -23418.29384249 Ry
     hartree contribution      =   11800.85823576 Ry
     xc contribution           =    -491.48003350 Ry
     ewald contribution        =    9138.58810240 Ry
     electric field correction =       0.00147520 Ry

     convergence has been achieved in  64 iterations

     Forces acting on atoms (cartesian axes, Ry/au):

     atom    1 type  1   force =     0.00002008   -0.00005499    0.14944661
     atom    2 type  1   force =    -0.00006234   -0.00023433   -0.16928923
     atom    3 type  2   force =     0.00008147    0.00240784   -0.05963876
     atom    4 type  2   force =     0.00006163   -0.00153999    0.04012394
     atom    5 type  2   force =    -0.02178787   -0.00036182    0.00379740
     atom    6 type  2   force =     0.02138936    0.00005949    0.00421208
     atom    7 type  1   force =     0.00134670    0.00036363    0.00016038
     atom    8 type  1   force =    -0.00053086    0.00124876   -0.00037041
     atom    9 type  2   force =    -0.00067099    0.00012757   -0.00015360
     atom   10 type  2   force =    -0.00008339   -0.00038980    0.00061071
     atom   11 type  2   force =    -0.00079084    0.00025113   -0.00017937
     atom   12 type  2   force =    -0.00077428   -0.00004596   -0.00022683
     atom   13 type  1   force =     0.00049738    0.00010563   -0.00063996
     atom   14 type  1   force =    -0.00026165    0.00004283    0.00035247
     atom   15 type  2   force =    -0.00023564   -0.00038230    0.00029062
     atom   16 type  2   force =    -0.00007668   -0.00004093   -0.00028709
     atom   17 type  2   force =     0.00053439   -0.00042005   -0.00011655
     atom   18 type  2   force =     0.00036043   -0.00031481    0.00028705
     atom   19 type  1   force =    -0.00069042    0.00062495   -0.00013594
     atom   20 type  1   force =     0.00093350    0.00026727   -0.00037304
     atom   21 type  2   force =     0.00000061   -0.00005036    0.10226255
     atom   22 type  2   force =     0.00023905   -0.00037408    0.00025171
     atom   23 type  2   force =    -0.07494201    0.00009894   -0.03479288
     atom   24 type  2   force =     0.07481241    0.00051299   -0.03482937
     atom   25 type  1   force =     0.00006695   -0.00003408    0.14885303
     atom   26 type  1   force =    -0.00000791   -0.00106136   -0.16929952
     atom   27 type  2   force =     0.00012572    0.00253902   -0.05989246
     atom   28 type  2   force =    -0.00032880   -0.00147228    0.04029703
     atom   29 type  2   force =    -0.02033012    0.00063235    0.00353740
     atom   30 type  2   force =     0.02285715   -0.00006671    0.00404892
     atom   31 type  1   force =     0.00102183    0.00068663   -0.00013690
     atom   32 type  1   force =    -0.00081760   -0.00144641   -0.00018861
     atom   33 type  2   force =    -0.00054844   -0.00039806   -0.00027755
     atom   34 type  2   force =    -0.00014484   -0.00005489   -0.00011659
     atom   35 type  2   force =    -0.00109657   -0.00079127   -0.00018314
     atom   36 type  2   force =    -0.00058740   -0.00045026   -0.00021992
     atom   37 type  1   force =     0.00072812   -0.00078832    0.00013781
     atom   38 type  1   force =    -0.00036062   -0.00020468    0.00059510
     atom   39 type  2   force =    -0.00040172   -0.00041583    0.00026600
     atom   40 type  2   force =    -0.00022683   -0.00041592    0.00002464
     atom   41 type  2   force =     0.00041293   -0.00028096    0.00028884
     atom   42 type  2   force =     0.00026108   -0.00032124   -0.00007730
     atom   43 type  1   force =    -0.00067022   -0.00117916    0.00016104
     atom   44 type  1   force =     0.00094443    0.00000367   -0.00022765
     atom   45 type  2   force =     0.00000727   -0.00007239    0.10222952
     atom   46 type  2   force =     0.00013496   -0.00009506   -0.00044156
     atom   47 type  2   force =    -0.07493297    0.00029346   -0.03475940
     atom   48 type  2   force =     0.07481591    0.00076409   -0.03485892
     atom   49 type  3   force =    -0.00316577    0.01190460    0.03987271
     atom   50 type  3   force =     0.00330684   -0.01220428   -0.04096014
     atom   51 type  4   force =    -0.00107859    0.00142206    0.00280845
     atom   52 type  5   force =     0.00140446    0.00049003   -0.00140797
     atom   53 type  5   force =    -0.00075929    0.00111566   -0.00083536

     Total force =     0.407358     Total SCF correction =     0.000506
  @ DRIVER MODE: Message from server: STATUS
  @ DRIVER MODE: Message from server: GETFORCE
  @ DRIVER MODE: Returning v,forces,stress,ensemble

     Writing output data file ./calc.save/
  @ DRIVER MODE: Message from server: EXIT
  @ DRIVE MODE: Exiting

     General routines

     Parallel routines

   This run was terminated on:  20:12:15  29Sep2021

   JOB DONE.