     Program PWSCF v.6.7GPU starts on 22Sep2021 at 17:46:13

     R & G space division:  proc/nbgrp/npool/nimage =      10
     Reading input from /storage/home/hcoda1/3/ntian30/research/carbon/CxH_vib/H2O_calc/ads_slab/CHON2HO_d/out_0004/pw.inp
Warning: card &CELL ignored
Warning: card   CELL_DYNAMICS='IPI', ignored
Warning: card / ignored

     Current dimensions of program PWSCF are:
     Max number of different atomic species (ntypx) = 10
     Max number of k-points (npk) =  40000
     Max angular momentum in pseudopotentials (lmaxx) =  3
     Presently no symmetry can be used with electric field

     Message from routine cell_base_init:
     DEPRECATED: use true lattice parameter, not A to a.u. conversion factor

     IMPORTANT: XC functional enforced from input :
     Exchange-correlation= BEEF-VDW
                           (   1   4  43  14   2   0   0)
     Any further DFT definition will be discarded
     Please, verify this is what you really want

  @ DRIVER MODE: Connecting to
 qe_1139763_2937317.sched-torque.pace.gatech.edu36kp1rxi_scratch
  using UNIX socket
  @ DRIVER MODE: Message from server: STATUS
  @ DRIVER MODE: Message from server: INIT
  @ DRIVER MODE: Receiving replica           0          -1
  @ DRIVER MODE: Receiving encoded integer          25
  @ DRIVER MODE:  SCF:  T  FORCE:  T  STRESS:  F  VC:  F  ENSEMBLE:  F
  @ DRIVER MODE:  SCF:  T  FORCE:  T  STRESS:  F  VC:  F  ENSEMBLE:  F

     Using Slab Decomposition

     bravais-lattice index     =            0
     lattice parameter (alat)  =       1.8897  a.u.
     unit-cell volume          =    6658.9804 (a.u.)^3
     number of atoms/cell      =           54
     number of atomic types    =            5
     number of electrons       =       406.00
     number of Kohn-Sham states=          213
     kinetic-energy cutoff     =      29.3995  Ry
     charge density cutoff     =     293.9946  Ry
     scf convergence threshold =      7.3E-08
     mixing beta               =       0.0500
     number of iterations used =            8  plain     mixing
     Exchange-correlation= BEEF-VDW
                           (   1   4  43  14   2   0   0)

     celldm(1)=   1.889726  celldm(2)=   0.000000  celldm(3)=   0.000000
     celldm(4)=   0.000000  celldm(5)=   0.000000  celldm(6)=   0.000000

     crystal axes: (cart. coord. in units of alat)
               a(1) = (   6.579727   0.000000   0.000000 )
               a(2) = (  -0.000775   5.961596   0.000000 )
               a(3) = (   0.000000   0.000000  25.155947 )

     reciprocal axes: (cart. coord. in units 2 pi/alat)
               b(1) = (  0.151982  0.000020  0.000000 )
               b(2) = (  0.000000  0.167740  0.000000 )
               b(3) = (  0.000000  0.000000  0.039752 )

     PseudoPot. # 1 for O  read from file:
     /storage/coda1/p-amedford6/0/shared/rich_project_chbe-medford/medford-share/data/pseudos_module/espresso/nninc/pbe/van/O.UPF
     MD5 check sum: 78c19812648e8988a0fe644b0f25305e
     Pseudo is Ultrasoft, Zval =  6.0
     Generated by new atomic code, or converted to UPF format
     Using radial grid of  737 points,  4 beta functions with:
                l(1) =   0
                l(2) =   0
                l(3) =   1
                l(4) =   1
     Q(r) pseudized with  8 coefficients,  rinner =    0.800   0.800   0.800

     PseudoPot. # 2 for Ti read from file:
     /storage/coda1/p-amedford6/0/shared/rich_project_chbe-medford/medford-share/data/pseudos_module/espresso/nninc/pbe/van/Ti.UPF
     MD5 check sum: 8e4df49b7f0d34bbd5052bf3f5ea0213
     Pseudo is Ultrasoft, Zval = 12.0
     Generated by new atomic code, or converted to UPF format
     Using radial grid of  851 points,  6 beta functions with:
                l(1) =   0
                l(2) =   0
                l(3) =   1
                l(4) =   1
                l(5) =   2
                l(6) =   2
     Q(r) pseudized with  8 coefficients,  rinner =    1.000   1.000   1.000
                                                       1.000   1.000

     PseudoPot. # 3 for C  read from file:
     /storage/coda1/p-amedford6/0/shared/rich_project_chbe-medford/medford-share/data/pseudos_module/espresso/nninc/pbe/van/C.UPF
     MD5 check sum: 1a69bf6b8db32088f5b2163dbdb77a27
     Pseudo is Ultrasoft, Zval =  4.0
     Generated by new atomic code, or converted to UPF format
     Using radial grid of  721 points,  4 beta functions with:
                l(1) =   0
                l(2) =   0
                l(3) =   1
                l(4) =   1
     Q(r) pseudized with  8 coefficients,  rinner =    0.800   0.800   0.800

     PseudoPot. # 4 for H  read from file:
     /storage/coda1/p-amedford6/0/shared/rich_project_chbe-medford/medford-share/data/pseudos_module/espresso/nninc/pbe/van/H.UPF
     MD5 check sum: b5ee9d7bfd3a09ee7748110bda690ff7
     Pseudo is Ultrasoft, Zval =  1.0
     Generated by new atomic code, or converted to UPF format
     Using radial grid of  615 points,  1 beta functions with:
                l(1) =   0
     Q(r) pseudized with  8 coefficients,  rinner =    0.800

     PseudoPot. # 5 for N  read from file:
     /storage/coda1/p-amedford6/0/shared/rich_project_chbe-medford/medford-share/data/pseudos_module/espresso/nninc/pbe/van/N.UPF
     MD5 check sum: 90d10febe142ad51ac9d5be1deb811c4
     Pseudo is Ultrasoft, Zval =  5.0
     Generated by new atomic code, or converted to UPF format
     Using radial grid of  729 points,  4 beta functions with:
                l(1) =   0
                l(2) =   0
                l(3) =   1
                l(4) =   1
     Q(r) pseudized with  8 coefficients,  rinner =    0.800   0.800   0.800

     atomic species   valence    mass     pseudopotential
        O1             6.00    15.99900     O ( 1.00)
        Ti1           12.00    47.86700     Ti( 1.00)
        C1             4.00    12.01100     C ( 1.00)
        H1             1.00     1.00800     H ( 1.00)
        N1             5.00    14.00700     N ( 1.00)

     No symmetry found

   Cartesian axes

     site n.     atom                  positions (alat units)
         1           O1  tau(   1) = (   3.2904802   0.0005063   4.7018136  )
         2           O1  tau(   2) = (   3.2900926   2.9813045   4.7018136  )
         3           Ti1 tau(   3) = (   0.0004258   2.9801865   6.0000000  )
         4           Ti1 tau(   4) = (   0.0000382   5.9609847   6.0000000  )
         5           Ti1 tau(   5) = (   3.2906075   1.4906267   6.0002472  )
         6           Ti1 tau(   6) = (   3.2902200   4.4714249   6.0002472  )
         7           O1  tau(   7) = (   1.3043587   1.4918075   6.0039043  )
         8           O1  tau(   8) = (   1.3039711   4.4726057   6.0039043  )
         9           O1  tau(   9) = (   5.2767064   1.4903225   6.0039473  )
        10           O1  tau(  10) = (   5.2763189   4.4711207   6.0039473  )
        11           O1  tau(  11) = (   3.2906025   0.0005020   7.3038282  )
        12           O1  tau(  12) = (   3.2902150   2.9813002   7.3038282  )
        13           O1  tau(  13) = (   0.0006271   0.0005054   7.9858123  )
        14           O1  tau(  14) = (   0.0002396   2.9813036   7.9858123  )
        15           Ti1 tau(  15) = (   3.2350752   0.0608747   9.1773017  )
        16           Ti1 tau(  16) = (   3.2297482   3.0449837   9.2258248  )
        17           Ti1 tau(  17) = (   6.5035314   4.4790947   9.3419400  )
        18           O1  tau(  18) = (   4.5942328   1.4918067   9.2879030  )
        19           O1  tau(  19) = (   4.5938453   4.4726049   9.2879030  )
        20           O1  tau(  20) = (   1.9868534   1.4903216   9.2879459  )
        21           O1  tau(  21) = (   1.9864658   4.4711199   9.2879459  )
        22           Ti1 tau(  22) = (   6.5047199   1.5482117   9.3251357  )
        23           O1  tau(  23) = (   6.5709586   2.9893791  10.5365161  )
        24           O1  tau(  24) = (   6.5791863   0.0068326  10.5847705  )
        25           O1  tau(  25) = (   3.2737170   2.9471243  11.2864913  )
        26           O1  tau(  26) = (   3.2757665   0.0160177  11.3056520  )
        27           Ti1 tau(  27) = (   3.3024496   1.5456137  12.4328335  )
        28           Ti1 tau(  28) = (   0.0381823   0.0558990  12.5328616  )
        29           Ti1 tau(  29) = (   3.2867454   4.6490159  12.6676011  )
        30           O1  tau(  30) = (   1.2579511   1.4933188  12.6274103  )
        31           O1  tau(  31) = (   5.2930440   1.4968169  12.6131059  )
        32           O1  tau(  32) = (   1.2503383   4.4760527  12.6363980  )
        33           O1  tau(  33) = (   5.2887019   4.4660859  12.6249461  )
        34           Ti1 tau(  34) = (   6.5320965   3.0346479  12.8073368  )
        35           O1  tau(  35) = (   3.2762579   2.9735537  13.8874883  )
        36           O1  tau(  36) = (   3.2793791   5.9387796  13.8789893  )
        37           O1  tau(  37) = (   6.5412754   2.9812497  14.6926498  )
        38           O1  tau(  38) = (   6.5531526   0.0082392  14.6823945  )
        39           Ti1 tau(  39) = (   3.2668636   2.9663550  15.6683660  )
        40           Ti1 tau(  40) = (   3.2982107   5.9440960  16.3508785  )
        41           Ti1 tau(  41) = (   0.0141158   4.5598071  15.9269461  )
        42           O1  tau(  42) = (   4.5124726   4.4172202  16.0573870  )
        43           O1  tau(  43) = (   1.9821766   4.4208814  16.0404589  )
        44           O1  tau(  44) = (   4.4954461   1.5000296  16.1066544  )
        45           O1  tau(  45) = (   1.9782815   1.5221889  16.0619205  )
        46           Ti1 tau(  46) = (   0.0269324   1.3869748  16.0447141  )
        47           O1  tau(  47) = (   6.5379229   5.9414530  17.1901000  )
        48           O1  tau(  48) = (   6.5175113   2.9940192  17.3772383  )
        49           C1  tau(  49) = (   5.9742390   3.1768082  18.5865123  )
        50           H1  tau(  50) = (   5.8341806   4.1706531  18.9840957  )
        51           N1  tau(  51) = (   5.5886240   2.1683037  19.3003467  )
        52           N1  tau(  52) = (   5.2398892   1.2394158  19.8970451  )
        53           O1  tau(  53) = (   3.2183551   5.8834210  18.1446619  )
        54           H1  tau(  54) = (   3.7026433   0.4006729  18.8445816  )

     number of k points=    10  Fermi-Dirac smearing, width (Ry)=  0.0073
                       cart. coord. in units 2pi/alat
        k(    1) = (   0.0000000   0.0000000   0.0000000), wk =   0.1250000
        k(    2) = (   0.0000000   0.0419351   0.0000000), wk =   0.2500000
        k(    3) = (   0.0000000  -0.0838702   0.0000000), wk =   0.1250000
        k(    4) = (   0.0379955   0.0000049   0.0000000), wk =   0.2500000
        k(    5) = (   0.0379955   0.0419400   0.0000000), wk =   0.2500000
        k(    6) = (   0.0379955  -0.0838652   0.0000000), wk =   0.2500000
        k(    7) = (   0.0379955  -0.0419301   0.0000000), wk =   0.2500000
        k(    8) = (  -0.0759910  -0.0000099   0.0000000), wk =   0.1250000
        k(    9) = (  -0.0759910   0.0419252   0.0000000), wk =   0.2500000
        k(   10) = (  -0.0759910  -0.0838800   0.0000000), wk =   0.1250000

     Initial potential from superposition of free atoms

     starting charge  389.99917, renormalised to  406.00000

     negative rho (up, down):  1.659E-02 0.000E+00

     %%%%%%%%%%%%%%%%%%%%%%%%%%%%%%%%%%%%%%%%%%%%%%%%%%%%%%%%%%%%%%%%%%%%%%%%
     %                                                                      %
     % You are using vdW-DF, which was implemented by the Thonhauser group. %
     % Please cite the following two papers that made this development      %
     % possible and the two reviews that describe the various versions:     %
     %                                                                      %
     %   T. Thonhauser et al., PRL 115, 136402 (2015).                      %
     %   T. Thonhauser et al., PRB 76, 125112 (2007).                       %
     %   K. Berland et al., Rep. Prog. Phys. 78, 066501 (2015).             %
     %   D.C. Langreth et al., J. Phys.: Condens. Matter 21, 084203 (2009). %
     %                                                                      %
     %                                                                      %
     % If you are calculating the stress with vdW-DF, please also cite:     %
     %                                                                      %
     %   R. Sabatini et al., J. Phys.: Condens. Matter 24, 424209 (2012).   %
     %                                                                      %
     %%%%%%%%%%%%%%%%%%%%%%%%%%%%%%%%%%%%%%%%%%%%%%%%%%%%%%%%%%%%%%%%%%%%%%%%

     Adding external electric field

     Computed dipole along edir(3) :
        Dipole              -13.7787 Ry au,        -35.0219 Debye
        Dipole field         -0.0260 Ry au,

        Potential amp.        2.4104 Ry
        Total length         46.3494 bohr

     Starting wfcs are  306 atomic wfcs
  @ DRIVER MODE: Message from server: STATUS
  @ DRIVER MODE: Message from server: POSDATA
  @ DRIVER MODE: Reading and sharing cell
  @ DRIVER MODE: Reading and sharing positions
  @ DRIVER MODE: Received positions

     Self-consistent Calculation

     iteration #  1     ecut=    29.40 Ry     beta= 0.05
     Davidson diagonalization with overlap
     c_bands:  1 eigenvalues not converged
     c_bands:  1 eigenvalues not converged
     c_bands:  5 eigenvalues not converged
     c_bands:  5 eigenvalues not converged
     ethr =  1.00E-05,  avg # of iterations = 30.9

[...]

     total energy              =   -2308.86243144 Ry
     estimated scf accuracy    <    7885.50001067 Ry

     iteration #  2     ecut=    29.40 Ry     beta= 0.05
     Davidson diagonalization with overlap
     ethr =  1.00E-02,  avg # of iterations = 24.6

[...]

     iteration # 54     ecut=    29.40 Ry     beta= 0.05
     Davidson diagonalization with overlap
     c_bands:  1 eigenvalues not converged
     ethr =  1.49E-09,  avg # of iterations =  7.9

[...]

     total energy              =   -3002.64633016 Ry
     estimated scf accuracy    <       0.00000014 Ry

     iteration # 63     ecut=    29.40 Ry     beta= 0.05
     Davidson diagonalization with overlap
     ethr =  3.52E-11,  avg # of iterations =  5.1

     negative rho (up, down):  1.646E-02 0.000E+00

     Adding external electric field

     Computed dipole along edir(3) :
        Dipole                0.4152 Ry au,          1.0554 Debye
        Dipole field          0.0008 Ry au,

        Potential amp.       -0.0726 Ry
        Total length         46.3494 bohr

     End of self-consistent calculation

          k = 0.0000 0.0000 0.0000 ( 18029 PWs)   bands (ev):

   -56.2498 -56.1931 -55.7651 -55.7127 -55.7054 -55.6885 -55.6577 -55.6517
   -55.6279 -55.6114 -55.5707 -55.5558 -55.4901 -55.3194 -54.9011 -54.8672
   -32.6648 -32.5259 -32.4606 -32.4199 -32.3215 -32.2894 -32.2478 -32.2162
   -32.2018 -32.0982 -32.0685 -32.0060 -32.0023 -31.9954 -31.9853 -31.9624
   -31.9555 -31.9483 -31.9283 -31.9214 -31.8691 -31.8634 -31.8595 -31.8565
   -31.8543 -31.8414 -31.8337 -31.8224 -31.8143 -31.8094 -31.8016 -31.7746
   -31.7698 -31.7686 -31.7457 -31.7325 -31.7264 -31.7183 -31.6917 -31.5792
   -31.5378 -31.5295 -31.2977 -31.2391 -31.2149 -31.1142 -31.0290 -30.9178
   -20.5481 -18.6981 -16.5066 -16.4648 -16.3085 -16.1031 -15.9449 -15.8711
   -15.6793 -15.5895 -15.5343 -15.5025 -15.4680 -15.3891 -15.3531 -15.3026
   -15.2563 -15.2416 -15.2208 -15.2016 -15.1919 -15.1876 -15.1825 -15.1546
   -15.1133 -15.0151 -14.9483 -14.9121 -14.8923 -14.8825 -14.8413 -14.5332
   -13.5465 -13.4029 -13.2933  -6.9429  -5.8969  -4.9267  -4.3664  -3.9585
    -3.7854  -3.6928  -3.6379  -3.5694  -3.5285  -3.3403  -3.3084  -3.1488
    -3.0269  -2.9448  -2.8729  -2.8568  -2.8297  -2.7934  -2.7354  -2.6994
    -2.6691  -2.6403  -2.5817  -2.5416  -2.5136  -2.4833  -2.4679  -2.4307
    -2.4128  -2.4056  -2.2679  -2.2211  -2.1774  -2.1719  -2.1485  -2.1266
    -2.1054  -2.0694  -2.0562  -2.0094  -1.9290  -1.8425  -1.8270  -1.7469
    -1.7113  -1.5372  -1.4723  -1.3982  -1.3679  -1.2039  -1.1772  -1.1680
    -1.1477  -1.1262  -1.0045  -0.9707  -0.9372  -0.9252  -0.8894  -0.8655
    -0.8423  -0.7341  -0.6710  -0.6320  -0.6157  -0.5495  -0.4538  -0.3846
    -0.3533  -0.3222  -0.2894  -0.1846  -0.1530  -0.1123  -0.1043  -0.0426
    -0.0102   0.0133   0.0708   0.0971   0.1509   0.1647   0.1862   0.2245
     0.2348   0.2812   0.3484   0.4134   0.5103   0.5297   0.5543   0.5926
     0.6720   0.7475   0.8291   1.0088   1.1171   1.1567   1.3196   1.3671
     1.6677   1.7153   2.5321   3.0406   3.1924   3.4545   3.5068   3.5416
     3.5802   3.6376   3.7679   3.8780   3.9356

[...]

          k = 0.0380-0.0419 0.0000 ( 17876 PWs)   bands (ev):

[...]

          k =-0.0760-0.0000 0.0000 ( 17886 PWs)   bands (ev):

[...]

          k =-0.0760-0.0839 0.0000 ( 17948 PWs)   bands (ev):

   -56.2442 -56.1985 -55.7626 -55.7113 -55.6977 -55.6834 -55.6652 -55.6541
   -55.6330 -55.6023 -55.5797 -55.5568 -55.4884 -55.3210 -54.8843 -54.8839
   -32.5223 -32.5003 -32.4631 -32.4615 -32.3881 -32.3502 -32.1513 -32.0669
   -32.0566 -32.0200 -32.0147 -31.9814 -31.9789 -31.9742 -31.9516 -31.9448
   -31.9366 -31.9330 -31.9299 -31.9214 -31.9107 -31.9058 -31.8802 -31.8753
   -31.8739 -31.8673 -31.8661 -31.8646 -31.8416 -31.8399 -31.8240 -31.8191
   -31.8153 -31.8053 -31.8036 -31.7735 -31.7603 -31.7244 -31.6954 -31.6533
   -31.5781 -31.5322 -31.2280 -31.2278 -31.1132 -31.1111 -31.0711 -31.0699
   -20.5466 -18.6865 -16.4853 -15.8312 -15.8229 -15.7881 -15.7481 -15.7003
   -15.6875 -15.6208 -15.6110 -15.5840 -15.5029 -15.4399 -15.3888 -15.3640
   -15.3599 -15.3369 -15.3086 -15.2682 -15.2472 -15.2370 -15.2285 -15.1719
   -15.1502 -15.1488 -15.1202 -15.1003 -15.0792 -15.0323 -14.8965 -14.6917
   -13.5537 -13.3978 -13.3959  -6.9150  -5.9124  -4.9253  -4.3549  -3.6128
    -3.2947  -3.0890  -3.0608  -2.9788  -2.9227  -2.8251  -2.8065  -2.7894
    -2.7712  -2.7586  -2.7325  -2.7038  -2.6559  -2.6254  -2.5916  -2.5794
    -2.5726  -2.5521  -2.5455  -2.5136  -2.4974  -2.4792  -2.4609  -2.4431
    -2.4308  -2.4154  -2.3447  -2.3127  -2.2789  -2.1123  -2.0978  -2.0947
    -2.0705  -2.0533  -2.0457  -1.9828  -1.9203  -1.9105  -1.8597  -1.8439
    -1.7686  -1.7000  -1.5348  -1.5008  -1.4717  -1.3992  -1.3367  -1.3069
    -1.2814  -1.2483  -1.2157  -1.2064  -1.1622  -1.1126  -1.0322  -1.0114
    -0.9587  -0.9521  -0.9424  -0.8622  -0.7890  -0.7728  -0.7269  -0.7084
    -0.6841  -0.6472  -0.5916  -0.5568  -0.5442  -0.5324  -0.4351  -0.3838
    -0.3302  -0.2312  -0.1914  -0.1320  -0.0221   0.0632   0.0735   0.1721
     0.2139   0.3136   0.3498   0.4042   0.4433   0.4703   0.4992   0.6166
     0.6360   0.6822   0.7597   0.7774   0.8048   0.8559   1.5058   1.5134
     1.5237   1.5253   2.4512   3.5627   3.5902   3.6088   3.6475   3.8437
     3.8729   3.8922   3.9204   3.9389   3.9911

     the Fermi energy is     2.8433 ev

!    total energy              =   -3002.64637038 Ry
     estimated scf accuracy    <       0.00000004 Ry
     smearing contrib. (-TS)   =      -0.00428873 Ry
     internal energy E=F+TS    =   -3002.64208165 Ry

     The total energy is F=E-TS. E is the sum of the following terms:
     one-electron contribution =  -23370.26179553 Ry
     hartree contribution      =   11778.98341366 Ry
     xc contribution           =    -498.79171601 Ry
     ewald contribution        =    9087.42769088 Ry
     electric field correction =       0.00032535 Ry

     convergence has been achieved in  63 iterations

     Forces acting on atoms (cartesian axes, Ry/au):

     atom    1 type  1   force =     0.00016669    0.00010298    0.09958666
     atom    2 type  1   force =     0.00014755    0.00020854    0.09908704
     atom    3 type  2   force =     0.00018859    0.00034413    0.12385389
     atom    4 type  2   force =     0.00044433    0.00004526    0.13843619
     atom    5 type  2   force =    -0.00009845    0.00965169   -0.16001526
     atom    6 type  2   force =     0.00009426   -0.00873214   -0.15980843
     atom    7 type  1   force =    -0.07910804    0.00145806   -0.03323181
     atom    8 type  1   force =    -0.07913937   -0.00181535   -0.03327139
     atom    9 type  1   force =     0.07906591    0.00178793   -0.03331066
     atom   10 type  1   force =     0.07909528   -0.00146816   -0.03328892
     atom   11 type  1   force =    -0.00114420    0.00062918    0.04298394
     atom   12 type  1   force =    -0.00115099    0.00003729    0.04563890
     atom   13 type  1   force =    -0.00039913   -0.00174172   -0.05057512
     atom   14 type  1   force =    -0.00086347    0.00123163   -0.04778395
     atom   15 type  2   force =    -0.00033561   -0.00005419    0.00000869
     atom   16 type  2   force =    -0.00032771    0.00005214   -0.00027498
     atom   17 type  2   force =     0.00022630   -0.00039923   -0.00025368
     atom   18 type  1   force =    -0.01155912   -0.00689837   -0.00021994
     atom   19 type  1   force =    -0.01368575    0.00098313    0.00213662
     atom   20 type  1   force =     0.01285604   -0.00248543   -0.00223724
     atom   21 type  1   force =     0.01411139    0.00576748    0.00039000
     atom   22 type  2   force =     0.00031757    0.00006221    0.00015928
     atom   23 type  1   force =    -0.00009957   -0.00008827   -0.00000183
     atom   24 type  1   force =    -0.00025536    0.00000320    0.00045071
     atom   25 type  1   force =     0.00023662    0.00031516   -0.00010554
     atom   26 type  1   force =     0.00035494    0.00011283   -0.00027885
     atom   27 type  2   force =    -0.00031309   -0.00043976    0.00029100
     atom   28 type  2   force =     0.00051725   -0.00026937   -0.00013011
     atom   29 type  2   force =    -0.00016044    0.00025806    0.00013786
     atom   30 type  1   force =    -0.00032815   -0.00034197   -0.00023717
     atom   31 type  1   force =     0.00049130   -0.00002574    0.00013097
     atom   32 type  1   force =    -0.00029754    0.00039028    0.00002032
     atom   33 type  1   force =     0.00023699    0.00034254    0.00012528
     atom   34 type  2   force =     0.00040901    0.00016148   -0.00039506
     atom   35 type  1   force =     0.00005552   -0.00013081   -0.00036222
     atom   36 type  1   force =     0.00007984   -0.00000551    0.00031165
     atom   37 type  1   force =     0.00001162   -0.00029617    0.00068781
     atom   38 type  1   force =     0.00003295    0.00146580    0.00001358
     atom   39 type  2   force =     0.00005081    0.00083042    0.00030744
     atom   40 type  2   force =    -0.00013130   -0.00071960   -0.00037566
     atom   41 type  2   force =    -0.00017429    0.00006552    0.00004715
     atom   42 type  1   force =    -0.00013836    0.00031396   -0.00025100
     atom   43 type  1   force =    -0.00006707    0.00022022   -0.00027745
     atom   44 type  1   force =     0.00088155    0.00018027    0.00068810
     atom   45 type  1   force =    -0.00115120    0.00013997    0.00060383
     atom   46 type  2   force =    -0.00011891    0.00007717   -0.00045483
     atom   47 type  1   force =     0.00000345    0.00139144    0.00013242
     atom   48 type  1   force =     0.00086047   -0.00475541   -0.00192201
     atom   49 type  3   force =    -0.00033419    0.00343972    0.00116906
     atom   50 type  4   force =    -0.00056299    0.00014852    0.00157108
     atom   51 type  5   force =     0.00047824   -0.00071388   -0.00120891
     atom   52 type  5   force =     0.00016895   -0.00073191    0.00052988
     atom   53 type  1   force =     0.00043608    0.00041275    0.00060324
     atom   54 type  4   force =    -0.00007517   -0.00051801    0.00016944

     Total force =     0.380324     Total SCF correction =     0.000501
  @ DRIVER MODE: Message from server: STATUS
  @ DRIVER MODE: Message from server: GETFORCE
  @ DRIVER MODE: Returning v,forces,stress,ensemble

     Writing output data file ./calc.save/
  @ DRIVER MODE: Message from server: EXIT
  @ DRIVE MODE: Exiting

     General routines

     Parallel routines

   This run was terminated on:  18: 5:40  22Sep2021

   JOB DONE.