     Program PWSCF v.6.7GPU starts on 22Jul2021 at 18: 1:38

     R & G space division:  proc/nbgrp/npool/nimage =      16
     Reading input from /storage/home/hcoda1/3/ntian30/research/carbon/1Jul_vib/slab/rutile_O_br_vacant/out_0006/pw.inp
Warning: card &CELL ignored
Warning: card   CELL_DYNAMICS='IPI', ignored
Warning: card / ignored

     Current dimensions of program PWSCF are:
     Max number of different atomic species (ntypx) = 10
     Max number of k-points (npk) =  40000
     Max angular momentum in pseudopotentials (lmaxx) =  3
     Presently no symmetry can be used with electric field

     Message from routine cell_base_init:
     DEPRECATED: use true lattice parameter, not A to a.u. conversion factor

     IMPORTANT: XC functional enforced from input :
     Exchange-correlation= BEEF-VDW
                           (   1   4  43  14   2   0   0)
     Any further DFT definition will be discarded
     Please, verify this is what you really want

  @ DRIVER MODE: Connecting to
 qe_1139763_2402406.sched-torque.pace.gatech.edubyaencqt_scratch
  using UNIX socket
  @ DRIVER MODE: Message from server: STATUS
  @ DRIVER MODE: Message from server: INIT
  @ DRIVER MODE: Receiving replica           0          -1
  @ DRIVER MODE: Receiving encoded integer          25
  @ DRIVER MODE:  SCF:  T  FORCE:  T  STRESS:  F  VC:  F  ENSEMBLE:  F
  @ DRIVER MODE:  SCF:  T  FORCE:  T  STRESS:  F  VC:  F  ENSEMBLE:  F

     Using Slab Decomposition

     bravais-lattice index     =            0
     lattice parameter (alat)  =       1.8897  a.u.
     unit-cell volume          =    6658.9804 (a.u.)^3
     number of atoms/cell      =           47
     number of atomic types    =            2
     number of electrons       =       378.00
     number of Kohn-Sham states=          199
     kinetic-energy cutoff     =      29.3995  Ry
     charge density cutoff     =     293.9946  Ry
     scf convergence threshold =      7.3E-08
     mixing beta               =       0.0500
     number of iterations used =            8  plain     mixing
     Exchange-correlation= BEEF-VDW
                           (   1   4  43  14   2   0   0)

     celldm(1)=   1.889726  celldm(2)=   0.000000  celldm(3)=   0.000000
     celldm(4)=   0.000000  celldm(5)=   0.000000  celldm(6)=   0.000000

     crystal axes: (cart. coord. in units of alat)
               a(1) = (   6.579727   0.000000   0.000000 )
               a(2) = (  -0.000775   5.961596   0.000000 )
               a(3) = (   0.000000   0.000000  25.155947 )

     reciprocal axes: (cart. coord. in units 2 pi/alat)
               b(1) = (  0.151982  0.000020  0.000000 )
               b(2) = (  0.000000  0.167740  0.000000 )
               b(3) = (  0.000000  0.000000  0.039752 )

     PseudoPot. # 1 for Ti read from file:
     /storage/coda1/p-amedford6/0/shared/rich_project_chbe-medford/medford-share/data/pseudos_module/espresso/nninc/pbe/van/Ti.UPF
     MD5 check sum: 8e4df49b7f0d34bbd5052bf3f5ea0213
     Pseudo is Ultrasoft, Zval = 12.0
     Generated by new atomic code, or converted to UPF format
     Using radial grid of  851 points,  6 beta functions with:
                l(1) =   0
                l(2) =   0
                l(3) =   1
                l(4) =   1
                l(5) =   2
                l(6) =   2
     Q(r) pseudized with  8 coefficients,  rinner =    1.000   1.000   1.000
                                                       1.000   1.000

     PseudoPot. # 2 for O  read from file:
     /storage/coda1/p-amedford6/0/shared/rich_project_chbe-medford/medford-share/data/pseudos_module/espresso/nninc/pbe/van/O.UPF
     MD5 check sum: 78c19812648e8988a0fe644b0f25305e
     Pseudo is Ultrasoft, Zval =  6.0
     Generated by new atomic code, or converted to UPF format
     Using radial grid of  737 points,  4 beta functions with:
                l(1) =   0
                l(2) =   0
                l(3) =   1
                l(4) =   1
     Q(r) pseudized with  8 coefficients,  rinner =    0.800   0.800   0.800

     atomic species   valence    mass     pseudopotential
        Ti1           12.00    47.86700     Ti( 1.00)
        O1             6.00    15.99900     O ( 1.00)

     Starting magnetic structure
     atomic species   magnetization
        Ti1          0.000
        O1           0.000

     No symmetry found

   Cartesian axes

     site n.     atom                  positions (alat units)
         1           Ti1 tau(   1) = (   0.0004258   2.9801865   6.0000000  )
         2           Ti1 tau(   2) = (   3.2906075   1.4906267   6.0002472  )
         3           O1  tau(   3) = (   0.0006271   0.0005054   7.9858123  )
         4           O1  tau(   4) = (   3.2906025   0.0005020   7.3038282  )
         5           O1  tau(   5) = (   4.5942328   1.4918067   9.2879030  )
         6           O1  tau(   6) = (   1.9868534   1.4903216   9.2879459  )
         7           Ti1 tau(   7) = (   3.2895655   2.9803496   9.1561551  )
         8           Ti1 tau(   8) = (   6.5792279   1.4901203   9.2542590  )
         9           O1  tau(   9) = (   3.2908496   0.0003861  11.3974292  )
        10           O1  tau(  10) = (   0.0009741   0.0005107  10.6121890  )
        11           O1  tau(  11) = (   1.2851668   1.4970119  12.6717501  )
        12           O1  tau(  12) = (   5.2960956   1.4969944  12.6716611  )
        13           Ti1 tau(  13) = (   0.0014209   2.9817635  12.4865077  )
        14           Ti1 tau(  14) = (   3.2920103   1.4923710  12.5431595  )
        15           O1  tau(  15) = (   0.0005111   0.0003601  14.6908606  )
        16           O1  tau(  16) = (   3.2907661   0.0003422  14.0280135  )
        17           O1  tau(  17) = (   4.5563287   1.5043111  16.1972802  )
        18           O1  tau(  18) = (   2.0238984   1.5042417  16.1969189  )
        19           Ti1 tau(  19) = (   3.2900530   2.9812534  15.7923096  )
        20           Ti1 tau(  20) = (   0.0002900   1.3462356  15.9516996  )
        21           O1  tau(  21) = (   3.2904802   0.0005063   4.7018136  )
        22           O1  tau(  22) = (   0.0005067   0.0002908  17.2230471  )
        23           O1  tau(  23) = (   1.3043587   1.4918075   6.0039043  )
        24           O1  tau(  24) = (   5.2767064   1.4903225   6.0039473  )
        25           Ti1 tau(  25) = (   0.0000382   5.9609847   6.0000000  )
        26           Ti1 tau(  26) = (   3.2902200   4.4714249   6.0002472  )
        27           O1  tau(  27) = (   0.0002396   2.9813036   7.9858123  )
        28           O1  tau(  28) = (   3.2902150   2.9813002   7.3038282  )
        29           O1  tau(  29) = (   4.5938453   4.4726049   9.2879030  )
        30           O1  tau(  30) = (   1.9864658   4.4711199   9.2879459  )
        31           Ti1 tau(  31) = (   3.2890184   5.9611387   9.1545655  )
        32           Ti1 tau(  32) = (   6.5788211   4.4731772   9.2541010  )
        33           O1  tau(  33) = (   3.2904314   2.9811918  11.3932170  )
        34           O1  tau(  34) = (   0.0006808   2.9813391  10.6259032  )
        35           O1  tau(  35) = (   1.2847872   4.4655815  12.6717948  )
        36           O1  tau(  36) = (   5.2956760   4.4653813  12.6716352  )
        37           Ti1 tau(  37) = (   0.0020938   0.0010105  12.4782417  )
        38           Ti1 tau(  38) = (   3.2917349   4.4701355  12.5431901  )
        39           O1  tau(  39) = (   0.0000992   2.9811129  15.0245885  )
        40           O1  tau(  40) = (   3.2903432   2.9811263  13.9978513  )
        41           O1  tau(  41) = (   4.5559250   4.4580163  16.1971803  )
        42           O1  tau(  42) = (   2.0234811   4.4579909  16.2069720  )
        43           Ti1 tau(  43) = (   3.2904469   0.0004528  15.8318627  )
        44           Ti1 tau(  44) = (   0.0000435   4.6159127  15.9515978  )
        45           O1  tau(  45) = (   3.2900926   2.9813045   4.7018136  )
        46           O1  tau(  46) = (   1.3039711   4.4726057   6.0039043  )
        47           O1  tau(  47) = (   5.2763189   4.4711207   6.0039473  )

     number of k points=    10  Fermi-Dirac smearing, width (Ry)=  0.0073
                       cart. coord. in units 2pi/alat
        k(    1) = (   0.0000000   0.0000000   0.0000000), wk =   0.0625000
        k(    2) = (   0.0000000   0.0419351   0.0000000), wk =   0.1250000
        k(    3) = (   0.0000000  -0.0838702   0.0000000), wk =   0.0625000
        k(    4) = (   0.0379955   0.0000049   0.0000000), wk =   0.1250000
        k(    5) = (   0.0379955   0.0419400   0.0000000), wk =   0.1250000
        k(    6) = (   0.0379955  -0.0838652   0.0000000), wk =   0.1250000
        k(    7) = (   0.0379955  -0.0419301   0.0000000), wk =   0.1250000
        k(    8) = (  -0.0759910  -0.0000099   0.0000000), wk =   0.0625000
        k(    9) = (  -0.0759910   0.0419252   0.0000000), wk =   0.1250000
        k(   10) = (  -0.0759910  -0.0838800   0.0000000), wk =   0.0625000

     Initial potential from superposition of free atoms

     starting charge  361.99925, renormalised to  378.00000

     negative rho (up, down):  1.184E-02 1.184E-02

     %%%%%%%%%%%%%%%%%%%%%%%%%%%%%%%%%%%%%%%%%%%%%%%%%%%%%%%%%%%%%%%%%%%%%%%%
     %                                                                      %
     % You are using vdW-DF, which was implemented by the Thonhauser group. %
     % Please cite the following two papers that made this development      %
     % possible and the two reviews that describe the various versions:     %
     %                                                                      %
     %   T. Thonhauser et al., PRL 115, 136402 (2015).                      %
     %   T. Thonhauser et al., PRB 76, 125112 (2007).                       %
     %   K. Berland et al., Rep. Prog. Phys. 78, 066501 (2015).             %
     %   D.C. Langreth et al., J. Phys.: Condens. Matter 21, 084203 (2009). %
     %                                                                      %
     %                                                                      %
     % If you are calculating the stress with vdW-DF, please also cite:     %
     %                                                                      %
     %   R. Sabatini et al., J. Phys.: Condens. Matter 24, 424209 (2012).   %
     %                                                                      %
     %%%%%%%%%%%%%%%%%%%%%%%%%%%%%%%%%%%%%%%%%%%%%%%%%%%%%%%%%%%%%%%%%%%%%%%%

     Adding external electric field

     Computed dipole along edir(3) :
        Dipole                1.1365 Ry au,          2.8888 Debye
        Dipole field          0.0021 Ry au,

        Potential amp.       -0.1988 Ry
        Total length         46.3494 bohr

[...]

     Starting wfcs are  284 atomic wfcs
  @ DRIVER MODE: Message from server: STATUS
  @ DRIVER MODE: Message from server: POSDATA
  @ DRIVER MODE: Reading and sharing cell
  @ DRIVER MODE: Reading and sharing positions
  @ DRIVER MODE: Received positions

     Self-consistent Calculation

     iteration #  1     ecut=    29.40 Ry     beta= 0.05
     Davidson diagonalization with overlap
     c_bands:  2 eigenvalues not converged
     c_bands:  3 eigenvalues not converged
     c_bands:  2 eigenvalues not converged
     c_bands:  4 eigenvalues not converged
     c_bands:  1 eigenvalues not converged
     c_bands:  3 eigenvalues not converged
     c_bands:  1 eigenvalues not converged
     c_bands:  1 eigenvalues not converged
     c_bands:  3 eigenvalues not converged
     c_bands:  2 eigenvalues not converged
     c_bands:  2 eigenvalues not converged
     c_bands:  3 eigenvalues not converged
     c_bands:  2 eigenvalues not converged
     c_bands:  4 eigenvalues not converged
     c_bands:  1 eigenvalues not converged
     c_bands:  3 eigenvalues not converged
     c_bands:  1 eigenvalues not converged
     c_bands:  1 eigenvalues not converged
     c_bands:  3 eigenvalues not converged
     c_bands:  2 eigenvalues not converged
     ethr =  1.00E-05,  avg # of iterations = 20.0

[...]

     total energy              =   -2885.09587334 Ry
     estimated scf accuracy    <      12.51273968 Ry

     total magnetization       =    -0.00 Bohr mag/cell
     absolute magnetization    =     0.00 Bohr mag/cell

     iteration #  2     ecut=    29.40 Ry     beta= 0.05
     Davidson diagonalization with overlap
     ethr =  3.31E-03,  avg # of iterations =  1.0

[...]

     iteration # 55     ecut=    29.40 Ry     beta= 0.05
     Davidson diagonalization with overlap
     c_bands:  1 eigenvalues not converged
     c_bands:  1 eigenvalues not converged
     ethr =  5.30E-11,  avg # of iterations = 11.8

[...]

     total energy              =   -2883.85322976 Ry
     estimated scf accuracy    <       0.00000014 Ry

[...]

     iteration # 56     ecut=    29.40 Ry     beta= 0.05
     Davidson diagonalization with overlap
     ethr =  3.68E-11,  avg # of iterations =  3.7

     negative rho (up, down):  1.072E-02 1.072E-02

[...]

     Adding external electric field

     Computed dipole along edir(3) :
        Dipole                0.5532 Ry au,          1.4062 Debye
        Dipole field          0.0010 Ry au,

        Potential amp.       -0.0968 Ry
        Total length         46.3494 bohr

     Magnetic moment per site  (integrated on atomic sphere of radius R)
     atom   1 (R=0.740)  charge=  8.0666  magn= -0.0000
     atom   2 (R=0.740)  charge=  8.0461  magn= -0.0000
     atom   3 (R=0.740)  charge=  5.0351  magn= -0.0000
     atom   4 (R=0.740)  charge=  5.0740  magn= -0.0000
     atom   5 (R=0.740)  charge=  5.0337  magn= -0.0000
     atom   6 (R=0.740)  charge=  5.0338  magn=  0.0000
     atom   7 (R=0.740)  charge=  8.0461  magn= -0.0000
     atom   8 (R=0.740)  charge=  8.0493  magn= -0.0000
     atom   9 (R=0.740)  charge=  5.0395  magn=  0.0000
     atom  10 (R=0.740)  charge=  5.0477  magn= -0.0000
     atom  11 (R=0.740)  charge=  5.0325  magn=  0.0000
     atom  12 (R=0.740)  charge=  5.0326  magn=  0.0000
     atom  13 (R=0.740)  charge=  8.0562  magn= -0.0000
     atom  14 (R=0.740)  charge=  8.0499  magn=  0.0000
     atom  15 (R=0.740)  charge=  5.0484  magn=  0.0000
     atom  16 (R=0.740)  charge=  5.0336  magn=  0.0000
     atom  17 (R=0.740)  charge=  5.0151  magn= -0.0000
     atom  18 (R=0.740)  charge=  5.0151  magn= -0.0000
     atom  19 (R=0.740)  charge=  8.0776  magn=  0.0000
     atom  20 (R=0.740)  charge=  8.0901  magn=  0.0000
     atom  21 (R=0.740)  charge=  4.9132  magn= -0.0000
     atom  22 (R=0.740)  charge=  4.9954  magn=  0.0000
     atom  23 (R=0.740)  charge=  5.0274  magn= -0.0000
     atom  24 (R=0.740)  charge=  5.0275  magn= -0.0000
     atom  25 (R=0.740)  charge=  8.0667  magn= -0.0000
     atom  26 (R=0.740)  charge=  8.0461  magn= -0.0000
     atom  27 (R=0.740)  charge=  5.0346  magn=  0.0000
     atom  28 (R=0.740)  charge=  5.0735  magn=  0.0000
     atom  29 (R=0.740)  charge=  5.0338  magn= -0.0000
     atom  30 (R=0.740)  charge=  5.0338  magn= -0.0000
     atom  31 (R=0.740)  charge=  8.0465  magn= -0.0000
     atom  32 (R=0.740)  charge=  8.0494  magn= -0.0000
     atom  33 (R=0.740)  charge=  5.0395  magn= -0.0000
     atom  34 (R=0.740)  charge=  5.0426  magn=  0.0000
     atom  35 (R=0.740)  charge=  5.0324  magn=  0.0000
     atom  36 (R=0.740)  charge=  5.0325  magn= -0.0000
     atom  37 (R=0.740)  charge=  8.0520  magn= -0.0000
     atom  38 (R=0.740)  charge=  8.0500  magn=  0.0000
     atom  39 (R=0.740)  charge=  5.0311  magn= -0.0000
     atom  40 (R=0.740)  charge=  5.0467  magn= -0.0000
     atom  41 (R=0.740)  charge=  5.0151  magn=  0.0000
     atom  42 (R=0.740)  charge=  5.0138  magn=  0.0000
     atom  43 (R=0.740)  charge=  8.0770  magn=  0.0000
     atom  44 (R=0.740)  charge=  8.0901  magn=  0.0000
     atom  45 (R=0.740)  charge=  4.9132  magn=  0.0000
     atom  46 (R=0.740)  charge=  5.0274  magn= -0.0000
     atom  47 (R=0.740)  charge=  5.0275  magn= -0.0000

     End of self-consistent calculation

 ------ SPIN UP ------------

          k = 0.0000 0.0000 0.0000 ( 18029 PWs)   bands (ev):

   -56.2776 -56.2417 -56.2261 -56.1919 -56.1569 -56.1445 -56.1153 -56.1098
   -56.0919 -56.0818 -56.0811 -56.0547 -56.0280 -56.0207 -55.3401 -55.3060
   -32.8397 -32.7938 -32.7284 -32.6294 -32.5879 -32.5813 -32.5793 -32.5694
   -32.5163 -32.5029 -32.4829 -32.4754 -32.4712 -32.4478 -32.4468 -32.4275
   -32.4148 -32.4137 -32.3995 -32.3908 -32.3788 -32.3778 -32.3748 -32.3737
   -32.3487 -32.3468 -32.3250 -32.2812 -32.2751 -32.2650 -32.2647 -32.2587
   -32.2527 -32.2437 -32.2427 -32.2377 -32.2326 -32.2123 -32.2023 -32.1875
   -32.1701 -32.1101 -31.7530 -31.6482 -31.6268 -31.5688 -31.4824 -31.3717
   -17.1084 -16.8853 -16.7439 -16.6046 -16.5045 -16.4018 -16.2788 -16.2277
   -16.1741 -16.0263 -15.9680 -15.9423 -15.9025 -15.8793 -15.8677 -15.8527
   -15.8329 -15.8171 -15.7963 -15.7885 -15.7721 -15.7716 -15.7232 -15.6709
   -15.5748 -15.5103 -15.4393 -15.3821 -15.0558 -13.8412 -13.7214  -4.4290
    -4.2937  -4.2190  -4.2040  -4.1471  -4.0426  -3.8222  -3.7986  -3.7330
    -3.5765  -3.5284  -3.4712  -3.4121  -3.3423  -3.2840  -3.2743  -3.1728
    -3.1474  -3.1426  -3.1376  -3.0555  -3.0532  -3.0264  -3.0029  -2.9662
    -2.8735  -2.7544  -2.7103  -2.6760  -2.6554  -2.6469  -2.6243  -2.5951
    -2.5623  -2.5292  -2.5276  -2.4923  -2.4423  -2.3263  -2.1784  -2.1359
    -2.0652  -1.9720  -1.9022  -1.8370  -1.7981  -1.7581  -1.7340  -1.6845
    -1.6527  -1.6213  -1.5434  -1.4528  -1.4126  -1.3089  -1.2937  -1.2245
    -1.1893  -1.1173  -1.0730  -1.0721  -1.0291  -0.9405  -0.9140  -0.7908
    -0.7613  -0.7537  -0.7420  -0.7320  -0.6227  -0.5197  -0.4876  -0.4810
    -0.4759  -0.3945  -0.3446  -0.3362  -0.3228  -0.3153  -0.2658  -0.1890
    -0.1495  -0.0987   0.0439   0.2707   0.2724   0.3378   0.5690   0.6393
     0.6858   0.8428   1.2716   1.3251   2.8209   2.8864   2.9177   2.9510
     2.9802   3.0273   3.3176   3.3309   3.3543   3.3819   3.4004

[...]

          k =-0.0760-0.0000 0.0000 ( 17886 PWs)   bands (ev):

[...]

 ------ SPIN DOWN ----------

[...]

          k = 0.0380-0.0419 0.0000 ( 17876 PWs)   bands (ev):

[...]

          k =-0.0760-0.0839 0.0000 ( 17948 PWs)   bands (ev):

   -56.2598 -56.2593 -56.2090 -56.2089 -56.1527 -56.1294 -56.1249 -56.0987
   -56.0974 -56.0858 -56.0854 -56.0379 -56.0375 -56.0344 -55.3230 -55.3230
   -32.7174 -32.6454 -32.6425 -32.5431 -32.5430 -32.5423 -32.5278 -32.5017
   -32.5014 -32.4752 -32.4714 -32.4708 -32.4641 -32.4210 -32.4199 -32.4191
   -32.4132 -32.4126 -32.3990 -32.3934 -32.3922 -32.3882 -32.3752 -32.3612
   -32.3579 -32.3552 -32.3534 -32.3481 -32.3269 -32.3267 -32.3220 -32.3176
   -32.2944 -32.2934 -32.2678 -32.2676 -32.2673 -32.2655 -32.2366 -32.2234
   -32.2232 -32.2148 -31.6394 -31.6394 -31.5656 -31.5655 -31.5256 -31.5256
   -16.8166 -16.4620 -16.4232 -16.3372 -16.3297 -16.2304 -16.2105 -16.1214
   -16.0802 -16.0557 -16.0544 -16.0004 -15.9811 -15.9617 -15.9549 -15.8971
   -15.8821 -15.8535 -15.8507 -15.7956 -15.7930 -15.7918 -15.7905 -15.7545
   -15.7515 -15.7128 -15.7096 -15.6075 -15.4377 -13.8224 -13.8222  -3.8327
    -3.7312  -3.6766  -3.5602  -3.4865  -3.4503  -3.4042  -3.3947  -3.3208
    -3.2774  -3.2719  -3.1902  -3.1789  -3.1787  -3.1661  -3.1015  -3.0890
    -3.0645  -3.0385  -3.0099  -2.9849  -2.9735  -2.9719  -2.9514  -2.9426
    -2.9226  -2.9193  -2.8907  -2.8629  -2.8433  -2.8263  -2.6685  -2.6640
    -2.5771  -2.5183  -2.5168  -2.4377  -2.4294  -2.3848  -2.3514  -2.2943
    -2.2535  -2.0979  -2.0782  -2.0760  -2.0100  -1.9817  -1.9149  -1.8562
    -1.8410  -1.7938  -1.7362  -1.6189  -1.5998  -1.5764  -1.4698  -1.4685
    -1.3936  -1.3193  -1.2750  -1.2704  -1.2673  -1.2383  -1.2327  -1.2310
    -1.1217  -1.0693  -1.0223  -1.0149  -1.0017  -0.7965  -0.7388  -0.7234
    -0.6124  -0.5592  -0.3743  -0.3699  -0.3266  -0.2135  -0.2120  -0.2108
    -0.1594  -0.0344  -0.0227   0.0473   0.0881   0.1001   0.1396   0.1412
     1.0343   1.0354   1.1429   1.1435   2.9921   3.0739   3.0784   3.1286
     3.2687   3.3208   3.3256   3.3710   3.3727   3.3767   3.4545

     the Fermi energy is     2.8864 ev

!    total energy              =   -2883.85328222 Ry
     estimated scf accuracy    <       0.00000006 Ry
     smearing contrib. (-TS)   =      -0.03660486 Ry
     internal energy E=F+TS    =   -2883.81667736 Ry

     The total energy is F=E-TS. E is the sum of the following terms:
     one-electron contribution =  -24911.62918160 Ry
     hartree contribution      =   12530.63539764 Ry
     xc contribution           =    -468.94419141 Ry
     ewald contribution        =    9966.12072041 Ry
     electric field correction =       0.00057760 Ry

     total magnetization       =     0.00 Bohr mag/cell
     absolute magnetization    =     0.00 Bohr mag/cell

     convergence has been achieved in  56 iterations

     Forces acting on atoms (cartesian axes, Ry/au):

     atom    1 type  1   force =     0.00010494   -0.00000072    0.08981053
     atom    2 type  1   force =    -0.00003866    0.00030514   -0.18451802
     atom    3 type  2   force =     0.00003078   -0.00000620   -0.02422148
     atom    4 type  2   force =    -0.00000902   -0.00002153    0.05192807
     atom    5 type  2   force =    -0.01335585   -0.00027317    0.00584788
     atom    6 type  2   force =     0.01332993    0.00021027    0.00581592
     atom    7 type  1   force =    -0.00002985    0.00002218    0.00040873
     atom    8 type  1   force =     0.00002388    0.00044549    0.00039061
     atom    9 type  2   force =     0.00001084    0.00002543    0.00083900
     atom   10 type  2   force =    -0.00000146    0.00000611   -0.00042890
     atom   11 type  2   force =     0.00018504   -0.00023640    0.00048902
     atom   12 type  2   force =    -0.00021757   -0.00025358    0.00050058
     atom   13 type  1   force =    -0.00001860   -0.00001408   -0.00076266
     atom   14 type  1   force =     0.00002560   -0.00074830    0.00048469
     atom   15 type  2   force =     0.00017735   -0.00009303   -0.00079119
     atom   16 type  2   force =    -0.00016330   -0.00019977    0.00020707
     atom   17 type  2   force =    -0.00021081    0.00026182   -0.00008147
     atom   18 type  2   force =     0.00005807    0.00018105   -0.00017714
     atom   19 type  1   force =    -0.00037666    0.00022892    0.00012515
     atom   20 type  1   force =     0.00019476   -0.00003049    0.00032448
     atom   21 type  2   force =     0.00005897    0.00007457    0.10530458
     atom   22 type  2   force =    -0.00034360    0.00035186    0.00024401
     atom   23 type  2   force =    -0.06756805   -0.00027931   -0.02599266
     atom   24 type  2   force =     0.06747546    0.00015976   -0.02602685
     atom   25 type  1   force =     0.00010278    0.00000949    0.08890282
     atom   26 type  1   force =    -0.00007339   -0.00039907   -0.18452424
     atom   27 type  2   force =     0.00003153   -0.00002018   -0.02316802
     atom   28 type  2   force =    -0.00000519   -0.00002104    0.05198520
     atom   29 type  2   force =    -0.01336352   -0.00027256    0.00584578
     atom   30 type  2   force =     0.01333331    0.00022601    0.00581431
     atom   31 type  1   force =    -0.00003512    0.00001553    0.00076037
     atom   32 type  1   force =     0.00000698   -0.00043975    0.00041717
     atom   33 type  2   force =     0.00001401    0.00000053   -0.00031614
     atom   34 type  2   force =    -0.00001387    0.00000471    0.00008539
     atom   35 type  2   force =     0.00017655    0.00026158    0.00051931
     atom   36 type  2   force =    -0.00019890    0.00025544    0.00049115
     atom   37 type  1   force =    -0.00001190   -0.00000561    0.00080384
     atom   38 type  1   force =     0.00005825    0.00076997    0.00048317
     atom   39 type  2   force =     0.00020719    0.00023420   -0.00051913
     atom   40 type  2   force =    -0.00016200    0.00021396   -0.00042309
     atom   41 type  2   force =     0.00020394   -0.00020396   -0.00024425
     atom   42 type  2   force =     0.00055223   -0.00046541   -0.00192510
     atom   43 type  1   force =    -0.00034348   -0.00022820    0.00137816
     atom   44 type  1   force =     0.00021214   -0.00023463    0.00067441
     atom   45 type  2   force =     0.00005917    0.00007541    0.10525735
     atom   46 type  2   force =    -0.06756791   -0.00016556   -0.02598797
     atom   47 type  2   force =     0.06747503    0.00027313   -0.02603042

     Total force =     0.366830     Total SCF correction =     0.000935
  @ DRIVER MODE: Message from server: STATUS
  @ DRIVER MODE: Message from server: GETFORCE
  @ DRIVER MODE: Returning v,forces,stress,ensemble

     Writing output data file ./calc.save/
  @ DRIVER MODE: Message from server: EXIT
  @ DRIVE MODE: Exiting

     General routines

     Parallel routines

   This run was terminated on:  18:26:54  22Jul2021

   JOB DONE.