     Program PWSCF v.6.7GPU starts on  3Aug2021 at  2:41:28

     R & G space division:  proc/nbgrp/npool/nimage =      16
     Reading input from /storage/home/hcoda1/3/ntian30/research/carbon/02Aug_vib_paired/ads_slab/CH3NH3_a/out_0048/pw.inp
Warning: card &CELL ignored
Warning: card   CELL_DYNAMICS='IPI', ignored
Warning: card / ignored

     Current dimensions of program PWSCF are:
     Max number of different atomic species (ntypx) = 10
     Max number of k-points (npk) =  40000
     Max angular momentum in pseudopotentials (lmaxx) =  3
     Presently no symmetry can be used with electric field

     Message from routine cell_base_init:
     DEPRECATED: use true lattice parameter, not A to a.u. conversion factor

     IMPORTANT: XC functional enforced from input :
     Exchange-correlation= BEEF-VDW
                           (   1   4  43  14   2   0   0)
     Any further DFT definition will be discarded
     Please, verify this is what you really want

  @ DRIVER MODE: Connecting to
 qe_1139763_2482539.sched-torque.pace.gatech.eduoas8xwmm_scratch
  using UNIX socket
  @ DRIVER MODE: Message from server: STATUS
  @ DRIVER MODE: Message from server: INIT
  @ DRIVER MODE: Receiving replica           0          -1
  @ DRIVER MODE: Receiving encoded integer          25
  @ DRIVER MODE:  SCF:  T  FORCE:  T  STRESS:  F  VC:  F  ENSEMBLE:  F
  @ DRIVER MODE:  SCF:  T  FORCE:  T  STRESS:  F  VC:  F  ENSEMBLE:  F

     Using Slab Decomposition

     bravais-lattice index     =            0
     lattice parameter (alat)  =       1.8897  a.u.
     unit-cell volume          =    6658.9804 (a.u.)^3
     number of atoms/cell      =           55
     number of atomic types    =            5
     number of electrons       =       393.00
     number of Kohn-Sham states=          206
     kinetic-energy cutoff     =      29.3995  Ry
     charge density cutoff     =     293.9946  Ry
     scf convergence threshold =      7.3E-08
     mixing beta               =       0.0500
     number of iterations used =            8  plain     mixing
     Exchange-correlation= BEEF-VDW
                           (   1   4  43  14   2   0   0)

     celldm(1)=   1.889726  celldm(2)=   0.000000  celldm(3)=   0.000000
     celldm(4)=   0.000000  celldm(5)=   0.000000  celldm(6)=   0.000000

     crystal axes: (cart. coord. in units of alat)
               a(1) = (   6.579727   0.000000   0.000000 )
               a(2) = (  -0.000775   5.961596   0.000000 )
               a(3) = (   0.000000   0.000000  25.155947 )

     reciprocal axes: (cart. coord. in units 2 pi/alat)
               b(1) = (  0.151982  0.000020  0.000000 )
               b(2) = (  0.000000  0.167740  0.000000 )
               b(3) = (  0.000000  0.000000  0.039752 )

     PseudoPot. # 1 for Ti read from file:
     /storage/coda1/p-amedford6/0/shared/rich_project_chbe-medford/medford-share/data/pseudos_module/espresso/nninc/pbe/van/Ti.UPF
     MD5 check sum: 8e4df49b7f0d34bbd5052bf3f5ea0213
     Pseudo is Ultrasoft, Zval = 12.0
     Generated by new atomic code, or converted to UPF format
     Using radial grid of  851 points,  6 beta functions with:
                l(1) =   0
                l(2) =   0
                l(3) =   1
                l(4) =   1
                l(5) =   2
                l(6) =   2
     Q(r) pseudized with  8 coefficients,  rinner =    1.000   1.000   1.000
                                                       1.000   1.000

     PseudoPot. # 2 for O  read from file:
     /storage/coda1/p-amedford6/0/shared/rich_project_chbe-medford/medford-share/data/pseudos_module/espresso/nninc/pbe/van/O.UPF
     MD5 check sum: 78c19812648e8988a0fe644b0f25305e
     Pseudo is Ultrasoft, Zval =  6.0
     Generated by new atomic code, or converted to UPF format
     Using radial grid of  737 points,  4 beta functions with:
                l(1) =   0
                l(2) =   0
                l(3) =   1
                l(4) =   1
     Q(r) pseudized with  8 coefficients,  rinner =    0.800   0.800   0.800

     PseudoPot. # 3 for C  read from file:
     /storage/coda1/p-amedford6/0/shared/rich_project_chbe-medford/medford-share/data/pseudos_module/espresso/nninc/pbe/van/C.UPF
     MD5 check sum: 1a69bf6b8db32088f5b2163dbdb77a27
     Pseudo is Ultrasoft, Zval =  4.0
     Generated by new atomic code, or converted to UPF format
     Using radial grid of  721 points,  4 beta functions with:
                l(1) =   0
                l(2) =   0
                l(3) =   1
                l(4) =   1
     Q(r) pseudized with  8 coefficients,  rinner =    0.800   0.800   0.800

     PseudoPot. # 4 for H  read from file:
     /storage/coda1/p-amedford6/0/shared/rich_project_chbe-medford/medford-share/data/pseudos_module/espresso/nninc/pbe/van/H.UPF
     MD5 check sum: b5ee9d7bfd3a09ee7748110bda690ff7
     Pseudo is Ultrasoft, Zval =  1.0
     Generated by new atomic code, or converted to UPF format
     Using radial grid of  615 points,  1 beta functions with:
                l(1) =   0
     Q(r) pseudized with  8 coefficients,  rinner =    0.800

     PseudoPot. # 5 for N  read from file:
     /storage/coda1/p-amedford6/0/shared/rich_project_chbe-medford/medford-share/data/pseudos_module/espresso/nninc/pbe/van/N.UPF
     MD5 check sum: 90d10febe142ad51ac9d5be1deb811c4
     Pseudo is Ultrasoft, Zval =  5.0
     Generated by new atomic code, or converted to UPF format
     Using radial grid of  729 points,  4 beta functions with:
                l(1) =   0
                l(2) =   0
                l(3) =   1
                l(4) =   1
     Q(r) pseudized with  8 coefficients,  rinner =    0.800   0.800   0.800

     atomic species   valence    mass     pseudopotential
        Ti1           12.00    47.86700     Ti( 1.00)
        O1             6.00    15.99900     O ( 1.00)
        C1             4.00    12.01100     C ( 1.00)
        H1             1.00     1.00800     H ( 1.00)
        N1             5.00    14.00700     N ( 1.00)

     No symmetry found

   Cartesian axes

     site n.     atom                  positions (alat units)
         1           Ti1 tau(   1) = (   0.0004258   2.9801865   6.0000000  )
         2           Ti1 tau(   2) = (   3.2906075   1.4906267   6.0002472  )
         3           O1  tau(   3) = (   0.0006271   0.0005054   7.9858123  )
         4           O1  tau(   4) = (   3.2906025   0.0005020   7.3038282  )
         5           O1  tau(   5) = (   4.5942328   1.4918067   9.2879030  )
         6           O1  tau(   6) = (   1.9868534   1.4903216   9.2879459  )
         7           Ti1 tau(   7) = (   3.2907910   2.8959150   9.1758416  )
         8           Ti1 tau(   8) = (   0.0015273   1.4827037   9.2680791  )
         9           O1  tau(   9) = (   3.2981156   0.0012339  11.3300471  )
        10           O1  tau(  10) = (   0.0116148   5.9584955  10.6183126  )
        11           O1  tau(  11) = (   1.3033605   1.5036236  12.6199488  )
        12           O1  tau(  12) = (   5.2811161   1.5074500  12.6162500  )
        13           Ti1 tau(  13) = (   0.0407500   2.9455431  12.6352795  )
        14           Ti1 tau(  14) = (   3.3444429   1.4910927  12.4779025  )
        15           O1  tau(  15) = (   0.0052662   0.0451097  14.6026341  )
        16           O1  tau(  16) = (   3.2946143   0.0124870  13.9210852  )
        17           O1  tau(  17) = (   4.5465206   1.5046604  16.0624161  )
        18           O1  tau(  18) = (   2.0546879   1.5048301  16.0609706  )
        19           Ti1 tau(  19) = (   3.2991624   2.9918142  15.6995589  )
        20           Ti1 tau(  20) = (   6.5707204   1.4025535  15.8059435  )
        21           O1  tau(  21) = (   3.2904802   0.0005063   4.7018136  )
        22           O1  tau(  22) = (   0.0164654   0.0145536  17.1360041  )
        23           O1  tau(  23) = (   1.3043587   1.4918075   6.0039043  )
        24           O1  tau(  24) = (   5.2767064   1.4903225   6.0039473  )
        25           Ti1 tau(  25) = (   0.0000382   5.9609847   6.0000000  )
        26           Ti1 tau(  26) = (   3.2902200   4.4714249   6.0002472  )
        27           O1  tau(  27) = (   0.0002396   2.9813036   7.9858123  )
        28           O1  tau(  28) = (   3.2902150   2.9813002   7.3038282  )
        29           O1  tau(  29) = (   4.5938453   4.4726049   9.2879030  )
        30           O1  tau(  30) = (   1.9864658   4.4711199   9.2879459  )
        31           Ti1 tau(  31) = (   3.2891106   5.8743827   9.1763621  )
        32           Ti1 tau(  32) = (   0.0006254   4.4649316   9.2693709  )
        33           O1  tau(  33) = (   3.2977166   2.9913250  11.3287690  )
        34           O1  tau(  34) = (   0.0092240   2.9805883  10.6323155  )
        35           O1  tau(  35) = (   1.3008534   4.4801743  12.6308489  )
        36           O1  tau(  36) = (   5.2850400   4.4860598  12.6280017  )
        37           Ti1 tau(  37) = (   0.0409916   5.9178611  12.5441859  )
        38           Ti1 tau(  38) = (   3.3442415   4.4710906  12.4862270  )
        39           O1  tau(  39) = (   0.0109228   2.9791018  14.7123696  )
        40           O1  tau(  40) = (   3.2998940   2.9912248  13.9043662  )
        41           O1  tau(  41) = (   4.5474046   4.4713503  16.0779382  )
        42           O1  tau(  42) = (   2.0618872   4.4767818  16.0643778  )
        43           Ti1 tau(  43) = (   3.2722838   0.0128901  15.7174356  )
        44           Ti1 tau(  44) = (   6.5592075   4.4947239  16.1563676  )
        45           O1  tau(  45) = (   3.2900926   2.9813045   4.7018136  )
        46           O1  tau(  46) = (   1.3039711   4.4726057   6.0039043  )
        47           O1  tau(  47) = (   5.2763189   4.4711207   6.0039473  )
        48           C1  tau(  48) = (   0.0359503   3.0870652  17.8341721  )
        49           H1  tau(  49) = (   5.8142062   3.6010452  18.3763092  )
        50           H1  tau(  50) = (   6.4784518   2.0305676  18.0614951  )
        51           H1  tau(  51) = (   0.9863100   3.3782628  18.2908018  )
        52           N1  tau(  52) = (   4.7642638   1.7931862  21.6370373  )
        53           H1  tau(  53) = (   4.5527921   2.7808570  21.5386679  )
        54           H1  tau(  54) = (   4.1042548   1.2952780  21.0483319  )
        55           H1  tau(  55) = (   4.5435699   1.5432347  22.6053497  )

     number of k points=    10  Fermi-Dirac smearing, width (Ry)=  0.0073
                       cart. coord. in units 2pi/alat
        k(    1) = (   0.0000000   0.0000000   0.0000000), wk =   0.1250000
        k(    2) = (   0.0000000   0.0419351   0.0000000), wk =   0.2500000
        k(    3) = (   0.0000000  -0.0838702   0.0000000), wk =   0.1250000
        k(    4) = (   0.0379955   0.0000049   0.0000000), wk =   0.2500000
        k(    5) = (   0.0379955   0.0419400   0.0000000), wk =   0.2500000
        k(    6) = (   0.0379955  -0.0838652   0.0000000), wk =   0.2500000
        k(    7) = (   0.0379955  -0.0419301   0.0000000), wk =   0.2500000
        k(    8) = (  -0.0759910  -0.0000099   0.0000000), wk =   0.1250000
        k(    9) = (  -0.0759910   0.0419252   0.0000000), wk =   0.2500000
        k(   10) = (  -0.0759910  -0.0838800   0.0000000), wk =   0.1250000

     Initial potential from superposition of free atoms

     starting charge  376.99914, renormalised to  393.00000

     negative rho (up, down):  9.988E-03 0.000E+00

     %%%%%%%%%%%%%%%%%%%%%%%%%%%%%%%%%%%%%%%%%%%%%%%%%%%%%%%%%%%%%%%%%%%%%%%%
     %                                                                      %
     % You are using vdW-DF, which was implemented by the Thonhauser group. %
     % Please cite the following two papers that made this development      %
     % possible and the two reviews that describe the various versions:     %
     %                                                                      %
     %   T. Thonhauser et al., PRL 115, 136402 (2015).                      %
     %   T. Thonhauser et al., PRB 76, 125112 (2007).                       %
     %   K. Berland et al., Rep. Prog. Phys. 78, 066501 (2015).             %
     %   D.C. Langreth et al., J. Phys.: Condens. Matter 21, 084203 (2009). %
     %                                                                      %
     %                                                                      %
     % If you are calculating the stress with vdW-DF, please also cite:     %
     %                                                                      %
     %   R. Sabatini et al., J. Phys.: Condens. Matter 24, 424209 (2012).   %
     %                                                                      %
     %%%%%%%%%%%%%%%%%%%%%%%%%%%%%%%%%%%%%%%%%%%%%%%%%%%%%%%%%%%%%%%%%%%%%%%%

     Adding external electric field

     Computed dipole along edir(3) :
        Dipole               -9.0625 Ry au,        -23.0345 Debye
        Dipole field         -0.0171 Ry au,

        Potential amp.        1.5853 Ry
        Total length         46.3494 bohr

     Starting wfcs are  298 atomic wfcs
  @ DRIVER MODE: Message from server: STATUS
  @ DRIVER MODE: Message from server: POSDATA
  @ DRIVER MODE: Reading and sharing cell
  @ DRIVER MODE: Reading and sharing positions
  @ DRIVER MODE: Received positions

     Self-consistent Calculation

     iteration #  1     ecut=    29.40 Ry     beta= 0.05
     Davidson diagonalization with overlap
     c_bands:  1 eigenvalues not converged
     c_bands:  1 eigenvalues not converged
     c_bands:  1 eigenvalues not converged
     ethr =  1.00E-05,  avg # of iterations = 17.8

[...]

     total energy              =   -2692.44776587 Ry
     estimated scf accuracy    <    2566.23575939 Ry

[...]

     iteration #  3     ecut=    29.40 Ry     beta= 0.05
     Davidson diagonalization with overlap
     ethr =  1.00E-02,  avg # of iterations = 16.3

[...]

     iteration # 57     ecut=    29.40 Ry     beta= 0.05
     Davidson diagonalization with overlap
     c_bands:  1 eigenvalues not converged
     ethr =  6.73E-11,  avg # of iterations = 12.6

[...]

     total energy              =   -2922.78940773 Ry
     estimated scf accuracy    <       0.00000013 Ry

     iteration # 60     ecut=    29.40 Ry     beta= 0.05
     Davidson diagonalization with overlap
     ethr =  2.98E-11,  avg # of iterations =  9.4

     negative rho (up, down):  1.129E-02 0.000E+00

     Adding external electric field

     Computed dipole along edir(3) :
        Dipole                0.5506 Ry au,          1.3995 Debye
        Dipole field          0.0010 Ry au,

        Potential amp.       -0.0963 Ry
        Total length         46.3494 bohr

     End of self-consistent calculation

          k = 0.0000 0.0000 0.0000 ( 18029 PWs)   bands (ev):

   -56.0338 -56.0300 -55.9997 -55.9936 -55.9013 -55.8666 -55.8663 -55.8418
   -55.8232 -55.8078 -55.8027 -55.7690 -55.5689 -55.4018 -55.0092 -54.9752
   -32.5883 -32.5157 -32.3608 -32.3549 -32.3410 -32.3399 -32.3268 -32.2934
   -32.2763 -32.2393 -32.2334 -32.2327 -32.2095 -32.1860 -32.1732 -32.1669
   -32.1377 -32.1351 -32.1211 -32.0910 -32.0809 -32.0699 -32.0384 -32.0335
   -32.0293 -32.0276 -32.0132 -32.0118 -32.0051 -31.9800 -31.9794 -31.9769
   -31.9719 -31.9712 -31.9559 -31.9467 -31.9150 -31.8476 -31.7831 -31.6894
   -31.6303 -31.5193 -31.4163 -31.3281 -31.3056 -31.2330 -31.1465 -31.0355
   -16.7683 -16.5049 -16.2729 -16.1823 -16.1326 -16.0459 -15.8686 -15.7520
   -15.7035 -15.6026 -15.5701 -15.5503 -15.5337 -15.5034 -15.4951 -15.4700
   -15.4588 -15.4524 -15.4179 -15.3899 -15.3648 -15.3501 -15.2302 -15.1779
   -15.1618 -15.1306 -15.0826 -15.0663 -14.6119 -13.6205 -13.5121 -13.3958
    -9.0481  -4.1429  -3.9628  -3.9374  -3.8891  -3.8473  -3.6980  -3.6694
    -3.6447  -3.5843  -3.2668  -3.2096  -3.2014  -3.1606  -3.1459  -2.9886
    -2.9241  -2.8503  -2.8338  -2.8282  -2.8028  -2.7975  -2.7928  -2.7501
    -2.7078  -2.6524  -2.6286  -2.5590  -2.5169  -2.4437  -2.3709  -2.3434
    -2.3011  -2.2983  -2.2620  -2.2498  -2.2417  -2.2316  -2.1959  -2.1806
    -2.0013  -1.9506  -1.8822  -1.8164  -1.8019  -1.6382  -1.5315  -1.4835
    -1.4649  -1.4579  -1.4397  -1.4228  -1.3270  -1.2090  -1.1761  -1.1265
    -1.0788  -1.0303  -1.0002  -0.8999  -0.8833  -0.7922  -0.7790  -0.7604
    -0.6493  -0.6251  -0.4911  -0.4696  -0.4638  -0.4036  -0.3880  -0.3152
    -0.2910  -0.2344  -0.1694  -0.1572  -0.0890  -0.0629  -0.0597  -0.0030
     0.0015   0.0467   0.0614   0.1710   0.2268   0.2762   0.3302   0.4366
     0.5165   0.6309   0.6776   0.7370   0.9386   1.0122   1.1218   1.1829
     1.2054   1.4700   1.5835   1.6290   3.1049   3.1898   3.2115   3.2373
     3.3448   3.3697   3.5553   3.5721   3.6063   3.6263

[...]

          k = 0.0380-0.0419 0.0000 ( 17876 PWs)   bands (ev):

[...]

          k =-0.0760-0.0000 0.0000 ( 17886 PWs)   bands (ev):

[...]

          k =-0.0760-0.0839 0.0000 ( 17948 PWs)   bands (ev):

   -56.0173 -56.0161 -56.0146 -56.0088 -55.8864 -55.8813 -55.8579 -55.8317
   -55.8254 -55.8236 -55.7871 -55.7848 -55.5674 -55.4032 -54.9922 -54.9920
   -32.3942 -32.3878 -32.3314 -32.3307 -32.3127 -32.3117 -32.2930 -32.2884
   -32.2221 -32.2211 -32.2181 -32.2073 -32.1670 -32.1659 -32.1468 -32.1423
   -32.1382 -32.1368 -32.1356 -32.1275 -32.1264 -32.1235 -32.0878 -32.0773
   -32.0727 -32.0505 -32.0463 -32.0325 -32.0236 -32.0228 -32.0188 -32.0169
   -32.0016 -32.0003 -31.9963 -31.9901 -31.9255 -31.8306 -31.7853 -31.6922
   -31.6746 -31.5635 -31.3184 -31.3183 -31.2292 -31.2290 -31.1898 -31.1898
   -16.2101 -16.1871 -15.9808 -15.9465 -15.9431 -15.9360 -15.8053 -15.7249
   -15.7244 -15.6986 -15.6375 -15.6262 -15.6043 -15.5657 -15.5414 -15.5390
   -15.5203 -15.5154 -15.4891 -15.4790 -15.4662 -15.4589 -15.3663 -15.3468
   -15.3429 -15.2933 -15.1480 -15.0017 -14.8926 -13.6198 -13.4977 -13.4975
    -9.0625  -3.7079  -3.6726  -3.5063  -3.4750  -3.2327  -3.1943  -3.1811
    -3.1122  -2.9558  -2.9162  -2.8982  -2.8905  -2.8462  -2.8385  -2.8333
    -2.8217  -2.7934  -2.7763  -2.7392  -2.7331  -2.7177  -2.7106  -2.6992
    -2.6821  -2.6522  -2.6436  -2.6128  -2.6081  -2.5875  -2.5713  -2.5434
    -2.5385  -2.4109  -2.2519  -2.2281  -2.1674  -2.1599  -2.1134  -2.1006
    -2.0940  -2.0667  -2.0376  -2.0105  -1.8512  -1.7403  -1.7257  -1.7089
    -1.6402  -1.6125  -1.5274  -1.4371  -1.3962  -1.3780  -1.3099  -1.3062
    -1.2560  -1.2315  -1.2108  -1.1433  -1.0868  -1.0497  -0.9926  -0.9865
    -0.9784  -0.9083  -0.8659  -0.7909  -0.7822  -0.7452  -0.7103  -0.6549
    -0.6208  -0.6095  -0.5195  -0.4870  -0.3747  -0.3259  -0.0676  -0.0193
     0.0338   0.0617   0.1271   0.1850   0.1893   0.2865   0.2902   0.3268
     0.4061   0.4274   0.4984   0.5176   0.5675   0.7294   1.2787   1.3763
     1.3771   1.4486   1.4490   1.4603   3.4027   3.4144   3.4215   3.4661
     3.6113   3.6160   3.6346   3.6363   3.7749   3.7930

     the Fermi energy is     3.1014 ev

!    total energy              =   -2922.78944840 Ry
     estimated scf accuracy    <       0.00000006 Ry
     smearing contrib. (-TS)   =      -0.02169688 Ry
     internal energy E=F+TS    =   -2922.76775152 Ry

     The total energy is F=E-TS. E is the sum of the following terms:
     one-electron contribution =  -23651.14291437 Ry
     hartree contribution      =   11909.77824475 Ry
     xc contribution           =    -482.25535887 Ry
     ewald contribution        =    9300.85170483 Ry
     electric field correction =       0.00057214 Ry

     convergence has been achieved in  60 iterations

     Forces acting on atoms (cartesian axes, Ry/au):

     atom    1 type  1   force =     0.00004656   -0.00022457    0.09685998
     atom    2 type  1   force =    -0.00017429   -0.00055265   -0.17513176
     atom    3 type  2   force =     0.00002269   -0.00005077   -0.02502476
     atom    4 type  2   force =     0.00002802   -0.00139867    0.05263605
     atom    5 type  2   force =    -0.01205879   -0.00050956    0.00330542
     atom    6 type  2   force =     0.01378648    0.00008658    0.00270502
     atom    7 type  1   force =    -0.00058183    0.00057187   -0.01155562
     atom    8 type  1   force =     0.00020414    0.01201502    0.02900324
     atom    9 type  2   force =    -0.00029680    0.00056974    0.00058603
     atom   10 type  2   force =    -0.00153388    0.00252201   -0.01947467
     atom   11 type  2   force =    -0.00018691   -0.00037640   -0.00015271
     atom   12 type  2   force =    -0.00089652    0.00003287   -0.00030545
     atom   13 type  1   force =     0.00054839   -0.00096642    0.00107875
     atom   14 type  1   force =     0.00145813    0.00057621   -0.00069661
     atom   15 type  2   force =    -0.00013895   -0.00105766    0.00038993
     atom   16 type  2   force =    -0.00021090   -0.00020383   -0.00147058
     atom   17 type  2   force =    -0.00066451    0.00074704   -0.00000832
     atom   18 type  2   force =     0.00049716    0.00092647    0.00002634
     atom   19 type  1   force =    -0.00019895   -0.00112326    0.00061351
     atom   20 type  1   force =    -0.00011516    0.00046911   -0.00006837
     atom   21 type  2   force =     0.00004637   -0.00003746    0.10322253
     atom   22 type  2   force =     0.00027177   -0.00029261    0.00096696
     atom   23 type  2   force =    -0.07155580   -0.00014547   -0.02769891
     atom   24 type  2   force =     0.07145029    0.00027100   -0.02772865
     atom   25 type  1   force =     0.00005426   -0.00028270    0.09644941
     atom   26 type  1   force =    -0.00019029   -0.00028666   -0.17535875
     atom   27 type  2   force =     0.00008740   -0.00017131   -0.02381496
     atom   28 type  2   force =     0.00004367   -0.00113903    0.05271873
     atom   29 type  2   force =    -0.01209779    0.00085298    0.00277367
     atom   30 type  2   force =     0.01374159    0.00123865    0.00219212
     atom   31 type  1   force =    -0.00047030    0.00304384   -0.01241963
     atom   32 type  1   force =     0.00018643   -0.01423669    0.02941310
     atom   33 type  2   force =    -0.00023097   -0.00062791    0.00044029
     atom   34 type  2   force =    -0.00098270    0.00176529   -0.02268144
     atom   35 type  2   force =    -0.00067554   -0.00060430   -0.00013045
     atom   36 type  2   force =     0.00003294   -0.00014837   -0.00034504
     atom   37 type  1   force =     0.00064495    0.00027712    0.00054190
     atom   38 type  1   force =     0.00150518    0.00018512   -0.00068660
     atom   39 type  2   force =     0.00006495    0.00014080   -0.00126198
     atom   40 type  2   force =    -0.00034876   -0.00010189    0.00175858
     atom   41 type  2   force =    -0.00077536   -0.00106408   -0.00011685
     atom   42 type  2   force =     0.00028705   -0.00146305    0.00026858
     atom   43 type  1   force =     0.00022468    0.00066264    0.00107308
     atom   44 type  1   force =     0.00044572   -0.00025831    0.00069318
     atom   45 type  2   force =     0.00005662   -0.00009427    0.10317886
     atom   46 type  2   force =    -0.07154236   -0.00011585   -0.02770392
     atom   47 type  2   force =     0.07144840    0.00031444   -0.02773619
     atom   48 type  3   force =     0.00030118    0.00086365   -0.00064865
     atom   49 type  4   force =    -0.00080352    0.00000816   -0.00048555
     atom   50 type  4   force =    -0.00031642   -0.00055808    0.00099343
     atom   51 type  4   force =    -0.00079917   -0.00013910   -0.00022573
     atom   52 type  5   force =    -0.00200170   -0.00337568    0.01332768
     atom   53 type  4   force =     0.00049200    0.00007760   -0.00021048
     atom   54 type  4   force =    -0.00033304   -0.00009570    0.00073805
     atom   55 type  4   force =     0.00220419    0.00348410   -0.01481179

     Total force =     0.368923     Total SCF correction =     0.000722
  @ DRIVER MODE: Message from server: STATUS
  @ DRIVER MODE: Message from server: GETFORCE
  @ DRIVER MODE: Returning v,forces,stress,ensemble

     Writing output data file ./calc.save/
  @ DRIVER MODE: Message from server: EXIT
  @ DRIVE MODE: Exiting

     General routines

     Parallel routines

   This run was terminated on:   2:56:33   3Aug2021

   JOB DONE.