     Program PWSCF v.6.7GPU starts on  9Sep2021 at 16: 8:27

     R & G space division:  proc/nbgrp/npool/nimage =      10
     Reading input from /storage/home/hcoda1/3/ntian30/research/carbon/CxH_vib/CH3_calc/ads_slab/CH3NH2NH_c/out_0054/pw.inp
Warning: card &CELL ignored
Warning: card   CELL_DYNAMICS='IPI', ignored
Warning: card / ignored

     Current dimensions of program PWSCF are:
     Max number of different atomic species (ntypx) = 10
     Max number of k-points (npk) =  40000
     Max angular momentum in pseudopotentials (lmaxx) =  3
     Presently no symmetry can be used with electric field

     Message from routine cell_base_init:
     DEPRECATED: use true lattice parameter, not A to a.u. conversion factor

     IMPORTANT: XC functional enforced from input :
     Exchange-correlation= BEEF-VDW
                           (   1   4  43  14   2   0   0)
     Any further DFT definition will be discarded
     Please, verify this is what you really want

  @ DRIVER MODE: Connecting to
 qe_1139763_2767400.sched-torque.pace.gatech.eduujj3j_uh_scratch
  using UNIX socket
  @ DRIVER MODE: Message from server: STATUS
  @ DRIVER MODE: Message from server: INIT
  @ DRIVER MODE: Receiving replica           0          -1
  @ DRIVER MODE: Receiving encoded integer          25
  @ DRIVER MODE:  SCF:  T  FORCE:  T  STRESS:  F  VC:  F  ENSEMBLE:  F
  @ DRIVER MODE:  SCF:  T  FORCE:  T  STRESS:  F  VC:  F  ENSEMBLE:  F

     Using Slab Decomposition

     bravais-lattice index     =            0
     lattice parameter (alat)  =       1.8897  a.u.
     unit-cell volume          =    6658.9804 (a.u.)^3
     number of atoms/cell      =           56
     number of atomic types    =            5
     number of electrons       =       398.00
     number of Kohn-Sham states=          209
     kinetic-energy cutoff     =      29.3995  Ry
     charge density cutoff     =     293.9946  Ry
     scf convergence threshold =      7.3E-08
     mixing beta               =       0.0500
     number of iterations used =            8  plain     mixing
     Exchange-correlation= BEEF-VDW
                           (   1   4  43  14   2   0   0)

     celldm(1)=   1.889726  celldm(2)=   0.000000  celldm(3)=   0.000000
     celldm(4)=   0.000000  celldm(5)=   0.000000  celldm(6)=   0.000000

     crystal axes: (cart. coord. in units of alat)
               a(1) = (   6.579727   0.000000   0.000000 )
               a(2) = (  -0.000775   5.961596   0.000000 )
               a(3) = (   0.000000   0.000000  25.155947 )

     reciprocal axes: (cart. coord. in units 2 pi/alat)
               b(1) = (  0.151982  0.000020  0.000000 )
               b(2) = (  0.000000  0.167740  0.000000 )
               b(3) = (  0.000000  0.000000  0.039752 )

     PseudoPot. # 1 for Ti read from file:
     /storage/coda1/p-amedford6/0/shared/rich_project_chbe-medford/medford-share/data/pseudos_module/espresso/nninc/pbe/van/Ti.UPF
     MD5 check sum: 8e4df49b7f0d34bbd5052bf3f5ea0213
     Pseudo is Ultrasoft, Zval = 12.0
     Generated by new atomic code, or converted to UPF format
     Using radial grid of  851 points,  6 beta functions with:
                l(1) =   0
                l(2) =   0
                l(3) =   1
                l(4) =   1
                l(5) =   2
                l(6) =   2
     Q(r) pseudized with  8 coefficients,  rinner =    1.000   1.000   1.000
                                                       1.000   1.000

     PseudoPot. # 2 for O  read from file:
     /storage/coda1/p-amedford6/0/shared/rich_project_chbe-medford/medford-share/data/pseudos_module/espresso/nninc/pbe/van/O.UPF
     MD5 check sum: 78c19812648e8988a0fe644b0f25305e
     Pseudo is Ultrasoft, Zval =  6.0
     Generated by new atomic code, or converted to UPF format
     Using radial grid of  737 points,  4 beta functions with:
                l(1) =   0
                l(2) =   0
                l(3) =   1
                l(4) =   1
     Q(r) pseudized with  8 coefficients,  rinner =    0.800   0.800   0.800

     PseudoPot. # 3 for N  read from file:
     /storage/coda1/p-amedford6/0/shared/rich_project_chbe-medford/medford-share/data/pseudos_module/espresso/nninc/pbe/van/N.UPF
     MD5 check sum: 90d10febe142ad51ac9d5be1deb811c4
     Pseudo is Ultrasoft, Zval =  5.0
     Generated by new atomic code, or converted to UPF format
     Using radial grid of  729 points,  4 beta functions with:
                l(1) =   0
                l(2) =   0
                l(3) =   1
                l(4) =   1
     Q(r) pseudized with  8 coefficients,  rinner =    0.800   0.800   0.800

     PseudoPot. # 4 for C  read from file:
     /storage/coda1/p-amedford6/0/shared/rich_project_chbe-medford/medford-share/data/pseudos_module/espresso/nninc/pbe/van/C.UPF
     MD5 check sum: 1a69bf6b8db32088f5b2163dbdb77a27
     Pseudo is Ultrasoft, Zval =  4.0
     Generated by new atomic code, or converted to UPF format
     Using radial grid of  721 points,  4 beta functions with:
                l(1) =   0
                l(2) =   0
                l(3) =   1
                l(4) =   1
     Q(r) pseudized with  8 coefficients,  rinner =    0.800   0.800   0.800

     PseudoPot. # 5 for H  read from file:
     /storage/coda1/p-amedford6/0/shared/rich_project_chbe-medford/medford-share/data/pseudos_module/espresso/nninc/pbe/van/H.UPF
     MD5 check sum: b5ee9d7bfd3a09ee7748110bda690ff7
     Pseudo is Ultrasoft, Zval =  1.0
     Generated by new atomic code, or converted to UPF format
     Using radial grid of  615 points,  1 beta functions with:
                l(1) =   0
     Q(r) pseudized with  8 coefficients,  rinner =    0.800

     atomic species   valence    mass     pseudopotential
        Ti1           12.00    47.86700     Ti( 1.00)
        O1             6.00    15.99900     O ( 1.00)
        N1             5.00    14.00700     N ( 1.00)
        C1             4.00    12.01100     C ( 1.00)
        H1             1.00     1.00800     H ( 1.00)

     No symmetry found

   Cartesian axes

     site n.     atom                  positions (alat units)
         1           Ti1 tau(   1) = (   0.0004258   2.9801865   6.0000000  )
         2           Ti1 tau(   2) = (   3.2906075   1.4906267   6.0002472  )
         3           O1  tau(   3) = (   0.0006271   0.0005054   7.9858123  )
         4           O1  tau(   4) = (   3.2906025   0.0005020   7.3038282  )
         5           O1  tau(   5) = (   4.5942328   1.4918067   9.2879030  )
         6           O1  tau(   6) = (   1.9868534   1.4903216   9.2879459  )
         7           Ti1 tau(   7) = (   3.2907910   2.8959150   9.1758416  )
         8           Ti1 tau(   8) = (   0.0015273   1.4827037   9.2680791  )
         9           O1  tau(   9) = (   3.3032705   0.0110091  11.3485381  )
        10           O1  tau(  10) = (   0.0116148   5.9584955  10.6183126  )
        11           O1  tau(  11) = (   1.3020657   1.4959176  12.6398190  )
        12           O1  tau(  12) = (   5.2896457   1.4919019  12.6612249  )
        13           Ti1 tau(  13) = (   0.0353884   3.0012823  12.5523301  )
        14           Ti1 tau(  14) = (   3.3275346   1.5008247  12.4978572  )
        15           O1  tau(  15) = (   0.0424128   0.0047235  14.7277795  )
        16           O1  tau(  16) = (   3.2762846   0.0047332  13.9819514  )
        17           O1  tau(  17) = (   4.5591522   1.5298593  16.0930730  )
        18           O1  tau(  18) = (   2.0612242   1.5646392  16.2256692  )
        19           Ti1 tau(  19) = (   3.3170857   3.0293758  15.7013767  )
        20           Ti1 tau(  20) = (   6.5267591   1.5471840  15.7818195  )
        21           O1  tau(  21) = (   3.2904802   0.0005063   4.7018136  )
        22           O1  tau(  22) = (   0.0258072   0.0396315  17.3287798  )
        23           O1  tau(  23) = (   1.3043587   1.4918075   6.0039043  )
        24           O1  tau(  24) = (   5.2767064   1.4903225   6.0039473  )
        25           Ti1 tau(  25) = (   0.0000382   5.9609847   6.0000000  )
        26           Ti1 tau(  26) = (   3.2902200   4.4714249   6.0002472  )
        27           O1  tau(  27) = (   0.0002396   2.9813036   7.9858123  )
        28           O1  tau(  28) = (   3.2902150   2.9813002   7.3038282  )
        29           O1  tau(  29) = (   4.5938453   4.4726049   9.2879030  )
        30           O1  tau(  30) = (   1.9864658   4.4711199   9.2879459  )
        31           Ti1 tau(  31) = (   3.2891106   5.8743827   9.1763621  )
        32           Ti1 tau(  32) = (   0.0006254   4.4649316   9.2693709  )
        33           O1  tau(  33) = (   3.3047253   2.9863606  11.3412877  )
        34           O1  tau(  34) = (   0.0092240   2.9805883  10.6323155  )
        35           O1  tau(  35) = (   1.3023160   4.4818153  12.6295520  )
        36           O1  tau(  36) = (   5.2910779   4.4839738  12.6480862  )
        37           Ti1 tau(  37) = (   0.0306270   0.0097343  12.5156175  )
        38           Ti1 tau(  38) = (   3.3295341   4.4791655  12.4867326  )
        39           O1  tau(  39) = (   0.0319336   2.9935560  14.7343221  )
        40           O1  tau(  40) = (   3.2835893   3.0037955  13.9224844  )
        41           O1  tau(  41) = (   4.5669158   4.4809188  16.1713821  )
        42           O1  tau(  42) = (   2.0542530   4.4668402  16.2247519  )
        43           Ti1 tau(  43) = (   3.3000170   0.0150779  15.7669526  )
        44           Ti1 tau(  44) = (   0.0416703   4.6955124  16.1636639  )
        45           O1  tau(  45) = (   3.2900926   2.9813045   4.7018136  )
        46           O1  tau(  46) = (   1.3039711   4.4726057   6.0039043  )
        47           O1  tau(  47) = (   5.2763189   4.4711207   6.0039473  )
        48           N1  tau(  48) = (   0.9019483   2.4226080  18.4567899  )
        49           N1  tau(  49) = (   6.4923839   2.9153054  17.5348467  )
        50           C1  tau(  50) = (   1.2734633   3.3482217  19.5544901  )
        51           H1  tau(  51) = (   0.3921683   3.5464126  20.1615046  )
        52           H1  tau(  52) = (   2.0553077   2.8833093  20.1573268  )
        53           H1  tau(  53) = (   1.6239766   4.2728770  19.1044814  )
        54           H1  tau(  54) = (   0.5870980   1.4942747  18.7832689  )
        55           H1  tau(  55) = (   5.5983569   2.8486818  18.0159164  )
        56           H1  tau(  56) = (   1.7025450   2.1792920  17.8334971  )

     number of k points=    10  Fermi-Dirac smearing, width (Ry)=  0.0073
                       cart. coord. in units 2pi/alat
        k(    1) = (   0.0000000   0.0000000   0.0000000), wk =   0.1250000
        k(    2) = (   0.0000000   0.0419351   0.0000000), wk =   0.2500000
        k(    3) = (   0.0000000  -0.0838702   0.0000000), wk =   0.1250000
        k(    4) = (   0.0379955   0.0000049   0.0000000), wk =   0.2500000
        k(    5) = (   0.0379955   0.0419400   0.0000000), wk =   0.2500000
        k(    6) = (   0.0379955  -0.0838652   0.0000000), wk =   0.2500000
        k(    7) = (   0.0379955  -0.0419301   0.0000000), wk =   0.2500000
        k(    8) = (  -0.0759910  -0.0000099   0.0000000), wk =   0.1250000
        k(    9) = (  -0.0759910   0.0419252   0.0000000), wk =   0.2500000
        k(   10) = (  -0.0759910  -0.0838800   0.0000000), wk =   0.1250000

     Initial potential from superposition of free atoms

     starting charge  381.99914, renormalised to  398.00000

     negative rho (up, down):  1.484E-02 0.000E+00

     %%%%%%%%%%%%%%%%%%%%%%%%%%%%%%%%%%%%%%%%%%%%%%%%%%%%%%%%%%%%%%%%%%%%%%%%
     %                                                                      %
     % You are using vdW-DF, which was implemented by the Thonhauser group. %
     % Please cite the following two papers that made this development      %
     % possible and the two reviews that describe the various versions:     %
     %                                                                      %
     %   T. Thonhauser et al., PRL 115, 136402 (2015).                      %
     %   T. Thonhauser et al., PRB 76, 125112 (2007).                       %
     %   K. Berland et al., Rep. Prog. Phys. 78, 066501 (2015).             %
     %   D.C. Langreth et al., J. Phys.: Condens. Matter 21, 084203 (2009). %
     %                                                                      %
     %                                                                      %
     % If you are calculating the stress with vdW-DF, please also cite:     %
     %                                                                      %
     %   R. Sabatini et al., J. Phys.: Condens. Matter 24, 424209 (2012).   %
     %                                                                      %
     %%%%%%%%%%%%%%%%%%%%%%%%%%%%%%%%%%%%%%%%%%%%%%%%%%%%%%%%%%%%%%%%%%%%%%%%

     Adding external electric field

     Computed dipole along edir(3) :
        Dipole              -10.9114 Ry au,        -27.7340 Debye
        Dipole field         -0.0206 Ry au,

        Potential amp.        1.9088 Ry
        Total length         46.3494 bohr

     Starting wfcs are  302 atomic wfcs
  @ DRIVER MODE: Message from server: STATUS
  @ DRIVER MODE: Message from server: POSDATA
  @ DRIVER MODE: Reading and sharing cell
  @ DRIVER MODE: Reading and sharing positions
  @ DRIVER MODE: Received positions

     Self-consistent Calculation

     iteration #  1     ecut=    29.40 Ry     beta= 0.05
     Davidson diagonalization with overlap
     c_bands:  5 eigenvalues not converged
     c_bands:  4 eigenvalues not converged
     c_bands:  1 eigenvalues not converged
     c_bands:  2 eigenvalues not converged
     c_bands:  3 eigenvalues not converged
     c_bands:  4 eigenvalues not converged
     c_bands:  4 eigenvalues not converged
     ethr =  1.00E-05,  avg # of iterations = 24.5

[...]

     total energy              =   -2445.34707584 Ry
     estimated scf accuracy    <    5568.62806033 Ry

     iteration #  2     ecut=    29.40 Ry     beta= 0.05
     Davidson diagonalization with overlap
     ethr =  1.00E-02,  avg # of iterations = 23.7

[...]

     iteration # 82     ecut=    29.40 Ry     beta= 0.05
     Davidson diagonalization with overlap
     ethr =  2.20E-10,  avg # of iterations =  2.4

[...]

     total energy              =   -2942.84149936 Ry
     estimated scf accuracy    <       0.00000009 Ry

     iteration # 85     ecut=    29.40 Ry     beta= 0.05
     Davidson diagonalization with overlap
     c_bands:  1 eigenvalues not converged
     c_bands:  1 eigenvalues not converged
     ethr =  2.27E-11,  avg # of iterations = 13.3

     negative rho (up, down):  1.044E-02 0.000E+00

     Adding external electric field

     Computed dipole along edir(3) :
        Dipole                1.5762 Ry au,          4.0063 Debye
        Dipole field          0.0030 Ry au,

        Potential amp.       -0.2757 Ry
        Total length         46.3494 bohr

     End of self-consistent calculation

          k = 0.0000 0.0000 0.0000 ( 18029 PWs)   bands (ev):

   -55.0926 -55.0569 -55.0534 -55.0228 -54.9696 -54.9673 -54.9297 -54.8929
   -54.8845 -54.8701 -54.8571 -54.8523 -54.8053 -54.7612 -54.0670 -54.0329
   -31.6665 -31.5463 -31.4567 -31.4266 -31.3877 -31.3830 -31.3814 -31.3518
   -31.3489 -31.3472 -31.3040 -31.3021 -31.3014 -31.2671 -31.2489 -31.2294
   -31.2095 -31.2058 -31.1964 -31.1945 -31.1678 -31.1508 -31.1493 -31.1231
   -31.1137 -31.0999 -31.0972 -31.0948 -31.0913 -31.0783 -31.0734 -31.0658
   -31.0535 -31.0428 -31.0237 -31.0162 -31.0085 -31.0032 -30.9981 -30.9925
   -30.9886 -30.9537 -30.4754 -30.3836 -30.3614 -30.2920 -30.2053 -30.0942
   -19.1863 -15.9348 -15.6594 -15.5369 -15.3272 -15.2778 -15.2046 -15.0096
   -14.9445 -14.8873 -14.8739 -14.8663 -14.8502 -14.7789 -14.6998 -14.6194
   -14.6169 -14.6099 -14.5970 -14.5813 -14.5742 -14.5116 -14.5044 -14.4725
   -14.4604 -14.4204 -14.3131 -14.2315 -14.1745 -14.0238 -13.3416 -12.5697
   -12.4526 -11.1303  -7.8983  -6.5674  -5.8811  -4.1196  -3.9514  -3.2803
    -3.0954  -3.0726  -3.0104  -2.9854  -2.8108  -2.7606  -2.5592  -2.4496
    -2.3620  -2.3229  -2.3107  -2.2941  -2.1439  -2.0761  -2.0411  -1.9945
    -1.9701  -1.9480  -1.9068  -1.8992  -1.8684  -1.8504  -1.8414  -1.6646
    -1.5889  -1.5406  -1.5099  -1.4722  -1.4224  -1.3945  -1.3760  -1.3715
    -1.3662  -1.3471  -1.3135  -1.2544  -1.2268  -1.1702  -1.1019  -1.0750
    -0.9854  -0.9017  -0.7158  -0.6693  -0.6524  -0.6164  -0.5563  -0.5072
    -0.4732  -0.4384  -0.4240  -0.3582  -0.2884  -0.2555  -0.1928  -0.1288
    -0.1178  -0.0557  -0.0487   0.1136   0.1247   0.1460   0.2388   0.3252
     0.3718   0.3802   0.4381   0.5119   0.5341   0.5445   0.5808   0.6006
     0.6772   0.7867   0.8112   0.8528   0.8643   0.8980   0.9209   0.9761
     0.9997   1.0621   1.0684   1.1732   1.2202   1.2552   1.5049   1.5376
     1.8680   1.9015   1.9554   2.1421   2.5293   2.5764   4.0157   4.0785
     4.0901   4.1415   4.1648   4.1833   4.2558   4.4767   4.5018   4.5080
     4.5154

[...]

          k = 0.0380-0.0419 0.0000 ( 17876 PWs)   bands (ev):

[...]

          k =-0.0760-0.0000 0.0000 ( 17886 PWs)   bands (ev):

[...]

          k =-0.0760-0.0839 0.0000 ( 17948 PWs)   bands (ev):

   -55.0805 -55.0653 -55.0399 -55.0397 -54.9666 -54.9563 -54.9407 -54.8758
   -54.8729 -54.8723 -54.8703 -54.8681 -54.7992 -54.7672 -54.0500 -54.0498
   -31.4742 -31.4645 -31.4015 -31.3615 -31.3613 -31.3600 -31.3328 -31.3324
   -31.3016 -31.2975 -31.2926 -31.2864 -31.2612 -31.2265 -31.2197 -31.2136
   -31.2114 -31.2076 -31.2069 -31.1981 -31.1658 -31.1648 -31.1613 -31.1592
   -31.1589 -31.1563 -31.1515 -31.1353 -31.1098 -31.1061 -31.1003 -31.0908
   -31.0889 -31.0869 -31.0859 -31.0696 -31.0515 -31.0502 -31.0391 -31.0333
   -31.0093 -30.9930 -30.3742 -30.3740 -30.2881 -30.2879 -30.2487 -30.2487
   -19.1824 -15.4177 -15.3276 -15.1796 -15.1575 -15.1109 -15.0627 -15.0464
   -15.0268 -14.9714 -14.9308 -14.8867 -14.8385 -14.7959 -14.7936 -14.7547
   -14.6829 -14.6614 -14.6594 -14.6449 -14.5941 -14.5834 -14.5558 -14.5370
   -14.5320 -14.4888 -14.4293 -14.4257 -14.3860 -14.2075 -13.3521 -12.5543
   -12.5541 -11.1327  -7.9083  -6.5512  -5.8704  -4.0918  -3.9453  -2.6871
    -2.5879  -2.5335  -2.4216  -2.3347  -2.2944  -2.2601  -2.1251  -2.1045
    -2.0869  -2.0611  -2.0479  -2.0134  -2.0051  -1.9580  -1.9285  -1.9183
    -1.9121  -1.8993  -1.8771  -1.8293  -1.8065  -1.7972  -1.7878  -1.7491
    -1.7350  -1.7032  -1.6971  -1.6583  -1.6367  -1.5508  -1.4626  -1.4225
    -1.3701  -1.3073  -1.2733  -1.2665  -1.1726  -1.1645  -1.1418  -1.1084
    -1.0630  -0.9419  -0.8847  -0.8224  -0.8185  -0.8055  -0.6978  -0.6603
    -0.6305  -0.5944  -0.5581  -0.5273  -0.4887  -0.4423  -0.3654  -0.3348
    -0.2952  -0.2588  -0.1864  -0.0984  -0.0790  -0.0484  -0.0442   0.0417
     0.0670   0.1050   0.1144   0.1336   0.1902   0.2032   0.2909   0.3807
     0.4451   0.5338   0.6469   0.6521   0.7299   0.8207   0.9076   0.9462
     0.9984   1.0634   1.0658   1.0992   1.2204   1.2276   1.3492   1.3879
     1.3967   1.4192   2.3144   2.3155   2.3965   2.3967   4.1451   4.2430
     4.2816   4.3228   4.3749   4.5202   4.5433   4.5889   4.5893   4.6598
     4.6728

     the Fermi energy is     4.0623 ev

!    total energy              =   -2942.84150801 Ry
     estimated scf accuracy    <       0.00000005 Ry
     smearing contrib. (-TS)   =      -0.03725331 Ry
     internal energy E=F+TS    =   -2942.80425470 Ry

     The total energy is F=E-TS. E is the sum of the following terms:
     one-electron contribution =  -23856.00834466 Ry
     hartree contribution      =   12023.31707350 Ry
     xc contribution           =    -487.75783668 Ry
     ewald contribution        =    9377.64016480 Ry
     electric field correction =       0.00468834 Ry

     convergence has been achieved in  85 iterations

     Forces acting on atoms (cartesian axes, Ry/au):

     atom    1 type  1   force =     0.00001565   -0.00023061    0.09431925
     atom    2 type  1   force =    -0.00015222   -0.00053639   -0.17709420
     atom    3 type  2   force =     0.00001627   -0.00024620   -0.02145783
     atom    4 type  2   force =    -0.00001400   -0.00167598    0.05643572
     atom    5 type  2   force =    -0.01049337   -0.00075289    0.00563062
     atom    6 type  2   force =     0.01225900   -0.00009752    0.00552337
     atom    7 type  1   force =    -0.00023975    0.00106517   -0.01571373
     atom    8 type  1   force =    -0.00007068    0.00524867    0.00656975
     atom    9 type  2   force =    -0.00030484    0.00055497    0.00021720
     atom   10 type  2   force =    -0.00199701    0.00265754   -0.00434831
     atom   11 type  2   force =     0.00039991   -0.00022745    0.00026531
     atom   12 type  2   force =    -0.00008802   -0.00029670   -0.00020358
     atom   13 type  1   force =    -0.00072253    0.00044727   -0.00004323
     atom   14 type  1   force =     0.00036547   -0.00016308    0.00005987
     atom   15 type  2   force =    -0.00021986   -0.00062191   -0.00037496
     atom   16 type  2   force =     0.00007144    0.00035041   -0.00036833
     atom   17 type  2   force =     0.00085228    0.00016639    0.00039739
     atom   18 type  2   force =     0.00024390   -0.00026138   -0.00072437
     atom   19 type  1   force =    -0.00007432    0.00038578    0.00056064
     atom   20 type  1   force =    -0.00007431    0.00020008    0.00062382
     atom   21 type  2   force =    -0.00001914   -0.00011308    0.10364210
     atom   22 type  2   force =     0.00018205    0.00032089    0.00044747
     atom   23 type  2   force =    -0.07088635   -0.00021220   -0.02717968
     atom   24 type  2   force =     0.07068363    0.00024060   -0.02722670
     atom   25 type  1   force =     0.00001803   -0.00027146    0.09399011
     atom   26 type  1   force =    -0.00024678   -0.00055804   -0.17736129
     atom   27 type  2   force =     0.00005817   -0.00008036   -0.02059165
     atom   28 type  2   force =     0.00002508   -0.00136364    0.05572613
     atom   29 type  2   force =    -0.01079675   -0.00000336    0.00592413
     atom   30 type  2   force =     0.01248538    0.00028408    0.00577675
     atom   31 type  1   force =    -0.00016878    0.00516835   -0.01628697
     atom   32 type  1   force =    -0.00009311   -0.00625418    0.00670707
     atom   33 type  2   force =    -0.00009612   -0.00047559    0.00024426
     atom   34 type  2   force =    -0.00163521    0.00066925   -0.00775046
     atom   35 type  2   force =    -0.00032373    0.00006099    0.00040911
     atom   36 type  2   force =     0.00057057    0.00006164   -0.00008488
     atom   37 type  1   force =    -0.00081813   -0.00077750   -0.00009990
     atom   38 type  1   force =     0.00048402    0.00000828    0.00046053
     atom   39 type  2   force =    -0.00031459   -0.00018577    0.00060138
     atom   40 type  2   force =    -0.00004478   -0.00017120   -0.00030548
     atom   41 type  2   force =     0.00016821   -0.00050319    0.00033574
     atom   42 type  2   force =    -0.00014337   -0.00025040    0.00050000
     atom   43 type  1   force =    -0.00028095   -0.00032277   -0.00010950
     atom   44 type  1   force =     0.00030947    0.00050066    0.00025902
     atom   45 type  2   force =    -0.00002207   -0.00011677    0.10364035
     atom   46 type  2   force =    -0.07089493   -0.00014090   -0.02715165
     atom   47 type  2   force =     0.07069542    0.00028032   -0.02722020
     atom   48 type  3   force =    -0.00466991    0.00202197    0.00527762
     atom   49 type  3   force =     0.00120720   -0.00104389    0.00033415
     atom   50 type  4   force =     0.00037180    0.00022202    0.00042366
     atom   51 type  5   force =     0.00027838   -0.00054024    0.00063600
     atom   52 type  5   force =    -0.00043129    0.00038184    0.00006147
     atom   53 type  5   force =     0.00042085   -0.00048120    0.00019618
     atom   54 type  5   force =    -0.00028155   -0.00031831    0.00024841
     atom   55 type  5   force =     0.00000506   -0.00066364    0.00032165
     atom   56 type  5   force =     0.00443119   -0.00133934   -0.00506934

     Total force =     0.365766     Total SCF correction =     0.000848
  @ DRIVER MODE: Message from server: STATUS
  @ DRIVER MODE: Message from server: GETFORCE
  @ DRIVER MODE: Returning v,forces,stress,ensemble

     Writing output data file ./calc.save/
  @ DRIVER MODE: Message from server: EXIT
  @ DRIVE MODE: Exiting

     General routines

     Parallel routines

   This run was terminated on:  16:31: 1   9Sep2021

   JOB DONE.