     Program PWSCF v.6.7GPU starts on 18Oct2021 at 22:50:29

     R & G space division:  proc/nbgrp/npool/nimage =       8
     Reading input from /storage/home/hcoda1/3/ntian30/research/carbon/CxH_vib/Thiel_calc/ads_slab/NH2HNH_perslab/out_0024/pw.inp
Warning: card &CELL ignored
Warning: card   CELL_DYNAMICS='IPI', ignored
Warning: card / ignored

     Current dimensions of program PWSCF are:
     Max number of different atomic species (ntypx) = 10
     Max number of k-points (npk) =  40000
     Max angular momentum in pseudopotentials (lmaxx) =  3
     Presently no symmetry can be used with electric field

     Message from routine cell_base_init:
     DEPRECATED: use true lattice parameter, not A to a.u. conversion factor

     IMPORTANT: XC functional enforced from input :
     Exchange-correlation= BEEF-VDW
                           (   1   4  43  14   2   0   0)
     Any further DFT definition will be discarded
     Please, verify this is what you really want

  @ DRIVER MODE: Connecting to
 qe_1139763_3255135.sched-torque.pace.gatech.eduuoccb4k2_scratch
  using UNIX socket
  @ DRIVER MODE: Message from server: STATUS
  @ DRIVER MODE: Message from server: INIT
  @ DRIVER MODE: Receiving replica           0          -1
  @ DRIVER MODE: Receiving encoded integer          25
  @ DRIVER MODE:  SCF:  T  FORCE:  T  STRESS:  F  VC:  F  ENSEMBLE:  F
  @ DRIVER MODE:  SCF:  T  FORCE:  T  STRESS:  F  VC:  F  ENSEMBLE:  F

     Using Slab Decomposition

     bravais-lattice index     =            0
     lattice parameter (alat)  =       1.8897  a.u.
     unit-cell volume          =    9988.4706 (a.u.)^3
     number of atoms/cell      =           59
     number of atomic types    =            4
     number of electrons       =       440.00
     number of Kohn-Sham states=          230
     kinetic-energy cutoff     =      29.3995  Ry
     charge density cutoff     =     293.9946  Ry
     scf convergence threshold =      7.3E-08
     mixing beta               =       0.0500
     number of iterations used =            8  plain     mixing
     Exchange-correlation= BEEF-VDW
                           (   1   4  43  14   2   0   0)

     celldm(1)=   1.889726  celldm(2)=   0.000000  celldm(3)=   0.000000
     celldm(4)=   0.000000  celldm(5)=   0.000000  celldm(6)=   0.000000

     crystal axes: (cart. coord. in units of alat)
               a(1) = (   6.579727   0.000000   0.000000 )
               a(2) = (  -0.001163   8.942395   0.000000 )
               a(3) = (   0.000000   0.000000  25.155947 )

     reciprocal axes: (cart. coord. in units 2 pi/alat)
               b(1) = (  0.151982  0.000020  0.000000 )
               b(2) = (  0.000000  0.111827  0.000000 )
               b(3) = (  0.000000  0.000000  0.039752 )

     PseudoPot. # 1 for O  read from file:
     /storage/coda1/p-amedford6/0/shared/rich_project_chbe-medford/medford-share/data/pseudos_module/espresso/nninc/pbe/van/O.UPF
     MD5 check sum: 78c19812648e8988a0fe644b0f25305e
     Pseudo is Ultrasoft, Zval =  6.0
     Generated by new atomic code, or converted to UPF format
     Using radial grid of  737 points,  4 beta functions with:
                l(1) =   0
                l(2) =   0
                l(3) =   1
                l(4) =   1
     Q(r) pseudized with  8 coefficients,  rinner =    0.800   0.800   0.800

     PseudoPot. # 2 for Ti read from file:
     /storage/coda1/p-amedford6/0/shared/rich_project_chbe-medford/medford-share/data/pseudos_module/espresso/nninc/pbe/van/Ti.UPF
     MD5 check sum: 8e4df49b7f0d34bbd5052bf3f5ea0213
     Pseudo is Ultrasoft, Zval = 12.0
     Generated by new atomic code, or converted to UPF format
     Using radial grid of  851 points,  6 beta functions with:
                l(1) =   0
                l(2) =   0
                l(3) =   1
                l(4) =   1
                l(5) =   2
                l(6) =   2
     Q(r) pseudized with  8 coefficients,  rinner =    1.000   1.000   1.000
                                                       1.000   1.000

     PseudoPot. # 3 for H  read from file:
     /storage/coda1/p-amedford6/0/shared/rich_project_chbe-medford/medford-share/data/pseudos_module/espresso/nninc/pbe/van/H.UPF
     MD5 check sum: b5ee9d7bfd3a09ee7748110bda690ff7
     Pseudo is Ultrasoft, Zval =  1.0
     Generated by new atomic code, or converted to UPF format
     Using radial grid of  615 points,  1 beta functions with:
                l(1) =   0
     Q(r) pseudized with  8 coefficients,  rinner =    0.800

     PseudoPot. # 4 for N  read from file:
     /storage/coda1/p-amedford6/0/shared/rich_project_chbe-medford/medford-share/data/pseudos_module/espresso/nninc/pbe/van/N.UPF
     MD5 check sum: 90d10febe142ad51ac9d5be1deb811c4
     Pseudo is Ultrasoft, Zval =  5.0
     Generated by new atomic code, or converted to UPF format
     Using radial grid of  729 points,  4 beta functions with:
                l(1) =   0
                l(2) =   0
                l(3) =   1
                l(4) =   1
     Q(r) pseudized with  8 coefficients,  rinner =    0.800   0.800   0.800

     atomic species   valence    mass     pseudopotential
        O1             6.00    15.99900     O ( 1.00)
        Ti1           12.00    47.86700     Ti( 1.00)
        H1             1.00     1.00800     H ( 1.00)
        N1             5.00    14.00700     N ( 1.00)

     No symmetry found

   Cartesian axes

     site n.     atom                  positions (alat units)
         1           O1  tau(   1) = (   0.0007354   0.0005023  10.5931620  )
         2           O1  tau(   2) = (   3.2891522   8.9193323  13.7813865  )
         3           O1  tau(   3) = (  -0.0003195   8.9357148  17.1597790  )
         4           O1  tau(   4) = (   0.0006271   0.0005054   7.9858123  )
         5           O1  tau(   5) = (   3.2896276   8.9330874  11.1456747  )
         6           O1  tau(   6) = (   0.0000757   8.8957392  14.5326415  )
         7           O1  tau(   7) = (   1.9868534   1.4903216   9.2879459  )
         8           O1  tau(   8) = (   5.2085136   1.5567490  12.5272226  )
         9           O1  tau(   9) = (   2.0368910   1.4086519  15.9478609  )
        10           Ti1 tau(  10) = (   0.0007404   1.4906270   9.2895810  )
        11           Ti1 tau(  11) = (   3.2920048   1.2896434  12.4335303  )
        12           Ti1 tau(  12) = (   0.0003947   1.7483972  15.9485354  )
        13           O1  tau(  13) = (   4.5942328   1.4918067   9.2879030  )
        14           O1  tau(  14) = (   1.3734151   1.5562871  12.5269411  )
        15           O1  tau(  15) = (   4.5446063   1.4075665  15.9467422  )
        16           Ti1 tau(  16) = (   3.2902859   2.9801868   9.2893338  )
        17           Ti1 tau(  17) = (   0.0022843   2.7629733  12.5422407  )
        18           Ti1 tau(  18) = (   3.2887740   3.1097933  15.6402895  )
        19           O1  tau(  19) = (   0.0003479   2.9813005  10.5931620  )
        20           O1  tau(  20) = (   3.2903674   2.9527630  13.7969158  )
        21           O1  tau(  21) = (   0.0002396   2.9813036   7.9858123  )
        22           O1  tau(  22) = (   3.2906228   2.9775883  11.1663003  )
        23           O1  tau(  23) = (   0.0006598   2.9368866  14.5305733  )
        24           O1  tau(  24) = (   1.9864658   4.4711199   9.2879459  )
        25           O1  tau(  25) = (   5.2231876   4.5386380  12.5467233  )
        26           O1  tau(  26) = (   2.0248981   4.3679406  15.9930346  )
        27           Ti1 tau(  27) = (   0.0003529   4.4714252   9.2895810  )
        28           Ti1 tau(  28) = (   3.2918124   4.3135021  12.5344809  )
        29           Ti1 tau(  29) = (   6.5788423   4.6929592  16.0739603  )
        30           O1  tau(  30) = (   4.5938453   4.4726049   9.2879030  )
        31           O1  tau(  31) = (   1.3570704   4.5373869  12.5465102  )
        32           O1  tau(  32) = (   4.5538814   4.3671241  15.9936543  )
        33           Ti1 tau(  33) = (   3.2898983   5.9609850   9.2893338  )
        34           Ti1 tau(  34) = (   0.0013264   5.7428985  12.5110789  )
        35           Ti1 tau(  35) = (   3.2898306   6.0937744  16.2866611  )
        36           O1  tau(  36) = (  -0.0000397   5.9620987  10.5931620  )
        37           O1  tau(  37) = (   3.2897329   5.8964334  13.7986068  )
        38           O1  tau(  38) = (  -0.0007474   6.0119579  17.1634496  )
        39           O1  tau(  39) = (  -0.0001480   5.9621018   7.9858123  )
        40           O1  tau(  40) = (   3.2898370   5.9388437  11.1687384  )
        41           O1  tau(  41) = (  -0.0001539   5.9931028  14.5676369  )
        42           O1  tau(  42) = (   1.9860782   7.4519181   9.2879459  )
        43           O1  tau(  43) = (   5.2258842   7.5046952  12.5406166  )
        44           O1  tau(  44) = (   2.0242945   7.4351242  16.0034066  )
        45           Ti1 tau(  45) = (  -0.0000347   7.4522234   9.2895810  )
        46           Ti1 tau(  46) = (   3.2896699   7.1866417  12.6007890  )
        47           Ti1 tau(  47) = (   0.0000787   7.5542351  15.7482610  )
        48           O1  tau(  48) = (   4.5934577   7.4534031   9.2879030  )
        49           O1  tau(  49) = (   1.3527639   7.5038087  12.5404143  )
        50           O1  tau(  50) = (   4.5545665   7.4356877  16.0029592  )
        51           Ti1 tau(  51) = (   3.2895107   8.9417832   9.2893338  )
        52           Ti1 tau(  52) = (  -0.0005703   8.7121504  12.4856418  )
        53           Ti1 tau(  53) = (   3.2909615   0.1005107  15.6284087  )
        54           H1  tau(  54) = (   6.5785809   3.1351568  18.2688824  )
        55           H1  tau(  55) = (   6.5783155   8.7923607  18.1116139  )
        56           N1  tau(  56) = (  -0.0001347   2.9716693  17.2674093  )
        57           N1  tau(  57) = (   3.2897564   5.9921341  18.1900631  )
        58           H1  tau(  58) = (   3.2887465   5.1266479  18.7045293  )
        59           H1  tau(  59) = (   3.2892443   6.7858760  18.8071070  )

     number of k points=    10  Fermi-Dirac smearing, width (Ry)=  0.0073
                       cart. coord. in units 2pi/alat
        k(    1) = (   0.0000000   0.0000000   0.0000000), wk =   0.1250000
        k(    2) = (   0.0000000   0.0279567   0.0000000), wk =   0.2500000
        k(    3) = (   0.0000000  -0.0559134   0.0000000), wk =   0.1250000
        k(    4) = (   0.0379955   0.0000049   0.0000000), wk =   0.2500000
        k(    5) = (   0.0379955   0.0279617   0.0000000), wk =   0.2500000
        k(    6) = (   0.0379955  -0.0559085   0.0000000), wk =   0.2500000
        k(    7) = (   0.0379955  -0.0279518   0.0000000), wk =   0.2500000
        k(    8) = (  -0.0759910  -0.0000099   0.0000000), wk =   0.1250000
        k(    9) = (  -0.0759910   0.0279468   0.0000000), wk =   0.2500000
        k(   10) = (  -0.0759910  -0.0559233   0.0000000), wk =   0.1250000

     Initial potential from superposition of free atoms

     starting charge  421.99910, renormalised to  440.00000

     negative rho (up, down):  3.702E-02 0.000E+00

     %%%%%%%%%%%%%%%%%%%%%%%%%%%%%%%%%%%%%%%%%%%%%%%%%%%%%%%%%%%%%%%%%%%%%%%%
     %                                                                      %
     % You are using vdW-DF, which was implemented by the Thonhauser group. %
     % Please cite the following two papers that made this development      %
     % possible and the two reviews that describe the various versions:     %
     %                                                                      %
     %   T. Thonhauser et al., PRL 115, 136402 (2015).                      %
     %   T. Thonhauser et al., PRB 76, 125112 (2007).                       %
     %   K. Berland et al., Rep. Prog. Phys. 78, 066501 (2015).             %
     %   D.C. Langreth et al., J. Phys.: Condens. Matter 21, 084203 (2009). %
     %                                                                      %
     %                                                                      %
     % If you are calculating the stress with vdW-DF, please also cite:     %
     %                                                                      %
     %   R. Sabatini et al., J. Phys.: Condens. Matter 24, 424209 (2012).   %
     %                                                                      %
     %%%%%%%%%%%%%%%%%%%%%%%%%%%%%%%%%%%%%%%%%%%%%%%%%%%%%%%%%%%%%%%%%%%%%%%%

     Adding external electric field

     Computed dipole along edir(3) :
        Dipole               -3.9464 Ry au,        -10.0309 Debye
        Dipole field         -0.0050 Ry au,

        Potential amp.        0.4602 Ry
        Total length         46.3494 bohr

     Starting wfcs are  332 atomic wfcs
  @ DRIVER MODE: Message from server: STATUS
  @ DRIVER MODE: Message from server: POSDATA
  @ DRIVER MODE: Reading and sharing cell
  @ DRIVER MODE: Reading and sharing positions
  @ DRIVER MODE: Received positions

     Self-consistent Calculation

     iteration #  1     ecut=    29.40 Ry     beta= 0.05
     Davidson diagonalization with overlap
     c_bands:  1 eigenvalues not converged
     c_bands:  2 eigenvalues not converged
     c_bands:  4 eigenvalues not converged
     c_bands:  3 eigenvalues not converged
     c_bands:  3 eigenvalues not converged
     c_bands:  5 eigenvalues not converged
     c_bands:  3 eigenvalues not converged
     c_bands:  2 eigenvalues not converged
     ethr =  1.00E-05,  avg # of iterations = 19.2

[...]

     total energy              =   -3294.67814630 Ry
     estimated scf accuracy    <      19.63005557 Ry

     iteration #  2     ecut=    29.40 Ry     beta= 0.05
     Davidson diagonalization with overlap
     ethr =  4.46E-03,  avg # of iterations =  1.0

[...]

     iteration # 31     ecut=    29.40 Ry     beta= 0.05
     Davidson diagonalization with overlap
     c_bands:  1 eigenvalues not converged
     c_bands:  1 eigenvalues not converged
     c_bands:  1 eigenvalues not converged
     ethr =  7.29E-07,  avg # of iterations = 13.9

[...]

     total energy              =   -3293.29214388 Ry
     estimated scf accuracy    <       0.00000007 Ry

     iteration # 56     ecut=    29.40 Ry     beta= 0.05
     Davidson diagonalization with overlap
     ethr =  1.70E-11,  avg # of iterations =  5.4

     negative rho (up, down):  3.600E-02 0.000E+00

     Adding external electric field

     Computed dipole along edir(3) :
        Dipole                1.2786 Ry au,          3.2499 Debye
        Dipole field          0.0016 Ry au,

        Potential amp.       -0.1491 Ry
        Total length         46.3494 bohr

     End of self-consistent calculation

          k = 0.0000 0.0000 0.0000 ( 26871 PWs)   bands (ev):

   -58.3041 -58.2802 -58.2764 -58.2170 -58.1688 -57.8014 -57.7808 -57.7647
   -57.6290 -57.5991 -57.5787 -57.5283 -57.4955 -56.9040 -56.8845 -56.8587
   -56.8474 -56.8436 -34.6953 -34.6682 -34.6381 -34.6263 -34.6207 -34.6157
   -34.5530 -34.4895 -34.4793 -34.4169 -34.4126 -34.4097 -34.3960 -34.3658
   -34.3408 -34.2035 -34.1575 -34.1527 -34.1327 -34.1034 -34.0909 -34.0855
   -34.0666 -34.0283 -34.0163 -33.9706 -33.9261 -33.8815 -33.8664 -33.8578
   -33.8472 -33.8343 -33.7873 -33.7642 -33.7607 -33.7504 -33.7033 -33.6980
   -33.6889 -33.3655 -33.2292 -33.2171 -33.2092 -33.1948 -33.1881 -33.1796
   -33.1698 -33.1225 -33.0922 -33.0847 -33.0330 -33.0310 -33.0154 -32.8922
   -18.9176 -18.8337 -18.3789 -18.3035 -18.1817 -18.1266 -18.1203 -18.0554
   -17.9523 -17.7310 -17.6906 -17.6818 -17.6537 -17.5459 -17.5379 -17.5358
   -17.5006 -17.4934 -17.4811 -17.3939 -17.3348 -17.3232 -17.3160 -17.3157
   -17.2068 -17.1822 -17.1300 -17.0652 -17.0519 -16.9560 -16.7709 -16.4357
   -15.3603 -15.3197 -15.3100 -15.1669 -13.6043  -6.9831  -6.6749  -6.1863
    -5.9926  -5.7825  -5.6447  -5.5296  -5.4764  -5.3840  -5.3178  -5.2930
    -5.2757  -5.2348  -5.2007  -5.1751  -5.0720  -5.0624  -4.9812  -4.9268
    -4.8811  -4.8354  -4.7928  -4.7462  -4.7438  -4.7048  -4.6357  -4.6246
    -4.5900  -4.5427  -4.5143  -4.5053  -4.4504  -4.4219  -4.3988  -4.2816
    -4.2668  -4.1992  -4.1856  -4.1777  -4.0745  -4.0685  -4.0247  -3.9879
    -3.9706  -3.9621  -3.9067  -3.8385  -3.8071  -3.6512  -3.6234  -3.6189
    -3.5198  -3.3862  -3.3741  -3.3289  -3.2105  -3.1427  -3.1196  -3.0841
    -3.0642  -3.0466  -3.0217  -3.0116  -2.9785  -2.8841  -2.8831  -2.8220
    -2.8205  -2.8049  -2.7818  -2.7776  -2.7388  -2.6655  -2.6068  -2.5929
    -2.5724  -2.5546  -2.4683  -2.4547  -2.3630  -2.3467  -2.2919  -2.2495
    -2.2431  -2.1778  -2.1026  -2.0950  -2.0313  -2.0065  -1.8304  -1.8074
    -1.7301  -1.7247  -1.6579  -1.6311  -1.6071  -1.5563  -1.4312  -1.3997
    -1.3035  -1.1914  -1.0261  -0.7890  -0.5772  -0.5709  -0.5680  -0.5359
    -0.4405  -0.3893  -0.3732  -0.2783   0.9739   1.1198   1.2730   1.2946
     1.4883   1.5978   1.6103   1.6655   1.7444   1.8423

[...]

          k = 0.0380-0.0280 0.0000 ( 26873 PWs)   bands (ev):

[...]

          k =-0.0760-0.0000 0.0000 ( 26902 PWs)   bands (ev):

[...]

          k =-0.0760-0.0559 0.0000 ( 26868 PWs)   bands (ev):

   -58.2974 -58.2934 -58.2698 -58.2169 -58.1689 -57.8013 -57.7803 -57.7651
   -57.6274 -57.6026 -57.5769 -57.5281 -57.4955 -56.9041 -56.8817 -56.8645
   -56.8473 -56.8406 -34.7207 -34.7168 -34.6704 -34.6459 -34.6130 -34.5049
   -34.4901 -34.4559 -34.4527 -34.4402 -34.4337 -34.4140 -34.3918 -34.3883
   -34.3678 -34.2396 -34.1802 -34.1745 -34.1467 -34.1294 -34.0863 -34.0100
   -34.0062 -34.0061 -33.9721 -33.9346 -33.9278 -33.9137 -33.9058 -33.8887
   -33.8722 -33.8572 -33.7823 -33.7736 -33.7464 -33.7287 -33.7200 -33.7018
   -33.6961 -33.3412 -33.2708 -33.2302 -33.2234 -33.2149 -33.1918 -33.1817
   -33.1294 -33.0857 -33.0792 -33.0602 -33.0356 -33.0032 -32.9967 -32.9797
   -18.8955 -18.6291 -18.4818 -18.2456 -18.1454 -17.9817 -17.8987 -17.8858
   -17.8681 -17.8671 -17.7681 -17.7571 -17.7074 -17.6813 -17.6382 -17.6286
   -17.6164 -17.5804 -17.5733 -17.4605 -17.3701 -17.3598 -17.2647 -17.2497
   -17.2225 -17.1608 -17.1436 -17.0530 -17.0339 -16.9607 -16.7788 -16.4205
   -15.3714 -15.3597 -15.2492 -15.1677 -13.6013  -6.9552  -6.6759  -5.9570
    -5.7622  -5.7278  -5.6774  -5.3568  -5.3192  -5.2320  -5.2093  -5.1702
    -5.1453  -5.1308  -5.1007  -5.0894  -5.0143  -4.9773  -4.9686  -4.9648
    -4.9215  -4.9023  -4.8539  -4.8339  -4.7831  -4.7626  -4.7542  -4.7200
    -4.6761  -4.6556  -4.5829  -4.5775  -4.5044  -4.4646  -4.3256  -4.2435
    -4.2170  -4.1874  -4.0901  -4.0578  -4.0441  -3.9323  -3.9246  -3.9116
    -3.7836  -3.7348  -3.6398  -3.6245  -3.5750  -3.5520  -3.5244  -3.4953
    -3.4324  -3.3901  -3.3737  -3.3668  -3.3347  -3.2662  -3.2355  -3.2196
    -3.1863  -3.1699  -3.1595  -3.1484  -3.0823  -3.0655  -3.0359  -2.9968
    -2.9355  -2.9105  -2.8568  -2.8550  -2.7922  -2.7540  -2.6992  -2.6940
    -2.6224  -2.5995  -2.5928  -2.5855  -2.4823  -2.4570  -2.4514  -2.3083
    -2.1708  -2.1195  -2.0760  -1.9725  -1.9151  -1.9119  -1.8879  -1.8194
    -1.7932  -1.7111  -1.6570  -1.6332  -1.6263  -1.5998  -1.3820  -1.3520
    -1.3404  -1.2971  -1.2330  -1.1358  -0.8193  -0.5846  -0.5721  -0.5065
    -0.4829  -0.4297  -0.4091  -0.3947   1.0231   1.1980   1.2695   1.3627
     1.3635   1.3961   1.4456   1.6118   1.6459   1.6989

     the Fermi energy is     0.3815 ev

!    total energy              =   -3293.29220180 Ry
     estimated scf accuracy    <       0.00000006 Ry
     smearing contrib. (-TS)   =      -0.00048112 Ry
     internal energy E=F+TS    =   -3293.29172069 Ry

     The total energy is F=E-TS. E is the sum of the following terms:
     one-electron contribution =  -34636.14889069 Ry
     hartree contribution      =   17382.27349243 Ry
     xc contribution           =    -542.08939403 Ry
     ewald contribution        =   14502.67101481 Ry
     electric field correction =       0.00205680 Ry

     convergence has been achieved in  56 iterations

     Forces acting on atoms (cartesian axes, Ry/au):

     atom    1 type  1   force =     0.00000961    0.00245111    0.04673374
     atom    2 type  1   force =     0.00000765   -0.00345622   -0.00286102
     atom    3 type  1   force =    -0.00000805    0.00320857   -0.00112926
     atom    4 type  1   force =     0.00005034   -0.00098391    0.10173108
     atom    5 type  1   force =    -0.00000951   -0.00072362    0.00563470
     atom    6 type  1   force =    -0.00001257    0.00366212    0.00077316
     atom    7 type  1   force =     0.07819994    0.00086116   -0.03541172
     atom    8 type  1   force =     0.00832055   -0.02589458    0.00017326
     atom    9 type  1   force =     0.00854030    0.02064043    0.00122901
     atom   10 type  2   force =    -0.00006355    0.00868250   -0.15840147
     atom   11 type  2   force =    -0.00004130    0.02309561   -0.00232710
     atom   12 type  2   force =     0.00005332   -0.02558316   -0.00412401
     atom   13 type  1   force =    -0.07829296    0.00040498   -0.03539951
     atom   14 type  1   force =    -0.00836651   -0.02580808    0.00018081
     atom   15 type  1   force =    -0.00849331    0.02074896    0.00126095
     atom   16 type  2   force =     0.00013309    0.00087011    0.07316501
     atom   17 type  2   force =     0.00006016    0.03072205    0.00246218
     atom   18 type  2   force =    -0.00005993   -0.02697243    0.00075595
     atom   19 type  1   force =     0.00004037    0.00300011    0.05010014
     atom   20 type  1   force =    -0.00002048   -0.00125635   -0.00144445
     atom   21 type  1   force =     0.00005204   -0.00064843    0.10020826
     atom   22 type  1   force =    -0.00001535   -0.00179380    0.00547061
     atom   23 type  1   force =    -0.00002061    0.00240430    0.00372239
     atom   24 type  1   force =     0.07914906    0.00064809   -0.03606294
     atom   25 type  1   force =     0.00922407   -0.02948711    0.00061740
     atom   26 type  1   force =     0.00860590    0.02175333    0.00328779
     atom   27 type  2   force =    -0.00006871   -0.00814472   -0.15492929
     atom   28 type  2   force =    -0.00000996    0.02623335   -0.00227337
     atom   29 type  2   force =     0.00004002   -0.02433873   -0.00314882
     atom   30 type  1   force =    -0.07924009    0.00023764   -0.03605996
     atom   31 type  1   force =    -0.00923089   -0.02941825    0.00062344
     atom   32 type  1   force =    -0.00856124    0.02183039    0.00331619
     atom   33 type  2   force =     0.00013209   -0.00255217    0.07886331
     atom   34 type  2   force =     0.00004606    0.03585487    0.00278236
     atom   35 type  2   force =    -0.00006430   -0.02917941    0.00945247
     atom   36 type  1   force =     0.00004168    0.00307067    0.05239498
     atom   37 type  1   force =    -0.00000391   -0.00187528   -0.00264992
     atom   38 type  1   force =    -0.00002142    0.00200424    0.00058034
     atom   39 type  1   force =     0.00004737    0.00287398    0.10113397
     atom   40 type  1   force =    -0.00000953   -0.00169535    0.00622305
     atom   41 type  1   force =    -0.00002731    0.00304721    0.00381905
     atom   42 type  1   force =     0.07825926    0.00076231   -0.03488422
     atom   43 type  1   force =     0.00658520   -0.02305380   -0.00020509
     atom   44 type  1   force =     0.01147577    0.02170897   -0.00703796
     atom   45 type  2   force =    -0.00005312   -0.00551725   -0.16466631
     atom   46 type  2   force =    -0.00007999    0.01963999    0.00092676
     atom   47 type  2   force =     0.00002205   -0.01859221    0.00757489
     atom   48 type  1   force =    -0.07835601    0.00031246   -0.03486538
     atom   49 type  1   force =    -0.00662612   -0.02302026   -0.00020003
     atom   50 type  1   force =    -0.01144389    0.02169334   -0.00699288
     atom   51 type  2   force =     0.00012637   -0.00436462    0.06095919
     atom   52 type  2   force =     0.00012727    0.02967718    0.00360312
     atom   53 type  2   force =    -0.00006881   -0.02471398    0.00103046
     atom   54 type  3   force =    -0.00000628    0.00079143   -0.00010068
     atom   55 type  3   force =    -0.00001747   -0.00012309    0.00020232
     atom   56 type  4   force =    -0.00002554    0.00696840    0.00044486
     atom   57 type  4   force =     0.00000568   -0.00083430   -0.01975314
     atom   58 type  3   force =    -0.00001442   -0.00604909    0.00572404
     atom   59 type  3   force =    -0.00002208    0.00622033    0.00776734

     Total force =     0.438039     Total SCF correction =     0.000781
  @ DRIVER MODE: Message from server: STATUS
  @ DRIVER MODE: Message from server: GETFORCE
  @ DRIVER MODE: Returning v,forces,stress,ensemble

     Writing output data file ./calc.save/
  @ DRIVER MODE: Message from server: EXIT
  @ DRIVE MODE: Exiting

     General routines

     Parallel routines

   This run was terminated on:  23:17:33  18Oct2021

   JOB DONE.