     Program PWSCF v.6.7GPU starts on  5Oct2021 at 17:54:32

     R & G space division:  proc/nbgrp/npool/nimage =       8
     Reading input from /storage/home/hcoda1/3/ntian30/research/carbon/CxH_vib/pristine/ads_slab/CH2N2_a/out_0019/pw.inp
Warning: card &CELL ignored
Warning: card   CELL_DYNAMICS='IPI', ignored
Warning: card / ignored

     Current dimensions of program PWSCF are:
     Max number of different atomic species (ntypx) = 10
     Max number of k-points (npk) =  40000
     Max angular momentum in pseudopotentials (lmaxx) =  3
     Presently no symmetry can be used with electric field

     Message from routine cell_base_init:
     DEPRECATED: use true lattice parameter, not A to a.u. conversion factor

     IMPORTANT: XC functional enforced from input :
     Exchange-correlation= BEEF-VDW
                           (   1   4  43  14   2   0   0)
     Any further DFT definition will be discarded
     Please, verify this is what you really want

  @ DRIVER MODE: Connecting to
 qe_1139763_3091261.sched-torque.pace.gatech.edu_bxlp9np_scratch
  using UNIX socket
  @ DRIVER MODE: Message from server: STATUS
  @ DRIVER MODE: Message from server: INIT
  @ DRIVER MODE: Receiving replica           0          -1
  @ DRIVER MODE: Receiving encoded integer          25
  @ DRIVER MODE:  SCF:  T  FORCE:  T  STRESS:  F  VC:  F  ENSEMBLE:  F
  @ DRIVER MODE:  SCF:  T  FORCE:  T  STRESS:  F  VC:  F  ENSEMBLE:  F

     Using Slab Decomposition

     bravais-lattice index     =            0
     lattice parameter (alat)  =       1.8897  a.u.
     unit-cell volume          =    6658.9804 (a.u.)^3
     number of atoms/cell      =           53
     number of atomic types    =            5
     number of electrons       =       400.00
     number of Kohn-Sham states=          210
     kinetic-energy cutoff     =      29.3995  Ry
     charge density cutoff     =     293.9946  Ry
     scf convergence threshold =      7.3E-08
     mixing beta               =       0.0500
     number of iterations used =            8  plain     mixing
     Exchange-correlation= BEEF-VDW
                           (   1   4  43  14   2   0   0)

     celldm(1)=   1.889726  celldm(2)=   0.000000  celldm(3)=   0.000000
     celldm(4)=   0.000000  celldm(5)=   0.000000  celldm(6)=   0.000000

     crystal axes: (cart. coord. in units of alat)
               a(1) = (   6.579727   0.000000   0.000000 )
               a(2) = (  -0.000775   5.961596   0.000000 )
               a(3) = (   0.000000   0.000000  25.155947 )

     reciprocal axes: (cart. coord. in units 2 pi/alat)
               b(1) = (  0.151982  0.000020  0.000000 )
               b(2) = (  0.000000  0.167740  0.000000 )
               b(3) = (  0.000000  0.000000  0.039752 )

     PseudoPot. # 1 for Ti read from file:
     /storage/coda1/p-amedford6/0/shared/rich_project_chbe-medford/medford-share/data/pseudos_module/espresso/nninc/pbe/van/Ti.UPF
     MD5 check sum: 8e4df49b7f0d34bbd5052bf3f5ea0213
     Pseudo is Ultrasoft, Zval = 12.0
     Generated by new atomic code, or converted to UPF format
     Using radial grid of  851 points,  6 beta functions with:
                l(1) =   0
                l(2) =   0
                l(3) =   1
                l(4) =   1
                l(5) =   2
                l(6) =   2
     Q(r) pseudized with  8 coefficients,  rinner =    1.000   1.000   1.000
                                                       1.000   1.000

     PseudoPot. # 2 for O  read from file:
     /storage/coda1/p-amedford6/0/shared/rich_project_chbe-medford/medford-share/data/pseudos_module/espresso/nninc/pbe/van/O.UPF
     MD5 check sum: 78c19812648e8988a0fe644b0f25305e
     Pseudo is Ultrasoft, Zval =  6.0
     Generated by new atomic code, or converted to UPF format
     Using radial grid of  737 points,  4 beta functions with:
                l(1) =   0
                l(2) =   0
                l(3) =   1
                l(4) =   1
     Q(r) pseudized with  8 coefficients,  rinner =    0.800   0.800   0.800

     PseudoPot. # 3 for N  read from file:
     /storage/coda1/p-amedford6/0/shared/rich_project_chbe-medford/medford-share/data/pseudos_module/espresso/nninc/pbe/van/N.UPF
     MD5 check sum: 90d10febe142ad51ac9d5be1deb811c4
     Pseudo is Ultrasoft, Zval =  5.0
     Generated by new atomic code, or converted to UPF format
     Using radial grid of  729 points,  4 beta functions with:
                l(1) =   0
                l(2) =   0
                l(3) =   1
                l(4) =   1
     Q(r) pseudized with  8 coefficients,  rinner =    0.800   0.800   0.800

     PseudoPot. # 4 for C  read from file:
     /storage/coda1/p-amedford6/0/shared/rich_project_chbe-medford/medford-share/data/pseudos_module/espresso/nninc/pbe/van/C.UPF
     MD5 check sum: 1a69bf6b8db32088f5b2163dbdb77a27
     Pseudo is Ultrasoft, Zval =  4.0
     Generated by new atomic code, or converted to UPF format
     Using radial grid of  721 points,  4 beta functions with:
                l(1) =   0
                l(2) =   0
                l(3) =   1
                l(4) =   1
     Q(r) pseudized with  8 coefficients,  rinner =    0.800   0.800   0.800

     PseudoPot. # 5 for H  read from file:
     /storage/coda1/p-amedford6/0/shared/rich_project_chbe-medford/medford-share/data/pseudos_module/espresso/nninc/pbe/van/H.UPF
     MD5 check sum: b5ee9d7bfd3a09ee7748110bda690ff7
     Pseudo is Ultrasoft, Zval =  1.0
     Generated by new atomic code, or converted to UPF format
     Using radial grid of  615 points,  1 beta functions with:
                l(1) =   0
     Q(r) pseudized with  8 coefficients,  rinner =    0.800

     atomic species   valence    mass     pseudopotential
        Ti1           12.00    47.86700     Ti( 1.00)
        O1             6.00    15.99900     O ( 1.00)
        N1             5.00    14.00700     N ( 1.00)
        C1             4.00    12.01100     C ( 1.00)
        H1             1.00     1.00800     H ( 1.00)

     No symmetry found

   Cartesian axes

     site n.     atom                  positions (alat units)
         1           Ti1 tau(   1) = (   0.0004258   2.9801865   6.0000000  )
         2           Ti1 tau(   2) = (   3.2906075   1.4906267   6.0002472  )
         3           O1  tau(   3) = (   0.0006271   0.0005054   7.9858123  )
         4           O1  tau(   4) = (   3.2906025   0.0005020   7.3038282  )
         5           O1  tau(   5) = (   4.5942328   1.4918067   9.2879030  )
         6           O1  tau(   6) = (   1.9868534   1.4903216   9.2879459  )
         7           Ti1 tau(   7) = (   3.2967797   2.8647345   9.1688538  )
         8           Ti1 tau(   8) = (   0.0139078   1.4260134   9.3797207  )
         9           O1  tau(   9) = (   3.2818202   5.9426219  11.3413624  )
        10           O1  tau(  10) = (  -0.0006713   5.9438105  10.5613913  )
        11           O1  tau(  11) = (   1.2629550   1.4689526  12.6431422  )
        12           O1  tau(  12) = (   5.2627372   1.4724369  12.6244454  )
        13           Ti1 tau(  13) = (   0.0649248   2.9521173  12.8162972  )
        14           Ti1 tau(  14) = (   3.3900010   1.4623865  12.4921655  )
        15           O1  tau(  15) = (   6.5612248   5.9427239  14.6529025  )
        16           O1  tau(  16) = (   3.2707349   5.9499158  13.9186396  )
        17           O1  tau(  17) = (   4.5120437   1.4930778  16.0516072  )
        18           O1  tau(  18) = (   2.0188724   1.4901805  16.0528637  )
        19           Ti1 tau(  19) = (   3.2526435   2.9656207  15.7242400  )
        20           Ti1 tau(  20) = (   6.5390660   1.5270114  16.1581541  )
        21           O1  tau(  21) = (   3.2904802   0.0005063   4.7018136  )
        22           O1  tau(  22) = (   6.5517350   0.0054997  17.2382445  )
        23           O1  tau(  23) = (   1.3043587   1.4918075   6.0039043  )
        24           O1  tau(  24) = (   5.2767064   1.4903225   6.0039473  )
        25           Ti1 tau(  25) = (   0.0000382   5.9609847   6.0000000  )
        26           Ti1 tau(  26) = (   3.2902200   4.4714249   6.0002472  )
        27           O1  tau(  27) = (   0.0002396   2.9813036   7.9858123  )
        28           O1  tau(  28) = (   3.2902150   2.9813002   7.3038282  )
        29           O1  tau(  29) = (   4.5938453   4.4726049   9.2879030  )
        30           O1  tau(  30) = (   1.9864658   4.4711199   9.2879459  )
        31           Ti1 tau(  31) = (   3.2991641   5.8454459   9.1677744  )
        32           Ti1 tau(  32) = (   0.0142928   4.4069258   9.3804372  )
        33           O1  tau(  33) = (   3.2794024   2.9620648  11.3429404  )
        34           O1  tau(  34) = (   0.0008107   2.9631099  10.5617750  )
        35           O1  tau(  35) = (   1.2628400   4.4505553  12.6449227  )
        36           O1  tau(  36) = (   5.2621040   4.4508628  12.6271667  )
        37           Ti1 tau(  37) = (   0.0634051   5.9337149  12.8176510  )
        38           Ti1 tau(  38) = (   3.3888395   4.4462795  12.4902329  )
        39           O1  tau(  39) = (   6.5643088   2.9532696  14.6533357  )
        40           O1  tau(  40) = (   3.2687884   2.9653797  13.9163527  )
        41           O1  tau(  41) = (   4.5138939   4.4677068  16.0260545  )
        42           O1  tau(  42) = (   2.0159196   4.4685127  16.0260682  )
        43           Ti1 tau(  43) = (   3.2551286   5.9518885  15.7372992  )
        44           Ti1 tau(  44) = (   6.5382561   4.5045293  16.1449140  )
        45           O1  tau(  45) = (   3.2900926   2.9813045   4.7018136  )
        46           O1  tau(  46) = (   6.5520679   2.9954315  17.2342401  )
        47           O1  tau(  47) = (   1.3039711   4.4726057   6.0039043  )
        48           O1  tau(  48) = (   5.2763189   4.4711207   6.0039473  )
        49           N1  tau(  49) = (   3.2718132   4.4933032  18.6889481  )
        50           N1  tau(  50) = (   3.2619367   3.3563452  18.5802627  )
        51           C1  tau(  51) = (   3.2831389   5.7900214  18.6539038  )
        52           H1  tau(  52) = (   2.3306966   0.3270794  18.8225995  )
        53           H1  tau(  53) = (   4.2401870   0.3074325  18.8013464  )

     number of k points=    10  Fermi-Dirac smearing, width (Ry)=  0.0073
                       cart. coord. in units 2pi/alat
        k(    1) = (   0.0000000   0.0000000   0.0000000), wk =   0.1250000
        k(    2) = (   0.0000000   0.0419351   0.0000000), wk =   0.2500000
        k(    3) = (   0.0000000  -0.0838702   0.0000000), wk =   0.1250000
        k(    4) = (   0.0379955   0.0000049   0.0000000), wk =   0.2500000
        k(    5) = (   0.0379955   0.0419400   0.0000000), wk =   0.2500000
        k(    6) = (   0.0379955  -0.0838652   0.0000000), wk =   0.2500000
        k(    7) = (   0.0379955  -0.0419301   0.0000000), wk =   0.2500000
        k(    8) = (  -0.0759910  -0.0000099   0.0000000), wk =   0.1250000
        k(    9) = (  -0.0759910   0.0419252   0.0000000), wk =   0.2500000
        k(   10) = (  -0.0759910  -0.0838800   0.0000000), wk =   0.1250000

     Initial potential from superposition of free atoms

     starting charge  383.99917, renormalised to  400.00000

     negative rho (up, down):  1.829E-02 0.000E+00

     %%%%%%%%%%%%%%%%%%%%%%%%%%%%%%%%%%%%%%%%%%%%%%%%%%%%%%%%%%%%%%%%%%%%%%%%
     %                                                                      %
     % You are using vdW-DF, which was implemented by the Thonhauser group. %
     % Please cite the following two papers that made this development      %
     % possible and the two reviews that describe the various versions:     %
     %                                                                      %
     %   T. Thonhauser et al., PRL 115, 136402 (2015).                      %
     %   T. Thonhauser et al., PRB 76, 125112 (2007).                       %
     %   K. Berland et al., Rep. Prog. Phys. 78, 066501 (2015).             %
     %   D.C. Langreth et al., J. Phys.: Condens. Matter 21, 084203 (2009). %
     %                                                                      %
     %                                                                      %
     % If you are calculating the stress with vdW-DF, please also cite:     %
     %                                                                      %
     %   R. Sabatini et al., J. Phys.: Condens. Matter 24, 424209 (2012).   %
     %                                                                      %
     %%%%%%%%%%%%%%%%%%%%%%%%%%%%%%%%%%%%%%%%%%%%%%%%%%%%%%%%%%%%%%%%%%%%%%%%

     Adding external electric field

     Computed dipole along edir(3) :
        Dipole               -9.8398 Ry au,        -25.0102 Debye
        Dipole field         -0.0186 Ry au,

        Potential amp.        1.7213 Ry
        Total length         46.3494 bohr

     Starting wfcs are  302 atomic wfcs
  @ DRIVER MODE: Message from server: STATUS
  @ DRIVER MODE: Message from server: POSDATA
  @ DRIVER MODE: Reading and sharing cell
  @ DRIVER MODE: Reading and sharing positions
  @ DRIVER MODE: Received positions

     Self-consistent Calculation

     iteration #  1     ecut=    29.40 Ry     beta= 0.05
     Davidson diagonalization with overlap
     c_bands:  1 eigenvalues not converged
     c_bands:  2 eigenvalues not converged
     c_bands:  1 eigenvalues not converged
     c_bands:  2 eigenvalues not converged
     c_bands:  2 eigenvalues not converged
     c_bands:  2 eigenvalues not converged
     c_bands:  1 eigenvalues not converged
     c_bands:  3 eigenvalues not converged
     ethr =  1.00E-05,  avg # of iterations = 20.0

[...]

     total energy              =   -2519.79257637 Ry
     estimated scf accuracy    <    5013.15169026 Ry

     iteration #  2     ecut=    29.40 Ry     beta= 0.05
     Davidson diagonalization with overlap
     ethr =  1.00E-02,  avg # of iterations = 25.5

[...]

     iteration # 36     ecut=    29.40 Ry     beta= 0.05
     Davidson diagonalization with overlap
     c_bands:  1 eigenvalues not converged
     ethr =  1.89E-07,  avg # of iterations =  5.1

[...]

     total energy              =   -2970.35071487 Ry
     estimated scf accuracy    <       0.00000008 Ry

     iteration # 55     ecut=    29.40 Ry     beta= 0.05
     Davidson diagonalization with overlap
     ethr =  1.90E-11,  avg # of iterations =  5.1

     negative rho (up, down):  1.788E-02 0.000E+00

     Adding external electric field

     Computed dipole along edir(3) :
        Dipole                0.5364 Ry au,          1.3634 Debye
        Dipole field          0.0010 Ry au,

        Potential amp.       -0.0938 Ry
        Total length         46.3494 bohr

     End of self-consistent calculation

          k = 0.0000 0.0000 0.0000 ( 18029 PWs)   bands (ev):

   -56.2389 -56.2054 -55.8895 -55.8538 -55.7650 -55.7300 -55.6314 -55.6075
   -55.5968 -55.5735 -55.5269 -55.4918 -55.4815 -55.4447 -55.0119 -54.9780
   -32.6658 -32.4866 -32.4587 -32.4303 -32.4244 -32.3392 -32.2928 -32.2390
   -32.1857 -32.1344 -32.1035 -32.0995 -32.0685 -32.0671 -32.0511 -32.0456
   -32.0320 -32.0124 -32.0070 -31.9915 -31.9057 -31.8825 -31.8720 -31.8607
   -31.8512 -31.8465 -31.8226 -31.8141 -31.8008 -31.7723 -31.7654 -31.7438
   -31.7376 -31.7238 -31.7059 -31.7044 -31.7040 -31.6878 -31.6847 -31.6572
   -31.6308 -31.5522 -31.4113 -31.3392 -31.3153 -31.2297 -31.1447 -31.0328
   -21.0509 -16.5568 -16.3930 -16.1719 -16.0185 -15.9295 -15.7983 -15.6029
   -15.5776 -15.4846 -15.4821 -15.4590 -15.3878 -15.3873 -15.3539 -15.3487
   -15.3200 -15.2990 -15.2594 -15.2426 -15.2402 -15.1975 -15.1377 -15.1126
   -15.0196 -14.9724 -14.8671 -14.8620 -14.8316 -14.7476 -14.7165 -14.2763
   -13.5059 -13.3926  -6.7766  -5.8637  -5.0988  -3.9840  -3.9246  -3.8918
    -3.7784  -3.7593  -3.6329  -3.3548  -3.2997  -3.0487  -2.9937  -2.9770
    -2.9314  -2.9095  -2.8420  -2.8233  -2.7377  -2.7334  -2.6868  -2.6798
    -2.6466  -2.6443  -2.6274  -2.5672  -2.5462  -2.4615  -2.4529  -2.4213
    -2.3900  -2.2797  -2.2352  -2.1903  -2.1885  -2.1598  -2.0605  -2.0530
    -2.0396  -2.0100  -1.9276  -1.8765  -1.7495  -1.6493  -1.6329  -1.5878
    -1.5267  -1.4942  -1.2952  -1.2478  -1.2443  -1.2233  -1.2008  -1.1882
    -1.1199  -1.0531  -0.9305  -0.8557  -0.8296  -0.7747  -0.7543  -0.7483
    -0.7288  -0.6508  -0.6216  -0.6149  -0.5918  -0.4507  -0.3053  -0.2662
    -0.2439  -0.2293  -0.2075  -0.1285  -0.1120  -0.0759  -0.0348  -0.0182
     0.0029   0.0512   0.0797   0.0885   0.1924   0.2127   0.2744   0.2958
     0.3057   0.3409   0.3850   0.5309   0.6177   0.7313   0.7404   0.8195
     0.9679   0.9746   1.0156   1.2223   1.2299   1.2770   1.6010   1.6742
     3.0331   3.2165   3.4477   3.5187   3.5390   3.6317   3.7372   3.7671
     3.8339   3.9124

[...]

          k = 0.0380-0.0419 0.0000 ( 17876 PWs)   bands (ev):

[...]

          k =-0.0760-0.0000 0.0000 ( 17886 PWs)   bands (ev):

[...]

          k =-0.0760-0.0839 0.0000 ( 17948 PWs)   bands (ev):

   -56.2222 -56.2220 -55.8718 -55.8713 -55.7498 -55.7450 -55.6148 -55.6134
   -55.5908 -55.5900 -55.5100 -55.5087 -55.4635 -55.4626 -54.9949 -54.9948
   -32.4834 -32.4833 -32.4724 -32.4721 -32.3831 -32.3829 -32.2306 -32.2263
   -32.1355 -32.1308 -32.0779 -32.0769 -32.0675 -32.0568 -32.0370 -32.0285
   -31.9550 -31.9473 -31.9359 -31.9343 -31.9208 -31.9201 -31.8545 -31.8540
   -31.8429 -31.8418 -31.8360 -31.8354 -31.8296 -31.8293 -31.8010 -31.8003
   -31.7904 -31.7842 -31.7260 -31.7250 -31.7165 -31.7154 -31.6997 -31.6984
   -31.6831 -31.6821 -31.3283 -31.3282 -31.2255 -31.2254 -31.1873 -31.1872
   -21.0499 -15.9776 -15.9659 -15.7723 -15.7673 -15.7042 -15.7041 -15.6639
   -15.6615 -15.6116 -15.6103 -15.4720 -15.4689 -15.4680 -15.4638 -15.3880
   -15.3867 -15.3726 -15.3714 -15.3206 -15.3190 -15.1845 -15.1833 -15.0974
   -15.0965 -15.0526 -15.0518 -14.9956 -14.9949 -14.8965 -14.8824 -14.2885
   -13.4951 -13.4949  -6.6175  -5.8341  -5.0873  -4.1491  -3.2632  -3.2500
    -2.9838  -2.9779  -2.8797  -2.8630  -2.8453  -2.8259  -2.8239  -2.7391
    -2.7301  -2.7075  -2.7018  -2.6746  -2.6704  -2.6131  -2.6117  -2.5893
    -2.5834  -2.5736  -2.5726  -2.5672  -2.5650  -2.4757  -2.4722  -2.4588
    -2.4568  -2.3845  -2.3780  -2.3439  -2.3318  -2.1234  -2.1230  -2.0535
    -2.0525  -1.9344  -1.9331  -1.9168  -1.9128  -1.8767  -1.8371  -1.5983
    -1.5961  -1.5389  -1.5362  -1.4875  -1.4731  -1.3671  -1.3380  -1.2104
    -1.1913  -1.1752  -1.1677  -1.0174  -1.0138  -1.0119  -1.0084  -0.9845
    -0.9812  -0.8653  -0.8517  -0.7656  -0.7585  -0.7416  -0.7381  -0.6999
    -0.6825  -0.5321  -0.5317  -0.5087  -0.5029  -0.3615  -0.3604  -0.3014
    -0.2947  -0.0530  -0.0448   0.0678   0.0680   0.2969   0.3313   0.3524
     0.3635   0.5062   0.5147   0.5284   0.5373   0.6625   0.6671   0.6840
     0.6899   0.7771   0.7771   1.2188   1.4032   1.4038   1.4555   1.4557
     3.5738   3.5784   3.5829   3.5872   3.6277   3.6292   3.6747   3.6764
     3.9320   3.9544

     the Fermi energy is     2.4059 ev

!    total energy              =   -2970.35081044 Ry
     estimated scf accuracy    <       0.00000006 Ry
     smearing contrib. (-TS)   =      -0.00009816 Ry
     internal energy E=F+TS    =   -2970.35071228 Ry

     The total energy is F=E-TS. E is the sum of the following terms:
     one-electron contribution =  -24066.83418259 Ry
     hartree contribution      =   12123.72752660 Ry
     xc contribution           =    -491.47863924 Ry
     ewald contribution        =    9464.23403997 Ry
     electric field correction =       0.00054298 Ry

     convergence has been achieved in  55 iterations

     Forces acting on atoms (cartesian axes, Ry/au):

     atom    1 type  1   force =     0.00011254   -0.00012763    0.14849911
     atom    2 type  1   force =    -0.00010614   -0.00049635   -0.16834259
     atom    3 type  2   force =     0.00014371    0.00223698   -0.05993339
     atom    4 type  2   force =     0.00015407   -0.00146567    0.03993460
     atom    5 type  2   force =    -0.02121156   -0.00097252    0.00398268
     atom    6 type  2   force =     0.02100712    0.00033159    0.00311734
     atom    7 type  1   force =    -0.00011731   -0.00019550   -0.00001144
     atom    8 type  1   force =    -0.00020870    0.00001564    0.00002898
     atom    9 type  2   force =    -0.00023842   -0.00005603    0.00012997
     atom   10 type  2   force =     0.00001714   -0.00000052    0.00003749
     atom   11 type  2   force =    -0.00001521   -0.00006030   -0.00013655
     atom   12 type  2   force =    -0.00008552   -0.00012926   -0.00007634
     atom   13 type  1   force =    -0.00008012   -0.00001371   -0.00010737
     atom   14 type  1   force =     0.00005656   -0.00002598    0.00002683
     atom   15 type  2   force =     0.00010394    0.00000866    0.00000396
     atom   16 type  2   force =     0.00007691   -0.00004141    0.00010968
     atom   17 type  2   force =     0.00006609   -0.00012777    0.00021335
     atom   18 type  2   force =     0.00018129   -0.00006241   -0.00007427
     atom   19 type  1   force =     0.00021627    0.00008781    0.00002349
     atom   20 type  1   force =    -0.00016620    0.00000485   -0.00021927
     atom   21 type  2   force =     0.00003967   -0.00004444    0.10204819
     atom   22 type  2   force =     0.00006612   -0.00004049    0.00004582
     atom   23 type  2   force =    -0.07528452    0.00015882   -0.03468633
     atom   24 type  2   force =     0.07521885    0.00058469   -0.03476270
     atom   25 type  1   force =     0.00010284   -0.00014113    0.14841115
     atom   26 type  1   force =    -0.00013829   -0.00085935   -0.16858509
     atom   27 type  2   force =     0.00012711    0.00218511   -0.05988782
     atom   28 type  2   force =     0.00008756   -0.00146316    0.04021807
     atom   29 type  2   force =    -0.02100807   -0.00108025    0.00396211
     atom   30 type  2   force =     0.02120199    0.00040884    0.00311587
     atom   31 type  1   force =    -0.00020133   -0.00010384   -0.00001004
     atom   32 type  1   force =    -0.00009896   -0.00007174   -0.00008655
     atom   33 type  2   force =     0.00013044    0.00008259    0.00004691
     atom   34 type  2   force =    -0.00008562    0.00002906   -0.00004024
     atom   35 type  2   force =    -0.00005040    0.00002674    0.00002673
     atom   36 type  2   force =    -0.00012949    0.00022420   -0.00015356
     atom   37 type  1   force =    -0.00006280   -0.00014863   -0.00007855
     atom   38 type  1   force =     0.00003888    0.00004756    0.00018920
     atom   39 type  2   force =    -0.00008112   -0.00000210   -0.00014166
     atom   40 type  2   force =     0.00011549    0.00002118    0.00005299
     atom   41 type  2   force =     0.00025807   -0.00011145    0.00008729
     atom   42 type  2   force =     0.00019697   -0.00005446    0.00023820
     atom   43 type  1   force =    -0.00009997    0.00032939    0.00023854
     atom   44 type  1   force =    -0.00007557    0.00000144   -0.00003636
     atom   45 type  2   force =     0.00003432   -0.00004839    0.10202808
     atom   46 type  2   force =     0.00004794    0.00002664   -0.00009905
     atom   47 type  2   force =    -0.07528631    0.00019657   -0.03468469
     atom   48 type  2   force =     0.07522511    0.00062845   -0.03475937
     atom   49 type  3   force =     0.00015824   -0.00018309   -0.00119977
     atom   50 type  3   force =     0.00004525    0.00030511    0.00107304
     atom   51 type  4   force =    -0.01087415    0.00415509    0.00087301
     atom   52 type  5   force =     0.01033865   -0.00476088   -0.00133840
     atom   53 type  5   force =     0.00013662    0.00079147    0.00068871

     Total force =     0.402060     Total SCF correction =     0.000711
  @ DRIVER MODE: Message from server: STATUS
  @ DRIVER MODE: Message from server: GETFORCE
  @ DRIVER MODE: Returning v,forces,stress,ensemble

     Writing output data file ./calc.save/
  @ DRIVER MODE: Message from server: EXIT
  @ DRIVE MODE: Exiting

     General routines

     Parallel routines

   This run was terminated on:  18:14:17   5Oct2021

   JOB DONE.