     Program PWSCF v.6.7GPU starts on  9Sep2021 at  7: 2:24

     R & G space division:  proc/nbgrp/npool/nimage =      10
     Reading input from /storage/home/hcoda1/3/ntian30/research/carbon/CxH_vib/CH2_calc/ads_slab/CH2N2_b/out_0026/pw.inp
Warning: card &CELL ignored
Warning: card   CELL_DYNAMICS='IPI', ignored
Warning: card / ignored

     Current dimensions of program PWSCF are:
     Max number of different atomic species (ntypx) = 10
     Max number of k-points (npk) =  40000
     Max angular momentum in pseudopotentials (lmaxx) =  3
     Presently no symmetry can be used with electric field

     Message from routine cell_base_init:
     DEPRECATED: use true lattice parameter, not A to a.u. conversion factor

     IMPORTANT: XC functional enforced from input :
     Exchange-correlation= BEEF-VDW
                           (   1   4  43  14   2   0   0)
     Any further DFT definition will be discarded
     Please, verify this is what you really want

  @ DRIVER MODE: Connecting to
 qe_1139763_2767386.sched-torque.pace.gatech.eduva939ket_scratch
  using UNIX socket
  @ DRIVER MODE: Message from server: STATUS
  @ DRIVER MODE: Message from server: INIT
  @ DRIVER MODE: Receiving replica           0          -1
  @ DRIVER MODE: Receiving encoded integer          25
  @ DRIVER MODE:  SCF:  T  FORCE:  T  STRESS:  F  VC:  F  ENSEMBLE:  F
  @ DRIVER MODE:  SCF:  T  FORCE:  T  STRESS:  F  VC:  F  ENSEMBLE:  F

     Using Slab Decomposition

     bravais-lattice index     =            0
     lattice parameter (alat)  =       1.8897  a.u.
     unit-cell volume          =    6658.9804 (a.u.)^3
     number of atoms/cell      =           52
     number of atomic types    =            5
     number of electrons       =       394.00
     number of Kohn-Sham states=          207
     kinetic-energy cutoff     =      29.3995  Ry
     charge density cutoff     =     293.9946  Ry
     scf convergence threshold =      7.3E-08
     mixing beta               =       0.0500
     number of iterations used =            8  plain     mixing
     Exchange-correlation= BEEF-VDW
                           (   1   4  43  14   2   0   0)

     celldm(1)=   1.889726  celldm(2)=   0.000000  celldm(3)=   0.000000
     celldm(4)=   0.000000  celldm(5)=   0.000000  celldm(6)=   0.000000

     crystal axes: (cart. coord. in units of alat)
               a(1) = (   6.579727   0.000000   0.000000 )
               a(2) = (  -0.000775   5.961596   0.000000 )
               a(3) = (   0.000000   0.000000  25.155947 )

     reciprocal axes: (cart. coord. in units 2 pi/alat)
               b(1) = (  0.151982  0.000020  0.000000 )
               b(2) = (  0.000000  0.167740  0.000000 )
               b(3) = (  0.000000  0.000000  0.039752 )

     PseudoPot. # 1 for Ti read from file:
     /storage/coda1/p-amedford6/0/shared/rich_project_chbe-medford/medford-share/data/pseudos_module/espresso/nninc/pbe/van/Ti.UPF
     MD5 check sum: 8e4df49b7f0d34bbd5052bf3f5ea0213
     Pseudo is Ultrasoft, Zval = 12.0
     Generated by new atomic code, or converted to UPF format
     Using radial grid of  851 points,  6 beta functions with:
                l(1) =   0
                l(2) =   0
                l(3) =   1
                l(4) =   1
                l(5) =   2
                l(6) =   2
     Q(r) pseudized with  8 coefficients,  rinner =    1.000   1.000   1.000
                                                       1.000   1.000

     PseudoPot. # 2 for O  read from file:
     /storage/coda1/p-amedford6/0/shared/rich_project_chbe-medford/medford-share/data/pseudos_module/espresso/nninc/pbe/van/O.UPF
     MD5 check sum: 78c19812648e8988a0fe644b0f25305e
     Pseudo is Ultrasoft, Zval =  6.0
     Generated by new atomic code, or converted to UPF format
     Using radial grid of  737 points,  4 beta functions with:
                l(1) =   0
                l(2) =   0
                l(3) =   1
                l(4) =   1
     Q(r) pseudized with  8 coefficients,  rinner =    0.800   0.800   0.800

     PseudoPot. # 3 for N  read from file:
     /storage/coda1/p-amedford6/0/shared/rich_project_chbe-medford/medford-share/data/pseudos_module/espresso/nninc/pbe/van/N.UPF
     MD5 check sum: 90d10febe142ad51ac9d5be1deb811c4
     Pseudo is Ultrasoft, Zval =  5.0
     Generated by new atomic code, or converted to UPF format
     Using radial grid of  729 points,  4 beta functions with:
                l(1) =   0
                l(2) =   0
                l(3) =   1
                l(4) =   1
     Q(r) pseudized with  8 coefficients,  rinner =    0.800   0.800   0.800

     PseudoPot. # 4 for C  read from file:
     /storage/coda1/p-amedford6/0/shared/rich_project_chbe-medford/medford-share/data/pseudos_module/espresso/nninc/pbe/van/C.UPF
     MD5 check sum: 1a69bf6b8db32088f5b2163dbdb77a27
     Pseudo is Ultrasoft, Zval =  4.0
     Generated by new atomic code, or converted to UPF format
     Using radial grid of  721 points,  4 beta functions with:
                l(1) =   0
                l(2) =   0
                l(3) =   1
                l(4) =   1
     Q(r) pseudized with  8 coefficients,  rinner =    0.800   0.800   0.800

     PseudoPot. # 5 for H  read from file:
     /storage/coda1/p-amedford6/0/shared/rich_project_chbe-medford/medford-share/data/pseudos_module/espresso/nninc/pbe/van/H.UPF
     MD5 check sum: b5ee9d7bfd3a09ee7748110bda690ff7
     Pseudo is Ultrasoft, Zval =  1.0
     Generated by new atomic code, or converted to UPF format
     Using radial grid of  615 points,  1 beta functions with:
                l(1) =   0
     Q(r) pseudized with  8 coefficients,  rinner =    0.800

     atomic species   valence    mass     pseudopotential
        Ti1           12.00    47.86700     Ti( 1.00)
        O1             6.00    15.99900     O ( 1.00)
        N1             5.00    14.00700     N ( 1.00)
        C1             4.00    12.01100     C ( 1.00)
        H1             1.00     1.00800     H ( 1.00)

     No symmetry found

   Cartesian axes

     site n.     atom                  positions (alat units)
         1           Ti1 tau(   1) = (   0.0004258   2.9801865   6.0000000  )
         2           Ti1 tau(   2) = (   3.2906075   1.4906267   6.0002472  )
         3           O1  tau(   3) = (   0.0006271   0.0005054   7.9858123  )
         4           O1  tau(   4) = (   3.2906025   0.0005020   7.3038282  )
         5           O1  tau(   5) = (   4.5942328   1.4918067   9.2879030  )
         6           O1  tau(   6) = (   1.9868534   1.4903216   9.2879459  )
         7           Ti1 tau(   7) = (   3.2907910   2.8959150   9.1758416  )
         8           Ti1 tau(   8) = (   0.0015273   1.4827037   9.2680791  )
         9           O1  tau(   9) = (   3.2944872   5.9444814  11.3088555  )
        10           O1  tau(  10) = (   0.0116148   5.9584955  10.6183126  )
        11           O1  tau(  11) = (   1.2913257   1.4757505  12.6225222  )
        12           O1  tau(  12) = (   5.2743172   1.4729811  12.6021195  )
        13           Ti1 tau(  13) = (   0.0890023   2.9564894  12.7220187  )
        14           Ti1 tau(  14) = (   3.4221593   1.4702301  12.4648352  )
        15           O1  tau(  15) = (   0.0068176   5.9411714  14.5947238  )
        16           O1  tau(  16) = (   3.2944910   5.9492763  13.8828731  )
        17           O1  tau(  17) = (   4.5250581   1.4982466  16.0456249  )
        18           O1  tau(  18) = (   2.0665045   1.4881935  16.0281199  )
        19           Ti1 tau(  19) = (   3.2778778   2.9684174  15.6871799  )
        20           Ti1 tau(  20) = (   6.5490154   1.5309925  16.0314916  )
        21           O1  tau(  21) = (   3.2904802   0.0005063   4.7018136  )
        22           O1  tau(  22) = (   0.0123181   0.0076990  17.1679072  )
        23           O1  tau(  23) = (   1.3043587   1.4918075   6.0039043  )
        24           O1  tau(  24) = (   5.2767064   1.4903225   6.0039473  )
        25           Ti1 tau(  25) = (   0.0000382   5.9609847   6.0000000  )
        26           Ti1 tau(  26) = (   3.2902200   4.4714249   6.0002472  )
        27           O1  tau(  27) = (   0.0002396   2.9813036   7.9858123  )
        28           O1  tau(  28) = (   3.2902150   2.9813002   7.3038282  )
        29           O1  tau(  29) = (   4.5938453   4.4726049   9.2879030  )
        30           O1  tau(  30) = (   1.9864658   4.4711199   9.2879459  )
        31           Ti1 tau(  31) = (   3.2891106   5.8743827   9.1763621  )
        32           Ti1 tau(  32) = (   0.0006254   4.4649316   9.2693709  )
        33           O1  tau(  33) = (   3.2980042   2.9668427  11.3079272  )
        34           O1  tau(  34) = (   0.0092240   2.9805883  10.6323155  )
        35           O1  tau(  35) = (   1.2899229   4.4488879  12.6271902  )
        36           O1  tau(  36) = (   5.2743549   4.4545148  12.6090941  )
        37           Ti1 tau(  37) = (   0.1039690   5.9375691  12.6739196  )
        38           Ti1 tau(  38) = (   3.4213609   4.4493060  12.4702176  )
        39           O1  tau(  39) = (   6.5648181   2.9459624  14.6378081  )
        40           O1  tau(  40) = (   3.2943236   2.9658899  13.8785053  )
        41           O1  tau(  41) = (   4.5287159   4.4634493  16.0515226  )
        42           O1  tau(  42) = (   2.0597896   4.4749507  16.0164256  )
        43           Ti1 tau(  43) = (   3.2714021   5.9517381  15.6902239  )
        44           Ti1 tau(  44) = (   6.5616293   4.5902425  16.0297769  )
        45           O1  tau(  45) = (   3.2900926   2.9813045   4.7018136  )
        46           O1  tau(  46) = (   1.3039711   4.4726057   6.0039043  )
        47           O1  tau(  47) = (   5.2763189   4.4711207   6.0039473  )
        48           N1  tau(  48) = (   0.6459789   3.0609845  18.5091170  )
        49           N1  tau(  49) = (   0.0956274   2.9759187  17.3381616  )
        50           C1  tau(  50) = (   0.0579326   3.2697647  19.6266723  )
        51           H1  tau(  51) = (   5.5568954   3.3836083  19.7010695  )
        52           H1  tau(  52) = (   0.6827643   3.3288843  20.5134281  )

     number of k points=    10  Fermi-Dirac smearing, width (Ry)=  0.0073
                       cart. coord. in units 2pi/alat
        k(    1) = (   0.0000000   0.0000000   0.0000000), wk =   0.1250000
        k(    2) = (   0.0000000   0.0419351   0.0000000), wk =   0.2500000
        k(    3) = (   0.0000000  -0.0838702   0.0000000), wk =   0.1250000
        k(    4) = (   0.0379955   0.0000049   0.0000000), wk =   0.2500000
        k(    5) = (   0.0379955   0.0419400   0.0000000), wk =   0.2500000
        k(    6) = (   0.0379955  -0.0838652   0.0000000), wk =   0.2500000
        k(    7) = (   0.0379955  -0.0419301   0.0000000), wk =   0.2500000
        k(    8) = (  -0.0759910  -0.0000099   0.0000000), wk =   0.1250000
        k(    9) = (  -0.0759910   0.0419252   0.0000000), wk =   0.2500000
        k(   10) = (  -0.0759910  -0.0838800   0.0000000), wk =   0.1250000

     Initial potential from superposition of free atoms

     starting charge  377.99917, renormalised to  394.00000

     negative rho (up, down):  1.508E-02 0.000E+00

     %%%%%%%%%%%%%%%%%%%%%%%%%%%%%%%%%%%%%%%%%%%%%%%%%%%%%%%%%%%%%%%%%%%%%%%%
     %                                                                      %
     % You are using vdW-DF, which was implemented by the Thonhauser group. %
     % Please cite the following two papers that made this development      %
     % possible and the two reviews that describe the various versions:     %
     %                                                                      %
     %   T. Thonhauser et al., PRL 115, 136402 (2015).                      %
     %   T. Thonhauser et al., PRB 76, 125112 (2007).                       %
     %   K. Berland et al., Rep. Prog. Phys. 78, 066501 (2015).             %
     %   D.C. Langreth et al., J. Phys.: Condens. Matter 21, 084203 (2009). %
     %                                                                      %
     %                                                                      %
     % If you are calculating the stress with vdW-DF, please also cite:     %
     %                                                                      %
     %   R. Sabatini et al., J. Phys.: Condens. Matter 24, 424209 (2012).   %
     %                                                                      %
     %%%%%%%%%%%%%%%%%%%%%%%%%%%%%%%%%%%%%%%%%%%%%%%%%%%%%%%%%%%%%%%%%%%%%%%%

     Adding external electric field

     Computed dipole along edir(3) :
        Dipole               -7.6437 Ry au,        -19.4284 Debye
        Dipole field         -0.0144 Ry au,

        Potential amp.        1.3372 Ry
        Total length         46.3494 bohr

     Starting wfcs are  298 atomic wfcs
  @ DRIVER MODE: Message from server: STATUS
  @ DRIVER MODE: Message from server: POSDATA
  @ DRIVER MODE: Reading and sharing cell
  @ DRIVER MODE: Reading and sharing positions
  @ DRIVER MODE: Received positions

     Self-consistent Calculation

     iteration #  1     ecut=    29.40 Ry     beta= 0.05
     Davidson diagonalization with overlap
     c_bands:  1 eigenvalues not converged
     c_bands:  1 eigenvalues not converged
     c_bands:  1 eigenvalues not converged
     c_bands:  1 eigenvalues not converged
     c_bands:  1 eigenvalues not converged
     c_bands:  1 eigenvalues not converged
     ethr =  1.00E-05,  avg # of iterations = 18.6

[...]

     total energy              =   -2699.58866608 Ry
     estimated scf accuracy    <    2638.61939082 Ry

[...]

     iteration #  3     ecut=    29.40 Ry     beta= 0.05
     Davidson diagonalization with overlap
     ethr =  1.00E-02,  avg # of iterations = 16.1

[...]

     iteration # 45     ecut=    29.40 Ry     beta= 0.05
     Davidson diagonalization with overlap
     c_bands:  1 eigenvalues not converged
     c_bands:  2 eigenvalues not converged
     ethr =  1.46E-06,  avg # of iterations =  9.2

[...]

     total energy              =   -2937.89148307 Ry
     estimated scf accuracy    <       0.00000008 Ry

     iteration # 68     ecut=    29.40 Ry     beta= 0.05
     Davidson diagonalization with overlap
     ethr =  2.09E-11,  avg # of iterations =  6.8

     negative rho (up, down):  1.606E-02 0.000E+00

     Adding external electric field

     Computed dipole along edir(3) :
        Dipole                0.5198 Ry au,          1.3211 Debye
        Dipole field          0.0010 Ry au,

        Potential amp.       -0.0909 Ry
        Total length         46.3494 bohr

     End of self-consistent calculation

          k = 0.0000 0.0000 0.0000 ( 18029 PWs)   bands (ev):

   -56.3152 -56.2813 -55.8955 -55.8929 -55.8596 -55.8589 -55.8300 -55.7963
   -55.6780 -55.6690 -55.6384 -55.6324 -55.1636 -55.1362 -55.1297 -55.0591
   -32.7713 -32.6072 -32.5799 -32.4741 -32.4368 -32.3947 -32.3808 -32.3578
   -32.3164 -32.1935 -32.1802 -32.1502 -32.1412 -32.1182 -32.1080 -32.0775
   -32.0621 -32.0613 -32.0582 -32.0312 -32.0270 -32.0232 -32.0215 -32.0086
   -31.9960 -31.9928 -31.9820 -31.9403 -31.9123 -31.9079 -31.8437 -31.8298
   -31.8145 -31.8023 -31.7877 -31.7422 -31.6620 -31.5654 -31.4905 -31.4672
   -31.3893 -31.3826 -31.3469 -31.3133 -31.2970 -31.2614 -31.1862 -31.1859
   -17.7316 -16.6875 -16.5310 -16.2526 -16.0268 -15.9996 -15.8628 -15.8296
   -15.8055 -15.7777 -15.6572 -15.6172 -15.5795 -15.4627 -15.4197 -15.4076
   -15.3899 -15.3707 -15.3648 -15.2760 -15.2525 -15.2355 -15.1840 -15.0894
   -15.0580 -15.0167 -14.8752 -14.8583 -14.7617 -14.5008 -13.6643 -13.5503
   -11.9274  -6.6160  -4.6235  -4.1556  -4.0691  -4.0184  -3.8659  -3.7827
    -3.5958  -3.5619  -3.4681  -3.2405  -3.1550  -3.1461  -3.0704  -3.0456
    -3.0352  -2.9433  -2.8762  -2.8450  -2.8224  -2.8006  -2.7430  -2.6651
    -2.6191  -2.5861  -2.5673  -2.5342  -2.4285  -2.3727  -2.3571  -2.3333
    -2.2744  -2.2594  -2.2355  -2.2311  -2.1949  -2.1826  -2.1027  -2.0690
    -1.9458  -1.8724  -1.7487  -1.7417  -1.6696  -1.6510  -1.6264  -1.4276
    -1.4029  -1.3280  -1.2932  -1.2373  -1.2108  -1.1571  -1.0954  -1.0616
    -0.9644  -0.9370  -0.9065  -0.8717  -0.8496  -0.8196  -0.8000  -0.7405
    -0.6927  -0.5173  -0.4756  -0.4415  -0.3465  -0.3318  -0.3017  -0.2634
    -0.2490  -0.1967  -0.1909  -0.1772  -0.1189  -0.1047  -0.0197   0.0473
     0.0534   0.1029   0.1772   0.2395   0.2758   0.3936   0.4424   0.5099
     0.6052   0.6134   0.6743   0.8243   0.8385   0.8584   0.8625   1.0706
     1.3185   1.4203   1.4622   1.5664   2.7685   2.9054   3.0145   3.2104
     3.3269   3.3460   3.5226   3.6630   3.7002   3.7556   3.7641

[...]

          k = 0.0380-0.0419 0.0000 ( 17876 PWs)   bands (ev):

[...]

          k =-0.0760-0.0000 0.0000 ( 17886 PWs)   bands (ev):

[...]

          k =-0.0760-0.0839 0.0000 ( 17948 PWs)   bands (ev):

   -56.2983 -56.2980 -55.8798 -55.8783 -55.8751 -55.8732 -55.8141 -55.8123
   -55.6674 -55.6566 -55.6488 -55.6448 -55.1466 -55.1465 -55.1321 -55.0631
   -32.5930 -32.5925 -32.5870 -32.5868 -32.4256 -32.4253 -32.2437 -32.2399
   -32.1833 -32.1777 -32.1548 -32.1527 -32.1363 -32.1333 -32.0933 -32.0894
   -32.0678 -32.0620 -32.0556 -32.0532 -32.0421 -32.0406 -32.0272 -32.0261
   -32.0154 -32.0022 -31.9816 -31.9728 -31.9469 -31.9361 -31.8871 -31.8807
   -31.8733 -31.8480 -31.8160 -31.8124 -31.5511 -31.4801 -31.4800 -31.4059
   -31.3790 -31.3789 -31.3583 -31.3420 -31.3400 -31.3398 -31.2687 -31.2437
   -17.7256 -16.0473 -16.0450 -16.0409 -16.0345 -15.9166 -15.9145 -15.7576
   -15.7555 -15.7297 -15.7243 -15.5788 -15.5554 -15.5142 -15.5134 -15.4733
   -15.4634 -15.3945 -15.3917 -15.3829 -15.3770 -15.3619 -15.3574 -15.3127
   -15.2714 -15.0332 -14.9603 -14.9006 -14.7857 -14.6911 -13.6529 -13.6528
   -11.9316  -6.6102  -4.5641  -4.0629  -3.3375  -3.3329  -3.1695  -3.1518
    -3.0976  -3.0964  -3.0151  -2.9724  -2.9712  -2.8559  -2.8338  -2.7927
    -2.7892  -2.7752  -2.7726  -2.7388  -2.7329  -2.7110  -2.7045  -2.6488
    -2.6340  -2.6271  -2.6221  -2.5488  -2.5051  -2.4770  -2.4440  -2.4104
    -2.3810  -2.2903  -2.2867  -2.2494  -2.2279  -2.1689  -2.1652  -2.1113
    -2.0760  -2.0087  -1.9992  -1.7873  -1.7414  -1.7321  -1.6812  -1.5951
    -1.5728  -1.4278  -1.3965  -1.3346  -1.3216  -1.2721  -1.2540  -1.2453
    -1.1583  -1.1506  -1.1419  -1.0654  -1.0576  -0.9963  -0.9600  -0.9276
    -0.8432  -0.8290  -0.7900  -0.7873  -0.7774  -0.7098  -0.6631  -0.5912
    -0.5431  -0.5296  -0.4107  -0.3616  -0.2954  -0.2319  -0.1892  -0.0851
    -0.0430  -0.0333   0.1762   0.1869   0.2319   0.3225   0.4432   0.4443
     0.4827   0.5743   0.5961   0.6217   0.6385   0.8358   0.9091   1.2380
     1.2391   1.2789   1.2794   1.5302   2.7275   3.4300   3.4308   3.4560
     3.4564   3.5931   3.6168   3.6531   3.6623   3.7453   3.7491

     the Fermi energy is     2.8549 ev

!    total energy              =   -2937.89150139 Ry
     estimated scf accuracy    <       0.00000006 Ry
     smearing contrib. (-TS)   =      -0.01395530 Ry
     internal energy E=F+TS    =   -2937.87754609 Ry

     The total energy is F=E-TS. E is the sum of the following terms:
     one-electron contribution =  -24293.94661680 Ry
     hartree contribution      =   12233.31740574 Ry
     xc contribution           =    -484.30980444 Ry
     ewald contribution        =    9607.06095957 Ry
     electric field correction =       0.00050983 Ry

     convergence has been achieved in  68 iterations

     Forces acting on atoms (cartesian axes, Ry/au):

     atom    1 type  1   force =     0.00010929   -0.00020904    0.10742922
     atom    2 type  1   force =    -0.00012225   -0.00062817   -0.16929789
     atom    3 type  2   force =    -0.00015975    0.00000592   -0.04193785
     atom    4 type  2   force =     0.00005667   -0.00092952    0.04202946
     atom    5 type  2   force =    -0.01491260    0.00022065   -0.00301551
     atom    6 type  2   force =     0.01654745    0.00103612   -0.00399149
     atom    7 type  1   force =    -0.00113259   -0.00212559    0.00241836
     atom    8 type  1   force =     0.00131576    0.00452792    0.07558378
     atom    9 type  2   force =     0.00004311    0.00010969    0.00042527
     atom   10 type  2   force =    -0.00132444    0.00009925   -0.04722441
     atom   11 type  2   force =    -0.00047070    0.00031948    0.00024488
     atom   12 type  2   force =    -0.00007794    0.00050208    0.00015454
     atom   13 type  1   force =     0.00044602   -0.00041786    0.00073054
     atom   14 type  1   force =    -0.00013703   -0.00012024   -0.00006581
     atom   15 type  2   force =    -0.00022913   -0.00020316    0.00018678
     atom   16 type  2   force =     0.00019899    0.00024376   -0.00014619
     atom   17 type  2   force =     0.00012433    0.00049792    0.00030388
     atom   18 type  2   force =    -0.00040220   -0.00005313   -0.00030223
     atom   19 type  1   force =     0.00017278    0.00076251   -0.00026462
     atom   20 type  1   force =     0.00019054    0.00012577    0.00011355
     atom   21 type  2   force =     0.00006973    0.00003735    0.10164926
     atom   22 type  2   force =    -0.00042627    0.00042278    0.00008003
     atom   23 type  2   force =    -0.07421501   -0.00003345   -0.02982946
     atom   24 type  2   force =     0.07417328    0.00042063   -0.02983290
     atom   25 type  1   force =     0.00025481   -0.00035018    0.10691658
     atom   26 type  1   force =    -0.00002905   -0.00037559   -0.16938409
     atom   27 type  2   force =    -0.00004043   -0.00029371   -0.04088068
     atom   28 type  2   force =     0.00011168   -0.00074234    0.04200097
     atom   29 type  2   force =    -0.01521624    0.00063801   -0.00330348
     atom   30 type  2   force =     0.01678006    0.00101180   -0.00427458
     atom   31 type  1   force =    -0.00133215    0.00038630    0.00217523
     atom   32 type  1   force =     0.00130770   -0.00711755    0.07620786
     atom   33 type  2   force =    -0.00004776    0.00016822    0.00015103
     atom   34 type  2   force =    -0.00146464   -0.00008025   -0.05553196
     atom   35 type  2   force =     0.00000819    0.00005993    0.00012658
     atom   36 type  2   force =    -0.00003466    0.00021940   -0.00013678
     atom   37 type  1   force =     0.00022049    0.00028484    0.00042647
     atom   38 type  1   force =     0.00012092    0.00022782   -0.00031368
     atom   39 type  2   force =    -0.00022639   -0.00004289   -0.00063865
     atom   40 type  2   force =     0.00008075    0.00026580    0.00017884
     atom   41 type  2   force =    -0.00042342    0.00023828   -0.00042312
     atom   42 type  2   force =     0.00018527    0.00021494    0.00023270
     atom   43 type  1   force =    -0.00014069    0.00062072    0.00022420
     atom   44 type  1   force =    -0.00021004    0.00015480   -0.00007322
     atom   45 type  2   force =     0.00006186   -0.00000066    0.10166049
     atom   46 type  2   force =    -0.07420584    0.00001190   -0.02979871
     atom   47 type  2   force =     0.07416237    0.00044409   -0.02981897
     atom   48 type  3   force =     0.00002694    0.00087110   -0.00070513
     atom   49 type  3   force =     0.00008001   -0.00031155   -0.00118561
     atom   50 type  4   force =     0.00623697   -0.00106711    0.00592016
     atom   51 type  5   force =     0.00054495    0.00033731    0.00020949
     atom   52 type  5   force =    -0.00664971   -0.00038512   -0.00540313

     Total force =     0.389466     Total SCF correction =     0.000735
  @ DRIVER MODE: Message from server: STATUS
  @ DRIVER MODE: Message from server: GETFORCE
  @ DRIVER MODE: Returning v,forces,stress,ensemble

     Writing output data file ./calc.save/
  @ DRIVER MODE: Message from server: EXIT
  @ DRIVE MODE: Exiting

     General routines

     Parallel routines

   This run was terminated on:   7:21:46   9Sep2021

   JOB DONE.