     Program PWSCF v.6.7GPU starts on 25Sep2021 at 16:43:51

     R & G space division:  proc/nbgrp/npool/nimage =       8
     Reading input from /storage/home/hcoda1/3/ntian30/research/carbon/CxH_vib/H2O_calc/ads_slab/CH3ON2H2O_a/out_0005/pw.inp
Warning: card &CELL ignored
Warning: card   CELL_DYNAMICS='IPI', ignored
Warning: card / ignored

     Current dimensions of program PWSCF are:
     Max number of different atomic species (ntypx) = 10
     Max number of k-points (npk) =  40000
     Max angular momentum in pseudopotentials (lmaxx) =  3
     Presently no symmetry can be used with electric field

     Message from routine cell_base_init:
     DEPRECATED: use true lattice parameter, not A to a.u. conversion factor

     IMPORTANT: XC functional enforced from input :
     Exchange-correlation= BEEF-VDW
                           (   1   4  43  14   2   0   0)
     Any further DFT definition will be discarded
     Please, verify this is what you really want

  @ DRIVER MODE: Connecting to
 qe_1139763_2971672.sched-torque.pace.gatech.eduvnfoaizn_scratch
  using UNIX socket
  @ DRIVER MODE: Message from server: STATUS
  @ DRIVER MODE: Message from server: INIT
  @ DRIVER MODE: Receiving replica           0          -1
  @ DRIVER MODE: Receiving encoded integer          25
  @ DRIVER MODE:  SCF:  T  FORCE:  T  STRESS:  F  VC:  F  ENSEMBLE:  F
  @ DRIVER MODE:  SCF:  T  FORCE:  T  STRESS:  F  VC:  F  ENSEMBLE:  F

     Using Slab Decomposition

     bravais-lattice index     =            0
     lattice parameter (alat)  =       1.8897  a.u.
     unit-cell volume          =    6658.9804 (a.u.)^3
     number of atoms/cell      =           57
     number of atomic types    =            5
     number of electrons       =       409.00
     number of Kohn-Sham states=          214
     kinetic-energy cutoff     =      29.3995  Ry
     charge density cutoff     =     293.9946  Ry
     scf convergence threshold =      7.3E-08
     mixing beta               =       0.0500
     number of iterations used =            8  plain     mixing
     Exchange-correlation= BEEF-VDW
                           (   1   4  43  14   2   0   0)

     celldm(1)=   1.889726  celldm(2)=   0.000000  celldm(3)=   0.000000
     celldm(4)=   0.000000  celldm(5)=   0.000000  celldm(6)=   0.000000

     crystal axes: (cart. coord. in units of alat)
               a(1) = (   6.579727   0.000000   0.000000 )
               a(2) = (  -0.000775   5.961596   0.000000 )
               a(3) = (   0.000000   0.000000  25.155947 )

     reciprocal axes: (cart. coord. in units 2 pi/alat)
               b(1) = (  0.151982  0.000020  0.000000 )
               b(2) = (  0.000000  0.167740  0.000000 )
               b(3) = (  0.000000  0.000000  0.039752 )

     PseudoPot. # 1 for Ti read from file:
     /storage/coda1/p-amedford6/0/shared/rich_project_chbe-medford/medford-share/data/pseudos_module/espresso/nninc/pbe/van/Ti.UPF
     MD5 check sum: 8e4df49b7f0d34bbd5052bf3f5ea0213
     Pseudo is Ultrasoft, Zval = 12.0
     Generated by new atomic code, or converted to UPF format
     Using radial grid of  851 points,  6 beta functions with:
                l(1) =   0
                l(2) =   0
                l(3) =   1
                l(4) =   1
                l(5) =   2
                l(6) =   2
     Q(r) pseudized with  8 coefficients,  rinner =    1.000   1.000   1.000
                                                       1.000   1.000

     PseudoPot. # 2 for O  read from file:
     /storage/coda1/p-amedford6/0/shared/rich_project_chbe-medford/medford-share/data/pseudos_module/espresso/nninc/pbe/van/O.UPF
     MD5 check sum: 78c19812648e8988a0fe644b0f25305e
     Pseudo is Ultrasoft, Zval =  6.0
     Generated by new atomic code, or converted to UPF format
     Using radial grid of  737 points,  4 beta functions with:
                l(1) =   0
                l(2) =   0
                l(3) =   1
                l(4) =   1
     Q(r) pseudized with  8 coefficients,  rinner =    0.800   0.800   0.800

     PseudoPot. # 3 for C  read from file:
     /storage/coda1/p-amedford6/0/shared/rich_project_chbe-medford/medford-share/data/pseudos_module/espresso/nninc/pbe/van/C.UPF
     MD5 check sum: 1a69bf6b8db32088f5b2163dbdb77a27
     Pseudo is Ultrasoft, Zval =  4.0
     Generated by new atomic code, or converted to UPF format
     Using radial grid of  721 points,  4 beta functions with:
                l(1) =   0
                l(2) =   0
                l(3) =   1
                l(4) =   1
     Q(r) pseudized with  8 coefficients,  rinner =    0.800   0.800   0.800

     PseudoPot. # 4 for H  read from file:
     /storage/coda1/p-amedford6/0/shared/rich_project_chbe-medford/medford-share/data/pseudos_module/espresso/nninc/pbe/van/H.UPF
     MD5 check sum: b5ee9d7bfd3a09ee7748110bda690ff7
     Pseudo is Ultrasoft, Zval =  1.0
     Generated by new atomic code, or converted to UPF format
     Using radial grid of  615 points,  1 beta functions with:
                l(1) =   0
     Q(r) pseudized with  8 coefficients,  rinner =    0.800

     PseudoPot. # 5 for N  read from file:
     /storage/coda1/p-amedford6/0/shared/rich_project_chbe-medford/medford-share/data/pseudos_module/espresso/nninc/pbe/van/N.UPF
     MD5 check sum: 90d10febe142ad51ac9d5be1deb811c4
     Pseudo is Ultrasoft, Zval =  5.0
     Generated by new atomic code, or converted to UPF format
     Using radial grid of  729 points,  4 beta functions with:
                l(1) =   0
                l(2) =   0
                l(3) =   1
                l(4) =   1
     Q(r) pseudized with  8 coefficients,  rinner =    0.800   0.800   0.800

     atomic species   valence    mass     pseudopotential
        Ti1           12.00    47.86700     Ti( 1.00)
        O1             6.00    15.99900     O ( 1.00)
        C1             4.00    12.01100     C ( 1.00)
        H1             1.00     1.00800     H ( 1.00)
        N1             5.00    14.00700     N ( 1.00)

     No symmetry found

   Cartesian axes

     site n.     atom                  positions (alat units)
         1           Ti1 tau(   1) = (   0.0004258   2.9801865   6.0000000  )
         2           Ti1 tau(   2) = (   3.2906075   1.4906267   6.0002472  )
         3           O1  tau(   3) = (   0.0006271   0.0005054   7.9858123  )
         4           O1  tau(   4) = (   3.2906025   0.0005020   7.3038282  )
         5           O1  tau(   5) = (   4.5942328   1.4918067   9.2879030  )
         6           O1  tau(   6) = (   1.9868534   1.4903216   9.2879459  )
         7           Ti1 tau(   7) = (   3.3113259   3.0354369   9.1618307  )
         8           Ti1 tau(   8) = (   0.0141821   1.6139659   9.3625064  )
         9           O1  tau(   9) = (   3.2964399   0.0287090  11.3517035  )
        10           O1  tau(  10) = (   0.0046459   0.0167322  10.6079620  )
        11           O1  tau(  11) = (   1.2916403   1.5142126  12.6509924  )
        12           O1  tau(  12) = (   5.2954765   1.5212855  12.6445515  )
        13           Ti1 tau(  13) = (   0.0303381   3.0181167  12.7741416  )
        14           Ti1 tau(  14) = (   3.3376880   1.5190318  12.5019279  )
        15           O1  tau(  15) = (   6.5702980   0.0162101  14.7136675  )
        16           O1  tau(  16) = (   3.3118210   0.0215951  13.9605728  )
        17           O1  tau(  17) = (   4.5586303   1.5408398  16.0643691  )
        18           O1  tau(  18) = (   2.0376984   1.5397913  16.0346728  )
        19           Ti1 tau(  19) = (   3.2806018   3.0126274  15.6982083  )
        20           Ti1 tau(  20) = (   0.0204579   1.3876160  16.0921805  )
        21           O1  tau(  21) = (   3.2904802   0.0005063   4.7018136  )
        22           O1  tau(  22) = (   0.0362274   0.0182013  17.2505027  )
        23           O1  tau(  23) = (   1.3043587   1.4918075   6.0039043  )
        24           O1  tau(  24) = (   5.2767064   1.4903225   6.0039473  )
        25           Ti1 tau(  25) = (   0.0000382   5.9609847   6.0000000  )
        26           Ti1 tau(  26) = (   3.2902200   4.4714249   6.0002472  )
        27           O1  tau(  27) = (   0.0002396   2.9813036   7.9858123  )
        28           O1  tau(  28) = (   3.2902150   2.9813002   7.3038282  )
        29           O1  tau(  29) = (   4.5938453   4.4726049   9.2879030  )
        30           O1  tau(  30) = (   1.9864658   4.4711199   9.2879459  )
        31           Ti1 tau(  31) = (   3.2918133   0.0584897   9.1554610  )
        32           Ti1 tau(  32) = (   0.0176696   4.5429683   9.2683582  )
        33           O1  tau(  33) = (   3.2944385   3.0046939  11.3531965  )
        34           O1  tau(  34) = (   0.0071923   2.9964285  10.5824339  )
        35           O1  tau(  35) = (   1.2923070   4.5060354  12.6395470  )
        36           O1  tau(  36) = (   5.2930342   4.4972821  12.6335129  )
        37           Ti1 tau(  37) = (   0.0360028   0.0369787  12.5252624  )
        38           Ti1 tau(  38) = (   3.3378333   4.5109478  12.5016189  )
        39           O1  tau(  39) = (   0.0182598   3.0415135  14.6926035  )
        40           O1  tau(  40) = (   3.2973286   3.0139918  13.9115332  )
        41           O1  tau(  41) = (   4.5518717   4.4752506  16.0920674  )
        42           O1  tau(  42) = (   2.0385343   4.4722040  16.0556704  )
        43           Ti1 tau(  43) = (   3.3273276   0.0437280  15.7880462  )
        44           Ti1 tau(  44) = (   0.0148993   4.5306414  15.9319406  )
        45           O1  tau(  45) = (   3.2900926   2.9813045   4.7018136  )
        46           O1  tau(  46) = (   1.3039711   4.4726057   6.0039043  )
        47           O1  tau(  47) = (   5.2763189   4.4711207   6.0039473  )
        48           C1  tau(  48) = (   6.0619278   3.0088867  18.6455636  )
        49           O1  tau(  49) = (   6.5788924   2.9994598  17.3400993  )
        50           H1  tau(  50) = (   4.9713474   2.8828304  18.6515055  )
        51           H1  tau(  51) = (   6.4909130   2.1836263  19.2313859  )
        52           H1  tau(  52) = (   6.3070107   3.9563896  19.1453893  )
        53           N1  tau(  53) = (   5.9950546   3.0301018  22.7159517  )
        54           N1  tau(  54) = (   5.2276613   3.1827328  21.9368001  )
        55           O1  tau(  55) = (   3.1818816   0.0591848  18.2205797  )
        56           H1  tau(  56) = (   3.8437189   5.3938241  18.5518935  )
        57           H1  tau(  57) = (   2.3086839   5.6188137  18.3735615  )

     number of k points=    10  Fermi-Dirac smearing, width (Ry)=  0.0073
                       cart. coord. in units 2pi/alat
        k(    1) = (   0.0000000   0.0000000   0.0000000), wk =   0.1250000
        k(    2) = (   0.0000000   0.0419351   0.0000000), wk =   0.2500000
        k(    3) = (   0.0000000  -0.0838702   0.0000000), wk =   0.1250000
        k(    4) = (   0.0379955   0.0000049   0.0000000), wk =   0.2500000
        k(    5) = (   0.0379955   0.0419400   0.0000000), wk =   0.2500000
        k(    6) = (   0.0379955  -0.0838652   0.0000000), wk =   0.2500000
        k(    7) = (   0.0379955  -0.0419301   0.0000000), wk =   0.2500000
        k(    8) = (  -0.0759910  -0.0000099   0.0000000), wk =   0.1250000
        k(    9) = (  -0.0759910   0.0419252   0.0000000), wk =   0.2500000
        k(   10) = (  -0.0759910  -0.0838800   0.0000000), wk =   0.1250000

     Initial potential from superposition of free atoms

     starting charge  392.99914, renormalised to  409.00000

     negative rho (up, down):  9.747E-03 0.000E+00

     %%%%%%%%%%%%%%%%%%%%%%%%%%%%%%%%%%%%%%%%%%%%%%%%%%%%%%%%%%%%%%%%%%%%%%%%
     %                                                                      %
     % You are using vdW-DF, which was implemented by the Thonhauser group. %
     % Please cite the following two papers that made this development      %
     % possible and the two reviews that describe the various versions:     %
     %                                                                      %
     %   T. Thonhauser et al., PRL 115, 136402 (2015).                      %
     %   T. Thonhauser et al., PRB 76, 125112 (2007).                       %
     %   K. Berland et al., Rep. Prog. Phys. 78, 066501 (2015).             %
     %   D.C. Langreth et al., J. Phys.: Condens. Matter 21, 084203 (2009). %
     %                                                                      %
     %                                                                      %
     % If you are calculating the stress with vdW-DF, please also cite:     %
     %                                                                      %
     %   R. Sabatini et al., J. Phys.: Condens. Matter 24, 424209 (2012).   %
     %                                                                      %
     %%%%%%%%%%%%%%%%%%%%%%%%%%%%%%%%%%%%%%%%%%%%%%%%%%%%%%%%%%%%%%%%%%%%%%%%

     Adding external electric field

     Computed dipole along edir(3) :
        Dipole              -18.5684 Ry au,        -47.1962 Debye
        Dipole field         -0.0350 Ry au,

        Potential amp.        3.2483 Ry
        Total length         46.3494 bohr

     Starting wfcs are  309 atomic wfcs
  @ DRIVER MODE: Message from server: STATUS
  @ DRIVER MODE: Message from server: POSDATA
  @ DRIVER MODE: Reading and sharing cell
  @ DRIVER MODE: Reading and sharing positions
  @ DRIVER MODE: Received positions

     Self-consistent Calculation

     iteration #  1     ecut=    29.40 Ry     beta= 0.05
     Davidson diagonalization with overlap
     c_bands:  3 eigenvalues not converged
     c_bands:  2 eigenvalues not converged
     c_bands:  2 eigenvalues not converged
     c_bands:  5 eigenvalues not converged
     c_bands:  3 eigenvalues not converged
     ethr =  1.00E-05,  avg # of iterations = 31.4

[...]

     total energy              =   -2113.09842594 Ry
     estimated scf accuracy    <   10297.41640630 Ry

     iteration #  2     ecut=    29.40 Ry     beta= 0.05
     Davidson diagonalization with overlap
     ethr =  1.00E-02,  avg # of iterations = 31.4

[...]

     iteration # 82     ecut=    29.40 Ry     beta= 0.05
     Davidson diagonalization with overlap
     c_bands:  1 eigenvalues not converged
     ethr =  1.13E-10,  avg # of iterations = 13.4

[...]

     total energy              =   -3006.52117825 Ry
     estimated scf accuracy    <       0.00000009 Ry

     iteration # 84     ecut=    29.40 Ry     beta= 0.05
     Davidson diagonalization with overlap
     ethr =  2.18E-11,  avg # of iterations =  2.5

     negative rho (up, down):  1.093E-02 0.000E+00

     Adding external electric field

     Computed dipole along edir(3) :
        Dipole                0.9850 Ry au,          2.5035 Debye
        Dipole field          0.0019 Ry au,

        Potential amp.       -0.1723 Ry
        Total length         46.3494 bohr

     End of self-consistent calculation

          k = 0.0000 0.0000 0.0000 ( 18029 PWs)   bands (ev):

   -55.2942 -55.2597 -55.2582 -55.2233 -55.2005 -55.1856 -55.1775 -55.1420
   -55.0911 -55.0730 -55.0577 -55.0497 -55.0158 -54.9619 -54.3009 -54.2669
   -31.8167 -31.7634 -31.6868 -31.6546 -31.6330 -31.5860 -31.5688 -31.5650
   -31.5290 -31.5239 -31.4872 -31.4732 -31.4668 -31.4581 -31.4539 -31.4410
   -31.4354 -31.3987 -31.3935 -31.3857 -31.3817 -31.3630 -31.3588 -31.3498
   -31.3422 -31.3359 -31.3202 -31.2986 -31.2883 -31.2828 -31.2795 -31.2725
   -31.2690 -31.2537 -31.2409 -31.2309 -31.2289 -31.1943 -31.1793 -31.1589
   -31.1466 -31.1452 -30.7100 -30.6146 -30.5922 -30.5268 -30.4408 -30.3295
   -21.4055 -18.7311 -17.2834 -16.0090 -15.7386 -15.5788 -15.4472 -15.4118
   -15.2247 -15.1032 -14.9705 -14.9465 -14.8926 -14.8651 -14.8308 -14.8205
   -14.8154 -14.8031 -14.7947 -14.7483 -14.7136 -14.6964 -14.6958 -14.6725
   -14.6239 -14.5703 -14.5050 -14.4401 -14.4117 -14.3694 -14.3003 -14.2927
   -12.8015 -12.6836  -9.0856  -6.5830  -6.5242  -4.5446  -4.5330  -3.9623
    -3.7554  -3.4737  -3.3721  -3.2695  -3.2204  -3.1986  -3.1770  -3.1008
    -2.9840  -2.8550  -2.7569  -2.5189  -2.4642  -2.4215  -2.3895  -2.3606
    -2.2041  -2.1778  -2.1106  -2.0993  -2.0906  -2.0799  -2.0528  -2.0238
    -1.9989  -1.9664  -1.9070  -1.8848  -1.8126  -1.6818  -1.6729  -1.6415
    -1.5950  -1.5784  -1.5768  -1.5502  -1.5064  -1.4870  -1.4621  -1.4570
    -1.3600  -1.2650  -1.2232  -1.1253  -1.0492  -0.9785  -0.8542  -0.8171
    -0.7442  -0.7108  -0.6949  -0.6411  -0.5910  -0.5775  -0.5228  -0.4755
    -0.3679  -0.3122  -0.2838  -0.2414  -0.1955  -0.1501  -0.0794  -0.0460
    -0.0148  -0.0100   0.0117   0.2093   0.2218   0.2724   0.2853   0.3816
     0.4340   0.4688   0.4823   0.4925   0.5292   0.6048   0.6602   0.6687
     0.7005   0.7365   0.7558   0.8033   0.8457   0.8954   0.9251   0.9597
     1.0259   1.0672   1.2202   1.3149   1.3590   1.4746   1.6320   1.7233
     1.7969   1.8974   2.3099   2.3672   3.8874   3.9215   3.9482   3.9664
     4.0344   4.1336   4.2501   4.3410   4.3505   4.3810

[...]

          k = 0.0380-0.0419 0.0000 ( 17876 PWs)   bands (ev):

[...]

          k =-0.0760-0.0000 0.0000 ( 17886 PWs)   bands (ev):

[...]

          k =-0.0760-0.0839 0.0000 ( 17948 PWs)   bands (ev):

   -55.2820 -55.2702 -55.2437 -55.2390 -55.1974 -55.1834 -55.1668 -55.1528
   -55.0938 -55.0700 -55.0599 -55.0350 -55.0306 -54.9645 -54.2844 -54.2833
   -31.6285 -31.6120 -31.5862 -31.5847 -31.5742 -31.5728 -31.5554 -31.5223
   -31.5152 -31.4986 -31.4953 -31.4850 -31.4496 -31.4392 -31.4192 -31.4148
   -31.4100 -31.4077 -31.4061 -31.4001 -31.3972 -31.3939 -31.3825 -31.3740
   -31.3676 -31.3592 -31.3583 -31.3567 -31.3513 -31.3259 -31.2998 -31.2870
   -31.2842 -31.2834 -31.2800 -31.2715 -31.2628 -31.2503 -31.2407 -31.2314
   -31.1898 -31.1561 -30.6055 -30.6042 -30.5235 -30.5225 -30.4843 -30.4833
   -21.4054 -18.7301 -17.2546 -15.4767 -15.3676 -15.2389 -15.1742 -15.1516
   -15.1246 -15.0719 -15.0558 -15.0000 -14.9958 -14.9452 -14.9390 -14.8959
   -14.8892 -14.8352 -14.8070 -14.7980 -14.7689 -14.7363 -14.7203 -14.7194
   -14.6794 -14.6578 -14.6493 -14.6188 -14.6115 -14.5495 -14.5108 -14.4792
   -12.7858 -12.7840  -9.0874  -6.5837  -6.5175  -4.5449  -4.5402  -3.8757
    -3.7122  -3.5000  -3.2562  -3.0029  -2.7622  -2.5785  -2.4879  -2.4193
    -2.3663  -2.3487  -2.2386  -2.2140  -2.1843  -2.1500  -2.1270  -2.1164
    -2.0988  -2.0898  -2.0826  -2.0655  -2.0312  -2.0109  -1.9857  -1.9604
    -1.9446  -1.9225  -1.9046  -1.8971  -1.8727  -1.8449  -1.8377  -1.8352
    -1.7720  -1.7319  -1.5742  -1.5288  -1.5068  -1.4181  -1.3986  -1.3820
    -1.3565  -1.3425  -1.3259  -1.2055  -1.1549  -1.1239  -1.0194  -1.0015
    -0.9755  -0.8356  -0.8118  -0.7796  -0.7524  -0.7106  -0.6394  -0.6170
    -0.5609  -0.5489  -0.4443  -0.4080  -0.3845  -0.3703  -0.2733  -0.2515
    -0.2480  -0.2198  -0.1601  -0.1208  -0.0800  -0.0526  -0.0223   0.0029
     0.0482   0.0684   0.1621   0.1823   0.2186   0.2619   0.3554   0.5240
     0.6153   0.7254   0.7514   0.7988   0.8588   0.9008   0.9521   1.0053
     1.0523   1.0588   1.1215   1.1586   1.2434   1.2573   1.2606   1.3290
     2.0846   2.0849   2.1726   2.1816   4.1285   4.1371   4.1942   4.2138
     4.3531   4.3592   4.3727   4.3803   4.4751   4.5352

     the Fermi energy is     3.8573 ev

!    total energy              =   -3006.52118880 Ry
     estimated scf accuracy    <       0.00000007 Ry
     smearing contrib. (-TS)   =      -0.02294817 Ry
     internal energy E=F+TS    =   -3006.49824064 Ry

     The total energy is F=E-TS. E is the sum of the following terms:
     one-electron contribution =  -22564.95366577 Ry
     hartree contribution      =   11381.74232367 Ry
     xc contribution           =    -501.14736336 Ry
     ewald contribution        =    8677.85863398 Ry
     electric field correction =       0.00183084 Ry

     convergence has been achieved in  84 iterations

     Forces acting on atoms (cartesian axes, Ry/au):

     atom    1 type  1   force =    -0.00014702   -0.00167674    0.10541789
     atom    2 type  1   force =    -0.00021891    0.00113458   -0.17916449
     atom    3 type  2   force =     0.00020651   -0.00553621   -0.03235543
     atom    4 type  2   force =     0.00010303    0.00072003    0.04631589
     atom    5 type  2   force =    -0.01804156    0.00052417    0.00422943
     atom    6 type  2   force =     0.01843832   -0.00044720    0.00409825
     atom    7 type  1   force =     0.00007440    0.00019353    0.00003802
     atom    8 type  1   force =     0.00007584    0.00030551   -0.00013154
     atom    9 type  2   force =     0.00017706    0.00034602   -0.00007405
     atom   10 type  2   force =     0.00017093   -0.00000465    0.00004065
     atom   11 type  2   force =     0.00003959   -0.00034592   -0.00037811
     atom   12 type  2   force =    -0.00005300   -0.00052020   -0.00051950
     atom   13 type  1   force =     0.00048108    0.00024109    0.00007019
     atom   14 type  1   force =    -0.00026159   -0.00047603   -0.00043355
     atom   15 type  2   force =     0.00004336   -0.00054133    0.00037044
     atom   16 type  2   force =    -0.00008979    0.00030520   -0.00027252
     atom   17 type  2   force =    -0.00027560   -0.00056493    0.00003079
     atom   18 type  2   force =    -0.00007191   -0.00043211    0.00018367
     atom   19 type  1   force =     0.00042618   -0.00028019   -0.00000632
     atom   20 type  1   force =    -0.00004321   -0.00144310   -0.00131936
     atom   21 type  2   force =    -0.00003479    0.00009796    0.10396315
     atom   22 type  2   force =     0.00000606   -0.00048519    0.00017440
     atom   23 type  2   force =    -0.06945440    0.00052196   -0.02945102
     atom   24 type  2   force =     0.06920856    0.00097965   -0.02950739
     atom   25 type  1   force =    -0.00003033    0.00157020    0.11481481
     atom   26 type  1   force =    -0.00022398   -0.00047723   -0.17917543
     atom   27 type  2   force =     0.00021495    0.00414403   -0.02605951
     atom   28 type  2   force =     0.00042895    0.00093130    0.04809773
     atom   29 type  2   force =    -0.01632033    0.00162411    0.00384010
     atom   30 type  2   force =     0.01736943    0.00217648    0.00360803
     atom   31 type  1   force =    -0.00014332    0.00010281   -0.00025391
     atom   32 type  1   force =     0.00011028   -0.00008268    0.00025453
     atom   33 type  2   force =     0.00029067   -0.00050697    0.00019975
     atom   34 type  2   force =    -0.00004131   -0.00030885   -0.00026018
     atom   35 type  2   force =    -0.00046869   -0.00013572    0.00001723
     atom   36 type  2   force =     0.00054710    0.00001902    0.00000772
     atom   37 type  1   force =     0.00046548   -0.00073275   -0.00007721
     atom   38 type  1   force =    -0.00037025   -0.00002001   -0.00037521
     atom   39 type  2   force =    -0.00041329   -0.00050791   -0.00048407
     atom   40 type  2   force =     0.00035776   -0.00041102   -0.00027165
     atom   41 type  2   force =    -0.00004299   -0.00008745   -0.00000226
     atom   42 type  2   force =    -0.00043155   -0.00027763    0.00002409
     atom   43 type  1   force =     0.00026391    0.00009959    0.00164315
     atom   44 type  1   force =     0.00008295    0.00021086   -0.00123774
     atom   45 type  2   force =    -0.00003643    0.00007899    0.10400313
     atom   46 type  2   force =    -0.06906114   -0.00107343   -0.02950754
     atom   47 type  2   force =     0.06887488   -0.00062946   -0.02958565
     atom   48 type  3   force =     0.00113910    0.00002542    0.01712931
     atom   49 type  2   force =     0.00195983    0.00028338   -0.00811718
     atom   50 type  4   force =    -0.00105946   -0.00011849   -0.00164586
     atom   51 type  4   force =    -0.00165500    0.00307093   -0.00354677
     atom   52 type  4   force =    -0.00106052   -0.00283093   -0.00349053
     atom   53 type  5   force =    -0.00106600   -0.00018110   -0.00111527
     atom   54 type  5   force =     0.00052453    0.00037193    0.00075209
     atom   55 type  2   force =     0.00068406   -0.00006055    0.00016903
     atom   56 type  4   force =    -0.00153837    0.00013241   -0.00056448
     atom   57 type  4   force =    -0.00011004    0.00098481   -0.00010973

     Total force =     0.375127     Total SCF correction =     0.000691
  @ DRIVER MODE: Message from server: STATUS
  @ DRIVER MODE: Message from server: GETFORCE
  @ DRIVER MODE: Returning v,forces,stress,ensemble

     Writing output data file ./calc.save/
  @ DRIVER MODE: Message from server: EXIT
  @ DRIVE MODE: Exiting

     General routines

     Parallel routines

   This run was terminated on:  17:17:17  25Sep2021

   JOB DONE.