     Program PWSCF v.6.7GPU starts on 23Aug2021 at 22:33:50

     R & G space division:  proc/nbgrp/npool/nimage =       6
     Reading input from /storage/home/hcoda1/3/ntian30/research/carbon/CH_vib/ads_slab/CHNNHHH_a/out_0018/pw.inp
Warning: card &CELL ignored
Warning: card   CELL_DYNAMICS='IPI', ignored
Warning: card / ignored

     Current dimensions of program PWSCF are:
     Max number of different atomic species (ntypx) = 10
     Max number of k-points (npk) =  40000
     Max angular momentum in pseudopotentials (lmaxx) =  3
     Presently no symmetry can be used with electric field

     Message from routine cell_base_init:
     DEPRECATED: use true lattice parameter, not A to a.u. conversion factor

     IMPORTANT: XC functional enforced from input :
     Exchange-correlation= BEEF-VDW
                           (   1   4  43  14   2   0   0)
     Any further DFT definition will be discarded
     Please, verify this is what you really want

  @ DRIVER MODE: Connecting to
 qe_1139763_2632795.sched-torque.pace.gatech.eduikkb8x2k_scratch
  using UNIX socket
  @ DRIVER MODE: Message from server: STATUS
  @ DRIVER MODE: Message from server: INIT
  @ DRIVER MODE: Receiving replica           0          -1
  @ DRIVER MODE: Receiving encoded integer          25
  @ DRIVER MODE:  SCF:  T  FORCE:  T  STRESS:  F  VC:  F  ENSEMBLE:  F
  @ DRIVER MODE:  SCF:  T  FORCE:  T  STRESS:  F  VC:  F  ENSEMBLE:  F

     Using Slab Decomposition

     bravais-lattice index     =            0
     lattice parameter (alat)  =       1.8897  a.u.
     unit-cell volume          =    6658.9804 (a.u.)^3
     number of atoms/cell      =           54
     number of atomic types    =            5
     number of electrons       =       396.00
     number of Kohn-Sham states=          208
     kinetic-energy cutoff     =      29.3995  Ry
     charge density cutoff     =     293.9946  Ry
     scf convergence threshold =      7.3E-08
     mixing beta               =       0.0500
     number of iterations used =            8  plain     mixing
     Exchange-correlation= BEEF-VDW
                           (   1   4  43  14   2   0   0)

     celldm(1)=   1.889726  celldm(2)=   0.000000  celldm(3)=   0.000000
     celldm(4)=   0.000000  celldm(5)=   0.000000  celldm(6)=   0.000000

     crystal axes: (cart. coord. in units of alat)
               a(1) = (   6.579727   0.000000   0.000000 )
               a(2) = (  -0.000775   5.961596   0.000000 )
               a(3) = (   0.000000   0.000000  25.155947 )

     reciprocal axes: (cart. coord. in units 2 pi/alat)
               b(1) = (  0.151982  0.000020  0.000000 )
               b(2) = (  0.000000  0.167740  0.000000 )
               b(3) = (  0.000000  0.000000  0.039752 )

     PseudoPot. # 1 for Ti read from file:
     /storage/coda1/p-amedford6/0/shared/rich_project_chbe-medford/medford-share/data/pseudos_module/espresso/nninc/pbe/van/Ti.UPF
     MD5 check sum: 8e4df49b7f0d34bbd5052bf3f5ea0213
     Pseudo is Ultrasoft, Zval = 12.0
     Generated by new atomic code, or converted to UPF format
     Using radial grid of  851 points,  6 beta functions with:
                l(1) =   0
                l(2) =   0
                l(3) =   1
                l(4) =   1
                l(5) =   2
                l(6) =   2
     Q(r) pseudized with  8 coefficients,  rinner =    1.000   1.000   1.000
                                                       1.000   1.000

     PseudoPot. # 2 for O  read from file:
     /storage/coda1/p-amedford6/0/shared/rich_project_chbe-medford/medford-share/data/pseudos_module/espresso/nninc/pbe/van/O.UPF
     MD5 check sum: 78c19812648e8988a0fe644b0f25305e
     Pseudo is Ultrasoft, Zval =  6.0
     Generated by new atomic code, or converted to UPF format
     Using radial grid of  737 points,  4 beta functions with:
                l(1) =   0
                l(2) =   0
                l(3) =   1
                l(4) =   1
     Q(r) pseudized with  8 coefficients,  rinner =    0.800   0.800   0.800

     PseudoPot. # 3 for N  read from file:
     /storage/coda1/p-amedford6/0/shared/rich_project_chbe-medford/medford-share/data/pseudos_module/espresso/nninc/pbe/van/N.UPF
     MD5 check sum: 90d10febe142ad51ac9d5be1deb811c4
     Pseudo is Ultrasoft, Zval =  5.0
     Generated by new atomic code, or converted to UPF format
     Using radial grid of  729 points,  4 beta functions with:
                l(1) =   0
                l(2) =   0
                l(3) =   1
                l(4) =   1
     Q(r) pseudized with  8 coefficients,  rinner =    0.800   0.800   0.800

     PseudoPot. # 4 for C  read from file:
     /storage/coda1/p-amedford6/0/shared/rich_project_chbe-medford/medford-share/data/pseudos_module/espresso/nninc/pbe/van/C.UPF
     MD5 check sum: 1a69bf6b8db32088f5b2163dbdb77a27
     Pseudo is Ultrasoft, Zval =  4.0
     Generated by new atomic code, or converted to UPF format
     Using radial grid of  721 points,  4 beta functions with:
                l(1) =   0
                l(2) =   0
                l(3) =   1
                l(4) =   1
     Q(r) pseudized with  8 coefficients,  rinner =    0.800   0.800   0.800

     PseudoPot. # 5 for H  read from file:
     /storage/coda1/p-amedford6/0/shared/rich_project_chbe-medford/medford-share/data/pseudos_module/espresso/nninc/pbe/van/H.UPF
     MD5 check sum: b5ee9d7bfd3a09ee7748110bda690ff7
     Pseudo is Ultrasoft, Zval =  1.0
     Generated by new atomic code, or converted to UPF format
     Using radial grid of  615 points,  1 beta functions with:
                l(1) =   0
     Q(r) pseudized with  8 coefficients,  rinner =    0.800

     atomic species   valence    mass     pseudopotential
        Ti1           12.00    47.86700     Ti( 1.00)
        O1             6.00    15.99900     O ( 1.00)
        N1             5.00    14.00700     N ( 1.00)
        C1             4.00    12.01100     C ( 1.00)
        H1             1.00     1.00800     H ( 1.00)

     No symmetry found

   Cartesian axes

     site n.     atom                  positions (alat units)
         1           Ti1 tau(   1) = (   0.0004258   2.9801865   6.0000000  )
         2           Ti1 tau(   2) = (   3.2906075   1.4906267   6.0002472  )
         3           O1  tau(   3) = (   0.0006271   0.0005054   7.9858123  )
         4           O1  tau(   4) = (   3.2906025   0.0005020   7.3038282  )
         5           O1  tau(   5) = (   4.5942328   1.4918067   9.2879030  )
         6           O1  tau(   6) = (   1.9868534   1.4903216   9.2879459  )
         7           Ti1 tau(   7) = (   3.2907910   2.8959150   9.1758416  )
         8           Ti1 tau(   8) = (   0.0015273   1.4827037   9.2680791  )
         9           O1  tau(   9) = (   3.3116888   5.9365513  11.3741315  )
        10           O1  tau(  10) = (   0.0116148   5.9584955  10.6183126  )
        11           O1  tau(  11) = (   1.3152863   1.4773744  12.6583839  )
        12           O1  tau(  12) = (   5.3185463   1.4781915  12.6604289  )
        13           Ti1 tau(  13) = (   0.0312267   2.9553392  12.5172039  )
        14           Ti1 tau(  14) = (   3.3247105   1.4628205  12.5237724  )
        15           O1  tau(  15) = (   0.0176705   0.0150782  14.7085838  )
        16           O1  tau(  16) = (   3.3263678   5.9469243  13.9928752  )
        17           O1  tau(  17) = (   4.5829619   1.4750097  16.2211409  )
        18           O1  tau(  18) = (   2.0801478   1.4636096  16.1819230  )
        19           Ti1 tau(  19) = (   3.3264833   2.9461821  15.7545810  )
        20           Ti1 tau(  20) = (   0.0064452   1.3478264  16.0581623  )
        21           O1  tau(  21) = (   3.2904802   0.0005063   4.7018136  )
        22           O1  tau(  22) = (   0.0393124   5.8647722  17.2449945  )
        23           O1  tau(  23) = (   1.3043587   1.4918075   6.0039043  )
        24           O1  tau(  24) = (   5.2767064   1.4903225   6.0039473  )
        25           Ti1 tau(  25) = (   0.0000382   5.9609847   6.0000000  )
        26           Ti1 tau(  26) = (   3.2902200   4.4714249   6.0002472  )
        27           O1  tau(  27) = (   0.0002396   2.9813036   7.9858123  )
        28           O1  tau(  28) = (   3.2902150   2.9813002   7.3038282  )
        29           O1  tau(  29) = (   4.5938453   4.4726049   9.2879030  )
        30           O1  tau(  30) = (   1.9864658   4.4711199   9.2879459  )
        31           Ti1 tau(  31) = (   3.2891106   5.8743827   9.1763621  )
        32           Ti1 tau(  32) = (   0.0006254   4.4649316   9.2693709  )
        33           O1  tau(  33) = (   3.3126387   2.9639063  11.3704323  )
        34           O1  tau(  34) = (   0.0092240   2.9805883  10.6323155  )
        35           O1  tau(  35) = (   1.3140505   4.4512041  12.6779488  )
        36           O1  tau(  36) = (   5.3186431   4.4503656  12.6784002  )
        37           Ti1 tau(  37) = (   0.0306983   5.9434578  12.5012515  )
        38           Ti1 tau(  38) = (   3.3249252   4.4426326  12.5284913  )
        39           O1  tau(  39) = (   0.0332616   2.9308952  14.9693926  )
        40           O1  tau(  40) = (   3.3269026   2.9510973  13.9662216  )
        41           O1  tau(  41) = (   4.5816979   4.4256876  16.1885362  )
        42           O1  tau(  42) = (   2.0739833   4.4348339  16.1471384  )
        43           Ti1 tau(  43) = (   3.3139036   5.9323143  15.7909994  )
        44           Ti1 tau(  44) = (   0.0257917   4.5791344  15.8913375  )
        45           O1  tau(  45) = (   3.2900926   2.9813045   4.7018136  )
        46           O1  tau(  46) = (   1.3039711   4.4726057   6.0039043  )
        47           O1  tau(  47) = (   5.2763189   4.4711207   6.0039473  )
        48           N1  tau(  48) = (   0.2611162   2.7486399  18.0384573  )
        49           C1  tau(  49) = (   1.0666652   3.1333113  18.7681872  )
        50           H1  tau(  50) = (   1.9496291   3.4674532  19.3270853  )
        51           N1  tau(  51) = (   3.9312863   3.7371558  19.5917579  )
        52           H1  tau(  52) = (   4.2637485   4.0673035  20.4913501  )
        53           H1  tau(  53) = (   4.3024207   4.3757745  18.8906580  )
        54           H1  tau(  54) = (   4.4024832   2.8518033  19.4177320  )

     number of k points=    10  Fermi-Dirac smearing, width (Ry)=  0.0073
                       cart. coord. in units 2pi/alat
        k(    1) = (   0.0000000   0.0000000   0.0000000), wk =   0.1250000
        k(    2) = (   0.0000000   0.0419351   0.0000000), wk =   0.2500000
        k(    3) = (   0.0000000  -0.0838702   0.0000000), wk =   0.1250000
        k(    4) = (   0.0379955   0.0000049   0.0000000), wk =   0.2500000
        k(    5) = (   0.0379955   0.0419400   0.0000000), wk =   0.2500000
        k(    6) = (   0.0379955  -0.0838652   0.0000000), wk =   0.2500000
        k(    7) = (   0.0379955  -0.0419301   0.0000000), wk =   0.2500000
        k(    8) = (  -0.0759910  -0.0000099   0.0000000), wk =   0.1250000
        k(    9) = (  -0.0759910   0.0419252   0.0000000), wk =   0.2500000
        k(   10) = (  -0.0759910  -0.0838800   0.0000000), wk =   0.1250000

     Initial potential from superposition of free atoms

     starting charge  379.99915, renormalised to  396.00000

     negative rho (up, down):  1.480E-02 0.000E+00

     %%%%%%%%%%%%%%%%%%%%%%%%%%%%%%%%%%%%%%%%%%%%%%%%%%%%%%%%%%%%%%%%%%%%%%%%
     %                                                                      %
     % You are using vdW-DF, which was implemented by the Thonhauser group. %
     % Please cite the following two papers that made this development      %
     % possible and the two reviews that describe the various versions:     %
     %                                                                      %
     %   T. Thonhauser et al., PRL 115, 136402 (2015).                      %
     %   T. Thonhauser et al., PRB 76, 125112 (2007).                       %
     %   K. Berland et al., Rep. Prog. Phys. 78, 066501 (2015).             %
     %   D.C. Langreth et al., J. Phys.: Condens. Matter 21, 084203 (2009). %
     %                                                                      %
     %                                                                      %
     % If you are calculating the stress with vdW-DF, please also cite:     %
     %                                                                      %
     %   R. Sabatini et al., J. Phys.: Condens. Matter 24, 424209 (2012).   %
     %                                                                      %
     %%%%%%%%%%%%%%%%%%%%%%%%%%%%%%%%%%%%%%%%%%%%%%%%%%%%%%%%%%%%%%%%%%%%%%%%

     Adding external electric field

     Computed dipole along edir(3) :
        Dipole              -10.3179 Ry au,        -26.2255 Debye
        Dipole field         -0.0195 Ry au,

        Potential amp.        1.8050 Ry
        Total length         46.3494 bohr

     Starting wfcs are  300 atomic wfcs
  @ DRIVER MODE: Message from server: STATUS
  @ DRIVER MODE: Message from server: POSDATA
  @ DRIVER MODE: Reading and sharing cell
  @ DRIVER MODE: Reading and sharing positions
  @ DRIVER MODE: Received positions

     Self-consistent Calculation

     iteration #  1     ecut=    29.40 Ry     beta= 0.05
     Davidson diagonalization with overlap
     c_bands:  1 eigenvalues not converged
     c_bands:  2 eigenvalues not converged
     c_bands:  2 eigenvalues not converged
     c_bands:  1 eigenvalues not converged
     c_bands:  3 eigenvalues not converged
     c_bands:  2 eigenvalues not converged
     c_bands:  3 eigenvalues not converged
     c_bands:  2 eigenvalues not converged
     c_bands:  2 eigenvalues not converged
     c_bands:  2 eigenvalues not converged
     ethr =  1.00E-05,  avg # of iterations = 20.0

[...]

     total energy              =   -2524.75567570 Ry
     estimated scf accuracy    <    4651.89199631 Ry

     iteration #  2     ecut=    29.40 Ry     beta= 0.05
     Davidson diagonalization with overlap
     ethr =  1.00E-02,  avg # of iterations = 25.6

[...]

     iteration # 59     ecut=    29.40 Ry     beta= 0.05
     Davidson diagonalization with overlap
     c_bands:  1 eigenvalues not converged
     c_bands:  1 eigenvalues not converged
     c_bands:  1 eigenvalues not converged
     ethr =  1.59E-10,  avg # of iterations = 18.3

[...]

     total energy              =   -2940.41307009 Ry
     estimated scf accuracy    <       0.00000011 Ry

     iteration # 62     ecut=    29.40 Ry     beta= 0.05
     Davidson diagonalization with overlap
     ethr =  2.74E-11,  avg # of iterations =  9.8

     negative rho (up, down):  1.578E-02 0.000E+00

     Adding external electric field

     Computed dipole along edir(3) :
        Dipole                1.4924 Ry au,          3.7933 Debye
        Dipole field          0.0028 Ry au,

        Potential amp.       -0.2611 Ry
        Total length         46.3494 bohr

     End of self-consistent calculation

          k = 0.0000 0.0000 0.0000 ( 18029 PWs)   bands (ev):

   -55.2523 -55.2163 -55.2036 -55.1695 -55.1294 -55.1211 -55.0975 -55.0941
   -55.0700 -55.0505 -55.0357 -55.0327 -54.9991 -54.9823 -54.2314 -54.1974
   -31.8209 -31.7006 -31.6959 -31.6172 -31.5615 -31.5596 -31.5508 -31.5381
   -31.4925 -31.4799 -31.4610 -31.4577 -31.4482 -31.4234 -31.4074 -31.4029
   -31.3886 -31.3770 -31.3681 -31.3668 -31.3561 -31.3438 -31.3173 -31.3151
   -31.3072 -31.3007 -31.2726 -31.2708 -31.2608 -31.2595 -31.2511 -31.2321
   -31.2311 -31.2229 -31.2192 -31.2176 -31.1839 -31.1838 -31.1658 -31.1607
   -31.1437 -31.0923 -30.6408 -30.5466 -30.5246 -30.4572 -30.3704 -30.2594
   -16.7708 -16.0771 -15.8075 -15.6651 -15.5591 -15.4477 -15.3329 -15.3126
   -15.1758 -15.1572 -15.0872 -14.9684 -14.9177 -14.8993 -14.8846 -14.8708
   -14.8642 -14.7929 -14.7878 -14.7645 -14.7441 -14.7315 -14.6885 -14.6867
   -14.6461 -14.6253 -14.5791 -14.4899 -14.4071 -14.3377 -14.0156 -12.7343
   -12.6168  -7.9439  -5.2549  -5.0484  -4.0073  -3.4160  -3.2656  -3.1697
    -3.1433  -3.1279  -2.9981  -2.8510  -2.8415  -2.7480  -2.6365  -2.5851
    -2.5028  -2.4540  -2.4417  -2.4233  -2.2402  -2.2233  -2.1704  -2.1222
    -2.0923  -2.0563  -2.0360  -2.0169  -1.9997  -1.9903  -1.9262  -1.8125
    -1.7769  -1.7247  -1.6734  -1.6480  -1.5940  -1.5734  -1.5373  -1.5313
    -1.5308  -1.4827  -1.4567  -1.4334  -1.3563  -1.2704  -1.1558  -1.1045
    -0.9496  -0.8871  -0.8309  -0.8186  -0.7553  -0.7353  -0.7057  -0.6289
    -0.6213  -0.5885  -0.4699  -0.3802  -0.3405  -0.3282  -0.2700  -0.2326
    -0.2053  -0.1584  -0.0622  -0.0299  -0.0131  -0.0086   0.1414   0.1553
     0.2243   0.2717   0.2934   0.2941   0.4071   0.4236   0.4959   0.5330
     0.5689   0.6423   0.6822   0.6982   0.7008   0.7344   0.7384   0.8293
     0.8513   0.8598   0.9320   1.0815   1.3078   1.3559   1.3637   1.6974
     1.6991   1.7911   1.9748   2.3671   2.4153   3.8464   3.9179   3.9921
     3.9986   4.0243   4.0845   4.3260   4.3365   4.3489   4.3522   4.3934

[...]

          k = 0.0380-0.0419 0.0000 ( 17876 PWs)   bands (ev):

[...]

          k =-0.0760-0.0000 0.0000 ( 17886 PWs)   bands (ev):

[...]

          k =-0.0760-0.0839 0.0000 ( 17948 PWs)   bands (ev):

   -55.2343 -55.2341 -55.1866 -55.1863 -55.1164 -55.1158 -55.1077 -55.0948
   -55.0549 -55.0539 -55.0514 -55.0162 -55.0158 -54.9852 -54.2143 -54.2143
   -31.6247 -31.6241 -31.6237 -31.5231 -31.5110 -31.5109 -31.5105 -31.4779
   -31.4777 -31.4595 -31.4523 -31.4466 -31.4422 -31.3914 -31.3868 -31.3846
   -31.3835 -31.3835 -31.3778 -31.3722 -31.3483 -31.3448 -31.3343 -31.3251
   -31.3242 -31.3179 -31.3094 -31.3063 -31.3061 -31.2998 -31.2870 -31.2843
   -31.2794 -31.2669 -31.2643 -31.2474 -31.2463 -31.2420 -31.1968 -31.1967
   -31.1909 -31.1844 -30.5372 -30.5372 -30.4533 -30.4532 -30.4138 -30.4138
   -16.7621 -15.6096 -15.4931 -15.4520 -15.2643 -15.2559 -15.2256 -15.2129
   -15.1627 -15.0619 -15.0356 -15.0252 -15.0115 -14.9599 -14.9536 -14.9484
   -14.9268 -14.8557 -14.8472 -14.8453 -14.8282 -14.7621 -14.7574 -14.7530
   -14.7421 -14.6991 -14.6962 -14.6018 -14.5998 -14.5059 -14.3824 -12.7184
   -12.7183  -7.9406  -5.2504  -5.0589  -3.9941  -2.7964  -2.7674  -2.7213
    -2.7115  -2.6951  -2.4758  -2.4530  -2.4159  -2.3660  -2.3046  -2.2533
    -2.2450  -2.2283  -2.1612  -2.1225  -2.1059  -2.0924  -2.0741  -2.0585
    -2.0441  -2.0186  -1.9761  -1.9686  -1.9476  -1.9270  -1.8971  -1.8887
    -1.8576  -1.8366  -1.8215  -1.8041  -1.6894  -1.6654  -1.6071  -1.5680
    -1.5267  -1.4543  -1.4491  -1.3519  -1.3445  -1.2902  -1.2785  -1.2525
    -1.1595  -1.0606  -0.9983  -0.9917  -0.9854  -0.8594  -0.8210  -0.7969
    -0.7600  -0.7317  -0.6727  -0.5943  -0.5728  -0.5386  -0.4541  -0.4458
    -0.3896  -0.3230  -0.2751  -0.2440  -0.2149  -0.2067  -0.1972  -0.1438
    -0.1374  -0.0662  -0.0161   0.0172   0.0284   0.0623   0.2671   0.2837
     0.3367   0.4349   0.5076   0.6279   0.6856   0.7068   0.7781   0.8183
     0.8622   0.9247   1.0270   1.0575   1.0605   1.1351   1.1668   1.2089
     1.2129   2.1481   2.1485   2.2351   2.2354   3.9905   4.0842   4.1063
     4.1545   4.2458   4.2808   4.3640   4.3821   4.4319   4.4337   4.5043

     the Fermi energy is     3.9094 ev

!    total energy              =   -2940.41311123 Ry
     estimated scf accuracy    <       0.00000006 Ry
     smearing contrib. (-TS)   =      -0.03731614 Ry
     internal energy E=F+TS    =   -2940.37579509 Ry

     The total energy is F=E-TS. E is the sum of the following terms:
     one-electron contribution =  -23552.77601830 Ry
     hartree contribution      =   11869.10105185 Ry
     xc contribution           =    -485.96523416 Ry
     ewald contribution        =    9229.26020239 Ry
     electric field correction =       0.00420313 Ry

     convergence has been achieved in  62 iterations

     Forces acting on atoms (cartesian axes, Ry/au):

     atom    1 type  1   force =    -0.00002657   -0.00017569    0.09331021
     atom    2 type  1   force =    -0.00015188   -0.00021884   -0.17809667
     atom    3 type  2   force =     0.00006388   -0.00019939   -0.02047455
     atom    4 type  2   force =     0.00000462   -0.00194856    0.05845643
     atom    5 type  2   force =    -0.01027891   -0.00135241    0.00735783
     atom    6 type  2   force =     0.01227587   -0.00075679    0.00785235
     atom    7 type  1   force =     0.00036477    0.00279146   -0.01406892
     atom    8 type  1   force =    -0.00055579    0.00105294   -0.00335588
     atom    9 type  2   force =     0.00003954    0.00050009   -0.00007476
     atom   10 type  2   force =    -0.00055252   -0.00102684   -0.00004573
     atom   11 type  2   force =     0.00008640    0.00011059    0.00004486
     atom   12 type  2   force =    -0.00025248    0.00016217   -0.00006792
     atom   13 type  1   force =    -0.00002540    0.00090499   -0.00028945
     atom   14 type  1   force =     0.00010289    0.00024332   -0.00017524
     atom   15 type  2   force =    -0.00014460    0.00011270    0.00097980
     atom   16 type  2   force =     0.00004661    0.00011313   -0.00003702
     atom   17 type  2   force =     0.00028220   -0.00030746    0.00004085
     atom   18 type  2   force =    -0.00020292   -0.00048403   -0.00049339
     atom   19 type  1   force =    -0.00067625   -0.00019833    0.00008670
     atom   20 type  1   force =    -0.00017631    0.00072791    0.00001269
     atom   21 type  2   force =    -0.00001893    0.00000774    0.10388013
     atom   22 type  2   force =    -0.00030090   -0.00065822   -0.00098674
     atom   23 type  2   force =    -0.07042690   -0.00007768   -0.02688913
     atom   24 type  2   force =     0.07026725    0.00035803   -0.02694449
     atom   25 type  1   force =     0.00004299   -0.00005860    0.09293191
     atom   26 type  1   force =    -0.00017079   -0.00019069   -0.17813545
     atom   27 type  2   force =     0.00012309   -0.00034039   -0.01948706
     atom   28 type  2   force =     0.00003375   -0.00168276    0.05803153
     atom   29 type  2   force =    -0.01039875   -0.00125027    0.00692799
     atom   30 type  2   force =     0.01228432   -0.00092229    0.00743855
     atom   31 type  1   force =     0.00034651    0.00516676   -0.01509161
     atom   32 type  1   force =    -0.00046685   -0.00160710   -0.00357929
     atom   33 type  2   force =    -0.00019501   -0.00021885   -0.00018222
     atom   34 type  2   force =     0.00029067   -0.00053253    0.00104039
     atom   35 type  2   force =    -0.00040610    0.00005632    0.00023714
     atom   36 type  2   force =     0.00033680   -0.00002586    0.00029811
     atom   37 type  1   force =    -0.00011900   -0.00042793   -0.00005327
     atom   38 type  1   force =     0.00013413    0.00034435   -0.00030504
     atom   39 type  2   force =    -0.00034861   -0.00042497    0.00116094
     atom   40 type  2   force =     0.00006923    0.00007138   -0.00016684
     atom   41 type  2   force =    -0.00002173    0.00024109   -0.00029236
     atom   42 type  2   force =    -0.00012202    0.00002359   -0.00041907
     atom   43 type  1   force =    -0.00083685   -0.00015999    0.00006620
     atom   44 type  1   force =     0.00013909    0.00046682    0.00000418
     atom   45 type  2   force =    -0.00000964    0.00000580    0.10386870
     atom   46 type  2   force =    -0.07044772   -0.00005423   -0.02689288
     atom   47 type  2   force =     0.07027263    0.00038523   -0.02696255
     atom   48 type  3   force =     0.00014193   -0.00077547   -0.00031442
     atom   49 type  4   force =     0.00361607    0.00228159    0.00378576
     atom   50 type  5   force =    -0.00419712   -0.00180258   -0.00336603
     atom   51 type  3   force =    -0.00008603   -0.00108952   -0.00075670
     atom   52 type  5   force =     0.00080826    0.00086830    0.00086761
     atom   53 type  5   force =     0.00006429    0.00048899   -0.00055986
     atom   54 type  5   force =    -0.00062122    0.00148298   -0.00011630

     Total force =     0.366027     Total SCF correction =     0.000552
  @ DRIVER MODE: Message from server: STATUS
  @ DRIVER MODE: Message from server: GETFORCE
  @ DRIVER MODE: Returning v,forces,stress,ensemble

     Writing output data file ./calc.save/
  @ DRIVER MODE: Message from server: EXIT
  @ DRIVE MODE: Exiting

     General routines

     Parallel routines

   This run was terminated on:  23: 3:17  23Aug2021

   JOB DONE.