     Program PWSCF v.6.7GPU starts on 23Sep2021 at 11:37:40

     R & G space division:  proc/nbgrp/npool/nimage =       8
     Reading input from /storage/home/hcoda1/3/ntian30/research/carbon/CxH_vib/H2O_calc/ads_slab/CH2NHNH2HO_a/out_0002/pw.inp
Warning: card &CELL ignored
Warning: card   CELL_DYNAMICS='IPI', ignored
Warning: card / ignored

     Current dimensions of program PWSCF are:
     Max number of different atomic species (ntypx) = 10
     Max number of k-points (npk) =  40000
     Max angular momentum in pseudopotentials (lmaxx) =  3
     Presently no symmetry can be used with electric field

     Message from routine cell_base_init:
     DEPRECATED: use true lattice parameter, not A to a.u. conversion factor

     IMPORTANT: XC functional enforced from input :
     Exchange-correlation= BEEF-VDW
                           (   1   4  43  14   2   0   0)
     Any further DFT definition will be discarded
     Please, verify this is what you really want

  @ DRIVER MODE: Connecting to
 qe_1139763_2947313.sched-torque.pace.gatech.edu4b5rfxcn_scratch
  using UNIX socket
  @ DRIVER MODE: Message from server: STATUS
  @ DRIVER MODE: Message from server: INIT
  @ DRIVER MODE: Receiving replica           0          -1
  @ DRIVER MODE: Receiving encoded integer          25
  @ DRIVER MODE:  SCF:  T  FORCE:  T  STRESS:  F  VC:  F  ENSEMBLE:  F
  @ DRIVER MODE:  SCF:  T  FORCE:  T  STRESS:  F  VC:  F  ENSEMBLE:  F

     Using Slab Decomposition

     bravais-lattice index     =            0
     lattice parameter (alat)  =       1.8897  a.u.
     unit-cell volume          =    6658.9804 (a.u.)^3
     number of atoms/cell      =           57
     number of atomic types    =            5
     number of electrons       =       404.00
     number of Kohn-Sham states=          212
     kinetic-energy cutoff     =      29.3995  Ry
     charge density cutoff     =     293.9946  Ry
     scf convergence threshold =      7.3E-08
     mixing beta               =       0.0500
     number of iterations used =            8  plain     mixing
     Exchange-correlation= BEEF-VDW
                           (   1   4  43  14   2   0   0)

     celldm(1)=   1.889726  celldm(2)=   0.000000  celldm(3)=   0.000000
     celldm(4)=   0.000000  celldm(5)=   0.000000  celldm(6)=   0.000000

     crystal axes: (cart. coord. in units of alat)
               a(1) = (   6.579727   0.000000   0.000000 )
               a(2) = (  -0.000775   5.961596   0.000000 )
               a(3) = (   0.000000   0.000000  25.155947 )

     reciprocal axes: (cart. coord. in units 2 pi/alat)
               b(1) = (  0.151982  0.000020  0.000000 )
               b(2) = (  0.000000  0.167740  0.000000 )
               b(3) = (  0.000000  0.000000  0.039752 )

     PseudoPot. # 1 for Ti read from file:
     /storage/coda1/p-amedford6/0/shared/rich_project_chbe-medford/medford-share/data/pseudos_module/espresso/nninc/pbe/van/Ti.UPF
     MD5 check sum: 8e4df49b7f0d34bbd5052bf3f5ea0213
     Pseudo is Ultrasoft, Zval = 12.0
     Generated by new atomic code, or converted to UPF format
     Using radial grid of  851 points,  6 beta functions with:
                l(1) =   0
                l(2) =   0
                l(3) =   1
                l(4) =   1
                l(5) =   2
                l(6) =   2
     Q(r) pseudized with  8 coefficients,  rinner =    1.000   1.000   1.000
                                                       1.000   1.000

     PseudoPot. # 2 for O  read from file:
     /storage/coda1/p-amedford6/0/shared/rich_project_chbe-medford/medford-share/data/pseudos_module/espresso/nninc/pbe/van/O.UPF
     MD5 check sum: 78c19812648e8988a0fe644b0f25305e
     Pseudo is Ultrasoft, Zval =  6.0
     Generated by new atomic code, or converted to UPF format
     Using radial grid of  737 points,  4 beta functions with:
                l(1) =   0
                l(2) =   0
                l(3) =   1
                l(4) =   1
     Q(r) pseudized with  8 coefficients,  rinner =    0.800   0.800   0.800

     PseudoPot. # 3 for N  read from file:
     /storage/coda1/p-amedford6/0/shared/rich_project_chbe-medford/medford-share/data/pseudos_module/espresso/nninc/pbe/van/N.UPF
     MD5 check sum: 90d10febe142ad51ac9d5be1deb811c4
     Pseudo is Ultrasoft, Zval =  5.0
     Generated by new atomic code, or converted to UPF format
     Using radial grid of  729 points,  4 beta functions with:
                l(1) =   0
                l(2) =   0
                l(3) =   1
                l(4) =   1
     Q(r) pseudized with  8 coefficients,  rinner =    0.800   0.800   0.800

     PseudoPot. # 4 for C  read from file:
     /storage/coda1/p-amedford6/0/shared/rich_project_chbe-medford/medford-share/data/pseudos_module/espresso/nninc/pbe/van/C.UPF
     MD5 check sum: 1a69bf6b8db32088f5b2163dbdb77a27
     Pseudo is Ultrasoft, Zval =  4.0
     Generated by new atomic code, or converted to UPF format
     Using radial grid of  721 points,  4 beta functions with:
                l(1) =   0
                l(2) =   0
                l(3) =   1
                l(4) =   1
     Q(r) pseudized with  8 coefficients,  rinner =    0.800   0.800   0.800

     PseudoPot. # 5 for H  read from file:
     /storage/coda1/p-amedford6/0/shared/rich_project_chbe-medford/medford-share/data/pseudos_module/espresso/nninc/pbe/van/H.UPF
     MD5 check sum: b5ee9d7bfd3a09ee7748110bda690ff7
     Pseudo is Ultrasoft, Zval =  1.0
     Generated by new atomic code, or converted to UPF format
     Using radial grid of  615 points,  1 beta functions with:
                l(1) =   0
     Q(r) pseudized with  8 coefficients,  rinner =    0.800

     atomic species   valence    mass     pseudopotential
        Ti1           12.00    47.86700     Ti( 1.00)
        O1             6.00    15.99900     O ( 1.00)
        N1             5.00    14.00700     N ( 1.00)
        C1             4.00    12.01100     C ( 1.00)
        H1             1.00     1.00800     H ( 1.00)

     No symmetry found

   Cartesian axes

     site n.     atom                  positions (alat units)
         1           Ti1 tau(   1) = (   0.0004258   2.9801865   6.0000000  )
         2           Ti1 tau(   2) = (   3.2906075   1.4906267   6.0002472  )
         3           O1  tau(   3) = (   0.0006271   0.0005054   7.9858123  )
         4           O1  tau(   4) = (   3.2906025   0.0005020   7.3038282  )
         5           O1  tau(   5) = (   4.5942328   1.4918067   9.2879030  )
         6           O1  tau(   6) = (   1.9868534   1.4903216   9.2879459  )
         7           Ti1 tau(   7) = (   3.2907910   2.8959150   9.1758416  )
         8           Ti1 tau(   8) = (   0.0015273   1.4827037   9.2680791  )
         9           O1  tau(   9) = (   3.2769995   5.9424463  11.3879711  )
        10           O1  tau(  10) = (   0.0116148   5.9584955  10.6183126  )
        11           O1  tau(  11) = (   1.2559300   1.4809235  12.6914295  )
        12           O1  tau(  12) = (   5.2914439   1.4888754  12.6824943  )
        13           Ti1 tau(  13) = (   6.5693074   2.9549812  12.5071532  )
        14           Ti1 tau(  14) = (   3.2720578   1.2926143  12.7373905  )
        15           O1  tau(  15) = (   6.5263330   5.9075480  14.6758232  )
        16           O1  tau(  16) = (   3.2750150   0.0724425  14.0538047  )
        17           O1  tau(  17) = (   4.5404297   1.6145126  16.1214498  )
        18           O1  tau(  18) = (   1.9612862   1.5681812  16.1371236  )
        19           Ti1 tau(  19) = (   3.2615978   3.0295928  15.7214328  )
        20           Ti1 tau(  20) = (   6.4910920   1.3289874  15.8500745  )
        21           O1  tau(  21) = (   3.2904802   0.0005063   4.7018136  )
        22           O1  tau(  22) = (   6.5149858   0.1606772  17.2625446  )
        23           O1  tau(  23) = (   1.3043587   1.4918075   6.0039043  )
        24           O1  tau(  24) = (   5.2767064   1.4903225   6.0039473  )
        25           Ti1 tau(  25) = (   0.0000382   5.9609847   6.0000000  )
        26           Ti1 tau(  26) = (   3.2902200   4.4714249   6.0002472  )
        27           O1  tau(  27) = (   0.0002396   2.9813036   7.9858123  )
        28           O1  tau(  28) = (   3.2902150   2.9813002   7.3038282  )
        29           O1  tau(  29) = (   4.5938453   4.4726049   9.2879030  )
        30           O1  tau(  30) = (   1.9864658   4.4711199   9.2879459  )
        31           Ti1 tau(  31) = (   3.2891106   5.8743827   9.1763621  )
        32           Ti1 tau(  32) = (   0.0006254   4.4649316   9.2693709  )
        33           O1  tau(  33) = (   3.2749377   2.9871965  11.3337082  )
        34           O1  tau(  34) = (   0.0092240   2.9805883  10.6323155  )
        35           O1  tau(  35) = (   1.2597673   4.4587344  12.6634223  )
        36           O1  tau(  36) = (   5.2866262   4.4511231  12.6493885  )
        37           Ti1 tau(  37) = (   6.5604603   5.9292220  12.4937940  )
        38           Ti1 tau(  38) = (   3.2724722   4.3622713  12.4512132  )
        39           O1  tau(  39) = (   6.5737517   3.0258615  14.9025115  )
        40           O1  tau(  40) = (   3.2593133   3.0063273  13.9441864  )
        41           O1  tau(  41) = (   4.5441350   4.4310557  16.1689449  )
        42           O1  tau(  42) = (   1.9655774   4.4762250  16.2070539  )
        43           Ti1 tau(  43) = (   3.1776431   0.0563557  16.2565842  )
        44           Ti1 tau(  44) = (   6.5216753   4.5226504  15.9439936  )
        45           O1  tau(  45) = (   3.2900926   2.9813045   4.7018136  )
        46           O1  tau(  46) = (   1.3039711   4.4726057   6.0039043  )
        47           O1  tau(  47) = (   5.2763189   4.4711207   6.0039473  )
        48           N1  tau(  48) = (   0.8257702   2.5297039  18.7633901  )
        49           N1  tau(  49) = (   6.4302604   3.3580032  18.1334362  )
        50           C1  tau(  50) = (   1.9549655   3.0231469  19.2293773  )
        51           H1  tau(  51) = (   2.0901252   4.0892486  19.3254668  )
        52           H1  tau(  52) = (   2.7239663   2.3052050  19.4587972  )
        53           H1  tau(  53) = (   0.7490178   1.5515861  18.4517582  )
        54           H1  tau(  54) = (   6.4535031   4.2829477  18.5696568  )
        55           H1  tau(  55) = (   5.5068980   2.9516776  18.2836589  )
        56           O1  tau(  56) = (   3.3967406   0.0908776  18.1493316  )
        57           H1  tau(  57) = (   4.3453859   0.1513423  18.3540861  )

     number of k points=    10  Fermi-Dirac smearing, width (Ry)=  0.0073
                       cart. coord. in units 2pi/alat
        k(    1) = (   0.0000000   0.0000000   0.0000000), wk =   0.1250000
        k(    2) = (   0.0000000   0.0419351   0.0000000), wk =   0.2500000
        k(    3) = (   0.0000000  -0.0838702   0.0000000), wk =   0.1250000
        k(    4) = (   0.0379955   0.0000049   0.0000000), wk =   0.2500000
        k(    5) = (   0.0379955   0.0419400   0.0000000), wk =   0.2500000
        k(    6) = (   0.0379955  -0.0838652   0.0000000), wk =   0.2500000
        k(    7) = (   0.0379955  -0.0419301   0.0000000), wk =   0.2500000
        k(    8) = (  -0.0759910  -0.0000099   0.0000000), wk =   0.1250000
        k(    9) = (  -0.0759910   0.0419252   0.0000000), wk =   0.2500000
        k(   10) = (  -0.0759910  -0.0838800   0.0000000), wk =   0.1250000

     Initial potential from superposition of free atoms

     starting charge  387.99913, renormalised to  404.00000

     negative rho (up, down):  1.608E-02 0.000E+00

     %%%%%%%%%%%%%%%%%%%%%%%%%%%%%%%%%%%%%%%%%%%%%%%%%%%%%%%%%%%%%%%%%%%%%%%%
     %                                                                      %
     % You are using vdW-DF, which was implemented by the Thonhauser group. %
     % Please cite the following two papers that made this development      %
     % possible and the two reviews that describe the various versions:     %
     %                                                                      %
     %   T. Thonhauser et al., PRL 115, 136402 (2015).                      %
     %   T. Thonhauser et al., PRB 76, 125112 (2007).                       %
     %   K. Berland et al., Rep. Prog. Phys. 78, 066501 (2015).             %
     %   D.C. Langreth et al., J. Phys.: Condens. Matter 21, 084203 (2009). %
     %                                                                      %
     %                                                                      %
     % If you are calculating the stress with vdW-DF, please also cite:     %
     %                                                                      %
     %   R. Sabatini et al., J. Phys.: Condens. Matter 24, 424209 (2012).   %
     %                                                                      %
     %%%%%%%%%%%%%%%%%%%%%%%%%%%%%%%%%%%%%%%%%%%%%%%%%%%%%%%%%%%%%%%%%%%%%%%%

     Adding external electric field

     Computed dipole along edir(3) :
        Dipole              -13.8429 Ry au,        -35.1851 Debye
        Dipole field         -0.0261 Ry au,

        Potential amp.        2.4216 Ry
        Total length         46.3494 bohr

     Starting wfcs are  306 atomic wfcs
  @ DRIVER MODE: Message from server: STATUS
  @ DRIVER MODE: Message from server: POSDATA
  @ DRIVER MODE: Reading and sharing cell
  @ DRIVER MODE: Reading and sharing positions
  @ DRIVER MODE: Received positions

     Self-consistent Calculation

     iteration #  1     ecut=    29.40 Ry     beta= 0.05
     Davidson diagonalization with overlap
     c_bands:  1 eigenvalues not converged
     c_bands:  2 eigenvalues not converged
     c_bands:  1 eigenvalues not converged
     c_bands:  1 eigenvalues not converged
     c_bands:  1 eigenvalues not converged
     c_bands:  2 eigenvalues not converged
     c_bands:  5 eigenvalues not converged
     c_bands:  3 eigenvalues not converged
     ethr =  1.00E-05,  avg # of iterations = 32.8

[...]

     total energy              =   -2231.88261315 Ry
     estimated scf accuracy    <    8426.14471461 Ry

     iteration #  2     ecut=    29.40 Ry     beta= 0.05
     Davidson diagonalization with overlap
     ethr =  1.00E-02,  avg # of iterations = 27.1

[...]

     iteration # 57     ecut=    29.40 Ry     beta= 0.05
     Davidson diagonalization with overlap
     c_bands:  1 eigenvalues not converged
     c_bands:  1 eigenvalues not converged
     c_bands:  1 eigenvalues not converged
     c_bands:  1 eigenvalues not converged
     c_bands:  2 eigenvalues not converged
     c_bands:  1 eigenvalues not converged
     ethr =  2.47E-06,  avg # of iterations = 18.7

[...]

     total energy              =   -2975.14992091 Ry
     estimated scf accuracy    <       0.00000010 Ry

     iteration # 82     ecut=    29.40 Ry     beta= 0.05
     Davidson diagonalization with overlap
     ethr =  2.58E-11,  avg # of iterations =  6.5

     negative rho (up, down):  1.521E-02 0.000E+00

     Adding external electric field

     Computed dipole along edir(3) :
        Dipole                1.1948 Ry au,          3.0369 Debye
        Dipole field          0.0023 Ry au,

        Potential amp.       -0.2090 Ry
        Total length         46.3494 bohr

     End of self-consistent calculation

          k = 0.0000 0.0000 0.0000 ( 18029 PWs)   bands (ev):

   -55.4082 -55.3245 -55.2904 -55.2197 -55.1816 -55.1709 -55.1559 -55.1546
   -55.1396 -55.1201 -55.0917 -55.0211 -55.0142 -54.9868 -54.3187 -54.2847
   -31.8125 -31.7632 -31.7346 -31.7056 -31.6597 -31.6583 -31.6233 -31.6142
   -31.6131 -31.5992 -31.5697 -31.5326 -31.4946 -31.4773 -31.4615 -31.4538
   -31.4378 -31.4342 -31.4330 -31.3988 -31.3819 -31.3706 -31.3659 -31.3612
   -31.3570 -31.3504 -31.3470 -31.3253 -31.3196 -31.3162 -31.3161 -31.2929
   -31.2844 -31.2806 -31.2685 -31.2444 -31.2278 -31.2233 -31.2008 -31.1907
   -31.1887 -31.1841 -30.7258 -30.6369 -30.6145 -30.5430 -30.4565 -30.3449
   -19.3625 -16.2696 -16.0411 -15.8754 -15.6600 -15.6147 -15.5227 -15.3605
   -15.2484 -15.1778 -15.0717 -14.9976 -14.9235 -14.8846 -14.8754 -14.8619
   -14.8568 -14.8054 -14.8005 -14.7963 -14.7825 -14.7716 -14.7619 -14.7211
   -14.6870 -14.6411 -14.6346 -14.4834 -14.4452 -14.4085 -14.2899 -14.2670
   -12.8177 -12.7009 -10.2159  -7.8302  -6.5697  -5.4437  -4.2087  -3.8121
    -3.6648  -3.3833  -3.2744  -3.2424  -3.1838  -3.1481  -2.8936  -2.7956
    -2.7759  -2.6390  -2.5202  -2.4739  -2.4137  -2.3425  -2.3112  -2.2884
    -2.2627  -2.2090  -2.1432  -2.1283  -2.1172  -2.0388  -2.0345  -1.9614
    -1.9115  -1.8976  -1.7932  -1.7223  -1.6892  -1.6756  -1.6647  -1.6474
    -1.6231  -1.6157  -1.5922  -1.5312  -1.4647  -1.4568  -1.3909  -1.3637
    -1.0967  -1.0307  -0.9619  -0.9330  -0.8579  -0.8393  -0.8008  -0.7803
    -0.7338  -0.7328  -0.7268  -0.6507  -0.5637  -0.4966  -0.4674  -0.4457
    -0.3931  -0.2818  -0.2624  -0.1500  -0.1211  -0.1157  -0.0733  -0.0265
     0.0152   0.0553   0.1144   0.1865   0.2356   0.2868   0.3184   0.3458
     0.3856   0.4200   0.4826   0.5604   0.5843   0.6290   0.6583   0.6788
     0.6883   0.7449   0.7618   0.8496   0.9300   0.9410   1.0360   1.0698
     1.1180   1.3073   1.3430   1.6434   1.6895   1.7076   1.8962   2.2773
     2.3237   3.7428   3.8662   3.8972   3.9074   3.9472   3.9800   4.0351
     4.2281   4.2413   4.3522   4.4628

[...]

          k = 0.0380-0.0419 0.0000 ( 17876 PWs)   bands (ev):

[...]

          k =-0.0760-0.0000 0.0000 ( 17886 PWs)   bands (ev):

[...]

          k =-0.0760-0.0839 0.0000 ( 17948 PWs)   bands (ev):

   -55.4073 -55.3076 -55.3071 -55.2084 -55.1927 -55.1685 -55.1568 -55.1371
   -55.1367 -55.1333 -55.0986 -55.0164 -55.0098 -54.9980 -54.3021 -54.3012
   -31.6753 -31.6660 -31.6472 -31.6278 -31.6275 -31.6137 -31.5998 -31.5994
   -31.5594 -31.5274 -31.5117 -31.4866 -31.4772 -31.4688 -31.4576 -31.4444
   -31.4431 -31.4379 -31.4343 -31.4273 -31.4269 -31.4182 -31.4017 -31.3946
   -31.3896 -31.3722 -31.3578 -31.3575 -31.3513 -31.3488 -31.3439 -31.3342
   -31.3194 -31.3153 -31.3140 -31.3109 -31.2781 -31.2755 -31.2371 -31.2312
   -31.2049 -31.1964 -30.6276 -30.6269 -30.5391 -30.5379 -30.5001 -30.4994
   -19.3579 -16.2412 -15.7458 -15.4772 -15.3508 -15.3389 -15.2179 -15.2034
   -15.1417 -15.1335 -15.1041 -15.0886 -15.0787 -15.0363 -15.0077 -14.9212
   -14.9062 -14.8648 -14.8613 -14.8156 -14.8132 -14.8120 -14.7896 -14.7701
   -14.7679 -14.7626 -14.7373 -14.6740 -14.6606 -14.5238 -14.4532 -14.3898
   -12.8030 -12.8023 -10.1869  -7.7960  -6.5616  -5.5253  -4.1698  -3.8290
    -3.6268  -2.8327  -2.6895  -2.5874  -2.4788  -2.4462  -2.3971  -2.3487
    -2.3343  -2.3026  -2.2334  -2.2024  -2.1876  -2.1520  -2.1509  -2.1274
    -2.1179  -2.0973  -2.0702  -2.0515  -2.0393  -2.0347  -2.0068  -1.9916
    -1.9762  -1.9519  -1.9233  -1.9027  -1.8888  -1.8820  -1.8321  -1.7273
    -1.6370  -1.5578  -1.5215  -1.4973  -1.4891  -1.4364  -1.4231  -1.4126
    -1.3758  -1.3534  -1.2215  -1.1988  -1.0649  -1.0028  -0.9693  -0.9259
    -0.8697  -0.8619  -0.8508  -0.8061  -0.7670  -0.6340  -0.6040  -0.5740
    -0.5222  -0.4355  -0.3478  -0.3337  -0.3109  -0.2921  -0.2566  -0.2396
    -0.2229  -0.1948  -0.1652  -0.0872  -0.0517  -0.0390  -0.0214   0.0769
     0.1751   0.2146   0.2787   0.3472   0.3916   0.4152   0.4444   0.6294
     0.6603   0.8038   0.8130   0.8176   0.9619   0.9632   1.0088   1.0563
     1.0894   1.1327   1.1609   1.1765   1.2116   2.0664   2.0748   2.1439
     2.1441   3.7794   3.9435   4.1669   4.1896   4.2488   4.2595   4.2907
     4.3163   4.3458   4.3857   4.4060

     the Fermi energy is     3.7926 ev

!    total energy              =   -2975.14992870 Ry
     estimated scf accuracy    <       0.00000005 Ry
     smearing contrib. (-TS)   =      -0.03334368 Ry
     internal energy E=F+TS    =   -2975.11658502 Ry

     The total energy is F=E-TS. E is the sum of the following terms:
     one-electron contribution =  -23379.98011266 Ry
     hartree contribution      =   11787.32733829 Ry
     xc contribution           =    -494.90612224 Ry
     ewald contribution        =    9112.43961750 Ry
     electric field correction =       0.00269407 Ry

     convergence has been achieved in  82 iterations

     Forces acting on atoms (cartesian axes, Ry/au):

     atom    1 type  1   force =     0.00028715   -0.00020204    0.09346712
     atom    2 type  1   force =    -0.00006271    0.00052924   -0.17632867
     atom    3 type  2   force =     0.00004202   -0.00029744   -0.02070159
     atom    4 type  2   force =     0.00001543   -0.00222393    0.05687715
     atom    5 type  2   force =    -0.00786239   -0.00263120    0.00513153
     atom    6 type  2   force =     0.00892658   -0.00211456    0.00324995
     atom    7 type  1   force =    -0.00077331   -0.00333428    0.00574109
     atom    8 type  1   force =     0.00086526    0.00107956   -0.00174171
     atom    9 type  2   force =    -0.00018604    0.00015693    0.00008304
     atom   10 type  2   force =    -0.00342117    0.00105454   -0.00642860
     atom   11 type  2   force =     0.00020540   -0.00013296    0.00033149
     atom   12 type  2   force =    -0.00014015   -0.00023044    0.00005407
     atom   13 type  1   force =     0.00001776   -0.00004516   -0.00026163
     atom   14 type  1   force =     0.00053020   -0.00035660   -0.00033951
     atom   15 type  2   force =    -0.00001979   -0.00108271   -0.00039621
     atom   16 type  2   force =     0.00019496    0.00060776    0.00095707
     atom   17 type  2   force =    -0.00122412    0.00035466   -0.00024979
     atom   18 type  2   force =     0.00125975    0.00007294   -0.00053440
     atom   19 type  1   force =     0.00010240    0.00058779   -0.00047532
     atom   20 type  1   force =     0.00048378    0.00054576   -0.00098657
     atom   21 type  2   force =     0.00011360    0.00005166    0.10358356
     atom   22 type  2   force =     0.00021260    0.00029435    0.00145716
     atom   23 type  2   force =    -0.07137308   -0.00017585   -0.02700097
     atom   24 type  2   force =     0.07136662    0.00027277   -0.02703132
     atom   25 type  1   force =     0.00006668   -0.00017572    0.09322921
     atom   26 type  1   force =     0.00007342   -0.00125772   -0.17653850
     atom   27 type  2   force =     0.00007556   -0.00015069   -0.01946945
     atom   28 type  2   force =     0.00001735   -0.00060286    0.05224215
     atom   29 type  2   force =    -0.00743347    0.00176922    0.00489367
     atom   30 type  2   force =     0.00836086    0.00235411    0.00299454
     atom   31 type  1   force =    -0.00098853    0.00885379   -0.00437851
     atom   32 type  1   force =     0.00095336   -0.00222180   -0.00240046
     atom   33 type  2   force =    -0.00022540   -0.00135124   -0.00062342
     atom   34 type  2   force =    -0.00214616   -0.00210469   -0.00762622
     atom   35 type  2   force =    -0.00000570    0.00016147    0.00028276
     atom   36 type  2   force =     0.00016539    0.00015596    0.00022061
     atom   37 type  1   force =     0.00003113   -0.00032151    0.00009401
     atom   38 type  1   force =     0.00034495    0.00046960    0.00014131
     atom   39 type  2   force =    -0.00001572    0.00065969   -0.00010057
     atom   40 type  2   force =     0.00021376   -0.00016380    0.00049270
     atom   41 type  2   force =    -0.00041063   -0.00014201    0.00039573
     atom   42 type  2   force =     0.00077131   -0.00032491    0.00025780
     atom   43 type  1   force =     0.00045333   -0.00069232   -0.00089461
     atom   44 type  1   force =     0.00009723    0.00098764   -0.00000069
     atom   45 type  2   force =     0.00009926   -0.00009046    0.10335091
     atom   46 type  2   force =    -0.07141412   -0.00003082   -0.02703605
     atom   47 type  2   force =     0.07138815    0.00038442   -0.02706805
     atom   48 type  3   force =    -0.02247092   -0.00226203   -0.00923206
     atom   49 type  3   force =     0.00590372   -0.00092905    0.00246112
     atom   50 type  4   force =     0.01247251    0.00441465    0.00456761
     atom   51 type  5   force =     0.00070348   -0.00087065   -0.00032584
     atom   52 type  5   force =     0.00085953    0.00054536    0.00006843
     atom   53 type  5   force =     0.00175736    0.00055148    0.00090815
     atom   54 type  5   force =    -0.00005220    0.00023140   -0.00031440
     atom   55 type  5   force =     0.00091221   -0.00087819    0.00131628
     atom   56 type  2   force =     0.00075717    0.00094183    0.00050282
     atom   57 type  5   force =    -0.00087561   -0.00069092   -0.00086790

     Total force =     0.364261     Total SCF correction =     0.000602
  @ DRIVER MODE: Message from server: STATUS
  @ DRIVER MODE: Message from server: GETFORCE
  @ DRIVER MODE: Returning v,forces,stress,ensemble

     Writing output data file ./calc.save/
  @ DRIVER MODE: Message from server: EXIT
  @ DRIVE MODE: Exiting

     General routines

     Parallel routines

   This run was terminated on:  12: 5:45  23Sep2021

   JOB DONE.