     Program PWSCF v.6.7GPU starts on 24Aug2021 at  1:17:11

     R & G space division:  proc/nbgrp/npool/nimage =       6
     Reading input from /storage/home/hcoda1/3/ntian30/research/carbon/CH2_vib/ads_slab/CH2N2_a/out_0024/pw.inp
Warning: card &CELL ignored
Warning: card   CELL_DYNAMICS='IPI', ignored
Warning: card / ignored

     Current dimensions of program PWSCF are:
     Max number of different atomic species (ntypx) = 10
     Max number of k-points (npk) =  40000
     Max angular momentum in pseudopotentials (lmaxx) =  3
     Presently no symmetry can be used with electric field

     Message from routine cell_base_init:
     DEPRECATED: use true lattice parameter, not A to a.u. conversion factor

     IMPORTANT: XC functional enforced from input :
     Exchange-correlation= BEEF-VDW
                           (   1   4  43  14   2   0   0)
     Any further DFT definition will be discarded
     Please, verify this is what you really want

  @ DRIVER MODE: Connecting to
 qe_1139763_2632803.sched-torque.pace.gatech.eduz7_k84ui_scratch
  using UNIX socket
  @ DRIVER MODE: Message from server: STATUS
  @ DRIVER MODE: Message from server: INIT
  @ DRIVER MODE: Receiving replica           0          -1
  @ DRIVER MODE: Receiving encoded integer          25
  @ DRIVER MODE:  SCF:  T  FORCE:  T  STRESS:  F  VC:  F  ENSEMBLE:  F
  @ DRIVER MODE:  SCF:  T  FORCE:  T  STRESS:  F  VC:  F  ENSEMBLE:  F

     Using Slab Decomposition

     bravais-lattice index     =            0
     lattice parameter (alat)  =       1.8897  a.u.
     unit-cell volume          =    6658.9804 (a.u.)^3
     number of atoms/cell      =           52
     number of atomic types    =            5
     number of electrons       =       394.00
     number of Kohn-Sham states=          207
     kinetic-energy cutoff     =      29.3995  Ry
     charge density cutoff     =     293.9946  Ry
     scf convergence threshold =      7.3E-08
     mixing beta               =       0.0500
     number of iterations used =            8  plain     mixing
     Exchange-correlation= BEEF-VDW
                           (   1   4  43  14   2   0   0)

     celldm(1)=   1.889726  celldm(2)=   0.000000  celldm(3)=   0.000000
     celldm(4)=   0.000000  celldm(5)=   0.000000  celldm(6)=   0.000000

     crystal axes: (cart. coord. in units of alat)
               a(1) = (   6.579727   0.000000   0.000000 )
               a(2) = (  -0.000775   5.961596   0.000000 )
               a(3) = (   0.000000   0.000000  25.155947 )

     reciprocal axes: (cart. coord. in units 2 pi/alat)
               b(1) = (  0.151982  0.000020  0.000000 )
               b(2) = (  0.000000  0.167740  0.000000 )
               b(3) = (  0.000000  0.000000  0.039752 )

     PseudoPot. # 1 for Ti read from file:
     /storage/coda1/p-amedford6/0/shared/rich_project_chbe-medford/medford-share/data/pseudos_module/espresso/nninc/pbe/van/Ti.UPF
     MD5 check sum: 8e4df49b7f0d34bbd5052bf3f5ea0213
     Pseudo is Ultrasoft, Zval = 12.0
     Generated by new atomic code, or converted to UPF format
     Using radial grid of  851 points,  6 beta functions with:
                l(1) =   0
                l(2) =   0
                l(3) =   1
                l(4) =   1
                l(5) =   2
                l(6) =   2
     Q(r) pseudized with  8 coefficients,  rinner =    1.000   1.000   1.000
                                                       1.000   1.000

     PseudoPot. # 2 for O  read from file:
     /storage/coda1/p-amedford6/0/shared/rich_project_chbe-medford/medford-share/data/pseudos_module/espresso/nninc/pbe/van/O.UPF
     MD5 check sum: 78c19812648e8988a0fe644b0f25305e
     Pseudo is Ultrasoft, Zval =  6.0
     Generated by new atomic code, or converted to UPF format
     Using radial grid of  737 points,  4 beta functions with:
                l(1) =   0
                l(2) =   0
                l(3) =   1
                l(4) =   1
     Q(r) pseudized with  8 coefficients,  rinner =    0.800   0.800   0.800

     PseudoPot. # 3 for N  read from file:
     /storage/coda1/p-amedford6/0/shared/rich_project_chbe-medford/medford-share/data/pseudos_module/espresso/nninc/pbe/van/N.UPF
     MD5 check sum: 90d10febe142ad51ac9d5be1deb811c4
     Pseudo is Ultrasoft, Zval =  5.0
     Generated by new atomic code, or converted to UPF format
     Using radial grid of  729 points,  4 beta functions with:
                l(1) =   0
                l(2) =   0
                l(3) =   1
                l(4) =   1
     Q(r) pseudized with  8 coefficients,  rinner =    0.800   0.800   0.800

     PseudoPot. # 4 for C  read from file:
     /storage/coda1/p-amedford6/0/shared/rich_project_chbe-medford/medford-share/data/pseudos_module/espresso/nninc/pbe/van/C.UPF
     MD5 check sum: 1a69bf6b8db32088f5b2163dbdb77a27
     Pseudo is Ultrasoft, Zval =  4.0
     Generated by new atomic code, or converted to UPF format
     Using radial grid of  721 points,  4 beta functions with:
                l(1) =   0
                l(2) =   0
                l(3) =   1
                l(4) =   1
     Q(r) pseudized with  8 coefficients,  rinner =    0.800   0.800   0.800

     PseudoPot. # 5 for H  read from file:
     /storage/coda1/p-amedford6/0/shared/rich_project_chbe-medford/medford-share/data/pseudos_module/espresso/nninc/pbe/van/H.UPF
     MD5 check sum: b5ee9d7bfd3a09ee7748110bda690ff7
     Pseudo is Ultrasoft, Zval =  1.0
     Generated by new atomic code, or converted to UPF format
     Using radial grid of  615 points,  1 beta functions with:
                l(1) =   0
     Q(r) pseudized with  8 coefficients,  rinner =    0.800

     atomic species   valence    mass     pseudopotential
        Ti1           12.00    47.86700     Ti( 1.00)
        O1             6.00    15.99900     O ( 1.00)
        N1             5.00    14.00700     N ( 1.00)
        C1             4.00    12.01100     C ( 1.00)
        H1             1.00     1.00800     H ( 1.00)

     No symmetry found

   Cartesian axes

     site n.     atom                  positions (alat units)
         1           Ti1 tau(   1) = (   0.0004258   2.9801865   6.0000000  )
         2           Ti1 tau(   2) = (   3.2906075   1.4906267   6.0002472  )
         3           O1  tau(   3) = (   0.0006271   0.0005054   7.9858123  )
         4           O1  tau(   4) = (   3.2906025   0.0005020   7.3038282  )
         5           O1  tau(   5) = (   4.5942328   1.4918067   9.2879030  )
         6           O1  tau(   6) = (   1.9868534   1.4903216   9.2879459  )
         7           Ti1 tau(   7) = (   3.2907910   2.8959150   9.1758416  )
         8           Ti1 tau(   8) = (   0.0015273   1.4827037   9.2680791  )
         9           O1  tau(   9) = (   3.2817373   5.9460525  11.2946146  )
        10           O1  tau(  10) = (   0.0116148   5.9584955  10.6183126  )
        11           O1  tau(  11) = (   1.3133758   1.4766388  12.6259016  )
        12           O1  tau(  12) = (   5.2926964   1.4629885  12.6363546  )
        13           Ti1 tau(  13) = (   6.4867702   2.9530348  12.7875790  )
        14           Ti1 tau(  14) = (   3.1556433   1.4654666  12.4614878  )
        15           O1  tau(  15) = (   0.0119351   5.9170239  14.6319389  )
        16           O1  tau(  16) = (   3.2888796   5.9458463  13.8730829  )
        17           O1  tau(  17) = (   4.5050169   1.4765614  15.9709225  )
        18           O1  tau(  18) = (   2.0372034   1.4852366  16.0641042  )
        19           Ti1 tau(  19) = (   3.3196583   2.9724019  15.6708981  )
        20           Ti1 tau(  20) = (   6.5671717   1.4125937  15.9950936  )
        21           O1  tau(  21) = (   3.2904802   0.0005063   4.7018136  )
        22           O1  tau(  22) = (   6.4769187   0.0355975  17.2006351  )
        23           O1  tau(  23) = (   1.3043587   1.4918075   6.0039043  )
        24           O1  tau(  24) = (   5.2767064   1.4903225   6.0039473  )
        25           Ti1 tau(  25) = (   0.0000382   5.9609847   6.0000000  )
        26           Ti1 tau(  26) = (   3.2902200   4.4714249   6.0002472  )
        27           O1  tau(  27) = (   0.0002396   2.9813036   7.9858123  )
        28           O1  tau(  28) = (   3.2902150   2.9813002   7.3038282  )
        29           O1  tau(  29) = (   4.5938453   4.4726049   9.2879030  )
        30           O1  tau(  30) = (   1.9864658   4.4711199   9.2879459  )
        31           Ti1 tau(  31) = (   3.2891106   5.8743827   9.1763621  )
        32           Ti1 tau(  32) = (   0.0006254   4.4649316   9.2693709  )
        33           O1  tau(  33) = (   3.2830713   2.9620590  11.2933342  )
        34           O1  tau(  34) = (   0.0092240   2.9805883  10.6323155  )
        35           O1  tau(  35) = (   1.3110001   4.4530301  12.6158702  )
        36           O1  tau(  36) = (   5.2890030   4.4574094  12.6263766  )
        37           Ti1 tau(  37) = (   6.4749751   5.9256585  12.7408108  )
        38           Ti1 tau(  38) = (   3.1548284   4.4449468  12.4552140  )
        39           O1  tau(  39) = (   6.5563663   2.9679540  14.6355405  )
        40           O1  tau(  40) = (   3.2955455   2.9696487  13.8658995  )
        41           O1  tau(  41) = (   4.4874099   4.4549745  16.0617524  )
        42           O1  tau(  42) = (   2.0361269   4.4599000  15.9844638  )
        43           Ti1 tau(  43) = (   3.2961532   5.9498675  15.6757175  )
        44           Ti1 tau(  44) = (   0.0931452   4.4613781  16.2340760  )
        45           O1  tau(  45) = (   3.2900926   2.9813045   4.7018136  )
        46           O1  tau(  46) = (   1.3039711   4.4726057   6.0039043  )
        47           O1  tau(  47) = (   5.2763189   4.4711207   6.0039473  )
        48           N1  tau(  48) = (   0.6376139   3.5490058  18.1121658  )
        49           C1  tau(  49) = (   1.1877089   3.2859424  19.2441644  )
        50           H1  tau(  50) = (   1.7795953   4.0554207  19.7143479  )
        51           H1  tau(  51) = (   1.0443441   2.3179332  19.7236356  )
        52           N1  tau(  52) = (   6.4637678   2.8186144  17.3583733  )

     number of k points=    10  Fermi-Dirac smearing, width (Ry)=  0.0073
                       cart. coord. in units 2pi/alat
        k(    1) = (   0.0000000   0.0000000   0.0000000), wk =   0.1250000
        k(    2) = (   0.0000000   0.0419351   0.0000000), wk =   0.2500000
        k(    3) = (   0.0000000  -0.0838702   0.0000000), wk =   0.1250000
        k(    4) = (   0.0379955   0.0000049   0.0000000), wk =   0.2500000
        k(    5) = (   0.0379955   0.0419400   0.0000000), wk =   0.2500000
        k(    6) = (   0.0379955  -0.0838652   0.0000000), wk =   0.2500000
        k(    7) = (   0.0379955  -0.0419301   0.0000000), wk =   0.2500000
        k(    8) = (  -0.0759910  -0.0000099   0.0000000), wk =   0.1250000
        k(    9) = (  -0.0759910   0.0419252   0.0000000), wk =   0.2500000
        k(   10) = (  -0.0759910  -0.0838800   0.0000000), wk =   0.1250000

     Initial potential from superposition of free atoms

     starting charge  377.99917, renormalised to  394.00000

     negative rho (up, down):  1.612E-02 0.000E+00

     %%%%%%%%%%%%%%%%%%%%%%%%%%%%%%%%%%%%%%%%%%%%%%%%%%%%%%%%%%%%%%%%%%%%%%%%
     %                                                                      %
     % You are using vdW-DF, which was implemented by the Thonhauser group. %
     % Please cite the following two papers that made this development      %
     % possible and the two reviews that describe the various versions:     %
     %                                                                      %
     %   T. Thonhauser et al., PRL 115, 136402 (2015).                      %
     %   T. Thonhauser et al., PRB 76, 125112 (2007).                       %
     %   K. Berland et al., Rep. Prog. Phys. 78, 066501 (2015).             %
     %   D.C. Langreth et al., J. Phys.: Condens. Matter 21, 084203 (2009). %
     %                                                                      %
     %                                                                      %
     % If you are calculating the stress with vdW-DF, please also cite:     %
     %                                                                      %
     %   R. Sabatini et al., J. Phys.: Condens. Matter 24, 424209 (2012).   %
     %                                                                      %
     %%%%%%%%%%%%%%%%%%%%%%%%%%%%%%%%%%%%%%%%%%%%%%%%%%%%%%%%%%%%%%%%%%%%%%%%

     Adding external electric field

     Computed dipole along edir(3) :
        Dipole               -7.0546 Ry au,        -17.9310 Debye
        Dipole field         -0.0133 Ry au,

        Potential amp.        1.2341 Ry
        Total length         46.3494 bohr

     Starting wfcs are  298 atomic wfcs
  @ DRIVER MODE: Message from server: STATUS
  @ DRIVER MODE: Message from server: POSDATA
  @ DRIVER MODE: Reading and sharing cell
  @ DRIVER MODE: Reading and sharing positions
  @ DRIVER MODE: Received positions

     Self-consistent Calculation

     iteration #  1     ecut=    29.40 Ry     beta= 0.05
     Davidson diagonalization with overlap
     c_bands:  1 eigenvalues not converged
     c_bands:  1 eigenvalues not converged
     c_bands:  1 eigenvalues not converged
     c_bands:  2 eigenvalues not converged
     ethr =  1.00E-05,  avg # of iterations = 18.0

[...]

     total energy              =   -2722.37775134 Ry
     estimated scf accuracy    <    2378.92003761 Ry

[...]

     iteration #  3     ecut=    29.40 Ry     beta= 0.05
     Davidson diagonalization with overlap
     ethr =  1.00E-02,  avg # of iterations = 14.8

[...]

     iteration # 58     ecut=    29.40 Ry     beta= 0.05
     Davidson diagonalization with overlap
     c_bands:  1 eigenvalues not converged
     ethr =  1.24E-09,  avg # of iterations =  6.7

[...]

     total energy              =   -2937.87543919 Ry
     estimated scf accuracy    <       0.00000007 Ry

     iteration # 68     ecut=    29.40 Ry     beta= 0.05
     Davidson diagonalization with overlap
     ethr =  1.90E-11,  avg # of iterations =  4.1

     negative rho (up, down):  1.677E-02 0.000E+00

     Adding external electric field

     Computed dipole along edir(3) :
        Dipole                0.3897 Ry au,          0.9904 Debye
        Dipole field          0.0007 Ry au,

        Potential amp.       -0.0682 Ry
        Total length         46.3494 bohr

     End of self-consistent calculation

          k = 0.0000 0.0000 0.0000 ( 18029 PWs)   bands (ev):

   -56.6508 -56.6171 -55.8580 -55.8468 -55.8227 -55.8139 -55.7846 -55.7490
   -55.6095 -55.5641 -55.4673 -55.4022 -55.3520 -55.3180 -55.0598 -54.8088
   -33.0834 -32.9297 -32.9015 -32.8231 -32.7316 -32.7089 -32.3312 -32.3299
   -32.3216 -32.1428 -32.1146 -32.0753 -32.0717 -32.0555 -32.0546 -32.0325
   -31.9991 -31.9950 -31.9946 -31.9879 -31.9731 -31.9625 -31.9616 -31.9500
   -31.9475 -31.9441 -31.9213 -31.9203 -31.8422 -31.7490 -31.7466 -31.7150
   -31.6881 -31.6692 -31.6641 -31.6426 -31.6259 -31.5923 -31.5703 -31.5649
   -31.4823 -31.4808 -31.3698 -31.3202 -31.2719 -31.1585 -31.0493 -30.9564
   -18.0275 -16.8460 -16.5042 -16.2733 -16.0325 -16.0320 -15.9337 -15.9109
   -15.9012 -15.7925 -15.7369 -15.7101 -15.6246 -15.6117 -15.4536 -15.3754
   -15.3554 -15.3399 -15.2211 -15.1682 -15.1543 -15.1078 -15.0768 -15.0117
   -14.8675 -14.8296 -14.7591 -14.6886 -14.5568 -14.3289 -13.8510 -13.7401
   -12.1449  -6.5620  -4.5248  -4.4016  -4.3952  -3.9841  -3.7870  -3.6683
    -3.5578  -3.5336  -3.5037  -3.2924  -3.2543  -3.2287  -3.1904  -3.1321
    -3.0829  -2.9422  -2.9095  -2.8621  -2.8491  -2.8407  -2.8188  -2.7550
    -2.6551  -2.5258  -2.4990  -2.4841  -2.4571  -2.3756  -2.3595  -2.2859
    -2.2590  -2.2371  -2.2120  -2.1921  -2.0425  -2.0234  -1.9957  -1.9743
    -1.9108  -1.8682  -1.8620  -1.7418  -1.6665  -1.5750  -1.5475  -1.4200
    -1.4107  -1.3719  -1.2924  -1.2715  -1.1712  -1.1356  -1.0657  -1.0457
    -0.9843  -0.9640  -0.8435  -0.8280  -0.7987  -0.7891  -0.6644  -0.6538
    -0.6209  -0.5495  -0.5445  -0.4903  -0.3805  -0.3579  -0.3312  -0.2922
    -0.2658  -0.2196  -0.1577  -0.1440  -0.0942  -0.0568   0.0222   0.1339
     0.1380   0.2223   0.2959   0.3224   0.4184   0.4633   0.5307   0.5961
     0.6220   0.6697   0.6894   0.7120   0.8006   0.8983   0.9066   0.9736
     1.2236   1.2630   1.4516   1.8927   2.2678   2.6142   2.7643   3.0678
     3.2002   3.3044   3.5723   3.6049   3.6055   3.6531   3.7413

[...]

          k = 0.0380-0.0419 0.0000 ( 17876 PWs)   bands (ev):

[...]

          k =-0.0760-0.0000 0.0000 ( 17886 PWs)   bands (ev):

[...]

          k =-0.0760-0.0839 0.0000 ( 17948 PWs)   bands (ev):

   -56.6343 -56.6334 -55.8433 -55.8362 -55.8315 -55.8302 -55.7682 -55.7652
   -55.6012 -55.5722 -55.4623 -55.4071 -55.3350 -55.3349 -55.0586 -54.8098
   -32.9159 -32.9148 -32.9002 -32.8997 -32.7761 -32.7753 -32.1601 -32.1577
   -32.1468 -32.1415 -32.1395 -32.1389 -32.0723 -32.0710 -32.0421 -32.0412
   -32.0328 -32.0306 -32.0276 -32.0242 -32.0229 -32.0197 -31.9723 -31.9670
   -31.9418 -31.9252 -31.8853 -31.8655 -31.8018 -31.7936 -31.7745 -31.7461
   -31.6977 -31.6771 -31.6770 -31.6485 -31.6372 -31.5923 -31.5620 -31.5619
   -31.5230 -31.5230 -31.4054 -31.3125 -31.2731 -31.1785 -31.0720 -31.0076
   -18.0180 -16.1981 -16.1945 -16.1575 -16.1570 -15.9513 -15.9467 -15.9025
   -15.8970 -15.7650 -15.7589 -15.5339 -15.5332 -15.5146 -15.5000 -15.4187
   -15.4069 -15.3859 -15.3739 -15.3464 -15.3304 -15.2155 -15.1992 -15.1591
   -15.1179 -14.8352 -14.7666 -14.7065 -14.5847 -14.4754 -13.8434 -13.8433
   -12.1510  -6.5510  -4.5127  -4.3514  -3.3269  -3.3230  -3.2529  -3.2458
    -3.2268  -3.1949  -3.1930  -3.0212  -3.0197  -3.0185  -3.0180  -2.8417
    -2.8405  -2.8220  -2.8063  -2.6994  -2.6840  -2.6668  -2.6485  -2.5960
    -2.5761  -2.5345  -2.5286  -2.5202  -2.5013  -2.4764  -2.4212  -2.4172
    -2.3582  -2.3340  -2.2340  -2.1899  -2.1880  -2.1625  -2.1285  -2.0469
    -2.0107  -1.8596  -1.8521  -1.7853  -1.7846  -1.6850  -1.6258  -1.5927
    -1.5315  -1.4954  -1.4856  -1.4182  -1.3501  -1.3381  -1.2627  -1.2499
    -1.2285  -1.1166  -1.0937  -1.0343  -0.9592  -0.9215  -0.8682  -0.8618
    -0.8438  -0.8311  -0.7984  -0.7410  -0.6720  -0.6396  -0.5867  -0.5483
    -0.5161  -0.4530  -0.3897  -0.3232  -0.2273  -0.1764  -0.1699  -0.1181
    -0.1044   0.0824   0.0918   0.1658   0.3325   0.4100   0.4988   0.5185
     0.5837   0.7210   0.7409   0.7517   0.7870   0.9768   1.0239   1.0743
     1.0747   1.0766   1.0967   1.8485   2.1214   3.1771   3.1779   3.2417
     3.2424   3.5640   3.5679   3.6728   3.6788   3.6934   3.6973

     the Fermi energy is     2.4915 ev

!    total energy              =   -2937.87547219 Ry
     estimated scf accuracy    <       0.00000005 Ry
     smearing contrib. (-TS)   =      -0.00676043 Ry
     internal energy E=F+TS    =   -2937.86871176 Ry

     The total energy is F=E-TS. E is the sum of the following terms:
     one-electron contribution =  -24389.20732480 Ry
     hartree contribution      =   12281.60782669 Ry
     xc contribution           =    -484.37821503 Ry
     ewald contribution        =    9654.10871486 Ry
     electric field correction =       0.00028652 Ry

     convergence has been achieved in  68 iterations

     Forces acting on atoms (cartesian axes, Ry/au):

     atom    1 type  1   force =    -0.00000892   -0.00038813    0.12099595
     atom    2 type  1   force =    -0.00005826   -0.00059338   -0.16253989
     atom    3 type  2   force =     0.00018773   -0.00020705   -0.06340711
     atom    4 type  2   force =    -0.00005859   -0.00047423    0.03042357
     atom    5 type  2   force =    -0.01675940    0.00081969   -0.00761261
     atom    6 type  2   force =     0.01808645    0.00143669   -0.00861962
     atom    7 type  1   force =     0.00080635   -0.00399977    0.01550090
     atom    8 type  1   force =    -0.00025711    0.00469553    0.10596341
     atom    9 type  2   force =    -0.00027772   -0.00003523    0.00042870
     atom   10 type  2   force =    -0.00275135    0.00064948   -0.06145260
     atom   11 type  2   force =     0.00052143    0.00022049   -0.00014722
     atom   12 type  2   force =    -0.00021764    0.00013673   -0.00024410
     atom   13 type  1   force =     0.00029985   -0.00008762    0.00054072
     atom   14 type  1   force =    -0.00004852    0.00049577    0.00046809
     atom   15 type  2   force =    -0.00000527    0.00032835    0.00003120
     atom   16 type  2   force =     0.00007588   -0.00020871   -0.00061541
     atom   17 type  2   force =     0.00017551    0.00006909    0.00001771
     atom   18 type  2   force =     0.00003774    0.00012363   -0.00005428
     atom   19 type  1   force =     0.00030643   -0.00030901    0.00009649
     atom   20 type  1   force =     0.00011227   -0.00041438   -0.00034088
     atom   21 type  2   force =     0.00005593    0.00005526    0.10011199
     atom   22 type  2   force =    -0.00009600    0.00056525   -0.00065055
     atom   23 type  2   force =    -0.07806533    0.00003410   -0.03199382
     atom   24 type  2   force =     0.07793235    0.00045256   -0.03199504
     atom   25 type  1   force =     0.00008786   -0.00039295    0.12058092
     atom   26 type  1   force =    -0.00011297   -0.00035138   -0.16266968
     atom   27 type  2   force =     0.00029551   -0.00046076   -0.06247960
     atom   28 type  2   force =    -0.00002821   -0.00027751    0.03028234
     atom   29 type  2   force =    -0.01724860    0.00115200   -0.00753573
     atom   30 type  2   force =     0.01852995    0.00141309   -0.00850729
     atom   31 type  1   force =     0.00072670   -0.00086180    0.01497250
     atom   32 type  1   force =    -0.00022830   -0.00735137    0.10670733
     atom   33 type  2   force =     0.00010993    0.00048150    0.00047884
     atom   34 type  2   force =    -0.00267991   -0.00007367   -0.07486653
     atom   35 type  2   force =     0.00063243   -0.00004406   -0.00000759
     atom   36 type  2   force =    -0.00047618    0.00023000   -0.00011998
     atom   37 type  1   force =    -0.00014494    0.00061656    0.00063063
     atom   38 type  1   force =    -0.00019201    0.00051903    0.00048042
     atom   39 type  2   force =    -0.00016666    0.00001069    0.00000695
     atom   40 type  2   force =     0.00015050    0.00004136   -0.00013329
     atom   41 type  2   force =    -0.00027016   -0.00041601    0.00049338
     atom   42 type  2   force =     0.00046550   -0.00014437   -0.00024575
     atom   43 type  1   force =    -0.00019854   -0.00040250    0.00009000
     atom   44 type  1   force =    -0.00005095    0.00016172   -0.00036196
     atom   45 type  2   force =     0.00004665    0.00004302    0.10013521
     atom   46 type  2   force =    -0.07806040    0.00009113   -0.03195842
     atom   47 type  2   force =     0.07793698    0.00053266   -0.03197158
     atom   48 type  3   force =     0.00145264   -0.00032237    0.00092934
     atom   49 type  4   force =     0.00009251   -0.00340174    0.00338317
     atom   50 type  5   force =     0.00065268    0.00164587   -0.00038583
     atom   51 type  5   force =    -0.00018026    0.00452248   -0.00278094
     atom   52 type  3   force =    -0.00113557   -0.00032573   -0.00005248

     Total force =     0.417681     Total SCF correction =     0.000607
  @ DRIVER MODE: Message from server: STATUS
  @ DRIVER MODE: Message from server: GETFORCE
  @ DRIVER MODE: Returning v,forces,stress,ensemble

     Writing output data file ./calc.save/
  @ DRIVER MODE: Message from server: EXIT
  @ DRIVE MODE: Exiting

     General routines

     Parallel routines

   This run was terminated on:   1:47:30  24Aug2021

   JOB DONE.