     Program PWSCF v.6.7GPU starts on 15Sep2021 at 17:42:37

     R & G space division:  proc/nbgrp/npool/nimage =      10
     Reading input from /storage/home/hcoda1/3/ntian30/research/carbon/CxH_vib/CH_calc/ads_slab/CHNHNH_b/out_0026/pw.inp
Warning: card &CELL ignored
Warning: card   CELL_DYNAMICS='IPI', ignored
Warning: card / ignored

     Current dimensions of program PWSCF are:
     Max number of different atomic species (ntypx) = 10
     Max number of k-points (npk) =  40000
     Max angular momentum in pseudopotentials (lmaxx) =  3
     Presently no symmetry can be used with electric field

     Message from routine cell_base_init:
     DEPRECATED: use true lattice parameter, not A to a.u. conversion factor

     IMPORTANT: XC functional enforced from input :
     Exchange-correlation= BEEF-VDW
                           (   1   4  43  14   2   0   0)
     Any further DFT definition will be discarded
     Please, verify this is what you really want

  @ DRIVER MODE: Connecting to
 qe_1139763_2850202.sched-torque.pace.gatech.edu2q0ccvzi_scratch
  using UNIX socket
  @ DRIVER MODE: Message from server: STATUS
  @ DRIVER MODE: Message from server: INIT
  @ DRIVER MODE: Receiving replica           0          -1
  @ DRIVER MODE: Receiving encoded integer          25
  @ DRIVER MODE:  SCF:  T  FORCE:  T  STRESS:  F  VC:  F  ENSEMBLE:  F
  @ DRIVER MODE:  SCF:  T  FORCE:  T  STRESS:  F  VC:  F  ENSEMBLE:  F

     Using Slab Decomposition

     bravais-lattice index     =            0
     lattice parameter (alat)  =       1.8897  a.u.
     unit-cell volume          =    6658.9804 (a.u.)^3
     number of atoms/cell      =           53
     number of atomic types    =            5
     number of electrons       =       395.00
     number of Kohn-Sham states=          207
     kinetic-energy cutoff     =      29.3995  Ry
     charge density cutoff     =     293.9946  Ry
     scf convergence threshold =      7.3E-08
     mixing beta               =       0.0500
     number of iterations used =            8  plain     mixing
     Exchange-correlation= BEEF-VDW
                           (   1   4  43  14   2   0   0)

     celldm(1)=   1.889726  celldm(2)=   0.000000  celldm(3)=   0.000000
     celldm(4)=   0.000000  celldm(5)=   0.000000  celldm(6)=   0.000000

     crystal axes: (cart. coord. in units of alat)
               a(1) = (   6.579727   0.000000   0.000000 )
               a(2) = (  -0.000775   5.961596   0.000000 )
               a(3) = (   0.000000   0.000000  25.155947 )

     reciprocal axes: (cart. coord. in units 2 pi/alat)
               b(1) = (  0.151982  0.000020  0.000000 )
               b(2) = (  0.000000  0.167740  0.000000 )
               b(3) = (  0.000000  0.000000  0.039752 )

     PseudoPot. # 1 for Ti read from file:
     /storage/coda1/p-amedford6/0/shared/rich_project_chbe-medford/medford-share/data/pseudos_module/espresso/nninc/pbe/van/Ti.UPF
     MD5 check sum: 8e4df49b7f0d34bbd5052bf3f5ea0213
     Pseudo is Ultrasoft, Zval = 12.0
     Generated by new atomic code, or converted to UPF format
     Using radial grid of  851 points,  6 beta functions with:
                l(1) =   0
                l(2) =   0
                l(3) =   1
                l(4) =   1
                l(5) =   2
                l(6) =   2
     Q(r) pseudized with  8 coefficients,  rinner =    1.000   1.000   1.000
                                                       1.000   1.000

     PseudoPot. # 2 for O  read from file:
     /storage/coda1/p-amedford6/0/shared/rich_project_chbe-medford/medford-share/data/pseudos_module/espresso/nninc/pbe/van/O.UPF
     MD5 check sum: 78c19812648e8988a0fe644b0f25305e
     Pseudo is Ultrasoft, Zval =  6.0
     Generated by new atomic code, or converted to UPF format
     Using radial grid of  737 points,  4 beta functions with:
                l(1) =   0
                l(2) =   0
                l(3) =   1
                l(4) =   1
     Q(r) pseudized with  8 coefficients,  rinner =    0.800   0.800   0.800

     PseudoPot. # 3 for N  read from file:
     /storage/coda1/p-amedford6/0/shared/rich_project_chbe-medford/medford-share/data/pseudos_module/espresso/nninc/pbe/van/N.UPF
     MD5 check sum: 90d10febe142ad51ac9d5be1deb811c4
     Pseudo is Ultrasoft, Zval =  5.0
     Generated by new atomic code, or converted to UPF format
     Using radial grid of  729 points,  4 beta functions with:
                l(1) =   0
                l(2) =   0
                l(3) =   1
                l(4) =   1
     Q(r) pseudized with  8 coefficients,  rinner =    0.800   0.800   0.800

     PseudoPot. # 4 for C  read from file:
     /storage/coda1/p-amedford6/0/shared/rich_project_chbe-medford/medford-share/data/pseudos_module/espresso/nninc/pbe/van/C.UPF
     MD5 check sum: 1a69bf6b8db32088f5b2163dbdb77a27
     Pseudo is Ultrasoft, Zval =  4.0
     Generated by new atomic code, or converted to UPF format
     Using radial grid of  721 points,  4 beta functions with:
                l(1) =   0
                l(2) =   0
                l(3) =   1
                l(4) =   1
     Q(r) pseudized with  8 coefficients,  rinner =    0.800   0.800   0.800

     PseudoPot. # 5 for H  read from file:
     /storage/coda1/p-amedford6/0/shared/rich_project_chbe-medford/medford-share/data/pseudos_module/espresso/nninc/pbe/van/H.UPF
     MD5 check sum: b5ee9d7bfd3a09ee7748110bda690ff7
     Pseudo is Ultrasoft, Zval =  1.0
     Generated by new atomic code, or converted to UPF format
     Using radial grid of  615 points,  1 beta functions with:
                l(1) =   0
     Q(r) pseudized with  8 coefficients,  rinner =    0.800

     atomic species   valence    mass     pseudopotential
        Ti1           12.00    47.86700     Ti( 1.00)
        O1             6.00    15.99900     O ( 1.00)
        N1             5.00    14.00700     N ( 1.00)
        C1             4.00    12.01100     C ( 1.00)
        H1             1.00     1.00800     H ( 1.00)

     No symmetry found

   Cartesian axes

     site n.     atom                  positions (alat units)
         1           Ti1 tau(   1) = (   0.0004258   2.9801865   6.0000000  )
         2           Ti1 tau(   2) = (   3.2906075   1.4906267   6.0002472  )
         3           O1  tau(   3) = (   0.0006271   0.0005054   7.9858123  )
         4           O1  tau(   4) = (   3.2906025   0.0005020   7.3038282  )
         5           O1  tau(   5) = (   4.5942328   1.4918067   9.2879030  )
         6           O1  tau(   6) = (   1.9868534   1.4903216   9.2879459  )
         7           Ti1 tau(   7) = (   3.2907910   2.8959150   9.1758416  )
         8           Ti1 tau(   8) = (   0.0015273   1.4827037   9.2680791  )
         9           O1  tau(   9) = (   3.2799393   5.9535521  11.3540639  )
        10           O1  tau(  10) = (   0.0116148   5.9584955  10.6183126  )
        11           O1  tau(  11) = (   1.2974255   1.4613897  12.6506698  )
        12           O1  tau(  12) = (   5.3017888   1.4901577  12.6050164  )
        13           Ti1 tau(  13) = (   6.5221663   3.0180504  12.5986966  )
        14           Ti1 tau(  14) = (   3.2221172   1.5532140  12.5512791  )
        15           O1  tau(  15) = (   6.4783894   5.9520290  14.6579590  )
        16           O1  tau(  16) = (   3.3696489   5.9508513  13.9183136  )
        17           O1  tau(  17) = (   4.5179258   1.5103438  16.1624884  )
        18           O1  tau(  18) = (   1.9802590   1.4047766  15.9099196  )
        19           Ti1 tau(  19) = (   3.2637731   3.0080032  15.8837983  )
        20           Ti1 tau(  20) = (   6.5766856   1.4756295  15.8014380  )
        21           O1  tau(  21) = (   3.2904802   0.0005063   4.7018136  )
        22           O1  tau(  22) = (   0.0065935   5.9492922  17.2122405  )
        23           O1  tau(  23) = (   1.3043587   1.4918075   6.0039043  )
        24           O1  tau(  24) = (   5.2767064   1.4903225   6.0039473  )
        25           Ti1 tau(  25) = (   0.0000382   5.9609847   6.0000000  )
        26           Ti1 tau(  26) = (   3.2902200   4.4714249   6.0002472  )
        27           O1  tau(  27) = (   0.0002396   2.9813036   7.9858123  )
        28           O1  tau(  28) = (   3.2902150   2.9813002   7.3038282  )
        29           O1  tau(  29) = (   4.5938453   4.4726049   9.2879030  )
        30           O1  tau(  30) = (   1.9864658   4.4711199   9.2879459  )
        31           Ti1 tau(  31) = (   3.2891106   5.8743827   9.1763621  )
        32           Ti1 tau(  32) = (   0.0006254   4.4649316   9.2693709  )
        33           O1  tau(  33) = (   3.2772596   2.9828089  11.3369495  )
        34           O1  tau(  34) = (   0.0092240   2.9805883  10.6323155  )
        35           O1  tau(  35) = (   1.2916203   4.4718874  12.6594431  )
        36           O1  tau(  36) = (   5.2999639   4.4615573  12.6129894  )
        37           Ti1 tau(  37) = (   6.5361528   0.0312684  12.5125129  )
        38           Ti1 tau(  38) = (   3.2177194   4.4831555  12.4956785  )
        39           O1  tau(  39) = (   6.5168025   2.9395006  14.7032746  )
        40           O1  tau(  40) = (   3.2870264   2.9515371  13.9313172  )
        41           O1  tau(  41) = (   4.5204763   4.4345026  16.1736457  )
        42           O1  tau(  42) = (   1.9972348   4.5331091  15.9467552  )
        43           Ti1 tau(  43) = (   3.2981618   0.0182476  15.6956140  )
        44           Ti1 tau(  44) = (   0.0010288   4.6427453  16.0560918  )
        45           O1  tau(  45) = (   3.2900926   2.9813045   4.7018136  )
        46           O1  tau(  46) = (   1.3039711   4.4726057   6.0039043  )
        47           O1  tau(  47) = (   5.2763189   4.4711207   6.0039473  )
        48           N1  tau(  48) = (   1.3052520   2.8252889  18.3786263  )
        49           N1  tau(  49) = (   0.2128110   2.9323531  17.5195281  )
        50           C1  tau(  50) = (   2.5582938   2.8657590  18.0399718  )
        51           H1  tau(  51) = (   3.1786551   2.7222395  18.9297303  )
        52           H1  tau(  52) = (   1.0317423   2.6491596  19.3433462  )
        53           H1  tau(  53) = (   5.9645394   2.8635341  18.1048464  )

     number of k points=    10  Fermi-Dirac smearing, width (Ry)=  0.0073
                       cart. coord. in units 2pi/alat
        k(    1) = (   0.0000000   0.0000000   0.0000000), wk =   0.1250000
        k(    2) = (   0.0000000   0.0419351   0.0000000), wk =   0.2500000
        k(    3) = (   0.0000000  -0.0838702   0.0000000), wk =   0.1250000
        k(    4) = (   0.0379955   0.0000049   0.0000000), wk =   0.2500000
        k(    5) = (   0.0379955   0.0419400   0.0000000), wk =   0.2500000
        k(    6) = (   0.0379955  -0.0838652   0.0000000), wk =   0.2500000
        k(    7) = (   0.0379955  -0.0419301   0.0000000), wk =   0.2500000
        k(    8) = (  -0.0759910  -0.0000099   0.0000000), wk =   0.1250000
        k(    9) = (  -0.0759910   0.0419252   0.0000000), wk =   0.2500000
        k(   10) = (  -0.0759910  -0.0838800   0.0000000), wk =   0.1250000

     Initial potential from superposition of free atoms

     starting charge  378.99916, renormalised to  395.00000

     negative rho (up, down):  1.761E-02 0.000E+00

     %%%%%%%%%%%%%%%%%%%%%%%%%%%%%%%%%%%%%%%%%%%%%%%%%%%%%%%%%%%%%%%%%%%%%%%%
     %                                                                      %
     % You are using vdW-DF, which was implemented by the Thonhauser group. %
     % Please cite the following two papers that made this development      %
     % possible and the two reviews that describe the various versions:     %
     %                                                                      %
     %   T. Thonhauser et al., PRL 115, 136402 (2015).                      %
     %   T. Thonhauser et al., PRB 76, 125112 (2007).                       %
     %   K. Berland et al., Rep. Prog. Phys. 78, 066501 (2015).             %
     %   D.C. Langreth et al., J. Phys.: Condens. Matter 21, 084203 (2009). %
     %                                                                      %
     %                                                                      %
     % If you are calculating the stress with vdW-DF, please also cite:     %
     %                                                                      %
     %   R. Sabatini et al., J. Phys.: Condens. Matter 24, 424209 (2012).   %
     %                                                                      %
     %%%%%%%%%%%%%%%%%%%%%%%%%%%%%%%%%%%%%%%%%%%%%%%%%%%%%%%%%%%%%%%%%%%%%%%%

     Adding external electric field

     Computed dipole along edir(3) :
        Dipole               -7.9500 Ry au,        -20.2069 Debye
        Dipole field         -0.0150 Ry au,

        Potential amp.        1.3907 Ry
        Total length         46.3494 bohr

     Starting wfcs are  299 atomic wfcs
  @ DRIVER MODE: Message from server: STATUS
  @ DRIVER MODE: Message from server: POSDATA
  @ DRIVER MODE: Reading and sharing cell
  @ DRIVER MODE: Reading and sharing positions
  @ DRIVER MODE: Received positions

     Self-consistent Calculation

     iteration #  1     ecut=    29.40 Ry     beta= 0.05
     Davidson diagonalization with overlap
     c_bands:  1 eigenvalues not converged
     c_bands:  2 eigenvalues not converged
     c_bands:  2 eigenvalues not converged
     c_bands:  3 eigenvalues not converged
     c_bands:  3 eigenvalues not converged
     c_bands:  1 eigenvalues not converged
     c_bands:  1 eigenvalues not converged
     ethr =  1.00E-05,  avg # of iterations = 19.2

[...]

     total energy              =   -2627.21334954 Ry
     estimated scf accuracy    <    3450.02925731 Ry

[...]

     iteration #  3     ecut=    29.40 Ry     beta= 0.05
     Davidson diagonalization with overlap
     ethr =  1.00E-02,  avg # of iterations = 14.4

[...]

     iteration # 59     ecut=    29.40 Ry     beta= 0.05
     Davidson diagonalization with overlap
     c_bands:  1 eigenvalues not converged
     ethr =  3.18E-09,  avg # of iterations = 12.0

[...]

     total energy              =   -2939.10949128 Ry
     estimated scf accuracy    <       0.00000009 Ry

     iteration # 68     ecut=    29.40 Ry     beta= 0.05
     Davidson diagonalization with overlap
     ethr =  2.38E-11,  avg # of iterations = 11.0

     negative rho (up, down):  1.781E-02 0.000E+00

     Adding external electric field

     Computed dipole along edir(3) :
        Dipole                1.3687 Ry au,          3.4790 Debye
        Dipole field          0.0026 Ry au,

        Potential amp.       -0.2394 Ry
        Total length         46.3494 bohr

     End of self-consistent calculation

          k = 0.0000 0.0000 0.0000 ( 18029 PWs)   bands (ev):

   -55.4841 -55.4501 -55.3910 -55.3457 -55.3337 -55.3251 -55.3019 -55.2951
   -55.2903 -55.2679 -55.2602 -55.2253 -55.1453 -54.9897 -54.4640 -54.4299
   -31.9681 -31.9189 -31.8318 -31.8051 -31.8018 -31.7762 -31.7496 -31.7288
   -31.7141 -31.6555 -31.6466 -31.6365 -31.6356 -31.6014 -31.5899 -31.5828
   -31.5668 -31.5637 -31.5490 -31.5414 -31.5072 -31.4962 -31.4956 -31.4935
   -31.4932 -31.4848 -31.4804 -31.4786 -31.4518 -31.4426 -31.4407 -31.4406
   -31.4334 -31.4260 -31.4142 -31.4087 -31.3915 -31.3724 -31.3692 -31.2428
   -31.2287 -31.1948 -30.8708 -30.7828 -30.7604 -30.6877 -30.6013 -30.4901
   -18.7522 -16.1641 -15.9627 -15.7765 -15.6463 -15.5925 -15.3580 -15.2538
   -15.2192 -15.1362 -15.0907 -15.0623 -15.0236 -15.0088 -14.9931 -14.9855
   -14.9271 -14.9083 -14.9021 -14.8716 -14.8530 -14.8292 -14.8161 -14.7263
   -14.6420 -14.6378 -14.6263 -14.6013 -14.5384 -14.1488 -13.5033 -12.9651
   -12.8486  -8.8917  -7.3713  -4.4466  -3.6744  -3.5321  -3.4233  -3.4068
    -3.3887  -3.2630  -3.1464  -2.8968  -2.8835  -2.7492  -2.6622  -2.6215
    -2.5488  -2.4746  -2.4398  -2.3815  -2.3165  -2.2938  -2.2763  -2.2429
    -2.2209  -2.2111  -2.1814  -2.0380  -2.0190  -1.9530  -1.8650  -1.8563
    -1.7989  -1.7936  -1.7727  -1.7421  -1.7391  -1.7323  -1.7116  -1.6912
    -1.6216  -1.5433  -1.4984  -1.4569  -1.3185  -1.1895  -1.1343  -1.0949
    -1.0306  -0.9555  -0.9208  -0.9063  -0.8914  -0.8753  -0.7261  -0.6795
    -0.6564  -0.6196  -0.5014  -0.4197  -0.3640  -0.3170  -0.2840  -0.2554
    -0.2349  -0.2223  -0.1861  -0.0673   0.0013   0.0484   0.0809   0.1566
     0.2132   0.2475   0.2594   0.3242   0.3604   0.3859   0.4355   0.4741
     0.4878   0.5107   0.5440   0.5617   0.6383   0.7508   0.7741   0.7767
     0.8172   1.0070   1.0717   1.1332   1.1740   1.2933   1.3239   1.4947
     1.5596   1.6359   1.7523   2.1299   2.1758   3.6299   3.7366   3.7731
     3.8130   3.8480   3.8945   4.0930   4.1392   4.1839   4.2765

[...]

          k = 0.0380-0.0419 0.0000 ( 17876 PWs)   bands (ev):

[...]

          k =-0.0760-0.0000 0.0000 ( 17886 PWs)   bands (ev):

[...]

          k =-0.0760-0.0839 0.0000 ( 17948 PWs)   bands (ev):

   -55.4674 -55.4667 -55.3823 -55.3539 -55.3233 -55.3123 -55.3057 -55.3030
   -55.2853 -55.2840 -55.2474 -55.2383 -55.1436 -54.9913 -54.4470 -54.4468
   -31.7836 -31.7831 -31.7618 -31.7614 -31.7613 -31.7310 -31.6676 -31.6639
   -31.6491 -31.6282 -31.6210 -31.6114 -31.6008 -31.6000 -31.5904 -31.5869
   -31.5863 -31.5796 -31.5793 -31.5773 -31.5611 -31.5584 -31.5453 -31.5329
   -31.5318 -31.5132 -31.5101 -31.5082 -31.4870 -31.4852 -31.4748 -31.4626
   -31.4601 -31.4579 -31.4563 -31.4550 -31.4405 -31.3855 -31.3735 -31.2882
   -31.2452 -31.2322 -30.7732 -30.7730 -30.6838 -30.6835 -30.6446 -30.6445
   -18.7485 -15.5993 -15.5038 -15.4872 -15.4126 -15.3888 -15.2884 -15.2520
   -15.2119 -15.1878 -15.1810 -15.1486 -15.0996 -15.0855 -15.0464 -15.0352
   -15.0098 -14.9755 -14.9658 -14.9291 -14.9262 -14.9193 -14.8826 -14.8223
   -14.8056 -14.7979 -14.7958 -14.7156 -14.6091 -14.3540 -13.5229 -12.9505
   -12.9503  -8.8827  -7.2900  -4.5775  -3.6511  -2.8496  -2.7850  -2.7680
    -2.6716  -2.5927  -2.5273  -2.4855  -2.4600  -2.4032  -2.3944  -2.3400
    -2.3311  -2.3052  -2.2905  -2.2772  -2.2432  -2.2263  -2.2239  -2.1896
    -2.1829  -2.1593  -2.1328  -2.1105  -2.0994  -2.0836  -2.0683  -2.0438
    -2.0309  -1.9990  -1.9570  -1.8254  -1.7090  -1.6601  -1.6297  -1.6092
    -1.5863  -1.5556  -1.5383  -1.5267  -1.4937  -1.4514  -1.3104  -1.1725
    -1.1506  -1.0614  -1.0137  -0.9919  -0.9542  -0.8994  -0.8769  -0.8736
    -0.8159  -0.7907  -0.7055  -0.6568  -0.6163  -0.5900  -0.4586  -0.4506
    -0.4462  -0.4309  -0.3997  -0.3804  -0.3269  -0.2473  -0.2158  -0.2098
    -0.1641  -0.1618  -0.1496  -0.0082   0.0571   0.1013   0.1930   0.2406
     0.3891   0.5430   0.5675   0.6023   0.6934   0.7487   0.7904   0.8280
     0.8445   0.8966   0.9623   1.0302   1.0425   1.0963   1.1187   1.1979
     1.2358   1.9239   1.9248   1.9955   1.9958   3.9954   4.0024   4.0177
     4.0873   4.1486   4.1553   4.1882   4.1894   4.2940   4.3289

     the Fermi energy is     3.6445 ev

!    total energy              =   -2939.10951328 Ry
     estimated scf accuracy    <       0.00000006 Ry
     smearing contrib. (-TS)   =      -0.02093219 Ry
     internal energy E=F+TS    =   -2939.08858110 Ry

     The total energy is F=E-TS. E is the sum of the following terms:
     one-electron contribution =  -24577.76523907 Ry
     hartree contribution      =   12380.46573724 Ry
     xc contribution           =    -485.20850157 Ry
     ewald contribution        =    9743.41588691 Ry
     electric field correction =       0.00353539 Ry

     convergence has been achieved in  68 iterations

     Forces acting on atoms (cartesian axes, Ry/au):

     atom    1 type  1   force =     0.00005446   -0.00021566    0.09562499
     atom    2 type  1   force =    -0.00001504   -0.00052721   -0.17549294
     atom    3 type  2   force =     0.00008820   -0.00008905   -0.02326699
     atom    4 type  2   force =    -0.00003329   -0.00149058    0.05265395
     atom    5 type  2   force =    -0.01056952   -0.00050179    0.00373251
     atom    6 type  2   force =     0.01175759   -0.00007261    0.00225698
     atom    7 type  1   force =    -0.00002964   -0.00027783   -0.00805852
     atom    8 type  1   force =     0.00049960    0.01257985    0.01817212
     atom    9 type  2   force =    -0.00031694    0.00005019    0.00009084
     atom   10 type  2   force =    -0.00242456    0.00020285   -0.01641710
     atom   11 type  2   force =    -0.00029288    0.00019665    0.00002215
     atom   12 type  2   force =    -0.00045427   -0.00014377   -0.00012412
     atom   13 type  1   force =     0.00022156   -0.00008205    0.00003287
     atom   14 type  1   force =     0.00033097    0.00004530   -0.00005441
     atom   15 type  2   force =     0.00014658    0.00029335    0.00002892
     atom   16 type  2   force =    -0.00015996   -0.00020176    0.00019321
     atom   17 type  2   force =    -0.00005922   -0.00024587   -0.00034338
     atom   18 type  2   force =    -0.00000422   -0.00005645   -0.00035971
     atom   19 type  1   force =     0.00019393   -0.00000770   -0.00072370
     atom   20 type  1   force =     0.00020663    0.00012769   -0.00018982
     atom   21 type  2   force =     0.00005565   -0.00006221    0.10317256
     atom   22 type  2   force =     0.00003691    0.00001341    0.00000577
     atom   23 type  2   force =    -0.07159404   -0.00016706   -0.02755374
     atom   24 type  2   force =     0.07152144    0.00027454   -0.02760850
     atom   25 type  1   force =     0.00017216   -0.00026248    0.09533750
     atom   26 type  1   force =     0.00004926   -0.00029912   -0.17588397
     atom   27 type  2   force =     0.00008951   -0.00019638   -0.02224393
     atom   28 type  2   force =    -0.00001616   -0.00114564    0.05313338
     atom   29 type  2   force =    -0.01039733   -0.00021300    0.00333166
     atom   30 type  2   force =     0.01139330    0.00019887    0.00190487
     atom   31 type  1   force =    -0.00013746    0.00482267   -0.00022939
     atom   32 type  1   force =     0.00058815   -0.01318234    0.01870387
     atom   33 type  2   force =    -0.00015428    0.00013485   -0.00007080
     atom   34 type  2   force =    -0.00059815    0.00043097   -0.01723858
     atom   35 type  2   force =    -0.00036054   -0.00014986    0.00014764
     atom   36 type  2   force =    -0.00020511   -0.00033756    0.00020887
     atom   37 type  1   force =     0.00033823   -0.00016632    0.00006265
     atom   38 type  1   force =     0.00015944    0.00020957    0.00018707
     atom   39 type  2   force =    -0.00030811   -0.00006850   -0.00028044
     atom   40 type  2   force =    -0.00012633   -0.00010633    0.00042903
     atom   41 type  2   force =    -0.00000808    0.00007354    0.00005901
     atom   42 type  2   force =     0.00035400   -0.00002796    0.00009294
     atom   43 type  1   force =    -0.00013550    0.00016903    0.00011746
     atom   44 type  1   force =     0.00045072    0.00019062    0.00003283
     atom   45 type  2   force =     0.00006803   -0.00009504    0.10318779
     atom   46 type  2   force =    -0.07164992   -0.00010796   -0.02759625
     atom   47 type  2   force =     0.07153750    0.00027528   -0.02763788
     atom   48 type  3   force =    -0.00005710    0.00000565   -0.00019004
     atom   49 type  3   force =     0.00107468    0.00023330   -0.00116299
     atom   50 type  4   force =    -0.00059245   -0.00022932   -0.00015546
     atom   51 type  5   force =     0.00015224   -0.00007615    0.00032019
     atom   52 type  5   force =    -0.00032575    0.00122639   -0.00051280
     atom   53 type  5   force =    -0.00051486   -0.00094897    0.00015179

     Total force =     0.365567     Total SCF correction =     0.000587
  @ DRIVER MODE: Message from server: STATUS
  @ DRIVER MODE: Message from server: GETFORCE
  @ DRIVER MODE: Returning v,forces,stress,ensemble

     Writing output data file ./calc.save/
  @ DRIVER MODE: Message from server: EXIT
  @ DRIVE MODE: Exiting

     General routines

     Parallel routines

   This run was terminated on:  18:57:45  15Sep2021

   JOB DONE.