     Program PWSCF v.6.7GPU starts on 23Aug2021 at 23: 0:20

     R & G space division:  proc/nbgrp/npool/nimage =       6
     Reading input from /storage/home/hcoda1/3/ntian30/research/carbon/CH_vib/ads_slab/CHNHH_a/out_0021/pw.inp
Warning: card &CELL ignored
Warning: card   CELL_DYNAMICS='IPI', ignored
Warning: card / ignored

     Current dimensions of program PWSCF are:
     Max number of different atomic species (ntypx) = 10
     Max number of k-points (npk) =  40000
     Max angular momentum in pseudopotentials (lmaxx) =  3
     Presently no symmetry can be used with electric field

     Message from routine cell_base_init:
     DEPRECATED: use true lattice parameter, not A to a.u. conversion factor

     IMPORTANT: XC functional enforced from input :
     Exchange-correlation= BEEF-VDW
                           (   1   4  43  14   2   0   0)
     Any further DFT definition will be discarded
     Please, verify this is what you really want

  @ DRIVER MODE: Connecting to
 qe_1139763_2632797.sched-torque.pace.gatech.edufxy_y9gs_scratch
  using UNIX socket
  @ DRIVER MODE: Message from server: STATUS
  @ DRIVER MODE: Message from server: INIT
  @ DRIVER MODE: Receiving replica           0          -1
  @ DRIVER MODE: Receiving encoded integer          25
  @ DRIVER MODE:  SCF:  T  FORCE:  T  STRESS:  F  VC:  F  ENSEMBLE:  F
  @ DRIVER MODE:  SCF:  T  FORCE:  T  STRESS:  F  VC:  F  ENSEMBLE:  F

     Using Slab Decomposition

     bravais-lattice index     =            0
     lattice parameter (alat)  =       1.8897  a.u.
     unit-cell volume          =    6658.9804 (a.u.)^3
     number of atoms/cell      =           52
     number of atomic types    =            5
     number of electrons       =       390.00
     number of Kohn-Sham states=          205
     kinetic-energy cutoff     =      29.3995  Ry
     charge density cutoff     =     293.9946  Ry
     scf convergence threshold =      7.3E-08
     mixing beta               =       0.0500
     number of iterations used =            8  plain     mixing
     Exchange-correlation= BEEF-VDW
                           (   1   4  43  14   2   0   0)

     celldm(1)=   1.889726  celldm(2)=   0.000000  celldm(3)=   0.000000
     celldm(4)=   0.000000  celldm(5)=   0.000000  celldm(6)=   0.000000

     crystal axes: (cart. coord. in units of alat)
               a(1) = (   6.579727   0.000000   0.000000 )
               a(2) = (  -0.000775   5.961596   0.000000 )
               a(3) = (   0.000000   0.000000  25.155947 )

     reciprocal axes: (cart. coord. in units 2 pi/alat)
               b(1) = (  0.151982  0.000020  0.000000 )
               b(2) = (  0.000000  0.167740  0.000000 )
               b(3) = (  0.000000  0.000000  0.039752 )

     PseudoPot. # 1 for Ti read from file:
     /storage/coda1/p-amedford6/0/shared/rich_project_chbe-medford/medford-share/data/pseudos_module/espresso/nninc/pbe/van/Ti.UPF
     MD5 check sum: 8e4df49b7f0d34bbd5052bf3f5ea0213
     Pseudo is Ultrasoft, Zval = 12.0
     Generated by new atomic code, or converted to UPF format
     Using radial grid of  851 points,  6 beta functions with:
                l(1) =   0
                l(2) =   0
                l(3) =   1
                l(4) =   1
                l(5) =   2
                l(6) =   2
     Q(r) pseudized with  8 coefficients,  rinner =    1.000   1.000   1.000
                                                       1.000   1.000

     PseudoPot. # 2 for O  read from file:
     /storage/coda1/p-amedford6/0/shared/rich_project_chbe-medford/medford-share/data/pseudos_module/espresso/nninc/pbe/van/O.UPF
     MD5 check sum: 78c19812648e8988a0fe644b0f25305e
     Pseudo is Ultrasoft, Zval =  6.0
     Generated by new atomic code, or converted to UPF format
     Using radial grid of  737 points,  4 beta functions with:
                l(1) =   0
                l(2) =   0
                l(3) =   1
                l(4) =   1
     Q(r) pseudized with  8 coefficients,  rinner =    0.800   0.800   0.800

     PseudoPot. # 3 for N  read from file:
     /storage/coda1/p-amedford6/0/shared/rich_project_chbe-medford/medford-share/data/pseudos_module/espresso/nninc/pbe/van/N.UPF
     MD5 check sum: 90d10febe142ad51ac9d5be1deb811c4
     Pseudo is Ultrasoft, Zval =  5.0
     Generated by new atomic code, or converted to UPF format
     Using radial grid of  729 points,  4 beta functions with:
                l(1) =   0
                l(2) =   0
                l(3) =   1
                l(4) =   1
     Q(r) pseudized with  8 coefficients,  rinner =    0.800   0.800   0.800

     PseudoPot. # 4 for C  read from file:
     /storage/coda1/p-amedford6/0/shared/rich_project_chbe-medford/medford-share/data/pseudos_module/espresso/nninc/pbe/van/C.UPF
     MD5 check sum: 1a69bf6b8db32088f5b2163dbdb77a27
     Pseudo is Ultrasoft, Zval =  4.0
     Generated by new atomic code, or converted to UPF format
     Using radial grid of  721 points,  4 beta functions with:
                l(1) =   0
                l(2) =   0
                l(3) =   1
                l(4) =   1
     Q(r) pseudized with  8 coefficients,  rinner =    0.800   0.800   0.800

     PseudoPot. # 5 for H  read from file:
     /storage/coda1/p-amedford6/0/shared/rich_project_chbe-medford/medford-share/data/pseudos_module/espresso/nninc/pbe/van/H.UPF
     MD5 check sum: b5ee9d7bfd3a09ee7748110bda690ff7
     Pseudo is Ultrasoft, Zval =  1.0
     Generated by new atomic code, or converted to UPF format
     Using radial grid of  615 points,  1 beta functions with:
                l(1) =   0
     Q(r) pseudized with  8 coefficients,  rinner =    0.800

     atomic species   valence    mass     pseudopotential
        Ti1           12.00    47.86700     Ti( 1.00)
        O1             6.00    15.99900     O ( 1.00)
        N1             5.00    14.00700     N ( 1.00)
        C1             4.00    12.01100     C ( 1.00)
        H1             1.00     1.00800     H ( 1.00)

     No symmetry found

   Cartesian axes

     site n.     atom                  positions (alat units)
         1           Ti1 tau(   1) = (   0.0004258   2.9801865   6.0000000  )
         2           Ti1 tau(   2) = (   3.2906075   1.4906267   6.0002472  )
         3           O1  tau(   3) = (   0.0006271   0.0005054   7.9858123  )
         4           O1  tau(   4) = (   3.2906025   0.0005020   7.3038282  )
         5           O1  tau(   5) = (   4.5942328   1.4918067   9.2879030  )
         6           O1  tau(   6) = (   1.9868534   1.4903216   9.2879459  )
         7           Ti1 tau(   7) = (   3.2907910   2.8959150   9.1758416  )
         8           Ti1 tau(   8) = (   0.0015273   1.4827037   9.2680791  )
         9           O1  tau(   9) = (   3.2768318   5.9518058  11.3501096  )
        10           O1  tau(  10) = (   0.0116148   5.9584955  10.6183126  )
        11           O1  tau(  11) = (   1.2820894   1.4890407  12.6429483  )
        12           O1  tau(  12) = (   5.2701592   1.4861355  12.6244956  )
        13           Ti1 tau(  13) = (   0.0263608   2.9732685  12.5725065  )
        14           Ti1 tau(  14) = (   3.3311081   1.4825583  12.4934812  )
        15           O1  tau(  15) = (   6.5448050   0.0382128  14.6485099  )
        16           O1  tau(  16) = (   3.2835306   5.9556129  13.9684075  )
        17           O1  tau(  17) = (   4.5065730   1.5084740  16.1486978  )
        18           O1  tau(  18) = (   2.0110176   1.4968469  16.1316129  )
        19           Ti1 tau(  19) = (   3.2365874   2.9692752  15.7101938  )
        20           Ti1 tau(  20) = (   6.5183500   1.5288441  15.9766389  )
        21           O1  tau(  21) = (   3.2904802   0.0005063   4.7018136  )
        22           O1  tau(  22) = (   6.5552815   5.8936090  17.2115513  )
        23           O1  tau(  23) = (   1.3043587   1.4918075   6.0039043  )
        24           O1  tau(  24) = (   5.2767064   1.4903225   6.0039473  )
        25           Ti1 tau(  25) = (   0.0000382   5.9609847   6.0000000  )
        26           Ti1 tau(  26) = (   3.2902200   4.4714249   6.0002472  )
        27           O1  tau(  27) = (   0.0002396   2.9813036   7.9858123  )
        28           O1  tau(  28) = (   3.2902150   2.9813002   7.3038282  )
        29           O1  tau(  29) = (   4.5938453   4.4726049   9.2879030  )
        30           O1  tau(  30) = (   1.9864658   4.4711199   9.2879459  )
        31           Ti1 tau(  31) = (   3.2891106   5.8743827   9.1763621  )
        32           Ti1 tau(  32) = (   0.0006254   4.4649316   9.2693709  )
        33           O1  tau(  33) = (   3.2825058   2.9767457  11.3441782  )
        34           O1  tau(  34) = (   0.0092240   2.9805883  10.6323155  )
        35           O1  tau(  35) = (   1.2778777   4.4660374  12.6604661  )
        36           O1  tau(  36) = (   5.2710664   4.4675109  12.6369154  )
        37           Ti1 tau(  37) = (   0.0243246   5.9574881  12.5203091  )
        38           Ti1 tau(  38) = (   3.3318591   4.4611298  12.5006215  )
        39           O1  tau(  39) = (   6.5359656   2.9584677  14.7835642  )
        40           O1  tau(  40) = (   3.2771955   2.9708399  13.9242642  )
        41           O1  tau(  41) = (   4.4981441   4.4410618  16.1740548  )
        42           O1  tau(  42) = (   2.0042129   4.4512231  16.1075086  )
        43           Ti1 tau(  43) = (   3.2538698   5.9555144  15.7617387  )
        44           Ti1 tau(  44) = (   6.5531130   4.6830099  15.9084494  )
        45           O1  tau(  45) = (   3.2900926   2.9813045   4.7018136  )
        46           O1  tau(  46) = (   1.3039711   4.4726057   6.0039043  )
        47           O1  tau(  47) = (   5.2763189   4.4711207   6.0039473  )
        48           N1  tau(  48) = (   5.6690603   3.2568973  18.6585782  )
        49           C1  tau(  49) = (   0.0091554   2.6844975  17.9068455  )
        50           H1  tau(  50) = (   0.8805123   2.3964943  18.5001670  )
        51           H1  tau(  51) = (   4.8619660   3.6773350  18.2178346  )
        52           H1  tau(  52) = (   5.8095507   3.4768026  19.6356901  )

     number of k points=    10  Fermi-Dirac smearing, width (Ry)=  0.0073
                       cart. coord. in units 2pi/alat
        k(    1) = (   0.0000000   0.0000000   0.0000000), wk =   0.1250000
        k(    2) = (   0.0000000   0.0419351   0.0000000), wk =   0.2500000
        k(    3) = (   0.0000000  -0.0838702   0.0000000), wk =   0.1250000
        k(    4) = (   0.0379955   0.0000049   0.0000000), wk =   0.2500000
        k(    5) = (   0.0379955   0.0419400   0.0000000), wk =   0.2500000
        k(    6) = (   0.0379955  -0.0838652   0.0000000), wk =   0.2500000
        k(    7) = (   0.0379955  -0.0419301   0.0000000), wk =   0.2500000
        k(    8) = (  -0.0759910  -0.0000099   0.0000000), wk =   0.1250000
        k(    9) = (  -0.0759910   0.0419252   0.0000000), wk =   0.2500000
        k(   10) = (  -0.0759910  -0.0838800   0.0000000), wk =   0.1250000

     Initial potential from superposition of free atoms

     starting charge  373.99917, renormalised to  390.00000

     negative rho (up, down):  1.782E-02 0.000E+00

     %%%%%%%%%%%%%%%%%%%%%%%%%%%%%%%%%%%%%%%%%%%%%%%%%%%%%%%%%%%%%%%%%%%%%%%%
     %                                                                      %
     % You are using vdW-DF, which was implemented by the Thonhauser group. %
     % Please cite the following two papers that made this development      %
     % possible and the two reviews that describe the various versions:     %
     %                                                                      %
     %   T. Thonhauser et al., PRL 115, 136402 (2015).                      %
     %   T. Thonhauser et al., PRB 76, 125112 (2007).                       %
     %   K. Berland et al., Rep. Prog. Phys. 78, 066501 (2015).             %
     %   D.C. Langreth et al., J. Phys.: Condens. Matter 21, 084203 (2009). %
     %                                                                      %
     %                                                                      %
     % If you are calculating the stress with vdW-DF, please also cite:     %
     %                                                                      %
     %   R. Sabatini et al., J. Phys.: Condens. Matter 24, 424209 (2012).   %
     %                                                                      %
     %%%%%%%%%%%%%%%%%%%%%%%%%%%%%%%%%%%%%%%%%%%%%%%%%%%%%%%%%%%%%%%%%%%%%%%%

     Adding external electric field

     Computed dipole along edir(3) :
        Dipole               -5.8555 Ry au,        -14.8831 Debye
        Dipole field         -0.0111 Ry au,

        Potential amp.        1.0243 Ry
        Total length         46.3494 bohr

     Starting wfcs are  295 atomic wfcs
  @ DRIVER MODE: Message from server: STATUS
  @ DRIVER MODE: Message from server: POSDATA
  @ DRIVER MODE: Reading and sharing cell
  @ DRIVER MODE: Reading and sharing positions
  @ DRIVER MODE: Received positions

     Self-consistent Calculation

     iteration #  1     ecut=    29.40 Ry     beta= 0.05
     Davidson diagonalization with overlap
     c_bands:  4 eigenvalues not converged
     c_bands:  1 eigenvalues not converged
     c_bands:  2 eigenvalues not converged
     c_bands:  3 eigenvalues not converged
     c_bands:  3 eigenvalues not converged
     c_bands:  3 eigenvalues not converged
     c_bands:  3 eigenvalues not converged
     c_bands:  3 eigenvalues not converged
     c_bands:  4 eigenvalues not converged
     c_bands:  5 eigenvalues not converged
     ethr =  1.00E-05,  avg # of iterations = 20.0

[...]

     total energy              =   -2777.33197332 Ry
     estimated scf accuracy    <    1560.45890183 Ry

     iteration #  2     ecut=    29.40 Ry     beta= 0.05
     Davidson diagonalization with overlap
     ethr =  1.00E-02,  avg # of iterations = 18.1

[...]

     iteration # 58     ecut=    29.40 Ry     beta= 0.05
     Davidson diagonalization with overlap
     c_bands:  1 eigenvalues not converged
     ethr =  4.63E-07,  avg # of iterations = 16.1

[...]

     total energy              =   -2919.04286184 Ry
     estimated scf accuracy    <       0.00000009 Ry

     iteration # 77     ecut=    29.40 Ry     beta= 0.05
     Davidson diagonalization with overlap
     ethr =  2.43E-11,  avg # of iterations =  7.2

     negative rho (up, down):  1.802E-02 0.000E+00

     Adding external electric field

     Computed dipole along edir(3) :
        Dipole                1.3819 Ry au,          3.5125 Debye
        Dipole field          0.0026 Ry au,

        Potential amp.       -0.2417 Ry
        Total length         46.3494 bohr

     End of self-consistent calculation

          k = 0.0000 0.0000 0.0000 ( 18029 PWs)   bands (ev):

   -55.5087 -55.4834 -55.4724 -55.4493 -55.4226 -55.3777 -55.3358 -55.3274
   -55.3085 -55.3015 -55.2720 -55.2701 -55.0526 -54.9447 -54.4869 -54.4529
   -32.0757 -31.9710 -31.8693 -31.8471 -31.8369 -31.8040 -31.7962 -31.7739
   -31.7636 -31.7272 -31.7233 -31.7184 -31.6852 -31.6601 -31.6504 -31.6479
   -31.6363 -31.6116 -31.6011 -31.5927 -31.5792 -31.5665 -31.5408 -31.5368
   -31.5357 -31.5160 -31.5133 -31.5087 -31.5074 -31.4983 -31.4842 -31.4688
   -31.4577 -31.4574 -31.4344 -31.4233 -31.4077 -31.3558 -31.2886 -31.1900
   -31.1793 -31.0910 -30.8952 -30.8041 -30.7818 -30.7119 -30.6252 -30.5141
   -17.0384 -16.3078 -16.0239 -15.8593 -15.7165 -15.6857 -15.5750 -15.4001
   -15.3214 -15.2470 -15.2276 -15.1479 -15.1311 -15.1162 -15.0966 -15.0380
   -15.0303 -14.9850 -14.9801 -14.9445 -14.9260 -14.8943 -14.8767 -14.8693
   -14.8136 -14.7745 -14.7110 -14.6448 -14.5896 -14.1173 -12.9894 -12.8725
    -9.4611  -7.2471  -4.6108  -3.6652  -3.4957  -3.4150  -3.4057  -3.3844
    -3.1954  -3.1188  -2.8432  -2.7498  -2.7147  -2.7087  -2.6819  -2.6211
    -2.5516  -2.4506  -2.3788  -2.3496  -2.3295  -2.3226  -2.3116  -2.2961
    -2.2860  -2.2548  -2.1808  -2.1236  -2.0512  -1.9695  -1.8945  -1.8787
    -1.8183  -1.7905  -1.7755  -1.7693  -1.7622  -1.7364  -1.7316  -1.6402
    -1.5497  -1.5111  -1.4110  -1.3886  -1.2934  -1.1584  -1.1307  -1.0264
    -1.0194  -0.9635  -0.9386  -0.8952  -0.8455  -0.8372  -0.8187  -0.6761
    -0.6088  -0.5478  -0.4895  -0.4624  -0.4441  -0.3586  -0.2901  -0.2832
    -0.2660  -0.2437  -0.0688  -0.0375  -0.0173   0.0054   0.0201   0.1095
     0.1412   0.2164   0.2962   0.3105   0.3156   0.3934   0.4166   0.4595
     0.4619   0.4893   0.4947   0.6658   0.6763   0.7027   0.7340   0.8142
     0.8977   1.1029   1.1253   1.1677   1.4509   1.5176   1.5355   1.7232
     2.1091   2.1560   3.5817   3.6866   3.7189   3.7346   3.7627   3.8327
     3.8985   4.0775   4.0845   4.1154   4.1213

[...]

          k = 0.0380-0.0419 0.0000 ( 17876 PWs)   bands (ev):

[...]

          k =-0.0760-0.0000 0.0000 ( 17886 PWs)   bands (ev):

[...]

          k =-0.0760-0.0839 0.0000 ( 17948 PWs)   bands (ev):

   -55.4930 -55.4880 -55.4667 -55.4659 -55.4194 -55.3688 -55.3447 -55.3305
   -55.2898 -55.2882 -55.2878 -55.2861 -55.0498 -54.9475 -54.4699 -54.4698
   -31.8811 -31.8771 -31.8116 -31.7866 -31.7858 -31.7746 -31.7597 -31.7588
   -31.7193 -31.7140 -31.7122 -31.7051 -31.6758 -31.6389 -31.6300 -31.6258
   -31.6254 -31.6229 -31.6186 -31.6172 -31.6071 -31.5865 -31.5857 -31.5731
   -31.5697 -31.5591 -31.5468 -31.5305 -31.5230 -31.5206 -31.5044 -31.5037
   -31.5032 -31.5020 -31.4767 -31.4665 -31.4628 -31.3603 -31.2840 -31.2085
   -31.1823 -31.1751 -30.7945 -30.7944 -30.7078 -30.7077 -30.6686 -30.6686
   -17.0334 -15.7655 -15.7037 -15.5678 -15.4870 -15.4649 -15.4534 -15.4293
   -15.2904 -15.2754 -15.2567 -15.2072 -15.2035 -15.2010 -15.1608 -15.1048
   -15.0716 -15.0690 -15.0605 -15.0341 -14.9995 -14.9942 -14.9601 -14.9515
   -14.9379 -14.8483 -14.8431 -14.8408 -14.6679 -14.3412 -12.9742 -12.9741
    -9.4659  -7.2485  -4.5921  -3.0485  -2.9749  -2.8145  -2.7124  -2.6825
    -2.6507  -2.5075  -2.4722  -2.4625  -2.4491  -2.4129  -2.3990  -2.3825
    -2.3531  -2.3389  -2.3346  -2.3160  -2.3052  -2.2930  -2.2487  -2.2074
    -2.2042  -2.1959  -2.1655  -2.1451  -2.1327  -2.1039  -2.0845  -2.0687
    -2.0548  -2.0064  -1.8327  -1.8016  -1.7014  -1.6810  -1.6719  -1.6501
    -1.5836  -1.5565  -1.5243  -1.4848  -1.4329  -1.3109  -1.2445  -1.2235
    -1.1936  -1.1839  -1.1319  -1.0104  -0.9744  -0.9516  -0.9051  -0.8685
    -0.8244  -0.8137  -0.6940  -0.6886  -0.6430  -0.6002  -0.4870  -0.4701
    -0.4608  -0.4483  -0.4340  -0.3050  -0.2955  -0.2888  -0.2713  -0.2276
    -0.2103  -0.1047  -0.0057   0.0095   0.1119   0.1633   0.2892   0.3535
     0.4488   0.4947   0.5188   0.6090   0.6447   0.7268   0.7498   0.8032
     0.8148   0.9112   0.9655   0.9836   0.9916   1.0595   1.8956   1.8964
     1.9760   1.9761   3.7421   3.8378   3.8763   3.8982   3.9441   4.1027
     4.1184   4.1660   4.1689   4.1841   4.2651

     the Fermi energy is     3.6394 ev

!    total energy              =   -2919.04286921 Ry
     estimated scf accuracy    <       0.00000006 Ry
     smearing contrib. (-TS)   =      -0.03610916 Ry
     internal energy E=F+TS    =   -2919.00676005 Ry

     The total energy is F=E-TS. E is the sum of the following terms:
     one-electron contribution =  -24479.30684249 Ry
     hartree contribution      =   12327.82712444 Ry
     xc contribution           =    -480.00251429 Ry
     ewald contribution        =    9712.47186832 Ry
     electric field correction =       0.00360397 Ry

     convergence has been achieved in  77 iterations

     Forces acting on atoms (cartesian axes, Ry/au):

     atom    1 type  1   force =     0.00008826   -0.00020744    0.09491215
     atom    2 type  1   force =    -0.00022963   -0.00036067   -0.17679027
     atom    3 type  2   force =    -0.00004764   -0.00006610   -0.02290308
     atom    4 type  2   force =    -0.00004063   -0.00167821    0.05579546
     atom    5 type  2   force =    -0.01134887   -0.00123027    0.00626656
     atom    6 type  2   force =     0.01252857   -0.00034839    0.00443062
     atom    7 type  1   force =    -0.00113996    0.00151988   -0.01375334
     atom    8 type  1   force =     0.00062837    0.00695097    0.01266614
     atom    9 type  2   force =     0.00020338   -0.00005015    0.00012791
     atom   10 type  2   force =    -0.00163961    0.00010260   -0.00997567
     atom   11 type  2   force =    -0.00020772    0.00002785    0.00014977
     atom   12 type  2   force =     0.00023779    0.00011130   -0.00007446
     atom   13 type  1   force =     0.00006986   -0.00001000    0.00034210
     atom   14 type  1   force =     0.00000955   -0.00015380    0.00021818
     atom   15 type  2   force =     0.00003192   -0.00000367   -0.00002918
     atom   16 type  2   force =     0.00025542    0.00029373   -0.00002315
     atom   17 type  2   force =    -0.00008100   -0.00015450    0.00028191
     atom   18 type  2   force =     0.00034332    0.00010463    0.00014889
     atom   19 type  1   force =     0.00038104    0.00009262   -0.00025396
     atom   20 type  1   force =     0.00020148   -0.00005959    0.00023997
     atom   21 type  2   force =     0.00004653   -0.00004342    0.10360977
     atom   22 type  2   force =     0.00007327    0.00008420    0.00015572
     atom   23 type  2   force =    -0.07098317   -0.00016647   -0.02732924
     atom   24 type  2   force =     0.07083789    0.00031569   -0.02734025
     atom   25 type  1   force =    -0.00013123   -0.00020166    0.09461786
     atom   26 type  1   force =    -0.00019616   -0.00046949   -0.17694464
     atom   27 type  2   force =     0.00006582   -0.00035441   -0.02192751
     atom   28 type  2   force =     0.00004008   -0.00138961    0.05534634
     atom   29 type  2   force =    -0.01157329   -0.00009037    0.00587642
     atom   30 type  2   force =     0.01264388    0.00013150    0.00409423
     atom   31 type  1   force =    -0.00125264    0.00416732   -0.01462602
     atom   32 type  1   force =     0.00055583   -0.00777527    0.01252357
     atom   33 type  2   force =    -0.00001307    0.00009194    0.00004058
     atom   34 type  2   force =    -0.00127339    0.00082996   -0.00837948
     atom   35 type  2   force =     0.00011931    0.00020184   -0.00001786
     atom   36 type  2   force =     0.00011688    0.00004378    0.00017375
     atom   37 type  1   force =     0.00003183   -0.00000078    0.00002914
     atom   38 type  1   force =    -0.00003113   -0.00015918   -0.00014530
     atom   39 type  2   force =    -0.00016815   -0.00019280   -0.00009078
     atom   40 type  2   force =     0.00023097   -0.00003519   -0.00017677
     atom   41 type  2   force =     0.00021464   -0.00014863    0.00002536
     atom   42 type  2   force =    -0.00011534    0.00009958   -0.00038995
     atom   43 type  1   force =    -0.00020334   -0.00008513    0.00019075
     atom   44 type  1   force =     0.00035018   -0.00003755    0.00018098
     atom   45 type  2   force =     0.00003522   -0.00004882    0.10357994
     atom   46 type  2   force =    -0.07098587   -0.00007034   -0.02732017
     atom   47 type  2   force =     0.07084708    0.00032894   -0.02734857
     atom   48 type  3   force =     0.00486812   -0.00263493    0.00105315
     atom   49 type  4   force =     0.00023670   -0.00065907    0.00044562
     atom   50 type  5   force =     0.00051913    0.00020469   -0.00048400
     atom   51 type  5   force =    -0.00467337    0.00321225   -0.00216256
     atom   52 type  5   force =    -0.00047715   -0.00002933    0.00096333

     Total force =     0.366158     Total SCF correction =     0.000712
  @ DRIVER MODE: Message from server: STATUS
  @ DRIVER MODE: Message from server: GETFORCE
  @ DRIVER MODE: Returning v,forces,stress,ensemble

     Writing output data file ./calc.save/
  @ DRIVER MODE: Message from server: EXIT
  @ DRIVE MODE: Exiting

     General routines

     Parallel routines

   This run was terminated on:  23:32:29  23Aug2021

   JOB DONE.