     Program PWSCF v.6.7GPU starts on 28Sep2021 at 17:50:42

     R & G space division:  proc/nbgrp/npool/nimage =       8
     Reading input from /storage/home/hcoda1/3/ntian30/research/carbon/CxH_vib/H2O_calc/ads_slab/CHHO_a/out_0012/pw.inp
Warning: card &CELL ignored
Warning: card   CELL_DYNAMICS='IPI', ignored
Warning: card / ignored

     Current dimensions of program PWSCF are:
     Max number of different atomic species (ntypx) = 10
     Max number of k-points (npk) =  40000
     Max angular momentum in pseudopotentials (lmaxx) =  3
     Presently no symmetry can be used with electric field

     Message from routine cell_base_init:
     DEPRECATED: use true lattice parameter, not A to a.u. conversion factor

     IMPORTANT: XC functional enforced from input :
     Exchange-correlation= BEEF-VDW
                           (   1   4  43  14   2   0   0)
     Any further DFT definition will be discarded
     Please, verify this is what you really want

  @ DRIVER MODE: Connecting to
 qe_1139763_3011330.sched-torque.pace.gatech.edu7fdumafx_scratch
  using UNIX socket
  @ DRIVER MODE: Message from server: STATUS
  @ DRIVER MODE: Message from server: INIT
  @ DRIVER MODE: Receiving replica           0          -1
  @ DRIVER MODE: Receiving encoded integer          25
  @ DRIVER MODE:  SCF:  T  FORCE:  T  STRESS:  F  VC:  F  ENSEMBLE:  F
  @ DRIVER MODE:  SCF:  T  FORCE:  T  STRESS:  F  VC:  F  ENSEMBLE:  F

     Using Slab Decomposition

     bravais-lattice index     =            0
     lattice parameter (alat)  =       1.8897  a.u.
     unit-cell volume          =    6658.9804 (a.u.)^3
     number of atoms/cell      =           51
     number of atomic types    =            4
     number of electrons       =       390.00
     number of Kohn-Sham states=          205
     kinetic-energy cutoff     =      29.3995  Ry
     charge density cutoff     =     293.9946  Ry
     scf convergence threshold =      7.3E-08
     mixing beta               =       0.0500
     number of iterations used =            8  plain     mixing
     Exchange-correlation= BEEF-VDW
                           (   1   4  43  14   2   0   0)

     celldm(1)=   1.889726  celldm(2)=   0.000000  celldm(3)=   0.000000
     celldm(4)=   0.000000  celldm(5)=   0.000000  celldm(6)=   0.000000

     crystal axes: (cart. coord. in units of alat)
               a(1) = (   6.579727   0.000000   0.000000 )
               a(2) = (  -0.000775   5.961596   0.000000 )
               a(3) = (   0.000000   0.000000  25.155947 )

     reciprocal axes: (cart. coord. in units 2 pi/alat)
               b(1) = (  0.151982  0.000020  0.000000 )
               b(2) = (  0.000000  0.167740  0.000000 )
               b(3) = (  0.000000  0.000000  0.039752 )

     PseudoPot. # 1 for Ti read from file:
     /storage/coda1/p-amedford6/0/shared/rich_project_chbe-medford/medford-share/data/pseudos_module/espresso/nninc/pbe/van/Ti.UPF
     MD5 check sum: 8e4df49b7f0d34bbd5052bf3f5ea0213
     Pseudo is Ultrasoft, Zval = 12.0
     Generated by new atomic code, or converted to UPF format
     Using radial grid of  851 points,  6 beta functions with:
                l(1) =   0
                l(2) =   0
                l(3) =   1
                l(4) =   1
                l(5) =   2
                l(6) =   2
     Q(r) pseudized with  8 coefficients,  rinner =    1.000   1.000   1.000
                                                       1.000   1.000

     PseudoPot. # 2 for O  read from file:
     /storage/coda1/p-amedford6/0/shared/rich_project_chbe-medford/medford-share/data/pseudos_module/espresso/nninc/pbe/van/O.UPF
     MD5 check sum: 78c19812648e8988a0fe644b0f25305e
     Pseudo is Ultrasoft, Zval =  6.0
     Generated by new atomic code, or converted to UPF format
     Using radial grid of  737 points,  4 beta functions with:
                l(1) =   0
                l(2) =   0
                l(3) =   1
                l(4) =   1
     Q(r) pseudized with  8 coefficients,  rinner =    0.800   0.800   0.800

     PseudoPot. # 3 for C  read from file:
     /storage/coda1/p-amedford6/0/shared/rich_project_chbe-medford/medford-share/data/pseudos_module/espresso/nninc/pbe/van/C.UPF
     MD5 check sum: 1a69bf6b8db32088f5b2163dbdb77a27
     Pseudo is Ultrasoft, Zval =  4.0
     Generated by new atomic code, or converted to UPF format
     Using radial grid of  721 points,  4 beta functions with:
                l(1) =   0
                l(2) =   0
                l(3) =   1
                l(4) =   1
     Q(r) pseudized with  8 coefficients,  rinner =    0.800   0.800   0.800

     PseudoPot. # 4 for H  read from file:
     /storage/coda1/p-amedford6/0/shared/rich_project_chbe-medford/medford-share/data/pseudos_module/espresso/nninc/pbe/van/H.UPF
     MD5 check sum: b5ee9d7bfd3a09ee7748110bda690ff7
     Pseudo is Ultrasoft, Zval =  1.0
     Generated by new atomic code, or converted to UPF format
     Using radial grid of  615 points,  1 beta functions with:
                l(1) =   0
     Q(r) pseudized with  8 coefficients,  rinner =    0.800

     atomic species   valence    mass     pseudopotential
        Ti1           12.00    47.86700     Ti( 1.00)
        O1             6.00    15.99900     O ( 1.00)
        C1             4.00    12.01100     C ( 1.00)
        H1             1.00     1.00800     H ( 1.00)

     No symmetry found

   Cartesian axes

     site n.     atom                  positions (alat units)
         1           Ti1 tau(   1) = (   0.0004258   2.9801865   6.0000000  )
         2           Ti1 tau(   2) = (   3.2906075   1.4906267   6.0002472  )
         3           O1  tau(   3) = (   0.0006271   0.0005054   7.9858123  )
         4           O1  tau(   4) = (   3.2906025   0.0005020   7.3038282  )
         5           O1  tau(   5) = (   4.5942328   1.4918067   9.2879030  )
         6           O1  tau(   6) = (   1.9868534   1.4903216   9.2879459  )
         7           Ti1 tau(   7) = (   3.2576716   2.8711746   9.2039182  )
         8           Ti1 tau(   8) = (   6.5366639   1.4374725   9.3495247  )
         9           O1  tau(   9) = (   3.2654967   5.9220709  11.3209648  )
        10           O1  tau(  10) = (   0.0059489   5.9503157  10.5690854  )
        11           O1  tau(  11) = (   1.2710110   1.4830968  12.6026389  )
        12           O1  tau(  12) = (   5.2956248   1.4563849  12.6219738  )
        13           Ti1 tau(  13) = (   6.4707115   3.0232854  12.7046045  )
        14           Ti1 tau(  14) = (   3.3012427   1.2792539  12.6712786  )
        15           O1  tau(  15) = (   0.1208522   5.9439793  14.6184240  )
        16           O1  tau(  16) = (   3.2955454   0.0555021  13.9474554  )
        17           O1  tau(  17) = (   4.3710900   1.5417649  16.0729971  )
        18           O1  tau(  18) = (   1.7386421   2.0841158  16.4311239  )
        19           Ti1 tau(  19) = (   3.2301957   3.0269898  15.6570758  )
        20           Ti1 tau(  20) = (   6.3022331   1.4673853  15.8568112  )
        21           O1  tau(  21) = (   3.2904802   0.0005063   4.7018136  )
        22           O1  tau(  22) = (   6.3638003   5.9514110  17.1305022  )
        23           O1  tau(  23) = (   1.3043587   1.4918075   6.0039043  )
        24           O1  tau(  24) = (   5.2767064   1.4903225   6.0039473  )
        25           Ti1 tau(  25) = (   0.0000382   5.9609847   6.0000000  )
        26           Ti1 tau(  26) = (   3.2902200   4.4714249   6.0002472  )
        27           O1  tau(  27) = (   0.0002396   2.9813036   7.9858123  )
        28           O1  tau(  28) = (   3.2902150   2.9813002   7.3038282  )
        29           O1  tau(  29) = (   4.5938453   4.4726049   9.2879030  )
        30           O1  tau(  30) = (   1.9864658   4.4711199   9.2879459  )
        31           Ti1 tau(  31) = (   3.2576593   5.8570409   9.1743550  )
        32           Ti1 tau(  32) = (   6.5358986   4.4093296   9.3482377  )
        33           O1  tau(  33) = (   3.2940825   2.9875588  11.2901943  )
        34           O1  tau(  34) = (   6.5570357   2.9690702  10.5578446  )
        35           O1  tau(  35) = (   1.2556184   4.4285683  12.6007990  )
        36           O1  tau(  36) = (   5.2653856   4.4527926  12.6146307  )
        37           Ti1 tau(  37) = (   0.0986422   0.0400065  12.6561080  )
        38           Ti1 tau(  38) = (   3.2648468   4.3768915  12.4074939  )
        39           O1  tau(  39) = (   6.4357771   2.9845043  14.6319670  )
        40           O1  tau(  40) = (   3.2191030   2.9668167  13.8952198  )
        41           O1  tau(  41) = (   4.5664177   4.3244647  16.1555655  )
        42           O1  tau(  42) = (   2.0966903   4.6357478  16.0503417  )
        43           Ti1 tau(  43) = (   3.4732119   5.7943257  16.4097380  )
        44           Ti1 tau(  44) = (   0.0705528   4.5403211  16.0661977  )
        45           O1  tau(  45) = (   3.2900926   2.9813045   4.7018136  )
        46           O1  tau(  46) = (   1.3039711   4.4726057   6.0039043  )
        47           O1  tau(  47) = (   5.2763189   4.4711207   6.0039473  )
        48           C1  tau(  48) = (   0.6899253   2.7405959  17.1512775  )
        49           H1  tau(  49) = (   0.8031679   2.6269330  18.2421311  )
        50           O1  tau(  50) = (   3.3389373   5.9192928  18.2161996  )
        51           H1  tau(  51) = (   4.0498012   0.2866715  18.7870949  )

     number of k points=    10  Fermi-Dirac smearing, width (Ry)=  0.0073
                       cart. coord. in units 2pi/alat
        k(    1) = (   0.0000000   0.0000000   0.0000000), wk =   0.1250000
        k(    2) = (   0.0000000   0.0419351   0.0000000), wk =   0.2500000
        k(    3) = (   0.0000000  -0.0838702   0.0000000), wk =   0.1250000
        k(    4) = (   0.0379955   0.0000049   0.0000000), wk =   0.2500000
        k(    5) = (   0.0379955   0.0419400   0.0000000), wk =   0.2500000
        k(    6) = (   0.0379955  -0.0838652   0.0000000), wk =   0.2500000
        k(    7) = (   0.0379955  -0.0419301   0.0000000), wk =   0.2500000
        k(    8) = (  -0.0759910  -0.0000099   0.0000000), wk =   0.1250000
        k(    9) = (  -0.0759910   0.0419252   0.0000000), wk =   0.2500000
        k(   10) = (  -0.0759910  -0.0838800   0.0000000), wk =   0.1250000

     Initial potential from superposition of free atoms

     starting charge  373.99919, renormalised to  390.00000

     negative rho (up, down):  1.954E-02 0.000E+00

     %%%%%%%%%%%%%%%%%%%%%%%%%%%%%%%%%%%%%%%%%%%%%%%%%%%%%%%%%%%%%%%%%%%%%%%%
     %                                                                      %
     % You are using vdW-DF, which was implemented by the Thonhauser group. %
     % Please cite the following two papers that made this development      %
     % possible and the two reviews that describe the various versions:     %
     %                                                                      %
     %   T. Thonhauser et al., PRL 115, 136402 (2015).                      %
     %   T. Thonhauser et al., PRB 76, 125112 (2007).                       %
     %   K. Berland et al., Rep. Prog. Phys. 78, 066501 (2015).             %
     %   D.C. Langreth et al., J. Phys.: Condens. Matter 21, 084203 (2009). %
     %                                                                      %
     %                                                                      %
     % If you are calculating the stress with vdW-DF, please also cite:     %
     %                                                                      %
     %   R. Sabatini et al., J. Phys.: Condens. Matter 24, 424209 (2012).   %
     %                                                                      %
     %%%%%%%%%%%%%%%%%%%%%%%%%%%%%%%%%%%%%%%%%%%%%%%%%%%%%%%%%%%%%%%%%%%%%%%%

     Adding external electric field

     Computed dipole along edir(3) :
        Dipole               -3.9300 Ry au,         -9.9891 Debye
        Dipole field         -0.0074 Ry au,

        Potential amp.        0.6875 Ry
        Total length         46.3494 bohr

     Starting wfcs are  294 atomic wfcs
  @ DRIVER MODE: Message from server: STATUS
  @ DRIVER MODE: Message from server: POSDATA
  @ DRIVER MODE: Reading and sharing cell
  @ DRIVER MODE: Reading and sharing positions
  @ DRIVER MODE: Received positions

     Self-consistent Calculation

     iteration #  1     ecut=    29.40 Ry     beta= 0.05
     Davidson diagonalization with overlap
     c_bands:  5 eigenvalues not converged
     c_bands:  2 eigenvalues not converged
     c_bands:  4 eigenvalues not converged
     c_bands:  4 eigenvalues not converged
     c_bands:  1 eigenvalues not converged
     c_bands:  4 eigenvalues not converged
     c_bands:  1 eigenvalues not converged
     c_bands:  1 eigenvalues not converged
     c_bands:  3 eigenvalues not converged
     ethr =  1.00E-05,  avg # of iterations = 20.8

[...]

     total energy              =   -2904.74630968 Ry
     estimated scf accuracy    <     308.25056255 Ry

     iteration #  2     ecut=    29.40 Ry     beta= 0.05
     Davidson diagonalization with overlap
     ethr =  1.00E-02,  avg # of iterations = 12.2

[...]

     iteration # 31     ecut=    29.40 Ry     beta= 0.05
     Davidson diagonalization with overlap
     c_bands:  1 eigenvalues not converged
     c_bands:  1 eigenvalues not converged
     c_bands:  1 eigenvalues not converged
     c_bands:  1 eigenvalues not converged
     ethr =  7.77E-07,  avg # of iterations = 14.9

[...]

     total energy              =   -2930.00828811 Ry
     estimated scf accuracy    <       0.00000008 Ry

     iteration # 55     ecut=    29.40 Ry     beta= 0.05
     Davidson diagonalization with overlap
     ethr =  2.08E-11,  avg # of iterations =  1.0

     negative rho (up, down):  1.950E-02 0.000E+00

     Adding external electric field

     Computed dipole along edir(3) :
        Dipole                0.5434 Ry au,          1.3813 Debye
        Dipole field          0.0010 Ry au,

        Potential amp.       -0.0951 Ry
        Total length         46.3494 bohr

     End of self-consistent calculation

          k = 0.0000 0.0000 0.0000 ( 18029 PWs)   bands (ev):

   -56.4320 -56.3969 -56.1689 -55.9786 -55.8987 -55.8742 -55.8607 -55.8311
   -55.7735 -55.7306 -55.7291 -55.5630 -55.4839 -55.4379 -55.1237 -55.0897
   -32.8569 -32.6967 -32.6663 -32.6404 -32.6125 -32.5400 -32.5212 -32.4835
   -32.3961 -32.3840 -32.3834 -32.3786 -32.2652 -32.2457 -32.2261 -32.2026
   -32.1704 -32.1394 -32.1153 -32.0825 -32.0738 -32.0642 -32.0344 -32.0338
   -32.0256 -32.0050 -31.9905 -31.9858 -31.9852 -31.9677 -31.9331 -31.9295
   -31.9197 -31.8879 -31.8321 -31.8198 -31.8023 -31.7957 -31.7728 -31.7157
   -31.6144 -31.5207 -31.4983 -31.4585 -31.4345 -31.3381 -31.2530 -31.1416
   -18.1638 -17.1011 -16.7821 -16.6487 -16.5121 -16.3183 -16.2637 -16.1369
   -15.9526 -15.8541 -15.7857 -15.7461 -15.6673 -15.6645 -15.5840 -15.5327
   -15.5161 -15.4833 -15.4623 -15.4322 -15.3836 -15.3792 -15.3209 -15.2840
   -15.2397 -15.1862 -15.1337 -15.0508 -15.0075 -14.8179 -13.6230 -13.5121
    -7.9989  -4.8186  -4.5372  -4.1567  -4.0476  -4.0153  -3.8931  -3.7561
    -3.7032  -3.6369  -3.4241  -3.4043  -3.3045  -3.2417  -3.2234  -3.1383
    -3.0880  -3.0309  -3.0253  -2.9606  -2.9167  -2.8824  -2.8358  -2.7852
    -2.6972  -2.6902  -2.6660  -2.6022  -2.5863  -2.4862  -2.4775  -2.3787
    -2.3617  -2.3544  -2.3339  -2.3028  -2.2738  -2.1745  -2.1598  -2.1180
    -2.0206  -2.0016  -1.8996  -1.7837  -1.6803  -1.6709  -1.6440  -1.5517
    -1.5067  -1.4945  -1.4577  -1.4116  -1.3862  -1.3285  -1.2810  -1.2236
    -1.1790  -1.0637  -1.0118  -0.9638  -0.8809  -0.8605  -0.7932  -0.7746
    -0.6742  -0.6437  -0.5888  -0.5763  -0.5379  -0.4654  -0.3848  -0.3526
    -0.3253  -0.2735  -0.2378  -0.1806  -0.1629  -0.1538  -0.1142  -0.0767
    -0.0436   0.0394   0.0502   0.1184   0.2041   0.2961   0.3250   0.4259
     0.4588   0.5936   0.6291   0.8692   0.8974   0.9067   1.0906   1.1372
     1.4581   1.5087   2.1983   2.8476   2.9966   3.2792   3.2858   3.3520
     3.3994   3.4926   3.5413   3.6312   3.7351

[...]

          k = 0.0380-0.0419 0.0000 ( 17876 PWs)   bands (ev):

[...]

          k =-0.0760-0.0000 0.0000 ( 17886 PWs)   bands (ev):

[...]

          k =-0.0760-0.0839 0.0000 ( 17948 PWs)   bands (ev):

   -56.4196 -56.4092 -56.1680 -55.9793 -55.8885 -55.8709 -55.8651 -55.8398
   -55.7656 -55.7375 -55.7284 -55.5645 -55.4778 -55.4438 -55.1069 -55.1064
   -32.6873 -32.6786 -32.6748 -32.6694 -32.5933 -32.5693 -32.5612 -32.5247
   -32.4125 -32.3653 -32.3043 -32.2126 -32.2063 -32.2019 -32.1949 -32.1795
   -32.1361 -32.1147 -32.1126 -32.1009 -32.0992 -32.0966 -32.0866 -32.0620
   -32.0492 -32.0316 -32.0197 -32.0108 -31.9865 -31.9837 -31.9659 -31.9421
   -31.9259 -31.9133 -31.8968 -31.8277 -31.8222 -31.8101 -31.7774 -31.7714
   -31.6011 -31.5491 -31.4476 -31.4473 -31.3359 -31.3343 -31.2955 -31.2946
   -18.1252 -17.0885 -16.4819 -16.4514 -16.2421 -16.1395 -15.9688 -15.9456
   -15.9412 -15.9081 -15.8534 -15.8398 -15.8230 -15.6746 -15.6514 -15.6351
   -15.5726 -15.5055 -15.4638 -15.4372 -15.4135 -15.3765 -15.3608 -15.3494
   -15.3478 -15.3322 -15.2783 -15.1999 -15.1844 -14.9382 -13.6157 -13.6150
    -7.9976  -4.8131  -4.3507  -3.7422  -3.5421  -3.4753  -3.4376  -3.2780
    -3.1862  -3.1759  -3.1056  -3.0938  -3.0442  -3.0063  -2.9684  -2.9377
    -2.9195  -2.8695  -2.8587  -2.8225  -2.7961  -2.7734  -2.7653  -2.7540
    -2.7288  -2.7226  -2.7045  -2.6917  -2.6720  -2.6506  -2.6159  -2.5723
    -2.5073  -2.4363  -2.3032  -2.2876  -2.2635  -2.1929  -2.1733  -2.1221
    -2.1061  -2.0857  -2.0671  -2.0188  -1.9842  -1.9564  -1.7044  -1.6828
    -1.6289  -1.5775  -1.5225  -1.4904  -1.4612  -1.4464  -1.3838  -1.2775
    -1.2389  -1.2025  -1.1839  -1.1627  -1.1582  -1.0813  -1.0553  -0.9943
    -0.9468  -0.9160  -0.8394  -0.8032  -0.7729  -0.7524  -0.6962  -0.6320
    -0.6165  -0.5392  -0.4918  -0.4718  -0.4142  -0.2776  -0.2453  -0.1442
    -0.0932  -0.0547   0.0518   0.1734   0.2390   0.2445   0.3561   0.3832
     0.4014   0.5001   0.5524   0.5723   0.6103   0.7594   1.2840   1.2986
     1.3085   1.3100   2.3450   3.3846   3.3974   3.4029   3.4131   3.4325
     3.5439   3.6119   3.6763   3.7540   3.7960

     the Fermi energy is     2.6309 ev

!    total energy              =   -2930.00835078 Ry
     estimated scf accuracy    <       0.00000006 Ry
     smearing contrib. (-TS)   =      -0.00366413 Ry
     internal energy E=F+TS    =   -2930.00468666 Ry

     The total energy is F=E-TS. E is the sum of the following terms:
     one-electron contribution =  -24472.47922615 Ry
     hartree contribution      =   12319.91452005 Ry
     xc contribution           =    -481.33329351 Ry
     ewald contribution        =    9703.89275565 Ry
     electric field correction =       0.00055730 Ry

     convergence has been achieved in  55 iterations

     Forces acting on atoms (cartesian axes, Ry/au):

     atom    1 type  1   force =     0.00045242   -0.00032716    0.13411737
     atom    2 type  1   force =     0.00012111    0.00528555   -0.16228112
     atom    3 type  2   force =    -0.00070540    0.00272786   -0.05106963
     atom    4 type  2   force =    -0.00084141   -0.00120622    0.04168885
     atom    5 type  2   force =    -0.01386894   -0.00296797    0.00211489
     atom    6 type  2   force =     0.01178909   -0.00439747    0.00139032
     atom    7 type  1   force =     0.00052922   -0.00029848   -0.00025799
     atom    8 type  1   force =    -0.00006903   -0.00038088    0.00017754
     atom    9 type  2   force =     0.00018172   -0.00023702   -0.00009231
     atom   10 type  2   force =    -0.00025696    0.00015159   -0.00035985
     atom   11 type  2   force =     0.00016438   -0.00094517    0.00008373
     atom   12 type  2   force =    -0.00072427    0.00012281    0.00014660
     atom   13 type  1   force =     0.00064396    0.00021065    0.00004500
     atom   14 type  1   force =    -0.00003807   -0.00013295    0.00044232
     atom   15 type  2   force =     0.00037616   -0.00009189   -0.00018497
     atom   16 type  2   force =     0.00082768    0.00012019   -0.00026249
     atom   17 type  2   force =     0.00079921   -0.00030968    0.00040055
     atom   18 type  2   force =     0.00018010   -0.00005734    0.00047175
     atom   19 type  1   force =     0.00002842    0.00080953    0.00003185
     atom   20 type  1   force =    -0.00001807   -0.00010855    0.00088082
     atom   21 type  2   force =     0.00019870    0.00006116    0.10036612
     atom   22 type  2   force =     0.00005924   -0.00041469   -0.00017637
     atom   23 type  2   force =    -0.07800494    0.00019861   -0.03359016
     atom   24 type  2   force =     0.07805098    0.00071003   -0.03360725
     atom   25 type  1   force =     0.00017228   -0.00022272    0.13669410
     atom   26 type  1   force =     0.00017519   -0.00663523   -0.16251913
     atom   27 type  2   force =     0.00014560    0.00093240   -0.05024309
     atom   28 type  2   force =    -0.00050699   -0.00055404    0.04261789
     atom   29 type  2   force =    -0.01247667    0.00585269    0.00018438
     atom   30 type  2   force =     0.01101502   -0.00027583   -0.00035146
     atom   31 type  1   force =     0.00030126   -0.00026093   -0.00023796
     atom   32 type  1   force =    -0.00023385    0.00015735    0.00012105
     atom   33 type  2   force =    -0.00027329    0.00007781    0.00004147
     atom   34 type  2   force =     0.00037376   -0.00021544   -0.00031850
     atom   35 type  2   force =     0.00135460    0.00037889   -0.00011322
     atom   36 type  2   force =    -0.00057499   -0.00012399   -0.00031615
     atom   37 type  1   force =    -0.00050215    0.00078826   -0.00041610
     atom   38 type  1   force =    -0.00027915    0.00036087   -0.00036341
     atom   39 type  2   force =     0.00062122   -0.00023059    0.00007192
     atom   40 type  2   force =    -0.00006212    0.00017488   -0.00061224
     atom   41 type  2   force =     0.00106256   -0.00051563    0.00038976
     atom   42 type  2   force =    -0.00024469    0.00036961   -0.00009900
     atom   43 type  1   force =     0.00070870   -0.00059563    0.00186207
     atom   44 type  1   force =     0.00034100    0.00088876    0.00078030
     atom   45 type  2   force =     0.00016325   -0.00002167    0.09988023
     atom   46 type  2   force =    -0.07802312    0.00000751   -0.03360161
     atom   47 type  2   force =     0.07807413    0.00053507   -0.03363806
     atom   48 type  3   force =     0.00132494   -0.00088825    0.01230137
     atom   49 type  4   force =    -0.00207472    0.00138723   -0.01231096
     atom   50 type  2   force =    -0.00160692   -0.00057825    0.00086090
     atom   51 type  4   force =     0.00114986    0.00068439   -0.00114013

     Total force =     0.384883     Total SCF correction =     0.000496
  @ DRIVER MODE: Message from server: STATUS
  @ DRIVER MODE: Message from server: GETFORCE
  @ DRIVER MODE: Returning v,forces,stress,ensemble

     Writing output data file ./calc.save/
  @ DRIVER MODE: Message from server: EXIT
  @ DRIVE MODE: Exiting

     General routines

     Parallel routines

   This run was terminated on:  18: 8:49  28Sep2021

   JOB DONE.