     Program PWSCF v.6.7GPU starts on 16Sep2021 at  2:17:21

     R & G space division:  proc/nbgrp/npool/nimage =      10
     Reading input from /storage/home/hcoda1/3/ntian30/research/carbon/CxH_vib/H2O_calc/ads_slab/CH2H2O_a/out_0036/pw.inp
Warning: card &CELL ignored
Warning: card   CELL_DYNAMICS='IPI', ignored
Warning: card / ignored

     Current dimensions of program PWSCF are:
     Max number of different atomic species (ntypx) = 10
     Max number of k-points (npk) =  40000
     Max angular momentum in pseudopotentials (lmaxx) =  3
     Presently no symmetry can be used with electric field

     Message from routine cell_base_init:
     DEPRECATED: use true lattice parameter, not A to a.u. conversion factor

     IMPORTANT: XC functional enforced from input :
     Exchange-correlation= BEEF-VDW
                           (   1   4  43  14   2   0   0)
     Any further DFT definition will be discarded
     Please, verify this is what you really want

  @ DRIVER MODE: Connecting to
 qe_1139763_2852604.sched-torque.pace.gatech.eduvjxqelg3_scratch
  using UNIX socket
  @ DRIVER MODE: Message from server: STATUS
  @ DRIVER MODE: Message from server: INIT
  @ DRIVER MODE: Receiving replica           0          -1
  @ DRIVER MODE: Receiving encoded integer          25
  @ DRIVER MODE:  SCF:  T  FORCE:  T  STRESS:  F  VC:  F  ENSEMBLE:  F
  @ DRIVER MODE:  SCF:  T  FORCE:  T  STRESS:  F  VC:  F  ENSEMBLE:  F

     Using Slab Decomposition

     bravais-lattice index     =            0
     lattice parameter (alat)  =       1.8897  a.u.
     unit-cell volume          =    6658.9804 (a.u.)^3
     number of atoms/cell      =           53
     number of atomic types    =            4
     number of electrons       =       392.00
     number of Kohn-Sham states=          206
     kinetic-energy cutoff     =      29.3995  Ry
     charge density cutoff     =     293.9946  Ry
     scf convergence threshold =      7.3E-08
     mixing beta               =       0.0500
     number of iterations used =            8  plain     mixing
     Exchange-correlation= BEEF-VDW
                           (   1   4  43  14   2   0   0)

     celldm(1)=   1.889726  celldm(2)=   0.000000  celldm(3)=   0.000000
     celldm(4)=   0.000000  celldm(5)=   0.000000  celldm(6)=   0.000000

     crystal axes: (cart. coord. in units of alat)
               a(1) = (   6.579727   0.000000   0.000000 )
               a(2) = (  -0.000775   5.961596   0.000000 )
               a(3) = (   0.000000   0.000000  25.155947 )

     reciprocal axes: (cart. coord. in units 2 pi/alat)
               b(1) = (  0.151982  0.000020  0.000000 )
               b(2) = (  0.000000  0.167740  0.000000 )
               b(3) = (  0.000000  0.000000  0.039752 )

     PseudoPot. # 1 for Ti read from file:
     /storage/coda1/p-amedford6/0/shared/rich_project_chbe-medford/medford-share/data/pseudos_module/espresso/nninc/pbe/van/Ti.UPF
     MD5 check sum: 8e4df49b7f0d34bbd5052bf3f5ea0213
     Pseudo is Ultrasoft, Zval = 12.0
     Generated by new atomic code, or converted to UPF format
     Using radial grid of  851 points,  6 beta functions with:
                l(1) =   0
                l(2) =   0
                l(3) =   1
                l(4) =   1
                l(5) =   2
                l(6) =   2
     Q(r) pseudized with  8 coefficients,  rinner =    1.000   1.000   1.000
                                                       1.000   1.000

     PseudoPot. # 2 for O  read from file:
     /storage/coda1/p-amedford6/0/shared/rich_project_chbe-medford/medford-share/data/pseudos_module/espresso/nninc/pbe/van/O.UPF
     MD5 check sum: 78c19812648e8988a0fe644b0f25305e
     Pseudo is Ultrasoft, Zval =  6.0
     Generated by new atomic code, or converted to UPF format
     Using radial grid of  737 points,  4 beta functions with:
                l(1) =   0
                l(2) =   0
                l(3) =   1
                l(4) =   1
     Q(r) pseudized with  8 coefficients,  rinner =    0.800   0.800   0.800

     PseudoPot. # 3 for C  read from file:
     /storage/coda1/p-amedford6/0/shared/rich_project_chbe-medford/medford-share/data/pseudos_module/espresso/nninc/pbe/van/C.UPF
     MD5 check sum: 1a69bf6b8db32088f5b2163dbdb77a27
     Pseudo is Ultrasoft, Zval =  4.0
     Generated by new atomic code, or converted to UPF format
     Using radial grid of  721 points,  4 beta functions with:
                l(1) =   0
                l(2) =   0
                l(3) =   1
                l(4) =   1
     Q(r) pseudized with  8 coefficients,  rinner =    0.800   0.800   0.800

     PseudoPot. # 4 for H  read from file:
     /storage/coda1/p-amedford6/0/shared/rich_project_chbe-medford/medford-share/data/pseudos_module/espresso/nninc/pbe/van/H.UPF
     MD5 check sum: b5ee9d7bfd3a09ee7748110bda690ff7
     Pseudo is Ultrasoft, Zval =  1.0
     Generated by new atomic code, or converted to UPF format
     Using radial grid of  615 points,  1 beta functions with:
                l(1) =   0
     Q(r) pseudized with  8 coefficients,  rinner =    0.800

     atomic species   valence    mass     pseudopotential
        Ti1           12.00    47.86700     Ti( 1.00)
        O1             6.00    15.99900     O ( 1.00)
        C1             4.00    12.01100     C ( 1.00)
        H1             1.00     1.00800     H ( 1.00)

     No symmetry found

   Cartesian axes

     site n.     atom                  positions (alat units)
         1           Ti1 tau(   1) = (   0.0004258   2.9801865   6.0000000  )
         2           Ti1 tau(   2) = (   3.2906075   1.4906267   6.0002472  )
         3           O1  tau(   3) = (   0.0006271   0.0005054   7.9858123  )
         4           O1  tau(   4) = (   3.2906025   0.0005020   7.3038282  )
         5           O1  tau(   5) = (   4.5942328   1.4918067   9.2879030  )
         6           O1  tau(   6) = (   1.9868534   1.4903216   9.2879459  )
         7           Ti1 tau(   7) = (   3.2791254   2.8632543   9.1696858  )
         8           Ti1 tau(   8) = (   6.5716288   1.4291880   9.3745659  )
         9           O1  tau(   9) = (   3.2719631   5.9564768  11.3413791  )
        10           O1  tau(  10) = (   6.5766582   5.9454684  10.5603319  )
        11           O1  tau(  11) = (   1.2606928   1.4857163  12.6338655  )
        12           O1  tau(  12) = (   5.2561023   1.4877827  12.6114660  )
        13           Ti1 tau(  13) = (   0.0646731   2.9540699  12.8218634  )
        14           Ti1 tau(  14) = (   3.3836270   1.4660460  12.4955168  )
        15           O1  tau(  15) = (   6.5457659   5.9184216  14.5915085  )
        16           O1  tau(  16) = (   3.2744135   0.0171945  13.9516778  )
        17           O1  tau(  17) = (   4.5159629   1.5536209  16.0418326  )
        18           O1  tau(  18) = (   1.9981799   1.5541948  16.0447984  )
        19           Ti1 tau(  19) = (   3.2528476   3.0136947  15.6822407  )
        20           Ti1 tau(  20) = (   6.5571992   1.6159626  16.1493948  )
        21           O1  tau(  21) = (   3.2904802   0.0005063   4.7018136  )
        22           O1  tau(  22) = (   6.5499432   0.0285508  17.2403840  )
        23           O1  tau(  23) = (   1.3043587   1.4918075   6.0039043  )
        24           O1  tau(  24) = (   5.2767064   1.4903225   6.0039473  )
        25           Ti1 tau(  25) = (   0.0000382   5.9609847   6.0000000  )
        26           Ti1 tau(  26) = (   3.2902200   4.4714249   6.0002472  )
        27           O1  tau(  27) = (   0.0002396   2.9813036   7.9858123  )
        28           O1  tau(  28) = (   3.2902150   2.9813002   7.3038282  )
        29           O1  tau(  29) = (   4.5938453   4.4726049   9.2879030  )
        30           O1  tau(  30) = (   1.9864658   4.4711199   9.2879459  )
        31           Ti1 tau(  31) = (   3.2865685   5.8444178   9.1628351  )
        32           Ti1 tau(  32) = (   6.5743218   4.4049426   9.3738558  )
        33           O1  tau(  33) = (   3.2769956   2.9705820  11.3381082  )
        34           O1  tau(  34) = (   6.5775985   2.9640992  10.5572898  )
        35           O1  tau(  35) = (   1.2629977   4.4457513  12.6272354  )
        36           O1  tau(  36) = (   5.2537740   4.4534837  12.6036699  )
        37           Ti1 tau(  37) = (   0.0534783   5.9329931  12.7718795  )
        38           Ti1 tau(  38) = (   3.3808541   4.4548706  12.4760825  )
        39           O1  tau(  39) = (   6.5578179   2.9671967  14.6759119  )
        40           O1  tau(  40) = (   3.2646438   2.9894133  13.8927730  )
        41           O1  tau(  41) = (   4.5094683   4.4833613  16.0328582  )
        42           O1  tau(  42) = (   2.0033084   4.4836886  16.0339364  )
        43           Ti1 tau(  43) = (   3.2772676   0.0291193  15.7865657  )
        44           Ti1 tau(  44) = (   6.5620481   4.6241259  16.1080240  )
        45           O1  tau(  45) = (   3.2900926   2.9813045   4.7018136  )
        46           O1  tau(  46) = (   1.3039711   4.4726057   6.0039043  )
        47           O1  tau(  47) = (   5.2763189   4.4711207   6.0039473  )
        48           C1  tau(  48) = (   6.5362552   2.9989010  17.5868729  )
        49           H1  tau(  49) = (   0.8535040   3.1223538  18.1993289  )
        50           H1  tau(  50) = (   5.6240823   3.1149880  18.1772116  )
        51           O1  tau(  51) = (   3.2614802   0.0224742  18.1496266  )
        52           H1  tau(  52) = (   4.0528939   5.9570843  18.7024920  )
        53           H1  tau(  53) = (   2.4635753   0.0005096  18.7043540  )

     number of k points=    10  Fermi-Dirac smearing, width (Ry)=  0.0073
                       cart. coord. in units 2pi/alat
        k(    1) = (   0.0000000   0.0000000   0.0000000), wk =   0.1250000
        k(    2) = (   0.0000000   0.0419351   0.0000000), wk =   0.2500000
        k(    3) = (   0.0000000  -0.0838702   0.0000000), wk =   0.1250000
        k(    4) = (   0.0379955   0.0000049   0.0000000), wk =   0.2500000
        k(    5) = (   0.0379955   0.0419400   0.0000000), wk =   0.2500000
        k(    6) = (   0.0379955  -0.0838652   0.0000000), wk =   0.2500000
        k(    7) = (   0.0379955  -0.0419301   0.0000000), wk =   0.2500000
        k(    8) = (  -0.0759910  -0.0000099   0.0000000), wk =   0.1250000
        k(    9) = (  -0.0759910   0.0419252   0.0000000), wk =   0.2500000
        k(   10) = (  -0.0759910  -0.0838800   0.0000000), wk =   0.1250000

     Initial potential from superposition of free atoms

     starting charge  375.99917, renormalised to  392.00000

     negative rho (up, down):  1.850E-02 0.000E+00

     %%%%%%%%%%%%%%%%%%%%%%%%%%%%%%%%%%%%%%%%%%%%%%%%%%%%%%%%%%%%%%%%%%%%%%%%
     %                                                                      %
     % You are using vdW-DF, which was implemented by the Thonhauser group. %
     % Please cite the following two papers that made this development      %
     % possible and the two reviews that describe the various versions:     %
     %                                                                      %
     %   T. Thonhauser et al., PRL 115, 136402 (2015).                      %
     %   T. Thonhauser et al., PRB 76, 125112 (2007).                       %
     %   K. Berland et al., Rep. Prog. Phys. 78, 066501 (2015).             %
     %   D.C. Langreth et al., J. Phys.: Condens. Matter 21, 084203 (2009). %
     %                                                                      %
     %                                                                      %
     % If you are calculating the stress with vdW-DF, please also cite:     %
     %                                                                      %
     %   R. Sabatini et al., J. Phys.: Condens. Matter 24, 424209 (2012).   %
     %                                                                      %
     %%%%%%%%%%%%%%%%%%%%%%%%%%%%%%%%%%%%%%%%%%%%%%%%%%%%%%%%%%%%%%%%%%%%%%%%

     Adding external electric field

     Computed dipole along edir(3) :
        Dipole               -5.1813 Ry au,        -13.1695 Debye
        Dipole field         -0.0098 Ry au,

        Potential amp.        0.9064 Ry
        Total length         46.3494 bohr

     Starting wfcs are  296 atomic wfcs
  @ DRIVER MODE: Message from server: STATUS
  @ DRIVER MODE: Message from server: POSDATA
  @ DRIVER MODE: Reading and sharing cell
  @ DRIVER MODE: Reading and sharing positions
  @ DRIVER MODE: Received positions

     Self-consistent Calculation

     iteration #  1     ecut=    29.40 Ry     beta= 0.05
     Davidson diagonalization with overlap
     c_bands:  5 eigenvalues not converged
     c_bands:  3 eigenvalues not converged
     c_bands:  5 eigenvalues not converged
     c_bands:  1 eigenvalues not converged
     c_bands:  2 eigenvalues not converged
     c_bands:  2 eigenvalues not converged
     c_bands:  3 eigenvalues not converged
     c_bands:  1 eigenvalues not converged
     ethr =  1.00E-05,  avg # of iterations = 19.5

[...]

     total energy              =   -2834.03542161 Ry
     estimated scf accuracy    <    1090.02258561 Ry

     iteration #  2     ecut=    29.40 Ry     beta= 0.05
     Davidson diagonalization with overlap
     ethr =  1.00E-02,  avg # of iterations = 15.9

[...]

     iteration # 38     ecut=    29.40 Ry     beta= 0.05
     Davidson diagonalization with overlap
     c_bands:  1 eigenvalues not converged
     c_bands:  2 eigenvalues not converged
     c_bands:  1 eigenvalues not converged
     c_bands:  1 eigenvalues not converged
     ethr =  1.87E-06,  avg # of iterations = 15.2

[...]

     total energy              =   -2932.56447385 Ry
     estimated scf accuracy    <       0.00000018 Ry

     iteration # 61     ecut=    29.40 Ry     beta= 0.05
     Davidson diagonalization with overlap
     ethr =  4.68E-11,  avg # of iterations =  3.9

     negative rho (up, down):  1.822E-02 0.000E+00

     Adding external electric field

     Computed dipole along edir(3) :
        Dipole                0.9024 Ry au,          2.2938 Debye
        Dipole field          0.0017 Ry au,

        Potential amp.       -0.1579 Ry
        Total length         46.3494 bohr

     End of self-consistent calculation

          k = 0.0000 0.0000 0.0000 ( 18029 PWs)   bands (ev):

   -56.1828 -56.1487 -55.8891 -55.8394 -55.8014 -55.6965 -55.5879 -55.5601
   -55.5261 -55.5065 -55.4898 -55.4541 -55.1224 -54.9909 -54.9674 -54.9334
   -32.6107 -32.4340 -32.4051 -32.3798 -32.3720 -32.2886 -32.2806 -32.2373
   -32.1752 -32.1084 -32.1020 -32.0664 -32.0553 -32.0523 -32.0459 -32.0208
   -31.9962 -31.9946 -31.9641 -31.8925 -31.8689 -31.8372 -31.8200 -31.8072
   -31.8051 -31.7764 -31.7466 -31.7298 -31.7223 -31.7190 -31.6770 -31.6694
   -31.6686 -31.6623 -31.6477 -31.5935 -31.5709 -31.4185 -31.3703 -31.3672
   -31.3205 -31.2938 -31.2701 -31.1856 -31.1659 -31.1007 -31.0357 -30.9887
   -19.2041 -16.5170 -16.3473 -16.1112 -15.9768 -15.8953 -15.7351 -15.5542
   -15.5455 -15.4568 -15.4335 -15.3572 -15.3485 -15.3143 -15.3019 -15.2939
   -15.2789 -15.2554 -15.2096 -15.1981 -15.1976 -15.1488 -15.0942 -15.0012
   -14.9890 -14.9413 -14.8232 -14.8160 -14.7814 -14.6356 -13.4613 -13.3476
    -8.0670  -7.2194  -4.0029  -3.9280  -3.8122  -3.7177  -3.6942  -3.5783
    -3.3379  -3.2679  -3.0105  -2.9790  -2.9362  -2.8905  -2.8760  -2.7956
    -2.7033  -2.6881  -2.6601  -2.6350  -2.5997  -2.5922  -2.5290  -2.5194
    -2.4969  -2.4912  -2.4271  -2.4126  -2.3703  -2.2341  -2.1840  -2.1591
    -2.1466  -2.1073  -2.0721  -2.0100  -1.9868  -1.9593  -1.9011  -1.7518
    -1.7279  -1.6473  -1.6191  -1.5476  -1.4586  -1.4444  -1.2966  -1.2775
    -1.2436  -1.2326  -1.2050  -1.1527  -1.1329  -1.0260  -0.8955  -0.8162
    -0.7842  -0.7621  -0.7487  -0.7022  -0.6658  -0.6120  -0.6040  -0.5607
    -0.4851  -0.4766  -0.4010  -0.2157  -0.2019  -0.1908  -0.1737  -0.1317
    -0.1025  -0.0805  -0.0367   0.0082   0.0327   0.0911   0.1014   0.1329
     0.1503   0.2277   0.2761   0.3321   0.3382   0.4511   0.5621   0.6242
     0.6422   0.6728   0.7737   0.7852   0.9914   1.0098   1.0603   1.2720
     1.3174   1.6458   1.7175   2.1736   3.0862   3.2614   3.4643   3.5628
     3.5829   3.6780   3.6907   3.8225   3.8799   3.9278

[...]

          k = 0.0380-0.0419 0.0000 ( 17876 PWs)   bands (ev):

[...]

          k =-0.0760-0.0000 0.0000 ( 17886 PWs)   bands (ev):

[...]

          k =-0.0760-0.0839 0.0000 ( 17948 PWs)   bands (ev):

   -56.1687 -56.1626 -55.8875 -55.8268 -55.8139 -55.6980 -55.5840 -55.5440
   -55.5419 -55.5102 -55.4755 -55.4684 -55.1202 -54.9930 -54.9504 -54.9503
   -32.4307 -32.4256 -32.4227 -32.4153 -32.3271 -32.3220 -32.1942 -32.1816
   -32.1675 -32.1566 -32.1041 -32.0898 -32.0505 -32.0304 -32.0265 -32.0147
   -31.9964 -31.9003 -31.9000 -31.8742 -31.8736 -31.8375 -31.8151 -31.8053
   -31.8024 -31.7952 -31.7884 -31.7853 -31.7565 -31.7546 -31.7525 -31.7370
   -31.6909 -31.6840 -31.6806 -31.6741 -31.4807 -31.4171 -31.3743 -31.2930
   -31.2830 -31.2829 -31.2768 -31.1816 -31.1813 -31.1433 -31.1432 -31.0487
   -19.2033 -16.0065 -15.8966 -15.7436 -15.7036 -15.6601 -15.6596 -15.6293
   -15.5959 -15.5603 -15.5540 -15.4638 -15.4325 -15.4188 -15.4067 -15.3418
   -15.3360 -15.3313 -15.3277 -15.2668 -15.2602 -15.1460 -15.1381 -15.0582
   -15.0479 -15.0183 -14.9961 -14.9527 -14.9462 -14.7862 -13.4499 -13.4498
    -8.0715  -7.2124  -3.9291  -3.3070  -3.0897  -2.9675  -2.9287  -2.8028
    -2.7916  -2.7856  -2.7779  -2.7657  -2.7263  -2.6713  -2.6509  -2.6394
    -2.6139  -2.6008  -2.5732  -2.5650  -2.5379  -2.5361  -2.5304  -2.5262
    -2.5080  -2.4901  -2.4338  -2.4255  -2.4093  -2.3797  -2.3008  -2.2855
    -2.1948  -2.1086  -2.0760  -2.0746  -2.0141  -1.9792  -1.8970  -1.8886
    -1.8720  -1.8668  -1.8034  -1.6096  -1.5545  -1.5494  -1.5121  -1.4772
    -1.3165  -1.2776  -1.2163  -1.1757  -1.1439  -1.1297  -1.0561  -1.0451
    -1.0196  -0.9657  -0.9611  -0.9540  -0.9383  -0.8571  -0.8404  -0.8140
    -0.7394  -0.6984  -0.6821  -0.6563  -0.6259  -0.5727  -0.4883  -0.4653
    -0.4529  -0.4383  -0.3095  -0.2718  -0.2424  -0.2043  -0.1558   0.1092
     0.1190   0.2009   0.3016   0.3948   0.4362   0.5376   0.5557   0.5622
     0.6885   0.7017   0.7071   0.7161   0.8167   0.8235   0.8599   1.4454
     1.4477   1.5003   1.5015   2.4433   3.6092   3.6163   3.6279   3.6332
     3.6558   3.6860   3.7055   3.7368   4.0279   4.0422

     the Fermi energy is     2.7935 ev

!    total energy              =   -2932.56452879 Ry
     estimated scf accuracy    <       0.00000006 Ry
     smearing contrib. (-TS)   =      -0.00167164 Ry
     internal energy E=F+TS    =   -2932.56285715 Ry

     The total energy is F=E-TS. E is the sum of the following terms:
     one-electron contribution =  -24522.58406832 Ry
     hartree contribution      =   12348.90294777 Ry
     xc contribution           =    -482.73924073 Ry
     ewald contribution        =    9723.85596727 Ry
     electric field correction =       0.00153687 Ry

     convergence has been achieved in  61 iterations

     Forces acting on atoms (cartesian axes, Ry/au):

     atom    1 type  1   force =     0.00030690   -0.00016734    0.14553624
     atom    2 type  1   force =     0.00004681    0.00071635   -0.16925199
     atom    3 type  2   force =     0.00003691    0.00235591   -0.06021769
     atom    4 type  2   force =    -0.00017294   -0.00141980    0.03905928
     atom    5 type  2   force =    -0.02196075   -0.00032002    0.00360603
     atom    6 type  2   force =     0.01965162   -0.00080941    0.00221874
     atom    7 type  1   force =     0.00013152   -0.00000970    0.00039133
     atom    8 type  1   force =     0.00006924    0.00008594    0.00107636
     atom    9 type  2   force =    -0.00007526   -0.00028721    0.00032046
     atom   10 type  2   force =     0.00010506    0.00015691   -0.00062091
     atom   11 type  2   force =     0.00006874    0.00001570    0.00100347
     atom   12 type  2   force =     0.00071405    0.00009421    0.00105457
     atom   13 type  1   force =    -0.00072490   -0.00015669   -0.00046961
     atom   14 type  1   force =     0.00038455   -0.00102524   -0.00000749
     atom   15 type  2   force =     0.00019159   -0.00015694    0.00097028
     atom   16 type  2   force =    -0.00004825   -0.00028138    0.00149809
     atom   17 type  2   force =     0.00011942   -0.00059633    0.00024217
     atom   18 type  2   force =    -0.00009359   -0.00067216    0.00018423
     atom   19 type  1   force =     0.00073719   -0.00064076   -0.00020669
     atom   20 type  1   force =    -0.00025057    0.00036327   -0.00021478
     atom   21 type  2   force =     0.00012899   -0.00008079    0.10217748
     atom   22 type  2   force =     0.00010048   -0.00000909   -0.00007739
     atom   23 type  2   force =    -0.07476119    0.00031968   -0.03450494
     atom   24 type  2   force =     0.07483313    0.00076698   -0.03457583
     atom   25 type  1   force =     0.00009541   -0.00007489    0.14713494
     atom   26 type  1   force =     0.00001080   -0.00209898   -0.16942941
     atom   27 type  2   force =     0.00001557    0.00192577   -0.05937548
     atom   28 type  2   force =    -0.00028695   -0.00139818    0.03994362
     atom   29 type  2   force =    -0.02161108    0.00107962    0.00382509
     atom   30 type  2   force =     0.02036092   -0.00010733    0.00244002
     atom   31 type  1   force =     0.00013500    0.00016882    0.00129183
     atom   32 type  1   force =     0.00006495   -0.00024189    0.00116765
     atom   33 type  2   force =    -0.00010203   -0.00006543   -0.00057856
     atom   34 type  2   force =     0.00010715    0.00009842   -0.00069032
     atom   35 type  2   force =     0.00026449   -0.00037361    0.00076915
     atom   36 type  2   force =     0.00034455   -0.00044880    0.00083773
     atom   37 type  1   force =    -0.00058921   -0.00014905   -0.00055235
     atom   38 type  1   force =     0.00049586    0.00058997   -0.00034728
     atom   39 type  2   force =     0.00028096   -0.00002680   -0.00021331
     atom   40 type  2   force =    -0.00008816   -0.00013891    0.00176632
     atom   41 type  2   force =     0.00009370    0.00052404    0.00035715
     atom   42 type  2   force =    -0.00012905    0.00050827    0.00032854
     atom   43 type  1   force =     0.00024068    0.00055440   -0.00030893
     atom   44 type  1   force =    -0.00030527    0.00027514   -0.00009496
     atom   45 type  2   force =     0.00012044   -0.00010399    0.10210308
     atom   46 type  2   force =    -0.07474451   -0.00001926   -0.03447692
     atom   47 type  2   force =     0.07483735    0.00043888   -0.03457315
     atom   48 type  3   force =    -0.00003091   -0.00027549    0.00035281
     atom   49 type  4   force =     0.00009210   -0.00020180   -0.00041840
     atom   50 type  4   force =     0.00039343   -0.00007162   -0.00033779
     atom   51 type  2   force =    -0.00886864    0.00070913    0.00681690
     atom   52 type  4   force =     0.00157877    0.00020155   -0.00008763
     atom   53 type  4   force =     0.00768491    0.00047998   -0.00684178

     Total force =     0.400669     Total SCF correction =     0.000717
  @ DRIVER MODE: Message from server: STATUS
  @ DRIVER MODE: Message from server: GETFORCE
  @ DRIVER MODE: Returning v,forces,stress,ensemble

     Writing output data file ./calc.save/
  @ DRIVER MODE: Message from server: EXIT
  @ DRIVE MODE: Exiting

     General routines

     Parallel routines

   This run was terminated on:   2:32:55  16Sep2021

   JOB DONE.