     Program PWSCF v.6.7GPU starts on  9Sep2021 at  4:43: 4

     R & G space division:  proc/nbgrp/npool/nimage =      10
     Reading input from /storage/home/hcoda1/3/ntian30/research/carbon/CxH_vib/CH2_calc/ads_slab/CH2NH_a/out_0023/pw.inp
Warning: card &CELL ignored
Warning: card   CELL_DYNAMICS='IPI', ignored
Warning: card / ignored

     Current dimensions of program PWSCF are:
     Max number of different atomic species (ntypx) = 10
     Max number of k-points (npk) =  40000
     Max angular momentum in pseudopotentials (lmaxx) =  3
     Presently no symmetry can be used with electric field

     Message from routine cell_base_init:
     DEPRECATED: use true lattice parameter, not A to a.u. conversion factor

     IMPORTANT: XC functional enforced from input :
     Exchange-correlation= BEEF-VDW
                           (   1   4  43  14   2   0   0)
     Any further DFT definition will be discarded
     Please, verify this is what you really want

  @ DRIVER MODE: Connecting to
 qe_1139763_2767389.sched-torque.pace.gatech.edutdjy_3j0_scratch
  using UNIX socket
  @ DRIVER MODE: Message from server: STATUS
  @ DRIVER MODE: Message from server: INIT
  @ DRIVER MODE: Receiving replica           0          -1
  @ DRIVER MODE: Receiving encoded integer          25
  @ DRIVER MODE:  SCF:  T  FORCE:  T  STRESS:  F  VC:  F  ENSEMBLE:  F
  @ DRIVER MODE:  SCF:  T  FORCE:  T  STRESS:  F  VC:  F  ENSEMBLE:  F

     Using Slab Decomposition

     bravais-lattice index     =            0
     lattice parameter (alat)  =       1.8897  a.u.
     unit-cell volume          =    6658.9804 (a.u.)^3
     number of atoms/cell      =           52
     number of atomic types    =            5
     number of electrons       =       390.00
     number of Kohn-Sham states=          205
     kinetic-energy cutoff     =      29.3995  Ry
     charge density cutoff     =     293.9946  Ry
     scf convergence threshold =      7.3E-08
     mixing beta               =       0.0500
     number of iterations used =            8  plain     mixing
     Exchange-correlation= BEEF-VDW
                           (   1   4  43  14   2   0   0)

     celldm(1)=   1.889726  celldm(2)=   0.000000  celldm(3)=   0.000000
     celldm(4)=   0.000000  celldm(5)=   0.000000  celldm(6)=   0.000000

     crystal axes: (cart. coord. in units of alat)
               a(1) = (   6.579727   0.000000   0.000000 )
               a(2) = (  -0.000775   5.961596   0.000000 )
               a(3) = (   0.000000   0.000000  25.155947 )

     reciprocal axes: (cart. coord. in units 2 pi/alat)
               b(1) = (  0.151982  0.000020  0.000000 )
               b(2) = (  0.000000  0.167740  0.000000 )
               b(3) = (  0.000000  0.000000  0.039752 )

     PseudoPot. # 1 for Ti read from file:
     /storage/coda1/p-amedford6/0/shared/rich_project_chbe-medford/medford-share/data/pseudos_module/espresso/nninc/pbe/van/Ti.UPF
     MD5 check sum: 8e4df49b7f0d34bbd5052bf3f5ea0213
     Pseudo is Ultrasoft, Zval = 12.0
     Generated by new atomic code, or converted to UPF format
     Using radial grid of  851 points,  6 beta functions with:
                l(1) =   0
                l(2) =   0
                l(3) =   1
                l(4) =   1
                l(5) =   2
                l(6) =   2
     Q(r) pseudized with  8 coefficients,  rinner =    1.000   1.000   1.000
                                                       1.000   1.000

     PseudoPot. # 2 for O  read from file:
     /storage/coda1/p-amedford6/0/shared/rich_project_chbe-medford/medford-share/data/pseudos_module/espresso/nninc/pbe/van/O.UPF
     MD5 check sum: 78c19812648e8988a0fe644b0f25305e
     Pseudo is Ultrasoft, Zval =  6.0
     Generated by new atomic code, or converted to UPF format
     Using radial grid of  737 points,  4 beta functions with:
                l(1) =   0
                l(2) =   0
                l(3) =   1
                l(4) =   1
     Q(r) pseudized with  8 coefficients,  rinner =    0.800   0.800   0.800

     PseudoPot. # 3 for N  read from file:
     /storage/coda1/p-amedford6/0/shared/rich_project_chbe-medford/medford-share/data/pseudos_module/espresso/nninc/pbe/van/N.UPF
     MD5 check sum: 90d10febe142ad51ac9d5be1deb811c4
     Pseudo is Ultrasoft, Zval =  5.0
     Generated by new atomic code, or converted to UPF format
     Using radial grid of  729 points,  4 beta functions with:
                l(1) =   0
                l(2) =   0
                l(3) =   1
                l(4) =   1
     Q(r) pseudized with  8 coefficients,  rinner =    0.800   0.800   0.800

     PseudoPot. # 4 for C  read from file:
     /storage/coda1/p-amedford6/0/shared/rich_project_chbe-medford/medford-share/data/pseudos_module/espresso/nninc/pbe/van/C.UPF
     MD5 check sum: 1a69bf6b8db32088f5b2163dbdb77a27
     Pseudo is Ultrasoft, Zval =  4.0
     Generated by new atomic code, or converted to UPF format
     Using radial grid of  721 points,  4 beta functions with:
                l(1) =   0
                l(2) =   0
                l(3) =   1
                l(4) =   1
     Q(r) pseudized with  8 coefficients,  rinner =    0.800   0.800   0.800

     PseudoPot. # 5 for H  read from file:
     /storage/coda1/p-amedford6/0/shared/rich_project_chbe-medford/medford-share/data/pseudos_module/espresso/nninc/pbe/van/H.UPF
     MD5 check sum: b5ee9d7bfd3a09ee7748110bda690ff7
     Pseudo is Ultrasoft, Zval =  1.0
     Generated by new atomic code, or converted to UPF format
     Using radial grid of  615 points,  1 beta functions with:
                l(1) =   0
     Q(r) pseudized with  8 coefficients,  rinner =    0.800

     atomic species   valence    mass     pseudopotential
        Ti1           12.00    47.86700     Ti( 1.00)
        O1             6.00    15.99900     O ( 1.00)
        N1             5.00    14.00700     N ( 1.00)
        C1             4.00    12.01100     C ( 1.00)
        H1             1.00     1.00800     H ( 1.00)

     No symmetry found

   Cartesian axes

     site n.     atom                  positions (alat units)
         1           Ti1 tau(   1) = (   0.0004258   2.9801865   6.0000000  )
         2           Ti1 tau(   2) = (   3.2906075   1.4906267   6.0002472  )
         3           O1  tau(   3) = (   0.0006271   0.0005054   7.9858123  )
         4           O1  tau(   4) = (   3.2906025   0.0005020   7.3038282  )
         5           O1  tau(   5) = (   4.5942328   1.4918067   9.2879030  )
         6           O1  tau(   6) = (   1.9868534   1.4903216   9.2879459  )
         7           Ti1 tau(   7) = (   3.2907910   2.8959150   9.1758416  )
         8           Ti1 tau(   8) = (   0.0015273   1.4827037   9.2680791  )
         9           O1  tau(   9) = (   3.2859541   5.9290403  11.3715426  )
        10           O1  tau(  10) = (   0.0116148   5.9584955  10.6183126  )
        11           O1  tau(  11) = (   1.2917987   1.4688796  12.6526629  )
        12           O1  tau(  12) = (   5.2888266   1.4686376  12.6403033  )
        13           Ti1 tau(  13) = (   0.0074927   2.9495069  12.5376589  )
        14           Ti1 tau(  14) = (   3.2957121   1.4606513  12.5174744  )
        15           O1  tau(  15) = (   6.5702453   0.0264740  14.6787910  )
        16           O1  tau(  16) = (   3.3001739   5.9406727  13.9930656  )
        17           O1  tau(  17) = (   4.5367710   1.4643441  16.2106543  )
        18           O1  tau(  18) = (   2.0349547   1.4576396  16.1973481  )
        19           Ti1 tau(  19) = (   3.2821410   2.9383233  15.7467721  )
        20           Ti1 tau(  20) = (   6.5624771   1.3975196  16.0657228  )
        21           O1  tau(  21) = (   3.2904802   0.0005063   4.7018136  )
        22           O1  tau(  22) = (   0.0049924   5.8117904  17.2112648  )
        23           O1  tau(  23) = (   1.3043587   1.4918075   6.0039043  )
        24           O1  tau(  24) = (   5.2767064   1.4903225   6.0039473  )
        25           Ti1 tau(  25) = (   0.0000382   5.9609847   6.0000000  )
        26           Ti1 tau(  26) = (   3.2902200   4.4714249   6.0002472  )
        27           O1  tau(  27) = (   0.0002396   2.9813036   7.9858123  )
        28           O1  tau(  28) = (   3.2902150   2.9813002   7.3038282  )
        29           O1  tau(  29) = (   4.5938453   4.4726049   9.2879030  )
        30           O1  tau(  30) = (   1.9864658   4.4711199   9.2879459  )
        31           Ti1 tau(  31) = (   3.2891106   5.8743827   9.1763621  )
        32           Ti1 tau(  32) = (   0.0006254   4.4649316   9.2693709  )
        33           O1  tau(  33) = (   3.2878059   2.9597088  11.3652031  )
        34           O1  tau(  34) = (   0.0092240   2.9805883  10.6323155  )
        35           O1  tau(  35) = (   1.2887225   4.4431869  12.6829221  )
        36           O1  tau(  36) = (   5.2901277   4.4428847  12.6690855  )
        37           Ti1 tau(  37) = (   0.0035388   5.9380168  12.5099366  )
        38           Ti1 tau(  38) = (   3.2962120   4.4389810  12.5267566  )
        39           O1  tau(  39) = (   6.5655450   2.9014274  14.9049457  )
        40           O1  tau(  40) = (   3.2937888   2.9365130  13.9572806  )
        41           O1  tau(  41) = (   4.5374039   4.4072578  16.1608974  )
        42           O1  tau(  42) = (   2.0345115   4.4188705  16.1151926  )
        43           Ti1 tau(  43) = (   3.2925710   5.9161036  15.7896908  )
        44           Ti1 tau(  44) = (   0.0121651   4.6006060  15.8502786  )
        45           O1  tau(  45) = (   3.2900926   2.9813045   4.7018136  )
        46           O1  tau(  46) = (   1.3039711   4.4726057   6.0039043  )
        47           O1  tau(  47) = (   5.2763189   4.4711207   6.0039473  )
        48           N1  tau(  48) = (   6.5581919   2.6818180  17.9522317  )
        49           C1  tau(  49) = (   0.8403426   2.5546117  18.8965076  )
        50           H1  tau(  50) = (   0.6793733   2.9585088  19.8916666  )
        51           H1  tau(  51) = (   1.7584391   2.0155774  18.6861775  )
        52           H1  tau(  52) = (   5.7198555   3.1867788  18.2393814  )

     number of k points=    10  Fermi-Dirac smearing, width (Ry)=  0.0073
                       cart. coord. in units 2pi/alat
        k(    1) = (   0.0000000   0.0000000   0.0000000), wk =   0.1250000
        k(    2) = (   0.0000000   0.0419351   0.0000000), wk =   0.2500000
        k(    3) = (   0.0000000  -0.0838702   0.0000000), wk =   0.1250000
        k(    4) = (   0.0379955   0.0000049   0.0000000), wk =   0.2500000
        k(    5) = (   0.0379955   0.0419400   0.0000000), wk =   0.2500000
        k(    6) = (   0.0379955  -0.0838652   0.0000000), wk =   0.2500000
        k(    7) = (   0.0379955  -0.0419301   0.0000000), wk =   0.2500000
        k(    8) = (  -0.0759910  -0.0000099   0.0000000), wk =   0.1250000
        k(    9) = (  -0.0759910   0.0419252   0.0000000), wk =   0.2500000
        k(   10) = (  -0.0759910  -0.0838800   0.0000000), wk =   0.1250000

     Initial potential from superposition of free atoms

     starting charge  373.99917, renormalised to  390.00000

     negative rho (up, down):  1.699E-02 0.000E+00

     %%%%%%%%%%%%%%%%%%%%%%%%%%%%%%%%%%%%%%%%%%%%%%%%%%%%%%%%%%%%%%%%%%%%%%%%
     %                                                                      %
     % You are using vdW-DF, which was implemented by the Thonhauser group. %
     % Please cite the following two papers that made this development      %
     % possible and the two reviews that describe the various versions:     %
     %                                                                      %
     %   T. Thonhauser et al., PRL 115, 136402 (2015).                      %
     %   T. Thonhauser et al., PRB 76, 125112 (2007).                       %
     %   K. Berland et al., Rep. Prog. Phys. 78, 066501 (2015).             %
     %   D.C. Langreth et al., J. Phys.: Condens. Matter 21, 084203 (2009). %
     %                                                                      %
     %                                                                      %
     % If you are calculating the stress with vdW-DF, please also cite:     %
     %                                                                      %
     %   R. Sabatini et al., J. Phys.: Condens. Matter 24, 424209 (2012).   %
     %                                                                      %
     %%%%%%%%%%%%%%%%%%%%%%%%%%%%%%%%%%%%%%%%%%%%%%%%%%%%%%%%%%%%%%%%%%%%%%%%

     Adding external electric field

     Computed dipole along edir(3) :
        Dipole               -6.0472 Ry au,        -15.3704 Debye
        Dipole field         -0.0114 Ry au,

        Potential amp.        1.0579 Ry
        Total length         46.3494 bohr

     Starting wfcs are  295 atomic wfcs
  @ DRIVER MODE: Message from server: STATUS
  @ DRIVER MODE: Message from server: POSDATA
  @ DRIVER MODE: Reading and sharing cell
  @ DRIVER MODE: Reading and sharing positions
  @ DRIVER MODE: Received positions

     Self-consistent Calculation

     iteration #  1     ecut=    29.40 Ry     beta= 0.05
     Davidson diagonalization with overlap
     c_bands:  1 eigenvalues not converged
     c_bands:  1 eigenvalues not converged
     ethr =  1.00E-05,  avg # of iterations = 16.8

[...]

     total energy              =   -2758.76963528 Ry
     estimated scf accuracy    <    1760.48722711 Ry

     iteration #  2     ecut=    29.40 Ry     beta= 0.05
     Davidson diagonalization with overlap
     ethr =  1.00E-02,  avg # of iterations = 18.7

[...]

     iteration # 71     ecut=    29.40 Ry     beta= 0.05
     Davidson diagonalization with overlap
     ethr =  5.54E-11,  avg # of iterations =  7.7

[...]

     total energy              =   -2919.11585883 Ry
     estimated scf accuracy    <       0.00000011 Ry

     iteration # 72     ecut=    29.40 Ry     beta= 0.05
     Davidson diagonalization with overlap
     c_bands:  1 eigenvalues not converged
     ethr =  2.70E-11,  avg # of iterations = 11.6

     negative rho (up, down):  1.722E-02 0.000E+00

     Adding external electric field

     Computed dipole along edir(3) :
        Dipole                1.2610 Ry au,          3.2050 Debye
        Dipole field          0.0024 Ry au,

        Potential amp.       -0.2206 Ry
        Total length         46.3494 bohr

     End of self-consistent calculation

          k = 0.0000 0.0000 0.0000 ( 18029 PWs)   bands (ev):

   -55.5454 -55.5086 -55.5069 -55.4728 -55.4376 -55.4208 -55.3834 -55.3606
   -55.3605 -55.3355 -55.3260 -55.3123 -55.3021 -55.1297 -54.5276 -54.4935
   -32.1120 -31.9978 -31.9083 -31.8667 -31.8602 -31.8497 -31.8403 -31.8354
   -31.7966 -31.7851 -31.7536 -31.7519 -31.7515 -31.7162 -31.6986 -31.6807
   -31.6755 -31.6677 -31.6614 -31.6574 -31.6192 -31.6163 -31.6009 -31.5906
   -31.5640 -31.5625 -31.5608 -31.5525 -31.5477 -31.5420 -31.5318 -31.5235
   -31.5138 -31.5130 -31.5094 -31.4818 -31.4747 -31.4684 -31.4640 -31.4453
   -31.3533 -31.2709 -30.9365 -30.8434 -30.8213 -30.7530 -30.6662 -30.5553
   -16.5495 -16.3412 -16.0751 -15.8986 -15.7946 -15.7343 -15.5979 -15.5220
   -15.4443 -15.3418 -15.2513 -15.1846 -15.1688 -15.1484 -15.1433 -15.0822
   -15.0788 -15.0545 -15.0372 -15.0357 -14.9813 -14.9738 -14.9421 -14.9299
   -14.9191 -14.8468 -14.7627 -14.6938 -14.6335 -14.2067 -13.0302 -12.9129
    -9.2983  -6.2741  -4.6782  -3.6999  -3.5466  -3.4523  -3.4412  -3.4195
    -3.2711  -3.1331  -2.9271  -2.8465  -2.8002  -2.7509  -2.7228  -2.7051
    -2.6208  -2.5200  -2.4449  -2.4005  -2.3753  -2.3622  -2.3513  -2.3241
    -2.3124  -2.2788  -2.2397  -2.1989  -2.0937  -2.0058  -1.9651  -1.9299
    -1.8732  -1.8622  -1.8354  -1.8291  -1.8224  -1.8008  -1.7624  -1.7527
    -1.7052  -1.5653  -1.5528  -1.4350  -1.3979  -1.2862  -1.1854  -1.1794
    -1.0929  -1.0899  -1.0212  -0.9675  -0.9368  -0.9284  -0.8777  -0.8296
    -0.7401  -0.6470  -0.5854  -0.5435  -0.5087  -0.4796  -0.4124  -0.3212
    -0.3159  -0.3054  -0.2032  -0.1241  -0.1017  -0.0491  -0.0166   0.0266
     0.0427   0.1531   0.1958   0.2375   0.2554   0.3343   0.3561   0.4117
     0.4169   0.4521   0.4611   0.5269   0.5744   0.5939   0.6435   0.6627
     0.8209   1.0738   1.0807   1.1279   1.4039   1.4339   1.4949   1.6799
     2.0703   2.1181   3.5543   3.6267   3.6918   3.7046   3.7460   3.7912
     3.9587   4.0391   4.0555   4.0598   4.0911

[...]

          k = 0.0380-0.0419 0.0000 ( 17876 PWs)   bands (ev):

[...]

          k =-0.0760-0.0000 0.0000 ( 17886 PWs)   bands (ev):

[...]

          k =-0.0760-0.0839 0.0000 ( 17948 PWs)   bands (ev):

   -55.5307 -55.5230 -55.4898 -55.4897 -55.4335 -55.4096 -55.3946 -55.3644
   -55.3443 -55.3415 -55.3193 -55.3187 -55.3106 -55.1314 -54.5105 -54.5105
   -31.9184 -31.9132 -31.8292 -31.8130 -31.8128 -31.8046 -31.7821 -31.7819
   -31.7585 -31.7519 -31.7447 -31.7430 -31.7377 -31.6996 -31.6779 -31.6745
   -31.6704 -31.6661 -31.6624 -31.6575 -31.6529 -31.6337 -31.6197 -31.6191
   -31.6094 -31.6092 -31.6067 -31.5898 -31.5771 -31.5740 -31.5636 -31.5576
   -31.5548 -31.5537 -31.5440 -31.5437 -31.5109 -31.4987 -31.4981 -31.4862
   -31.3581 -31.3523 -30.8340 -30.8340 -30.7491 -30.7490 -30.7096 -30.7096
   -16.5265 -15.7797 -15.7460 -15.7302 -15.5265 -15.5182 -15.5104 -15.4925
   -15.3321 -15.3185 -15.2921 -15.2757 -15.2439 -15.2404 -15.2104 -15.1780
   -15.1245 -15.1201 -15.1117 -15.1094 -15.0495 -15.0453 -15.0250 -14.9964
   -14.9944 -14.9883 -14.8934 -14.8915 -14.7193 -14.5268 -13.0145 -13.0144
    -9.3026  -6.2699  -4.6601  -3.0547  -2.9934  -2.9331  -2.7360  -2.7325
    -2.7017  -2.6196  -2.5501  -2.5389  -2.5117  -2.4834  -2.4811  -2.4325
    -2.3882  -2.3785  -2.3672  -2.3601  -2.3417  -2.3277  -2.2986  -2.2619
    -2.2530  -2.2225  -2.2085  -2.1839  -2.1820  -2.1458  -2.1218  -2.1077
    -2.0958  -2.0351  -1.9329  -1.8806  -1.7947  -1.7684  -1.7391  -1.7330
    -1.6516  -1.6243  -1.5970  -1.5565  -1.5442  -1.5102  -1.3070  -1.2770
    -1.2678  -1.2539  -1.2309  -1.0802  -1.0708  -1.0207  -0.9895  -0.9422
    -0.8846  -0.8486  -0.8345  -0.7522  -0.7210  -0.6771  -0.6378  -0.5148
    -0.5106  -0.5035  -0.5018  -0.4842  -0.3974  -0.3854  -0.3425  -0.3091
    -0.2680  -0.2538  -0.1888  -0.0067   0.0098   0.0760   0.1831   0.2771
     0.3714   0.4509   0.4709   0.5219   0.5645   0.5851   0.6642   0.7574
     0.7692   0.8371   0.8833   0.9246   0.9288   0.9339   1.8528   1.8534
     1.9380   1.9382   3.6775   3.8022   3.8227   3.8608   3.8789   4.0280
     4.0740   4.1116   4.1336   4.1361   4.2185

     the Fermi energy is     3.6097 ev

!    total energy              =   -2919.11587381 Ry
     estimated scf accuracy    <       0.00000006 Ry
     smearing contrib. (-TS)   =      -0.03731868 Ry
     internal energy E=F+TS    =   -2919.07855514 Ry

     The total energy is F=E-TS. E is the sum of the following terms:
     one-electron contribution =  -24307.74002754 Ry
     hartree contribution      =   12241.27961575 Ry
     xc contribution           =    -480.01425588 Ry
     ewald contribution        =    9627.39311196 Ry
     electric field correction =       0.00300057 Ry

     convergence has been achieved in  72 iterations

     Forces acting on atoms (cartesian axes, Ry/au):

     atom    1 type  1   force =     0.00004568   -0.00015316    0.09378679
     atom    2 type  1   force =    -0.00017872   -0.00018689   -0.17778749
     atom    3 type  2   force =     0.00002523   -0.00021775   -0.02116496
     atom    4 type  2   force =    -0.00001492   -0.00198719    0.05775840
     atom    5 type  2   force =    -0.01107384   -0.00164925    0.00748846
     atom    6 type  2   force =     0.01243686   -0.00098436    0.00637170
     atom    7 type  1   force =    -0.00048008    0.00246756   -0.01334328
     atom    8 type  1   force =     0.00030026    0.00293465    0.00275832
     atom    9 type  2   force =     0.00007597   -0.00007903    0.00012548
     atom   10 type  2   force =    -0.00176366   -0.00227235   -0.00367262
     atom   11 type  2   force =     0.00016659    0.00059707   -0.00027338
     atom   12 type  2   force =     0.00044397    0.00053390   -0.00009177
     atom   13 type  1   force =    -0.00071828   -0.00094789   -0.00030525
     atom   14 type  1   force =     0.00082624    0.00027062   -0.00049446
     atom   15 type  2   force =     0.00026432    0.00019336   -0.00003434
     atom   16 type  2   force =    -0.00008425    0.00034631   -0.00061689
     atom   17 type  2   force =     0.00002665    0.00010760    0.00028664
     atom   18 type  2   force =     0.00049987    0.00002093    0.00024173
     atom   19 type  1   force =     0.00030486   -0.00090054    0.00031711
     atom   20 type  1   force =    -0.00017141    0.00054718    0.00032170
     atom   21 type  2   force =     0.00004425   -0.00002253    0.10384819
     atom   22 type  2   force =     0.00002787   -0.00064777    0.00005619
     atom   23 type  2   force =    -0.07059336   -0.00014868   -0.02706377
     atom   24 type  2   force =     0.07047253    0.00031613   -0.02710791
     atom   25 type  1   force =     0.00008259   -0.00018403    0.09358315
     atom   26 type  1   force =    -0.00009485   -0.00027145   -0.17782704
     atom   27 type  2   force =     0.00008236   -0.00045458   -0.02019362
     atom   28 type  2   force =     0.00002727   -0.00169230    0.05724778
     atom   29 type  2   force =    -0.01116655   -0.00114897    0.00695039
     atom   30 type  2   force =     0.01241954   -0.00080680    0.00581340
     atom   31 type  1   force =    -0.00039090    0.00467554   -0.01442066
     atom   32 type  1   force =     0.00037097   -0.00361809    0.00247530
     atom   33 type  2   force =    -0.00000468    0.00057701    0.00038881
     atom   34 type  2   force =    -0.00117785   -0.00059154   -0.00104404
     atom   35 type  2   force =     0.00039151    0.00025657    0.00022055
     atom   36 type  2   force =     0.00014186    0.00032912    0.00019013
     atom   37 type  1   force =    -0.00053298    0.00131176    0.00010216
     atom   38 type  1   force =     0.00087061    0.00007170   -0.00085396
     atom   39 type  2   force =     0.00013304    0.00046009    0.00030158
     atom   40 type  2   force =     0.00017672    0.00020009   -0.00052332
     atom   41 type  2   force =     0.00023025    0.00009654   -0.00073318
     atom   42 type  2   force =    -0.00010587    0.00004905   -0.00074793
     atom   43 type  1   force =     0.00005175    0.00100125    0.00009818
     atom   44 type  1   force =    -0.00015932    0.00027231   -0.00065808
     atom   45 type  2   force =     0.00004452   -0.00004001    0.10381691
     atom   46 type  2   force =    -0.07061576   -0.00006421   -0.02705732
     atom   47 type  2   force =     0.07049196    0.00035244   -0.02708829
     atom   48 type  3   force =    -0.00169725    0.00007891   -0.00082167
     atom   49 type  4   force =     0.00073882   -0.00110488   -0.00284381
     atom   50 type  5   force =     0.00048062    0.00082415    0.00028719
     atom   51 type  5   force =    -0.00162697    0.00134982    0.00288694
     atom   52 type  5   force =    -0.00004405   -0.00006741   -0.00095413

     Total force =     0.365951     Total SCF correction =     0.000773
  @ DRIVER MODE: Message from server: STATUS
  @ DRIVER MODE: Message from server: GETFORCE
  @ DRIVER MODE: Returning v,forces,stress,ensemble

     Writing output data file ./calc.save/
  @ DRIVER MODE: Message from server: EXIT
  @ DRIVE MODE: Exiting

     General routines

     Parallel routines

   This run was terminated on:   5: 1:19   9Sep2021

   JOB DONE.