     Program PWSCF v.6.7GPU starts on  9Sep2021 at 12:25:28

     R & G space division:  proc/nbgrp/npool/nimage =      10
     Reading input from /storage/home/hcoda1/3/ntian30/research/carbon/CxH_vib/CH3_calc/ads_slab/CH3NHNH2_a/out_0045/pw.inp
Warning: card &CELL ignored
Warning: card   CELL_DYNAMICS='IPI', ignored
Warning: card / ignored

     Current dimensions of program PWSCF are:
     Max number of different atomic species (ntypx) = 10
     Max number of k-points (npk) =  40000
     Max angular momentum in pseudopotentials (lmaxx) =  3
     Presently no symmetry can be used with electric field

     Message from routine cell_base_init:
     DEPRECATED: use true lattice parameter, not A to a.u. conversion factor

     IMPORTANT: XC functional enforced from input :
     Exchange-correlation= BEEF-VDW
                           (   1   4  43  14   2   0   0)
     Any further DFT definition will be discarded
     Please, verify this is what you really want

  @ DRIVER MODE: Connecting to
 qe_1139763_2767398.sched-torque.pace.gatech.edunb1868st_scratch
  using UNIX socket
  @ DRIVER MODE: Message from server: STATUS
  @ DRIVER MODE: Message from server: INIT
  @ DRIVER MODE: Receiving replica           0          -1
  @ DRIVER MODE: Receiving encoded integer          25
  @ DRIVER MODE:  SCF:  T  FORCE:  T  STRESS:  F  VC:  F  ENSEMBLE:  F
  @ DRIVER MODE:  SCF:  T  FORCE:  T  STRESS:  F  VC:  F  ENSEMBLE:  F

     Using Slab Decomposition

     bravais-lattice index     =            0
     lattice parameter (alat)  =       1.8897  a.u.
     unit-cell volume          =    6658.9804 (a.u.)^3
     number of atoms/cell      =           56
     number of atomic types    =            5
     number of electrons       =       398.00
     number of Kohn-Sham states=          209
     kinetic-energy cutoff     =      29.3995  Ry
     charge density cutoff     =     293.9946  Ry
     scf convergence threshold =      7.3E-08
     mixing beta               =       0.0500
     number of iterations used =            8  plain     mixing
     Exchange-correlation= BEEF-VDW
                           (   1   4  43  14   2   0   0)

     celldm(1)=   1.889726  celldm(2)=   0.000000  celldm(3)=   0.000000
     celldm(4)=   0.000000  celldm(5)=   0.000000  celldm(6)=   0.000000

     crystal axes: (cart. coord. in units of alat)
               a(1) = (   6.579727   0.000000   0.000000 )
               a(2) = (  -0.000775   5.961596   0.000000 )
               a(3) = (   0.000000   0.000000  25.155947 )

     reciprocal axes: (cart. coord. in units 2 pi/alat)
               b(1) = (  0.151982  0.000020  0.000000 )
               b(2) = (  0.000000  0.167740  0.000000 )
               b(3) = (  0.000000  0.000000  0.039752 )

     PseudoPot. # 1 for Ti read from file:
     /storage/coda1/p-amedford6/0/shared/rich_project_chbe-medford/medford-share/data/pseudos_module/espresso/nninc/pbe/van/Ti.UPF
     MD5 check sum: 8e4df49b7f0d34bbd5052bf3f5ea0213
     Pseudo is Ultrasoft, Zval = 12.0
     Generated by new atomic code, or converted to UPF format
     Using radial grid of  851 points,  6 beta functions with:
                l(1) =   0
                l(2) =   0
                l(3) =   1
                l(4) =   1
                l(5) =   2
                l(6) =   2
     Q(r) pseudized with  8 coefficients,  rinner =    1.000   1.000   1.000
                                                       1.000   1.000

     PseudoPot. # 2 for O  read from file:
     /storage/coda1/p-amedford6/0/shared/rich_project_chbe-medford/medford-share/data/pseudos_module/espresso/nninc/pbe/van/O.UPF
     MD5 check sum: 78c19812648e8988a0fe644b0f25305e
     Pseudo is Ultrasoft, Zval =  6.0
     Generated by new atomic code, or converted to UPF format
     Using radial grid of  737 points,  4 beta functions with:
                l(1) =   0
                l(2) =   0
                l(3) =   1
                l(4) =   1
     Q(r) pseudized with  8 coefficients,  rinner =    0.800   0.800   0.800

     PseudoPot. # 3 for N  read from file:
     /storage/coda1/p-amedford6/0/shared/rich_project_chbe-medford/medford-share/data/pseudos_module/espresso/nninc/pbe/van/N.UPF
     MD5 check sum: 90d10febe142ad51ac9d5be1deb811c4
     Pseudo is Ultrasoft, Zval =  5.0
     Generated by new atomic code, or converted to UPF format
     Using radial grid of  729 points,  4 beta functions with:
                l(1) =   0
                l(2) =   0
                l(3) =   1
                l(4) =   1
     Q(r) pseudized with  8 coefficients,  rinner =    0.800   0.800   0.800

     PseudoPot. # 4 for C  read from file:
     /storage/coda1/p-amedford6/0/shared/rich_project_chbe-medford/medford-share/data/pseudos_module/espresso/nninc/pbe/van/C.UPF
     MD5 check sum: 1a69bf6b8db32088f5b2163dbdb77a27
     Pseudo is Ultrasoft, Zval =  4.0
     Generated by new atomic code, or converted to UPF format
     Using radial grid of  721 points,  4 beta functions with:
                l(1) =   0
                l(2) =   0
                l(3) =   1
                l(4) =   1
     Q(r) pseudized with  8 coefficients,  rinner =    0.800   0.800   0.800

     PseudoPot. # 5 for H  read from file:
     /storage/coda1/p-amedford6/0/shared/rich_project_chbe-medford/medford-share/data/pseudos_module/espresso/nninc/pbe/van/H.UPF
     MD5 check sum: b5ee9d7bfd3a09ee7748110bda690ff7
     Pseudo is Ultrasoft, Zval =  1.0
     Generated by new atomic code, or converted to UPF format
     Using radial grid of  615 points,  1 beta functions with:
                l(1) =   0
     Q(r) pseudized with  8 coefficients,  rinner =    0.800

     atomic species   valence    mass     pseudopotential
        Ti1           12.00    47.86700     Ti( 1.00)
        O1             6.00    15.99900     O ( 1.00)
        N1             5.00    14.00700     N ( 1.00)
        C1             4.00    12.01100     C ( 1.00)
        H1             1.00     1.00800     H ( 1.00)

     No symmetry found

   Cartesian axes

     site n.     atom                  positions (alat units)
         1           Ti1 tau(   1) = (   0.0004258   2.9801865   6.0000000  )
         2           Ti1 tau(   2) = (   3.2906075   1.4906267   6.0002472  )
         3           O1  tau(   3) = (   0.0006271   0.0005054   7.9858123  )
         4           O1  tau(   4) = (   3.2906025   0.0005020   7.3038282  )
         5           O1  tau(   5) = (   4.5942328   1.4918067   9.2879030  )
         6           O1  tau(   6) = (   1.9868534   1.4903216   9.2879459  )
         7           Ti1 tau(   7) = (   3.2907910   2.8959150   9.1758416  )
         8           Ti1 tau(   8) = (   0.0015273   1.4827037   9.2680791  )
         9           O1  tau(   9) = (   3.2714441   0.0289406  11.3813764  )
        10           O1  tau(  10) = (   0.0116148   5.9584955  10.6183126  )
        11           O1  tau(  11) = (   1.2692032   1.5162281  12.7122965  )
        12           O1  tau(  12) = (   5.2779133   1.5159715  12.6811497  )
        13           Ti1 tau(  13) = (   6.5579218   3.0031650  12.5037829  )
        14           Ti1 tau(  14) = (   3.2791490   1.5128154  12.5375672  )
        15           O1  tau(  15) = (   6.5208524   5.8954130  14.6845636  )
        16           O1  tau(  16) = (   3.2849572   0.0099931  14.0031570  )
        17           O1  tau(  17) = (   4.4884262   1.5607690  16.1641467  )
        18           O1  tau(  18) = (   1.9729656   1.5430890  16.0903287  )
        19           Ti1 tau(  19) = (   3.2372663   3.0309179  15.7728032  )
        20           Ti1 tau(  20) = (   6.5553692   1.3539605  15.8053163  )
        21           O1  tau(  21) = (   3.2904802   0.0005063   4.7018136  )
        22           O1  tau(  22) = (   6.5123495   0.2165906  17.2215032  )
        23           O1  tau(  23) = (   1.3043587   1.4918075   6.0039043  )
        24           O1  tau(  24) = (   5.2767064   1.4903225   6.0039473  )
        25           Ti1 tau(  25) = (   0.0000382   5.9609847   6.0000000  )
        26           Ti1 tau(  26) = (   3.2902200   4.4714249   6.0002472  )
        27           O1  tau(  27) = (   0.0002396   2.9813036   7.9858123  )
        28           O1  tau(  28) = (   3.2902150   2.9813002   7.3038282  )
        29           O1  tau(  29) = (   4.5938453   4.4726049   9.2879030  )
        30           O1  tau(  30) = (   1.9864658   4.4711199   9.2879459  )
        31           Ti1 tau(  31) = (   3.2891106   5.8743827   9.1763621  )
        32           Ti1 tau(  32) = (   0.0006254   4.4649316   9.2693709  )
        33           O1  tau(  33) = (   3.2699379   2.9911670  11.3762017  )
        34           O1  tau(  34) = (   0.0092240   2.9805883  10.6323155  )
        35           O1  tau(  35) = (   1.2730946   4.4825978  12.6662957  )
        36           O1  tau(  36) = (   5.2742290   4.4829497  12.6320226  )
        37           Ti1 tau(  37) = (   6.5783117   0.0079037  12.5026730  )
        38           Ti1 tau(  38) = (   3.2784283   4.4905194  12.5286134  )
        39           O1  tau(  39) = (   6.5033290   3.0824797  14.9867588  )
        40           O1  tau(  40) = (   3.2824109   3.0350539  13.9807796  )
        41           O1  tau(  41) = (   4.4804250   4.5097483  16.2808085  )
        42           O1  tau(  42) = (   1.9642025   4.5165872  16.2225063  )
        43           Ti1 tau(  43) = (   3.2609991   0.0502580  15.7998297  )
        44           Ti1 tau(  44) = (   6.5501253   4.5826093  16.0954727  )
        45           O1  tau(  45) = (   3.2900926   2.9813045   4.7018136  )
        46           O1  tau(  46) = (   1.3039711   4.4726057   6.0039043  )
        47           O1  tau(  47) = (   5.2763189   4.4711207   6.0039473  )
        48           N1  tau(  48) = (   0.8845045   3.2634721  19.1145209  )
        49           N1  tau(  49) = (   6.3504243   3.3997271  18.1887592  )
        50           C1  tau(  50) = (   1.2927081   4.5631590  19.6429350  )
        51           H1  tau(  51) = (   0.4658632   5.1229972  20.1056819  )
        52           H1  tau(  52) = (   2.0600825   4.3818216  20.3958833  )
        53           H1  tau(  53) = (   1.7018904   5.1738364  18.8453250  )
        54           H1  tau(  54) = (   0.5628611   2.6866381  19.8888112  )
        55           H1  tau(  55) = (   5.6051421   3.9727062  18.5884547  )
        56           H1  tau(  56) = (   5.9567982   2.4624696  18.0937858  )

     number of k points=    10  Fermi-Dirac smearing, width (Ry)=  0.0073
                       cart. coord. in units 2pi/alat
        k(    1) = (   0.0000000   0.0000000   0.0000000), wk =   0.1250000
        k(    2) = (   0.0000000   0.0419351   0.0000000), wk =   0.2500000
        k(    3) = (   0.0000000  -0.0838702   0.0000000), wk =   0.1250000
        k(    4) = (   0.0379955   0.0000049   0.0000000), wk =   0.2500000
        k(    5) = (   0.0379955   0.0419400   0.0000000), wk =   0.2500000
        k(    6) = (   0.0379955  -0.0838652   0.0000000), wk =   0.2500000
        k(    7) = (   0.0379955  -0.0419301   0.0000000), wk =   0.2500000
        k(    8) = (  -0.0759910  -0.0000099   0.0000000), wk =   0.1250000
        k(    9) = (  -0.0759910   0.0419252   0.0000000), wk =   0.2500000
        k(   10) = (  -0.0759910  -0.0838800   0.0000000), wk =   0.1250000

     Initial potential from superposition of free atoms

     starting charge  381.99914, renormalised to  398.00000

     negative rho (up, down):  1.416E-02 0.000E+00

     %%%%%%%%%%%%%%%%%%%%%%%%%%%%%%%%%%%%%%%%%%%%%%%%%%%%%%%%%%%%%%%%%%%%%%%%
     %                                                                      %
     % You are using vdW-DF, which was implemented by the Thonhauser group. %
     % Please cite the following two papers that made this development      %
     % possible and the two reviews that describe the various versions:     %
     %                                                                      %
     %   T. Thonhauser et al., PRL 115, 136402 (2015).                      %
     %   T. Thonhauser et al., PRB 76, 125112 (2007).                       %
     %   K. Berland et al., Rep. Prog. Phys. 78, 066501 (2015).             %
     %   D.C. Langreth et al., J. Phys.: Condens. Matter 21, 084203 (2009). %
     %                                                                      %
     %                                                                      %
     % If you are calculating the stress with vdW-DF, please also cite:     %
     %                                                                      %
     %   R. Sabatini et al., J. Phys.: Condens. Matter 24, 424209 (2012).   %
     %                                                                      %
     %%%%%%%%%%%%%%%%%%%%%%%%%%%%%%%%%%%%%%%%%%%%%%%%%%%%%%%%%%%%%%%%%%%%%%%%

     Adding external electric field

     Computed dipole along edir(3) :
        Dipole              -11.7171 Ry au,        -29.7818 Debye
        Dipole field         -0.0221 Ry au,

        Potential amp.        2.0497 Ry
        Total length         46.3494 bohr

     Starting wfcs are  302 atomic wfcs
  @ DRIVER MODE: Message from server: STATUS
  @ DRIVER MODE: Message from server: POSDATA
  @ DRIVER MODE: Reading and sharing cell
  @ DRIVER MODE: Reading and sharing positions
  @ DRIVER MODE: Received positions

     Self-consistent Calculation

     iteration #  1     ecut=    29.40 Ry     beta= 0.05
     Davidson diagonalization with overlap
     c_bands:  3 eigenvalues not converged
     c_bands:  1 eigenvalues not converged
     c_bands:  1 eigenvalues not converged
     c_bands:  4 eigenvalues not converged
     c_bands:  1 eigenvalues not converged
     c_bands:  4 eigenvalues not converged
     c_bands:  5 eigenvalues not converged
     c_bands:  2 eigenvalues not converged
     ethr =  1.00E-05,  avg # of iterations = 21.9

[...]

     total energy              =   -2424.66111462 Ry
     estimated scf accuracy    <    5829.15285271 Ry

     iteration #  2     ecut=    29.40 Ry     beta= 0.05
     Davidson diagonalization with overlap
     ethr =  1.00E-02,  avg # of iterations = 22.5

[...]

     iteration # 79     ecut=    29.40 Ry     beta= 0.05
     Davidson diagonalization with overlap
     c_bands:  2 eigenvalues not converged
     c_bands:  1 eigenvalues not converged
     ethr =  4.75E-11,  avg # of iterations = 15.6

[...]

     total energy              =   -2942.84387707 Ry
     estimated scf accuracy    <       0.00000034 Ry

     iteration # 80     ecut=    29.40 Ry     beta= 0.05
     Davidson diagonalization with overlap
     ethr =  4.75E-11,  avg # of iterations =  8.6

     negative rho (up, down):  1.513E-02 0.000E+00

     Adding external electric field

     Computed dipole along edir(3) :
        Dipole                1.4962 Ry au,          3.8028 Debye
        Dipole field          0.0028 Ry au,

        Potential amp.       -0.2617 Ry
        Total length         46.3494 bohr

     End of self-consistent calculation

          k = 0.0000 0.0000 0.0000 ( 18029 PWs)   bands (ev):

   -55.2013 -55.1642 -55.1535 -55.1247 -55.1193 -55.0827 -55.0795 -55.0447
   -55.0255 -55.0125 -54.9911 -54.9862 -54.9525 -54.8556 -54.1857 -54.1516
   -31.7677 -31.6515 -31.6464 -31.5676 -31.5148 -31.5136 -31.5109 -31.4922
   -31.4424 -31.4389 -31.4110 -31.4088 -31.3984 -31.3815 -31.3686 -31.3629
   -31.3558 -31.3460 -31.3387 -31.3219 -31.3061 -31.3033 -31.2716 -31.2678
   -31.2571 -31.2562 -31.2375 -31.2281 -31.2107 -31.2099 -31.2057 -31.1851
   -31.1849 -31.1815 -31.1747 -31.1722 -31.1389 -31.1292 -31.1145 -31.0976
   -31.0689 -31.0495 -30.5953 -30.5006 -30.4785 -30.4115 -30.3247 -30.2139
   -17.9699 -16.0348 -15.7725 -15.6271 -15.5150 -15.4037 -15.2841 -15.2533
   -15.1336 -15.0575 -14.9234 -14.8971 -14.8749 -14.8513 -14.8394 -14.8268
   -14.7510 -14.7446 -14.7285 -14.7002 -14.6984 -14.6532 -14.6434 -14.6039
   -14.5790 -14.5579 -14.4531 -14.3650 -14.2910 -14.0737 -13.4566 -12.6885
   -12.5710  -9.7129  -6.5959  -6.1029  -4.5902  -3.3733  -3.2547  -3.2251
    -3.1380  -3.1044  -3.0957  -3.0020  -2.9499  -2.7917  -2.6492  -2.6236
    -2.4926  -2.4176  -2.4011  -2.3767  -2.2471  -2.2122  -2.1606  -2.1221
    -2.0625  -2.0325  -2.0082  -1.9925  -1.9615  -1.9523  -1.9272  -1.8379
    -1.7789  -1.6865  -1.6694  -1.6009  -1.5934  -1.5603  -1.5392  -1.4939
    -1.4836  -1.4345  -1.4268  -1.4142  -1.3942  -1.2664  -1.2227  -1.1128
    -1.0516  -0.9639  -0.8432  -0.8031  -0.7890  -0.6984  -0.6896  -0.6577
    -0.5811  -0.5778  -0.5472  -0.4390  -0.3741  -0.3105  -0.2516  -0.2249
    -0.1920  -0.1146  -0.0236   0.0123   0.0291   0.0523   0.1523   0.1874
     0.2431   0.3099   0.3214   0.3347   0.4145   0.4554   0.5307   0.5673
     0.5851   0.6736   0.7001   0.7279   0.7284   0.7662   0.7805   0.8202
     0.8689   0.8956   0.9821   1.0412   1.1029   1.3478   1.4006   1.4064
     1.7325   1.7404   1.8369   2.0203   2.4133   2.4617   3.8951   3.9640
     4.0397   4.0446   4.0671   4.1309   4.3688   4.3919   4.4008   4.4030
     4.4297

[...]

          k = 0.0380-0.0419 0.0000 ( 17876 PWs)   bands (ev):

[...]

          k =-0.0760-0.0000 0.0000 ( 17886 PWs)   bands (ev):

[...]

          k =-0.0760-0.0839 0.0000 ( 17948 PWs)   bands (ev):

   -55.1875 -55.1778 -55.1366 -55.1361 -55.1233 -55.0783 -55.0650 -55.0591
   -55.0168 -55.0096 -55.0065 -54.9696 -54.9692 -54.8567 -54.1688 -54.1684
   -31.5758 -31.5749 -31.5681 -31.4833 -31.4616 -31.4613 -31.4584 -31.4277
   -31.4275 -31.4122 -31.4014 -31.3998 -31.3911 -31.3652 -31.3561 -31.3431
   -31.3422 -31.3384 -31.3350 -31.3295 -31.3275 -31.3215 -31.2825 -31.2793
   -31.2791 -31.2777 -31.2598 -31.2584 -31.2563 -31.2559 -31.2511 -31.2426
   -31.2397 -31.2228 -31.2194 -31.2035 -31.2027 -31.1998 -31.1504 -31.1501
   -31.1253 -31.0733 -30.4913 -30.4910 -30.4079 -30.4076 -30.3682 -30.3680
   -17.9666 -15.5598 -15.4298 -15.4007 -15.2443 -15.2082 -15.1748 -15.1615
   -15.0406 -15.0034 -14.9787 -14.9693 -14.9517 -14.9112 -14.9056 -14.8986
   -14.8282 -14.8089 -14.8047 -14.7823 -14.7242 -14.7153 -14.7114 -14.7038
   -14.6532 -14.6496 -14.5690 -14.5588 -14.5556 -14.3749 -13.4600 -12.6725
   -12.6724  -9.7289  -6.5805  -6.1026  -4.5692  -3.2261  -2.9593  -2.6922
    -2.6873  -2.6593  -2.4583  -2.3956  -2.3649  -2.3594  -2.2621  -2.2256
    -2.2010  -2.1974  -2.1321  -2.1174  -2.0869  -2.0567  -2.0404  -2.0266
    -2.0114  -1.9972  -1.9712  -1.9338  -1.9258  -1.9177  -1.8855  -1.8640
    -1.8409  -1.8188  -1.8051  -1.7867  -1.7607  -1.7384  -1.6017  -1.5698
    -1.4998  -1.4574  -1.4131  -1.4088  -1.3371  -1.3006  -1.2505  -1.2383
    -1.2214  -1.0816  -1.0231  -0.9722  -0.9523  -0.9412  -0.8122  -0.7981
    -0.7250  -0.7074  -0.6912  -0.6161  -0.5657  -0.5272  -0.5137  -0.4204
    -0.4050  -0.3385  -0.2365  -0.2139  -0.1999  -0.1592  -0.1562  -0.1089
    -0.1019  -0.0177   0.0265   0.0615   0.0723   0.1081   0.3011   0.3170
     0.3271   0.4801   0.4961   0.6376   0.6811   0.7477   0.8064   0.8454
     0.9071   0.9443   1.0518   1.0862   1.1020   1.1097   1.1717   1.1837
     1.2464   1.2571   2.1929   2.1936   2.2816   2.2818   4.0411   4.1485
     4.1562   4.1978   4.3176   4.3483   4.4101   4.4374   4.4789   4.4822
     4.5421

     the Fermi energy is     3.9585 ev

!    total energy              =   -2942.84388723 Ry
     estimated scf accuracy    <       0.00000007 Ry
     smearing contrib. (-TS)   =      -0.03707650 Ry
     internal energy E=F+TS    =   -2942.80681073 Ry

     The total energy is F=E-TS. E is the sum of the following terms:
     one-electron contribution =  -23366.74022128 Ry
     hartree contribution      =   11777.55157296 Ry
     xc contribution           =    -487.74531643 Ry
     ewald contribution        =    9134.12292974 Ry
     electric field correction =       0.00422428 Ry

     convergence has been achieved in  80 iterations

     Forces acting on atoms (cartesian axes, Ry/au):

     atom    1 type  1   force =     0.00017319   -0.00033267    0.09329872
     atom    2 type  1   force =    -0.00006455   -0.00042186   -0.17821553
     atom    3 type  2   force =     0.00002620   -0.00032059   -0.02003727
     atom    4 type  2   force =     0.00002124   -0.00183250    0.05924768
     atom    5 type  2   force =    -0.01045686   -0.00027029    0.00864298
     atom    6 type  2   force =     0.01147003    0.00040175    0.00645643
     atom    7 type  1   force =    -0.00100015    0.00212994   -0.01398415
     atom    8 type  1   force =     0.00081812   -0.00094650   -0.00572688
     atom    9 type  2   force =    -0.00010042    0.00012684   -0.00003201
     atom   10 type  2   force =    -0.00185401    0.00411578    0.00026418
     atom   11 type  2   force =    -0.00005767   -0.00064157    0.00028763
     atom   12 type  2   force =    -0.00002022   -0.00041190    0.00054406
     atom   13 type  1   force =     0.00004207    0.00009931    0.00030848
     atom   14 type  1   force =    -0.00037560    0.00000471    0.00006468
     atom   15 type  2   force =     0.00051742    0.00021127   -0.00033823
     atom   16 type  2   force =     0.00032229   -0.00035050   -0.00005792
     atom   17 type  2   force =    -0.00059355   -0.00000342   -0.00001494
     atom   18 type  2   force =     0.00054399   -0.00018611    0.00000825
     atom   19 type  1   force =    -0.00003009   -0.00053351    0.00015787
     atom   20 type  1   force =     0.00068886    0.00004278    0.00099818
     atom   21 type  2   force =     0.00012294   -0.00012531    0.10401318
     atom   22 type  2   force =    -0.00037318    0.00020812   -0.00033552
     atom   23 type  2   force =    -0.07025399   -0.00021867   -0.02686543
     atom   24 type  2   force =     0.07024513    0.00022219   -0.02689195
     atom   25 type  1   force =     0.00008077   -0.00031980    0.09261769
     atom   26 type  1   force =    -0.00003268   -0.00059394   -0.17833678
     atom   27 type  2   force =     0.00012917   -0.00016835   -0.01908808
     atom   28 type  2   force =     0.00004923   -0.00163389    0.05860829
     atom   29 type  2   force =    -0.01105882   -0.00056387    0.00932457
     atom   30 type  2   force =     0.01197698   -0.00002445    0.00721304
     atom   31 type  1   force =    -0.00092941    0.00646856   -0.01505260
     atom   32 type  1   force =     0.00086117    0.00101815   -0.00586456
     atom   33 type  2   force =     0.00017396   -0.00057132   -0.00006497
     atom   34 type  2   force =    -0.00185801   -0.00052150   -0.00049562
     atom   35 type  2   force =    -0.00044175    0.00006191   -0.00042929
     atom   36 type  2   force =     0.00034146   -0.00011784    0.00018628
     atom   37 type  1   force =    -0.00051270   -0.00025740    0.00017684
     atom   38 type  1   force =    -0.00004616   -0.00015081   -0.00010004
     atom   39 type  2   force =     0.00030177   -0.00058602   -0.00001752
     atom   40 type  2   force =    -0.00060284   -0.00051251    0.00026415
     atom   41 type  2   force =    -0.00024372   -0.00076636   -0.00068448
     atom   42 type  2   force =     0.00045031   -0.00010860   -0.00009994
     atom   43 type  1   force =     0.00023240   -0.00021284   -0.00020580
     atom   44 type  1   force =     0.00046595    0.00018578    0.00093178
     atom   45 type  2   force =     0.00013581   -0.00014181    0.10397496
     atom   46 type  2   force =    -0.07025594   -0.00016565   -0.02683810
     atom   47 type  2   force =     0.07022662    0.00025739   -0.02689695
     atom   48 type  3   force =     0.00109855    0.00143716   -0.00035352
     atom   49 type  3   force =     0.00424460   -0.00660744   -0.00301215
     atom   50 type  4   force =     0.00023068   -0.00144473    0.00018044
     atom   51 type  5   force =    -0.00065816    0.00149480    0.00066737
     atom   52 type  5   force =     0.00036752   -0.00025709   -0.00019029
     atom   53 type  5   force =     0.00079675    0.00040708   -0.00121644
     atom   54 type  5   force =    -0.00000602   -0.00178575    0.00071860
     atom   55 type  5   force =    -0.00531272    0.00567814    0.00322751
     atom   56 type  5   force =    -0.00001596   -0.00046430   -0.00093688

     Total force =     0.366493     Total SCF correction =     0.000779
  @ DRIVER MODE: Message from server: STATUS
  @ DRIVER MODE: Message from server: GETFORCE
  @ DRIVER MODE: Returning v,forces,stress,ensemble

     Writing output data file ./calc.save/
  @ DRIVER MODE: Message from server: EXIT
  @ DRIVE MODE: Exiting

     General routines

     Parallel routines

   This run was terminated on:  12:45:30   9Sep2021

   JOB DONE.