     Program PWSCF v.6.7GPU starts on 18Oct2021 at 15:14:45

     R & G space division:  proc/nbgrp/npool/nimage =       8
     Reading input from /storage/home/hcoda1/3/ntian30/research/carbon/CxH_vib/Thiel_calc/ads_slab/NNH2_perslab/out_0007/pw.inp
Warning: card &CELL ignored
Warning: card   CELL_DYNAMICS='IPI', ignored
Warning: card / ignored

     Current dimensions of program PWSCF are:
     Max number of different atomic species (ntypx) = 10
     Max number of k-points (npk) =  40000
     Max angular momentum in pseudopotentials (lmaxx) =  3
     Presently no symmetry can be used with electric field

     Message from routine cell_base_init:
     DEPRECATED: use true lattice parameter, not A to a.u. conversion factor

     IMPORTANT: XC functional enforced from input :
     Exchange-correlation= BEEF-VDW
                           (   1   4  43  14   2   0   0)
     Any further DFT definition will be discarded
     Please, verify this is what you really want

  @ DRIVER MODE: Connecting to
 qe_1139763_3255132.sched-torque.pace.gatech.edufz85yegl_scratch
  using UNIX socket
  @ DRIVER MODE: Message from server: STATUS
  @ DRIVER MODE: Message from server: INIT
  @ DRIVER MODE: Receiving replica           0          -1
  @ DRIVER MODE: Receiving encoded integer          25
  @ DRIVER MODE:  SCF:  T  FORCE:  T  STRESS:  F  VC:  F  ENSEMBLE:  F
  @ DRIVER MODE:  SCF:  T  FORCE:  T  STRESS:  F  VC:  F  ENSEMBLE:  F

     Using Slab Decomposition

     bravais-lattice index     =            0
     lattice parameter (alat)  =       1.8897  a.u.
     unit-cell volume          =    9988.4706 (a.u.)^3
     number of atoms/cell      =           57
     number of atomic types    =            4
     number of electrons       =       438.00
     number of Kohn-Sham states=          229
     kinetic-energy cutoff     =      29.3995  Ry
     charge density cutoff     =     293.9946  Ry
     scf convergence threshold =      7.3E-08
     mixing beta               =       0.0500
     number of iterations used =            8  plain     mixing
     Exchange-correlation= BEEF-VDW
                           (   1   4  43  14   2   0   0)

     celldm(1)=   1.889726  celldm(2)=   0.000000  celldm(3)=   0.000000
     celldm(4)=   0.000000  celldm(5)=   0.000000  celldm(6)=   0.000000

     crystal axes: (cart. coord. in units of alat)
               a(1) = (   6.579727   0.000000   0.000000 )
               a(2) = (  -0.001163   8.942395   0.000000 )
               a(3) = (   0.000000   0.000000  25.155947 )

     reciprocal axes: (cart. coord. in units 2 pi/alat)
               b(1) = (  0.151982  0.000020  0.000000 )
               b(2) = (  0.000000  0.111827  0.000000 )
               b(3) = (  0.000000  0.000000  0.039752 )

     PseudoPot. # 1 for O  read from file:
     /storage/coda1/p-amedford6/0/shared/rich_project_chbe-medford/medford-share/data/pseudos_module/espresso/nninc/pbe/van/O.UPF
     MD5 check sum: 78c19812648e8988a0fe644b0f25305e
     Pseudo is Ultrasoft, Zval =  6.0
     Generated by new atomic code, or converted to UPF format
     Using radial grid of  737 points,  4 beta functions with:
                l(1) =   0
                l(2) =   0
                l(3) =   1
                l(4) =   1
     Q(r) pseudized with  8 coefficients,  rinner =    0.800   0.800   0.800

     PseudoPot. # 2 for Ti read from file:
     /storage/coda1/p-amedford6/0/shared/rich_project_chbe-medford/medford-share/data/pseudos_module/espresso/nninc/pbe/van/Ti.UPF
     MD5 check sum: 8e4df49b7f0d34bbd5052bf3f5ea0213
     Pseudo is Ultrasoft, Zval = 12.0
     Generated by new atomic code, or converted to UPF format
     Using radial grid of  851 points,  6 beta functions with:
                l(1) =   0
                l(2) =   0
                l(3) =   1
                l(4) =   1
                l(5) =   2
                l(6) =   2
     Q(r) pseudized with  8 coefficients,  rinner =    1.000   1.000   1.000
                                                       1.000   1.000

     PseudoPot. # 3 for H  read from file:
     /storage/coda1/p-amedford6/0/shared/rich_project_chbe-medford/medford-share/data/pseudos_module/espresso/nninc/pbe/van/H.UPF
     MD5 check sum: b5ee9d7bfd3a09ee7748110bda690ff7
     Pseudo is Ultrasoft, Zval =  1.0
     Generated by new atomic code, or converted to UPF format
     Using radial grid of  615 points,  1 beta functions with:
                l(1) =   0
     Q(r) pseudized with  8 coefficients,  rinner =    0.800

     PseudoPot. # 4 for N  read from file:
     /storage/coda1/p-amedford6/0/shared/rich_project_chbe-medford/medford-share/data/pseudos_module/espresso/nninc/pbe/van/N.UPF
     MD5 check sum: 90d10febe142ad51ac9d5be1deb811c4
     Pseudo is Ultrasoft, Zval =  5.0
     Generated by new atomic code, or converted to UPF format
     Using radial grid of  729 points,  4 beta functions with:
                l(1) =   0
                l(2) =   0
                l(3) =   1
                l(4) =   1
     Q(r) pseudized with  8 coefficients,  rinner =    0.800   0.800   0.800

     atomic species   valence    mass     pseudopotential
        O1             6.00    15.99900     O ( 1.00)
        Ti1           12.00    47.86700     Ti( 1.00)
        H1             1.00     1.00800     H ( 1.00)
        N1             5.00    14.00700     N ( 1.00)

     No symmetry found

   Cartesian axes

     site n.     atom                  positions (alat units)
         1           O1  tau(   1) = (   0.0007354   0.0005023  10.5931620  )
         2           O1  tau(   2) = (   3.2894307   8.9151027  13.8626301  )
         3           O1  tau(   3) = (   6.5785074   8.9029937  17.1811234  )
         4           O1  tau(   4) = (   0.0006271   0.0005054   7.9858123  )
         5           O1  tau(   5) = (   3.2894531   8.9103059  11.1803102  )
         6           O1  tau(   6) = (   0.0001665   0.0898506  14.4854618  )
         7           O1  tau(   7) = (   1.9868534   1.4903216   9.2879459  )
         8           O1  tau(   8) = (   5.2077972   1.5880252  12.5310617  )
         9           O1  tau(   9) = (   2.0270748   1.5591520  16.0154840  )
        10           Ti1 tau(  10) = (   0.0007404   1.4906270   9.2895810  )
        11           Ti1 tau(  11) = (   3.2905041   1.3137855  12.4866761  )
        12           Ti1 tau(  12) = (   0.0002678   1.1980239  15.9503415  )
        13           O1  tau(  13) = (   4.5942328   1.4918067   9.2879030  )
        14           O1  tau(  14) = (   1.3724876   1.5877008  12.5310667  )
        15           O1  tau(  15) = (   4.5530873   1.5595562  16.0152608  )
        16           Ti1 tau(  16) = (   3.2902859   2.9801868   9.2893338  )
        17           Ti1 tau(  17) = (   0.0008780   2.7802750  12.4897906  )
        18           Ti1 tau(  18) = (   3.2898779   2.8637395  15.6733051  )
        19           O1  tau(  19) = (   0.0003479   2.9813005  10.5931620  )
        20           O1  tau(  20) = (   3.2899356   2.9525523  13.8505550  )
        21           O1  tau(  21) = (   0.0002396   2.9813036   7.9858123  )
        22           O1  tau(  22) = (   3.2901204   2.9601344  11.1763257  )
        23           O1  tau(  23) = (   0.0004730   3.0483324  14.4991547  )
        24           O1  tau(  24) = (   1.9864658   4.4711199   9.2879459  )
        25           O1  tau(  25) = (   5.2121867   4.5795871  12.5488104  )
        26           O1  tau(  26) = (   2.0380122   4.5167588  15.9960207  )
        27           Ti1 tau(  27) = (   0.0003529   4.4714252   9.2895810  )
        28           Ti1 tau(  28) = (   3.2900145   4.2996056  12.4866231  )
        29           Ti1 tau(  29) = (   0.0009039   4.3359069  15.7637737  )
        30           O1  tau(  30) = (   4.5938453   4.4726049   9.2879030  )
        31           O1  tau(  31) = (   1.3674610   4.5798255  12.5489393  )
        32           O1  tau(  32) = (   4.5418257   4.5152924  15.9960624  )
        33           Ti1 tau(  33) = (   3.2898983   5.9609850   9.2893338  )
        34           Ti1 tau(  34) = (   0.0004239   5.7833099  12.5042391  )
        35           Ti1 tau(  35) = (   3.2910320   5.8371074  15.6885635  )
        36           O1  tau(  36) = (  -0.0000397   5.9620987  10.5931620  )
        37           O1  tau(  37) = (   3.2901811   5.9367453  13.8700337  )
        38           O1  tau(  38) = (  -0.0004039   5.8805593  17.2333871  )
        39           O1  tau(  39) = (  -0.0001480   5.9621018   7.9858123  )
        40           O1  tau(  40) = (   3.2898277   5.9371809  11.1794419  )
        41           O1  tau(  41) = (  -0.0006310   6.0052776  14.6075531  )
        42           O1  tau(  42) = (   1.9860782   7.4519181   9.2879459  )
        43           O1  tau(  43) = (   5.2131951   7.5341658  12.5551123  )
        44           O1  tau(  44) = (   2.0327247   7.5116181  16.0212389  )
        45           Ti1 tau(  45) = (  -0.0000347   7.4522234   9.2895810  )
        46           Ti1 tau(  46) = (   3.2898580   7.2746474  12.4940400  )
        47           Ti1 tau(  47) = (  -0.0002525   7.1929251  16.1233257  )
        48           O1  tau(  48) = (   4.5934577   7.4534031   9.2879030  )
        49           O1  tau(  49) = (   1.3658113   7.5340457  12.5553947  )
        50           O1  tau(  50) = (   4.5451309   7.5107891  16.0219122  )
        51           Ti1 tau(  51) = (   3.2895107   8.9417832   9.2893338  )
        52           Ti1 tau(  52) = (   0.0004043   8.7442612  12.5370553  )
        53           Ti1 tau(  53) = (   3.2888508   8.8110328  15.6839088  )
        54           H1  tau(  54) = (   6.5771461   3.9800110  18.9428080  )
        55           N1  tau(  55) = (   6.5678577   3.0643241  18.4967573  )
        56           N1  tau(  56) = (   0.0000211   2.9855599  17.2125610  )
        57           H1  tau(  57) = (   6.5772452   2.2208360  19.0633684  )

     number of k points=    10  Fermi-Dirac smearing, width (Ry)=  0.0073
                       cart. coord. in units 2pi/alat
        k(    1) = (   0.0000000   0.0000000   0.0000000), wk =   0.1250000
        k(    2) = (   0.0000000   0.0279567   0.0000000), wk =   0.2500000
        k(    3) = (   0.0000000  -0.0559134   0.0000000), wk =   0.1250000
        k(    4) = (   0.0379955   0.0000049   0.0000000), wk =   0.2500000
        k(    5) = (   0.0379955   0.0279617   0.0000000), wk =   0.2500000
        k(    6) = (   0.0379955  -0.0559085   0.0000000), wk =   0.2500000
        k(    7) = (   0.0379955  -0.0279518   0.0000000), wk =   0.2500000
        k(    8) = (  -0.0759910  -0.0000099   0.0000000), wk =   0.1250000
        k(    9) = (  -0.0759910   0.0279468   0.0000000), wk =   0.2500000
        k(   10) = (  -0.0759910  -0.0559233   0.0000000), wk =   0.1250000

     Initial potential from superposition of free atoms

     starting charge  419.99912, renormalised to  438.00000

     negative rho (up, down):  3.820E-02 0.000E+00

     %%%%%%%%%%%%%%%%%%%%%%%%%%%%%%%%%%%%%%%%%%%%%%%%%%%%%%%%%%%%%%%%%%%%%%%%
     %                                                                      %
     % You are using vdW-DF, which was implemented by the Thonhauser group. %
     % Please cite the following two papers that made this development      %
     % possible and the two reviews that describe the various versions:     %
     %                                                                      %
     %   T. Thonhauser et al., PRL 115, 136402 (2015).                      %
     %   T. Thonhauser et al., PRB 76, 125112 (2007).                       %
     %   K. Berland et al., Rep. Prog. Phys. 78, 066501 (2015).             %
     %   D.C. Langreth et al., J. Phys.: Condens. Matter 21, 084203 (2009). %
     %                                                                      %
     %                                                                      %
     % If you are calculating the stress with vdW-DF, please also cite:     %
     %                                                                      %
     %   R. Sabatini et al., J. Phys.: Condens. Matter 24, 424209 (2012).   %
     %                                                                      %
     %%%%%%%%%%%%%%%%%%%%%%%%%%%%%%%%%%%%%%%%%%%%%%%%%%%%%%%%%%%%%%%%%%%%%%%%

     Adding external electric field

     Computed dipole along edir(3) :
        Dipole               -4.0077 Ry au,        -10.1866 Debye
        Dipole field         -0.0050 Ry au,

        Potential amp.        0.4674 Ry
        Total length         46.3494 bohr

     Starting wfcs are  330 atomic wfcs
  @ DRIVER MODE: Message from server: STATUS
  @ DRIVER MODE: Message from server: POSDATA
  @ DRIVER MODE: Reading and sharing cell
  @ DRIVER MODE: Reading and sharing positions
  @ DRIVER MODE: Received positions

     Self-consistent Calculation

     iteration #  1     ecut=    29.40 Ry     beta= 0.05
     Davidson diagonalization with overlap
     c_bands:  2 eigenvalues not converged
     c_bands:  4 eigenvalues not converged
     c_bands:  1 eigenvalues not converged
     c_bands:  4 eigenvalues not converged
     c_bands:  1 eigenvalues not converged
     c_bands:  1 eigenvalues not converged
     ethr =  1.00E-05,  avg # of iterations = 25.3

[...]

     total energy              =   -3291.57974141 Ry
     estimated scf accuracy    <      28.48464129 Ry

     iteration #  2     ecut=    29.40 Ry     beta= 0.05
     Davidson diagonalization with overlap
     ethr =  6.50E-03,  avg # of iterations =  4.7

[...]

     iteration # 36     ecut=    29.40 Ry     beta= 0.05
     Davidson diagonalization with overlap
     c_bands:  1 eigenvalues not converged
     ethr =  2.56E-06,  avg # of iterations = 10.2

[...]

     total energy              =   -3290.76835738 Ry
     estimated scf accuracy    <       0.00000008 Ry

     iteration # 79     ecut=    29.40 Ry     beta= 0.05
     Davidson diagonalization with overlap
     ethr =  1.90E-11,  avg # of iterations =  5.1

     negative rho (up, down):  3.580E-02 0.000E+00

     Adding external electric field

     Computed dipole along edir(3) :
        Dipole                1.4081 Ry au,          3.5790 Debye
        Dipole field          0.0018 Ry au,

        Potential amp.       -0.1642 Ry
        Total length         46.3494 bohr

     End of self-consistent calculation

          k = 0.0000 0.0000 0.0000 ( 26871 PWs)   bands (ev):

   -58.1002 -58.0759 -58.0729 -57.9813 -57.9577 -57.9519 -57.8988 -57.8649
   -57.8329 -57.6324 -57.5521 -57.5086 -57.0196 -56.9783 -56.9558 -56.8031
   -56.7755 -56.7655 -34.4592 -34.4573 -34.4548 -34.4436 -34.4405 -34.3917
   -34.3886 -34.3179 -34.2978 -34.2747 -34.2686 -34.2437 -34.2394 -34.2162
   -34.2122 -34.2065 -34.1998 -34.1979 -34.1813 -34.1606 -34.1555 -34.1459
   -34.1448 -34.1356 -34.0925 -34.0820 -34.0461 -34.0271 -33.9953 -33.9150
   -33.8479 -33.8058 -33.7981 -33.7902 -33.7326 -33.6606 -33.5321 -33.4368
   -33.2915 -33.2700 -33.2507 -33.2394 -33.2263 -33.2174 -33.1425 -33.1364
   -33.1204 -33.1121 -33.1085 -33.0919 -33.0143 -32.9535 -32.9397 -32.8133
   -20.4743 -18.8330 -18.3406 -18.2134 -18.2077 -18.1892 -18.1478 -18.1404
   -18.0721 -17.8259 -17.6987 -17.6774 -17.6743 -17.6448 -17.5733 -17.5710
   -17.5436 -17.5110 -17.4982 -17.4736 -17.3964 -17.3924 -17.3209 -17.2896
   -17.2353 -17.1648 -17.1164 -17.0888 -17.0192 -16.8984 -16.7211 -16.5738
   -16.4262 -15.2739 -15.2288 -15.2232 -12.9651  -9.1846  -6.9533  -6.1815
    -5.8701  -5.7472  -5.7237  -5.4584  -5.4462  -5.3714  -5.3614  -5.3151
    -5.2326  -5.2287  -5.2173  -5.2143  -5.1750  -5.0464  -5.0335  -4.9003
    -4.8448  -4.8278  -4.8133  -4.7892  -4.7307  -4.7158  -4.6585  -4.6478
    -4.6275  -4.6163  -4.6073  -4.5104  -4.4719  -4.3775  -4.3514  -4.3274
    -4.3099  -4.2593  -4.1929  -4.1469  -4.1357  -4.0704  -4.0454  -3.9755
    -3.9503  -3.9461  -3.9253  -3.8912  -3.8383  -3.6564  -3.6329  -3.5476
    -3.4196  -3.3510  -3.2666  -3.2569  -3.1789  -3.1672  -3.1448  -3.1333
    -3.1240  -3.1133  -3.0496  -2.9681  -2.9398  -2.8947  -2.8747  -2.8637
    -2.8347  -2.6971  -2.6969  -2.6870  -2.6767  -2.6271  -2.6221  -2.5846
    -2.5810  -2.5776  -2.4767  -2.3894  -2.3599  -2.3464  -2.3106  -2.2613
    -2.1911  -2.1804  -2.1546  -2.0672  -1.9874  -1.9587  -1.7862  -1.7372
    -1.6889  -1.6470  -1.6446  -1.6216  -1.5703  -1.4771  -1.4666  -1.4103
    -1.3596  -1.2020  -0.9957  -0.7225  -0.5015  -0.4910  -0.4643  -0.2937
    -0.2819  -0.1877   0.9411   0.9617   1.2036   1.4188   1.4231   1.5155
     1.6913   1.7065   1.7181   1.7343   1.7690

[...]

          k = 0.0380-0.0280 0.0000 ( 26873 PWs)   bands (ev):

[...]

          k =-0.0760-0.0000 0.0000 ( 26902 PWs)   bands (ev):

[...]

          k =-0.0760-0.0559 0.0000 ( 26868 PWs)   bands (ev):

   -58.0932 -58.0899 -58.0659 -57.9756 -57.9691 -57.9461 -57.8975 -57.8672
   -57.8318 -57.6322 -57.5527 -57.5082 -57.0188 -56.9805 -56.9544 -56.8001
   -56.7824 -56.7614 -34.5394 -34.5206 -34.4483 -34.4456 -34.4031 -34.3880
   -34.2964 -34.2787 -34.2584 -34.2554 -34.2439 -34.2419 -34.2296 -34.2275
   -34.2238 -34.2219 -34.2189 -34.2141 -34.1762 -34.1731 -34.1694 -34.1401
   -34.1336 -34.1131 -34.1068 -34.0983 -34.0756 -34.0369 -33.9270 -33.9106
   -33.8654 -33.8467 -33.8064 -33.7968 -33.7333 -33.6609 -33.5750 -33.3555
   -33.2966 -33.2725 -33.2530 -33.2494 -33.2200 -33.2170 -33.1921 -33.1642
   -33.1438 -33.1277 -33.1076 -33.0009 -32.9826 -32.9258 -32.9176 -32.9014
   -20.4736 -18.5511 -18.5419 -18.2348 -18.1109 -18.0963 -17.9486 -17.8909
   -17.8619 -17.8571 -17.8083 -17.7976 -17.7629 -17.7449 -17.6578 -17.6529
   -17.5968 -17.5883 -17.5835 -17.5509 -17.5358 -17.5206 -17.3214 -17.2657
   -17.1805 -17.1484 -17.1267 -17.0115 -16.9946 -16.9596 -16.7332 -16.5734
   -16.3943 -15.2817 -15.2735 -15.1610 -12.9634  -9.1852  -6.9114  -5.8543
    -5.8455  -5.7397  -5.7022  -5.4472  -5.2133  -5.2008  -5.1940  -5.1732
    -5.1620  -5.1116  -5.0911  -5.0862  -5.0454  -5.0338  -5.0021  -4.9716
    -4.8935  -4.8610  -4.8542  -4.8479  -4.8377  -4.7834  -4.7093  -4.6909
    -4.6624  -4.6368  -4.5827  -4.5165  -4.4674  -4.4361  -4.4120  -4.3246
    -4.2753  -4.2629  -4.0937  -4.0727  -4.0696  -3.9880  -3.9551  -3.8870
    -3.8494  -3.7592  -3.5701  -3.5686  -3.5614  -3.5567  -3.4817  -3.4687
    -3.4539  -3.4340  -3.3753  -3.3480  -3.3432  -3.3225  -3.2665  -3.2279
    -3.1478  -3.0907  -3.0879  -3.0804  -3.0571  -3.0484  -3.0262  -3.0022
    -2.9770  -2.9440  -2.9048  -2.8660  -2.8511  -2.7865  -2.7161  -2.6827
    -2.6627  -2.6459  -2.6254  -2.5341  -2.5028  -2.4009  -2.3765  -2.2666
    -2.1346  -2.0155  -1.9803  -1.9647  -1.9634  -1.8832  -1.8175  -1.8073
    -1.7693  -1.7147  -1.6413  -1.6397  -1.5765  -1.5039  -1.3352  -1.3265
    -1.3121  -1.2691  -1.1551  -1.1377  -0.7308  -0.4175  -0.4062  -0.3679
    -0.3146  -0.3105   0.8588   1.1317   1.2178   1.2333   1.3260   1.3378
     1.3891   1.4990   1.5583   1.5700   1.7541

     the Fermi energy is     0.9504 ev

!    total energy              =   -3290.76836261 Ry
     estimated scf accuracy    <       0.00000005 Ry
     smearing contrib. (-TS)   =      -0.02527270 Ry
     internal energy E=F+TS    =   -3290.74308991 Ry

     The total energy is F=E-TS. E is the sum of the following terms:
     one-electron contribution =  -34651.75615834 Ry
     hartree contribution      =   17388.88790572 Ry
     xc contribution           =    -540.56733183 Ry
     ewald contribution        =   14512.69000009 Ry
     electric field correction =       0.00249445 Ry

     convergence has been achieved in  79 iterations

     Forces acting on atoms (cartesian axes, Ry/au):

     atom    1 type  1   force =     0.00005393    0.00574654    0.05230714
     atom    2 type  1   force =    -0.00006657   -0.00107866   -0.00804295
     atom    3 type  1   force =     0.00001496   -0.00578061   -0.00142161
     atom    4 type  1   force =     0.00004921    0.00075343    0.10114389
     atom    5 type  1   force =    -0.00006045   -0.00054342    0.00807079
     atom    6 type  1   force =     0.00005300   -0.00070426    0.00117831
     atom    7 type  1   force =     0.07733816   -0.00001207   -0.03168168
     atom    8 type  1   force =     0.00601021   -0.02645552    0.00063313
     atom    9 type  1   force =     0.00718648   -0.01974089    0.00204083
     atom   10 type  2   force =    -0.00007810   -0.01107376   -0.16210909
     atom   11 type  2   force =     0.00030833    0.01946811   -0.00148565
     atom   12 type  2   force =    -0.00008402    0.02601800   -0.00097995
     atom   13 type  1   force =    -0.07744056   -0.00045378   -0.03164814
     atom   14 type  1   force =    -0.00576667   -0.02674008    0.00064968
     atom   15 type  1   force =    -0.00728353   -0.01973186    0.00202240
     atom   16 type  2   force =     0.00011962   -0.00265837    0.06040500
     atom   17 type  2   force =    -0.00052329    0.03271884    0.00354982
     atom   18 type  2   force =     0.00021205    0.01780043   -0.00031449
     atom   19 type  1   force =     0.00005519    0.00935588    0.05080199
     atom   20 type  1   force =    -0.00006141   -0.00146493   -0.00571414
     atom   21 type  1   force =     0.00004616    0.00264497    0.10244632
     atom   22 type  1   force =    -0.00005548   -0.00072960    0.00788294
     atom   23 type  1   force =     0.00010340   -0.00213617    0.00102719
     atom   24 type  1   force =     0.07606359   -0.00029363   -0.03166702
     atom   25 type  1   force =     0.00667429   -0.02615143    0.00079926
     atom   26 type  1   force =     0.00580356   -0.01948162    0.00048138
     atom   27 type  2   force =    -0.00005525   -0.00162098   -0.16993407
     atom   28 type  2   force =     0.00031513    0.02056835   -0.00171588
     atom   29 type  2   force =    -0.00001042    0.02392499    0.00176068
     atom   30 type  1   force =    -0.07616914   -0.00074477   -0.03163292
     atom   31 type  1   force =    -0.00640208   -0.02645547    0.00081578
     atom   32 type  1   force =    -0.00573692   -0.01933732    0.00049839
     atom   33 type  2   force =     0.00010995   -0.00116977    0.06158722
     atom   34 type  2   force =    -0.00055538    0.03174800    0.00378121
     atom   35 type  2   force =     0.00007915    0.02583645    0.00302373
     atom   36 type  1   force =     0.00004269    0.00405675    0.05968004
     atom   37 type  1   force =    -0.00006176   -0.00141654   -0.00683016
     atom   38 type  1   force =     0.00002013   -0.00311840   -0.00222892
     atom   39 type  1   force =     0.00005547   -0.00126359    0.10267337
     atom   40 type  1   force =    -0.00005812   -0.00077586    0.00708564
     atom   41 type  1   force =     0.00000178   -0.00321704    0.00246100
     atom   42 type  1   force =     0.07734183   -0.00091676   -0.03227523
     atom   43 type  1   force =     0.00824794   -0.02793405    0.00023228
     atom   44 type  1   force =     0.00769384   -0.02191093    0.00210641
     atom   45 type  2   force =    -0.00008268    0.00750227   -0.16112833
     atom   46 type  2   force =     0.00033968    0.02098877   -0.00161644
     atom   47 type  2   force =    -0.00009254    0.02096591   -0.00087190
     atom   48 type  1   force =    -0.07744800   -0.00136387   -0.03225278
     atom   49 type  1   force =    -0.00796350   -0.02825079    0.00024657
     atom   50 type  1   force =    -0.00770258   -0.02183281    0.00208980
     atom   51 type  2   force =     0.00011090   -0.00315149    0.06197133
     atom   52 type  2   force =    -0.00055583    0.03310742    0.00413396
     atom   53 type  2   force =     0.00008285    0.02975920    0.00536338
     atom   54 type  3   force =    -0.00032524    0.00024753    0.00037562
     atom   55 type  4   force =     0.00090015    0.00082954   -0.00154470
     atom   56 type  4   force =    -0.00057980   -0.00482552    0.00105695
     atom   57 type  3   force =    -0.00021427    0.00049526    0.00071265

     Total force =     0.436462     Total SCF correction =     0.000688
  @ DRIVER MODE: Message from server: STATUS
  @ DRIVER MODE: Message from server: GETFORCE
  @ DRIVER MODE: Returning v,forces,stress,ensemble

     Writing output data file ./calc.save/
  @ DRIVER MODE: Message from server: EXIT
  @ DRIVE MODE: Exiting

     General routines

     Parallel routines

   This run was terminated on:  15:57:25  18Oct2021

   JOB DONE.