     Program PWSCF v.6.7GPU starts on 12Oct2021 at 16:21:25

     R & G space division:  proc/nbgrp/npool/nimage =       8
     Reading input from /storage/home/hcoda1/3/ntian30/research/carbon/ACS_vib/ads_slab/N2H6/out_0019/pw.inp
Warning: card &CELL ignored
Warning: card   CELL_DYNAMICS='IPI', ignored
Warning: card / ignored

     Current dimensions of program PWSCF are:
     Max number of different atomic species (ntypx) = 10
     Max number of k-points (npk) =  40000
     Max angular momentum in pseudopotentials (lmaxx) =  3
     Presently no symmetry can be used with electric field

     Message from routine cell_base_init:
     DEPRECATED: use true lattice parameter, not A to a.u. conversion factor

     IMPORTANT: XC functional enforced from input :
     Exchange-correlation= BEEF-VDW
                           (   1   4  43  14   2   0   0)
     Any further DFT definition will be discarded
     Please, verify this is what you really want

  @ DRIVER MODE: Connecting to
 qe_1139763_3181315.sched-torque.pace.gatech.edu8_mct2m2_scratch
  using UNIX socket
  @ DRIVER MODE: Message from server: STATUS
  @ DRIVER MODE: Message from server: INIT
  @ DRIVER MODE: Receiving replica           0          -1
  @ DRIVER MODE: Receiving encoded integer          25
  @ DRIVER MODE:  SCF:  T  FORCE:  T  STRESS:  F  VC:  F  ENSEMBLE:  F
  @ DRIVER MODE:  SCF:  T  FORCE:  T  STRESS:  F  VC:  F  ENSEMBLE:  F

     Using Slab Decomposition

     bravais-lattice index     =            0
     lattice parameter (alat)  =       1.8897  a.u.
     unit-cell volume          =    6658.9804 (a.u.)^3
     number of atoms/cell      =           55
     number of atomic types    =            4
     number of electrons       =       394.00
     number of Kohn-Sham states=          207
     kinetic-energy cutoff     =      29.3995  Ry
     charge density cutoff     =     293.9946  Ry
     scf convergence threshold =      7.3E-08
     mixing beta               =       0.0500
     number of iterations used =            8  plain     mixing
     Exchange-correlation= BEEF-VDW
                           (   1   4  43  14   2   0   0)

     celldm(1)=   1.889726  celldm(2)=   0.000000  celldm(3)=   0.000000
     celldm(4)=   0.000000  celldm(5)=   0.000000  celldm(6)=   0.000000

     crystal axes: (cart. coord. in units of alat)
               a(1) = (   6.579727   0.000000   0.000000 )
               a(2) = (  -0.000775   5.961596   0.000000 )
               a(3) = (   0.000000   0.000000  25.155947 )

     reciprocal axes: (cart. coord. in units 2 pi/alat)
               b(1) = (  0.151982  0.000020  0.000000 )
               b(2) = (  0.000000  0.167740  0.000000 )
               b(3) = (  0.000000  0.000000  0.039752 )

     PseudoPot. # 1 for Ti read from file:
     /storage/coda1/p-amedford6/0/shared/rich_project_chbe-medford/medford-share/data/pseudos_module/espresso/nninc/pbe/van/Ti.UPF
     MD5 check sum: 8e4df49b7f0d34bbd5052bf3f5ea0213
     Pseudo is Ultrasoft, Zval = 12.0
     Generated by new atomic code, or converted to UPF format
     Using radial grid of  851 points,  6 beta functions with:
                l(1) =   0
                l(2) =   0
                l(3) =   1
                l(4) =   1
                l(5) =   2
                l(6) =   2
     Q(r) pseudized with  8 coefficients,  rinner =    1.000   1.000   1.000
                                                       1.000   1.000

     PseudoPot. # 2 for O  read from file:
     /storage/coda1/p-amedford6/0/shared/rich_project_chbe-medford/medford-share/data/pseudos_module/espresso/nninc/pbe/van/O.UPF
     MD5 check sum: 78c19812648e8988a0fe644b0f25305e
     Pseudo is Ultrasoft, Zval =  6.0
     Generated by new atomic code, or converted to UPF format
     Using radial grid of  737 points,  4 beta functions with:
                l(1) =   0
                l(2) =   0
                l(3) =   1
                l(4) =   1
     Q(r) pseudized with  8 coefficients,  rinner =    0.800   0.800   0.800

     PseudoPot. # 3 for N  read from file:
     /storage/coda1/p-amedford6/0/shared/rich_project_chbe-medford/medford-share/data/pseudos_module/espresso/nninc/pbe/van/N.UPF
     MD5 check sum: 90d10febe142ad51ac9d5be1deb811c4
     Pseudo is Ultrasoft, Zval =  5.0
     Generated by new atomic code, or converted to UPF format
     Using radial grid of  729 points,  4 beta functions with:
                l(1) =   0
                l(2) =   0
                l(3) =   1
                l(4) =   1
     Q(r) pseudized with  8 coefficients,  rinner =    0.800   0.800   0.800

     PseudoPot. # 4 for H  read from file:
     /storage/coda1/p-amedford6/0/shared/rich_project_chbe-medford/medford-share/data/pseudos_module/espresso/nninc/pbe/van/H.UPF
     MD5 check sum: b5ee9d7bfd3a09ee7748110bda690ff7
     Pseudo is Ultrasoft, Zval =  1.0
     Generated by new atomic code, or converted to UPF format
     Using radial grid of  615 points,  1 beta functions with:
                l(1) =   0
     Q(r) pseudized with  8 coefficients,  rinner =    0.800

     atomic species   valence    mass     pseudopotential
        Ti1           12.00    47.86700     Ti( 1.00)
        O1             6.00    15.99900     O ( 1.00)
        N1             5.00    14.00700     N ( 1.00)
        H1             1.00     1.00800     H ( 1.00)

     No symmetry found

   Cartesian axes

     site n.     atom                  positions (alat units)
         1           Ti1 tau(   1) = (   0.0004258   2.9801865   6.0000000  )
         2           Ti1 tau(   2) = (   3.2906075   1.4906267   6.0002472  )
         3           O1  tau(   3) = (   0.0006271   0.0005054   7.9858123  )
         4           O1  tau(   4) = (   3.2906025   0.0005020   7.3038282  )
         5           O1  tau(   5) = (   4.5942328   1.4918067   9.2879030  )
         6           O1  tau(   6) = (   1.9868534   1.4903216   9.2879459  )
         7           Ti1 tau(   7) = (   3.2905188   2.9817269   9.1608671  )
         8           Ti1 tau(   8) = (   0.0008727   1.4903491   9.2579811  )
         9           O1  tau(   9) = (   3.2897677   5.9391746  11.3820438  )
        10           O1  tau(  10) = (  -0.0000005   5.9544960  10.6146985  )
        11           O1  tau(  11) = (   1.2884133   1.4789655  12.6516217  )
        12           O1  tau(  12) = (   5.2921206   1.4788385  12.6515509  )
        13           Ti1 tau(  13) = (   0.0005720   2.9629092  12.4975245  )
        14           Ti1 tau(  14) = (   3.2903801   1.4745319  12.5205501  )
        15           O1  tau(  15) = (   0.0004407   0.0388239  14.7059933  )
        16           O1  tau(  16) = (   3.2897445   5.9465346  14.0037610  )
        17           O1  tau(  17) = (   4.5472543   1.4569283  16.2215039  )
        18           O1  tau(  18) = (   2.0329396   1.4568822  16.2213506  )
        19           Ti1 tau(  19) = (   3.2899346   2.9358424  15.7577366  )
        20           Ti1 tau(  20) = (   0.0004932   1.4309995  16.0137732  )
        21           O1  tau(  21) = (   3.2904802   0.0005063   4.7018136  )
        22           O1  tau(  22) = (  -0.0003511   5.7889056  17.2622344  )
        23           O1  tau(  23) = (   1.3043587   1.4918075   6.0039043  )
        24           O1  tau(  24) = (   5.2767064   1.4903225   6.0039473  )
        25           Ti1 tau(  25) = (   0.0000382   5.9609847   6.0000000  )
        26           Ti1 tau(  26) = (   3.2902200   4.4714249   6.0002472  )
        27           O1  tau(  27) = (   0.0002396   2.9813036   7.9858123  )
        28           O1  tau(  28) = (   3.2902150   2.9813002   7.3038282  )
        29           O1  tau(  29) = (   4.5938453   4.4726049   9.2879030  )
        30           O1  tau(  30) = (   1.9864658   4.4711199   9.2879459  )
        31           Ti1 tau(  31) = (   3.2908958   0.0009406   9.1591437  )
        32           Ti1 tau(  32) = (   0.0004876   4.4725358   9.2579169  )
        33           O1  tau(  33) = (   3.2901541   2.9707129  11.3740276  )
        34           O1  tau(  34) = (   0.0003862   2.9798045  10.6274311  )
        35           O1  tau(  35) = (   1.2860740   4.4511954  12.6821393  )
        36           O1  tau(  36) = (   5.2936768   4.4510845  12.6820400  )
        37           Ti1 tau(  37) = (   0.0001324   5.9497034  12.4914426  )
        38           Ti1 tau(  38) = (   3.2900283   4.4525324  12.5305491  )
        39           O1  tau(  39) = (   0.0000299   2.9046373  14.9484161  )
        40           O1  tau(  40) = (   3.2901113   2.9423191  13.9685580  )
        41           O1  tau(  41) = (   4.5465916   4.4073028  16.1601725  )
        42           O1  tau(  42) = (   2.0329218   4.4072560  16.1600144  )
        43           Ti1 tau(  43) = (   3.2897320   5.9176933  15.7983882  )
        44           Ti1 tau(  44) = (   0.0000796   4.6311109  15.9036278  )
        45           O1  tau(  45) = (   3.2900926   2.9813045   4.7018136  )
        46           O1  tau(  46) = (   1.3039711   4.4726057   6.0039043  )
        47           O1  tau(  47) = (   5.2763189   4.4711207   6.0039473  )
        48           N1  tau(  48) = (   6.5791966   2.5420708  18.0661808  )
        49           H1  tau(  49) = (   6.5785613   1.6509345  18.5577087  )
        50           H1  tau(  50) = (   0.8131443   3.0604954  18.3807411  )
        51           H1  tau(  51) = (   5.7541953   3.0602838  18.3787844  )
        52           N1  tau(  52) = (  -0.0000615   4.8677125  20.5088556  )
        53           H1  tau(  53) = (   6.5774456   5.1124690  21.4935560  )
        54           H1  tau(  54) = (   0.8078797   5.3121143  20.0844266  )
        55           H1  tau(  55) = (   5.7710899   5.3082688  20.0816402  )

     number of k points=    10  Fermi-Dirac smearing, width (Ry)=  0.0073
                       cart. coord. in units 2pi/alat
        k(    1) = (   0.0000000   0.0000000   0.0000000), wk =   0.1250000
        k(    2) = (   0.0000000   0.0419351   0.0000000), wk =   0.2500000
        k(    3) = (   0.0000000  -0.0838702   0.0000000), wk =   0.1250000
        k(    4) = (   0.0379955   0.0000049   0.0000000), wk =   0.2500000
        k(    5) = (   0.0379955   0.0419400   0.0000000), wk =   0.2500000
        k(    6) = (   0.0379955  -0.0838652   0.0000000), wk =   0.2500000
        k(    7) = (   0.0379955  -0.0419301   0.0000000), wk =   0.2500000
        k(    8) = (  -0.0759910  -0.0000099   0.0000000), wk =   0.1250000
        k(    9) = (  -0.0759910   0.0419252   0.0000000), wk =   0.2500000
        k(   10) = (  -0.0759910  -0.0838800   0.0000000), wk =   0.1250000

     Initial potential from superposition of free atoms

     starting charge  377.99918, renormalised to  394.00000

     negative rho (up, down):  1.302E-02 0.000E+00

     %%%%%%%%%%%%%%%%%%%%%%%%%%%%%%%%%%%%%%%%%%%%%%%%%%%%%%%%%%%%%%%%%%%%%%%%
     %                                                                      %
     % You are using vdW-DF, which was implemented by the Thonhauser group. %
     % Please cite the following two papers that made this development      %
     % possible and the two reviews that describe the various versions:     %
     %                                                                      %
     %   T. Thonhauser et al., PRL 115, 136402 (2015).                      %
     %   T. Thonhauser et al., PRB 76, 125112 (2007).                       %
     %   K. Berland et al., Rep. Prog. Phys. 78, 066501 (2015).             %
     %   D.C. Langreth et al., J. Phys.: Condens. Matter 21, 084203 (2009). %
     %                                                                      %
     %                                                                      %
     % If you are calculating the stress with vdW-DF, please also cite:     %
     %                                                                      %
     %   R. Sabatini et al., J. Phys.: Condens. Matter 24, 424209 (2012).   %
     %                                                                      %
     %%%%%%%%%%%%%%%%%%%%%%%%%%%%%%%%%%%%%%%%%%%%%%%%%%%%%%%%%%%%%%%%%%%%%%%%

     Adding external electric field

     Computed dipole along edir(3) :
        Dipole               -9.7176 Ry au,        -24.6996 Debye
        Dipole field         -0.0183 Ry au,

        Potential amp.        1.6999 Ry
        Total length         46.3494 bohr

     Starting wfcs are  298 atomic wfcs
  @ DRIVER MODE: Message from server: STATUS
  @ DRIVER MODE: Message from server: POSDATA
  @ DRIVER MODE: Reading and sharing cell
  @ DRIVER MODE: Reading and sharing positions
  @ DRIVER MODE: Received positions

     Self-consistent Calculation

     iteration #  1     ecut=    29.40 Ry     beta= 0.05
     Davidson diagonalization with overlap
     c_bands:  1 eigenvalues not converged
     c_bands:  1 eigenvalues not converged
     c_bands:  1 eigenvalues not converged
     c_bands:  1 eigenvalues not converged
     ethr =  1.00E-05,  avg # of iterations = 18.0

[...]

     total energy              =   -2597.74823624 Ry
     estimated scf accuracy    <    3724.91013100 Ry

     iteration #  2     ecut=    29.40 Ry     beta= 0.05
     Davidson diagonalization with overlap
     ethr =  1.00E-02,  avg # of iterations = 22.5

[...]

     iteration # 65     ecut=    29.40 Ry     beta= 0.05
     Davidson diagonalization with overlap
     c_bands:  1 eigenvalues not converged
     ethr =  8.64E-11,  avg # of iterations = 12.9

[...]

     total energy              =   -2931.48022644 Ry
     estimated scf accuracy    <       0.00000013 Ry

     iteration # 68     ecut=    29.40 Ry     beta= 0.05
     Davidson diagonalization with overlap
     ethr =  3.27E-11,  avg # of iterations = 12.2

     negative rho (up, down):  1.427E-02 0.000E+00

     Adding external electric field

     Computed dipole along edir(3) :
        Dipole                1.3613 Ry au,          3.4601 Debye
        Dipole field          0.0026 Ry au,

        Potential amp.       -0.2381 Ry
        Total length         46.3494 bohr

     End of self-consistent calculation

          k = 0.0000 0.0000 0.0000 ( 18029 PWs)   bands (ev):

   -55.2824 -55.2460 -55.2343 -55.2034 -55.2001 -55.1676 -55.1539 -55.1195
   -55.1125 -55.0836 -55.0783 -55.0611 -55.0270 -54.9514 -54.3251 -54.2910
   -31.8504 -31.7367 -31.7335 -31.6401 -31.6001 -31.5893 -31.5864 -31.5728
   -31.5266 -31.5246 -31.4892 -31.4891 -31.4794 -31.4740 -31.4551 -31.4402
   -31.4353 -31.4225 -31.4182 -31.3918 -31.3859 -31.3767 -31.3664 -31.3542
   -31.3512 -31.3382 -31.3331 -31.3198 -31.2902 -31.2850 -31.2685 -31.2640
   -31.2582 -31.2549 -31.2516 -31.2444 -31.2110 -31.2063 -31.1932 -31.1752
   -31.1542 -31.1536 -30.7371 -30.6354 -30.6138 -30.5531 -30.4667 -30.3558
   -16.1137 -15.8754 -15.7434 -15.5883 -15.4972 -15.4346 -15.3577 -15.3330
   -15.2246 -15.1490 -15.0158 -14.9817 -14.9407 -14.9333 -14.9255 -14.9060
   -14.8999 -14.8292 -14.8057 -14.7994 -14.7908 -14.7687 -14.7673 -14.7479
   -14.7186 -14.6654 -14.6456 -14.5160 -14.4348 -14.3768 -14.1263 -12.8262
   -12.7070  -5.6299  -5.4927  -4.9516  -4.8021  -3.4448  -3.2909  -3.2558
    -3.2055  -3.1942  -3.0409  -2.8802  -2.7302  -2.7115  -2.5619  -2.5330
    -2.4809  -2.4589  -2.3075  -2.2819  -2.2377  -2.2114  -2.1623  -2.1520
    -2.1437  -2.1328  -2.0539  -2.0425  -2.0271  -1.8904  -1.8715  -1.7602
    -1.7198  -1.6639  -1.6500  -1.6450  -1.6116  -1.5935  -1.5529  -1.5422
    -1.5255  -1.4993  -1.4904  -1.3255  -1.2975  -1.2008  -1.1390  -1.0494
    -1.0332  -0.8888  -0.8533  -0.7645  -0.7457  -0.7284  -0.7138  -0.6812
    -0.6328  -0.5249  -0.4352  -0.4140  -0.3532  -0.3283  -0.2903  -0.2025
    -0.0986  -0.0702  -0.0371  -0.0350   0.0814   0.1060   0.1512   0.2176
     0.2375   0.2433   0.2620   0.3527   0.3662   0.4644   0.4879   0.4955
     0.5438   0.6329   0.6371   0.6512   0.6613   0.6876   0.7583   0.7650
     0.8645   0.8876   1.0039   1.2152   1.2864   1.3128   1.5913   1.6517
     1.7004   1.8631   2.2836   2.3360   3.8158   3.8824   3.9154   3.9486
     3.9848   4.0257   4.3131   4.3210   4.3337   4.3380   4.3746

[...]

          k = 0.0380-0.0419 0.0000 ( 17876 PWs)   bands (ev):

[...]

          k =-0.0760-0.0000 0.0000 ( 17886 PWs)   bands (ev):

[...]

          k =-0.0760-0.0839 0.0000 ( 17948 PWs)   bands (ev):

   -55.2670 -55.2612 -55.2172 -55.2171 -55.2019 -55.1641 -55.1377 -55.1356
   -55.0966 -55.0939 -55.0871 -55.0463 -55.0418 -54.9526 -54.3081 -54.3079
   -31.6557 -31.6515 -31.6508 -31.5712 -31.5483 -31.5483 -31.5418 -31.5100
   -31.5098 -31.4835 -31.4834 -31.4797 -31.4761 -31.4569 -31.4370 -31.4177
   -31.4128 -31.4111 -31.4110 -31.4048 -31.4036 -31.4009 -31.3618 -31.3609
   -31.3574 -31.3542 -31.3516 -31.3505 -31.3487 -31.3356 -31.3355 -31.3309
   -31.3283 -31.2940 -31.2921 -31.2764 -31.2735 -31.2683 -31.2312 -31.2304
   -31.2261 -31.1582 -30.6264 -30.6263 -30.5497 -30.5496 -30.5100 -30.5099
   -15.6294 -15.5209 -15.4869 -15.4752 -15.3220 -15.3010 -15.2636 -15.2489
   -15.1300 -15.0947 -15.0754 -15.0592 -15.0263 -15.0228 -15.0157 -14.9785
   -14.8952 -14.8754 -14.8699 -14.8577 -14.8100 -14.7937 -14.7884 -14.7817
   -14.7808 -14.7457 -14.7421 -14.7001 -14.6970 -14.6917 -14.3752 -12.8081
   -12.8081  -5.6103  -5.4952  -4.9167  -4.8110  -2.7939  -2.7376  -2.7372
    -2.5469  -2.4759  -2.4576  -2.4418  -2.3585  -2.3191  -2.2894  -2.2664
    -2.2349  -2.1936  -2.1896  -2.1686  -2.1600  -2.1428  -2.0987  -2.0803
    -2.0547  -2.0010  -1.9764  -1.9682  -1.9559  -1.9473  -1.9427  -1.9192
    -1.9171  -1.8909  -1.8798  -1.8239  -1.6725  -1.6569  -1.5788  -1.5089
    -1.5054  -1.5037  -1.4203  -1.4002  -1.3456  -1.3366  -1.3303  -1.0872
    -1.0651  -1.0645  -1.0598  -1.0271  -0.9132  -0.9040  -0.8314  -0.8017
    -0.7834  -0.6750  -0.6659  -0.6061  -0.6021  -0.4949  -0.4931  -0.4346
    -0.3063  -0.2998  -0.2866  -0.2618  -0.2600  -0.2183  -0.2142  -0.1068
    -0.0708  -0.0199  -0.0086   0.0238   0.1845   0.2289   0.2486   0.2714
     0.4047   0.4262   0.5593   0.5670   0.6219   0.7314   0.7615   0.8004
     0.8285   0.9775   0.9884   1.0100   1.1013   1.1153   1.1531   1.1596
     2.0512   2.0527   2.1541   2.1544   3.9764   4.0580   4.0835   4.1230
     4.2280   4.3262   4.3418   4.3423   4.3762   4.3794   4.4756

     the Fermi energy is     3.8794 ev

!    total energy              =   -2931.48024756 Ry
     estimated scf accuracy    <       0.00000007 Ry
     smearing contrib. (-TS)   =      -0.03684777 Ry
     internal energy E=F+TS    =   -2931.44339979 Ry

     The total energy is F=E-TS. E is the sum of the following terms:
     one-electron contribution =  -23481.01612495 Ry
     hartree contribution      =   11831.20649263 Ry
     xc contribution           =    -484.16168063 Ry
     ewald contribution        =    9202.52441600 Ry
     electric field correction =       0.00349716 Ry

     convergence has been achieved in  68 iterations

     Forces acting on atoms (cartesian axes, Ry/au):

     atom    1 type  1   force =     0.00008826   -0.00009564    0.09072089
     atom    2 type  1   force =    -0.00005458    0.00054043   -0.18275890
     atom    3 type  2   force =     0.00005326   -0.00002898   -0.02348374
     atom    4 type  2   force =     0.00001735   -0.00006005    0.05278092
     atom    5 type  2   force =    -0.01301966   -0.00096575    0.00605913
     atom    6 type  2   force =     0.01296455   -0.00047701    0.00604719
     atom    7 type  1   force =    -0.00000056    0.00067381   -0.00328844
     atom    8 type  1   force =     0.00002070   -0.00014817    0.00138776
     atom    9 type  2   force =    -0.00003358   -0.00016445   -0.00048287
     atom   10 type  2   force =     0.00001766   -0.00005610   -0.00021098
     atom   11 type  2   force =     0.00017110    0.00016861    0.00018035
     atom   12 type  2   force =    -0.00008806    0.00016603    0.00015876
     atom   13 type  1   force =    -0.00019714   -0.00019589    0.00003973
     atom   14 type  1   force =     0.00014917    0.00045745   -0.00097904
     atom   15 type  2   force =     0.00002396   -0.00060543    0.00007464
     atom   16 type  2   force =    -0.00002742    0.00000872    0.00044765
     atom   17 type  2   force =     0.00042285    0.00002502    0.00052772
     atom   18 type  2   force =    -0.00045951    0.00002188    0.00052256
     atom   19 type  1   force =     0.00002923    0.00002892    0.00027313
     atom   20 type  1   force =    -0.00000264   -0.00083094    0.00036644
     atom   21 type  2   force =     0.00005615    0.00012475    0.10489244
     atom   22 type  2   force =    -0.00000125    0.00016507    0.00100608
     atom   23 type  2   force =    -0.06828133   -0.00021789   -0.02628722
     atom   24 type  2   force =     0.06819242    0.00021036   -0.02633537
     atom   25 type  1   force =     0.00009280    0.00004553    0.09035989
     atom   26 type  1   force =    -0.00005771   -0.00045049   -0.18293339
     atom   27 type  2   force =     0.00005141   -0.00093527   -0.02259114
     atom   28 type  2   force =     0.00001897   -0.00006700    0.05255585
     atom   29 type  2   force =    -0.01331434   -0.00073553    0.00528207
     atom   30 type  2   force =     0.01325115   -0.00024733    0.00526876
     atom   31 type  1   force =     0.00001073   -0.00072337   -0.00308633
     atom   32 type  1   force =     0.00001306   -0.00006776    0.00150792
     atom   33 type  2   force =    -0.00002795   -0.00015249    0.00019080
     atom   34 type  2   force =     0.00002101    0.00007699   -0.00046737
     atom   35 type  2   force =     0.00014238   -0.00013355    0.00024690
     atom   36 type  2   force =    -0.00006511   -0.00014951    0.00022338
     atom   37 type  1   force =    -0.00019410    0.00005478    0.00093986
     atom   38 type  1   force =     0.00014365   -0.00028931   -0.00097876
     atom   39 type  2   force =     0.00001050    0.00025991   -0.00015245
     atom   40 type  2   force =    -0.00003045   -0.00001319    0.00107605
     atom   41 type  2   force =     0.00055672   -0.00018651    0.00029499
     atom   42 type  2   force =    -0.00060401   -0.00017739    0.00028319
     atom   43 type  1   force =     0.00005723    0.00009169    0.00064986
     atom   44 type  1   force =    -0.00001923    0.00104667   -0.00101847
     atom   45 type  2   force =     0.00005663    0.00014081    0.10487390
     atom   46 type  2   force =    -0.06828241   -0.00009008   -0.02632384
     atom   47 type  2   force =     0.06818695    0.00034012   -0.02636410
     atom   48 type  3   force =    -0.01094206    0.00508492    0.00261880
     atom   49 type  4   force =     0.00005896   -0.00014077    0.00084115
     atom   50 type  4   force =     0.00003204    0.00171378    0.00049769
     atom   51 type  4   force =     0.01083612   -0.00505995   -0.00365391
     atom   52 type  3   force =    -0.00000764    0.00076616    0.00050380
     atom   53 type  4   force =    -0.00001678    0.00125602   -0.00143790
     atom   54 type  4   force =     0.00009440   -0.00001017   -0.00043863
     atom   55 type  4   force =    -0.00011386    0.00000754   -0.00042738

     Total force =     0.366670     Total SCF correction =     0.000721
  @ DRIVER MODE: Message from server: STATUS
  @ DRIVER MODE: Message from server: GETFORCE
  @ DRIVER MODE: Returning v,forces,stress,ensemble

     Writing output data file ./calc.save/
  @ DRIVER MODE: Message from server: EXIT
  @ DRIVE MODE: Exiting

     General routines

     Parallel routines

   This run was terminated on:  16:44:14  12Oct2021

   JOB DONE.