     Program PWSCF v.6.7GPU starts on 15Sep2021 at 21:59:32

     R & G space division:  proc/nbgrp/npool/nimage =      10
     Reading input from /storage/home/hcoda1/3/ntian30/research/carbon/CxH_vib/H2O_calc/ads_slab/CHNHH2O_a/out_0019/pw.inp
Warning: card &CELL ignored
Warning: card   CELL_DYNAMICS='IPI', ignored
Warning: card / ignored

     Current dimensions of program PWSCF are:
     Max number of different atomic species (ntypx) = 10
     Max number of k-points (npk) =  40000
     Max angular momentum in pseudopotentials (lmaxx) =  3
     Presently no symmetry can be used with electric field

     Message from routine cell_base_init:
     DEPRECATED: use true lattice parameter, not A to a.u. conversion factor

     IMPORTANT: XC functional enforced from input :
     Exchange-correlation= BEEF-VDW
                           (   1   4  43  14   2   0   0)
     Any further DFT definition will be discarded
     Please, verify this is what you really want

  @ DRIVER MODE: Connecting to
 qe_1139763_2852628.sched-torque.pace.gatech.edu0or1biuu_scratch
  using UNIX socket
  @ DRIVER MODE: Message from server: STATUS
  @ DRIVER MODE: Message from server: INIT
  @ DRIVER MODE: Receiving replica           0          -1
  @ DRIVER MODE: Receiving encoded integer          25
  @ DRIVER MODE:  SCF:  T  FORCE:  T  STRESS:  F  VC:  F  ENSEMBLE:  F
  @ DRIVER MODE:  SCF:  T  FORCE:  T  STRESS:  F  VC:  F  ENSEMBLE:  F

     Using Slab Decomposition

     bravais-lattice index     =            0
     lattice parameter (alat)  =       1.8897  a.u.
     unit-cell volume          =    6658.9804 (a.u.)^3
     number of atoms/cell      =           54
     number of atomic types    =            5
     number of electrons       =       397.00
     number of Kohn-Sham states=          208
     kinetic-energy cutoff     =      29.3995  Ry
     charge density cutoff     =     293.9946  Ry
     scf convergence threshold =      7.3E-08
     mixing beta               =       0.0500
     number of iterations used =            8  plain     mixing
     Exchange-correlation= BEEF-VDW
                           (   1   4  43  14   2   0   0)

     celldm(1)=   1.889726  celldm(2)=   0.000000  celldm(3)=   0.000000
     celldm(4)=   0.000000  celldm(5)=   0.000000  celldm(6)=   0.000000

     crystal axes: (cart. coord. in units of alat)
               a(1) = (   6.579727   0.000000   0.000000 )
               a(2) = (  -0.000775   5.961596   0.000000 )
               a(3) = (   0.000000   0.000000  25.155947 )

     reciprocal axes: (cart. coord. in units 2 pi/alat)
               b(1) = (  0.151982  0.000020  0.000000 )
               b(2) = (  0.000000  0.167740  0.000000 )
               b(3) = (  0.000000  0.000000  0.039752 )

     PseudoPot. # 1 for Ti read from file:
     /storage/coda1/p-amedford6/0/shared/rich_project_chbe-medford/medford-share/data/pseudos_module/espresso/nninc/pbe/van/Ti.UPF
     MD5 check sum: 8e4df49b7f0d34bbd5052bf3f5ea0213
     Pseudo is Ultrasoft, Zval = 12.0
     Generated by new atomic code, or converted to UPF format
     Using radial grid of  851 points,  6 beta functions with:
                l(1) =   0
                l(2) =   0
                l(3) =   1
                l(4) =   1
                l(5) =   2
                l(6) =   2
     Q(r) pseudized with  8 coefficients,  rinner =    1.000   1.000   1.000
                                                       1.000   1.000

     PseudoPot. # 2 for O  read from file:
     /storage/coda1/p-amedford6/0/shared/rich_project_chbe-medford/medford-share/data/pseudos_module/espresso/nninc/pbe/van/O.UPF
     MD5 check sum: 78c19812648e8988a0fe644b0f25305e
     Pseudo is Ultrasoft, Zval =  6.0
     Generated by new atomic code, or converted to UPF format
     Using radial grid of  737 points,  4 beta functions with:
                l(1) =   0
                l(2) =   0
                l(3) =   1
                l(4) =   1
     Q(r) pseudized with  8 coefficients,  rinner =    0.800   0.800   0.800

     PseudoPot. # 3 for N  read from file:
     /storage/coda1/p-amedford6/0/shared/rich_project_chbe-medford/medford-share/data/pseudos_module/espresso/nninc/pbe/van/N.UPF
     MD5 check sum: 90d10febe142ad51ac9d5be1deb811c4
     Pseudo is Ultrasoft, Zval =  5.0
     Generated by new atomic code, or converted to UPF format
     Using radial grid of  729 points,  4 beta functions with:
                l(1) =   0
                l(2) =   0
                l(3) =   1
                l(4) =   1
     Q(r) pseudized with  8 coefficients,  rinner =    0.800   0.800   0.800

     PseudoPot. # 4 for C  read from file:
     /storage/coda1/p-amedford6/0/shared/rich_project_chbe-medford/medford-share/data/pseudos_module/espresso/nninc/pbe/van/C.UPF
     MD5 check sum: 1a69bf6b8db32088f5b2163dbdb77a27
     Pseudo is Ultrasoft, Zval =  4.0
     Generated by new atomic code, or converted to UPF format
     Using radial grid of  721 points,  4 beta functions with:
                l(1) =   0
                l(2) =   0
                l(3) =   1
                l(4) =   1
     Q(r) pseudized with  8 coefficients,  rinner =    0.800   0.800   0.800

     PseudoPot. # 5 for H  read from file:
     /storage/coda1/p-amedford6/0/shared/rich_project_chbe-medford/medford-share/data/pseudos_module/espresso/nninc/pbe/van/H.UPF
     MD5 check sum: b5ee9d7bfd3a09ee7748110bda690ff7
     Pseudo is Ultrasoft, Zval =  1.0
     Generated by new atomic code, or converted to UPF format
     Using radial grid of  615 points,  1 beta functions with:
                l(1) =   0
     Q(r) pseudized with  8 coefficients,  rinner =    0.800

     atomic species   valence    mass     pseudopotential
        Ti1           12.00    47.86700     Ti( 1.00)
        O1             6.00    15.99900     O ( 1.00)
        N1             5.00    14.00700     N ( 1.00)
        C1             4.00    12.01100     C ( 1.00)
        H1             1.00     1.00800     H ( 1.00)

     No symmetry found

   Cartesian axes

     site n.     atom                  positions (alat units)
         1           Ti1 tau(   1) = (   0.0004258   2.9801865   6.0000000  )
         2           Ti1 tau(   2) = (   3.2906075   1.4906267   6.0002472  )
         3           O1  tau(   3) = (   0.0006271   0.0005054   7.9858123  )
         4           O1  tau(   4) = (   3.2906025   0.0005020   7.3038282  )
         5           O1  tau(   5) = (   4.5942328   1.4918067   9.2879030  )
         6           O1  tau(   6) = (   1.9868534   1.4903216   9.2879459  )
         7           Ti1 tau(   7) = (   3.2907910   2.8959150   9.1758416  )
         8           Ti1 tau(   8) = (   0.0015273   1.4827037   9.2680791  )
         9           O1  tau(   9) = (   3.2914171   5.9475995  11.3455371  )
        10           O1  tau(  10) = (   0.0116148   5.9584955  10.6183126  )
        11           O1  tau(  11) = (   1.3057669   1.4807986  12.6390077  )
        12           O1  tau(  12) = (   5.3035249   1.4749620  12.6227664  )
        13           Ti1 tau(  13) = (   6.5294082   2.9362577  12.6231083  )
        14           Ti1 tau(  14) = (   3.2175537   1.4615748  12.5070279  )
        15           O1  tau(  15) = (   6.5585639   5.9474800  14.6380151  )
        16           O1  tau(  16) = (   3.3125803   5.9531145  13.9695519  )
        17           O1  tau(  17) = (   4.5393379   1.5011389  16.1071157  )
        18           O1  tau(  18) = (   2.0094023   1.5044898  16.0307267  )
        19           Ti1 tau(  19) = (   3.2760958   2.9523363  15.6877793  )
        20           Ti1 tau(  20) = (   0.0277933   1.3451898  16.0452527  )
        21           O1  tau(  21) = (   3.2904802   0.0005063   4.7018136  )
        22           O1  tau(  22) = (   0.0198929   5.9263875  17.1601691  )
        23           O1  tau(  23) = (   1.3043587   1.4918075   6.0039043  )
        24           O1  tau(  24) = (   5.2767064   1.4903225   6.0039473  )
        25           Ti1 tau(  25) = (   0.0000382   5.9609847   6.0000000  )
        26           Ti1 tau(  26) = (   3.2902200   4.4714249   6.0002472  )
        27           O1  tau(  27) = (   0.0002396   2.9813036   7.9858123  )
        28           O1  tau(  28) = (   3.2902150   2.9813002   7.3038282  )
        29           O1  tau(  29) = (   4.5938453   4.4726049   9.2879030  )
        30           O1  tau(  30) = (   1.9864658   4.4711199   9.2879459  )
        31           Ti1 tau(  31) = (   3.2891106   5.8743827   9.1763621  )
        32           Ti1 tau(  32) = (   0.0006254   4.4649316   9.2693709  )
        33           O1  tau(  33) = (   3.2862706   2.9662616  11.3468726  )
        34           O1  tau(  34) = (   0.0092240   2.9805883  10.6323155  )
        35           O1  tau(  35) = (   1.3102706   4.4726941  12.6361575  )
        36           O1  tau(  36) = (   5.3014905   4.4644878  12.6181669  )
        37           Ti1 tau(  37) = (   6.5311680   5.9227251  12.5202533  )
        38           Ti1 tau(  38) = (   3.2191334   4.4553394  12.5017427  )
        39           O1  tau(  39) = (   6.5614274   2.9920157  14.6796082  )
        40           O1  tau(  40) = (   3.3146075   2.9603188  13.8993185  )
        41           O1  tau(  41) = (   4.5484517   4.4144432  16.0509510  )
        42           O1  tau(  42) = (   2.0146171   4.4214036  15.9967612  )
        43           Ti1 tau(  43) = (   3.3303817   5.9274347  15.8100502  )
        44           Ti1 tau(  44) = (   0.0273359   4.4939047  15.8144843  )
        45           O1  tau(  45) = (   3.2900926   2.9813045   4.7018136  )
        46           O1  tau(  46) = (   1.3039711   4.4726057   6.0039043  )
        47           O1  tau(  47) = (   5.2763189   4.4711207   6.0039473  )
        48           N1  tau(  48) = (   6.5134970   2.9613368  17.6459670  )
        49           C1  tau(  49) = (   0.7931072   3.0267964  18.6255283  )
        50           H1  tau(  50) = (   1.8307262   2.9311331  18.2395185  )
        51           H1  tau(  51) = (   5.5394773   3.0666896  17.9713127  )
        52           O1  tau(  52) = (   3.1855344   5.8058271  18.1612476  )
        53           H1  tau(  53) = (   3.8461454   0.3022996  18.7034462  )
        54           H1  tau(  54) = (   2.3120581   0.0053998  18.5533318  )

     number of k points=    10  Fermi-Dirac smearing, width (Ry)=  0.0073
                       cart. coord. in units 2pi/alat
        k(    1) = (   0.0000000   0.0000000   0.0000000), wk =   0.1250000
        k(    2) = (   0.0000000   0.0419351   0.0000000), wk =   0.2500000
        k(    3) = (   0.0000000  -0.0838702   0.0000000), wk =   0.1250000
        k(    4) = (   0.0379955   0.0000049   0.0000000), wk =   0.2500000
        k(    5) = (   0.0379955   0.0419400   0.0000000), wk =   0.2500000
        k(    6) = (   0.0379955  -0.0838652   0.0000000), wk =   0.2500000
        k(    7) = (   0.0379955  -0.0419301   0.0000000), wk =   0.2500000
        k(    8) = (  -0.0759910  -0.0000099   0.0000000), wk =   0.1250000
        k(    9) = (  -0.0759910   0.0419252   0.0000000), wk =   0.2500000
        k(   10) = (  -0.0759910  -0.0838800   0.0000000), wk =   0.1250000

     Initial potential from superposition of free atoms

     starting charge  380.99916, renormalised to  397.00000

     negative rho (up, down):  1.755E-02 0.000E+00

     %%%%%%%%%%%%%%%%%%%%%%%%%%%%%%%%%%%%%%%%%%%%%%%%%%%%%%%%%%%%%%%%%%%%%%%%
     %                                                                      %
     % You are using vdW-DF, which was implemented by the Thonhauser group. %
     % Please cite the following two papers that made this development      %
     % possible and the two reviews that describe the various versions:     %
     %                                                                      %
     %   T. Thonhauser et al., PRL 115, 136402 (2015).                      %
     %   T. Thonhauser et al., PRB 76, 125112 (2007).                       %
     %   K. Berland et al., Rep. Prog. Phys. 78, 066501 (2015).             %
     %   D.C. Langreth et al., J. Phys.: Condens. Matter 21, 084203 (2009). %
     %                                                                      %
     %                                                                      %
     % If you are calculating the stress with vdW-DF, please also cite:     %
     %                                                                      %
     %   R. Sabatini et al., J. Phys.: Condens. Matter 24, 424209 (2012).   %
     %                                                                      %
     %%%%%%%%%%%%%%%%%%%%%%%%%%%%%%%%%%%%%%%%%%%%%%%%%%%%%%%%%%%%%%%%%%%%%%%%

     Adding external electric field

     Computed dipole along edir(3) :
        Dipole               -9.1667 Ry au,        -23.2993 Debye
        Dipole field         -0.0173 Ry au,

        Potential amp.        1.6036 Ry
        Total length         46.3494 bohr

     Starting wfcs are  300 atomic wfcs
  @ DRIVER MODE: Message from server: STATUS
  @ DRIVER MODE: Message from server: POSDATA
  @ DRIVER MODE: Reading and sharing cell
  @ DRIVER MODE: Reading and sharing positions
  @ DRIVER MODE: Received positions

     Self-consistent Calculation

     iteration #  1     ecut=    29.40 Ry     beta= 0.05
     Davidson diagonalization with overlap
     c_bands:  1 eigenvalues not converged
     c_bands:  1 eigenvalues not converged
     c_bands:  1 eigenvalues not converged
     c_bands:  1 eigenvalues not converged
     c_bands:  1 eigenvalues not converged
     c_bands:  1 eigenvalues not converged
     c_bands:  1 eigenvalues not converged
     c_bands:  1 eigenvalues not converged
     ethr =  1.00E-05,  avg # of iterations = 19.7

[...]

     total energy              =   -2547.28934603 Ry
     estimated scf accuracy    <    4504.88752351 Ry

     iteration #  2     ecut=    29.40 Ry     beta= 0.05
     Davidson diagonalization with overlap
     ethr =  1.00E-02,  avg # of iterations = 24.7

[...]

     iteration # 51     ecut=    29.40 Ry     beta= 0.05
     Davidson diagonalization with overlap
     c_bands:  1 eigenvalues not converged
     ethr =  2.47E-07,  avg # of iterations = 12.6

[...]

     total energy              =   -2952.61559939 Ry
     estimated scf accuracy    <       0.00000023 Ry

     iteration # 69     ecut=    29.40 Ry     beta= 0.05
     Davidson diagonalization with overlap
     ethr =  5.72E-11,  avg # of iterations =  7.1

     negative rho (up, down):  1.616E-02 0.000E+00

     Adding external electric field

     Computed dipole along edir(3) :
        Dipole                0.4078 Ry au,          1.0366 Debye
        Dipole field          0.0008 Ry au,

        Potential amp.       -0.0713 Ry
        Total length         46.3494 bohr

     End of self-consistent calculation

          k = 0.0000 0.0000 0.0000 ( 18029 PWs)   bands (ev):

   -56.0229 -55.9984 -55.9916 -55.9888 -55.9621 -55.8687 -55.8362 -55.8273
   -55.8237 -55.8104 -55.8020 -55.7769 -55.7473 -55.5778 -55.0083 -54.9742
   -32.5442 -32.5068 -32.4000 -32.3681 -32.3351 -32.3149 -32.3059 -32.3004
   -32.2662 -32.2357 -32.2238 -32.2174 -32.2079 -32.1952 -32.1774 -32.1753
   -32.1506 -32.1286 -32.1272 -32.1241 -32.0913 -32.0801 -32.0713 -32.0390
   -32.0282 -32.0267 -32.0229 -32.0187 -32.0157 -32.0103 -31.9956 -31.9848
   -31.9826 -31.9812 -31.9691 -31.9632 -31.9595 -31.9409 -31.9215 -31.8386
   -31.8216 -31.7348 -31.4157 -31.3265 -31.3041 -31.2323 -31.1458 -31.0348
   -19.2331 -16.7554 -16.5152 -16.3400 -16.2001 -16.1695 -15.9527 -15.8509
   -15.7800 -15.7252 -15.6567 -15.6053 -15.5711 -15.5619 -15.5450 -15.5218
   -15.4991 -15.4789 -15.4559 -15.4428 -15.4363 -15.3885 -15.3767 -15.3714
   -15.3532 -15.2473 -15.1834 -15.1591 -15.1138 -15.0906 -14.7373 -13.5105
   -13.3940  -7.8366  -7.0848  -4.1539  -4.0588  -3.9840  -3.9436  -3.9284
    -3.7727  -3.6937  -3.5452  -3.5176  -3.3067  -3.2714  -3.2189  -3.1943
    -3.1323  -3.0706  -2.9754  -2.9316  -2.8553  -2.8392  -2.8266  -2.8037
    -2.7823  -2.7667  -2.7270  -2.6630  -2.5928  -2.5580  -2.4444  -2.4199
    -2.4128  -2.3453  -2.3385  -2.3266  -2.3136  -2.2817  -2.2601  -2.2571
    -2.1856  -2.1535  -2.0825  -2.0312  -1.9700  -1.8522  -1.7006  -1.6385
    -1.5881  -1.5273  -1.5027  -1.4669  -1.4448  -1.4206  -1.3610  -1.3033
    -1.2389  -1.2270  -1.1560  -1.0639  -0.9925  -0.9549  -0.8839  -0.8220
    -0.8009  -0.7727  -0.7649  -0.7559  -0.7073  -0.5345  -0.4785  -0.4648
    -0.4252  -0.3422  -0.3115  -0.3020  -0.2529  -0.2448  -0.2048  -0.1160
    -0.0969  -0.0619  -0.0441  -0.0305   0.0024   0.0220   0.1769   0.1976
     0.2400   0.2616   0.3641   0.4703   0.5370   0.6247   0.7190   0.9380
     1.0140   1.0911   1.2050   1.5861   1.6322   2.7808   3.1053   3.1939
     3.2320   3.2380   3.2722   3.3428   3.5594   3.5902   3.6076   3.6634

[...]

          k = 0.0380-0.0419 0.0000 ( 17876 PWs)   bands (ev):

[...]

          k =-0.0760-0.0000 0.0000 ( 17886 PWs)   bands (ev):

[...]

          k =-0.0760-0.0839 0.0000 ( 17948 PWs)   bands (ev):

   -56.0065 -56.0050 -55.9902 -55.9822 -55.9776 -55.8595 -55.8366 -55.8253
   -55.8197 -55.8177 -55.7944 -55.7933 -55.7457 -55.5793 -54.9913 -54.9910
   -32.3580 -32.3421 -32.3226 -32.3215 -32.3010 -32.2997 -32.2789 -32.2710
   -32.2513 -32.2186 -32.2036 -32.1993 -32.1947 -32.1733 -32.1456 -32.1406
   -32.1359 -32.1337 -32.1321 -32.1305 -32.1297 -32.1267 -32.1260 -32.1244
   -32.0775 -32.0585 -32.0496 -32.0380 -32.0261 -32.0237 -32.0224 -32.0206
   -32.0200 -32.0094 -32.0075 -31.9973 -31.9909 -31.9767 -31.9711 -31.8424
   -31.8266 -31.8216 -31.3169 -31.3167 -31.2286 -31.2283 -31.1892 -31.1890
   -19.2322 -16.2144 -16.0947 -16.0403 -15.9472 -15.9218 -15.9072 -15.8334
   -15.7788 -15.7275 -15.7180 -15.6940 -15.6797 -15.6691 -15.6135 -15.5851
   -15.5606 -15.5497 -15.5064 -15.4935 -15.4855 -15.4718 -15.4697 -15.4635
   -15.4199 -15.3676 -15.3515 -15.3476 -15.2083 -15.0996 -15.0095 -13.4959
   -13.4955  -7.8458  -7.0869  -3.9145  -3.6475  -3.4923  -3.3155  -3.2643
    -3.1658  -3.1473  -3.1227  -3.1018  -2.9934  -2.9335  -2.9208  -2.8992
    -2.8585  -2.8487  -2.8420  -2.8371  -2.8027  -2.8010  -2.7644  -2.7458
    -2.7138  -2.7004  -2.6947  -2.6878  -2.6639  -2.6439  -2.6028  -2.5898
    -2.5737  -2.5432  -2.5067  -2.3727  -2.3037  -2.2260  -2.2188  -2.1785
    -2.1659  -2.1462  -2.1030  -2.0853  -2.0578  -1.9766  -1.9013  -1.7470
    -1.7289  -1.7052  -1.6742  -1.6135  -1.5212  -1.4968  -1.4685  -1.4221
    -1.4053  -1.3471  -1.3266  -1.2956  -1.2399  -1.1773  -1.1401  -1.1128
    -1.0678  -1.0028  -0.9822  -0.9612  -0.9476  -0.8865  -0.7782  -0.7717
    -0.7659  -0.7161  -0.7008  -0.6711  -0.6503  -0.5585  -0.4790  -0.4190
    -0.3222  -0.1581  -0.0778   0.0197   0.0569   0.1015   0.1463   0.1879
     0.2849   0.2869   0.3594   0.3897   0.4071   0.4894   0.5005   0.5235
     0.6840   1.3766   1.3778   1.4517   1.4522   2.8171   3.3627   3.4090
     3.4431   3.4899   3.5926   3.6127   3.6414   3.6432   3.7211   3.7696

     the Fermi energy is     3.1085 ev

!    total energy              =   -2952.61562191 Ry
     estimated scf accuracy    <       0.00000007 Ry
     smearing contrib. (-TS)   =      -0.02585132 Ry
     internal energy E=F+TS    =   -2952.58977059 Ry

     The total energy is F=E-TS. E is the sum of the following terms:
     one-electron contribution =  -24509.42170561 Ry
     hartree contribution      =   12341.90554608 Ry
     xc contribution           =    -487.95465785 Ry
     ewald contribution        =    9702.88073292 Ry
     electric field correction =       0.00031386 Ry

     convergence has been achieved in  69 iterations

     Forces acting on atoms (cartesian axes, Ry/au):

     atom    1 type  1   force =    -0.00003458   -0.00030299    0.09590860
     atom    2 type  1   force =     0.00005495   -0.00049160   -0.17610877
     atom    3 type  2   force =     0.00010387   -0.00009680   -0.02430709
     atom    4 type  2   force =     0.00000960   -0.00163416    0.05391021
     atom    5 type  2   force =    -0.01178580   -0.00141537    0.00393732
     atom    6 type  2   force =     0.01321613   -0.00102304    0.00317965
     atom    7 type  1   force =     0.00034242    0.00068867   -0.00763854
     atom    8 type  1   force =     0.00026370    0.01496141    0.02334024
     atom    9 type  2   force =    -0.00005145    0.00018734    0.00012106
     atom   10 type  2   force =    -0.00219154    0.00049867   -0.01743650
     atom   11 type  2   force =     0.00046905   -0.00026890   -0.00021465
     atom   12 type  2   force =    -0.00083808   -0.00017802    0.00000303
     atom   13 type  1   force =     0.00045869    0.00044769    0.00004634
     atom   14 type  1   force =    -0.00018960    0.00004448    0.00088414
     atom   15 type  2   force =    -0.00013246   -0.00004105   -0.00071116
     atom   16 type  2   force =     0.00001021    0.00051335   -0.00024400
     atom   17 type  2   force =    -0.00050078    0.00026647    0.00002652
     atom   18 type  2   force =     0.00025011    0.00017300   -0.00022428
     atom   19 type  1   force =     0.00071533    0.00060084   -0.00049706
     atom   20 type  1   force =    -0.00057140    0.00036156   -0.00002375
     atom   21 type  2   force =     0.00006521   -0.00000398    0.10333456
     atom   22 type  2   force =    -0.00025496   -0.00020943    0.00061750
     atom   23 type  2   force =    -0.07135345   -0.00010782   -0.02762607
     atom   24 type  2   force =     0.07127380    0.00034240   -0.02769720
     atom   25 type  1   force =     0.00024157   -0.00029434    0.09574478
     atom   26 type  1   force =     0.00011279   -0.00029582   -0.17604217
     atom   27 type  2   force =     0.00014056   -0.00029148   -0.02320319
     atom   28 type  2   force =     0.00000259   -0.00132531    0.05366818
     atom   29 type  2   force =    -0.01213425    0.00039772    0.00378277
     atom   30 type  2   force =     0.01352269    0.00101348    0.00302833
     atom   31 type  1   force =     0.00024422    0.00375626   -0.01143188
     atom   32 type  1   force =     0.00044298   -0.01662168    0.02315969
     atom   33 type  2   force =     0.00017752    0.00010010   -0.00032338
     atom   34 type  2   force =    -0.00191373   -0.00010473   -0.02071595
     atom   35 type  2   force =     0.00045848    0.00006153    0.00007427
     atom   36 type  2   force =    -0.00088362   -0.00000594    0.00033066
     atom   37 type  1   force =     0.00080999    0.00005253   -0.00029971
     atom   38 type  1   force =     0.00000392    0.00012996    0.00039105
     atom   39 type  2   force =    -0.00025934    0.00043839   -0.00053117
     atom   40 type  2   force =    -0.00039246   -0.00007458   -0.00019179
     atom   41 type  2   force =    -0.00061941    0.00033088    0.00017482
     atom   42 type  2   force =     0.00004009    0.00020872    0.00012236
     atom   43 type  1   force =     0.00037285   -0.00012132    0.00034307
     atom   44 type  1   force =    -0.00008486   -0.00029353    0.00048051
     atom   45 type  2   force =     0.00006895   -0.00000085    0.10329838
     atom   46 type  2   force =    -0.07133888   -0.00005025   -0.02760751
     atom   47 type  2   force =     0.07126276    0.00038197   -0.02768109
     atom   48 type  3   force =    -0.01043249    0.00221021    0.00439846
     atom   49 type  4   force =    -0.00147830   -0.00020947   -0.00078719
     atom   50 type  5   force =    -0.00015914   -0.00055813    0.00005163
     atom   51 type  5   force =     0.01335923   -0.00181670   -0.00344516
     atom   52 type  2   force =    -0.00018788   -0.00018368    0.00138503
     atom   53 type  5   force =    -0.00081052   -0.00025634   -0.00023078
     atom   54 type  5   force =     0.00010472    0.00010970   -0.00052315

     Total force =     0.368246     Total SCF correction =     0.000722
  @ DRIVER MODE: Message from server: STATUS
  @ DRIVER MODE: Message from server: GETFORCE
  @ DRIVER MODE: Returning v,forces,stress,ensemble

     Writing output data file ./calc.save/
  @ DRIVER MODE: Message from server: EXIT
  @ DRIVE MODE: Exiting

     General routines

     Parallel routines

   This run was terminated on:  22:18:32  15Sep2021

   JOB DONE.