     Program PWSCF v.6.7GPU starts on 15Sep2021 at 19:16:35

     R & G space division:  proc/nbgrp/npool/nimage =      10
     Reading input from /storage/home/hcoda1/3/ntian30/research/carbon/CxH_vib/H2O_calc/ads_slab/CH2N2H2O_b/out_0012/pw.inp
Warning: card &CELL ignored
Warning: card   CELL_DYNAMICS='IPI', ignored
Warning: card / ignored

     Current dimensions of program PWSCF are:
     Max number of different atomic species (ntypx) = 10
     Max number of k-points (npk) =  40000
     Max angular momentum in pseudopotentials (lmaxx) =  3
     Presently no symmetry can be used with electric field

     Message from routine cell_base_init:
     DEPRECATED: use true lattice parameter, not A to a.u. conversion factor

     IMPORTANT: XC functional enforced from input :
     Exchange-correlation= BEEF-VDW
                           (   1   4  43  14   2   0   0)
     Any further DFT definition will be discarded
     Please, verify this is what you really want

  @ DRIVER MODE: Connecting to
 qe_1139763_2852605.sched-torque.pace.gatech.edu52d3ujf9_scratch
  using UNIX socket
  @ DRIVER MODE: Message from server: STATUS
  @ DRIVER MODE: Message from server: INIT
  @ DRIVER MODE: Receiving replica           0          -1
  @ DRIVER MODE: Receiving encoded integer          25
  @ DRIVER MODE:  SCF:  T  FORCE:  T  STRESS:  F  VC:  F  ENSEMBLE:  F
  @ DRIVER MODE:  SCF:  T  FORCE:  T  STRESS:  F  VC:  F  ENSEMBLE:  F

     Using Slab Decomposition

     bravais-lattice index     =            0
     lattice parameter (alat)  =       1.8897  a.u.
     unit-cell volume          =    6658.9804 (a.u.)^3
     number of atoms/cell      =           55
     number of atomic types    =            5
     number of electrons       =       402.00
     number of Kohn-Sham states=          211
     kinetic-energy cutoff     =      29.3995  Ry
     charge density cutoff     =     293.9946  Ry
     scf convergence threshold =      7.3E-08
     mixing beta               =       0.0500
     number of iterations used =            8  plain     mixing
     Exchange-correlation= BEEF-VDW
                           (   1   4  43  14   2   0   0)

     celldm(1)=   1.889726  celldm(2)=   0.000000  celldm(3)=   0.000000
     celldm(4)=   0.000000  celldm(5)=   0.000000  celldm(6)=   0.000000

     crystal axes: (cart. coord. in units of alat)
               a(1) = (   6.579727   0.000000   0.000000 )
               a(2) = (  -0.000775   5.961596   0.000000 )
               a(3) = (   0.000000   0.000000  25.155947 )

     reciprocal axes: (cart. coord. in units 2 pi/alat)
               b(1) = (  0.151982  0.000020  0.000000 )
               b(2) = (  0.000000  0.167740  0.000000 )
               b(3) = (  0.000000  0.000000  0.039752 )

     PseudoPot. # 1 for Ti read from file:
     /storage/coda1/p-amedford6/0/shared/rich_project_chbe-medford/medford-share/data/pseudos_module/espresso/nninc/pbe/van/Ti.UPF
     MD5 check sum: 8e4df49b7f0d34bbd5052bf3f5ea0213
     Pseudo is Ultrasoft, Zval = 12.0
     Generated by new atomic code, or converted to UPF format
     Using radial grid of  851 points,  6 beta functions with:
                l(1) =   0
                l(2) =   0
                l(3) =   1
                l(4) =   1
                l(5) =   2
                l(6) =   2
     Q(r) pseudized with  8 coefficients,  rinner =    1.000   1.000   1.000
                                                       1.000   1.000

     PseudoPot. # 2 for O  read from file:
     /storage/coda1/p-amedford6/0/shared/rich_project_chbe-medford/medford-share/data/pseudos_module/espresso/nninc/pbe/van/O.UPF
     MD5 check sum: 78c19812648e8988a0fe644b0f25305e
     Pseudo is Ultrasoft, Zval =  6.0
     Generated by new atomic code, or converted to UPF format
     Using radial grid of  737 points,  4 beta functions with:
                l(1) =   0
                l(2) =   0
                l(3) =   1
                l(4) =   1
     Q(r) pseudized with  8 coefficients,  rinner =    0.800   0.800   0.800

     PseudoPot. # 3 for N  read from file:
     /storage/coda1/p-amedford6/0/shared/rich_project_chbe-medford/medford-share/data/pseudos_module/espresso/nninc/pbe/van/N.UPF
     MD5 check sum: 90d10febe142ad51ac9d5be1deb811c4
     Pseudo is Ultrasoft, Zval =  5.0
     Generated by new atomic code, or converted to UPF format
     Using radial grid of  729 points,  4 beta functions with:
                l(1) =   0
                l(2) =   0
                l(3) =   1
                l(4) =   1
     Q(r) pseudized with  8 coefficients,  rinner =    0.800   0.800   0.800

     PseudoPot. # 4 for C  read from file:
     /storage/coda1/p-amedford6/0/shared/rich_project_chbe-medford/medford-share/data/pseudos_module/espresso/nninc/pbe/van/C.UPF
     MD5 check sum: 1a69bf6b8db32088f5b2163dbdb77a27
     Pseudo is Ultrasoft, Zval =  4.0
     Generated by new atomic code, or converted to UPF format
     Using radial grid of  721 points,  4 beta functions with:
                l(1) =   0
                l(2) =   0
                l(3) =   1
                l(4) =   1
     Q(r) pseudized with  8 coefficients,  rinner =    0.800   0.800   0.800

     PseudoPot. # 5 for H  read from file:
     /storage/coda1/p-amedford6/0/shared/rich_project_chbe-medford/medford-share/data/pseudos_module/espresso/nninc/pbe/van/H.UPF
     MD5 check sum: b5ee9d7bfd3a09ee7748110bda690ff7
     Pseudo is Ultrasoft, Zval =  1.0
     Generated by new atomic code, or converted to UPF format
     Using radial grid of  615 points,  1 beta functions with:
                l(1) =   0
     Q(r) pseudized with  8 coefficients,  rinner =    0.800

     atomic species   valence    mass     pseudopotential
        Ti1           12.00    47.86700     Ti( 1.00)
        O1             6.00    15.99900     O ( 1.00)
        N1             5.00    14.00700     N ( 1.00)
        C1             4.00    12.01100     C ( 1.00)
        H1             1.00     1.00800     H ( 1.00)

     No symmetry found

   Cartesian axes

     site n.     atom                  positions (alat units)
         1           Ti1 tau(   1) = (   0.0004258   2.9801865   6.0000000  )
         2           Ti1 tau(   2) = (   3.2906075   1.4906267   6.0002472  )
         3           O1  tau(   3) = (   0.0006271   0.0005054   7.9858123  )
         4           O1  tau(   4) = (   3.2906025   0.0005020   7.3038282  )
         5           O1  tau(   5) = (   4.5942328   1.4918067   9.2879030  )
         6           O1  tau(   6) = (   1.9868534   1.4903216   9.2879459  )
         7           Ti1 tau(   7) = (   3.2907910   2.8959150   9.1758416  )
         8           Ti1 tau(   8) = (   0.0015273   1.4827037   9.2680791  )
         9           O1  tau(   9) = (   3.2934429   5.9466490  11.3040654  )
        10           O1  tau(  10) = (   0.0116148   5.9584955  10.6183126  )
        11           O1  tau(  11) = (   1.2867109   1.4782735  12.6190062  )
        12           O1  tau(  12) = (   5.2776945   1.4764076  12.5976694  )
        13           Ti1 tau(  13) = (   0.0846880   2.9559742  12.7004455  )
        14           Ti1 tau(  14) = (   3.4192946   1.4610250  12.4797112  )
        15           O1  tau(  15) = (   0.0040618   5.9510889  14.6015872  )
        16           O1  tau(  16) = (   3.2972055   5.9566395  13.8969661  )
        17           O1  tau(  17) = (   4.5327346   1.5242580  16.0225792  )
        18           O1  tau(  18) = (   2.0474321   1.5095568  15.9818283  )
        19           Ti1 tau(  19) = (   3.2830006   2.9631064  15.6531525  )
        20           Ti1 tau(  20) = (   6.5418150   1.5417905  15.9635021  )
        21           O1  tau(  21) = (   3.2904802   0.0005063   4.7018136  )
        22           O1  tau(  22) = (   0.0063621   0.0138944  17.1794403  )
        23           O1  tau(  23) = (   1.3043587   1.4918075   6.0039043  )
        24           O1  tau(  24) = (   5.2767064   1.4903225   6.0039473  )
        25           Ti1 tau(  25) = (   0.0000382   5.9609847   6.0000000  )
        26           Ti1 tau(  26) = (   3.2902200   4.4714249   6.0002472  )
        27           O1  tau(  27) = (   0.0002396   2.9813036   7.9858123  )
        28           O1  tau(  28) = (   3.2902150   2.9813002   7.3038282  )
        29           O1  tau(  29) = (   4.5938453   4.4726049   9.2879030  )
        30           O1  tau(  30) = (   1.9864658   4.4711199   9.2879459  )
        31           Ti1 tau(  31) = (   3.2891106   5.8743827   9.1763621  )
        32           Ti1 tau(  32) = (   0.0006254   4.4649316   9.2693709  )
        33           O1  tau(  33) = (   3.2987291   2.9703105  11.3060640  )
        34           O1  tau(  34) = (   0.0092240   2.9805883  10.6323155  )
        35           O1  tau(  35) = (   1.2872851   4.4534926  12.6272766  )
        36           O1  tau(  36) = (   5.2800973   4.4624318  12.6062822  )
        37           Ti1 tau(  37) = (   0.1009857   5.9355968  12.6779778  )
        38           Ti1 tau(  38) = (   3.4194502   4.4581092  12.4739500  )
        39           O1  tau(  39) = (   6.5579784   2.9468049  14.6267102  )
        40           O1  tau(  40) = (   3.2950467   2.9662764  13.8528306  )
        41           O1  tau(  41) = (   4.5369278   4.4531499  15.9976687  )
        42           O1  tau(  42) = (   2.0426393   4.4597293  15.9709435  )
        43           Ti1 tau(  43) = (   3.2485613   5.9322867  15.7552632  )
        44           Ti1 tau(  44) = (   6.5504849   4.5932964  16.0494500  )
        45           O1  tau(  45) = (   3.2900926   2.9813045   4.7018136  )
        46           O1  tau(  46) = (   1.3039711   4.4726057   6.0039043  )
        47           O1  tau(  47) = (   5.2763189   4.4711207   6.0039473  )
        48           N1  tau(  48) = (   0.6156314   2.9572148  18.5116157  )
        49           N1  tau(  49) = (   0.0870375   2.9660652  17.3303775  )
        50           C1  tau(  50) = (   6.5561155   3.1780822  19.6039678  )
        51           H1  tau(  51) = (   5.4868456   3.3930584  19.6151425  )
        52           H1  tau(  52) = (   0.5344647   3.1546629  20.5288580  )
        53           O1  tau(  53) = (   3.2552377   5.9566958  18.1335742  )
        54           H1  tau(  54) = (   4.0211122   0.5273114  18.4085372  )
        55           H1  tau(  55) = (   2.4596908   0.4732500  18.4230009  )

     number of k points=    10  Fermi-Dirac smearing, width (Ry)=  0.0073
                       cart. coord. in units 2pi/alat
        k(    1) = (   0.0000000   0.0000000   0.0000000), wk =   0.1250000
        k(    2) = (   0.0000000   0.0419351   0.0000000), wk =   0.2500000
        k(    3) = (   0.0000000  -0.0838702   0.0000000), wk =   0.1250000
        k(    4) = (   0.0379955   0.0000049   0.0000000), wk =   0.2500000
        k(    5) = (   0.0379955   0.0419400   0.0000000), wk =   0.2500000
        k(    6) = (   0.0379955  -0.0838652   0.0000000), wk =   0.2500000
        k(    7) = (   0.0379955  -0.0419301   0.0000000), wk =   0.2500000
        k(    8) = (  -0.0759910  -0.0000099   0.0000000), wk =   0.1250000
        k(    9) = (  -0.0759910   0.0419252   0.0000000), wk =   0.2500000
        k(   10) = (  -0.0759910  -0.0838800   0.0000000), wk =   0.1250000

     Initial potential from superposition of free atoms

     starting charge  385.99915, renormalised to  402.00000

     negative rho (up, down):  1.463E-02 0.000E+00

     %%%%%%%%%%%%%%%%%%%%%%%%%%%%%%%%%%%%%%%%%%%%%%%%%%%%%%%%%%%%%%%%%%%%%%%%
     %                                                                      %
     % You are using vdW-DF, which was implemented by the Thonhauser group. %
     % Please cite the following two papers that made this development      %
     % possible and the two reviews that describe the various versions:     %
     %                                                                      %
     %   T. Thonhauser et al., PRL 115, 136402 (2015).                      %
     %   T. Thonhauser et al., PRB 76, 125112 (2007).                       %
     %   K. Berland et al., Rep. Prog. Phys. 78, 066501 (2015).             %
     %   D.C. Langreth et al., J. Phys.: Condens. Matter 21, 084203 (2009). %
     %                                                                      %
     %                                                                      %
     % If you are calculating the stress with vdW-DF, please also cite:     %
     %                                                                      %
     %   R. Sabatini et al., J. Phys.: Condens. Matter 24, 424209 (2012).   %
     %                                                                      %
     %%%%%%%%%%%%%%%%%%%%%%%%%%%%%%%%%%%%%%%%%%%%%%%%%%%%%%%%%%%%%%%%%%%%%%%%

     Adding external electric field

     Computed dipole along edir(3) :
        Dipole              -11.9647 Ry au,        -30.4113 Debye
        Dipole field         -0.0226 Ry au,

        Potential amp.        2.0930 Ry
        Total length         46.3494 bohr

     Starting wfcs are  304 atomic wfcs
  @ DRIVER MODE: Message from server: STATUS
  @ DRIVER MODE: Message from server: POSDATA
  @ DRIVER MODE: Reading and sharing cell
  @ DRIVER MODE: Reading and sharing positions
  @ DRIVER MODE: Received positions

     Self-consistent Calculation

     iteration #  1     ecut=    29.40 Ry     beta= 0.05
     Davidson diagonalization with overlap
     c_bands:  3 eigenvalues not converged
     c_bands:  1 eigenvalues not converged
     c_bands:  5 eigenvalues not converged
     c_bands:  3 eigenvalues not converged
     c_bands:  3 eigenvalues not converged
     c_bands:  2 eigenvalues not converged
     c_bands:  4 eigenvalues not converged
     c_bands:  4 eigenvalues not converged
     c_bands:  3 eigenvalues not converged
     ethr =  1.00E-05,  avg # of iterations = 21.6

[...]

     total energy              =   -2415.33003848 Ry
     estimated scf accuracy    <    6284.33140861 Ry

     iteration #  2     ecut=    29.40 Ry     beta= 0.05
     Davidson diagonalization with overlap
     ethr =  1.00E-02,  avg # of iterations = 22.8

[...]

     iteration # 44     ecut=    29.40 Ry     beta= 0.05
     Davidson diagonalization with overlap
     c_bands:  2 eigenvalues not converged
     ethr =  3.09E-07,  avg # of iterations = 11.1

[...]

     total energy              =   -2972.73805636 Ry
     estimated scf accuracy    <       0.00000008 Ry

     iteration # 67     ecut=    29.40 Ry     beta= 0.05
     Davidson diagonalization with overlap
     ethr =  1.97E-11,  avg # of iterations =  5.8

     negative rho (up, down):  1.528E-02 0.000E+00

     Adding external electric field

     Computed dipole along edir(3) :
        Dipole                0.6723 Ry au,          1.7089 Debye
        Dipole field          0.0013 Ry au,

        Potential amp.       -0.1176 Ry
        Total length         46.3494 bohr

     End of self-consistent calculation

          k = 0.0000 0.0000 0.0000 ( 18029 PWs)   bands (ev):

   -56.1093 -56.0755 -55.6529 -55.6190 -55.5610 -55.5451 -55.5266 -55.5097
   -55.4318 -55.3777 -55.3370 -55.2732 -54.9290 -54.8950 -54.8784 -54.8388
   -32.5616 -32.4006 -32.3731 -32.2693 -32.1854 -32.1763 -32.1201 -32.0780
   -32.0473 -31.8963 -31.8839 -31.8690 -31.8532 -31.8431 -31.8174 -31.7834
   -31.7799 -31.7763 -31.7572 -31.7550 -31.7501 -31.7247 -31.7157 -31.7140
   -31.6852 -31.6734 -31.6649 -31.6620 -31.6410 -31.6051 -31.5479 -31.5454
   -31.5163 -31.4892 -31.4661 -31.4338 -31.4084 -31.3292 -31.2579 -31.2345
   -31.1467 -31.1232 -31.0912 -31.0747 -31.0614 -31.0510 -30.9638 -30.9503
   -18.6926 -17.6056 -16.4346 -16.2234 -15.9851 -15.7485 -15.7058 -15.5750
   -15.5620 -15.5579 -15.4372 -15.4315 -15.3663 -15.2656 -15.1923 -15.1506
   -15.1085 -15.0941 -15.0798 -14.9918 -14.9781 -14.9561 -14.9474 -14.8767
   -14.8170 -14.8098 -14.6991 -14.6257 -14.5738 -14.5332 -14.2502 -13.4293
   -13.3160 -11.6832  -6.5387  -6.4504  -4.4238  -3.9564  -3.9321  -3.7201
    -3.5637  -3.4616  -3.3360  -3.3163  -3.1857  -3.0834  -2.9460  -2.9100
    -2.8816  -2.8001  -2.7964  -2.7739  -2.6386  -2.5985  -2.5584  -2.5355
    -2.5081  -2.4330  -2.4105  -2.3504  -2.3295  -2.2969  -2.1843  -2.1415
    -2.1064  -2.0944  -2.0641  -2.0231  -1.9796  -1.9559  -1.9533  -1.9402
    -1.9078  -1.8185  -1.7617  -1.6591  -1.6080  -1.4944  -1.4629  -1.4316
    -1.3809  -1.2895  -1.1607  -1.1533  -1.0861  -1.0469  -0.9897  -0.9670
    -0.9031  -0.8920  -0.8205  -0.7831  -0.6963  -0.6554  -0.6223  -0.5890
    -0.5697  -0.4790  -0.4314  -0.3569  -0.2940  -0.2351  -0.2204  -0.1186
    -0.0896  -0.0586  -0.0379   0.0198   0.0685   0.0800   0.1007   0.1280
     0.1573   0.1788   0.3017   0.3574   0.3694   0.3992   0.4208   0.5325
     0.5952   0.6752   0.7332   0.7724   0.8798   0.8932   0.9372   1.0619
     1.0799   1.0931   1.1402   1.3105   1.6142   1.6515   1.6926   1.7916
     2.9611   3.1181   3.2338   3.4515   3.5542   3.5845   3.8393   3.9397
     3.9954   4.0122   4.0243

[...]

          k = 0.0380-0.0419 0.0000 ( 17876 PWs)   bands (ev):

[...]

          k =-0.0760-0.0000 0.0000 ( 17886 PWs)   bands (ev):

[...]

          k =-0.0760-0.0839 0.0000 ( 17948 PWs)   bands (ev):

   -56.0924 -56.0923 -55.6380 -55.6336 -55.5468 -55.5408 -55.5288 -55.5258
   -55.4298 -55.3679 -55.3466 -55.2750 -54.9121 -54.9118 -54.8687 -54.8485
   -32.3863 -32.3860 -32.3776 -32.3774 -32.2210 -32.2208 -31.9448 -31.9395
   -31.8971 -31.8904 -31.8867 -31.8743 -31.8285 -31.8237 -31.8053 -31.8040
   -31.7931 -31.7883 -31.7618 -31.7586 -31.7562 -31.7560 -31.7520 -31.7491
   -31.7233 -31.6795 -31.6761 -31.6660 -31.6467 -31.6337 -31.5941 -31.5796
   -31.5776 -31.5371 -31.5219 -31.4743 -31.2905 -31.2474 -31.2473 -31.1760
   -31.1432 -31.1430 -31.1042 -31.1041 -31.0831 -31.0708 -31.0615 -31.0426
   -18.6916 -17.6004 -15.8089 -15.8035 -15.7421 -15.7349 -15.6708 -15.6070
   -15.5004 -15.4965 -15.4598 -15.3752 -15.2986 -15.2784 -15.2079 -15.2008
   -15.1992 -15.1902 -15.1194 -15.1092 -15.0848 -15.0618 -15.0375 -15.0298
   -15.0071 -14.9818 -14.7679 -14.7115 -14.6395 -14.5633 -14.4255 -13.4187
   -13.4186 -11.6879  -6.5220  -6.4570  -4.3784  -3.9491  -3.1420  -3.0221
    -2.9320  -2.9191  -2.8982  -2.8306  -2.7999  -2.7393  -2.7089  -2.6884
    -2.6127  -2.5987  -2.5463  -2.5406  -2.5119  -2.4920  -2.4414  -2.4335
    -2.4213  -2.4175  -2.3677  -2.3354  -2.3323  -2.3219  -2.3063  -2.2394
    -2.1756  -2.1385  -2.0979  -2.0664  -2.0631  -2.0217  -1.9961  -1.9643
    -1.8991  -1.8961  -1.8666  -1.8151  -1.6906  -1.6806  -1.5532  -1.4680
    -1.4503  -1.3838  -1.3238  -1.2905  -1.2243  -1.1627  -1.1348  -1.0351
    -1.0100  -0.9818  -0.9658  -0.9204  -0.9179  -0.8877  -0.7817  -0.7624
    -0.7220  -0.7170  -0.6432  -0.6110  -0.5521  -0.5283  -0.5210  -0.4798
    -0.4640  -0.3836  -0.3564  -0.3015  -0.2431  -0.2007  -0.1472  -0.0998
    -0.0302   0.0481   0.1015   0.1902   0.2045   0.2171   0.4248   0.4306
     0.5210   0.6040   0.7275   0.7548   0.7696   0.8706   0.9114   0.9339
     0.9601   1.1298   1.1724   1.4767   1.4782   1.5090   1.5093   1.7407
     2.9038   3.6510   3.6512   3.6862   3.6876   3.9108   3.9189   3.9646
     3.9694   4.0229   4.0463

     the Fermi energy is     3.0606 ev

!    total energy              =   -2972.73808627 Ry
     estimated scf accuracy    <       0.00000006 Ry
     smearing contrib. (-TS)   =      -0.01283035 Ry
     internal energy E=F+TS    =   -2972.72525592 Ry

     The total energy is F=E-TS. E is the sum of the following terms:
     one-electron contribution =  -24068.77849391 Ry
     hartree contribution      =   12127.93872199 Ry
     xc contribution           =    -493.18363145 Ry
     ewald contribution        =    9461.29729442 Ry
     electric field correction =       0.00085303 Ry

     convergence has been achieved in  67 iterations

     Forces acting on atoms (cartesian axes, Ry/au):

     atom    1 type  1   force =     0.00013536   -0.00029797    0.10858779
     atom    2 type  1   force =    -0.00011807   -0.00040728   -0.16787767
     atom    3 type  2   force =    -0.00015639   -0.00000692   -0.04350937
     atom    4 type  2   force =     0.00005023   -0.00076083    0.03958551
     atom    5 type  2   force =    -0.01332048    0.00015969   -0.00446189
     atom    6 type  2   force =     0.01491878    0.00103357   -0.00528852
     atom    7 type  1   force =    -0.00093808   -0.00248919    0.01120446
     atom    8 type  1   force =     0.00124013    0.00154159    0.07695839
     atom    9 type  2   force =    -0.00003912   -0.00014408    0.00013284
     atom   10 type  2   force =    -0.00112808    0.00038673   -0.05057231
     atom   11 type  2   force =    -0.00010956    0.00036195    0.00025497
     atom   12 type  2   force =     0.00005237    0.00025321    0.00020884
     atom   13 type  1   force =     0.00047213    0.00002184   -0.00095994
     atom   14 type  1   force =    -0.00025553   -0.00007242   -0.00029171
     atom   15 type  2   force =    -0.00023059    0.00009713    0.00170566
     atom   16 type  2   force =     0.00011317    0.00001530    0.00031077
     atom   17 type  2   force =    -0.00041037    0.00048386   -0.00008816
     atom   18 type  2   force =    -0.00004331    0.00051209    0.00009489
     atom   19 type  1   force =     0.00043723   -0.00012992   -0.00027320
     atom   20 type  1   force =    -0.00019978    0.00120226    0.00077084
     atom   21 type  2   force =     0.00008067    0.00005656    0.10128380
     atom   22 type  2   force =    -0.00000828   -0.00009600    0.00007011
     atom   23 type  2   force =    -0.07501720   -0.00002536   -0.03012831
     atom   24 type  2   force =     0.07499071    0.00042963   -0.03012548
     atom   25 type  1   force =     0.00021394   -0.00028364    0.10823286
     atom   26 type  1   force =    -0.00010727   -0.00045249   -0.16790100
     atom   27 type  2   force =    -0.00002011   -0.00024902   -0.04251486
     atom   28 type  2   force =     0.00011585   -0.00048247    0.03894458
     atom   29 type  2   force =    -0.01363699    0.00093925   -0.00469265
     atom   30 type  2   force =     0.01517152    0.00120195   -0.00557203
     atom   31 type  1   force =    -0.00124846    0.00053313    0.00690699
     atom   32 type  1   force =     0.00132481   -0.00408532    0.07738945
     atom   33 type  2   force =    -0.00004331    0.00013106    0.00010808
     atom   34 type  2   force =    -0.00136309    0.00034542   -0.05663185
     atom   35 type  2   force =    -0.00004687   -0.00049730    0.00011252
     atom   36 type  2   force =    -0.00028536   -0.00021665    0.00001211
     atom   37 type  1   force =    -0.00007334   -0.00001746   -0.00134077
     atom   38 type  1   force =    -0.00022629    0.00020650   -0.00057158
     atom   39 type  2   force =     0.00000648   -0.00007850    0.00093180
     atom   40 type  2   force =    -0.00002532    0.00028726    0.00059089
     atom   41 type  2   force =     0.00023449   -0.00024632    0.00008344
     atom   42 type  2   force =    -0.00065909   -0.00015783    0.00011605
     atom   43 type  1   force =     0.00035851    0.00077030   -0.00004739
     atom   44 type  1   force =    -0.00006040   -0.00027710    0.00038457
     atom   45 type  2   force =     0.00006909    0.00004000    0.10124519
     atom   46 type  2   force =    -0.07500494    0.00004002   -0.03008909
     atom   47 type  2   force =     0.07498102    0.00047285   -0.03010099
     atom   48 type  3   force =     0.00253998    0.00020124    0.00991017
     atom   49 type  3   force =    -0.00324379   -0.00068915   -0.01712379
     atom   50 type  4   force =     0.00072732    0.00029090    0.00458226
     atom   51 type  5   force =     0.00045160    0.00035771   -0.00054796
     atom   52 type  5   force =    -0.00041738   -0.00006719   -0.00000505
     atom   53 type  2   force =     0.00039868    0.00056711    0.00026481
     atom   54 type  5   force =    -0.00081901   -0.00090143   -0.00010893
     atom   55 type  5   force =     0.00017175    0.00019172   -0.00016011

     Total force =     0.390579     Total SCF correction =     0.000857
  @ DRIVER MODE: Message from server: STATUS
  @ DRIVER MODE: Message from server: GETFORCE
  @ DRIVER MODE: Returning v,forces,stress,ensemble

     Writing output data file ./calc.save/
  @ DRIVER MODE: Message from server: EXIT
  @ DRIVE MODE: Exiting

     General routines

     Parallel routines

   This run was terminated on:  19:35:22  15Sep2021

   JOB DONE.