     Program PWSCF v.6.7GPU starts on 16Jul2021 at 13:47:43

     R & G space division:  proc/nbgrp/npool/nimage =      16
     Reading input from /storage/home/hcoda1/3/ntian30/research/carbon/15Jul_vib/ads_slab/CH3NNHH_a/out_0032/pw.inp
Warning: card &CELL ignored
Warning: card   CELL_DYNAMICS='IPI', ignored
Warning: card / ignored

     Current dimensions of program PWSCF are:
     Max number of different atomic species (ntypx) = 10
     Max number of k-points (npk) =  40000
     Max angular momentum in pseudopotentials (lmaxx) =  3
     Presently no symmetry can be used with electric field

     Message from routine cell_base_init:
     DEPRECATED: use true lattice parameter, not A to a.u. conversion factor

     IMPORTANT: XC functional enforced from input :
     Exchange-correlation= BEEF-VDW
                           (   1   4  43  14   2   0   0)
     Any further DFT definition will be discarded
     Please, verify this is what you really want

  @ DRIVER MODE: Connecting to
 qe_1139763_2351651.sched-torque.pace.gatech.edurawottww_scratch
  using UNIX socket
  @ DRIVER MODE: Message from server: STATUS
  @ DRIVER MODE: Message from server: INIT
  @ DRIVER MODE: Receiving replica           0          -1
  @ DRIVER MODE: Receiving encoded integer          25
  @ DRIVER MODE:  SCF:  T  FORCE:  T  STRESS:  F  VC:  F  ENSEMBLE:  F
  @ DRIVER MODE:  SCF:  T  FORCE:  T  STRESS:  F  VC:  F  ENSEMBLE:  F

     Using Slab Decomposition

     bravais-lattice index     =            0
     lattice parameter (alat)  =       1.8897  a.u.
     unit-cell volume          =    6658.9804 (a.u.)^3
     number of atoms/cell      =           55
     number of atomic types    =            5
     number of electrons       =       397.00
     number of Kohn-Sham states=          208
     kinetic-energy cutoff     =      29.3995  Ry
     charge density cutoff     =     293.9946  Ry
     scf convergence threshold =      7.3E-08
     mixing beta               =       0.0500
     number of iterations used =            8  plain     mixing
     Exchange-correlation= BEEF-VDW
                           (   1   4  43  14   2   0   0)

     celldm(1)=   1.889726  celldm(2)=   0.000000  celldm(3)=   0.000000
     celldm(4)=   0.000000  celldm(5)=   0.000000  celldm(6)=   0.000000

     crystal axes: (cart. coord. in units of alat)
               a(1) = (   6.579727   0.000000   0.000000 )
               a(2) = (  -0.000775   5.961596   0.000000 )
               a(3) = (   0.000000   0.000000  25.155947 )

     reciprocal axes: (cart. coord. in units 2 pi/alat)
               b(1) = (  0.151982  0.000020  0.000000 )
               b(2) = (  0.000000  0.167740  0.000000 )
               b(3) = (  0.000000  0.000000  0.039752 )

     PseudoPot. # 1 for Ti read from file:
     /storage/coda1/p-amedford6/0/shared/rich_project_chbe-medford/medford-share/data/pseudos_module/espresso/nninc/pbe/van/Ti.UPF
     MD5 check sum: 8e4df49b7f0d34bbd5052bf3f5ea0213
     Pseudo is Ultrasoft, Zval = 12.0
     Generated by new atomic code, or converted to UPF format
     Using radial grid of  851 points,  6 beta functions with:
                l(1) =   0
                l(2) =   0
                l(3) =   1
                l(4) =   1
                l(5) =   2
                l(6) =   2
     Q(r) pseudized with  8 coefficients,  rinner =    1.000   1.000   1.000
                                                       1.000   1.000

     PseudoPot. # 2 for O  read from file:
     /storage/coda1/p-amedford6/0/shared/rich_project_chbe-medford/medford-share/data/pseudos_module/espresso/nninc/pbe/van/O.UPF
     MD5 check sum: 78c19812648e8988a0fe644b0f25305e
     Pseudo is Ultrasoft, Zval =  6.0
     Generated by new atomic code, or converted to UPF format
     Using radial grid of  737 points,  4 beta functions with:
                l(1) =   0
                l(2) =   0
                l(3) =   1
                l(4) =   1
     Q(r) pseudized with  8 coefficients,  rinner =    0.800   0.800   0.800

     PseudoPot. # 3 for N  read from file:
     /storage/coda1/p-amedford6/0/shared/rich_project_chbe-medford/medford-share/data/pseudos_module/espresso/nninc/pbe/van/N.UPF
     MD5 check sum: 90d10febe142ad51ac9d5be1deb811c4
     Pseudo is Ultrasoft, Zval =  5.0
     Generated by new atomic code, or converted to UPF format
     Using radial grid of  729 points,  4 beta functions with:
                l(1) =   0
                l(2) =   0
                l(3) =   1
                l(4) =   1
     Q(r) pseudized with  8 coefficients,  rinner =    0.800   0.800   0.800

     PseudoPot. # 4 for C  read from file:
     /storage/coda1/p-amedford6/0/shared/rich_project_chbe-medford/medford-share/data/pseudos_module/espresso/nninc/pbe/van/C.UPF
     MD5 check sum: 1a69bf6b8db32088f5b2163dbdb77a27
     Pseudo is Ultrasoft, Zval =  4.0
     Generated by new atomic code, or converted to UPF format
     Using radial grid of  721 points,  4 beta functions with:
                l(1) =   0
                l(2) =   0
                l(3) =   1
                l(4) =   1
     Q(r) pseudized with  8 coefficients,  rinner =    0.800   0.800   0.800

     PseudoPot. # 5 for H  read from file:
     /storage/coda1/p-amedford6/0/shared/rich_project_chbe-medford/medford-share/data/pseudos_module/espresso/nninc/pbe/van/H.UPF
     MD5 check sum: b5ee9d7bfd3a09ee7748110bda690ff7
     Pseudo is Ultrasoft, Zval =  1.0
     Generated by new atomic code, or converted to UPF format
     Using radial grid of  615 points,  1 beta functions with:
                l(1) =   0
     Q(r) pseudized with  8 coefficients,  rinner =    0.800

     atomic species   valence    mass     pseudopotential
        Ti1           12.00    47.86700     Ti( 1.00)
        O1             6.00    15.99900     O ( 1.00)
        N1             5.00    14.00700     N ( 1.00)
        C1             4.00    12.01100     C ( 1.00)
        H1             1.00     1.00800     H ( 1.00)

     Starting magnetic structure
     atomic species   magnetization
        Ti1          0.000
        O1           0.000
        N1           0.000
        C1           0.025
        H1           0.000

     No symmetry found

   Cartesian axes

     site n.     atom                  positions (alat units)
         1           Ti1 tau(   1) = (   0.0004258   2.9801865   6.0000000  )
         2           Ti1 tau(   2) = (   3.2906075   1.4906267   6.0002472  )
         3           O1  tau(   3) = (   0.0006271   0.0005054   7.9858123  )
         4           O1  tau(   4) = (   3.2906025   0.0005020   7.3038282  )
         5           O1  tau(   5) = (   4.5942328   1.4918067   9.2879030  )
         6           O1  tau(   6) = (   1.9868534   1.4903216   9.2879459  )
         7           Ti1 tau(   7) = (   3.2907910   2.8959150   9.1758416  )
         8           Ti1 tau(   8) = (   0.0015273   1.4827037   9.2680791  )
         9           O1  tau(   9) = (   3.3020592   5.9599881  11.3075072  )
        10           O1  tau(  10) = (   0.0116148   5.9584955  10.6183126  )
        11           O1  tau(  11) = (   1.3218652   1.4872367  12.6142461  )
        12           O1  tau(  12) = (   5.3149618   1.4866655  12.6283206  )
        13           Ti1 tau(  13) = (   6.5343381   3.0098038  12.6530281  )
        14           Ti1 tau(  14) = (   3.2132235   1.4912063  12.4551521  )
        15           O1  tau(  15) = (   0.0515422   5.9562953  14.6829507  )
        16           O1  tau(  16) = (   3.3088797   0.0214154  13.8770011  )
        17           O1  tau(  17) = (   4.5726725   1.5412406  16.1224456  )
        18           O1  tau(  18) = (   2.0900022   1.5114086  15.9969863  )
        19           Ti1 tau(  19) = (   3.3311046   3.0200058  15.6476981  )
        20           Ti1 tau(  20) = (   0.0790784   1.4105808  15.8036947  )
        21           O1  tau(  21) = (   3.2904802   0.0005063   4.7018136  )
        22           O1  tau(  22) = (   0.0613336   0.0214447  17.2555488  )
        23           O1  tau(  23) = (   1.3043587   1.4918075   6.0039043  )
        24           O1  tau(  24) = (   5.2767064   1.4903225   6.0039473  )
        25           Ti1 tau(  25) = (   0.0000382   5.9609847   6.0000000  )
        26           Ti1 tau(  26) = (   3.2902200   4.4714249   6.0002472  )
        27           O1  tau(  27) = (   0.0002396   2.9813036   7.9858123  )
        28           O1  tau(  28) = (   3.2902150   2.9813002   7.3038282  )
        29           O1  tau(  29) = (   4.5938453   4.4726049   9.2879030  )
        30           O1  tau(  30) = (   1.9864658   4.4711199   9.2879459  )
        31           Ti1 tau(  31) = (   3.2891106   5.8743827   9.1763621  )
        32           Ti1 tau(  32) = (   0.0006254   4.4649316   9.2693709  )
        33           O1  tau(  33) = (   3.3026341   2.9893090  11.3092672  )
        34           O1  tau(  34) = (   0.0092240   2.9805883  10.6323155  )
        35           O1  tau(  35) = (   1.3182942   4.4670451  12.6271195  )
        36           O1  tau(  36) = (   5.3124783   4.4780259  12.6376329  )
        37           Ti1 tau(  37) = (   6.5365500   0.0194685  12.5464133  )
        38           Ti1 tau(  38) = (   3.2155898   4.4753301  12.4613306  )
        39           O1  tau(  39) = (   0.0167368   2.9407051  14.7244952  )
        40           O1  tau(  40) = (   3.3149560   2.9822459  13.8616979  )
        41           O1  tau(  41) = (   4.5706274   4.5128733  15.9228735  )
        42           O1  tau(  42) = (   2.1262058   4.4922812  16.0793225  )
        43           Ti1 tau(  43) = (   3.3222298   0.0210159  15.6751784  )
        44           Ti1 tau(  44) = (   6.5499002   4.5104744  16.2959303  )
        45           O1  tau(  45) = (   3.2900926   2.9813045   4.7018136  )
        46           O1  tau(  46) = (   1.3039711   4.4726057   6.0039043  )
        47           O1  tau(  47) = (   5.2763189   4.4711207   6.0039473  )
        48           N1  tau(  48) = (   0.3735289   2.9861087  17.6038306  )
        49           C1  tau(  49) = (   1.3580301   2.7301661  18.6431808  )
        50           H1  tau(  50) = (   1.5128655   3.6233449  19.2641712  )
        51           H1  tau(  51) = (   1.0354786   1.8978442  19.2795547  )
        52           H1  tau(  52) = (   2.3065860   2.4473273  18.1987077  )
        53           N1  tau(  53) = (   5.7426324   3.4596218  18.1373629  )
        54           H1  tau(  54) = (   5.8436824   4.0267099  18.9748678  )
        55           H1  tau(  55) = (   5.0375616   2.7244768  18.2555579  )

     number of k points=    10  Fermi-Dirac smearing, width (Ry)=  0.0073
                       cart. coord. in units 2pi/alat
        k(    1) = (   0.0000000   0.0000000   0.0000000), wk =   0.0625000
        k(    2) = (   0.0000000   0.0419351   0.0000000), wk =   0.1250000
        k(    3) = (   0.0000000  -0.0838702   0.0000000), wk =   0.0625000
        k(    4) = (   0.0379955   0.0000049   0.0000000), wk =   0.1250000
        k(    5) = (   0.0379955   0.0419400   0.0000000), wk =   0.1250000
        k(    6) = (   0.0379955  -0.0838652   0.0000000), wk =   0.1250000
[...]
     % You are using vdW-DF, which was implemented by the Thonhauser group. %
     % Please cite the following two papers that made this development      %
     % possible and the two reviews that describe the various versions:     %
     %                                                                      %
     %   T. Thonhauser et al., PRL 115, 136402 (2015).                      %
     %   T. Thonhauser et al., PRB 76, 125112 (2007).                       %
     %   K. Berland et al., Rep. Prog. Phys. 78, 066501 (2015).             %
     %   D.C. Langreth et al., J. Phys.: Condens. Matter 21, 084203 (2009). %
     %                                                                      %
     %                                                                      %
     % If you are calculating the stress with vdW-DF, please also cite:     %
     %                                                                      %
     %   R. Sabatini et al., J. Phys.: Condens. Matter 24, 424209 (2012).   %
     %                                                                      %
     %%%%%%%%%%%%%%%%%%%%%%%%%%%%%%%%%%%%%%%%%%%%%%%%%%%%%%%%%%%%%%%%%%%%%%%%

     Adding external electric field

     Computed dipole along edir(3) :
        Dipole               -9.2582 Ry au,        -23.5319 Debye
        Dipole field         -0.0175 Ry au,

        Potential amp.        1.6196 Ry
        Total length         46.3494 bohr

[...]

     Starting wfcs are  301 atomic wfcs
  @ DRIVER MODE: Message from server: STATUS
  @ DRIVER MODE: Message from server: POSDATA
  @ DRIVER MODE: Reading and sharing cell
  @ DRIVER MODE: Reading and sharing positions
  @ DRIVER MODE: Received positions

     Self-consistent Calculation

     iteration #  1     ecut=    29.40 Ry     beta= 0.05
     Davidson diagonalization with overlap
     c_bands:  1 eigenvalues not converged
     c_bands:  2 eigenvalues not converged
     c_bands:  1 eigenvalues not converged
     c_bands:  2 eigenvalues not converged
     c_bands:  2 eigenvalues not converged
     c_bands:  2 eigenvalues not converged
     c_bands:  2 eigenvalues not converged
     c_bands:  1 eigenvalues not converged
     c_bands:  4 eigenvalues not converged
     c_bands:  1 eigenvalues not converged
     c_bands:  2 eigenvalues not converged
     c_bands:  1 eigenvalues not converged
     c_bands:  2 eigenvalues not converged
     c_bands:  2 eigenvalues not converged
     c_bands:  2 eigenvalues not converged
     c_bands:  2 eigenvalues not converged
     c_bands:  1 eigenvalues not converged
     c_bands:  4 eigenvalues not converged
     ethr =  1.00E-05,  avg # of iterations = 19.8

[...]

     total energy              =   -2525.28814694 Ry
     estimated scf accuracy    <    4616.27457454 Ry

     total magnetization       =     0.00 Bohr mag/cell
     absolute magnetization    =     0.03 Bohr mag/cell

     iteration #  2     ecut=    29.40 Ry     beta= 0.05
     Davidson diagonalization with overlap
     ethr =  1.00E-02,  avg # of iterations = 23.9

[...]

     iteration # 73     ecut=    29.40 Ry     beta= 0.05
     Davidson diagonalization with overlap
     ethr =  2.62E-11,  avg # of iterations =  1.1

[...]

     total energy              =   -2941.63793970 Ry
     estimated scf accuracy    <       0.00000010 Ry

[...]

     iteration # 74     ecut=    29.40 Ry     beta= 0.05
     Davidson diagonalization with overlap
     c_bands:  1 eigenvalues not converged
     c_bands:  1 eigenvalues not converged
     ethr =  2.60E-11,  avg # of iterations = 13.0

     negative rho (up, down):  8.396E-03 8.394E-03

[...]

     Adding external electric field

     Computed dipole along edir(3) :
        Dipole                1.1493 Ry au,          2.9213 Debye
        Dipole field          0.0022 Ry au,

        Potential amp.       -0.2011 Ry
        Total length         46.3494 bohr

     Magnetic moment per site  (integrated on atomic sphere of radius R)
     atom   1 (R=0.726)  charge=  7.9408  magn= -0.0219
     atom   2 (R=0.726)  charge=  7.9243  magn= -0.0010
     atom   3 (R=0.726)  charge=  4.9319  magn=  0.0018
     atom   4 (R=0.726)  charge=  4.9681  magn=  0.0003
     atom   5 (R=0.726)  charge=  4.9368  magn=  0.0002
     atom   6 (R=0.726)  charge=  4.9376  magn=  0.0002
     atom   7 (R=0.726)  charge=  7.9229  magn= -0.0008
     atom   8 (R=0.726)  charge=  7.9151  magn= -0.0064
     atom   9 (R=0.726)  charge=  4.9562  magn=  0.0001
     atom  10 (R=0.726)  charge=  4.9311  magn=  0.0005
     atom  11 (R=0.726)  charge=  4.9388  magn=  0.0002
     atom  12 (R=0.726)  charge=  4.9369  magn=  0.0002
     atom  13 (R=0.726)  charge=  7.9088  magn= -0.0014
     atom  14 (R=0.726)  charge=  7.9274  magn= -0.0004
     atom  15 (R=0.726)  charge=  4.9165  magn=  0.0000
     atom  16 (R=0.726)  charge=  4.9542  magn=  0.0000
     atom  17 (R=0.726)  charge=  4.9068  magn= -0.0000
     atom  18 (R=0.726)  charge=  4.9387  magn= -0.0000
     atom  19 (R=0.726)  charge=  7.9527  magn= -0.0000
     atom  20 (R=0.726)  charge=  7.9411  magn= -0.0002
     atom  21 (R=0.726)  charge=  4.8212  magn=  0.0009
     atom  22 (R=0.726)  charge=  4.9008  magn=  0.0000
     atom  23 (R=0.726)  charge=  4.9281  magn=  0.0027
     atom  24 (R=0.726)  charge=  4.9282  magn=  0.0027
     atom  25 (R=0.726)  charge=  7.9408  magn= -0.0219
     atom  26 (R=0.726)  charge=  7.9244  magn= -0.0010
     atom  27 (R=0.726)  charge=  4.9306  magn=  0.0018
     atom  28 (R=0.726)  charge=  4.9683  magn=  0.0003
     atom  29 (R=0.726)  charge=  4.9375  magn=  0.0002
     atom  30 (R=0.726)  charge=  4.9383  magn=  0.0002
     atom  31 (R=0.726)  charge=  7.9236  magn= -0.0008
     atom  32 (R=0.726)  charge=  7.9153  magn= -0.0064
     atom  33 (R=0.726)  charge=  4.9540  magn=  0.0001
     atom  34 (R=0.726)  charge=  4.9049  magn=  0.0006
     atom  35 (R=0.726)  charge=  4.9378  magn=  0.0002
     atom  36 (R=0.726)  charge=  4.9369  magn=  0.0002
     atom  37 (R=0.726)  charge=  7.9159  magn= -0.0015
     atom  38 (R=0.726)  charge=  7.9271  magn= -0.0005
     atom  39 (R=0.726)  charge=  4.9089  magn=  0.0000
     atom  40 (R=0.726)  charge=  4.9620  magn=  0.0000
     atom  41 (R=0.726)  charge=  4.9464  magn= -0.0000
     atom  42 (R=0.726)  charge=  4.9157  magn= -0.0000
     atom  43 (R=0.726)  charge=  7.9490  magn= -0.0000
     atom  44 (R=0.726)  charge=  7.9604  magn= -0.0000
     atom  45 (R=0.726)  charge=  4.8212  magn=  0.0009
     atom  46 (R=0.726)  charge=  4.9281  magn=  0.0027
     atom  47 (R=0.726)  charge=  4.9282  magn=  0.0027
     atom  48 (R=0.419)  charge=  1.3132  magn= -0.0000
     atom  49 (R=0.448)  charge=  0.8407  magn=  0.0000
     atom  50 (R=0.419)  charge=  0.4406  magn= -0.0000
     atom  51 (R=0.419)  charge=  0.4396  magn= -0.0000
     atom  52 (R=0.419)  charge=  0.4477  magn= -0.0000
     atom  53 (R=0.419)  charge=  1.3349  magn=  0.0000
     atom  54 (R=0.419)  charge=  0.4531  magn= -0.0000
     atom  55 (R=0.419)  charge=  0.4437  magn=  0.0000

     End of self-consistent calculation

 ------ SPIN UP ------------

          k = 0.0000 0.0000 0.0000 ( 18029 PWs)   bands (ev):

   -55.5732 -55.5476 -55.5354 -55.5135 -55.4589 -55.4226 -55.4215 -55.3871
   -55.3639 -55.3298 -55.3253 -55.2915 -55.0309 -54.8684 -54.5353 -54.5013
   -32.1354 -32.0409 -31.9573 -31.8913 -31.8869 -31.8607 -31.8373 -31.8179
   -31.8041 -31.7893 -31.7833 -31.7582 -31.7536 -31.7250 -31.7145 -31.6957
   -31.6626 -31.6591 -31.6567 -31.6454 -31.6445 -31.6110 -31.6002 -31.5938
   -31.5690 -31.5669 -31.5619 -31.5542 -31.5527 -31.5288 -31.5029 -31.4981
   -31.4932 -31.4910 -31.4795 -31.4671 -31.4387 -31.3049 -31.2558 -31.1517
   -31.1218 -31.0294 -30.9419 -30.8544 -30.8321 -30.7585 -30.6720 -30.5612
   -17.6562 -16.3610 -16.0484 -15.8347 -15.7256 -15.7220 -15.6376 -15.4164
   -15.2948 -15.2807 -15.1653 -15.1614 -15.1025 -15.0600 -15.0531 -15.0458
   -15.0133 -15.0016 -14.9845 -14.9477 -14.9148 -14.8968 -14.8737 -14.7719
   -14.7049 -14.6995 -14.6811 -14.6164 -14.5687 -14.2082 -13.0388 -12.9226
   -12.5169  -9.2285  -6.3339  -5.1163  -4.2096  -3.7391  -3.5495  -3.4712
    -3.4371  -3.3700  -3.3409  -3.1797  -3.1713  -2.7929  -2.7737  -2.7556
    -2.7343  -2.7311  -2.4618  -2.4097  -2.3944  -2.3910  -2.3733  -2.3556
    -2.3351  -2.3248  -2.2971  -2.2872  -2.1530  -2.1092  -2.0303  -2.0044
    -1.9886  -1.8754  -1.8518  -1.8319  -1.8201  -1.8067  -1.7782  -1.7708
    -1.7489  -1.6408  -1.5323  -1.4521  -1.4172  -1.3630  -1.3484  -1.1621
    -1.1096  -1.0513  -1.0271  -1.0019  -0.9866  -0.9528  -0.8787  -0.8528
    -0.7121  -0.6733  -0.6198  -0.5935  -0.5649  -0.5083  -0.4754  -0.4451
    -0.3497  -0.3372  -0.3265  -0.3137  -0.2572  -0.0659  -0.0173   0.0014
     0.0164   0.1157   0.1555   0.1814   0.2141   0.2702   0.2996   0.3642
     0.3923   0.4124   0.4234   0.4524   0.4689   0.6005   0.6256   0.6561
     0.7182   0.7716   0.8488   0.9591   1.0419   1.0992   1.2003   1.4188
     1.4861   1.5701   1.6796   1.7174   2.0550   2.1010   3.5784   3.6810
     3.6978   3.7148   3.8191   3.8684   4.0207   4.0340   4.0697   4.0962

[...]

          k =-0.0760-0.0000 0.0000 ( 17886 PWs)   bands (ev):

[...]

 ------ SPIN DOWN ----------

[...]

          k = 0.0380-0.0419 0.0000 ( 17876 PWs)   bands (ev):

[...]

          k =-0.0760-0.0839 0.0000 ( 17948 PWs)   bands (ev):

   -55.5724 -55.5712 -55.5605 -55.5496 -55.4503 -55.4356 -55.4084 -55.4013
   -55.3603 -55.3570 -55.3118 -55.3082 -55.0300 -54.8696 -54.5202 -54.5201
   -31.9417 -31.9312 -31.8743 -31.8736 -31.8694 -31.8684 -31.8434 -31.8270
   -31.8023 -31.7883 -31.7675 -31.7480 -31.7229 -31.7123 -31.7064 -31.6961
   -31.6947 -31.6847 -31.6806 -31.6731 -31.6667 -31.6532 -31.6498 -31.6477
   -31.6282 -31.6127 -31.6034 -31.6020 -31.5556 -31.5535 -31.5447 -31.5423
   -31.5388 -31.5351 -31.5269 -31.5249 -31.4105 -31.3152 -31.2579 -31.2137
   -31.1273 -31.0403 -30.8471 -30.8470 -30.7558 -30.7557 -30.7172 -30.7172
   -17.6449 -15.8207 -15.7808 -15.5256 -15.5161 -15.5138 -15.4728 -15.3499
   -15.3018 -15.2754 -15.2637 -15.2450 -15.2369 -15.1362 -15.1212 -15.1058
   -15.0941 -15.0687 -15.0251 -15.0199 -15.0123 -15.0007 -14.9895 -14.9239
   -14.8712 -14.8673 -14.7541 -14.6622 -14.5219 -14.4329 -13.0227 -13.0225
   -12.5358  -9.1903  -6.2917  -5.1455  -4.1429  -3.4113  -3.1214  -3.0739
    -2.7858  -2.7663  -2.7514  -2.6377  -2.5184  -2.5092  -2.4830  -2.4617
    -2.4270  -2.4149  -2.4040  -2.3962  -2.3782  -2.3596  -2.3489  -2.3095
    -2.2408  -2.2329  -2.2250  -2.2164  -2.1994  -2.1757  -2.1651  -2.1379
    -2.1136  -2.0787  -2.0198  -1.9892  -1.8398  -1.7954  -1.7393  -1.6952
    -1.6869  -1.6575  -1.6234  -1.6158  -1.5075  -1.4951  -1.4572  -1.3283
    -1.2669  -1.2590  -1.2262  -1.1388  -1.1015  -0.9711  -0.9583  -0.9207
    -0.8650  -0.8574  -0.8209  -0.7824  -0.7313  -0.6793  -0.6354  -0.6126
    -0.5957  -0.5218  -0.5214  -0.4755  -0.4199  -0.3491  -0.3263  -0.3187
    -0.2850  -0.2422  -0.1953  -0.1318  -0.0566  -0.0376  -0.0223   0.0765
     0.1498   0.3695   0.4165   0.5129   0.5355   0.5622   0.6229   0.6721
     0.7422   0.7580   0.7854   0.8575   0.8788   0.9723   0.9837   1.0004
     1.1783   1.6553   1.8524   1.8533   1.9214   1.9219   3.8572   3.8733
     3.8975   3.9211   4.0714   4.0745   4.0927   4.0955   4.2161   4.2480

     the Fermi energy is     3.5643 ev

!    total energy              =   -2941.63795188 Ry
     estimated scf accuracy    <       0.00000007 Ry
     smearing contrib. (-TS)   =      -0.02166782 Ry
     internal energy E=F+TS    =   -2941.61628406 Ry

     The total energy is F=E-TS. E is the sum of the following terms:
     one-electron contribution =  -24388.37481087 Ry
     hartree contribution      =   12286.15173119 Ry
     xc contribution           =    -486.94528456 Ry
     ewald contribution        =    9647.54958740 Ry
     electric field correction =       0.00249279 Ry

     total magnetization       =    -0.08 Bohr mag/cell
     absolute magnetization    =     0.13 Bohr mag/cell

     convergence has been achieved in  74 iterations

     Forces acting on atoms (cartesian axes, Ry/au):

     atom    1 type  1   force =    -0.00001454   -0.00019410    0.09680548
     atom    2 type  1   force =     0.00008740   -0.00069669   -0.17463446
     atom    3 type  2   force =     0.00018283   -0.00005861   -0.02503282
     atom    4 type  2   force =     0.00000864   -0.00125084    0.05120003
     atom    5 type  2   force =    -0.01126918   -0.00079808    0.00228113
     atom    6 type  2   force =     0.01311189   -0.00034965    0.00272637
     atom    7 type  1   force =     0.00100381    0.00021580   -0.01343228
     atom    8 type  1   force =    -0.00010390    0.01533129    0.02822179
     atom    9 type  2   force =    -0.00007060   -0.00001141    0.00010189
     atom   10 type  2   force =    -0.00234150    0.00080761   -0.01058500
     atom   11 type  2   force =     0.00035158    0.00005524   -0.00001424
     atom   12 type  2   force =    -0.00043014   -0.00006494    0.00025141
     atom   13 type  1   force =     0.00014967   -0.00018527   -0.00006613
     atom   14 type  1   force =     0.00010272   -0.00021738    0.00002747
     atom   15 type  2   force =    -0.00011159    0.00034446   -0.00006971
     atom   16 type  2   force =    -0.00018853    0.00003095   -0.00015379
     atom   17 type  2   force =    -0.00003231    0.00013526    0.00001562
     atom   18 type  2   force =    -0.00017507    0.00000990   -0.00015138
     atom   19 type  1   force =    -0.00041284    0.00023868    0.00009859
     atom   20 type  1   force =     0.00008224   -0.00084401   -0.00009376
     atom   21 type  2   force =     0.00003738   -0.00009280    0.10301088
     atom   22 type  2   force =     0.00004851    0.00070980    0.00055148
     atom   23 type  2   force =    -0.07179173   -0.00020886   -0.02779237
     atom   24 type  2   force =     0.07175321    0.00024665   -0.02785522
     atom   25 type  1   force =     0.00002584   -0.00026215    0.09640626
     atom   26 type  1   force =     0.00000791   -0.00029431   -0.17490048
     atom   27 type  2   force =     0.00019182   -0.00025305   -0.02389317
     atom   28 type  2   force =     0.00005378   -0.00100607    0.05147026
     atom   29 type  2   force =    -0.01129765    0.00078944    0.00169518
     atom   30 type  2   force =     0.01298911    0.00111585    0.00209350
     atom   31 type  1   force =     0.00104116    0.00256968   -0.01544775
     atom   32 type  1   force =     0.00005958   -0.01663566    0.02909816
     atom   33 type  2   force =     0.00011757    0.00002941   -0.00010999
     atom   34 type  2   force =    -0.00271236    0.00093706   -0.01868987
     atom   35 type  2   force =     0.00017365   -0.00007241   -0.00008978
     atom   36 type  2   force =    -0.00037580   -0.00007067    0.00013356
     atom   37 type  1   force =    -0.00010919   -0.00019072    0.00012872
     atom   38 type  1   force =     0.00006951    0.00007539   -0.00006817
     atom   39 type  2   force =    -0.00004483    0.00041228    0.00000537
     atom   40 type  2   force =    -0.00037133    0.00015669   -0.00012976
     atom   41 type  2   force =     0.00020719   -0.00026678    0.00037672
     atom   42 type  2   force =     0.00019038    0.00025336   -0.00002691
     atom   43 type  1   force =     0.00004107   -0.00003230   -0.00013686
     atom   44 type  1   force =    -0.00008343   -0.00037453   -0.00062953
     atom   45 type  2   force =     0.00005555   -0.00010978    0.10301764
     atom   46 type  2   force =    -0.07181707   -0.00016076   -0.02781534
     atom   47 type  2   force =     0.07175993    0.00022630   -0.02785893
     atom   48 type  3   force =     0.00611503   -0.00172340    0.00040434
     atom   49 type  4   force =     0.00204803   -0.00088128   -0.00063444
     atom   50 type  5   force =    -0.00046246    0.00012973   -0.00000304
     atom   51 type  5   force =    -0.00060678   -0.00006246   -0.00028058
     atom   52 type  5   force =     0.00091398   -0.00029027    0.00038849
     atom   53 type  3   force =    -0.01736740   -0.00581438    0.00107689
     atom   54 type  5   force =     0.00278499    0.00139862    0.00229373
     atom   55 type  5   force =     0.00642425    0.00725414   -0.00328517

     Total force =     0.367887     Total SCF correction =     0.000423
  @ DRIVER MODE: Message from server: STATUS
  @ DRIVER MODE: Message from server: GETFORCE
  @ DRIVER MODE: Returning v,forces,stress,ensemble

     Writing output data file ./calc.save/
  @ DRIVER MODE: Message from server: EXIT
  @ DRIVE MODE: Exiting

     General routines

     Parallel routines

   This run was terminated on:  14:20:43  16Jul2021

   JOB DONE.