     Program PWSCF v.6.7GPU starts on 26Sep2021 at 17:14:34

     R & G space division:  proc/nbgrp/npool/nimage =       8
     Reading input from /storage/home/hcoda1/3/ntian30/research/carbon/CxH_vib/H2O_calc/ads_slab/CH3ON2H2O_a/out_0053/pw.inp
Warning: card &CELL ignored
Warning: card   CELL_DYNAMICS='IPI', ignored
Warning: card / ignored

     Current dimensions of program PWSCF are:
     Max number of different atomic species (ntypx) = 10
     Max number of k-points (npk) =  40000
     Max angular momentum in pseudopotentials (lmaxx) =  3
     Presently no symmetry can be used with electric field

     Message from routine cell_base_init:
     DEPRECATED: use true lattice parameter, not A to a.u. conversion factor

     IMPORTANT: XC functional enforced from input :
     Exchange-correlation= BEEF-VDW
                           (   1   4  43  14   2   0   0)
     Any further DFT definition will be discarded
     Please, verify this is what you really want

  @ DRIVER MODE: Connecting to
 qe_1139763_2971672.sched-torque.pace.gatech.edu29whtt7h_scratch
  using UNIX socket
  @ DRIVER MODE: Message from server: STATUS
  @ DRIVER MODE: Message from server: INIT
  @ DRIVER MODE: Receiving replica           0          -1
  @ DRIVER MODE: Receiving encoded integer          25
  @ DRIVER MODE:  SCF:  T  FORCE:  T  STRESS:  F  VC:  F  ENSEMBLE:  F
  @ DRIVER MODE:  SCF:  T  FORCE:  T  STRESS:  F  VC:  F  ENSEMBLE:  F

     Using Slab Decomposition

     bravais-lattice index     =            0
     lattice parameter (alat)  =       1.8897  a.u.
     unit-cell volume          =    6658.9804 (a.u.)^3
     number of atoms/cell      =           57
     number of atomic types    =            5
     number of electrons       =       409.00
     number of Kohn-Sham states=          214
     kinetic-energy cutoff     =      29.3995  Ry
     charge density cutoff     =     293.9946  Ry
     scf convergence threshold =      7.3E-08
     mixing beta               =       0.0500
     number of iterations used =            8  plain     mixing
     Exchange-correlation= BEEF-VDW
                           (   1   4  43  14   2   0   0)

     celldm(1)=   1.889726  celldm(2)=   0.000000  celldm(3)=   0.000000
     celldm(4)=   0.000000  celldm(5)=   0.000000  celldm(6)=   0.000000

     crystal axes: (cart. coord. in units of alat)
               a(1) = (   6.579727   0.000000   0.000000 )
               a(2) = (  -0.000775   5.961596   0.000000 )
               a(3) = (   0.000000   0.000000  25.155947 )

     reciprocal axes: (cart. coord. in units 2 pi/alat)
               b(1) = (  0.151982  0.000020  0.000000 )
               b(2) = (  0.000000  0.167740  0.000000 )
               b(3) = (  0.000000  0.000000  0.039752 )

     PseudoPot. # 1 for Ti read from file:
     /storage/coda1/p-amedford6/0/shared/rich_project_chbe-medford/medford-share/data/pseudos_module/espresso/nninc/pbe/van/Ti.UPF
     MD5 check sum: 8e4df49b7f0d34bbd5052bf3f5ea0213
     Pseudo is Ultrasoft, Zval = 12.0
     Generated by new atomic code, or converted to UPF format
     Using radial grid of  851 points,  6 beta functions with:
                l(1) =   0
                l(2) =   0
                l(3) =   1
                l(4) =   1
                l(5) =   2
                l(6) =   2
     Q(r) pseudized with  8 coefficients,  rinner =    1.000   1.000   1.000
                                                       1.000   1.000

     PseudoPot. # 2 for O  read from file:
     /storage/coda1/p-amedford6/0/shared/rich_project_chbe-medford/medford-share/data/pseudos_module/espresso/nninc/pbe/van/O.UPF
     MD5 check sum: 78c19812648e8988a0fe644b0f25305e
     Pseudo is Ultrasoft, Zval =  6.0
     Generated by new atomic code, or converted to UPF format
     Using radial grid of  737 points,  4 beta functions with:
                l(1) =   0
                l(2) =   0
                l(3) =   1
                l(4) =   1
     Q(r) pseudized with  8 coefficients,  rinner =    0.800   0.800   0.800

     PseudoPot. # 3 for C  read from file:
     /storage/coda1/p-amedford6/0/shared/rich_project_chbe-medford/medford-share/data/pseudos_module/espresso/nninc/pbe/van/C.UPF
     MD5 check sum: 1a69bf6b8db32088f5b2163dbdb77a27
     Pseudo is Ultrasoft, Zval =  4.0
     Generated by new atomic code, or converted to UPF format
     Using radial grid of  721 points,  4 beta functions with:
                l(1) =   0
                l(2) =   0
                l(3) =   1
                l(4) =   1
     Q(r) pseudized with  8 coefficients,  rinner =    0.800   0.800   0.800

     PseudoPot. # 4 for H  read from file:
     /storage/coda1/p-amedford6/0/shared/rich_project_chbe-medford/medford-share/data/pseudos_module/espresso/nninc/pbe/van/H.UPF
     MD5 check sum: b5ee9d7bfd3a09ee7748110bda690ff7
     Pseudo is Ultrasoft, Zval =  1.0
     Generated by new atomic code, or converted to UPF format
     Using radial grid of  615 points,  1 beta functions with:
                l(1) =   0
     Q(r) pseudized with  8 coefficients,  rinner =    0.800

     PseudoPot. # 5 for N  read from file:
     /storage/coda1/p-amedford6/0/shared/rich_project_chbe-medford/medford-share/data/pseudos_module/espresso/nninc/pbe/van/N.UPF
     MD5 check sum: 90d10febe142ad51ac9d5be1deb811c4
     Pseudo is Ultrasoft, Zval =  5.0
     Generated by new atomic code, or converted to UPF format
     Using radial grid of  729 points,  4 beta functions with:
                l(1) =   0
                l(2) =   0
                l(3) =   1
                l(4) =   1
     Q(r) pseudized with  8 coefficients,  rinner =    0.800   0.800   0.800

     atomic species   valence    mass     pseudopotential
        Ti1           12.00    47.86700     Ti( 1.00)
        O1             6.00    15.99900     O ( 1.00)
        C1             4.00    12.01100     C ( 1.00)
        H1             1.00     1.00800     H ( 1.00)
        N1             5.00    14.00700     N ( 1.00)

     No symmetry found

   Cartesian axes

     site n.     atom                  positions (alat units)
         1           Ti1 tau(   1) = (   0.0004258   2.9801865   6.0000000  )
         2           Ti1 tau(   2) = (   3.2906075   1.4906267   6.0002472  )
         3           O1  tau(   3) = (   0.0006271   0.0005054   7.9858123  )
         4           O1  tau(   4) = (   3.2906025   0.0005020   7.3038282  )
         5           O1  tau(   5) = (   4.5942328   1.4918067   9.2879030  )
         6           O1  tau(   6) = (   1.9868534   1.4903216   9.2879459  )
         7           Ti1 tau(   7) = (   3.3113259   3.0354369   9.1618307  )
         8           Ti1 tau(   8) = (   0.0141821   1.6139659   9.3625064  )
         9           O1  tau(   9) = (   3.2964399   0.0287090  11.3517035  )
        10           O1  tau(  10) = (   0.0046459   0.0167322  10.6079620  )
        11           O1  tau(  11) = (   1.2916403   1.5142126  12.6509924  )
        12           O1  tau(  12) = (   5.2954765   1.5212855  12.6445515  )
        13           Ti1 tau(  13) = (   0.0303381   3.0181167  12.7741416  )
        14           Ti1 tau(  14) = (   3.3376880   1.5190318  12.5019279  )
        15           O1  tau(  15) = (   6.5702980   0.0162101  14.7136675  )
        16           O1  tau(  16) = (   3.3118210   0.0215951  13.9605728  )
        17           O1  tau(  17) = (   4.5586303   1.5408398  16.0643691  )
        18           O1  tau(  18) = (   2.0376984   1.5397913  16.0346728  )
        19           Ti1 tau(  19) = (   3.2806018   3.0126274  15.6982083  )
        20           Ti1 tau(  20) = (   0.0204579   1.3876160  16.0921805  )
        21           O1  tau(  21) = (   3.2904802   0.0005063   4.7018136  )
        22           O1  tau(  22) = (   0.0362274   0.0182013  17.2505027  )
        23           O1  tau(  23) = (   1.3043587   1.4918075   6.0039043  )
        24           O1  tau(  24) = (   5.2767064   1.4903225   6.0039473  )
        25           Ti1 tau(  25) = (   0.0000382   5.9609847   6.0000000  )
        26           Ti1 tau(  26) = (   3.2902200   4.4714249   6.0002472  )
        27           O1  tau(  27) = (   0.0002396   2.9813036   7.9858123  )
        28           O1  tau(  28) = (   3.2902150   2.9813002   7.3038282  )
        29           O1  tau(  29) = (   4.5938453   4.4726049   9.2879030  )
        30           O1  tau(  30) = (   1.9864658   4.4711199   9.2879459  )
        31           Ti1 tau(  31) = (   3.2918133   0.0584897   9.1554610  )
        32           Ti1 tau(  32) = (   0.0176696   4.5429683   9.2683582  )
        33           O1  tau(  33) = (   3.2944385   3.0046939  11.3531965  )
        34           O1  tau(  34) = (   0.0071923   2.9964285  10.5824339  )
        35           O1  tau(  35) = (   1.2923070   4.5060354  12.6395470  )
        36           O1  tau(  36) = (   5.2930342   4.4972821  12.6335129  )
        37           Ti1 tau(  37) = (   0.0360028   0.0369787  12.5252624  )
        38           Ti1 tau(  38) = (   3.3378333   4.5109478  12.5016189  )
        39           O1  tau(  39) = (   0.0182598   3.0415135  14.6926035  )
        40           O1  tau(  40) = (   3.2973286   3.0139918  13.9115332  )
        41           O1  tau(  41) = (   4.5518717   4.4752506  16.0920674  )
        42           O1  tau(  42) = (   2.0385343   4.4722040  16.0556704  )
        43           Ti1 tau(  43) = (   3.3273276   0.0437280  15.7880462  )
        44           Ti1 tau(  44) = (   0.0148993   4.5306414  15.9319406  )
        45           O1  tau(  45) = (   3.2900926   2.9813045   4.7018136  )
        46           O1  tau(  46) = (   1.3039711   4.4726057   6.0039043  )
        47           O1  tau(  47) = (   5.2763189   4.4711207   6.0039473  )
        48           C1  tau(  48) = (   6.0619278   3.0088867  18.6555636  )
        49           O1  tau(  49) = (   6.5788924   2.9994598  17.3400993  )
        50           H1  tau(  50) = (   4.9713474   2.8828304  18.6515055  )
        51           H1  tau(  51) = (   6.4909130   2.1836263  19.2313859  )
        52           H1  tau(  52) = (   6.3070107   3.9563896  19.1453893  )
        53           N1  tau(  53) = (   5.9950546   3.0301018  22.7159517  )
        54           N1  tau(  54) = (   5.2276613   3.1827328  21.9368001  )
        55           O1  tau(  55) = (   3.1818816   0.0591848  18.2205797  )
        56           H1  tau(  56) = (   3.8437189   5.3938241  18.5418935  )
        57           H1  tau(  57) = (   2.3086839   5.6188137  18.3735615  )

     number of k points=    10  Fermi-Dirac smearing, width (Ry)=  0.0073
                       cart. coord. in units 2pi/alat
        k(    1) = (   0.0000000   0.0000000   0.0000000), wk =   0.1250000
        k(    2) = (   0.0000000   0.0419351   0.0000000), wk =   0.2500000
        k(    3) = (   0.0000000  -0.0838702   0.0000000), wk =   0.1250000
        k(    4) = (   0.0379955   0.0000049   0.0000000), wk =   0.2500000
        k(    5) = (   0.0379955   0.0419400   0.0000000), wk =   0.2500000
        k(    6) = (   0.0379955  -0.0838652   0.0000000), wk =   0.2500000
        k(    7) = (   0.0379955  -0.0419301   0.0000000), wk =   0.2500000
        k(    8) = (  -0.0759910  -0.0000099   0.0000000), wk =   0.1250000
        k(    9) = (  -0.0759910   0.0419252   0.0000000), wk =   0.2500000
        k(   10) = (  -0.0759910  -0.0838800   0.0000000), wk =   0.1250000

     Initial potential from superposition of free atoms

     starting charge  392.99914, renormalised to  409.00000

     negative rho (up, down):  9.748E-03 0.000E+00

     %%%%%%%%%%%%%%%%%%%%%%%%%%%%%%%%%%%%%%%%%%%%%%%%%%%%%%%%%%%%%%%%%%%%%%%%
     %                                                                      %
     % You are using vdW-DF, which was implemented by the Thonhauser group. %
     % Please cite the following two papers that made this development      %
     % possible and the two reviews that describe the various versions:     %
     %                                                                      %
     %   T. Thonhauser et al., PRL 115, 136402 (2015).                      %
     %   T. Thonhauser et al., PRB 76, 125112 (2007).                       %
     %   K. Berland et al., Rep. Prog. Phys. 78, 066501 (2015).             %
     %   D.C. Langreth et al., J. Phys.: Condens. Matter 21, 084203 (2009). %
     %                                                                      %
     %                                                                      %
     % If you are calculating the stress with vdW-DF, please also cite:     %
     %                                                                      %
     %   R. Sabatini et al., J. Phys.: Condens. Matter 24, 424209 (2012).   %
     %                                                                      %
     %%%%%%%%%%%%%%%%%%%%%%%%%%%%%%%%%%%%%%%%%%%%%%%%%%%%%%%%%%%%%%%%%%%%%%%%

     Adding external electric field

     Computed dipole along edir(3) :
        Dipole              -18.5707 Ry au,        -47.2021 Debye
        Dipole field         -0.0350 Ry au,

        Potential amp.        3.2487 Ry
        Total length         46.3494 bohr

     Starting wfcs are  309 atomic wfcs
  @ DRIVER MODE: Message from server: STATUS
  @ DRIVER MODE: Message from server: POSDATA
  @ DRIVER MODE: Reading and sharing cell
  @ DRIVER MODE: Reading and sharing positions
  @ DRIVER MODE: Received positions

     Self-consistent Calculation

     iteration #  1     ecut=    29.40 Ry     beta= 0.05
     Davidson diagonalization with overlap
     c_bands:  3 eigenvalues not converged
     c_bands:  2 eigenvalues not converged
     c_bands:  2 eigenvalues not converged
     c_bands:  5 eigenvalues not converged
     c_bands:  5 eigenvalues not converged
     c_bands:  5 eigenvalues not converged
     c_bands:  1 eigenvalues not converged
     c_bands:  3 eigenvalues not converged
     ethr =  1.00E-05,  avg # of iterations = 28.5

[...]

     total energy              =   -2113.09964824 Ry
     estimated scf accuracy    <   10297.54083006 Ry

     iteration #  2     ecut=    29.40 Ry     beta= 0.05
     Davidson diagonalization with overlap
     ethr =  1.00E-02,  avg # of iterations = 30.7

[...]

     iteration # 77     ecut=    29.40 Ry     beta= 0.05
     Davidson diagonalization with overlap
     c_bands:  1 eigenvalues not converged
     c_bands:  1 eigenvalues not converged
     ethr =  1.44E-10,  avg # of iterations = 16.3

[...]

     total energy              =   -3006.52133534 Ry
     estimated scf accuracy    <       0.00000010 Ry

     iteration # 84     ecut=    29.40 Ry     beta= 0.05
     Davidson diagonalization with overlap
     ethr =  2.37E-11,  avg # of iterations = 10.2

     negative rho (up, down):  1.093E-02 0.000E+00

     Adding external electric field

     Computed dipole along edir(3) :
        Dipole                0.9929 Ry au,          2.5236 Debye
        Dipole field          0.0019 Ry au,

        Potential amp.       -0.1737 Ry
        Total length         46.3494 bohr

     End of self-consistent calculation

          k = 0.0000 0.0000 0.0000 ( 18029 PWs)   bands (ev):

   -55.2884 -55.2537 -55.2525 -55.2174 -55.1946 -55.1793 -55.1717 -55.1361
   -55.0853 -55.0672 -55.0512 -55.0440 -55.0101 -54.9560 -54.2955 -54.2614
   -31.8108 -31.7576 -31.6804 -31.6487 -31.6271 -31.5803 -31.5630 -31.5593
   -31.5233 -31.5181 -31.4813 -31.4676 -31.4612 -31.4521 -31.4481 -31.4351
   -31.4289 -31.3929 -31.3876 -31.3799 -31.3757 -31.3569 -31.3530 -31.3440
   -31.3363 -31.3301 -31.3144 -31.2929 -31.2825 -31.2767 -31.2736 -31.2660
   -31.2634 -31.2474 -31.2347 -31.2246 -31.2232 -31.1885 -31.1734 -31.1531
   -31.1407 -31.1394 -30.7047 -30.6090 -30.5866 -30.5214 -30.4353 -30.3242
   -21.4184 -18.7516 -17.1994 -16.0032 -15.7328 -15.5726 -15.4415 -15.4062
   -15.2192 -15.0976 -14.9647 -14.9407 -14.8870 -14.8597 -14.8252 -14.8146
   -14.8098 -14.7975 -14.7896 -14.7426 -14.7080 -14.6907 -14.6902 -14.6668
   -14.6182 -14.5646 -14.4998 -14.4345 -14.4060 -14.3641 -14.2949 -14.2870
   -12.7960 -12.6781  -9.1227  -6.5954  -6.5515  -4.5567  -4.5457  -3.9173
    -3.7662  -3.4715  -3.3664  -3.2798  -3.2146  -3.1924  -3.1711  -3.0949
    -2.9794  -2.8487  -2.7509  -2.5138  -2.4587  -2.4159  -2.3841  -2.3551
    -2.1987  -2.1736  -2.1051  -2.0940  -2.0852  -2.0744  -2.0473  -2.0182
    -1.9925  -1.9608  -1.9018  -1.8774  -1.8072  -1.6763  -1.6680  -1.6356
    -1.5894  -1.5732  -1.5714  -1.5448  -1.5006  -1.4819  -1.4571  -1.4518
    -1.3550  -1.2641  -1.2209  -1.1253  -1.0462  -0.9731  -0.8507  -0.8120
    -0.7384  -0.7052  -0.6892  -0.6354  -0.5860  -0.5753  -0.5172  -0.4704
    -0.3628  -0.3192  -0.2783  -0.2406  -0.1900  -0.1457  -0.0746  -0.0417
    -0.0092  -0.0046   0.0161   0.2147   0.2261   0.2773   0.2899   0.3871
     0.4396   0.4740   0.4875   0.4967   0.5346   0.6102   0.6658   0.6743
     0.7060   0.7420   0.7613   0.8079   0.8488   0.9007   0.9302   0.9651
     1.0316   1.0722   1.2259   1.3212   1.3645   1.4806   1.6375   1.7288
     1.8025   1.9028   2.3155   2.3729   3.8931   3.9273   3.9539   3.9723
     4.0402   4.1393   4.2560   4.3468   4.3565   4.3869

[...]

          k = 0.0380-0.0419 0.0000 ( 17876 PWs)   bands (ev):

[...]

          k =-0.0760-0.0000 0.0000 ( 17886 PWs)   bands (ev):

[...]

          k =-0.0760-0.0839 0.0000 ( 17948 PWs)   bands (ev):

   -55.2762 -55.2645 -55.2378 -55.2331 -55.1915 -55.1771 -55.1609 -55.1469
   -55.0880 -55.0642 -55.0534 -55.0293 -55.0249 -54.9586 -54.2789 -54.2778
   -31.6226 -31.6061 -31.5804 -31.5783 -31.5684 -31.5670 -31.5497 -31.5166
   -31.5096 -31.4927 -31.4893 -31.4791 -31.4438 -31.4335 -31.4130 -31.4089
   -31.4040 -31.4020 -31.4002 -31.3944 -31.3914 -31.3880 -31.3764 -31.3680
   -31.3618 -31.3534 -31.3526 -31.3508 -31.3456 -31.3196 -31.2939 -31.2810
   -31.2785 -31.2767 -31.2744 -31.2657 -31.2563 -31.2446 -31.2349 -31.2257
   -31.1839 -31.1502 -30.5999 -30.5986 -30.5182 -30.5172 -30.4788 -30.4779
   -21.4183 -18.7506 -17.1690 -15.4714 -15.3621 -15.2331 -15.1686 -15.1458
   -15.1193 -15.0663 -15.0498 -14.9946 -14.9902 -14.9399 -14.9335 -14.8906
   -14.8835 -14.8296 -14.8013 -14.7924 -14.7633 -14.7307 -14.7147 -14.7136
   -14.6737 -14.6521 -14.6436 -14.6132 -14.6059 -14.5438 -14.5063 -14.4734
   -12.7804 -12.7785  -9.1246  -6.5961  -6.5449  -4.5571  -4.5529  -3.8268
    -3.7250  -3.4975  -3.2661  -2.9969  -2.7568  -2.5737  -2.4827  -2.4138
    -2.3606  -2.3427  -2.2331  -2.2086  -2.1787  -2.1440  -2.1218  -2.1110
    -2.0934  -2.0843  -2.0772  -2.0594  -2.0258  -2.0058  -1.9803  -1.9554
    -1.9402  -1.9169  -1.8993  -1.8917  -1.8671  -1.8393  -1.8327  -1.8297
    -1.7667  -1.7267  -1.5686  -1.5240  -1.5035  -1.4125  -1.3930  -1.3764
    -1.3511  -1.3370  -1.3203  -1.2012  -1.1505  -1.1237  -1.0139  -0.9959
    -0.9700  -0.8315  -0.8075  -0.7753  -0.7469  -0.7051  -0.6353  -0.6120
    -0.5564  -0.5434  -0.4420  -0.4050  -0.3802  -0.3667  -0.2704  -0.2487
    -0.2434  -0.2172  -0.1542  -0.1223  -0.0772  -0.0476  -0.0166   0.0078
     0.0538   0.0737   0.1675   0.1879   0.2242   0.2671   0.3610   0.5282
     0.6207   0.7308   0.7567   0.8036   0.8640   0.9060   0.9573   1.0101
     1.0579   1.0646   1.1273   1.1642   1.2490   1.2629   1.2662   1.3347
     2.0901   2.0904   2.1782   2.1873   4.1347   4.1430   4.2000   4.2196
     4.3588   4.3650   4.3784   4.3862   4.4809   4.5385

     the Fermi energy is     3.8631 ev

!    total energy              =   -3006.52134004 Ry
     estimated scf accuracy    <       0.00000005 Ry
     smearing contrib. (-TS)   =      -0.02294631 Ry
     internal energy E=F+TS    =   -3006.49839373 Ry

     The total energy is F=E-TS. E is the sum of the following terms:
     one-electron contribution =  -22563.58756605 Ry
     hartree contribution      =   11381.11526621 Ry
     xc contribution           =    -501.14917509 Ry
     ewald contribution        =    8677.12122087 Ry
     electric field correction =       0.00186034 Ry

     convergence has been achieved in  84 iterations

     Forces acting on atoms (cartesian axes, Ry/au):

     atom    1 type  1   force =    -0.00014474   -0.00167796    0.10539749
     atom    2 type  1   force =    -0.00021971    0.00113749   -0.17917678
     atom    3 type  2   force =     0.00020582   -0.00553299   -0.03235458
     atom    4 type  2   force =     0.00010332    0.00072030    0.04629508
     atom    5 type  2   force =    -0.01803080    0.00052681    0.00424203
     atom    6 type  2   force =     0.01842889   -0.00044512    0.00411064
     atom    7 type  1   force =     0.00007696    0.00019710    0.00005757
     atom    8 type  1   force =     0.00006997    0.00030529   -0.00013522
     atom    9 type  2   force =     0.00017441    0.00034998   -0.00008304
     atom   10 type  2   force =     0.00016986   -0.00000445    0.00004529
     atom   11 type  2   force =     0.00004879   -0.00034372   -0.00037220
     atom   12 type  2   force =    -0.00005908   -0.00051773   -0.00051251
     atom   13 type  1   force =     0.00048392    0.00023945    0.00007357
     atom   14 type  1   force =    -0.00026707   -0.00048612   -0.00043631
     atom   15 type  2   force =     0.00003674   -0.00055422    0.00031211
     atom   16 type  2   force =    -0.00008573    0.00029918   -0.00024936
     atom   17 type  2   force =    -0.00042226   -0.00063354    0.00006633
     atom   18 type  2   force =     0.00003712   -0.00044177    0.00012800
     atom   19 type  1   force =     0.00034344   -0.00039934   -0.00012635
     atom   20 type  1   force =    -0.00005242   -0.00070512   -0.00080776
     atom   21 type  2   force =    -0.00003441    0.00010188    0.10394561
     atom   22 type  2   force =    -0.00004292   -0.00055278    0.00050566
     atom   23 type  2   force =    -0.06944846    0.00051886   -0.02947472
     atom   24 type  2   force =     0.06920166    0.00097671   -0.02952897
     atom   25 type  1   force =    -0.00003284    0.00156760    0.11480932
     atom   26 type  1   force =    -0.00022127   -0.00047961   -0.17917830
     atom   27 type  2   force =     0.00021311    0.00414490   -0.02605609
     atom   28 type  2   force =     0.00042803    0.00092943    0.04807684
     atom   29 type  2   force =    -0.01630677    0.00162543    0.00385287
     atom   30 type  2   force =     0.01735963    0.00217622    0.00362249
     atom   31 type  1   force =    -0.00014297    0.00010571   -0.00022414
     atom   32 type  1   force =     0.00010761   -0.00008845    0.00024879
     atom   33 type  2   force =     0.00028895   -0.00050985    0.00018541
     atom   34 type  2   force =    -0.00004133   -0.00030774   -0.00025202
     atom   35 type  2   force =    -0.00045798   -0.00013581    0.00001962
     atom   36 type  2   force =     0.00054077    0.00001797    0.00001200
     atom   37 type  1   force =     0.00046918   -0.00072853   -0.00004176
     atom   38 type  1   force =    -0.00037399   -0.00001680   -0.00037108
     atom   39 type  2   force =    -0.00043130   -0.00048927   -0.00048759
     atom   40 type  2   force =     0.00036305   -0.00040469   -0.00024663
     atom   41 type  2   force =    -0.00021125    0.00003234    0.00020007
     atom   42 type  2   force =    -0.00029635   -0.00022749    0.00005627
     atom   43 type  1   force =     0.00006994    0.00031695    0.00128173
     atom   44 type  1   force =     0.00010631   -0.00037212   -0.00075150
     atom   45 type  2   force =    -0.00003710    0.00007704    0.10399141
     atom   46 type  2   force =    -0.06905625   -0.00107024   -0.02952843
     atom   47 type  2   force =     0.06886941   -0.00062652   -0.02960692
     atom   48 type  3   force =    -0.00024498    0.00002279    0.00039452
     atom   49 type  2   force =     0.00001399    0.00025705   -0.00096527
     atom   50 type  4   force =    -0.00041563   -0.00005720    0.00003847
     atom   51 type  4   force =     0.00028063   -0.00026697    0.00014007
     atom   52 type  4   force =    -0.00005910    0.00034822   -0.00043547
     atom   53 type  5   force =    -0.00108927   -0.00017464   -0.00112637
     atom   54 type  5   force =     0.00053145    0.00036651    0.00081949
     atom   55 type  2   force =    -0.00367493    0.00433079   -0.00221190
     atom   56 type  4   force =     0.00268606   -0.00426505    0.00198268
     atom   57 type  4   force =     0.00019187    0.00082383   -0.00017016

     Total force =     0.374643     Total SCF correction =     0.000558
  @ DRIVER MODE: Message from server: STATUS
  @ DRIVER MODE: Message from server: GETFORCE
  @ DRIVER MODE: Returning v,forces,stress,ensemble

     Writing output data file ./calc.save/
  @ DRIVER MODE: Message from server: EXIT
  @ DRIVE MODE: Exiting

     General routines

     Parallel routines

   This run was terminated on:  17:46:56  26Sep2021

   JOB DONE.