     Program PWSCF v.6.7GPU starts on 22Sep2021 at 11:17: 5

     R & G space division:  proc/nbgrp/npool/nimage =      10
     Reading input from /storage/home/hcoda1/3/ntian30/research/carbon/CxH_vib/CH_calc/ads_slab/CHNHNH2H2O_b/out_0037/pw.inp
Warning: card &CELL ignored
Warning: card   CELL_DYNAMICS='IPI', ignored
Warning: card / ignored

     Current dimensions of program PWSCF are:
     Max number of different atomic species (ntypx) = 10
     Max number of k-points (npk) =  40000
     Max angular momentum in pseudopotentials (lmaxx) =  3
     Presently no symmetry can be used with electric field

     Message from routine cell_base_init:
     DEPRECATED: use true lattice parameter, not A to a.u. conversion factor

     IMPORTANT: XC functional enforced from input :
     Exchange-correlation= BEEF-VDW
                           (   1   4  43  14   2   0   0)
     Any further DFT definition will be discarded
     Please, verify this is what you really want

  @ DRIVER MODE: Connecting to
 qe_1139763_2927425.sched-torque.pace.gatech.edurqxr15zx_scratch
  using UNIX socket
  @ DRIVER MODE: Message from server: STATUS
  @ DRIVER MODE: Message from server: INIT
  @ DRIVER MODE: Receiving replica           0          -1
  @ DRIVER MODE: Receiving encoded integer          25
  @ DRIVER MODE:  SCF:  T  FORCE:  T  STRESS:  F  VC:  F  ENSEMBLE:  F
  @ DRIVER MODE:  SCF:  T  FORCE:  T  STRESS:  F  VC:  F  ENSEMBLE:  F

     Using Slab Decomposition

     bravais-lattice index     =            0
     lattice parameter (alat)  =       1.8897  a.u.
     unit-cell volume          =    6658.9804 (a.u.)^3
     number of atoms/cell      =           57
     number of atomic types    =            5
     number of electrons       =       404.00
     number of Kohn-Sham states=          212
     kinetic-energy cutoff     =      29.3995  Ry
     charge density cutoff     =     293.9946  Ry
     scf convergence threshold =      7.3E-08
     mixing beta               =       0.0500
     number of iterations used =            8  plain     mixing
     Exchange-correlation= BEEF-VDW
                           (   1   4  43  14   2   0   0)

     celldm(1)=   1.889726  celldm(2)=   0.000000  celldm(3)=   0.000000
     celldm(4)=   0.000000  celldm(5)=   0.000000  celldm(6)=   0.000000

     crystal axes: (cart. coord. in units of alat)
               a(1) = (   6.579727   0.000000   0.000000 )
               a(2) = (  -0.000775   5.961596   0.000000 )
               a(3) = (   0.000000   0.000000  25.155947 )

     reciprocal axes: (cart. coord. in units 2 pi/alat)
               b(1) = (  0.151982  0.000020  0.000000 )
               b(2) = (  0.000000  0.167740  0.000000 )
               b(3) = (  0.000000  0.000000  0.039752 )

     PseudoPot. # 1 for Ti read from file:
     /storage/coda1/p-amedford6/0/shared/rich_project_chbe-medford/medford-share/data/pseudos_module/espresso/nninc/pbe/van/Ti.UPF
     MD5 check sum: 8e4df49b7f0d34bbd5052bf3f5ea0213
     Pseudo is Ultrasoft, Zval = 12.0
     Generated by new atomic code, or converted to UPF format
     Using radial grid of  851 points,  6 beta functions with:
                l(1) =   0
                l(2) =   0
                l(3) =   1
                l(4) =   1
                l(5) =   2
                l(6) =   2
     Q(r) pseudized with  8 coefficients,  rinner =    1.000   1.000   1.000
                                                       1.000   1.000

     PseudoPot. # 2 for O  read from file:
     /storage/coda1/p-amedford6/0/shared/rich_project_chbe-medford/medford-share/data/pseudos_module/espresso/nninc/pbe/van/O.UPF
     MD5 check sum: 78c19812648e8988a0fe644b0f25305e
     Pseudo is Ultrasoft, Zval =  6.0
     Generated by new atomic code, or converted to UPF format
     Using radial grid of  737 points,  4 beta functions with:
                l(1) =   0
                l(2) =   0
                l(3) =   1
                l(4) =   1
     Q(r) pseudized with  8 coefficients,  rinner =    0.800   0.800   0.800

     PseudoPot. # 3 for N  read from file:
     /storage/coda1/p-amedford6/0/shared/rich_project_chbe-medford/medford-share/data/pseudos_module/espresso/nninc/pbe/van/N.UPF
     MD5 check sum: 90d10febe142ad51ac9d5be1deb811c4
     Pseudo is Ultrasoft, Zval =  5.0
     Generated by new atomic code, or converted to UPF format
     Using radial grid of  729 points,  4 beta functions with:
                l(1) =   0
                l(2) =   0
                l(3) =   1
                l(4) =   1
     Q(r) pseudized with  8 coefficients,  rinner =    0.800   0.800   0.800

     PseudoPot. # 4 for C  read from file:
     /storage/coda1/p-amedford6/0/shared/rich_project_chbe-medford/medford-share/data/pseudos_module/espresso/nninc/pbe/van/C.UPF
     MD5 check sum: 1a69bf6b8db32088f5b2163dbdb77a27
     Pseudo is Ultrasoft, Zval =  4.0
     Generated by new atomic code, or converted to UPF format
     Using radial grid of  721 points,  4 beta functions with:
                l(1) =   0
                l(2) =   0
                l(3) =   1
                l(4) =   1
     Q(r) pseudized with  8 coefficients,  rinner =    0.800   0.800   0.800

     PseudoPot. # 5 for H  read from file:
     /storage/coda1/p-amedford6/0/shared/rich_project_chbe-medford/medford-share/data/pseudos_module/espresso/nninc/pbe/van/H.UPF
     MD5 check sum: b5ee9d7bfd3a09ee7748110bda690ff7
     Pseudo is Ultrasoft, Zval =  1.0
     Generated by new atomic code, or converted to UPF format
     Using radial grid of  615 points,  1 beta functions with:
                l(1) =   0
     Q(r) pseudized with  8 coefficients,  rinner =    0.800

     atomic species   valence    mass     pseudopotential
        Ti1           12.00    47.86700     Ti( 1.00)
        O1             6.00    15.99900     O ( 1.00)
        N1             5.00    14.00700     N ( 1.00)
        C1             4.00    12.01100     C ( 1.00)
        H1             1.00     1.00800     H ( 1.00)

     No symmetry found

   Cartesian axes

     site n.     atom                  positions (alat units)
         1           Ti1 tau(   1) = (   0.0004258   2.9801865   6.0000000  )
         2           Ti1 tau(   2) = (   3.2906075   1.4906267   6.0002472  )
         3           O1  tau(   3) = (   0.0006271   0.0005054   7.9858123  )
         4           O1  tau(   4) = (   3.2906025   0.0005020   7.3038282  )
         5           O1  tau(   5) = (   4.5942328   1.4918067   9.2879030  )
         6           O1  tau(   6) = (   1.9868534   1.4903216   9.2879459  )
         7           Ti1 tau(   7) = (   3.2907910   2.8959150   9.1758416  )
         8           Ti1 tau(   8) = (   0.0015273   1.4827037   9.2680791  )
         9           O1  tau(   9) = (   3.3066417   5.9496923  11.3845403  )
        10           O1  tau(  10) = (   0.0116148   5.9584955  10.6183126  )
        11           O1  tau(  11) = (   1.3010148   1.4986442  12.6442229  )
        12           O1  tau(  12) = (   5.3085967   1.5001388  12.6592367  )
        13           Ti1 tau(  13) = (   0.0282779   2.9853959  12.5065338  )
        14           Ti1 tau(  14) = (   3.3279724   1.4707331  12.5413945  )
        15           O1  tau(  15) = (   0.0378505   0.0859181  14.6860672  )
        16           O1  tau(  16) = (   3.3018867   0.0259462  14.0338077  )
        17           O1  tau(  17) = (   4.5998927   1.5484098  16.1661054  )
        18           O1  tau(  18) = (   2.0454451   1.5021798  16.2221046  )
        19           Ti1 tau(  19) = (   3.3206312   2.9825829  15.7321521  )
        20           Ti1 tau(  20) = (   0.0140791   1.4435866  15.9983415  )
        21           O1  tau(  21) = (   3.2904802   0.0005063   4.7018136  )
        22           O1  tau(  22) = (   6.5273045   5.8164216  17.2577718  )
        23           O1  tau(  23) = (   1.3043587   1.4918075   6.0039043  )
        24           O1  tau(  24) = (   5.2767064   1.4903225   6.0039473  )
        25           Ti1 tau(  25) = (   0.0000382   5.9609847   6.0000000  )
        26           Ti1 tau(  26) = (   3.2902200   4.4714249   6.0002472  )
        27           O1  tau(  27) = (   0.0002396   2.9813036   7.9858123  )
        28           O1  tau(  28) = (   3.2902150   2.9813002   7.3038282  )
        29           O1  tau(  29) = (   4.5938453   4.4726049   9.2879030  )
        30           O1  tau(  30) = (   1.9864658   4.4711199   9.2879459  )
        31           Ti1 tau(  31) = (   3.2891106   5.8743827   9.1763621  )
        32           Ti1 tau(  32) = (   0.0006254   4.4649316   9.2693709  )
        33           O1  tau(  33) = (   3.3068470   2.9864458  11.3814114  )
        34           O1  tau(  34) = (   0.0092240   2.9805883  10.6323155  )
        35           O1  tau(  35) = (   1.2982948   4.4740332  12.6840172  )
        36           O1  tau(  36) = (   5.3097620   4.4704985  12.6972095  )
        37           Ti1 tau(  37) = (   0.0348817   0.0130325  12.4954113  )
        38           Ti1 tau(  38) = (   3.3270268   4.4633798  12.5435021  )
        39           O1  tau(  39) = (   0.0563025   2.9439880  14.9425960  )
        40           O1  tau(  40) = (   3.2900316   2.9661073  13.9503945  )
        41           O1  tau(  41) = (   4.5967999   4.4093095  16.0633277  )
        42           O1  tau(  42) = (   2.0412097   4.4536800  16.1303113  )
        43           Ti1 tau(  43) = (   3.2964201   5.9600488  15.8742613  )
        44           Ti1 tau(  44) = (   0.0241369   4.6516137  15.8518307  )
        45           O1  tau(  45) = (   3.2900926   2.9813045   4.7018136  )
        46           O1  tau(  46) = (   1.3039711   4.4726057   6.0039043  )
        47           O1  tau(  47) = (   5.2763189   4.4711207   6.0039473  )
        48           N1  tau(  48) = (   1.4509408   2.7109095  18.7602185  )
        49           N1  tau(  49) = (   0.0917387   2.5303350  18.2207845  )
        50           C1  tau(  50) = (   1.9503960   3.7723240  19.2784661  )
        51           H1  tau(  51) = (   1.1612915   4.5273475  19.4152495  )
        52           H1  tau(  52) = (   2.0208952   1.9183395  18.4664618  )
        53           H1  tau(  53) = (   6.1377449   3.3539424  18.4987646  )
        54           H1  tau(  54) = (   6.2516785   1.7135167  18.6767212  )
        55           O1  tau(  55) = (   3.7012217   5.9496235  18.2853534  )
        56           H1  tau(  56) = (   4.6684668   5.8470116  18.1670174  )
        57           H1  tau(  57) = (   3.3852657   5.1278045  18.7338684  )

     number of k points=    10  Fermi-Dirac smearing, width (Ry)=  0.0073
                       cart. coord. in units 2pi/alat
        k(    1) = (   0.0000000   0.0000000   0.0000000), wk =   0.1250000
        k(    2) = (   0.0000000   0.0419351   0.0000000), wk =   0.2500000
        k(    3) = (   0.0000000  -0.0838702   0.0000000), wk =   0.1250000
        k(    4) = (   0.0379955   0.0000049   0.0000000), wk =   0.2500000
        k(    5) = (   0.0379955   0.0419400   0.0000000), wk =   0.2500000
        k(    6) = (   0.0379955  -0.0838652   0.0000000), wk =   0.2500000
        k(    7) = (   0.0379955  -0.0419301   0.0000000), wk =   0.2500000
        k(    8) = (  -0.0759910  -0.0000099   0.0000000), wk =   0.1250000
        k(    9) = (  -0.0759910   0.0419252   0.0000000), wk =   0.2500000
        k(   10) = (  -0.0759910  -0.0838800   0.0000000), wk =   0.1250000

     Initial potential from superposition of free atoms

     starting charge  387.99913, renormalised to  404.00000

     negative rho (up, down):  1.598E-02 0.000E+00

     %%%%%%%%%%%%%%%%%%%%%%%%%%%%%%%%%%%%%%%%%%%%%%%%%%%%%%%%%%%%%%%%%%%%%%%%
     %                                                                      %
     % You are using vdW-DF, which was implemented by the Thonhauser group. %
     % Please cite the following two papers that made this development      %
     % possible and the two reviews that describe the various versions:     %
     %                                                                      %
     %   T. Thonhauser et al., PRL 115, 136402 (2015).                      %
     %   T. Thonhauser et al., PRB 76, 125112 (2007).                       %
     %   K. Berland et al., Rep. Prog. Phys. 78, 066501 (2015).             %
     %   D.C. Langreth et al., J. Phys.: Condens. Matter 21, 084203 (2009). %
     %                                                                      %
     %                                                                      %
     % If you are calculating the stress with vdW-DF, please also cite:     %
     %                                                                      %
     %   R. Sabatini et al., J. Phys.: Condens. Matter 24, 424209 (2012).   %
     %                                                                      %
     %%%%%%%%%%%%%%%%%%%%%%%%%%%%%%%%%%%%%%%%%%%%%%%%%%%%%%%%%%%%%%%%%%%%%%%%

     Adding external electric field

     Computed dipole along edir(3) :
        Dipole              -14.3585 Ry au,        -36.4957 Debye
        Dipole field         -0.0271 Ry au,

        Potential amp.        2.5118 Ry
        Total length         46.3494 bohr

     Starting wfcs are  306 atomic wfcs
  @ DRIVER MODE: Message from server: STATUS
  @ DRIVER MODE: Message from server: POSDATA
  @ DRIVER MODE: Reading and sharing cell
  @ DRIVER MODE: Reading and sharing positions
  @ DRIVER MODE: Received positions

     Self-consistent Calculation

     iteration #  1     ecut=    29.40 Ry     beta= 0.05
     Davidson diagonalization with overlap
     c_bands:  3 eigenvalues not converged
     c_bands:  4 eigenvalues not converged
     c_bands:  4 eigenvalues not converged
     c_bands:  4 eigenvalues not converged
     c_bands:  5 eigenvalues not converged
     c_bands:  3 eigenvalues not converged
     c_bands:  2 eigenvalues not converged
     c_bands:  4 eigenvalues not converged
     ethr =  1.00E-05,  avg # of iterations = 21.9

[...]

     total energy              =   -2220.95164544 Ry
     estimated scf accuracy    <    8587.35406007 Ry

     iteration #  2     ecut=    29.40 Ry     beta= 0.05
     Davidson diagonalization with overlap
     ethr =  1.00E-02,  avg # of iterations = 28.9

[...]

     iteration # 75     ecut=    29.40 Ry     beta= 0.05
     Davidson diagonalization with overlap
     c_bands:  1 eigenvalues not converged
     ethr =  6.86E-11,  avg # of iterations = 14.5

[...]

     total energy              =   -2975.10524291 Ry
     estimated scf accuracy    <       0.00000011 Ry

     iteration # 77     ecut=    29.40 Ry     beta= 0.05
     Davidson diagonalization with overlap
     ethr =  2.72E-11,  avg # of iterations = 11.5

     negative rho (up, down):  1.579E-02 0.000E+00

     Adding external electric field

     Computed dipole along edir(3) :
        Dipole                1.0234 Ry au,          2.6013 Debye
        Dipole field          0.0019 Ry au,

        Potential amp.       -0.1790 Ry
        Total length         46.3494 bohr

     End of self-consistent calculation

          k = 0.0000 0.0000 0.0000 ( 18029 PWs)   bands (ev):

   -55.3844 -55.3486 -55.3446 -55.3105 -55.3073 -55.3016 -55.2665 -55.2312
   -55.2161 -55.1812 -55.1744 -55.1592 -55.1407 -55.1113 -54.3758 -54.3417
   -31.9434 -31.8793 -31.8373 -31.7561 -31.7072 -31.7046 -31.6804 -31.6774
   -31.6333 -31.5975 -31.5905 -31.5892 -31.5821 -31.5788 -31.5605 -31.5584
   -31.5338 -31.5257 -31.5228 -31.5115 -31.4972 -31.4907 -31.4719 -31.4668
   -31.4586 -31.4456 -31.4450 -31.4162 -31.4018 -31.3981 -31.3950 -31.3728
   -31.3690 -31.3649 -31.3613 -31.3401 -31.3291 -31.3170 -31.3021 -31.3021
   -31.2917 -31.2855 -30.7853 -30.6907 -30.6687 -30.6016 -30.5148 -30.4039
   -18.8736 -18.4573 -16.2193 -15.9719 -15.8358 -15.7314 -15.5940 -15.4959
   -15.3867 -15.2734 -15.2504 -15.1563 -15.0823 -15.0784 -15.0414 -15.0156
   -14.9528 -14.9315 -14.9077 -14.9018 -14.8872 -14.8770 -14.8405 -14.8296
   -14.7958 -14.7856 -14.7683 -14.6425 -14.6254 -14.5510 -14.4804 -14.3425
   -12.8782 -12.7607  -9.8356  -6.9972  -6.3781  -6.0650  -4.4276  -3.7299
    -3.5429  -3.4095  -3.3313  -3.3021  -3.2848  -3.1533  -3.0612  -2.9015
    -2.8625  -2.8062  -2.6729  -2.5970  -2.5906  -2.5028  -2.4301  -2.4069
    -2.3739  -2.2649  -2.2584  -2.2089  -2.1913  -2.1681  -2.1589  -2.1122
    -2.0660  -2.0390  -1.9540  -1.8525  -1.8088  -1.7890  -1.7526  -1.7299
    -1.7250  -1.6815  -1.6753  -1.6517  -1.6129  -1.5886  -1.5429  -1.4310
    -1.3901  -1.2310  -1.1936  -1.0391  -1.0188  -0.9796  -0.9592  -0.9223
    -0.8928  -0.8764  -0.8611  -0.7713  -0.7131  -0.6471  -0.5829  -0.4921
    -0.4815  -0.4077  -0.3818  -0.3166  -0.2294  -0.1844  -0.1748  -0.1501
    -0.1468  -0.0331   0.0118   0.0720   0.0907   0.1480   0.1639   0.1861
     0.2561   0.3097   0.3791   0.4099   0.4890   0.5072   0.5423   0.5515
     0.5838   0.5943   0.6706   0.6853   0.7135   0.8162   0.9137   1.0068
     1.2167   1.2193   1.2505   1.5518   1.5539   1.6472   1.8306   2.2235
     2.2719   3.7053   3.7837   3.8333   3.8509   3.8554   3.9403   4.1948
     4.2092   4.2218   4.2281   4.2690

[...]

          k = 0.0380-0.0419 0.0000 ( 17876 PWs)   bands (ev):

[...]

          k =-0.0760-0.0000 0.0000 ( 17886 PWs)   bands (ev):

[...]

          k =-0.0760-0.0839 0.0000 ( 17948 PWs)   bands (ev):

   -55.3675 -55.3652 -55.3275 -55.3274 -55.3044 -55.3007 -55.2527 -55.2449
   -55.2018 -55.1951 -55.1611 -55.1585 -55.1568 -55.1130 -54.3587 -54.3587
   -31.7940 -31.7558 -31.7417 -31.6524 -31.6523 -31.6379 -31.6259 -31.6186
   -31.6185 -31.5976 -31.5926 -31.5895 -31.5665 -31.5587 -31.5470 -31.5331
   -31.5299 -31.5273 -31.5233 -31.5152 -31.5105 -31.5085 -31.5075 -31.4996
   -31.4679 -31.4665 -31.4473 -31.4472 -31.4468 -31.4419 -31.4392 -31.4346
   -31.4252 -31.4139 -31.4081 -31.3914 -31.3896 -31.3794 -31.3384 -31.3374
   -31.3368 -31.3177 -30.6813 -30.6813 -30.5978 -30.5976 -30.5582 -30.5582
   -18.8676 -18.4598 -15.8387 -15.6522 -15.5008 -15.4290 -15.4087 -15.3255
   -15.2700 -15.2668 -15.1938 -15.1757 -15.1633 -15.1417 -15.1321 -15.0846
   -15.0476 -15.0109 -14.9922 -14.9695 -14.9264 -14.9037 -14.9020 -14.8953
   -14.8875 -14.8471 -14.8419 -14.8387 -14.7469 -14.7450 -14.7021 -14.5561
   -12.8623 -12.8622  -9.8449  -6.9864  -6.3531  -6.0405  -4.4412  -3.6572
    -3.0238  -2.9103  -2.8997  -2.6709  -2.6524  -2.5913  -2.5788  -2.4908
    -2.4751  -2.4146  -2.3910  -2.3410  -2.3179  -2.2801  -2.2663  -2.2445
    -2.2235  -2.2097  -2.1833  -2.1671  -2.1503  -2.1306  -2.1194  -2.1081
    -2.0529  -2.0471  -2.0383  -2.0130  -1.9899  -1.9538  -1.9438  -1.9277
    -1.7721  -1.7565  -1.7351  -1.5995  -1.5952  -1.5612  -1.5210  -1.4935
    -1.4357  -1.4269  -1.3988  -1.3402  -1.1462  -1.1358  -1.1236  -1.1055
    -1.0344  -0.9793  -0.9653  -0.9473  -0.8937  -0.8156  -0.7819  -0.7293
    -0.6404  -0.5882  -0.5788  -0.5529  -0.4316  -0.4089  -0.3663  -0.3481
    -0.3320  -0.2975  -0.2960  -0.2387  -0.1860  -0.1503  -0.1274  -0.1131
    -0.0762   0.0784   0.1307   0.1469   0.2615   0.2905   0.4685   0.5114
     0.5331   0.6381   0.7216   0.7494   0.7640   0.8895   0.9116   0.9140
     0.9823   1.0045   1.0646   1.0704   1.2070   2.0033   2.0046   2.0917
     2.0919   3.8305   3.9533   3.9975   4.0333   4.1094   4.1621   4.2191
     4.2782   4.2898   4.2934   4.3598

     the Fermi energy is     3.7674 ev

!    total energy              =   -2975.10526614 Ry
     estimated scf accuracy    <       0.00000005 Ry
     smearing contrib. (-TS)   =      -0.03671932 Ry
     internal energy E=F+TS    =   -2975.06854682 Ry

     The total energy is F=E-TS. E is the sum of the following terms:
     one-electron contribution =  -23505.40439846 Ry
     hartree contribution      =   11848.73102212 Ry
     xc contribution           =    -494.91474370 Ry
     ewald contribution        =    9176.51759657 Ry
     electric field correction =       0.00197665 Ry

     convergence has been achieved in  77 iterations

     Forces acting on atoms (cartesian axes, Ry/au):

     atom    1 type  1   force =     0.00002943   -0.00024966    0.09312620
     atom    2 type  1   force =    -0.00018791   -0.00032320   -0.17836468
     atom    3 type  2   force =     0.00006065   -0.00017616   -0.02026298
     atom    4 type  2   force =     0.00001729   -0.00203793    0.05924237
     atom    5 type  2   force =    -0.01034328   -0.00110251    0.00808193
     atom    6 type  2   force =     0.01218678   -0.00054727    0.00816157
     atom    7 type  1   force =     0.00015033    0.00329174   -0.01112662
     atom    8 type  1   force =    -0.00030130    0.00051950   -0.00563048
     atom    9 type  2   force =     0.00004242    0.00017622   -0.00015076
     atom   10 type  2   force =    -0.00146317   -0.00004139   -0.00172362
     atom   11 type  2   force =     0.00038579   -0.00003348   -0.00005948
     atom   12 type  2   force =    -0.00010508    0.00010712   -0.00008887
     atom   13 type  1   force =    -0.00009815   -0.00017115   -0.00023403
     atom   14 type  1   force =    -0.00021482   -0.00036503    0.00035058
     atom   15 type  2   force =     0.00006824   -0.00047299    0.00006369
     atom   16 type  2   force =     0.00021923    0.00009168    0.00026149
     atom   17 type  2   force =     0.00036940   -0.00017012    0.00022014
     atom   18 type  2   force =    -0.00004918   -0.00013415   -0.00012971
     atom   19 type  1   force =    -0.00031334   -0.00043783   -0.00004039
     atom   20 type  1   force =     0.00019646    0.00027450    0.00060393
     atom   21 type  2   force =    -0.00000436   -0.00007531    0.10404718
     atom   22 type  2   force =    -0.00014283   -0.00005928   -0.00016037
     atom   23 type  2   force =    -0.07034516   -0.00016079   -0.02684054
     atom   24 type  2   force =     0.07021378    0.00028556   -0.02691789
     atom   25 type  1   force =     0.00002087   -0.00015510    0.09278835
     atom   26 type  1   force =    -0.00015863   -0.00039920   -0.17831151
     atom   27 type  2   force =     0.00011161   -0.00030406   -0.01920156
     atom   28 type  2   force =     0.00004701   -0.00163502    0.05839106
     atom   29 type  2   force =    -0.01029166   -0.00064176    0.00728694
     atom   30 type  2   force =     0.01202795   -0.00030925    0.00742320
     atom   31 type  1   force =     0.00007636    0.00515338   -0.01466599
     atom   32 type  1   force =    -0.00013909   -0.00050694   -0.00597236
     atom   33 type  2   force =     0.00012923   -0.00039317   -0.00023752
     atom   34 type  2   force =    -0.00078629    0.00261119   -0.00105236
     atom   35 type  2   force =    -0.00006339   -0.00011826   -0.00012264
     atom   36 type  2   force =     0.00022841   -0.00000067   -0.00014944
     atom   37 type  1   force =    -0.00044403    0.00007855    0.00003893
     atom   38 type  1   force =    -0.00003039   -0.00023950   -0.00023578
     atom   39 type  2   force =    -0.00030609   -0.00021725   -0.00019319
     atom   40 type  2   force =    -0.00013555   -0.00006134   -0.00003871
     atom   41 type  2   force =    -0.00015357   -0.00014923    0.00037594
     atom   42 type  2   force =    -0.00005984   -0.00025448    0.00014306
     atom   43 type  1   force =    -0.00001877   -0.00031815    0.00005230
     atom   44 type  1   force =     0.00001178   -0.00002291    0.00023870
     atom   45 type  2   force =     0.00001035   -0.00011074    0.10402049
     atom   46 type  2   force =    -0.07036643   -0.00011877   -0.02686238
     atom   47 type  2   force =     0.07021324    0.00031527   -0.02692157
     atom   48 type  3   force =    -0.00049161   -0.00021764    0.00081758
     atom   49 type  3   force =    -0.00474868   -0.00451318    0.00236228
     atom   50 type  4   force =     0.00022609    0.00122670    0.00048441
     atom   51 type  5   force =     0.00000067   -0.00065453   -0.00033800
     atom   52 type  5   force =    -0.00011189   -0.00102881   -0.00024406
     atom   53 type  5   force =     0.00031484    0.00072442   -0.00035211
     atom   54 type  5   force =     0.00458268    0.00472880   -0.00223152
     atom   55 type  2   force =     0.00012823   -0.00008509    0.00061366
     atom   56 type  5   force =     0.00024551   -0.00044044   -0.00045738
     atom   57 type  5   force =    -0.00044008   -0.00013089    0.00012253

     Total force =     0.366343     Total SCF correction =     0.000906
  @ DRIVER MODE: Message from server: STATUS
  @ DRIVER MODE: Message from server: GETFORCE
  @ DRIVER MODE: Returning v,forces,stress,ensemble

     Writing output data file ./calc.save/
  @ DRIVER MODE: Message from server: EXIT
  @ DRIVE MODE: Exiting

     General routines

     Parallel routines

   This run was terminated on:  11:38:30  22Sep2021

   JOB DONE.