     Program PWSCF v.6.7GPU starts on 15Sep2021 at  0:28:40

     R & G space division:  proc/nbgrp/npool/nimage =      10
     Reading input from /storage/home/hcoda1/3/ntian30/research/carbon/CxH_vib/CH2_calc/ads_slab/CH2ON2_b/out_0032/pw.inp
Warning: card &CELL ignored
Warning: card   CELL_DYNAMICS='IPI', ignored
Warning: card / ignored

     Current dimensions of program PWSCF are:
     Max number of different atomic species (ntypx) = 10
     Max number of k-points (npk) =  40000
     Max angular momentum in pseudopotentials (lmaxx) =  3
     Presently no symmetry can be used with electric field

     Message from routine cell_base_init:
     DEPRECATED: use true lattice parameter, not A to a.u. conversion factor

     IMPORTANT: XC functional enforced from input :
     Exchange-correlation= BEEF-VDW
                           (   1   4  43  14   2   0   0)
     Any further DFT definition will be discarded
     Please, verify this is what you really want

  @ DRIVER MODE: Connecting to
 qe_1139763_2840441.sched-torque.pace.gatech.edu1kvrwam__scratch
  using UNIX socket
  @ DRIVER MODE: Message from server: STATUS
  @ DRIVER MODE: Message from server: INIT
  @ DRIVER MODE: Receiving replica           0          -1
  @ DRIVER MODE: Receiving encoded integer          25
  @ DRIVER MODE:  SCF:  T  FORCE:  T  STRESS:  F  VC:  F  ENSEMBLE:  F
  @ DRIVER MODE:  SCF:  T  FORCE:  T  STRESS:  F  VC:  F  ENSEMBLE:  F

     Using Slab Decomposition

     bravais-lattice index     =            0
     lattice parameter (alat)  =       1.8897  a.u.
     unit-cell volume          =    6658.9804 (a.u.)^3
     number of atoms/cell      =           53
     number of atomic types    =            5
     number of electrons       =       400.00
     number of Kohn-Sham states=          210
     kinetic-energy cutoff     =      29.3995  Ry
     charge density cutoff     =     293.9946  Ry
     scf convergence threshold =      7.3E-08
     mixing beta               =       0.0500
     number of iterations used =            8  plain     mixing
     Exchange-correlation= BEEF-VDW
                           (   1   4  43  14   2   0   0)

     celldm(1)=   1.889726  celldm(2)=   0.000000  celldm(3)=   0.000000
     celldm(4)=   0.000000  celldm(5)=   0.000000  celldm(6)=   0.000000

     crystal axes: (cart. coord. in units of alat)
               a(1) = (   6.579727   0.000000   0.000000 )
               a(2) = (  -0.000775   5.961596   0.000000 )
               a(3) = (   0.000000   0.000000  25.155947 )

     reciprocal axes: (cart. coord. in units 2 pi/alat)
               b(1) = (  0.151982  0.000020  0.000000 )
               b(2) = (  0.000000  0.167740  0.000000 )
               b(3) = (  0.000000  0.000000  0.039752 )

     PseudoPot. # 1 for C  read from file:
     /storage/coda1/p-amedford6/0/shared/rich_project_chbe-medford/medford-share/data/pseudos_module/espresso/nninc/pbe/van/C.UPF
     MD5 check sum: 1a69bf6b8db32088f5b2163dbdb77a27
     Pseudo is Ultrasoft, Zval =  4.0
     Generated by new atomic code, or converted to UPF format
     Using radial grid of  721 points,  4 beta functions with:
                l(1) =   0
                l(2) =   0
                l(3) =   1
                l(4) =   1
     Q(r) pseudized with  8 coefficients,  rinner =    0.800   0.800   0.800

     PseudoPot. # 2 for H  read from file:
     /storage/coda1/p-amedford6/0/shared/rich_project_chbe-medford/medford-share/data/pseudos_module/espresso/nninc/pbe/van/H.UPF
     MD5 check sum: b5ee9d7bfd3a09ee7748110bda690ff7
     Pseudo is Ultrasoft, Zval =  1.0
     Generated by new atomic code, or converted to UPF format
     Using radial grid of  615 points,  1 beta functions with:
                l(1) =   0
     Q(r) pseudized with  8 coefficients,  rinner =    0.800

     PseudoPot. # 3 for O  read from file:
     /storage/coda1/p-amedford6/0/shared/rich_project_chbe-medford/medford-share/data/pseudos_module/espresso/nninc/pbe/van/O.UPF
     MD5 check sum: 78c19812648e8988a0fe644b0f25305e
     Pseudo is Ultrasoft, Zval =  6.0
     Generated by new atomic code, or converted to UPF format
     Using radial grid of  737 points,  4 beta functions with:
                l(1) =   0
                l(2) =   0
                l(3) =   1
                l(4) =   1
     Q(r) pseudized with  8 coefficients,  rinner =    0.800   0.800   0.800

     PseudoPot. # 4 for Ti read from file:
     /storage/coda1/p-amedford6/0/shared/rich_project_chbe-medford/medford-share/data/pseudos_module/espresso/nninc/pbe/van/Ti.UPF
     MD5 check sum: 8e4df49b7f0d34bbd5052bf3f5ea0213
     Pseudo is Ultrasoft, Zval = 12.0
     Generated by new atomic code, or converted to UPF format
     Using radial grid of  851 points,  6 beta functions with:
                l(1) =   0
                l(2) =   0
                l(3) =   1
                l(4) =   1
                l(5) =   2
                l(6) =   2
     Q(r) pseudized with  8 coefficients,  rinner =    1.000   1.000   1.000
                                                       1.000   1.000

     PseudoPot. # 5 for N  read from file:
     /storage/coda1/p-amedford6/0/shared/rich_project_chbe-medford/medford-share/data/pseudos_module/espresso/nninc/pbe/van/N.UPF
     MD5 check sum: 90d10febe142ad51ac9d5be1deb811c4
     Pseudo is Ultrasoft, Zval =  5.0
     Generated by new atomic code, or converted to UPF format
     Using radial grid of  729 points,  4 beta functions with:
                l(1) =   0
                l(2) =   0
                l(3) =   1
                l(4) =   1
     Q(r) pseudized with  8 coefficients,  rinner =    0.800   0.800   0.800

     atomic species   valence    mass     pseudopotential
        C1             4.00    12.01100     C ( 1.00)
        H1             1.00     1.00800     H ( 1.00)
        O1             6.00    15.99900     O ( 1.00)
        Ti1           12.00    47.86700     Ti( 1.00)
        N1             5.00    14.00700     N ( 1.00)

     No symmetry found

   Cartesian axes

     site n.     atom                  positions (alat units)
         1           C1  tau(   1) = (   6.4247902   2.9910588  18.6917704  )
         2           H1  tau(   2) = (   6.3980358   3.9338040  19.2291268  )
         3           H1  tau(   3) = (   6.3671137   2.0386567  19.2103458  )
         4           O1  tau(   4) = (   3.2904802   0.0005063   4.7018136  )
         5           O1  tau(   5) = (   3.2900926   2.9813045   4.7018136  )
         6           O1  tau(   6) = (   1.3043587   1.4918075   6.0039043  )
         7           O1  tau(   7) = (   1.3039711   4.4726057   6.0039043  )
         8           O1  tau(   8) = (   5.2767064   1.4903225   6.0039473  )
         9           O1  tau(   9) = (   5.2763189   4.4711207   6.0039473  )
        10           O1  tau(  10) = (   3.2906025   0.0005020   7.3038282  )
        11           O1  tau(  11) = (   3.2902150   2.9813002   7.3038282  )
        12           O1  tau(  12) = (   0.0006271   0.0005054   7.9858123  )
        13           O1  tau(  13) = (   0.0002396   2.9813036   7.9858123  )
        14           O1  tau(  14) = (   4.5942328   1.4918067   9.2879030  )
        15           O1  tau(  15) = (   4.5938453   4.4726049   9.2879030  )
        16           O1  tau(  16) = (   1.9868534   1.4903216   9.2879459  )
        17           O1  tau(  17) = (   1.9864658   4.4711199   9.2879459  )
        18           O1  tau(  18) = (   0.0058113   2.9878523  10.5832334  )
        19           O1  tau(  19) = (   0.0062988   0.0093020  10.6005518  )
        20           O1  tau(  20) = (   3.2955317   2.9954032  11.3404818  )
        21           O1  tau(  21) = (   3.2944299   0.0136787  11.3445968  )
        22           O1  tau(  22) = (   5.2904553   1.5027675  12.6317203  )
        23           O1  tau(  23) = (   5.2914467   4.4836083  12.6349631  )
        24           O1  tau(  24) = (   1.2933861   1.5040032  12.6362007  )
        25           O1  tau(  25) = (   1.2922507   4.4849626  12.6395598  )
        26           O1  tau(  26) = (   3.2955364   2.9961609  13.9180299  )
        27           O1  tau(  27) = (   3.2969677   0.0155663  13.9438287  )
        28           O1  tau(  28) = (   0.0016464   0.0229801  14.6780835  )
        29           O1  tau(  29) = (   0.0078505   2.9966620  14.7218711  )
        30           O1  tau(  30) = (   4.5417949   4.4807699  16.1031406  )
        31           O1  tau(  31) = (   4.5422182   1.5234006  16.1020929  )
        32           O1  tau(  32) = (   2.0382733   4.4802786  16.1011463  )
        33           O1  tau(  33) = (   2.0385641   1.5240134  16.0993588  )
        34           O1  tau(  34) = (   6.5794991   0.0244991  17.1995468  )
        35           O1  tau(  35) = (   6.5588415   3.0026814  17.4289308  )
        36           Ti1 tau(  36) = (   0.0004258   2.9801865   6.0000000  )
        37           Ti1 tau(  37) = (   0.0000382   5.9609847   6.0000000  )
        38           Ti1 tau(  38) = (   3.2906075   1.4906267   6.0002472  )
        39           Ti1 tau(  39) = (   3.2902200   4.4714249   6.0002472  )
        40           Ti1 tau(  40) = (   3.2947477   0.0499856   9.1537742  )
        41           Ti1 tau(  41) = (   3.3215383   3.0289251   9.1580241  )
        42           Ti1 tau(  42) = (   0.0276872   4.5181110   9.2597866  )
        43           Ti1 tau(  43) = (   0.0223396   1.5961087   9.3523429  )
        44           Ti1 tau(  44) = (   3.3278215   4.4891914  12.4850086  )
        45           Ti1 tau(  45) = (   3.3277968   1.5111787  12.4828596  )
        46           Ti1 tau(  46) = (   0.0250534   0.0277200  12.4935153  )
        47           Ti1 tau(  47) = (   0.0290128   3.0118426  12.7617797  )
        48           Ti1 tau(  48) = (   3.2948489   3.0033751  15.7103116  )
        49           Ti1 tau(  49) = (   3.2995243   0.0226186  15.7353524  )
        50           Ti1 tau(  50) = (   0.0095488   1.4190105  15.9501391  )
        51           Ti1 tau(  51) = (   0.0117608   4.6113996  15.9785021  )
        52           N1  tau(  52) = (   3.7826193   3.0501191  20.3090129  )
        53           N1  tau(  53) = (   2.7464546   2.9530354  19.9655958  )

     number of k points=    10  Fermi-Dirac smearing, width (Ry)=  0.0073
                       cart. coord. in units 2pi/alat
        k(    1) = (   0.0000000   0.0000000   0.0000000), wk =   0.1250000
        k(    2) = (   0.0000000   0.0419351   0.0000000), wk =   0.2500000
        k(    3) = (   0.0000000  -0.0838702   0.0000000), wk =   0.1250000
        k(    4) = (   0.0379955   0.0000049   0.0000000), wk =   0.2500000
        k(    5) = (   0.0379955   0.0419400   0.0000000), wk =   0.2500000
        k(    6) = (   0.0379955  -0.0838652   0.0000000), wk =   0.2500000
        k(    7) = (   0.0379955  -0.0419301   0.0000000), wk =   0.2500000
        k(    8) = (  -0.0759910  -0.0000099   0.0000000), wk =   0.1250000
        k(    9) = (  -0.0759910   0.0419252   0.0000000), wk =   0.2500000
        k(   10) = (  -0.0759910  -0.0838800   0.0000000), wk =   0.1250000

     Initial potential from superposition of free atoms

     starting charge  383.99917, renormalised to  400.00000

     negative rho (up, down):  1.498E-02 0.000E+00

     %%%%%%%%%%%%%%%%%%%%%%%%%%%%%%%%%%%%%%%%%%%%%%%%%%%%%%%%%%%%%%%%%%%%%%%%
     %                                                                      %
     % You are using vdW-DF, which was implemented by the Thonhauser group. %
     % Please cite the following two papers that made this development      %
     % possible and the two reviews that describe the various versions:     %
     %                                                                      %
     %   T. Thonhauser et al., PRL 115, 136402 (2015).                      %
     %   T. Thonhauser et al., PRB 76, 125112 (2007).                       %
     %   K. Berland et al., Rep. Prog. Phys. 78, 066501 (2015).             %
     %   D.C. Langreth et al., J. Phys.: Condens. Matter 21, 084203 (2009). %
     %                                                                      %
     %                                                                      %
     % If you are calculating the stress with vdW-DF, please also cite:     %
     %                                                                      %
     %   R. Sabatini et al., J. Phys.: Condens. Matter 24, 424209 (2012).   %
     %                                                                      %
     %%%%%%%%%%%%%%%%%%%%%%%%%%%%%%%%%%%%%%%%%%%%%%%%%%%%%%%%%%%%%%%%%%%%%%%%

     Adding external electric field

     Computed dipole along edir(3) :
        Dipole              -12.3567 Ry au,        -31.4077 Debye
        Dipole field         -0.0233 Ry au,

        Potential amp.        2.1616 Ry
        Total length         46.3494 bohr

     Starting wfcs are  302 atomic wfcs
  @ DRIVER MODE: Message from server: STATUS
  @ DRIVER MODE: Message from server: POSDATA
  @ DRIVER MODE: Reading and sharing cell
  @ DRIVER MODE: Reading and sharing positions
  @ DRIVER MODE: Received positions

     Self-consistent Calculation

     iteration #  1     ecut=    29.40 Ry     beta= 0.05
     Davidson diagonalization with overlap
     c_bands:  2 eigenvalues not converged
     c_bands:  2 eigenvalues not converged
     c_bands:  2 eigenvalues not converged
     c_bands:  2 eigenvalues not converged
     c_bands:  4 eigenvalues not converged
     c_bands:  2 eigenvalues not converged
     c_bands:  5 eigenvalues not converged
     c_bands:  1 eigenvalues not converged
     c_bands:  3 eigenvalues not converged
     ethr =  1.00E-05,  avg # of iterations = 23.3

[...]

     total energy              =   -2430.29777981 Ry
     estimated scf accuracy    <    6091.33056983 Ry

     iteration #  2     ecut=    29.40 Ry     beta= 0.05
     Davidson diagonalization with overlap
     ethr =  1.00E-02,  avg # of iterations = 22.0

[...]

     iteration # 67     ecut=    29.40 Ry     beta= 0.05
     Davidson diagonalization with overlap
     c_bands:  1 eigenvalues not converged
     ethr =  1.87E-11,  avg # of iterations = 12.3

[...]

     total energy              =   -2970.35075001 Ry
     estimated scf accuracy    <       0.00000011 Ry

     iteration # 68     ecut=    29.40 Ry     beta= 0.05
     Davidson diagonalization with overlap
     ethr =  1.87E-11,  avg # of iterations =  5.1

     negative rho (up, down):  1.511E-02 0.000E+00

     Adding external electric field

     Computed dipole along edir(3) :
        Dipole                1.0034 Ry au,          2.5503 Debye
        Dipole field          0.0019 Ry au,

        Potential amp.       -0.1755 Ry
        Total length         46.3494 bohr

     End of self-consistent calculation

          k = 0.0000 0.0000 0.0000 ( 18029 PWs)   bands (ev):

   -55.5169 -55.5077 -55.4799 -55.4713 -55.4129 -55.3960 -55.3707 -55.3070
   -55.3010 -55.2907 -55.2882 -55.2549 -55.2357 -55.2117 -54.5420 -54.5079
   -32.0786 -31.9899 -31.8907 -31.8803 -31.8266 -31.8226 -31.8152 -31.7955
   -31.7675 -31.7515 -31.7494 -31.7240 -31.7004 -31.6897 -31.6750 -31.6567
   -31.6417 -31.6413 -31.6321 -31.6117 -31.5919 -31.5878 -31.5795 -31.5740
   -31.5693 -31.5425 -31.5419 -31.5205 -31.5148 -31.5135 -31.4922 -31.4695
   -31.4646 -31.4414 -31.4330 -31.4326 -31.4251 -31.4197 -31.3986 -31.3942
   -31.3883 -31.3813 -30.9519 -30.8545 -30.8323 -30.7687 -30.6826 -30.5712
   -21.5751 -19.7367 -16.3006 -16.0002 -15.8586 -15.7280 -15.6715 -15.5601
   -15.4032 -15.3434 -15.2465 -15.1972 -15.1467 -15.1126 -15.1055 -15.0836
   -15.0757 -15.0502 -15.0470 -14.9794 -14.9683 -14.9323 -14.9189 -14.9185
   -14.8212 -14.7729 -14.7064 -14.6473 -14.5935 -14.5398 -14.5154 -13.0423
   -12.9239  -9.1204  -6.6199  -5.3860  -5.3843  -4.6566  -4.6459  -3.6496
    -3.4712  -3.4323  -3.4221  -3.3711  -3.3576  -3.2837  -3.1401  -3.1040
    -2.8189  -2.7298  -2.6967  -2.6830  -2.6747  -2.5455  -2.4847  -2.3673
    -2.3612  -2.3473  -2.3457  -2.3370  -2.2933  -2.2896  -2.2465  -2.2144
    -2.1292  -2.0686  -1.9590  -1.9479  -1.9225  -1.8601  -1.8271  -1.8045
    -1.8019  -1.7562  -1.7539  -1.7513  -1.7064  -1.6186  -1.5146  -1.4733
    -1.3777  -1.3438  -1.2317  -1.1001  -1.0222  -0.9820  -0.9296  -0.8792
    -0.8738  -0.8528  -0.8332  -0.8175  -0.8015  -0.6853  -0.5707  -0.5685
    -0.4675  -0.4149  -0.3893  -0.3767  -0.2778  -0.2592  -0.2518  -0.1742
    -0.0175  -0.0137  -0.0014   0.1178   0.1464   0.1630   0.2133   0.2349
     0.2757   0.2995   0.3534   0.4098   0.4191   0.4685   0.4771   0.4985
     0.6041   0.6626   0.6685   0.7269   0.7710   0.9561   0.9710   1.1116
     1.1699   1.3863   1.4830   1.5334   1.6520   2.0701   2.1292   3.6432
     3.6786   3.6992   3.7475   3.7801   3.8158   3.8785   4.0859   4.1035
     4.1052   4.1324

[...]

          k = 0.0380-0.0419 0.0000 ( 17876 PWs)   bands (ev):

[...]

          k =-0.0760-0.0000 0.0000 ( 17886 PWs)   bands (ev):

[...]

          k =-0.0760-0.0839 0.0000 ( 17948 PWs)   bands (ev):

   -55.5057 -55.4910 -55.4906 -55.4881 -55.4052 -55.3924 -55.3784 -55.3102
   -55.2969 -55.2846 -55.2720 -55.2715 -55.2418 -55.2150 -54.5253 -54.5244
   -31.8813 -31.8784 -31.8138 -31.8002 -31.7980 -31.7959 -31.7855 -31.7755
   -31.7637 -31.7386 -31.7223 -31.7095 -31.6971 -31.6578 -31.6459 -31.6396
   -31.6344 -31.6295 -31.6239 -31.6201 -31.6083 -31.6020 -31.5995 -31.5961
   -31.5930 -31.5906 -31.5728 -31.5662 -31.5385 -31.5289 -31.5244 -31.5107
   -31.4992 -31.4895 -31.4848 -31.4776 -31.4751 -31.4708 -31.4532 -31.4333
   -31.4219 -31.4091 -30.8455 -30.8443 -30.7652 -30.7644 -30.7261 -30.7252
   -21.5749 -19.7294 -15.7317 -15.7015 -15.6020 -15.4682 -15.4576 -15.4167
   -15.3756 -15.3169 -15.2588 -15.2560 -15.2140 -15.1983 -15.1852 -15.1486
   -15.1162 -15.0700 -15.0569 -15.0522 -15.0403 -14.9853 -14.9787 -14.9389
   -14.9209 -14.9136 -14.8693 -14.8618 -14.7872 -14.7479 -14.7247 -13.0265
   -13.0238  -9.1325  -6.6048  -5.3621  -5.3157  -4.6611  -4.6545  -3.5821
    -3.1825  -3.0212  -2.9851  -2.8260  -2.6902  -2.6795  -2.6249  -2.5347
    -2.5012  -2.4575  -2.4054  -2.3914  -2.3684  -2.3638  -2.3542  -2.3504
    -2.3423  -2.2914  -2.2727  -2.2363  -2.1818  -2.1740  -2.1609  -2.1546
    -2.1115  -2.0958  -2.0878  -2.0822  -2.0757  -2.0097  -1.9393  -1.8668
    -1.7766  -1.7364  -1.7147  -1.6781  -1.6425  -1.6073  -1.5858  -1.5681
    -1.4568  -1.4286  -1.2856  -1.2613  -1.2445  -1.2337  -1.1931  -1.1889
    -1.0561  -0.9788  -0.9688  -0.9462  -0.8906  -0.8566  -0.8119  -0.7862
    -0.6984  -0.6633  -0.6221  -0.5715  -0.4918  -0.4818  -0.4303  -0.4146
    -0.3334  -0.3188  -0.2876  -0.2847  -0.2186  -0.1731  -0.0990  -0.0924
    -0.0666   0.0402   0.0955   0.1098   0.2925   0.4661   0.4794   0.4901
     0.6019   0.6123   0.6576   0.7322   0.7431   0.8274   0.8831   0.9804
     0.9997   1.0092   1.0883   1.8421   1.8430   1.9326   1.9441   3.6390
     3.8593   3.8911   3.9109   3.9637   4.1203   4.1250   4.1382   4.1509
     4.2644   4.2814

     the Fermi energy is     3.6318 ev

!    total energy              =   -2970.35077676 Ry
     estimated scf accuracy    <       0.00000007 Ry
     smearing contrib. (-TS)   =      -0.03416282 Ry
     internal energy E=F+TS    =   -2970.31661394 Ry

     The total energy is F=E-TS. E is the sum of the following terms:
     one-electron contribution =  -23485.97033227 Ry
     hartree contribution      =   11835.66047284 Ry
     xc contribution           =    -491.52995736 Ry
     ewald contribution        =    9171.52130295 Ry
     electric field correction =       0.00189990 Ry

     convergence has been achieved in  68 iterations

     Forces acting on atoms (cartesian axes, Ry/au):

     atom    1 type  1   force =    -0.00010493    0.00006882    0.00001965
     atom    2 type  2   force =    -0.00047268    0.00080631    0.00026931
     atom    3 type  2   force =     0.00014651   -0.00058955   -0.00029290
     atom    4 type  3   force =    -0.00007367    0.00001842    0.10425067
     atom    5 type  3   force =    -0.00005771   -0.00001186    0.10431985
     atom    6 type  3   force =    -0.06903093    0.00076236   -0.02907259
     atom    7 type  3   force =    -0.06858273   -0.00136170   -0.02907771
     atom    8 type  3   force =     0.06869726    0.00129086   -0.02914385
     atom    9 type  3   force =     0.06835149   -0.00098563   -0.02915368
     atom   10 type  3   force =     0.00016836    0.00039005    0.04598251
     atom   11 type  3   force =     0.00058617    0.00071874    0.04715808
     atom   12 type  3   force =     0.00031329   -0.00529240   -0.03191455
     atom   13 type  3   force =     0.00036264    0.00311566   -0.02590067
     atom   14 type  3   force =    -0.01815837   -0.00007640    0.00388056
     atom   15 type  3   force =    -0.01657351    0.00120447    0.00342056
     atom   16 type  3   force =     0.01842205   -0.00125957    0.00384815
     atom   17 type  3   force =     0.01757552    0.00141852    0.00328515
     atom   18 type  3   force =     0.00002287    0.00030693    0.00040782
     atom   19 type  3   force =     0.00003760   -0.00012209    0.00013155
     atom   20 type  3   force =    -0.00005376    0.00027946    0.00036133
     atom   21 type  3   force =    -0.00007975   -0.00029661   -0.00036326
     atom   22 type  3   force =     0.00035710    0.00029537    0.00029488
     atom   23 type  3   force =     0.00029469   -0.00026504    0.00028148
     atom   24 type  3   force =    -0.00035256    0.00037113    0.00016195
     atom   25 type  3   force =    -0.00025615   -0.00030721    0.00014081
     atom   26 type  3   force =    -0.00017761    0.00013184    0.00032636
     atom   27 type  3   force =    -0.00013441   -0.00008490    0.00019594
     atom   28 type  3   force =     0.00008130   -0.00002272   -0.00018835
     atom   29 type  3   force =     0.00001255    0.00020566   -0.00051385
     atom   30 type  3   force =    -0.00025501   -0.00043934    0.00007116
     atom   31 type  3   force =    -0.00048726    0.00051296    0.00011563
     atom   32 type  3   force =     0.00047780   -0.00054805    0.00034139
     atom   33 type  3   force =     0.00069014    0.00060567    0.00035200
     atom   34 type  3   force =    -0.00015394    0.00001321    0.00093415
     atom   35 type  3   force =    -0.00027089   -0.00056684   -0.00048307
     atom   36 type  4   force =    -0.00025562   -0.00176790    0.10174985
     atom   37 type  4   force =    -0.00008869    0.00136189    0.11449403
     atom   38 type  4   force =    -0.00032259    0.00053066   -0.18032717
     atom   39 type  4   force =    -0.00021935   -0.00040497   -0.18063162
     atom   40 type  4   force =     0.00025111    0.00081896   -0.00111563
     atom   41 type  4   force =     0.00020456   -0.00078542   -0.00089177
     atom   42 type  4   force =    -0.00022386    0.00088363   -0.00019068
     atom   43 type  4   force =    -0.00017054   -0.00020197    0.00002453
     atom   44 type  4   force =     0.00000914   -0.00008882    0.00029034
     atom   45 type  4   force =     0.00005875    0.00009566    0.00036693
     atom   46 type  4   force =    -0.00019164    0.00047770   -0.00009614
     atom   47 type  4   force =    -0.00030051   -0.00043543    0.00044857
     atom   48 type  4   force =    -0.00058779   -0.00005050    0.00073874
     atom   49 type  4   force =    -0.00051894    0.00006934    0.00016035
     atom   50 type  4   force =     0.00022936    0.00039629   -0.00026441
     atom   51 type  4   force =     0.00021634   -0.00064275   -0.00049305
     atom   52 type  5   force =     0.05391693    0.00537965    0.01903785
     atom   53 type  5   force =    -0.05332815   -0.00592253   -0.01774718

     Total force =     0.382758     Total SCF correction =     0.000731
  @ DRIVER MODE: Message from server: STATUS
  @ DRIVER MODE: Message from server: GETFORCE
  @ DRIVER MODE: Returning v,forces,stress,ensemble

     Writing output data file ./calc.save/
  @ DRIVER MODE: Message from server: EXIT
  @ DRIVE MODE: Exiting

     General routines

     Parallel routines

   This run was terminated on:   0:47:10  15Sep2021

   JOB DONE.