     Program PWSCF v.6.7GPU starts on 15Sep2021 at 20:20: 8

     R & G space division:  proc/nbgrp/npool/nimage =      10
     Reading input from /storage/home/hcoda1/3/ntian30/research/carbon/CxH_vib/H2O_calc/ads_slab/CH3N2H2O_c/out_0015/pw.inp
Warning: card &CELL ignored
Warning: card   CELL_DYNAMICS='IPI', ignored
Warning: card / ignored

     Current dimensions of program PWSCF are:
     Max number of different atomic species (ntypx) = 10
     Max number of k-points (npk) =  40000
     Max angular momentum in pseudopotentials (lmaxx) =  3
     Presently no symmetry can be used with electric field

     Message from routine cell_base_init:
     DEPRECATED: use true lattice parameter, not A to a.u. conversion factor

     IMPORTANT: XC functional enforced from input :
     Exchange-correlation= BEEF-VDW
                           (   1   4  43  14   2   0   0)
     Any further DFT definition will be discarded
     Please, verify this is what you really want

  @ DRIVER MODE: Connecting to
 qe_1139763_2852616.sched-torque.pace.gatech.eduz2d91bgz_scratch
  using UNIX socket
  @ DRIVER MODE: Message from server: STATUS
  @ DRIVER MODE: Message from server: INIT
  @ DRIVER MODE: Receiving replica           0          -1
  @ DRIVER MODE: Receiving encoded integer          25
  @ DRIVER MODE:  SCF:  T  FORCE:  T  STRESS:  F  VC:  F  ENSEMBLE:  F
  @ DRIVER MODE:  SCF:  T  FORCE:  T  STRESS:  F  VC:  F  ENSEMBLE:  F

     Using Slab Decomposition

     bravais-lattice index     =            0
     lattice parameter (alat)  =       1.8897  a.u.
     unit-cell volume          =    6658.9804 (a.u.)^3
     number of atoms/cell      =           56
     number of atomic types    =            5
     number of electrons       =       403.00
     number of Kohn-Sham states=          211
     kinetic-energy cutoff     =      29.3995  Ry
     charge density cutoff     =     293.9946  Ry
     scf convergence threshold =      7.3E-08
     mixing beta               =       0.0500
     number of iterations used =            8  plain     mixing
     Exchange-correlation= BEEF-VDW
                           (   1   4  43  14   2   0   0)

     celldm(1)=   1.889726  celldm(2)=   0.000000  celldm(3)=   0.000000
     celldm(4)=   0.000000  celldm(5)=   0.000000  celldm(6)=   0.000000

     crystal axes: (cart. coord. in units of alat)
               a(1) = (   6.579727   0.000000   0.000000 )
               a(2) = (  -0.000775   5.961596   0.000000 )
               a(3) = (   0.000000   0.000000  25.155947 )

     reciprocal axes: (cart. coord. in units 2 pi/alat)
               b(1) = (  0.151982  0.000020  0.000000 )
               b(2) = (  0.000000  0.167740  0.000000 )
               b(3) = (  0.000000  0.000000  0.039752 )

     PseudoPot. # 1 for Ti read from file:
     /storage/coda1/p-amedford6/0/shared/rich_project_chbe-medford/medford-share/data/pseudos_module/espresso/nninc/pbe/van/Ti.UPF
     MD5 check sum: 8e4df49b7f0d34bbd5052bf3f5ea0213
     Pseudo is Ultrasoft, Zval = 12.0
     Generated by new atomic code, or converted to UPF format
     Using radial grid of  851 points,  6 beta functions with:
                l(1) =   0
                l(2) =   0
                l(3) =   1
                l(4) =   1
                l(5) =   2
                l(6) =   2
     Q(r) pseudized with  8 coefficients,  rinner =    1.000   1.000   1.000
                                                       1.000   1.000

     PseudoPot. # 2 for O  read from file:
     /storage/coda1/p-amedford6/0/shared/rich_project_chbe-medford/medford-share/data/pseudos_module/espresso/nninc/pbe/van/O.UPF
     MD5 check sum: 78c19812648e8988a0fe644b0f25305e
     Pseudo is Ultrasoft, Zval =  6.0
     Generated by new atomic code, or converted to UPF format
     Using radial grid of  737 points,  4 beta functions with:
                l(1) =   0
                l(2) =   0
                l(3) =   1
                l(4) =   1
     Q(r) pseudized with  8 coefficients,  rinner =    0.800   0.800   0.800

     PseudoPot. # 3 for N  read from file:
     /storage/coda1/p-amedford6/0/shared/rich_project_chbe-medford/medford-share/data/pseudos_module/espresso/nninc/pbe/van/N.UPF
     MD5 check sum: 90d10febe142ad51ac9d5be1deb811c4
     Pseudo is Ultrasoft, Zval =  5.0
     Generated by new atomic code, or converted to UPF format
     Using radial grid of  729 points,  4 beta functions with:
                l(1) =   0
                l(2) =   0
                l(3) =   1
                l(4) =   1
     Q(r) pseudized with  8 coefficients,  rinner =    0.800   0.800   0.800

     PseudoPot. # 4 for C  read from file:
     /storage/coda1/p-amedford6/0/shared/rich_project_chbe-medford/medford-share/data/pseudos_module/espresso/nninc/pbe/van/C.UPF
     MD5 check sum: 1a69bf6b8db32088f5b2163dbdb77a27
     Pseudo is Ultrasoft, Zval =  4.0
     Generated by new atomic code, or converted to UPF format
     Using radial grid of  721 points,  4 beta functions with:
                l(1) =   0
                l(2) =   0
                l(3) =   1
                l(4) =   1
     Q(r) pseudized with  8 coefficients,  rinner =    0.800   0.800   0.800

     PseudoPot. # 5 for H  read from file:
     /storage/coda1/p-amedford6/0/shared/rich_project_chbe-medford/medford-share/data/pseudos_module/espresso/nninc/pbe/van/H.UPF
     MD5 check sum: b5ee9d7bfd3a09ee7748110bda690ff7
     Pseudo is Ultrasoft, Zval =  1.0
     Generated by new atomic code, or converted to UPF format
     Using radial grid of  615 points,  1 beta functions with:
                l(1) =   0
     Q(r) pseudized with  8 coefficients,  rinner =    0.800

     atomic species   valence    mass     pseudopotential
        Ti1           12.00    47.86700     Ti( 1.00)
        O1             6.00    15.99900     O ( 1.00)
        N1             5.00    14.00700     N ( 1.00)
        C1             4.00    12.01100     C ( 1.00)
        H1             1.00     1.00800     H ( 1.00)

     No symmetry found

   Cartesian axes

     site n.     atom                  positions (alat units)
         1           Ti1 tau(   1) = (   0.0004258   2.9801865   6.0000000  )
         2           Ti1 tau(   2) = (   3.2906075   1.4906267   6.0002472  )
         3           O1  tau(   3) = (   0.0006271   0.0005054   7.9858123  )
         4           O1  tau(   4) = (   3.2906025   0.0005020   7.3038282  )
         5           O1  tau(   5) = (   4.5942328   1.4918067   9.2879030  )
         6           O1  tau(   6) = (   1.9868534   1.4903216   9.2879459  )
         7           Ti1 tau(   7) = (   3.2907910   2.8959150   9.1758416  )
         8           Ti1 tau(   8) = (   0.0015273   1.4827037   9.2680791  )
         9           O1  tau(   9) = (   3.2828550   5.9398922  11.3444325  )
        10           O1  tau(  10) = (   0.0116148   5.9584955  10.6183126  )
        11           O1  tau(  11) = (   1.2785533   1.4626539  12.6279770  )
        12           O1  tau(  12) = (   5.2704455   1.4657548  12.6160130  )
        13           Ti1 tau(  13) = (   0.0600808   2.9393476  12.6134163  )
        14           Ti1 tau(  14) = (   3.3737088   1.4602624  12.5010433  )
        15           O1  tau(  15) = (   6.5684750   5.9323085  14.6353932  )
        16           O1  tau(  16) = (   3.2849856   5.9366180  13.9618146  )
        17           O1  tau(  17) = (   4.5362432   1.5114280  16.0576559  )
        18           O1  tau(  18) = (   2.0240554   1.5008084  16.0383298  )
        19           Ti1 tau(  19) = (   3.2703657   2.9522362  15.6888820  )
        20           Ti1 tau(  20) = (   6.5391562   1.4934284  15.8005638  )
        21           O1  tau(  21) = (   3.2904802   0.0005063   4.7018136  )
        22           O1  tau(  22) = (   6.5583345   5.9570231  17.1947061  )
        23           O1  tau(  23) = (   1.3043587   1.4918075   6.0039043  )
        24           O1  tau(  24) = (   5.2767064   1.4903225   6.0039473  )
        25           Ti1 tau(  25) = (   0.0000382   5.9609847   6.0000000  )
        26           Ti1 tau(  26) = (   3.2902200   4.4714249   6.0002472  )
        27           O1  tau(  27) = (   0.0002396   2.9813036   7.9858123  )
        28           O1  tau(  28) = (   3.2902150   2.9813002   7.3038282  )
        29           O1  tau(  29) = (   4.5938453   4.4726049   9.2879030  )
        30           O1  tau(  30) = (   1.9864658   4.4711199   9.2879459  )
        31           Ti1 tau(  31) = (   3.2891106   5.8743827   9.1763621  )
        32           Ti1 tau(  32) = (   0.0006254   4.4649316   9.2693709  )
        33           O1  tau(  33) = (   3.2888364   2.9620848  11.3424199  )
        34           O1  tau(  34) = (   0.0092240   2.9805883  10.6323155  )
        35           O1  tau(  35) = (   1.2785924   4.4508711  12.6313046  )
        36           O1  tau(  36) = (   5.2742027   4.4576360  12.6186982  )
        37           Ti1 tau(  37) = (   0.0560446   5.9134488  12.5469576  )
        38           Ti1 tau(  38) = (   3.3742563   4.4530221  12.5021653  )
        39           O1  tau(  39) = (   6.5655761   2.9369947  14.6516633  )
        40           O1  tau(  40) = (   3.2805149   2.9594171  13.8967751  )
        41           O1  tau(  41) = (   4.5308665   4.4203993  16.0704334  )
        42           O1  tau(  42) = (   2.0169005   4.4237906  16.0574931  )
        43           Ti1 tau(  43) = (   3.2493829   5.9208236  15.8028744  )
        44           Ti1 tau(  44) = (   6.5423592   4.6318136  16.0678394  )
        45           O1  tau(  45) = (   3.2900926   2.9813045   4.7018136  )
        46           O1  tau(  46) = (   1.3039711   4.4726057   6.0039043  )
        47           O1  tau(  47) = (   5.2763189   4.4711207   6.0039473  )
        48           N1  tau(  48) = (   0.1516996   2.6368831  18.6397825  )
        49           N1  tau(  49) = (   0.0343947   2.8734663  17.4441277  )
        50           C1  tau(  50) = (   0.1908864   3.7605318  19.5986308  )
        51           H1  tau(  51) = (   6.5333492   4.7333814  19.1494580  )
        52           H1  tau(  52) = (   6.0816938   3.5230213  20.4074400  )
        53           H1  tau(  53) = (   1.1988782   3.7880179  20.0220438  )
        54           O1  tau(  54) = (   3.2442500   5.9498283  18.2024067  )
        55           H1  tau(  55) = (   4.0366425   0.4867780  18.4672138  )
        56           H1  tau(  56) = (   2.4709518   0.5160301  18.4623371  )

     number of k points=    10  Fermi-Dirac smearing, width (Ry)=  0.0073
                       cart. coord. in units 2pi/alat
        k(    1) = (   0.0000000   0.0000000   0.0000000), wk =   0.1250000
        k(    2) = (   0.0000000   0.0419351   0.0000000), wk =   0.2500000
        k(    3) = (   0.0000000  -0.0838702   0.0000000), wk =   0.1250000
        k(    4) = (   0.0379955   0.0000049   0.0000000), wk =   0.2500000
        k(    5) = (   0.0379955   0.0419400   0.0000000), wk =   0.2500000
        k(    6) = (   0.0379955  -0.0838652   0.0000000), wk =   0.2500000
        k(    7) = (   0.0379955  -0.0419301   0.0000000), wk =   0.2500000
        k(    8) = (  -0.0759910  -0.0000099   0.0000000), wk =   0.1250000
        k(    9) = (  -0.0759910   0.0419252   0.0000000), wk =   0.2500000
        k(   10) = (  -0.0759910  -0.0838800   0.0000000), wk =   0.1250000

     Initial potential from superposition of free atoms

     starting charge  386.99914, renormalised to  403.00000

     negative rho (up, down):  1.445E-02 0.000E+00

     %%%%%%%%%%%%%%%%%%%%%%%%%%%%%%%%%%%%%%%%%%%%%%%%%%%%%%%%%%%%%%%%%%%%%%%%
     %                                                                      %
     % You are using vdW-DF, which was implemented by the Thonhauser group. %
     % Please cite the following two papers that made this development      %
     % possible and the two reviews that describe the various versions:     %
     %                                                                      %
     %   T. Thonhauser et al., PRL 115, 136402 (2015).                      %
     %   T. Thonhauser et al., PRB 76, 125112 (2007).                       %
     %   K. Berland et al., Rep. Prog. Phys. 78, 066501 (2015).             %
     %   D.C. Langreth et al., J. Phys.: Condens. Matter 21, 084203 (2009). %
     %                                                                      %
     %                                                                      %
     % If you are calculating the stress with vdW-DF, please also cite:     %
     %                                                                      %
     %   R. Sabatini et al., J. Phys.: Condens. Matter 24, 424209 (2012).   %
     %                                                                      %
     %%%%%%%%%%%%%%%%%%%%%%%%%%%%%%%%%%%%%%%%%%%%%%%%%%%%%%%%%%%%%%%%%%%%%%%%

     Adding external electric field

     Computed dipole along edir(3) :
        Dipole              -13.2286 Ry au,        -33.6236 Debye
        Dipole field         -0.0250 Ry au,

        Potential amp.        2.3141 Ry
        Total length         46.3494 bohr

     Starting wfcs are  305 atomic wfcs
  @ DRIVER MODE: Message from server: STATUS
  @ DRIVER MODE: Message from server: POSDATA
  @ DRIVER MODE: Reading and sharing cell
  @ DRIVER MODE: Reading and sharing positions
  @ DRIVER MODE: Received positions

     Self-consistent Calculation

     iteration #  1     ecut=    29.40 Ry     beta= 0.05
     Davidson diagonalization with overlap
     c_bands:  4 eigenvalues not converged
     c_bands:  2 eigenvalues not converged
     c_bands:  4 eigenvalues not converged
     c_bands:  1 eigenvalues not converged
     c_bands:  1 eigenvalues not converged
     c_bands:  1 eigenvalues not converged
     c_bands:  4 eigenvalues not converged
     c_bands:  1 eigenvalues not converged
     c_bands:  1 eigenvalues not converged
     ethr =  1.00E-05,  avg # of iterations = 29.8

[...]

     total energy              =   -2367.56098342 Ry
     estimated scf accuracy    <    6916.14351078 Ry

     iteration #  2     ecut=    29.40 Ry     beta= 0.05
     Davidson diagonalization with overlap
     ethr =  1.00E-02,  avg # of iterations = 22.9

[...]

     iteration # 56     ecut=    29.40 Ry     beta= 0.05
     Davidson diagonalization with overlap
     c_bands:  1 eigenvalues not converged
     ethr =  1.93E-10,  avg # of iterations = 12.6

[...]

     total energy              =   -2974.00289490 Ry
     estimated scf accuracy    <       0.00000017 Ry

     iteration # 60     ecut=    29.40 Ry     beta= 0.05
     Davidson diagonalization with overlap
     ethr =  3.93E-11,  avg # of iterations = 10.2

     negative rho (up, down):  1.458E-02 0.000E+00

     Adding external electric field

     Computed dipole along edir(3) :
        Dipole                0.9289 Ry au,          2.3611 Debye
        Dipole field          0.0018 Ry au,

        Potential amp.       -0.1625 Ry
        Total length         46.3494 bohr

     End of self-consistent calculation

          k = 0.0000 0.0000 0.0000 ( 18029 PWs)   bands (ev):

   -55.6007 -55.5667 -55.5598 -55.5519 -55.5238 -55.4337 -55.4107 -55.3934
   -55.3768 -55.3758 -55.3474 -55.3420 -54.9987 -54.8694 -54.5797 -54.5456
   -32.1020 -32.0834 -31.9510 -31.9336 -31.9095 -31.8936 -31.8655 -31.8628
   -31.8436 -31.7960 -31.7891 -31.7743 -31.7529 -31.7383 -31.7220 -31.7167
   -31.7052 -31.6923 -31.6869 -31.6578 -31.6508 -31.6381 -31.6033 -31.5992
   -31.5882 -31.5859 -31.5825 -31.5748 -31.5508 -31.5469 -31.5453 -31.5405
   -31.5285 -31.5267 -31.5176 -31.5080 -31.4876 -31.2682 -31.1973 -31.1270
   -31.1064 -31.0760 -30.9868 -30.8983 -30.8759 -30.8035 -30.7170 -30.6060
   -18.8998 -18.3157 -16.2997 -16.0667 -15.8410 -15.7496 -15.7083 -15.5019
   -15.4014 -15.3257 -15.2077 -15.1436 -15.1355 -15.1161 -15.1046 -15.1000
   -15.0414 -15.0374 -15.0353 -15.0219 -14.9961 -14.9488 -14.9339 -14.9294
   -14.8345 -14.7619 -14.7380 -14.7206 -14.6780 -14.6531 -14.1998 -13.0819
   -12.9655 -11.3497  -6.8708  -6.6903  -4.2196  -3.8815  -3.8221  -3.6740
    -3.5450  -3.5053  -3.4340  -3.3608  -3.2311  -3.2067  -3.0338  -2.8342
    -2.7742  -2.7455  -2.6997  -2.6283  -2.5133  -2.4569  -2.4070  -2.4042
    -2.3845  -2.3788  -2.3545  -2.3362  -2.2377  -2.2185  -2.1485  -2.1330
    -2.0830  -1.9837  -1.9541  -1.9131  -1.9020  -1.8754  -1.8620  -1.8484
    -1.8257  -1.8014  -1.7605  -1.6929  -1.6062  -1.5753  -1.5021  -1.4402
    -1.4058  -1.3465  -1.2109  -1.1339  -1.0859  -1.0546  -1.0454  -1.0271
    -0.9932  -0.9754  -0.8648  -0.7525  -0.7359  -0.6715  -0.6094  -0.5261
    -0.4920  -0.4316  -0.3675  -0.3498  -0.3448  -0.3082  -0.2662  -0.2198
    -0.0825  -0.0263   0.0063   0.0146   0.0760   0.1170   0.1484   0.2312
     0.2466   0.2855   0.3285   0.3603   0.3711   0.3809   0.4019   0.4327
     0.4375   0.6274   0.6703   0.7159   0.7495   0.7879   0.9335   0.9529
     1.0587   1.1647   1.3694   1.4426   1.5424   1.6347   2.0140   2.0598
     2.7636   3.5335   3.6212   3.6659   3.7038   3.7796   3.7911   3.9886
     4.0039   4.0432   4.1738

[...]

          k = 0.0380-0.0419 0.0000 ( 17876 PWs)   bands (ev):

[...]

          k =-0.0760-0.0000 0.0000 ( 17886 PWs)   bands (ev):

[...]

          k =-0.0760-0.0839 0.0000 ( 17948 PWs)   bands (ev):

   -55.5842 -55.5831 -55.5508 -55.5429 -55.5401 -55.4239 -55.4032 -55.3942
   -55.3926 -55.3609 -55.3571 -55.3488 -54.9966 -54.8714 -54.5627 -54.5625
   -31.9157 -31.8993 -31.8990 -31.8982 -31.8795 -31.8785 -31.8380 -31.8294
   -31.8027 -31.7817 -31.7701 -31.7614 -31.7569 -31.7133 -31.7095 -31.7071
   -31.7048 -31.7036 -31.7025 -31.6981 -31.6956 -31.6949 -31.6543 -31.6425
   -31.6216 -31.6155 -31.6085 -31.5941 -31.5933 -31.5907 -31.5844 -31.5757
   -31.5717 -31.5622 -31.5618 -31.5523 -31.4187 -31.2702 -31.2159 -31.1604
   -31.1288 -31.1029 -30.8887 -30.8885 -30.7996 -30.7994 -30.7603 -30.7602
   -18.8988 -18.3120 -15.7537 -15.6496 -15.5528 -15.5174 -15.4608 -15.4009
   -15.3863 -15.3049 -15.2815 -15.2779 -15.2167 -15.1947 -15.1599 -15.1474
   -15.1262 -15.1127 -15.1092 -15.0531 -15.0466 -15.0375 -15.0308 -15.0274
   -14.9600 -14.9182 -14.9145 -14.9097 -14.7852 -14.6595 -14.3791 -13.0674
   -13.0672 -11.3472  -6.8962  -6.6715  -4.1457  -3.9047  -3.7922  -3.2596
    -3.0366  -2.8344  -2.8057  -2.7112  -2.6963  -2.6662  -2.5334  -2.4939
    -2.4536  -2.4396  -2.4167  -2.4158  -2.4027  -2.3963  -2.3793  -2.3556
    -2.3274  -2.3018  -2.2720  -2.2641  -2.2520  -2.2335  -2.2203  -2.2033
    -2.2000  -2.1563  -2.1350  -2.1255  -2.0424  -1.9862  -1.8251  -1.7831
    -1.7388  -1.7293  -1.7037  -1.6986  -1.6668  -1.6527  -1.6006  -1.5888
    -1.4554  -1.3595  -1.3204  -1.2948  -1.2876  -1.2686  -1.1974  -1.0965
    -1.0720  -0.9975  -0.9928  -0.8893  -0.8747  -0.7950  -0.7843  -0.7593
    -0.7042  -0.6683  -0.6475  -0.5649  -0.5592  -0.5339  -0.4941  -0.4617
    -0.4063  -0.3510  -0.3215  -0.3121  -0.2747  -0.2499  -0.2092  -0.1583
    -0.0962  -0.0583   0.0375   0.1402   0.2240   0.3601   0.4701   0.4980
     0.5728   0.6092   0.6835   0.7128   0.7198   0.7814   0.7945   0.8843
     0.9404   0.9532   0.9894   1.1081   1.8060   1.8074   1.8793   1.8797
     2.7892   3.7582   3.8684   3.9113   3.9319   4.0068   4.0481   4.0677
     4.0703   4.1063   4.2100

     the Fermi energy is     3.5330 ev

!    total energy              =   -2974.00294611 Ry
     estimated scf accuracy    <       0.00000007 Ry
     smearing contrib. (-TS)   =      -0.02180697 Ry
     internal energy E=F+TS    =   -2973.98113914 Ry

     The total energy is F=E-TS. E is the sum of the following terms:
     one-electron contribution =  -23851.84531363 Ry
     hartree contribution      =   12020.53146519 Ry
     xc contribution           =    -494.03900459 Ry
     ewald contribution        =    9351.37008543 Ry
     electric field correction =       0.00162846 Ry

     convergence has been achieved in  60 iterations

     Forces acting on atoms (cartesian axes, Ry/au):

     atom    1 type  1   force =     0.00016487   -0.00021435    0.09636234
     atom    2 type  1   force =    -0.00018255   -0.00044598   -0.17539964
     atom    3 type  2   force =     0.00001827   -0.00014967   -0.02472861
     atom    4 type  2   force =     0.00005464   -0.00161848    0.05340155
     atom    5 type  2   force =    -0.01199060   -0.00147988    0.00368157
     atom    6 type  2   force =     0.01344381   -0.00064194    0.00221987
     atom    7 type  1   force =    -0.00108487    0.00055593   -0.00695676
     atom    8 type  1   force =     0.00064551    0.00917171    0.02677387
     atom    9 type  2   force =     0.00017322    0.00019826   -0.00048406
     atom   10 type  2   force =    -0.00157662   -0.00030750   -0.01792839
     atom   11 type  2   force =     0.00090839    0.00090324   -0.00000952
     atom   12 type  2   force =    -0.00062334    0.00060358   -0.00004255
     atom   13 type  1   force =    -0.00026237    0.00023814   -0.00030300
     atom   14 type  1   force =     0.00027707    0.00026158    0.00008337
     atom   15 type  2   force =     0.00008892    0.00022809   -0.00037093
     atom   16 type  2   force =     0.00001060    0.00020918    0.00080539
     atom   17 type  2   force =     0.00100858    0.00005238    0.00016867
     atom   18 type  2   force =    -0.00134008   -0.00003255   -0.00001428
     atom   19 type  1   force =    -0.00006266    0.00132870   -0.00002773
     atom   20 type  1   force =    -0.00025829   -0.00015276   -0.00008695
     atom   21 type  2   force =     0.00009906    0.00001184    0.10317969
     atom   22 type  2   force =    -0.00012050    0.00037401    0.00042658
     atom   23 type  2   force =    -0.07146430   -0.00008771   -0.02778888
     atom   24 type  2   force =     0.07145290    0.00035480   -0.02778211
     atom   25 type  1   force =     0.00001651   -0.00032318    0.09610468
     atom   26 type  1   force =    -0.00030108   -0.00045551   -0.17575960
     atom   27 type  2   force =     0.00008979   -0.00024913   -0.02372082
     atom   28 type  2   force =     0.00012094   -0.00129985    0.05279891
     atom   29 type  2   force =    -0.01225877    0.00021784    0.00356138
     atom   30 type  2   force =     0.01359768    0.00043115    0.00206124
     atom   31 type  1   force =    -0.00117823    0.00349879   -0.01016424
     atom   32 type  1   force =     0.00082775   -0.01099080    0.02706435
     atom   33 type  2   force =     0.00010034    0.00000165    0.00056014
     atom   34 type  2   force =    -0.00116367   -0.00122938   -0.02348478
     atom   35 type  2   force =     0.00083067   -0.00052489   -0.00012073
     atom   36 type  2   force =    -0.00060462   -0.00018410   -0.00014965
     atom   37 type  1   force =    -0.00056008    0.00019923   -0.00037445
     atom   38 type  1   force =     0.00029575   -0.00025459    0.00014560
     atom   39 type  2   force =     0.00012017    0.00046608    0.00005878
     atom   40 type  2   force =     0.00019514    0.00014856   -0.00056176
     atom   41 type  2   force =     0.00075382    0.00068996    0.00035506
     atom   42 type  2   force =    -0.00083806    0.00066985    0.00022664
     atom   43 type  1   force =     0.00000878   -0.00096136   -0.00081460
     atom   44 type  1   force =    -0.00026494    0.00113035    0.00060560
     atom   45 type  2   force =     0.00008498   -0.00002513    0.10317781
     atom   46 type  2   force =    -0.07147278   -0.00001902   -0.02779476
     atom   47 type  2   force =     0.07145641    0.00039134   -0.02779110
     atom   48 type  3   force =     0.00018586   -0.00677245   -0.00161356
     atom   49 type  3   force =     0.00005189    0.00031126   -0.00028188
     atom   50 type  4   force =    -0.00021491    0.01884671   -0.00322942
     atom   51 type  5   force =     0.00192117   -0.00951914    0.00265380
     atom   52 type  5   force =    -0.00113119   -0.00245180    0.00150085
     atom   53 type  5   force =     0.00002757   -0.00192367   -0.00041277
     atom   54 type  2   force =     0.00161384    0.00015899   -0.00013270
     atom   55 type  5   force =    -0.00059319   -0.00009642   -0.00014329
     atom   56 type  5   force =    -0.00109718    0.00075807    0.00049583

     Total force =     0.368450     Total SCF correction =     0.001224
  @ DRIVER MODE: Message from server: STATUS
  @ DRIVER MODE: Message from server: GETFORCE
  @ DRIVER MODE: Returning v,forces,stress,ensemble

     Writing output data file ./calc.save/
  @ DRIVER MODE: Message from server: EXIT
  @ DRIVE MODE: Exiting

     General routines

     Parallel routines

   This run was terminated on:  20:38:18  15Sep2021

   JOB DONE.