     Program PWSCF v.6.7GPU starts on  9Sep2021 at  6: 8:52

     R & G space division:  proc/nbgrp/npool/nimage =      10
     Reading input from /storage/home/hcoda1/3/ntian30/research/carbon/CxH_vib/CH_calc/ads_slab/CHN2H_a/out_0025/pw.inp
Warning: card &CELL ignored
Warning: card   CELL_DYNAMICS='IPI', ignored
Warning: card / ignored

     Current dimensions of program PWSCF are:
     Max number of different atomic species (ntypx) = 10
     Max number of k-points (npk) =  40000
     Max angular momentum in pseudopotentials (lmaxx) =  3
     Presently no symmetry can be used with electric field

     Message from routine cell_base_init:
     DEPRECATED: use true lattice parameter, not A to a.u. conversion factor

     IMPORTANT: XC functional enforced from input :
     Exchange-correlation= BEEF-VDW
                           (   1   4  43  14   2   0   0)
     Any further DFT definition will be discarded
     Please, verify this is what you really want

  @ DRIVER MODE: Connecting to
 qe_1139763_2767376.sched-torque.pace.gatech.edumiedm0s6_scratch
  using UNIX socket
  @ DRIVER MODE: Message from server: STATUS
  @ DRIVER MODE: Message from server: INIT
  @ DRIVER MODE: Receiving replica           0          -1
  @ DRIVER MODE: Receiving encoded integer          25
  @ DRIVER MODE:  SCF:  T  FORCE:  T  STRESS:  F  VC:  F  ENSEMBLE:  F
  @ DRIVER MODE:  SCF:  T  FORCE:  T  STRESS:  F  VC:  F  ENSEMBLE:  F

     Using Slab Decomposition

     bravais-lattice index     =            0
     lattice parameter (alat)  =       1.8897  a.u.
     unit-cell volume          =    6658.9804 (a.u.)^3
     number of atoms/cell      =           52
     number of atomic types    =            5
     number of electrons       =       394.00
     number of Kohn-Sham states=          207
     kinetic-energy cutoff     =      29.3995  Ry
     charge density cutoff     =     293.9946  Ry
     scf convergence threshold =      7.3E-08
     mixing beta               =       0.0500
     number of iterations used =            8  plain     mixing
     Exchange-correlation= BEEF-VDW
                           (   1   4  43  14   2   0   0)

     celldm(1)=   1.889726  celldm(2)=   0.000000  celldm(3)=   0.000000
     celldm(4)=   0.000000  celldm(5)=   0.000000  celldm(6)=   0.000000

     crystal axes: (cart. coord. in units of alat)
               a(1) = (   6.579727   0.000000   0.000000 )
               a(2) = (  -0.000775   5.961596   0.000000 )
               a(3) = (   0.000000   0.000000  25.155947 )

     reciprocal axes: (cart. coord. in units 2 pi/alat)
               b(1) = (  0.151982  0.000020  0.000000 )
               b(2) = (  0.000000  0.167740  0.000000 )
               b(3) = (  0.000000  0.000000  0.039752 )

     PseudoPot. # 1 for Ti read from file:
     /storage/coda1/p-amedford6/0/shared/rich_project_chbe-medford/medford-share/data/pseudos_module/espresso/nninc/pbe/van/Ti.UPF
     MD5 check sum: 8e4df49b7f0d34bbd5052bf3f5ea0213
     Pseudo is Ultrasoft, Zval = 12.0
     Generated by new atomic code, or converted to UPF format
     Using radial grid of  851 points,  6 beta functions with:
                l(1) =   0
                l(2) =   0
                l(3) =   1
                l(4) =   1
                l(5) =   2
                l(6) =   2
     Q(r) pseudized with  8 coefficients,  rinner =    1.000   1.000   1.000
                                                       1.000   1.000

     PseudoPot. # 2 for O  read from file:
     /storage/coda1/p-amedford6/0/shared/rich_project_chbe-medford/medford-share/data/pseudos_module/espresso/nninc/pbe/van/O.UPF
     MD5 check sum: 78c19812648e8988a0fe644b0f25305e
     Pseudo is Ultrasoft, Zval =  6.0
     Generated by new atomic code, or converted to UPF format
     Using radial grid of  737 points,  4 beta functions with:
                l(1) =   0
                l(2) =   0
                l(3) =   1
                l(4) =   1
     Q(r) pseudized with  8 coefficients,  rinner =    0.800   0.800   0.800

     PseudoPot. # 3 for N  read from file:
     /storage/coda1/p-amedford6/0/shared/rich_project_chbe-medford/medford-share/data/pseudos_module/espresso/nninc/pbe/van/N.UPF
     MD5 check sum: 90d10febe142ad51ac9d5be1deb811c4
     Pseudo is Ultrasoft, Zval =  5.0
     Generated by new atomic code, or converted to UPF format
     Using radial grid of  729 points,  4 beta functions with:
                l(1) =   0
                l(2) =   0
                l(3) =   1
                l(4) =   1
     Q(r) pseudized with  8 coefficients,  rinner =    0.800   0.800   0.800

     PseudoPot. # 4 for C  read from file:
     /storage/coda1/p-amedford6/0/shared/rich_project_chbe-medford/medford-share/data/pseudos_module/espresso/nninc/pbe/van/C.UPF
     MD5 check sum: 1a69bf6b8db32088f5b2163dbdb77a27
     Pseudo is Ultrasoft, Zval =  4.0
     Generated by new atomic code, or converted to UPF format
     Using radial grid of  721 points,  4 beta functions with:
                l(1) =   0
                l(2) =   0
                l(3) =   1
                l(4) =   1
     Q(r) pseudized with  8 coefficients,  rinner =    0.800   0.800   0.800

     PseudoPot. # 5 for H  read from file:
     /storage/coda1/p-amedford6/0/shared/rich_project_chbe-medford/medford-share/data/pseudos_module/espresso/nninc/pbe/van/H.UPF
     MD5 check sum: b5ee9d7bfd3a09ee7748110bda690ff7
     Pseudo is Ultrasoft, Zval =  1.0
     Generated by new atomic code, or converted to UPF format
     Using radial grid of  615 points,  1 beta functions with:
                l(1) =   0
     Q(r) pseudized with  8 coefficients,  rinner =    0.800

     atomic species   valence    mass     pseudopotential
        Ti1           12.00    47.86700     Ti( 1.00)
        O1             6.00    15.99900     O ( 1.00)
        N1             5.00    14.00700     N ( 1.00)
        C1             4.00    12.01100     C ( 1.00)
        H1             1.00     1.00800     H ( 1.00)

     No symmetry found

   Cartesian axes

     site n.     atom                  positions (alat units)
         1           Ti1 tau(   1) = (   0.0004258   2.9801865   6.0000000  )
         2           Ti1 tau(   2) = (   3.2906075   1.4906267   6.0002472  )
         3           O1  tau(   3) = (   0.0006271   0.0005054   7.9858123  )
         4           O1  tau(   4) = (   3.2906025   0.0005020   7.3038282  )
         5           O1  tau(   5) = (   4.5942328   1.4918067   9.2879030  )
         6           O1  tau(   6) = (   1.9868534   1.4903216   9.2879459  )
         7           Ti1 tau(   7) = (   3.2907910   2.8959150   9.1758416  )
         8           Ti1 tau(   8) = (   0.0015273   1.4827037   9.2680791  )
         9           O1  tau(   9) = (   3.3079035   5.9465650  11.3667630  )
        10           O1  tau(  10) = (   0.0116148   5.9584955  10.6183126  )
        11           O1  tau(  11) = (   1.3159687   1.4802111  12.6598234  )
        12           O1  tau(  12) = (   5.3141237   1.4785834  12.6569702  )
        13           Ti1 tau(  13) = (   0.0356438   2.9569522  12.5500042  )
        14           Ti1 tau(  14) = (   3.3321116   1.4682926  12.5176941  )
        15           O1  tau(  15) = (   0.0287262   5.9365737  14.6848071  )
        16           O1  tau(  16) = (   3.3260766   5.9477468  13.9918032  )
        17           O1  tau(  17) = (   4.5788076   1.5006004  16.1778977  )
        18           O1  tau(  18) = (   2.0653823   1.4932191  16.1519216  )
        19           Ti1 tau(  19) = (   3.3252840   2.9629899  15.7366588  )
        20           Ti1 tau(  20) = (   0.0567170   1.3280226  15.9864722  )
        21           O1  tau(  21) = (   3.2904802   0.0005063   4.7018136  )
        22           O1  tau(  22) = (   0.0395201   5.9563027  17.2132275  )
        23           O1  tau(  23) = (   1.3043587   1.4918075   6.0039043  )
        24           O1  tau(  24) = (   5.2767064   1.4903225   6.0039473  )
        25           Ti1 tau(  25) = (   0.0000382   5.9609847   6.0000000  )
        26           Ti1 tau(  26) = (   3.2902200   4.4714249   6.0002472  )
        27           O1  tau(  27) = (   0.0002396   2.9813036   7.9858123  )
        28           O1  tau(  28) = (   3.2902150   2.9813002   7.3038282  )
        29           O1  tau(  29) = (   4.5938453   4.4726049   9.2879030  )
        30           O1  tau(  30) = (   1.9864658   4.4711199   9.2879459  )
        31           Ti1 tau(  31) = (   3.2891106   5.8743827   9.1763621  )
        32           Ti1 tau(  32) = (   0.0006254   4.4649316   9.2693709  )
        33           O1  tau(  33) = (   3.3109971   2.9638951  11.3609806  )
        34           O1  tau(  34) = (   0.0092240   2.9805883  10.6323155  )
        35           O1  tau(  35) = (   1.3172493   4.4579999  12.6547637  )
        36           O1  tau(  36) = (   5.3123203   4.4599931  12.6537913  )
        37           Ti1 tau(  37) = (   0.0349292   5.9384232  12.5038109  )
        38           Ti1 tau(  38) = (   3.3308216   4.4462378  12.5132791  )
        39           O1  tau(  39) = (   0.0262156   2.9786664  14.8481040  )
        40           O1  tau(  40) = (   3.3240488   2.9673873  13.9486158  )
        41           O1  tau(  41) = (   4.5778164   4.4375445  16.1741249  )
        42           O1  tau(  42) = (   2.0647505   4.4412733  16.1578575  )
        43           Ti1 tau(  43) = (   3.3314326   5.9455663  15.7867969  )
        44           Ti1 tau(  44) = (   0.0345939   4.5236910  15.9072353  )
        45           O1  tau(  45) = (   3.2900926   2.9813045   4.7018136  )
        46           O1  tau(  46) = (   1.3039711   4.4726057   6.0039043  )
        47           O1  tau(  47) = (   5.2763189   4.4711207   6.0039473  )
        48           N1  tau(  48) = (   0.8843530   3.1395628  18.6524426  )
        49           C1  tau(  49) = (   1.8908588   3.1194352  19.2834450  )
        50           H1  tau(  50) = (   2.4245030   3.8971110  19.8100181  )
        51           N1  tau(  51) = (   6.5588057   2.9807634  17.7841789  )
        52           H1  tau(  52) = (   5.6332114   2.8891999  18.2270943  )

     number of k points=    10  Fermi-Dirac smearing, width (Ry)=  0.0073
                       cart. coord. in units 2pi/alat
        k(    1) = (   0.0000000   0.0000000   0.0000000), wk =   0.1250000
        k(    2) = (   0.0000000   0.0419351   0.0000000), wk =   0.2500000
        k(    3) = (   0.0000000  -0.0838702   0.0000000), wk =   0.1250000
        k(    4) = (   0.0379955   0.0000049   0.0000000), wk =   0.2500000
        k(    5) = (   0.0379955   0.0419400   0.0000000), wk =   0.2500000
        k(    6) = (   0.0379955  -0.0838652   0.0000000), wk =   0.2500000
        k(    7) = (   0.0379955  -0.0419301   0.0000000), wk =   0.2500000
        k(    8) = (  -0.0759910  -0.0000099   0.0000000), wk =   0.1250000
        k(    9) = (  -0.0759910   0.0419252   0.0000000), wk =   0.2500000
        k(   10) = (  -0.0759910  -0.0838800   0.0000000), wk =   0.1250000

     Initial potential from superposition of free atoms

     starting charge  377.99917, renormalised to  394.00000

     negative rho (up, down):  1.653E-02 0.000E+00

     %%%%%%%%%%%%%%%%%%%%%%%%%%%%%%%%%%%%%%%%%%%%%%%%%%%%%%%%%%%%%%%%%%%%%%%%
     %                                                                      %
     % You are using vdW-DF, which was implemented by the Thonhauser group. %
     % Please cite the following two papers that made this development      %
     % possible and the two reviews that describe the various versions:     %
     %                                                                      %
     %   T. Thonhauser et al., PRL 115, 136402 (2015).                      %
     %   T. Thonhauser et al., PRB 76, 125112 (2007).                       %
     %   K. Berland et al., Rep. Prog. Phys. 78, 066501 (2015).             %
     %   D.C. Langreth et al., J. Phys.: Condens. Matter 21, 084203 (2009). %
     %                                                                      %
     %                                                                      %
     % If you are calculating the stress with vdW-DF, please also cite:     %
     %                                                                      %
     %   R. Sabatini et al., J. Phys.: Condens. Matter 24, 424209 (2012).   %
     %                                                                      %
     %%%%%%%%%%%%%%%%%%%%%%%%%%%%%%%%%%%%%%%%%%%%%%%%%%%%%%%%%%%%%%%%%%%%%%%%

     Adding external electric field

     Computed dipole along edir(3) :
        Dipole               -8.4995 Ry au,        -21.6035 Debye
        Dipole field         -0.0160 Ry au,

        Potential amp.        1.4869 Ry
        Total length         46.3494 bohr

     Starting wfcs are  298 atomic wfcs
  @ DRIVER MODE: Message from server: STATUS
  @ DRIVER MODE: Message from server: POSDATA
  @ DRIVER MODE: Reading and sharing cell
  @ DRIVER MODE: Reading and sharing positions
  @ DRIVER MODE: Received positions

     Self-consistent Calculation

     iteration #  1     ecut=    29.40 Ry     beta= 0.05
     Davidson diagonalization with overlap
     c_bands:  1 eigenvalues not converged
     c_bands:  1 eigenvalues not converged
     c_bands:  2 eigenvalues not converged
     c_bands:  2 eigenvalues not converged
     c_bands:  2 eigenvalues not converged
     c_bands:  1 eigenvalues not converged
     ethr =  1.00E-05,  avg # of iterations = 19.0

[...]

     total energy              =   -2624.28874546 Ry
     estimated scf accuracy    <    3488.39942109 Ry

[...]

     iteration #  3     ecut=    29.40 Ry     beta= 0.05
     Davidson diagonalization with overlap
     ethr =  1.00E-02,  avg # of iterations = 15.0

[...]

     iteration # 79     ecut=    29.40 Ry     beta= 0.05
     Davidson diagonalization with overlap
     ethr =  6.54E-11,  avg # of iterations =  2.3

[...]

     total energy              =   -2937.80847272 Ry
     estimated scf accuracy    <       0.00000018 Ry

     iteration # 80     ecut=    29.40 Ry     beta= 0.05
     Davidson diagonalization with overlap
     c_bands:  1 eigenvalues not converged
     ethr =  4.51E-11,  avg # of iterations = 10.2

     negative rho (up, down):  1.628E-02 0.000E+00

     Adding external electric field

     Computed dipole along edir(3) :
        Dipole                1.2924 Ry au,          3.2850 Debye
        Dipole field          0.0024 Ry au,

        Potential amp.       -0.2261 Ry
        Total length         46.3494 bohr

     End of self-consistent calculation

          k = 0.0000 0.0000 0.0000 ( 18029 PWs)   bands (ev):

   -55.4351 -55.3991 -55.3988 -55.3647 -55.3287 -55.3128 -55.2697 -55.2481
   -55.2438 -55.2331 -55.2255 -55.2136 -55.1922 -55.1656 -54.4170 -54.3829
   -32.0042 -31.8894 -31.8290 -31.7986 -31.7546 -31.7469 -31.7373 -31.7284
   -31.6884 -31.6819 -31.6443 -31.6433 -31.6362 -31.6089 -31.5896 -31.5712
   -31.5671 -31.5608 -31.5522 -31.5467 -31.5121 -31.5108 -31.5016 -31.4930
   -31.4785 -31.4559 -31.4504 -31.4487 -31.4436 -31.4395 -31.4365 -31.4222
   -31.4143 -31.4079 -31.4023 -31.3973 -31.3759 -31.3627 -31.3608 -31.3549
   -31.3342 -31.2727 -30.8259 -30.7330 -30.7109 -30.6424 -30.5556 -30.4447
   -20.2237 -16.2499 -15.9776 -15.8338 -15.7103 -15.6256 -15.4988 -15.4597
   -15.3416 -15.3302 -15.2274 -15.1519 -15.0848 -15.0827 -15.0659 -15.0379
   -14.9871 -14.9705 -14.9679 -14.9256 -14.9234 -14.8815 -14.8620 -14.8280
   -14.8101 -14.7912 -14.7742 -14.6513 -14.5819 -14.5231 -14.1621 -12.9200
   -12.8028  -8.7783  -7.1482  -5.4278  -4.7203  -3.5949  -3.4351  -3.3482
    -3.3317  -3.3296  -3.1632  -3.0354  -2.8079  -2.7708  -2.6965  -2.6421
    -2.6241  -2.6022  -2.4246  -2.4002  -2.3405  -2.3135  -2.2757  -2.2455
    -2.2207  -2.2010  -2.1932  -2.1747  -2.1611  -2.0001  -1.9015  -1.8707
    -1.8352  -1.8210  -1.7614  -1.7284  -1.7227  -1.7205  -1.7116  -1.6684
    -1.6494  -1.6009  -1.4995  -1.4679  -1.4420  -1.3171  -1.3008  -1.1534
    -1.0679  -0.9833  -0.9760  -0.9092  -0.9038  -0.8702  -0.8190  -0.7946
    -0.7706  -0.6370  -0.5666  -0.5093  -0.4943  -0.4496  -0.4044  -0.3685
    -0.2753  -0.2109  -0.2032  -0.1912  -0.0265  -0.0121   0.0348   0.0842
     0.1090   0.1575   0.1831   0.2521   0.2861   0.3316   0.3618   0.4585
     0.4986   0.5186   0.5325   0.5519   0.5643   0.6246   0.6914   0.7099
     0.7582   0.8151   0.9262   1.1235   1.1857   1.1987   1.5149   1.5490
     1.6052   1.7905   2.1802   2.2279   3.6649   3.7364   3.8003   3.8152
     3.8240   3.9005   4.0782   4.1481   4.1639   4.1705   4.1817

[...]

          k = 0.0380-0.0419 0.0000 ( 17876 PWs)   bands (ev):

[...]

          k =-0.0760-0.0000 0.0000 ( 17886 PWs)   bands (ev):

[...]

          k =-0.0760-0.0839 0.0000 ( 17948 PWs)   bands (ev):

   -55.4182 -55.4158 -55.3818 -55.3815 -55.3254 -55.3044 -55.2781 -55.2394
   -55.2363 -55.2316 -55.2294 -55.2092 -55.2089 -55.1698 -54.4000 -54.3998
   -31.8091 -31.8062 -31.7475 -31.7278 -31.7046 -31.7044 -31.6928 -31.6739
   -31.6737 -31.6458 -31.6364 -31.6309 -31.6278 -31.5875 -31.5656 -31.5624
   -31.5623 -31.5544 -31.5539 -31.5434 -31.5306 -31.5213 -31.5109 -31.5072
   -31.5030 -31.5014 -31.5010 -31.4963 -31.4725 -31.4648 -31.4643 -31.4622
   -31.4453 -31.4427 -31.4426 -31.4335 -31.4321 -31.4272 -31.3893 -31.3889
   -31.3837 -31.3641 -30.7236 -30.7235 -30.6385 -30.6383 -30.5990 -30.5990
   -20.2224 -15.7054 -15.6851 -15.6262 -15.4200 -15.4172 -15.4055 -15.3914
   -15.3617 -15.2329 -15.2130 -15.1978 -15.1799 -15.1376 -15.1342 -15.1187
   -15.1090 -15.0087 -15.0065 -15.0044 -15.0030 -14.9407 -14.9327 -14.9189
   -14.8844 -14.8813 -14.8522 -14.7823 -14.7794 -14.6470 -14.4826 -12.9044
   -12.9043  -8.7631  -7.1684  -5.4264  -4.7039  -2.9605  -2.8902  -2.8471
    -2.6375  -2.6148  -2.6000  -2.5171  -2.4679  -2.4059  -2.3984  -2.3923
    -2.3327  -2.2975  -2.2841  -2.2657  -2.2576  -2.2407  -2.2188  -2.2078
    -2.1621  -2.1505  -2.1408  -2.1063  -2.0926  -2.0741  -2.0495  -2.0315
    -2.0158  -2.0102  -1.9903  -1.8302  -1.7786  -1.7321  -1.6795  -1.6717
    -1.6272  -1.6196  -1.5256  -1.4909  -1.4620  -1.4348  -1.4261  -1.2346
    -1.2195  -1.1667  -1.1622  -1.1386  -0.9824  -0.9626  -0.9468  -0.9296
    -0.8841  -0.8013  -0.7957  -0.7577  -0.6504  -0.6205  -0.6126  -0.5634
    -0.4427  -0.4200  -0.3980  -0.3921  -0.3863  -0.2931  -0.2759  -0.2670
    -0.2349  -0.2015  -0.1507  -0.1444  -0.0916   0.0908   0.1355   0.2008
     0.2800   0.4495   0.4881   0.5149   0.5563   0.6175   0.6906   0.7070
     0.7714   0.8653   0.8800   0.9097   0.9822   1.0352   1.0431   1.0674
     1.9633   1.9640   2.0478   2.0480   3.8340   3.8468   3.9087   3.9455
     3.9948   4.0845   4.1839   4.1998   4.2443   4.2452   4.3244

     the Fermi energy is     3.7188 ev

!    total energy              =   -2937.80847944 Ry
     estimated scf accuracy    <       0.00000006 Ry
     smearing contrib. (-TS)   =      -0.03813954 Ry
     internal energy E=F+TS    =   -2937.77033990 Ry

     The total energy is F=E-TS. E is the sum of the following terms:
     one-electron contribution =  -24092.18593707 Ry
     hartree contribution      =   12136.15960497 Ry
     xc contribution           =    -484.37779719 Ry
     ewald contribution        =    9502.63063715 Ry
     electric field correction =       0.00315224 Ry

     convergence has been achieved in  80 iterations

     Forces acting on atoms (cartesian axes, Ry/au):

     atom    1 type  1   force =     0.00005939   -0.00012096    0.09405489
     atom    2 type  1   force =    -0.00016501   -0.00023257   -0.17761801
     atom    3 type  2   force =     0.00011011   -0.00020949   -0.02138993
     atom    4 type  2   force =     0.00002579   -0.00184016    0.05752507
     atom    5 type  2   force =    -0.01067674   -0.00139558    0.00632774
     atom    6 type  2   force =     0.01274362   -0.00074907    0.00661221
     atom    7 type  1   force =     0.00011750    0.00196969   -0.01405257
     atom    8 type  1   force =    -0.00046964    0.00581014    0.00395896
     atom    9 type  2   force =     0.00036252    0.00022716   -0.00008156
     atom   10 type  2   force =    -0.00024058    0.00021478   -0.00512249
     atom   11 type  2   force =     0.00005939   -0.00015395   -0.00044271
     atom   12 type  2   force =    -0.00029926    0.00000694    0.00009263
     atom   13 type  1   force =    -0.00025376    0.00001655   -0.00028869
     atom   14 type  1   force =    -0.00008853    0.00015359   -0.00016261
     atom   15 type  2   force =    -0.00049680   -0.00041115   -0.00017630
     atom   16 type  2   force =    -0.00018312    0.00019039    0.00005086
     atom   17 type  2   force =     0.00000883   -0.00016636   -0.00010115
     atom   18 type  2   force =    -0.00044878   -0.00011725   -0.00046101
     atom   19 type  1   force =    -0.00024678    0.00013468   -0.00030299
     atom   20 type  1   force =    -0.00028929   -0.00009758    0.00065623
     atom   21 type  2   force =     0.00001858    0.00002281    0.10380340
     atom   22 type  2   force =     0.00003020    0.00009349   -0.00009088
     atom   23 type  2   force =    -0.07062849   -0.00008019   -0.02702718
     atom   24 type  2   force =     0.07052159    0.00036163   -0.02707970
     atom   25 type  1   force =     0.00000896   -0.00008099    0.09369152
     atom   26 type  1   force =    -0.00013262   -0.00015501   -0.17768480
     atom   27 type  2   force =     0.00013441   -0.00023511   -0.02037574
     atom   28 type  2   force =     0.00006833   -0.00155208    0.05700022
     atom   29 type  2   force =    -0.01101449   -0.00053745    0.00635144
     atom   30 type  2   force =     0.01293564   -0.00027356    0.00664466
     atom   31 type  1   force =     0.00029757    0.00520902   -0.01483369
     atom   32 type  1   force =    -0.00040167   -0.00655772    0.00412807
     atom   33 type  2   force =     0.00015724    0.00008233   -0.00031438
     atom   34 type  2   force =     0.00035861   -0.00101924   -0.00204515
     atom   35 type  2   force =    -0.00030354    0.00015313   -0.00020608
     atom   36 type  2   force =    -0.00005010    0.00000160    0.00012206
     atom   37 type  1   force =    -0.00007332    0.00023572   -0.00014512
     atom   38 type  1   force =     0.00006406    0.00024941    0.00021161
     atom   39 type  2   force =    -0.00006839    0.00020236    0.00009343
     atom   40 type  2   force =    -0.00029729    0.00009525   -0.00021650
     atom   41 type  2   force =    -0.00017879   -0.00008187    0.00011220
     atom   42 type  2   force =    -0.00026215    0.00014324   -0.00017260
     atom   43 type  1   force =    -0.00017330    0.00012317   -0.00016530
     atom   44 type  1   force =    -0.00003782   -0.00037359   -0.00007672
     atom   45 type  2   force =     0.00001402   -0.00000393    0.10378622
     atom   46 type  2   force =    -0.07064957   -0.00003634   -0.02704203
     atom   47 type  2   force =     0.07052591    0.00040434   -0.02707773
     atom   48 type  3   force =    -0.00109052   -0.00026593    0.00043782
     atom   49 type  4   force =    -0.00093662    0.00045380   -0.00019551
     atom   50 type  5   force =    -0.00003264   -0.00009580   -0.00027986
     atom   51 type  3   force =    -0.01096832   -0.00135126    0.00417250
     atom   52 type  5   force =     0.01253563    0.00163897   -0.00460479

     Total force =     0.366383     Total SCF correction =     0.000600
  @ DRIVER MODE: Message from server: STATUS
  @ DRIVER MODE: Message from server: GETFORCE
  @ DRIVER MODE: Returning v,forces,stress,ensemble

     Writing output data file ./calc.save/
  @ DRIVER MODE: Message from server: EXIT
  @ DRIVE MODE: Exiting

     General routines

     Parallel routines

   This run was terminated on:   6:28:53   9Sep2021

   JOB DONE.