     Program PWSCF v.6.7GPU starts on 23Aug2021 at 16:50:51

     R & G space division:  proc/nbgrp/npool/nimage =       6
     Reading input from /storage/home/hcoda1/3/ntian30/research/carbon/CH2_vib/ads_slab/CH2N2_b/out_0009/pw.inp
Warning: card &CELL ignored
Warning: card   CELL_DYNAMICS='IPI', ignored
Warning: card / ignored

     Current dimensions of program PWSCF are:
     Max number of different atomic species (ntypx) = 10
     Max number of k-points (npk) =  40000
     Max angular momentum in pseudopotentials (lmaxx) =  3
     Presently no symmetry can be used with electric field

     Message from routine cell_base_init:
     DEPRECATED: use true lattice parameter, not A to a.u. conversion factor

     IMPORTANT: XC functional enforced from input :
     Exchange-correlation= BEEF-VDW
                           (   1   4  43  14   2   0   0)
     Any further DFT definition will be discarded
     Please, verify this is what you really want

  @ DRIVER MODE: Connecting to
 qe_1139763_2632805.sched-torque.pace.gatech.eduqb7fe9qy_scratch
  using UNIX socket
  @ DRIVER MODE: Message from server: STATUS
  @ DRIVER MODE: Message from server: INIT
  @ DRIVER MODE: Receiving replica           0          -1
  @ DRIVER MODE: Receiving encoded integer          25
  @ DRIVER MODE:  SCF:  T  FORCE:  T  STRESS:  F  VC:  F  ENSEMBLE:  F
  @ DRIVER MODE:  SCF:  T  FORCE:  T  STRESS:  F  VC:  F  ENSEMBLE:  F

     Using Slab Decomposition

     bravais-lattice index     =            0
     lattice parameter (alat)  =       1.8897  a.u.
     unit-cell volume          =    6658.9804 (a.u.)^3
     number of atoms/cell      =           52
     number of atomic types    =            5
     number of electrons       =       394.00
     number of Kohn-Sham states=          207
     kinetic-energy cutoff     =      29.3995  Ry
     charge density cutoff     =     293.9946  Ry
     scf convergence threshold =      7.3E-08
     mixing beta               =       0.0500
     number of iterations used =            8  plain     mixing
     Exchange-correlation= BEEF-VDW
                           (   1   4  43  14   2   0   0)

     celldm(1)=   1.889726  celldm(2)=   0.000000  celldm(3)=   0.000000
     celldm(4)=   0.000000  celldm(5)=   0.000000  celldm(6)=   0.000000

     crystal axes: (cart. coord. in units of alat)
               a(1) = (   6.579727   0.000000   0.000000 )
               a(2) = (  -0.000775   5.961596   0.000000 )
               a(3) = (   0.000000   0.000000  25.155947 )

     reciprocal axes: (cart. coord. in units 2 pi/alat)
               b(1) = (  0.151982  0.000020  0.000000 )
               b(2) = (  0.000000  0.167740  0.000000 )
               b(3) = (  0.000000  0.000000  0.039752 )

     PseudoPot. # 1 for Ti read from file:
     /storage/coda1/p-amedford6/0/shared/rich_project_chbe-medford/medford-share/data/pseudos_module/espresso/nninc/pbe/van/Ti.UPF
     MD5 check sum: 8e4df49b7f0d34bbd5052bf3f5ea0213
     Pseudo is Ultrasoft, Zval = 12.0
     Generated by new atomic code, or converted to UPF format
     Using radial grid of  851 points,  6 beta functions with:
                l(1) =   0
                l(2) =   0
                l(3) =   1
                l(4) =   1
                l(5) =   2
                l(6) =   2
     Q(r) pseudized with  8 coefficients,  rinner =    1.000   1.000   1.000
                                                       1.000   1.000

     PseudoPot. # 2 for O  read from file:
     /storage/coda1/p-amedford6/0/shared/rich_project_chbe-medford/medford-share/data/pseudos_module/espresso/nninc/pbe/van/O.UPF
     MD5 check sum: 78c19812648e8988a0fe644b0f25305e
     Pseudo is Ultrasoft, Zval =  6.0
     Generated by new atomic code, or converted to UPF format
     Using radial grid of  737 points,  4 beta functions with:
                l(1) =   0
                l(2) =   0
                l(3) =   1
                l(4) =   1
     Q(r) pseudized with  8 coefficients,  rinner =    0.800   0.800   0.800

     PseudoPot. # 3 for N  read from file:
     /storage/coda1/p-amedford6/0/shared/rich_project_chbe-medford/medford-share/data/pseudos_module/espresso/nninc/pbe/van/N.UPF
     MD5 check sum: 90d10febe142ad51ac9d5be1deb811c4
     Pseudo is Ultrasoft, Zval =  5.0
     Generated by new atomic code, or converted to UPF format
     Using radial grid of  729 points,  4 beta functions with:
                l(1) =   0
                l(2) =   0
                l(3) =   1
                l(4) =   1
     Q(r) pseudized with  8 coefficients,  rinner =    0.800   0.800   0.800

     PseudoPot. # 4 for C  read from file:
     /storage/coda1/p-amedford6/0/shared/rich_project_chbe-medford/medford-share/data/pseudos_module/espresso/nninc/pbe/van/C.UPF
     MD5 check sum: 1a69bf6b8db32088f5b2163dbdb77a27
     Pseudo is Ultrasoft, Zval =  4.0
     Generated by new atomic code, or converted to UPF format
     Using radial grid of  721 points,  4 beta functions with:
                l(1) =   0
                l(2) =   0
                l(3) =   1
                l(4) =   1
     Q(r) pseudized with  8 coefficients,  rinner =    0.800   0.800   0.800

     PseudoPot. # 5 for H  read from file:
     /storage/coda1/p-amedford6/0/shared/rich_project_chbe-medford/medford-share/data/pseudos_module/espresso/nninc/pbe/van/H.UPF
     MD5 check sum: b5ee9d7bfd3a09ee7748110bda690ff7
     Pseudo is Ultrasoft, Zval =  1.0
     Generated by new atomic code, or converted to UPF format
     Using radial grid of  615 points,  1 beta functions with:
                l(1) =   0
     Q(r) pseudized with  8 coefficients,  rinner =    0.800

     atomic species   valence    mass     pseudopotential
        Ti1           12.00    47.86700     Ti( 1.00)
        O1             6.00    15.99900     O ( 1.00)
        N1             5.00    14.00700     N ( 1.00)
        C1             4.00    12.01100     C ( 1.00)
        H1             1.00     1.00800     H ( 1.00)

     No symmetry found

   Cartesian axes

     site n.     atom                  positions (alat units)
         1           Ti1 tau(   1) = (   0.0004258   2.9801865   6.0000000  )
         2           Ti1 tau(   2) = (   3.2906075   1.4906267   6.0002472  )
         3           O1  tau(   3) = (   0.0006271   0.0005054   7.9858123  )
         4           O1  tau(   4) = (   3.2906025   0.0005020   7.3038282  )
         5           O1  tau(   5) = (   4.5942328   1.4918067   9.2879030  )
         6           O1  tau(   6) = (   1.9868534   1.4903216   9.2879459  )
         7           Ti1 tau(   7) = (   3.2907910   2.8959150   9.1758416  )
         8           Ti1 tau(   8) = (   0.0015273   1.4827037   9.2680791  )
         9           O1  tau(   9) = (   3.2944872   5.9444814  11.3088555  )
        10           O1  tau(  10) = (   0.0116148   5.9584955  10.6183126  )
        11           O1  tau(  11) = (   1.2913257   1.4757505  12.6225222  )
        12           O1  tau(  12) = (   5.2743172   1.4729811  12.6021195  )
        13           Ti1 tau(  13) = (   0.0890023   2.9564894  12.7220187  )
        14           Ti1 tau(  14) = (   3.4221593   1.4702301  12.4648352  )
        15           O1  tau(  15) = (   0.0068176   5.9411714  14.5947238  )
        16           O1  tau(  16) = (   3.2944910   5.9492763  13.8828731  )
        17           O1  tau(  17) = (   4.5250581   1.4982466  16.0456249  )
        18           O1  tau(  18) = (   2.0665045   1.4881935  16.0281199  )
        19           Ti1 tau(  19) = (   3.2778778   2.9684174  15.6871799  )
        20           Ti1 tau(  20) = (   6.5490154   1.5309925  16.0314916  )
        21           O1  tau(  21) = (   3.2904802   0.0005063   4.7018136  )
        22           O1  tau(  22) = (   0.0123181   0.0076990  17.1679072  )
        23           O1  tau(  23) = (   1.3043587   1.4918075   6.0039043  )
        24           O1  tau(  24) = (   5.2767064   1.4903225   6.0039473  )
        25           Ti1 tau(  25) = (   0.0000382   5.9609847   6.0000000  )
        26           Ti1 tau(  26) = (   3.2902200   4.4714249   6.0002472  )
        27           O1  tau(  27) = (   0.0002396   2.9813036   7.9858123  )
        28           O1  tau(  28) = (   3.2902150   2.9813002   7.3038282  )
        29           O1  tau(  29) = (   4.5938453   4.4726049   9.2879030  )
        30           O1  tau(  30) = (   1.9864658   4.4711199   9.2879459  )
        31           Ti1 tau(  31) = (   3.2891106   5.8743827   9.1763621  )
        32           Ti1 tau(  32) = (   0.0006254   4.4649316   9.2693709  )
        33           O1  tau(  33) = (   3.2980042   2.9668427  11.3079272  )
        34           O1  tau(  34) = (   0.0092240   2.9805883  10.6323155  )
        35           O1  tau(  35) = (   1.2899229   4.4488879  12.6271902  )
        36           O1  tau(  36) = (   5.2743549   4.4545148  12.6090941  )
        37           Ti1 tau(  37) = (   0.1039690   5.9375691  12.6739196  )
        38           Ti1 tau(  38) = (   3.4213609   4.4493060  12.4702176  )
        39           O1  tau(  39) = (   6.5648181   2.9459624  14.6378081  )
        40           O1  tau(  40) = (   3.2943236   2.9658899  13.8785053  )
        41           O1  tau(  41) = (   4.5287159   4.4634493  16.0515226  )
        42           O1  tau(  42) = (   2.0597896   4.4749507  16.0164256  )
        43           Ti1 tau(  43) = (   3.2714021   5.9517381  15.6902239  )
        44           Ti1 tau(  44) = (   6.5616293   4.5902425  16.0297769  )
        45           O1  tau(  45) = (   3.2900926   2.9813045   4.7018136  )
        46           O1  tau(  46) = (   1.3039711   4.4726057   6.0039043  )
        47           O1  tau(  47) = (   5.2763189   4.4711207   6.0039473  )
        48           N1  tau(  48) = (   0.6459789   3.0609845  18.5091170  )
        49           N1  tau(  49) = (   0.0956274   2.9659187  17.3381616  )
        50           C1  tau(  50) = (   0.0579326   3.2697647  19.6266723  )
        51           H1  tau(  51) = (   5.5568954   3.3836083  19.7010695  )
        52           H1  tau(  52) = (   0.6727643   3.3288843  20.5134281  )

     number of k points=    10  Fermi-Dirac smearing, width (Ry)=  0.0073
                       cart. coord. in units 2pi/alat
        k(    1) = (   0.0000000   0.0000000   0.0000000), wk =   0.1250000
        k(    2) = (   0.0000000   0.0419351   0.0000000), wk =   0.2500000
        k(    3) = (   0.0000000  -0.0838702   0.0000000), wk =   0.1250000
        k(    4) = (   0.0379955   0.0000049   0.0000000), wk =   0.2500000
        k(    5) = (   0.0379955   0.0419400   0.0000000), wk =   0.2500000
        k(    6) = (   0.0379955  -0.0838652   0.0000000), wk =   0.2500000
        k(    7) = (   0.0379955  -0.0419301   0.0000000), wk =   0.2500000
        k(    8) = (  -0.0759910  -0.0000099   0.0000000), wk =   0.1250000
        k(    9) = (  -0.0759910   0.0419252   0.0000000), wk =   0.2500000
        k(   10) = (  -0.0759910  -0.0838800   0.0000000), wk =   0.1250000

     Initial potential from superposition of free atoms

     starting charge  377.99917, renormalised to  394.00000

     negative rho (up, down):  1.509E-02 0.000E+00

     %%%%%%%%%%%%%%%%%%%%%%%%%%%%%%%%%%%%%%%%%%%%%%%%%%%%%%%%%%%%%%%%%%%%%%%%
     %                                                                      %
     % You are using vdW-DF, which was implemented by the Thonhauser group. %
     % Please cite the following two papers that made this development      %
     % possible and the two reviews that describe the various versions:     %
     %                                                                      %
     %   T. Thonhauser et al., PRL 115, 136402 (2015).                      %
     %   T. Thonhauser et al., PRB 76, 125112 (2007).                       %
     %   K. Berland et al., Rep. Prog. Phys. 78, 066501 (2015).             %
     %   D.C. Langreth et al., J. Phys.: Condens. Matter 21, 084203 (2009). %
     %                                                                      %
     %                                                                      %
     % If you are calculating the stress with vdW-DF, please also cite:     %
     %                                                                      %
     %   R. Sabatini et al., J. Phys.: Condens. Matter 24, 424209 (2012).   %
     %                                                                      %
     %%%%%%%%%%%%%%%%%%%%%%%%%%%%%%%%%%%%%%%%%%%%%%%%%%%%%%%%%%%%%%%%%%%%%%%%

     Adding external electric field

     Computed dipole along edir(3) :
        Dipole               -7.6437 Ry au,        -19.4284 Debye
        Dipole field         -0.0144 Ry au,

        Potential amp.        1.3372 Ry
        Total length         46.3494 bohr

     Starting wfcs are  298 atomic wfcs
  @ DRIVER MODE: Message from server: STATUS
  @ DRIVER MODE: Message from server: POSDATA
  @ DRIVER MODE: Reading and sharing cell
  @ DRIVER MODE: Reading and sharing positions
  @ DRIVER MODE: Received positions

     Self-consistent Calculation

     iteration #  1     ecut=    29.40 Ry     beta= 0.05
     Davidson diagonalization with overlap
     c_bands:  1 eigenvalues not converged
     c_bands:  1 eigenvalues not converged
     c_bands:  1 eigenvalues not converged
     c_bands:  1 eigenvalues not converged
     c_bands:  1 eigenvalues not converged
     c_bands:  1 eigenvalues not converged
     ethr =  1.00E-05,  avg # of iterations = 18.6

[...]

     total energy              =   -2699.58207736 Ry
     estimated scf accuracy    <    2638.56499065 Ry

[...]

     iteration #  3     ecut=    29.40 Ry     beta= 0.05
     Davidson diagonalization with overlap
     ethr =  1.00E-02,  avg # of iterations = 15.8

[...]

     iteration # 43     ecut=    29.40 Ry     beta= 0.05
     Davidson diagonalization with overlap
     c_bands:  2 eigenvalues not converged
     c_bands:  3 eigenvalues not converged
     c_bands:  1 eigenvalues not converged
     c_bands:  1 eigenvalues not converged
     ethr =  6.30E-07,  avg # of iterations = 15.5

[...]

     total energy              =   -2937.89151316 Ry
     estimated scf accuracy    <       0.00000010 Ry

     iteration # 67     ecut=    29.40 Ry     beta= 0.05
     Davidson diagonalization with overlap
     ethr =  2.55E-11,  avg # of iterations =  3.2

     negative rho (up, down):  1.606E-02 0.000E+00

     Adding external electric field

     Computed dipole along edir(3) :
        Dipole                0.5208 Ry au,          1.3238 Debye
        Dipole field          0.0010 Ry au,

        Potential amp.       -0.0911 Ry
        Total length         46.3494 bohr

     End of self-consistent calculation

          k = 0.0000 0.0000 0.0000 ( 18029 PWs)   bands (ev):

   -56.3158 -56.2819 -55.8942 -55.8928 -55.8589 -55.8582 -55.8300 -55.7963
   -55.6755 -55.6675 -55.6359 -55.6314 -55.1637 -55.1444 -55.1297 -55.0415
   -32.7717 -32.6079 -32.5806 -32.4747 -32.4355 -32.3952 -32.3815 -32.3578
   -32.3163 -32.1921 -32.1789 -32.1501 -32.1387 -32.1169 -32.1080 -32.0761
   -32.0619 -32.0601 -32.0579 -32.0311 -32.0257 -32.0232 -32.0194 -32.0085
   -31.9935 -31.9927 -31.9819 -31.9402 -31.9099 -31.9066 -31.8425 -31.8284
   -31.8120 -31.8011 -31.7865 -31.7397 -31.6593 -31.5654 -31.4905 -31.4672
   -31.3961 -31.3826 -31.3552 -31.3016 -31.2970 -31.2440 -31.1860 -31.1768
   -17.7221 -16.6871 -16.5301 -16.2521 -16.0251 -15.9980 -15.8613 -15.8287
   -15.8056 -15.7779 -15.6575 -15.6171 -15.5785 -15.4624 -15.4182 -15.4068
   -15.3886 -15.3710 -15.3645 -15.2747 -15.2497 -15.2323 -15.1811 -15.0890
   -15.0568 -15.0155 -14.8747 -14.8554 -14.7610 -14.4971 -13.6645 -13.5506
   -11.9300  -6.6373  -4.6184  -4.1558  -4.0836  -4.0180  -3.8650  -3.7817
    -3.5933  -3.5618  -3.4671  -3.2400  -3.1535  -3.1457  -3.0696  -3.0443
    -3.0338  -2.9423  -2.8758  -2.8447  -2.8219  -2.8000  -2.7416  -2.6645
    -2.6179  -2.5848  -2.5677  -2.5321  -2.4278  -2.3708  -2.3556  -2.3325
    -2.2715  -2.2580  -2.2347  -2.2304  -2.1944  -2.1815  -2.1013  -2.0665
    -1.9451  -1.8709  -1.7463  -1.7415  -1.6672  -1.6512  -1.6249  -1.4274
    -1.4023  -1.3278  -1.2926  -1.2371  -1.2097  -1.1566  -1.0929  -1.0610
    -0.9623  -0.9369  -0.9053  -0.8705  -0.8488  -0.8190  -0.7991  -0.7390
    -0.6911  -0.5164  -0.4743  -0.4401  -0.3464  -0.3308  -0.3010  -0.2621
    -0.2474  -0.1952  -0.1904  -0.1769  -0.1181  -0.1030  -0.0186   0.0484
     0.0545   0.1051   0.1797   0.2413   0.2780   0.3950   0.4436   0.5118
     0.6056   0.6145   0.6753   0.8245   0.8409   0.8582   0.8639   1.0705
     1.3197   1.4201   1.4620   1.5640   2.7675   2.9049   3.0141   3.2105
     3.3270   3.3457   3.5240   3.6661   3.7016   3.7568   3.7644

[...]

          k = 0.0380-0.0419 0.0000 ( 17876 PWs)   bands (ev):

[...]

          k =-0.0760-0.0000 0.0000 ( 17886 PWs)   bands (ev):

[...]

          k =-0.0760-0.0839 0.0000 ( 17948 PWs)   bands (ev):

   -56.2990 -56.2986 -55.8784 -55.8783 -55.8739 -55.8731 -55.8141 -55.8122
   -55.6650 -55.6546 -55.6462 -55.6442 -55.1467 -55.1466 -55.1414 -55.0444
   -32.5937 -32.5931 -32.5875 -32.5873 -32.4263 -32.4259 -32.2423 -32.2386
   -32.1833 -32.1776 -32.1546 -32.1525 -32.1350 -32.1322 -32.0919 -32.0882
   -32.0678 -32.0620 -32.0555 -32.0531 -32.0420 -32.0405 -32.0271 -32.0261
   -32.0132 -31.9998 -31.9798 -31.9720 -31.9444 -31.9335 -31.8853 -31.8801
   -31.8709 -31.8454 -31.8139 -31.8120 -31.5510 -31.4801 -31.4800 -31.3972
   -31.3790 -31.3789 -31.3665 -31.3510 -31.3399 -31.3399 -31.2510 -31.2267
   -17.7161 -16.0461 -16.0439 -16.0409 -16.0346 -15.9162 -15.9141 -15.7565
   -15.7545 -15.7298 -15.7244 -15.5778 -15.5541 -15.5136 -15.5126 -15.4729
   -15.4628 -15.3930 -15.3888 -15.3825 -15.3764 -15.3607 -15.3553 -15.3099
   -15.2690 -15.0323 -14.9567 -14.9000 -14.7842 -14.6880 -13.6531 -13.6530
   -11.9342  -6.6317  -4.5586  -4.0782  -3.3361  -3.3315  -3.1694  -3.1519
    -3.0968  -3.0956  -3.0123  -2.9723  -2.9711  -2.8557  -2.8333  -2.7922
    -2.7889  -2.7749  -2.7722  -2.7380  -2.7319  -2.7102  -2.7035  -2.6483
    -2.6333  -2.6263  -2.6213  -2.5471  -2.5018  -2.4739  -2.4420  -2.4080
    -2.3800  -2.2902  -2.2868  -2.2478  -2.2251  -2.1686  -2.1649  -2.1098
    -2.0752  -2.0074  -1.9977  -1.7850  -1.7409  -1.7315  -1.6790  -1.5943
    -1.5719  -1.4273  -1.3961  -1.3335  -1.3204  -1.2716  -1.2521  -1.2444
    -1.1580  -1.1506  -1.1413  -1.0642  -1.0563  -0.9945  -0.9584  -0.9256
    -0.8425  -0.8279  -0.7892  -0.7865  -0.7765  -0.7078  -0.6611  -0.5906
    -0.5423  -0.5286  -0.4100  -0.3603  -0.2939  -0.2306  -0.1884  -0.0812
    -0.0429  -0.0332   0.1764   0.1869   0.2334   0.3238   0.4449   0.4455
     0.4840   0.5771   0.5972   0.6240   0.6401   0.8366   0.9101   1.2379
     1.2390   1.2786   1.2791   1.5295   2.7265   3.4296   3.4305   3.4557
     3.4562   3.5947   3.6187   3.6553   3.6639   3.7487   3.8568

     the Fermi energy is     2.8542 ev

!    total energy              =   -2937.89153905 Ry
     estimated scf accuracy    <       0.00000007 Ry
     smearing contrib. (-TS)   =      -0.01393484 Ry
     internal energy E=F+TS    =   -2937.87760421 Ry

     The total energy is F=E-TS. E is the sum of the following terms:
     one-electron contribution =  -24293.99943761 Ry
     hartree contribution      =   12233.35215706 Ry
     xc contribution           =    -484.31407506 Ry
     ewald contribution        =    9607.08323950 Ry
     electric field correction =       0.00051191 Ry

     convergence has been achieved in  67 iterations

     Forces acting on atoms (cartesian axes, Ry/au):

     atom    1 type  1   force =     0.00010872   -0.00020560    0.10747776
     atom    2 type  1   force =    -0.00012855   -0.00062928   -0.16927997
     atom    3 type  2   force =    -0.00016026    0.00000575   -0.04195818
     atom    4 type  2   force =     0.00005560   -0.00093437    0.04201581
     atom    5 type  2   force =    -0.01492319    0.00022381   -0.00303343
     atom    6 type  2   force =     0.01655826    0.00103923   -0.00401080
     atom    7 type  1   force =    -0.00113375   -0.00212796    0.00246118
     atom    8 type  1   force =     0.00131455    0.00454605    0.07565209
     atom    9 type  2   force =     0.00004252    0.00011814    0.00038623
     atom   10 type  2   force =    -0.00132338    0.00009234   -0.04727988
     atom   11 type  2   force =    -0.00047634    0.00025356    0.00022338
     atom   12 type  2   force =    -0.00007461    0.00046933    0.00013386
     atom   13 type  1   force =     0.00042176   -0.00042385    0.00101830
     atom   14 type  1   force =    -0.00014233   -0.00011225   -0.00000584
     atom   15 type  2   force =    -0.00023190   -0.00134291    0.00048971
     atom   16 type  2   force =     0.00019792    0.00021056   -0.00022545
     atom   17 type  2   force =    -0.00053125    0.00035138    0.00007440
     atom   18 type  2   force =     0.00014233   -0.00021510   -0.00053117
     atom   19 type  1   force =     0.00019914    0.00008148   -0.00014954
     atom   20 type  1   force =     0.00001927   -0.00012990   -0.00084411
     atom   21 type  2   force =     0.00006759    0.00003611    0.10164050
     atom   22 type  2   force =    -0.00045677   -0.00133692    0.00003508
     atom   23 type  2   force =    -0.07422148   -0.00003611   -0.02982939
     atom   24 type  2   force =     0.07417932    0.00041737   -0.02983188
     atom   25 type  1   force =     0.00025405   -0.00034789    0.10697208
     atom   26 type  1   force =    -0.00002597   -0.00037745   -0.16936668
     atom   27 type  2   force =    -0.00004064   -0.00029468   -0.04090263
     atom   28 type  2   force =     0.00011008   -0.00073670    0.04198872
     atom   29 type  2   force =    -0.01522903    0.00064278   -0.00332411
     atom   30 type  2   force =     0.01679362    0.00101677   -0.00429422
     atom   31 type  1   force =    -0.00132947    0.00037547    0.00222120
     atom   32 type  1   force =     0.00130563   -0.00713485    0.07627614
     atom   33 type  2   force =    -0.00004985    0.00015682    0.00011065
     atom   34 type  2   force =    -0.00146513   -0.00007940   -0.05564884
     atom   35 type  2   force =    -0.00000151    0.00010818    0.00009159
     atom   36 type  2   force =    -0.00003741    0.00024304   -0.00017305
     atom   37 type  1   force =     0.00024637    0.00025625    0.00039057
     atom   38 type  1   force =     0.00012627    0.00022698   -0.00025128
     atom   39 type  2   force =    -0.00018835    0.00030497   -0.00110916
     atom   40 type  2   force =     0.00008001    0.00030606    0.00007687
     atom   41 type  2   force =     0.00006612    0.00016802   -0.00020122
     atom   42 type  2   force =    -0.00031566    0.00008760    0.00043443
     atom   43 type  1   force =    -0.00011521    0.00123982    0.00029263
     atom   44 type  1   force =    -0.00009732    0.00045970   -0.00000728
     atom   45 type  2   force =     0.00006248    0.00000054    0.10165560
     atom   46 type  2   force =    -0.07421268    0.00001316   -0.02979952
     atom   47 type  2   force =     0.07416848    0.00044527   -0.02981996
     atom   48 type  3   force =     0.00044516   -0.00053231   -0.00073349
     atom   49 type  3   force =     0.00054827    0.00399271    0.00114056
     atom   50 type  4   force =     0.00012825   -0.00114082    0.00021644
     atom   51 type  5   force =     0.00013069   -0.00004394   -0.00046024
     atom   52 type  5   force =    -0.00086037    0.00029305   -0.00040449

     Total force =     0.389376     Total SCF correction =     0.000438
  @ DRIVER MODE: Message from server: STATUS
  @ DRIVER MODE: Message from server: GETFORCE
  @ DRIVER MODE: Returning v,forces,stress,ensemble

     Writing output data file ./calc.save/
  @ DRIVER MODE: Message from server: EXIT
  @ DRIVE MODE: Exiting

     General routines

     Parallel routines

   This run was terminated on:  17:16:41  23Aug2021

   JOB DONE.