     Program PWSCF v.6.7GPU starts on  2Aug2021 at 21:41: 3

     R & G space division:  proc/nbgrp/npool/nimage =      16
     Reading input from /storage/home/hcoda1/3/ntian30/research/carbon/02Aug_vib_paired/ads_slab/CH3NNHHH_a/out_0035/pw.inp
Warning: card &CELL ignored
Warning: card   CELL_DYNAMICS='IPI', ignored
Warning: card / ignored

     Current dimensions of program PWSCF are:
     Max number of different atomic species (ntypx) = 10
     Max number of k-points (npk) =  40000
     Max angular momentum in pseudopotentials (lmaxx) =  3
     Presently no symmetry can be used with electric field

     Message from routine cell_base_init:
     DEPRECATED: use true lattice parameter, not A to a.u. conversion factor

     IMPORTANT: XC functional enforced from input :
     Exchange-correlation= BEEF-VDW
                           (   1   4  43  14   2   0   0)
     Any further DFT definition will be discarded
     Please, verify this is what you really want

  @ DRIVER MODE: Connecting to
 qe_1139763_2482545.sched-torque.pace.gatech.edueilgp568_scratch
  using UNIX socket
  @ DRIVER MODE: Message from server: STATUS
  @ DRIVER MODE: Message from server: INIT
  @ DRIVER MODE: Receiving replica           0          -1
  @ DRIVER MODE: Receiving encoded integer          25
  @ DRIVER MODE:  SCF:  T  FORCE:  T  STRESS:  F  VC:  F  ENSEMBLE:  F
  @ DRIVER MODE:  SCF:  T  FORCE:  T  STRESS:  F  VC:  F  ENSEMBLE:  F

     Using Slab Decomposition

     bravais-lattice index     =            0
     lattice parameter (alat)  =       1.8897  a.u.
     unit-cell volume          =    6658.9804 (a.u.)^3
     number of atoms/cell      =           56
     number of atomic types    =            5
     number of electrons       =       398.00
     number of Kohn-Sham states=          209
     kinetic-energy cutoff     =      29.3995  Ry
     charge density cutoff     =     293.9946  Ry
     scf convergence threshold =      7.3E-08
     mixing beta               =       0.0500
     number of iterations used =            8  plain     mixing
     Exchange-correlation= BEEF-VDW
                           (   1   4  43  14   2   0   0)

     celldm(1)=   1.889726  celldm(2)=   0.000000  celldm(3)=   0.000000
     celldm(4)=   0.000000  celldm(5)=   0.000000  celldm(6)=   0.000000

     crystal axes: (cart. coord. in units of alat)
               a(1) = (   6.579727   0.000000   0.000000 )
               a(2) = (  -0.000775   5.961596   0.000000 )
               a(3) = (   0.000000   0.000000  25.155947 )

     reciprocal axes: (cart. coord. in units 2 pi/alat)
               b(1) = (  0.151982  0.000020  0.000000 )
               b(2) = (  0.000000  0.167740  0.000000 )
               b(3) = (  0.000000  0.000000  0.039752 )

     PseudoPot. # 1 for Ti read from file:
     /storage/coda1/p-amedford6/0/shared/rich_project_chbe-medford/medford-share/data/pseudos_module/espresso/nninc/pbe/van/Ti.UPF
     MD5 check sum: 8e4df49b7f0d34bbd5052bf3f5ea0213
     Pseudo is Ultrasoft, Zval = 12.0
     Generated by new atomic code, or converted to UPF format
     Using radial grid of  851 points,  6 beta functions with:
                l(1) =   0
                l(2) =   0
                l(3) =   1
                l(4) =   1
                l(5) =   2
                l(6) =   2
     Q(r) pseudized with  8 coefficients,  rinner =    1.000   1.000   1.000
                                                       1.000   1.000

     PseudoPot. # 2 for O  read from file:
     /storage/coda1/p-amedford6/0/shared/rich_project_chbe-medford/medford-share/data/pseudos_module/espresso/nninc/pbe/van/O.UPF
     MD5 check sum: 78c19812648e8988a0fe644b0f25305e
     Pseudo is Ultrasoft, Zval =  6.0
     Generated by new atomic code, or converted to UPF format
     Using radial grid of  737 points,  4 beta functions with:
                l(1) =   0
                l(2) =   0
                l(3) =   1
                l(4) =   1
     Q(r) pseudized with  8 coefficients,  rinner =    0.800   0.800   0.800

     PseudoPot. # 3 for N  read from file:
     /storage/coda1/p-amedford6/0/shared/rich_project_chbe-medford/medford-share/data/pseudos_module/espresso/nninc/pbe/van/N.UPF
     MD5 check sum: 90d10febe142ad51ac9d5be1deb811c4
     Pseudo is Ultrasoft, Zval =  5.0
     Generated by new atomic code, or converted to UPF format
     Using radial grid of  729 points,  4 beta functions with:
                l(1) =   0
                l(2) =   0
                l(3) =   1
                l(4) =   1
     Q(r) pseudized with  8 coefficients,  rinner =    0.800   0.800   0.800

     PseudoPot. # 4 for C  read from file:
     /storage/coda1/p-amedford6/0/shared/rich_project_chbe-medford/medford-share/data/pseudos_module/espresso/nninc/pbe/van/C.UPF
     MD5 check sum: 1a69bf6b8db32088f5b2163dbdb77a27
     Pseudo is Ultrasoft, Zval =  4.0
     Generated by new atomic code, or converted to UPF format
     Using radial grid of  721 points,  4 beta functions with:
                l(1) =   0
                l(2) =   0
                l(3) =   1
                l(4) =   1
     Q(r) pseudized with  8 coefficients,  rinner =    0.800   0.800   0.800

     PseudoPot. # 5 for H  read from file:
     /storage/coda1/p-amedford6/0/shared/rich_project_chbe-medford/medford-share/data/pseudos_module/espresso/nninc/pbe/van/H.UPF
     MD5 check sum: b5ee9d7bfd3a09ee7748110bda690ff7
     Pseudo is Ultrasoft, Zval =  1.0
     Generated by new atomic code, or converted to UPF format
     Using radial grid of  615 points,  1 beta functions with:
                l(1) =   0
     Q(r) pseudized with  8 coefficients,  rinner =    0.800

     atomic species   valence    mass     pseudopotential
        Ti1           12.00    47.86700     Ti( 1.00)
        O1             6.00    15.99900     O ( 1.00)
        N1             5.00    14.00700     N ( 1.00)
        C1             4.00    12.01100     C ( 1.00)
        H1             1.00     1.00800     H ( 1.00)

     No symmetry found

   Cartesian axes

     site n.     atom                  positions (alat units)
         1           Ti1 tau(   1) = (   0.0004258   2.9801865   6.0000000  )
         2           Ti1 tau(   2) = (   3.2906075   1.4906267   6.0002472  )
         3           O1  tau(   3) = (   0.0006271   0.0005054   7.9858123  )
         4           O1  tau(   4) = (   3.2906025   0.0005020   7.3038282  )
         5           O1  tau(   5) = (   4.5942328   1.4918067   9.2879030  )
         6           O1  tau(   6) = (   1.9868534   1.4903216   9.2879459  )
         7           Ti1 tau(   7) = (   3.2907910   2.8959150   9.1758416  )
         8           Ti1 tau(   8) = (   0.0015273   1.4827037   9.2680791  )
         9           O1  tau(   9) = (   3.2969863   5.9453513  11.3493076  )
        10           O1  tau(  10) = (   0.0116148   5.9584955  10.6183126  )
        11           O1  tau(  11) = (   1.3059050   1.4736943  12.6642453  )
        12           O1  tau(  12) = (   5.3003793   1.4775083  12.6459419  )
        13           Ti1 tau(  13) = (   0.0167275   2.9625105  12.5508078  )
        14           Ti1 tau(  14) = (   3.3131340   1.4712512  12.4909780  )
        15           O1  tau(  15) = (   6.5517612   5.9325698  14.7566896  )
        16           O1  tau(  16) = (   3.3302114   5.9429442  13.9823395  )
        17           O1  tau(  17) = (   4.5243935   1.5056208  16.2316672  )
        18           O1  tau(  18) = (   2.0170937   1.4633510  16.1378485  )
        19           Ti1 tau(  19) = (   3.2500237   2.9242626  15.6920970  )
        20           Ti1 tau(  20) = (   6.5441017   1.2779805  16.1516014  )
        21           O1  tau(  21) = (   3.2904802   0.0005063   4.7018136  )
        22           O1  tau(  22) = (   6.5540411   5.9581837  17.3465722  )
        23           O1  tau(  23) = (   1.3043587   1.4918075   6.0039043  )
        24           O1  tau(  24) = (   5.2767064   1.4903225   6.0039473  )
        25           Ti1 tau(  25) = (   0.0000382   5.9609847   6.0000000  )
        26           Ti1 tau(  26) = (   3.2902200   4.4714249   6.0002472  )
        27           O1  tau(  27) = (   0.0002396   2.9813036   7.9858123  )
        28           O1  tau(  28) = (   3.2902150   2.9813002   7.3038282  )
        29           O1  tau(  29) = (   4.5938453   4.4726049   9.2879030  )
        30           O1  tau(  30) = (   1.9864658   4.4711199   9.2879459  )
        31           Ti1 tau(  31) = (   3.2891106   5.8743827   9.1763621  )
        32           Ti1 tau(  32) = (   0.0006254   4.4649316   9.2693709  )
        33           O1  tau(  33) = (   3.2962403   2.9651072  11.3429128  )
        34           O1  tau(  34) = (   0.0092240   2.9805883  10.6323155  )
        35           O1  tau(  35) = (   1.3076126   4.4641214  12.6643835  )
        36           O1  tau(  36) = (   5.2981430   4.4591552  12.6429889  )
        37           Ti1 tau(  37) = (   0.0194730   5.9489450  12.5196332  )
        38           Ti1 tau(  38) = (   3.3150505   4.4522436  12.4946186  )
        39           O1  tau(  39) = (   6.5702761   2.9869041  14.8038460  )
        40           O1  tau(  40) = (   3.3119818   2.9576719  13.9204832  )
        41           O1  tau(  41) = (   4.5223198   4.3950437  16.2490866  )
        42           O1  tau(  42) = (   2.0356696   4.4339808  16.1311045  )
        43           Ti1 tau(  43) = (   3.3057863   5.9493229  15.7677403  )
        44           Ti1 tau(  44) = (   0.0958844   4.4293496  15.8701971  )
        45           O1  tau(  45) = (   3.2900926   2.9813045   4.7018136  )
        46           O1  tau(  46) = (   1.3039711   4.4726057   6.0039043  )
        47           O1  tau(  47) = (   5.2763189   4.4711207   6.0039473  )
        48           N1  tau(  48) = (   0.0620580   3.0375546  17.6897758  )
        49           C1  tau(  49) = (   1.1116374   2.9693208  18.6984743  )
        50           H1  tau(  50) = (   1.2951007   3.9532040  19.1583453  )
        51           H1  tau(  51) = (   0.8627774   2.2426413  19.4871689  )
        52           H1  tau(  52) = (   2.0263963   2.6228967  18.2308865  )
        53           N1  tau(  53) = (   5.4279256   3.3744730  18.3933390  )
        54           H1  tau(  54) = (   5.6103604   4.1199394  19.0852601  )
        55           H1  tau(  55) = (   4.7934260   3.8076565  17.6395878  )
        56           H1  tau(  56) = (   5.0090149   2.5598412  18.8678436  )

     number of k points=    10  Fermi-Dirac smearing, width (Ry)=  0.0073
                       cart. coord. in units 2pi/alat
        k(    1) = (   0.0000000   0.0000000   0.0000000), wk =   0.1250000
        k(    2) = (   0.0000000   0.0419351   0.0000000), wk =   0.2500000
        k(    3) = (   0.0000000  -0.0838702   0.0000000), wk =   0.1250000
        k(    4) = (   0.0379955   0.0000049   0.0000000), wk =   0.2500000
        k(    5) = (   0.0379955   0.0419400   0.0000000), wk =   0.2500000
        k(    6) = (   0.0379955  -0.0838652   0.0000000), wk =   0.2500000
        k(    7) = (   0.0379955  -0.0419301   0.0000000), wk =   0.2500000
        k(    8) = (  -0.0759910  -0.0000099   0.0000000), wk =   0.1250000
        k(    9) = (  -0.0759910   0.0419252   0.0000000), wk =   0.2500000
        k(   10) = (  -0.0759910  -0.0838800   0.0000000), wk =   0.1250000

     Initial potential from superposition of free atoms

     starting charge  381.99914, renormalised to  398.00000

     negative rho (up, down):  1.617E-02 0.000E+00

     %%%%%%%%%%%%%%%%%%%%%%%%%%%%%%%%%%%%%%%%%%%%%%%%%%%%%%%%%%%%%%%%%%%%%%%%
     %                                                                      %
     % You are using vdW-DF, which was implemented by the Thonhauser group. %
     % Please cite the following two papers that made this development      %
     % possible and the two reviews that describe the various versions:     %
     %                                                                      %
     %   T. Thonhauser et al., PRL 115, 136402 (2015).                      %
     %   T. Thonhauser et al., PRB 76, 125112 (2007).                       %
     %   K. Berland et al., Rep. Prog. Phys. 78, 066501 (2015).             %
     %   D.C. Langreth et al., J. Phys.: Condens. Matter 21, 084203 (2009). %
     %                                                                      %
     %                                                                      %
     % If you are calculating the stress with vdW-DF, please also cite:     %
     %                                                                      %
     %   R. Sabatini et al., J. Phys.: Condens. Matter 24, 424209 (2012).   %
     %                                                                      %
     %%%%%%%%%%%%%%%%%%%%%%%%%%%%%%%%%%%%%%%%%%%%%%%%%%%%%%%%%%%%%%%%%%%%%%%%

     Adding external electric field

     Computed dipole along edir(3) :
        Dipole              -10.5689 Ry au,        -26.8635 Debye
        Dipole field         -0.0199 Ry au,

        Potential amp.        1.8489 Ry
        Total length         46.3494 bohr

     Starting wfcs are  302 atomic wfcs
  @ DRIVER MODE: Message from server: STATUS
  @ DRIVER MODE: Message from server: POSDATA
  @ DRIVER MODE: Reading and sharing cell
  @ DRIVER MODE: Reading and sharing positions
  @ DRIVER MODE: Received positions

     Self-consistent Calculation

     iteration #  1     ecut=    29.40 Ry     beta= 0.05
     Davidson diagonalization with overlap
     c_bands:  3 eigenvalues not converged
     c_bands:  3 eigenvalues not converged
     c_bands:  1 eigenvalues not converged
     c_bands:  5 eigenvalues not converged
     c_bands:  5 eigenvalues not converged
     c_bands:  5 eigenvalues not converged
     c_bands:  1 eigenvalues not converged
     c_bands:  4 eigenvalues not converged
     c_bands:  3 eigenvalues not converged
     ethr =  1.00E-05,  avg # of iterations = 20.0

[...]

     total energy              =   -2442.75092762 Ry
     estimated scf accuracy    <    5591.44785057 Ry

     iteration #  2     ecut=    29.40 Ry     beta= 0.05
     Davidson diagonalization with overlap
     ethr =  1.00E-02,  avg # of iterations = 24.8

[...]

     iteration # 71     ecut=    29.40 Ry     beta= 0.05
     Davidson diagonalization with overlap
     c_bands:  1 eigenvalues not converged
     c_bands:  2 eigenvalues not converged
     ethr =  5.24E-11,  avg # of iterations = 14.2

[...]

     total energy              =   -2942.82487490 Ry
     estimated scf accuracy    <       0.00000021 Ry

     iteration # 72     ecut=    29.40 Ry     beta= 0.05
     Davidson diagonalization with overlap
     ethr =  5.24E-11,  avg # of iterations =  9.1

     negative rho (up, down):  1.403E-02 0.000E+00

     Adding external electric field

     Computed dipole along edir(3) :
        Dipole                1.5988 Ry au,          4.0637 Debye
        Dipole field          0.0030 Ry au,

        Potential amp.       -0.2797 Ry
        Total length         46.3494 bohr

     End of self-consistent calculation

          k = 0.0000 0.0000 0.0000 ( 18029 PWs)   bands (ev):

   -55.1465 -55.1098 -55.1077 -55.0736 -55.0287 -55.0133 -54.9905 -54.9479
   -54.9355 -54.9270 -54.9128 -54.9025 -54.8665 -54.7953 -54.1199 -54.0858
   -31.7262 -31.5975 -31.5150 -31.4830 -31.4387 -31.4378 -31.4352 -31.4048
   -31.4008 -31.3976 -31.3708 -31.3561 -31.3526 -31.3240 -31.3062 -31.2811
   -31.2642 -31.2605 -31.2503 -31.2447 -31.2190 -31.2128 -31.2059 -31.1793
   -31.1647 -31.1579 -31.1510 -31.1435 -31.1434 -31.1320 -31.1300 -31.1234
   -31.1069 -31.0981 -31.0919 -31.0659 -31.0632 -31.0507 -31.0442 -31.0380
   -31.0271 -30.9846 -30.5284 -30.4364 -30.4142 -30.3450 -30.2583 -30.1472
   -18.9661 -16.0096 -15.7539 -15.6196 -15.3853 -15.3337 -15.2768 -15.0685
   -15.0676 -14.9950 -14.9806 -14.9326 -14.9133 -14.8459 -14.7614 -14.7402
   -14.6730 -14.6714 -14.6412 -14.6298 -14.6294 -14.5668 -14.5567 -14.5276
   -14.5146 -14.4891 -14.3709 -14.2868 -14.2283 -13.9752 -13.5917 -12.6226
   -12.5055  -9.7639  -7.6731  -7.2543  -5.4738  -3.8138  -3.3476  -3.2984
    -3.1704  -3.1439  -3.0672  -3.0377  -2.8526  -2.8317  -2.4900  -2.4505
    -2.4040  -2.3856  -2.3638  -2.3470  -2.1775  -2.1523  -2.0801  -2.0460
    -2.0269  -1.9882  -1.9716  -1.9617  -1.9278  -1.9219  -1.9132  -1.7060
    -1.6492  -1.5542  -1.5319  -1.5007  -1.4730  -1.4360  -1.4284  -1.4254
    -1.4195  -1.4056  -1.3920  -1.3129  -1.2519  -1.1735  -1.1635  -1.1281
    -1.0248  -0.9758  -0.7756  -0.7625  -0.7176  -0.6756  -0.6129  -0.5910
    -0.5253  -0.4944  -0.4736  -0.3528  -0.3239  -0.2839  -0.2553  -0.1894
    -0.1566  -0.1137  -0.0277   0.0432   0.0771   0.0955   0.1565   0.2863
     0.2967   0.3257   0.3868   0.4500   0.4915   0.5119   0.5301   0.5671
     0.6160   0.7414   0.7867   0.8060   0.8103   0.8442   0.8679   0.9191
     0.9439   1.0030   1.0085   1.1280   1.1973   1.4254   1.4593   1.4827
     1.8149   1.8387   1.9026   2.0886   2.4767   2.5239   3.9582   4.0188
     4.0760   4.0924   4.1113   4.2000   4.2126   4.4211   4.4483   4.4522
     4.4551

[...]

          k = 0.0380-0.0419 0.0000 ( 17876 PWs)   bands (ev):

[...]

          k =-0.0760-0.0000 0.0000 ( 17886 PWs)   bands (ev):

[...]

          k =-0.0760-0.0839 0.0000 ( 17948 PWs)   bands (ev):

   -55.1310 -55.1251 -55.0906 -55.0905 -55.0181 -55.0098 -55.0011 -54.9317
   -54.9303 -54.9278 -54.9201 -54.9187 -54.8627 -54.7990 -54.1029 -54.1027
   -31.5299 -31.5270 -31.4498 -31.4282 -31.4126 -31.4126 -31.3830 -31.3829
   -31.3573 -31.3516 -31.3487 -31.3481 -31.3130 -31.2789 -31.2727 -31.2683
   -31.2670 -31.2630 -31.2609 -31.2547 -31.2234 -31.2199 -31.2174 -31.2146
   -31.2100 -31.2100 -31.1958 -31.1938 -31.1664 -31.1618 -31.1463 -31.1424
   -31.1400 -31.1393 -31.1374 -31.1294 -31.1044 -31.1011 -31.0983 -31.0750
   -31.0497 -31.0325 -30.4269 -30.4268 -30.3411 -30.3409 -30.3017 -30.3016
   -18.9613 -15.5165 -15.4066 -15.2974 -15.2327 -15.1911 -15.1389 -15.1221
   -15.1120 -15.0657 -15.0357 -14.9671 -14.9035 -14.8510 -14.8500 -14.8147
   -14.7367 -14.7228 -14.7159 -14.7052 -14.6488 -14.6421 -14.6106 -14.5898
   -14.5867 -14.5568 -14.4831 -14.4807 -14.3924 -14.1836 -13.6280 -12.6071
   -12.6070  -9.7322  -7.6719  -7.1988  -5.4787  -3.8357  -3.4506  -2.7658
    -2.6545  -2.4439  -2.4178  -2.3582  -2.3373  -2.2499  -2.1908  -2.1701
    -2.1467  -2.1129  -2.1099  -2.0844  -2.0640  -2.0096  -1.9809  -1.9707
    -1.9645  -1.9495  -1.9371  -1.9163  -1.8600  -1.8501  -1.8427  -1.8006
    -1.7895  -1.7579  -1.7516  -1.7129  -1.6958  -1.6188  -1.5273  -1.5022
    -1.4416  -1.3417  -1.3288  -1.3231  -1.2289  -1.2211  -1.1919  -1.1611
    -1.1052  -1.0049  -0.9507  -0.8760  -0.8727  -0.8416  -0.7538  -0.6916
    -0.6578  -0.6471  -0.6078  -0.5511  -0.5271  -0.4951  -0.4119  -0.3703
    -0.3430  -0.3084  -0.2140  -0.1522  -0.1297  -0.0992  -0.0958  -0.0059
     0.0268   0.0636   0.0842   0.1225   0.1490   0.2183   0.2367   0.3468
     0.4174   0.4481   0.5671   0.5899   0.6543   0.7863   0.8574   0.8986
     0.9524   1.0090   1.0358   1.1660   1.1732   1.1961   1.2919   1.3321
     1.3390   1.3522   2.2614   2.2624   2.3440   2.3441   4.0906   4.1774
     4.2202   4.2577   4.3658   4.4746   4.4934   4.5360   4.5365   4.6119
     4.6183

     the Fermi energy is     4.0105 ev

!    total energy              =   -2942.82489942 Ry
     estimated scf accuracy    <       0.00000006 Ry
     smearing contrib. (-TS)   =      -0.03688251 Ry
     internal energy E=F+TS    =   -2942.78801690 Ry

     The total energy is F=E-TS. E is the sum of the following terms:
     one-electron contribution =  -23974.57535338 Ry
     hartree contribution      =   12082.74575705 Ry
     xc contribution           =    -487.77025222 Ry
     ewald contribution        =    9436.80700789 Ry
     electric field correction =       0.00482375 Ry

     convergence has been achieved in  72 iterations

     Forces acting on atoms (cartesian axes, Ry/au):

     atom    1 type  1   force =     0.00014805   -0.00024571    0.09429504
     atom    2 type  1   force =    -0.00008878   -0.00032424   -0.17738746
     atom    3 type  2   force =     0.00005755   -0.00016737   -0.02135744
     atom    4 type  2   force =    -0.00001453   -0.00172306    0.05655916
     atom    5 type  2   force =    -0.01055186   -0.00127424    0.00624577
     atom    6 type  2   force =     0.01221801   -0.00074213    0.00571754
     atom    7 type  1   force =    -0.00033538    0.00172411   -0.01621742
     atom    8 type  1   force =    -0.00010407    0.00439453    0.00560520
     atom    9 type  2   force =     0.00000765   -0.00003707   -0.00005669
     atom   10 type  2   force =    -0.00074285   -0.00021778   -0.00046155
     atom   11 type  2   force =     0.00033960    0.00012057   -0.00021995
     atom   12 type  2   force =    -0.00051905   -0.00000254   -0.00015048
     atom   13 type  1   force =     0.00002300   -0.00033241    0.00020497
     atom   14 type  1   force =     0.00055653    0.00009844   -0.00029140
     atom   15 type  2   force =    -0.00037664    0.00027194   -0.00026369
     atom   16 type  2   force =    -0.00035439    0.00022681   -0.00011634
     atom   17 type  2   force =    -0.00022966    0.00007374    0.00025663
     atom   18 type  2   force =     0.00021989    0.00030191   -0.00018960
     atom   19 type  1   force =     0.00024616    0.00032016    0.00012307
     atom   20 type  1   force =     0.00027062    0.00044495   -0.00027963
     atom   21 type  2   force =     0.00003558    0.00004055    0.10359835
     atom   22 type  2   force =     0.00000009   -0.00070687   -0.00063914
     atom   23 type  2   force =    -0.07081836   -0.00009930   -0.02719177
     atom   24 type  2   force =     0.07068404    0.00033696   -0.02722154
     atom   25 type  1   force =    -0.00009225   -0.00021158    0.09374183
     atom   26 type  1   force =    -0.00013292   -0.00031760   -0.17727876
     atom   27 type  2   force =     0.00008771   -0.00035226   -0.02046844
     atom   28 type  2   force =     0.00003352   -0.00143972    0.05587407
     atom   29 type  2   force =    -0.01091306   -0.00073279    0.00609678
     atom   30 type  2   force =     0.01246653   -0.00029264    0.00557135
     atom   31 type  1   force =    -0.00016346    0.00464796   -0.01718420
     atom   32 type  1   force =    -0.00003681   -0.00482921    0.00560183
     atom   33 type  2   force =     0.00006011    0.00011720    0.00026257
     atom   34 type  2   force =     0.00005825   -0.00085156   -0.00299257
     atom   35 type  2   force =     0.00022408    0.00003510    0.00005303
     atom   36 type  2   force =    -0.00042035    0.00015875   -0.00009529
     atom   37 type  1   force =    -0.00012896   -0.00010793   -0.00007261
     atom   38 type  1   force =     0.00045331   -0.00026661    0.00041073
     atom   39 type  2   force =    -0.00045443    0.00013497    0.00059393
     atom   40 type  2   force =    -0.00012894    0.00016534   -0.00025496
     atom   41 type  2   force =    -0.00073421    0.00121972   -0.00167904
     atom   42 type  2   force =     0.00000934    0.00025189   -0.00015495
     atom   43 type  1   force =    -0.00023560    0.00028909    0.00014570
     atom   44 type  1   force =    -0.00009784    0.00032799   -0.00035256
     atom   45 type  2   force =     0.00002796    0.00000477    0.10360804
     atom   46 type  2   force =    -0.07082056   -0.00003950   -0.02718951
     atom   47 type  2   force =     0.07068528    0.00037348   -0.02719218
     atom   48 type  3   force =     0.00192335   -0.00122437   -0.00382051
     atom   49 type  4   force =    -0.00122840    0.00026386   -0.00020724
     atom   50 type  5   force =    -0.00012034    0.00002607    0.00003036
     atom   51 type  5   force =    -0.00032436   -0.00028125    0.00003899
     atom   52 type  5   force =    -0.00049897   -0.00002646    0.00009432
     atom   53 type  3   force =     0.00277243    0.00018822    0.02248161
     atom   54 type  5   force =    -0.00155659   -0.00501363   -0.00711427
     atom   55 type  5   force =    -0.00258532    0.00139199   -0.00488673
     atom   56 type  5   force =     0.00120029    0.00390873   -0.00422295

     Total force =     0.366459     Total SCF correction =     0.000395
  @ DRIVER MODE: Message from server: STATUS
  @ DRIVER MODE: Message from server: GETFORCE
  @ DRIVER MODE: Returning v,forces,stress,ensemble

     Writing output data file ./calc.save/
  @ DRIVER MODE: Message from server: EXIT
  @ DRIVE MODE: Exiting

     General routines

     Parallel routines

   This run was terminated on:  21:58: 3   2Aug2021

   JOB DONE.