     Program PWSCF v.6.7GPU starts on 26Sep2021 at 19:25:44

     R & G space division:  proc/nbgrp/npool/nimage =       8
     Reading input from /storage/home/hcoda1/3/ntian30/research/carbon/CxH_vib/H2O_calc/ads_slab/CH3N2OHHO_l/out_0059/pw.inp
Warning: card &CELL ignored
Warning: card   CELL_DYNAMICS='IPI', ignored
Warning: card / ignored

     Current dimensions of program PWSCF are:
     Max number of different atomic species (ntypx) = 10
     Max number of k-points (npk) =  40000
     Max angular momentum in pseudopotentials (lmaxx) =  3
     Presently no symmetry can be used with electric field

     Message from routine cell_base_init:
     DEPRECATED: use true lattice parameter, not A to a.u. conversion factor

     IMPORTANT: XC functional enforced from input :
     Exchange-correlation= BEEF-VDW
                           (   1   4  43  14   2   0   0)
     Any further DFT definition will be discarded
     Please, verify this is what you really want

  @ DRIVER MODE: Connecting to
 qe_1139763_2971669.sched-torque.pace.gatech.edueqnyqcq5_scratch
  using UNIX socket
  @ DRIVER MODE: Message from server: STATUS
  @ DRIVER MODE: Message from server: INIT
  @ DRIVER MODE: Receiving replica           0          -1
  @ DRIVER MODE: Receiving encoded integer          25
  @ DRIVER MODE:  SCF:  T  FORCE:  T  STRESS:  F  VC:  F  ENSEMBLE:  F
  @ DRIVER MODE:  SCF:  T  FORCE:  T  STRESS:  F  VC:  F  ENSEMBLE:  F

     Using Slab Decomposition

     bravais-lattice index     =            0
     lattice parameter (alat)  =       1.8897  a.u.
     unit-cell volume          =    6658.9804 (a.u.)^3
     number of atoms/cell      =           57
     number of atomic types    =            5
     number of electrons       =       409.00
     number of Kohn-Sham states=          214
     kinetic-energy cutoff     =      29.3995  Ry
     charge density cutoff     =     293.9946  Ry
     scf convergence threshold =      7.3E-08
     mixing beta               =       0.0500
     number of iterations used =            8  plain     mixing
     Exchange-correlation= BEEF-VDW
                           (   1   4  43  14   2   0   0)

     celldm(1)=   1.889726  celldm(2)=   0.000000  celldm(3)=   0.000000
     celldm(4)=   0.000000  celldm(5)=   0.000000  celldm(6)=   0.000000

     crystal axes: (cart. coord. in units of alat)
               a(1) = (   6.579727   0.000000   0.000000 )
               a(2) = (  -0.000775   5.961596   0.000000 )
               a(3) = (   0.000000   0.000000  25.155947 )

     reciprocal axes: (cart. coord. in units 2 pi/alat)
               b(1) = (  0.151982  0.000020  0.000000 )
               b(2) = (  0.000000  0.167740  0.000000 )
               b(3) = (  0.000000  0.000000  0.039752 )

     PseudoPot. # 1 for Ti read from file:
     /storage/coda1/p-amedford6/0/shared/rich_project_chbe-medford/medford-share/data/pseudos_module/espresso/nninc/pbe/van/Ti.UPF
     MD5 check sum: 8e4df49b7f0d34bbd5052bf3f5ea0213
     Pseudo is Ultrasoft, Zval = 12.0
     Generated by new atomic code, or converted to UPF format
     Using radial grid of  851 points,  6 beta functions with:
                l(1) =   0
                l(2) =   0
                l(3) =   1
                l(4) =   1
                l(5) =   2
                l(6) =   2
     Q(r) pseudized with  8 coefficients,  rinner =    1.000   1.000   1.000
                                                       1.000   1.000

     PseudoPot. # 2 for O  read from file:
     /storage/coda1/p-amedford6/0/shared/rich_project_chbe-medford/medford-share/data/pseudos_module/espresso/nninc/pbe/van/O.UPF
     MD5 check sum: 78c19812648e8988a0fe644b0f25305e
     Pseudo is Ultrasoft, Zval =  6.0
     Generated by new atomic code, or converted to UPF format
     Using radial grid of  737 points,  4 beta functions with:
                l(1) =   0
                l(2) =   0
                l(3) =   1
                l(4) =   1
     Q(r) pseudized with  8 coefficients,  rinner =    0.800   0.800   0.800

     PseudoPot. # 3 for N  read from file:
     /storage/coda1/p-amedford6/0/shared/rich_project_chbe-medford/medford-share/data/pseudos_module/espresso/nninc/pbe/van/N.UPF
     MD5 check sum: 90d10febe142ad51ac9d5be1deb811c4
     Pseudo is Ultrasoft, Zval =  5.0
     Generated by new atomic code, or converted to UPF format
     Using radial grid of  729 points,  4 beta functions with:
                l(1) =   0
                l(2) =   0
                l(3) =   1
                l(4) =   1
     Q(r) pseudized with  8 coefficients,  rinner =    0.800   0.800   0.800

     PseudoPot. # 4 for C  read from file:
     /storage/coda1/p-amedford6/0/shared/rich_project_chbe-medford/medford-share/data/pseudos_module/espresso/nninc/pbe/van/C.UPF
     MD5 check sum: 1a69bf6b8db32088f5b2163dbdb77a27
     Pseudo is Ultrasoft, Zval =  4.0
     Generated by new atomic code, or converted to UPF format
     Using radial grid of  721 points,  4 beta functions with:
                l(1) =   0
                l(2) =   0
                l(3) =   1
                l(4) =   1
     Q(r) pseudized with  8 coefficients,  rinner =    0.800   0.800   0.800

     PseudoPot. # 5 for H  read from file:
     /storage/coda1/p-amedford6/0/shared/rich_project_chbe-medford/medford-share/data/pseudos_module/espresso/nninc/pbe/van/H.UPF
     MD5 check sum: b5ee9d7bfd3a09ee7748110bda690ff7
     Pseudo is Ultrasoft, Zval =  1.0
     Generated by new atomic code, or converted to UPF format
     Using radial grid of  615 points,  1 beta functions with:
                l(1) =   0
     Q(r) pseudized with  8 coefficients,  rinner =    0.800

     atomic species   valence    mass     pseudopotential
        Ti1           12.00    47.86700     Ti( 1.00)
        O1             6.00    15.99900     O ( 1.00)
        N1             5.00    14.00700     N ( 1.00)
        C1             4.00    12.01100     C ( 1.00)
        H1             1.00     1.00800     H ( 1.00)

     No symmetry found

   Cartesian axes

     site n.     atom                  positions (alat units)
         1           Ti1 tau(   1) = (   0.0004258   2.9801865   6.0000000  )
         2           Ti1 tau(   2) = (   3.2906075   1.4906267   6.0002472  )
         3           O1  tau(   3) = (   0.0006271   0.0005054   7.9858123  )
         4           O1  tau(   4) = (   3.2906025   0.0005020   7.3038282  )
         5           O1  tau(   5) = (   4.5942328   1.4918067   9.2879030  )
         6           O1  tau(   6) = (   1.9868534   1.4903216   9.2879459  )
         7           Ti1 tau(   7) = (   3.2907910   2.8959150   9.1758416  )
         8           Ti1 tau(   8) = (   0.0015273   1.4827037   9.2680791  )
         9           O1  tau(   9) = (   3.2779673   5.9607700  11.3423085  )
        10           O1  tau(  10) = (   0.0116148   5.9584955  10.6183126  )
        11           O1  tau(  11) = (   1.2787083   1.4818767  12.6451794  )
        12           O1  tau(  12) = (   5.2707140   1.4872516  12.6060838  )
        13           Ti1 tau(  13) = (   0.0520196   2.9452147  12.6012095  )
        14           Ti1 tau(  14) = (   3.3669591   1.4706787  12.5087448  )
        15           O1  tau(  15) = (   6.5166736   5.9505275  14.6414754  )
        16           O1  tau(  16) = (   3.3002175   0.0041348  13.9548274  )
        17           O1  tau(  17) = (   4.5235890   1.5203341  16.0633414  )
        18           O1  tau(  18) = (   1.9992342   1.5602939  15.9747780  )
        19           Ti1 tau(  19) = (   3.2541499   3.0080313  15.6961896  )
        20           Ti1 tau(  20) = (   6.5591015   1.5323982  15.7823192  )
        21           O1  tau(  21) = (   3.2904802   0.0005063   4.7018136  )
        22           O1  tau(  22) = (   0.0960927   0.0099221  17.2178370  )
        23           O1  tau(  23) = (   1.3043587   1.4918075   6.0039043  )
        24           O1  tau(  24) = (   5.2767064   1.4903225   6.0039473  )
        25           Ti1 tau(  25) = (   0.0000382   5.9609847   6.0000000  )
        26           Ti1 tau(  26) = (   3.2902200   4.4714249   6.0002472  )
        27           O1  tau(  27) = (   0.0002396   2.9813036   7.9858123  )
        28           O1  tau(  28) = (   3.2902150   2.9813002   7.3038282  )
        29           O1  tau(  29) = (   4.5938453   4.4726049   9.2879030  )
        30           O1  tau(  30) = (   1.9864658   4.4711199   9.2879459  )
        31           Ti1 tau(  31) = (   3.2891106   5.8743827   9.1763621  )
        32           Ti1 tau(  32) = (   0.0006254   4.4649316   9.2693709  )
        33           O1  tau(  33) = (   3.2807211   2.9768430  11.3440791  )
        34           O1  tau(  34) = (   0.0092240   2.9805883  10.6323155  )
        35           O1  tau(  35) = (   1.2789702   4.4681595  12.6395138  )
        36           O1  tau(  36) = (   5.2737968   4.4775610  12.6008310  )
        37           Ti1 tau(  37) = (   0.0460201   5.9176504  12.5434570  )
        38           Ti1 tau(  38) = (   3.3658678   4.4646095  12.4976877  )
        39           O1  tau(  39) = (   6.5297297   2.9761478  14.6509524  )
        40           O1  tau(  40) = (   3.3085871   2.9961499  13.9017917  )
        41           O1  tau(  41) = (   4.5138497   4.4896837  16.1272785  )
        42           O1  tau(  42) = (   1.9961282   4.4344792  16.0060688  )
        43           Ti1 tau(  43) = (   3.3116018   0.0224549  15.7990204  )
        44           Ti1 tau(  44) = (   6.5775847   4.6577750  16.0638065  )
        45           O1  tau(  45) = (   3.2900926   2.9813045   4.7018136  )
        46           O1  tau(  46) = (   1.3039711   4.4726057   6.0039043  )
        47           O1  tau(  47) = (   5.2763189   4.4711207   6.0039473  )
        48           N1  tau(  48) = (   6.5065777   2.6139801  18.6303060  )
        49           N1  tau(  49) = (   6.5364102   2.8728423  17.4370429  )
        50           C1  tau(  50) = (   6.4341180   3.7235584  19.6105657  )
        51           H1  tau(  51) = (   6.3066687   4.7022679  19.1488110  )
        52           H1  tau(  52) = (   5.6164842   3.4805663  20.2913871  )
        53           H1  tau(  53) = (   0.7823074   3.6964598  20.1845303  )
        54           O1  tau(  54) = (   3.0314481   5.0835218  18.9911038  )
        55           H1  tau(  55) = (   1.7414717   0.2044793  18.0242669  )
        56           O1  tau(  56) = (   2.7372941   0.2572207  18.0778760  )
        57           H1  tau(  57) = (   3.9343361   5.3466317  19.2387757  )

     number of k points=    10  Fermi-Dirac smearing, width (Ry)=  0.0073
                       cart. coord. in units 2pi/alat
        k(    1) = (   0.0000000   0.0000000   0.0000000), wk =   0.1250000
        k(    2) = (   0.0000000   0.0419351   0.0000000), wk =   0.2500000
        k(    3) = (   0.0000000  -0.0838702   0.0000000), wk =   0.1250000
        k(    4) = (   0.0379955   0.0000049   0.0000000), wk =   0.2500000
        k(    5) = (   0.0379955   0.0419400   0.0000000), wk =   0.2500000
        k(    6) = (   0.0379955  -0.0838652   0.0000000), wk =   0.2500000
        k(    7) = (   0.0379955  -0.0419301   0.0000000), wk =   0.2500000
        k(    8) = (  -0.0759910  -0.0000099   0.0000000), wk =   0.1250000
        k(    9) = (  -0.0759910   0.0419252   0.0000000), wk =   0.2500000
        k(   10) = (  -0.0759910  -0.0838800   0.0000000), wk =   0.1250000

     Initial potential from superposition of free atoms

     starting charge  392.99914, renormalised to  409.00000

     negative rho (up, down):  1.422E-02 0.000E+00

     %%%%%%%%%%%%%%%%%%%%%%%%%%%%%%%%%%%%%%%%%%%%%%%%%%%%%%%%%%%%%%%%%%%%%%%%
     %                                                                      %
     % You are using vdW-DF, which was implemented by the Thonhauser group. %
     % Please cite the following two papers that made this development      %
     % possible and the two reviews that describe the various versions:     %
     %                                                                      %
     %   T. Thonhauser et al., PRL 115, 136402 (2015).                      %
     %   T. Thonhauser et al., PRB 76, 125112 (2007).                       %
     %   K. Berland et al., Rep. Prog. Phys. 78, 066501 (2015).             %
     %   D.C. Langreth et al., J. Phys.: Condens. Matter 21, 084203 (2009). %
     %                                                                      %
     %                                                                      %
     % If you are calculating the stress with vdW-DF, please also cite:     %
     %                                                                      %
     %   R. Sabatini et al., J. Phys.: Condens. Matter 24, 424209 (2012).   %
     %                                                                      %
     %%%%%%%%%%%%%%%%%%%%%%%%%%%%%%%%%%%%%%%%%%%%%%%%%%%%%%%%%%%%%%%%%%%%%%%%

     Adding external electric field

     Computed dipole along edir(3) :
        Dipole              -16.7497 Ry au,        -42.5735 Debye
        Dipole field         -0.0316 Ry au,

        Potential amp.        2.9301 Ry
        Total length         46.3494 bohr

     Starting wfcs are  309 atomic wfcs
  @ DRIVER MODE: Message from server: STATUS
  @ DRIVER MODE: Message from server: POSDATA
  @ DRIVER MODE: Reading and sharing cell
  @ DRIVER MODE: Reading and sharing positions
  @ DRIVER MODE: Received positions

     Self-consistent Calculation

     iteration #  1     ecut=    29.40 Ry     beta= 0.05
     Davidson diagonalization with overlap
     c_bands:  5 eigenvalues not converged
     c_bands:  5 eigenvalues not converged
     c_bands:  3 eigenvalues not converged
     c_bands:  1 eigenvalues not converged
     c_bands:  4 eigenvalues not converged
     c_bands:  2 eigenvalues not converged
     c_bands:  5 eigenvalues not converged
     ethr =  1.00E-05,  avg # of iterations = 26.6

[...]

     total energy              =   -2110.45502764 Ry
     estimated scf accuracy    <   10326.49987540 Ry

     iteration #  2     ecut=    29.40 Ry     beta= 0.05
     Davidson diagonalization with overlap
     ethr =  1.00E-02,  avg # of iterations = 31.8

[...]

     iteration # 65     ecut=    29.40 Ry     beta= 0.05
     Davidson diagonalization with overlap
     c_bands:  1 eigenvalues not converged
     c_bands:  3 eigenvalues not converged
     ethr =  2.59E-08,  avg # of iterations = 16.1

[...]

     total energy              =   -3006.13722987 Ry
     estimated scf accuracy    <       0.00000009 Ry

     iteration # 80     ecut=    29.40 Ry     beta= 0.05
     Davidson diagonalization with overlap
     ethr =  2.11E-11,  avg # of iterations =  6.4

     negative rho (up, down):  1.470E-02 0.000E+00

     Adding external electric field

     Computed dipole along edir(3) :
        Dipole                0.8048 Ry au,          2.0455 Debye
        Dipole field          0.0015 Ry au,

        Potential amp.       -0.1408 Ry
        Total length         46.3494 bohr

     End of self-consistent calculation

          k = 0.0000 0.0000 0.0000 ( 18029 PWs)   bands (ev):

   -55.6072 -55.5731 -55.5647 -55.5360 -55.5284 -55.4428 -55.4215 -55.4059
   -55.3876 -55.3852 -55.3682 -55.3515 -54.9900 -54.9199 -54.5877 -54.5537
   -32.1054 -32.0904 -31.9507 -31.9427 -31.9199 -31.8997 -31.8751 -31.8619
   -31.8510 -31.7963 -31.7812 -31.7658 -31.7594 -31.7424 -31.7311 -31.7208
   -31.7122 -31.7033 -31.6915 -31.6648 -31.6643 -31.6440 -31.6122 -31.6111
   -31.6015 -31.5971 -31.5946 -31.5839 -31.5660 -31.5617 -31.5559 -31.5510
   -31.5402 -31.5385 -31.5293 -31.5170 -31.4974 -31.2680 -31.2114 -31.1803
   -31.1266 -31.1041 -30.9949 -30.9063 -30.8839 -30.8116 -30.7251 -30.6141
   -20.7496 -18.2982 -16.3072 -16.0812 -15.8983 -15.7678 -15.7126 -15.5609
   -15.4983 -15.4118 -15.3413 -15.2046 -15.1522 -15.1436 -15.1374 -15.1187
   -15.1130 -15.0526 -15.0416 -15.0401 -15.0291 -15.0013 -14.9622 -14.9489
   -14.9441 -14.8612 -14.7681 -14.7452 -14.7248 -14.7215 -14.6638 -14.2778
   -13.0896 -12.9731 -11.2801  -6.8137  -5.7453  -5.3761  -4.1829  -3.8041
    -3.7705  -3.6745  -3.5520  -3.5132  -3.4336  -3.3867  -3.2327  -3.0814
    -3.0260  -2.8536  -2.7849  -2.7577  -2.7139  -2.6304  -2.5232  -2.4697
    -2.4147  -2.4106  -2.3969  -2.3805  -2.3636  -2.3468  -2.2406  -2.2209
    -2.1684  -2.1479  -2.1215  -1.9867  -1.9589  -1.9313  -1.9205  -1.8939
    -1.8801  -1.8665  -1.8396  -1.8209  -1.7835  -1.7574  -1.6260  -1.5848
    -1.5418  -1.4511  -1.3907  -1.3334  -1.2351  -1.2028  -1.1340  -1.0640
    -1.0584  -1.0384  -1.0052  -0.9970  -0.8706  -0.7661  -0.7559  -0.6826
    -0.6213  -0.5711  -0.5300  -0.4646  -0.3813  -0.3637  -0.3560  -0.3357
    -0.2836  -0.2594  -0.0999  -0.0610  -0.0130   0.0123   0.0694   0.1026
     0.1455   0.1857   0.2258   0.2756   0.3097   0.3428   0.3611   0.3754
     0.3908   0.4221   0.4429   0.6087   0.6440   0.6672   0.7284   0.7576
     0.8454   0.9009   0.9658   1.0485   1.1567   1.3620   1.4349   1.5262
     1.6268   2.0062   2.0520   2.8293   3.5222   3.6142   3.6552   3.6857
     3.7671   3.7789   3.9800   4.0021   4.0319   4.1078

[...]

          k = 0.0380-0.0419 0.0000 ( 17876 PWs)   bands (ev):

[...]

          k =-0.0760-0.0000 0.0000 ( 17886 PWs)   bands (ev):

[...]

          k =-0.0760-0.0839 0.0000 ( 17948 PWs)   bands (ev):

   -55.5905 -55.5896 -55.5496 -55.5433 -55.5341 -55.4310 -55.4178 -55.4047
   -55.4038 -55.3698 -55.3698 -55.3671 -54.9861 -54.9237 -54.5707 -54.5706
   -31.9196 -31.9059 -31.9053 -31.9022 -31.8855 -31.8847 -31.8282 -31.8195
   -31.8072 -31.7875 -31.7791 -31.7553 -31.7504 -31.7247 -31.7189 -31.7182
   -31.7101 -31.7094 -31.7092 -31.7076 -31.7052 -31.7031 -31.6766 -31.6481
   -31.6344 -31.6305 -31.6217 -31.6056 -31.6045 -31.5994 -31.5941 -31.5852
   -31.5821 -31.5748 -31.5740 -31.5721 -31.4189 -31.2697 -31.2500 -31.1884
   -31.1655 -31.1278 -30.8966 -30.8965 -30.8077 -30.8076 -30.7684 -30.7684
   -20.7489 -18.2942 -15.7450 -15.7020 -15.6344 -15.5661 -15.5309 -15.4608
   -15.4173 -15.3756 -15.3234 -15.2853 -15.2765 -15.2167 -15.1967 -15.1638
   -15.1546 -15.1249 -15.1155 -15.1134 -15.0595 -15.0536 -15.0476 -15.0406
   -15.0343 -14.9755 -14.9356 -14.9276 -14.9226 -14.8243 -14.7019 -14.4465
   -13.0750 -13.0748 -11.2784  -6.8365  -5.7425  -5.3525  -4.1112  -3.8055
    -3.7562  -3.1138  -3.0232  -2.8294  -2.7987  -2.7164  -2.7123  -2.6695
    -2.5473  -2.5144  -2.4683  -2.4502  -2.4292  -2.4205  -2.4148  -2.3949
    -2.3889  -2.3705  -2.3416  -2.3207  -2.2883  -2.2756  -2.2627  -2.2547
    -2.2403  -2.2174  -2.2152  -2.1669  -2.1467  -2.1285  -2.0646  -2.0313
    -1.8454  -1.7963  -1.7512  -1.7443  -1.7234  -1.6933  -1.6768  -1.6602
    -1.6137  -1.5939  -1.5158  -1.4692  -1.3309  -1.3116  -1.2955  -1.2754
    -1.2087  -1.1508  -1.1005  -1.0147  -1.0093  -0.9606  -0.8675  -0.8083
    -0.8002  -0.7689  -0.7133  -0.7038  -0.6633  -0.5701  -0.5644  -0.5462
    -0.5405  -0.4645  -0.4205  -0.3582  -0.3500  -0.3302  -0.2993  -0.2712
    -0.2379  -0.1991  -0.1030  -0.0697   0.0239   0.1294   0.2064   0.3416
     0.4604   0.4730   0.5577   0.5823   0.6834   0.6949   0.7070   0.7484
     0.7841   0.8093   0.9284   0.9424   0.9654   0.9941   1.0798   1.7983
     1.7992   1.8717   1.8719   2.8188   3.7639   3.8779   3.9098   3.9204
     4.0053   4.0422   4.0614   4.0632   4.1283   4.2014

     the Fermi energy is     3.5251 ev

!    total energy              =   -3006.13725789 Ry
     estimated scf accuracy    <       0.00000004 Ry
     smearing contrib. (-TS)   =      -0.02166473 Ry
     internal energy E=F+TS    =   -3006.11559317 Ry

     The total energy is F=E-TS. E is the sum of the following terms:
     one-electron contribution =  -23514.39044936 Ry
     hartree contribution      =   11855.15233198 Ry
     xc contribution           =    -501.17085465 Ry
     ewald contribution        =    9154.29215671 Ry
     electric field correction =       0.00122216 Ry

     convergence has been achieved in  80 iterations

     Forces acting on atoms (cartesian axes, Ry/au):

     atom    1 type  1   force =     0.00020709   -0.00031798    0.09616963
     atom    2 type  1   force =    -0.00012619   -0.00050836   -0.17559921
     atom    3 type  2   force =    -0.00003057   -0.00015929   -0.02418813
     atom    4 type  2   force =     0.00000504   -0.00155799    0.05343801
     atom    5 type  2   force =    -0.01167085   -0.00075841    0.00384844
     atom    6 type  2   force =     0.01285851   -0.00002393    0.00196123
     atom    7 type  1   force =    -0.00132064    0.00026218   -0.00660444
     atom    8 type  1   force =     0.00074061    0.00795255    0.02425844
     atom    9 type  2   force =     0.00000479    0.00002823    0.00001341
     atom   10 type  2   force =    -0.00082548    0.00166196   -0.01691088
     atom   11 type  2   force =    -0.00001766    0.00003212   -0.00000372
     atom   12 type  2   force =    -0.00001058    0.00001560   -0.00001110
     atom   13 type  1   force =     0.00000832   -0.00000615    0.00003932
     atom   14 type  1   force =     0.00001871    0.00003586    0.00000735
     atom   15 type  2   force =    -0.00001347    0.00000739   -0.00001550
     atom   16 type  2   force =    -0.00000907   -0.00003957   -0.00005317
     atom   17 type  2   force =    -0.00001594   -0.00001771    0.00005729
     atom   18 type  2   force =    -0.00001013    0.00000939   -0.00003269
     atom   19 type  1   force =     0.00000455   -0.00010818    0.00001732
     atom   20 type  1   force =     0.00003898    0.00003290   -0.00005602
     atom   21 type  2   force =     0.00005599   -0.00004846    0.10323564
     atom   22 type  2   force =    -0.00004923   -0.00003564   -0.00005345
     atom   23 type  2   force =    -0.07148919   -0.00011824   -0.02771994
     atom   24 type  2   force =     0.07139185    0.00029212   -0.02772707
     atom   25 type  1   force =    -0.00002841   -0.00028722    0.09580451
     atom   26 type  1   force =    -0.00023287   -0.00034736   -0.17585196
     atom   27 type  2   force =     0.00005027   -0.00017602   -0.02324004
     atom   28 type  2   force =     0.00007088   -0.00125839    0.05304254
     atom   29 type  2   force =    -0.01201642    0.00042398    0.00402493
     atom   30 type  2   force =     0.01310279    0.00076756    0.00211104
     atom   31 type  1   force =    -0.00118469    0.00400267   -0.00991200
     atom   32 type  1   force =     0.00067679   -0.01006124    0.02473084
     atom   33 type  2   force =     0.00001453   -0.00001217   -0.00000016
     atom   34 type  2   force =    -0.00024911    0.00012479   -0.02260284
     atom   35 type  2   force =    -0.00000419   -0.00000612   -0.00002202
     atom   36 type  2   force =    -0.00001353    0.00001488   -0.00002827
     atom   37 type  1   force =    -0.00000285   -0.00004871    0.00003850
     atom   38 type  1   force =     0.00002843    0.00007589    0.00005758
     atom   39 type  2   force =    -0.00006011   -0.00000029   -0.00004443
     atom   40 type  2   force =    -0.00000281   -0.00003824   -0.00001504
     atom   41 type  2   force =     0.00000440    0.00000858    0.00004019
     atom   42 type  2   force =     0.00000363   -0.00000894   -0.00001540
     atom   43 type  1   force =    -0.00000968    0.00001303   -0.00011515
     atom   44 type  1   force =     0.00007572   -0.00003740    0.00001751
     atom   45 type  2   force =     0.00004633   -0.00009129    0.10323785
     atom   46 type  2   force =    -0.07150519   -0.00008510   -0.02774241
     atom   47 type  2   force =     0.07141477    0.00035468   -0.02773489
     atom   48 type  3   force =     0.00008833    0.00001833    0.00015740
     atom   49 type  3   force =    -0.00001013    0.00000444   -0.00015847
     atom   50 type  4   force =    -0.00003206    0.00000902   -0.00003674
     atom   51 type  5   force =    -0.00000328   -0.00005354    0.00005992
     atom   52 type  5   force =     0.00003386    0.00002032    0.00003296
     atom   53 type  5   force =    -0.00008868    0.00000755   -0.00001366
     atom   54 type  2   force =    -0.00262098   -0.00039353   -0.00283110
     atom   55 type  5   force =    -0.00008386    0.00012546   -0.00016603
     atom   56 type  2   force =    -0.00220285    0.00003230    0.00090222
     atom   57 type  5   force =     0.00499554    0.00027169    0.00220186

     Total force =     0.367197     Total SCF correction =     0.000464
  @ DRIVER MODE: Message from server: STATUS
  @ DRIVER MODE: Message from server: GETFORCE
  @ DRIVER MODE: Returning v,forces,stress,ensemble

     Writing output data file ./calc.save/
  @ DRIVER MODE: Message from server: EXIT
  @ DRIVE MODE: Exiting

     General routines

     Parallel routines

   This run was terminated on:  19:56: 9  26Sep2021

   JOB DONE.