     Program PWSCF v.6.7GPU starts on 12Oct2021 at 15:36:13

     R & G space division:  proc/nbgrp/npool/nimage =       8
     Reading input from /storage/home/hcoda1/3/ntian30/research/carbon/ACS_vib/ads_slab/NH2/out_0018/pw.inp
Warning: card &CELL ignored
Warning: card   CELL_DYNAMICS='IPI', ignored
Warning: card / ignored

     Current dimensions of program PWSCF are:
     Max number of different atomic species (ntypx) = 10
     Max number of k-points (npk) =  40000
     Max angular momentum in pseudopotentials (lmaxx) =  3
     Presently no symmetry can be used with electric field

     Message from routine cell_base_init:
     DEPRECATED: use true lattice parameter, not A to a.u. conversion factor

     IMPORTANT: XC functional enforced from input :
     Exchange-correlation= BEEF-VDW
                           (   1   4  43  14   2   0   0)
     Any further DFT definition will be discarded
     Please, verify this is what you really want

  @ DRIVER MODE: Connecting to
 qe_1139763_3181316.sched-torque.pace.gatech.eduv8zvgo96_scratch
  using UNIX socket
  @ DRIVER MODE: Message from server: STATUS
  @ DRIVER MODE: Message from server: INIT
  @ DRIVER MODE: Receiving replica           0          -1
  @ DRIVER MODE: Receiving encoded integer          25
  @ DRIVER MODE:  SCF:  T  FORCE:  T  STRESS:  F  VC:  F  ENSEMBLE:  F
  @ DRIVER MODE:  SCF:  T  FORCE:  T  STRESS:  F  VC:  F  ENSEMBLE:  F

     Using Slab Decomposition

     bravais-lattice index     =            0
     lattice parameter (alat)  =       1.8897  a.u.
     unit-cell volume          =    6658.9804 (a.u.)^3
     number of atoms/cell      =           50
     number of atomic types    =            4
     number of electrons       =       385.00
     number of Kohn-Sham states=          202
     kinetic-energy cutoff     =      29.3995  Ry
     charge density cutoff     =     293.9946  Ry
     scf convergence threshold =      7.3E-08
     mixing beta               =       0.0500
     number of iterations used =            8  plain     mixing
     Exchange-correlation= BEEF-VDW
                           (   1   4  43  14   2   0   0)

     celldm(1)=   1.889726  celldm(2)=   0.000000  celldm(3)=   0.000000
     celldm(4)=   0.000000  celldm(5)=   0.000000  celldm(6)=   0.000000

     crystal axes: (cart. coord. in units of alat)
               a(1) = (   6.579727   0.000000   0.000000 )
               a(2) = (  -0.000775   5.961596   0.000000 )
               a(3) = (   0.000000   0.000000  25.155947 )

     reciprocal axes: (cart. coord. in units 2 pi/alat)
               b(1) = (  0.151982  0.000020  0.000000 )
               b(2) = (  0.000000  0.167740  0.000000 )
               b(3) = (  0.000000  0.000000  0.039752 )

     PseudoPot. # 1 for Ti read from file:
     /storage/coda1/p-amedford6/0/shared/rich_project_chbe-medford/medford-share/data/pseudos_module/espresso/nninc/pbe/van/Ti.UPF
     MD5 check sum: 8e4df49b7f0d34bbd5052bf3f5ea0213
     Pseudo is Ultrasoft, Zval = 12.0
     Generated by new atomic code, or converted to UPF format
     Using radial grid of  851 points,  6 beta functions with:
                l(1) =   0
                l(2) =   0
                l(3) =   1
                l(4) =   1
                l(5) =   2
                l(6) =   2
     Q(r) pseudized with  8 coefficients,  rinner =    1.000   1.000   1.000
                                                       1.000   1.000

     PseudoPot. # 2 for O  read from file:
     /storage/coda1/p-amedford6/0/shared/rich_project_chbe-medford/medford-share/data/pseudos_module/espresso/nninc/pbe/van/O.UPF
     MD5 check sum: 78c19812648e8988a0fe644b0f25305e
     Pseudo is Ultrasoft, Zval =  6.0
     Generated by new atomic code, or converted to UPF format
     Using radial grid of  737 points,  4 beta functions with:
                l(1) =   0
                l(2) =   0
                l(3) =   1
                l(4) =   1
     Q(r) pseudized with  8 coefficients,  rinner =    0.800   0.800   0.800

     PseudoPot. # 3 for H  read from file:
     /storage/coda1/p-amedford6/0/shared/rich_project_chbe-medford/medford-share/data/pseudos_module/espresso/nninc/pbe/van/H.UPF
     MD5 check sum: b5ee9d7bfd3a09ee7748110bda690ff7
     Pseudo is Ultrasoft, Zval =  1.0
     Generated by new atomic code, or converted to UPF format
     Using radial grid of  615 points,  1 beta functions with:
                l(1) =   0
     Q(r) pseudized with  8 coefficients,  rinner =    0.800

     PseudoPot. # 4 for N  read from file:
     /storage/coda1/p-amedford6/0/shared/rich_project_chbe-medford/medford-share/data/pseudos_module/espresso/nninc/pbe/van/N.UPF
     MD5 check sum: 90d10febe142ad51ac9d5be1deb811c4
     Pseudo is Ultrasoft, Zval =  5.0
     Generated by new atomic code, or converted to UPF format
     Using radial grid of  729 points,  4 beta functions with:
                l(1) =   0
                l(2) =   0
                l(3) =   1
                l(4) =   1
     Q(r) pseudized with  8 coefficients,  rinner =    0.800   0.800   0.800

     atomic species   valence    mass     pseudopotential
        Ti1           12.00    47.86700     Ti( 1.00)
        O1             6.00    15.99900     O ( 1.00)
        H1             1.00     1.00800     H ( 1.00)
        N1             5.00    14.00700     N ( 1.00)

     No symmetry found

   Cartesian axes

     site n.     atom                  positions (alat units)
         1           Ti1 tau(   1) = (   0.0004258   2.9801865   6.0000000  )
         2           Ti1 tau(   2) = (   3.2906075   1.4906267   6.0002472  )
         3           O1  tau(   3) = (   0.0006271   0.0005054   7.9858123  )
         4           O1  tau(   4) = (   3.2906025   0.0005020   7.3038282  )
         5           O1  tau(   5) = (   4.5942328   1.4918067   9.2879030  )
         6           O1  tau(   6) = (   1.9868534   1.4903216   9.2879459  )
         7           Ti1 tau(   7) = (   3.2907910   2.8959150   9.1758416  )
         8           Ti1 tau(   8) = (   0.0015273   1.4827037   9.2680791  )
         9           O1  tau(   9) = (   3.3258991   5.9546141  11.3332578  )
        10           O1  tau(  10) = (   0.0116148   5.9584955  10.6183126  )
        11           O1  tau(  11) = (   1.3488932   1.4798543  12.6053297  )
        12           O1  tau(  12) = (   5.3234149   1.4779677  12.6259018  )
        13           Ti1 tau(  13) = (   0.0250334   2.9927558  12.6206450  )
        14           Ti1 tau(  14) = (   3.3016322   1.4795038  12.4820857  )
        15           O1  tau(  15) = (   0.0664024   0.0157593  14.6586037  )
        16           O1  tau(  16) = (   3.3323282   0.0041071  13.9289915  )
        17           O1  tau(  17) = (   4.5995015   1.5314437  16.0640773  )
        18           O1  tau(  18) = (   2.1161456   1.5293183  16.0749432  )
        19           Ti1 tau(  19) = (   3.3498380   3.0088313  15.6963580  )
        20           Ti1 tau(  20) = (   0.0530739   1.5396549  15.8437714  )
        21           O1  tau(  21) = (   3.2904802   0.0005063   4.7018136  )
        22           O1  tau(  22) = (   0.0625368   0.0441461  17.2188842  )
        23           O1  tau(  23) = (   1.3043587   1.4918075   6.0039043  )
        24           O1  tau(  24) = (   5.2767064   1.4903225   6.0039473  )
        25           Ti1 tau(  25) = (   0.0000382   5.9609847   6.0000000  )
        26           Ti1 tau(  26) = (   3.2902200   4.4714249   6.0002472  )
        27           O1  tau(  27) = (   0.0002396   2.9813036   7.9858123  )
        28           O1  tau(  28) = (   3.2902150   2.9813002   7.3038282  )
        29           O1  tau(  29) = (   4.5938453   4.4726049   9.2879030  )
        30           O1  tau(  30) = (   1.9864658   4.4711199   9.2879459  )
        31           Ti1 tau(  31) = (   3.2891106   5.8743827   9.1763621  )
        32           Ti1 tau(  32) = (   0.0006254   4.4649316   9.2693709  )
        33           O1  tau(  33) = (   3.3263537   2.9785333  11.3304563  )
        34           O1  tau(  34) = (   0.0092240   2.9805883  10.6323155  )
        35           O1  tau(  35) = (   1.3430786   4.4678698  12.6172051  )
        36           O1  tau(  36) = (   5.3277099   4.4710525  12.6377626  )
        37           Ti1 tau(  37) = (   0.0170098   0.0068522  12.5677129  )
        38           Ti1 tau(  38) = (   3.3012998   4.4598595  12.4837504  )
        39           O1  tau(  39) = (   0.0613649   2.9331972  14.6385027  )
        40           O1  tau(  40) = (   3.3336062   2.9900835  13.9042222  )
        41           O1  tau(  41) = (   4.5971590   4.4874278  16.0927711  )
        42           O1  tau(  42) = (   2.1143488   4.4887574  16.1000639  )
        43           Ti1 tau(  43) = (   3.3470598   0.0240971  15.7232225  )
        44           Ti1 tau(  44) = (   0.0592690   4.6672874  16.1350517  )
        45           O1  tau(  45) = (   3.2900926   2.9813045   4.7018136  )
        46           O1  tau(  46) = (   1.3039711   4.4726057   6.0039043  )
        47           O1  tau(  47) = (   5.2763189   4.4711207   6.0039473  )
        48           H1  tau(  48) = (   5.8602933   2.9036204  18.0417654  )
        49           H1  tau(  49) = (   0.9096825   2.8932289  17.9980414  )
        50           N1  tau(  50) = (   0.0797844   2.9726167  17.4294980  )

     number of k points=    10  Fermi-Dirac smearing, width (Ry)=  0.0073
                       cart. coord. in units 2pi/alat
        k(    1) = (   0.0000000   0.0000000   0.0000000), wk =   0.1250000
        k(    2) = (   0.0000000   0.0419351   0.0000000), wk =   0.2500000
        k(    3) = (   0.0000000  -0.0838702   0.0000000), wk =   0.1250000
        k(    4) = (   0.0379955   0.0000049   0.0000000), wk =   0.2500000
        k(    5) = (   0.0379955   0.0419400   0.0000000), wk =   0.2500000
        k(    6) = (   0.0379955  -0.0838652   0.0000000), wk =   0.2500000
        k(    7) = (   0.0379955  -0.0419301   0.0000000), wk =   0.2500000
        k(    8) = (  -0.0759910  -0.0000099   0.0000000), wk =   0.1250000
        k(    9) = (  -0.0759910   0.0419252   0.0000000), wk =   0.2500000
        k(   10) = (  -0.0759910  -0.0838800   0.0000000), wk =   0.1250000

     Initial potential from superposition of free atoms

     starting charge  368.99922, renormalised to  385.00000

     negative rho (up, down):  2.142E-02 0.000E+00

     %%%%%%%%%%%%%%%%%%%%%%%%%%%%%%%%%%%%%%%%%%%%%%%%%%%%%%%%%%%%%%%%%%%%%%%%
     %                                                                      %
     % You are using vdW-DF, which was implemented by the Thonhauser group. %
     % Please cite the following two papers that made this development      %
     % possible and the two reviews that describe the various versions:     %
     %                                                                      %
     %   T. Thonhauser et al., PRL 115, 136402 (2015).                      %
     %   T. Thonhauser et al., PRB 76, 125112 (2007).                       %
     %   K. Berland et al., Rep. Prog. Phys. 78, 066501 (2015).             %
     %   D.C. Langreth et al., J. Phys.: Condens. Matter 21, 084203 (2009). %
     %                                                                      %
     %                                                                      %
     % If you are calculating the stress with vdW-DF, please also cite:     %
     %                                                                      %
     %   R. Sabatini et al., J. Phys.: Condens. Matter 24, 424209 (2012).   %
     %                                                                      %
     %%%%%%%%%%%%%%%%%%%%%%%%%%%%%%%%%%%%%%%%%%%%%%%%%%%%%%%%%%%%%%%%%%%%%%%%

     Adding external electric field

     Computed dipole along edir(3) :
        Dipole               -1.9961 Ry au,         -5.0735 Debye
        Dipole field         -0.0038 Ry au,

        Potential amp.        0.3492 Ry
        Total length         46.3494 bohr

     Starting wfcs are  290 atomic wfcs
  @ DRIVER MODE: Message from server: STATUS
  @ DRIVER MODE: Message from server: POSDATA
  @ DRIVER MODE: Reading and sharing cell
  @ DRIVER MODE: Reading and sharing positions
  @ DRIVER MODE: Received positions

     Self-consistent Calculation

     iteration #  1     ecut=    29.40 Ry     beta= 0.05
     Davidson diagonalization with overlap
     c_bands:  2 eigenvalues not converged
     c_bands:  1 eigenvalues not converged
     c_bands:  4 eigenvalues not converged
     c_bands:  1 eigenvalues not converged
     c_bands:  3 eigenvalues not converged
     ethr =  1.00E-05,  avg # of iterations = 18.3

[...]

     total energy              =   -2907.97647608 Ry
     estimated scf accuracy    <      12.39029469 Ry

     iteration #  2     ecut=    29.40 Ry     beta= 0.05
     Davidson diagonalization with overlap
     ethr =  3.22E-03,  avg # of iterations =  1.0

[...]

     iteration # 62     ecut=    29.40 Ry     beta= 0.05
     Davidson diagonalization with overlap
     c_bands:  1 eigenvalues not converged
     ethr =  2.62E-11,  avg # of iterations = 16.6

[...]

     total energy              =   -2906.48792157 Ry
     estimated scf accuracy    <       0.00000009 Ry

     iteration # 63     ecut=    29.40 Ry     beta= 0.05
     Davidson diagonalization with overlap
     ethr =  2.28E-11,  avg # of iterations =  1.9

     negative rho (up, down):  2.070E-02 0.000E+00

     Adding external electric field

     Computed dipole along edir(3) :
        Dipole                0.6411 Ry au,          1.6295 Debye
        Dipole field          0.0012 Ry au,

        Potential amp.       -0.1122 Ry
        Total length         46.3494 bohr

     End of self-consistent calculation

          k = 0.0000 0.0000 0.0000 ( 18029 PWs)   bands (ev):

   -56.2014 -56.1945 -56.1673 -56.1585 -56.0976 -56.0245 -56.0160 -56.0066
   -55.9811 -55.9728 -55.9676 -55.9340 -55.7451 -55.4441 -55.1754 -55.1414
   -32.7554 -32.6828 -32.5384 -32.5133 -32.5060 -32.5021 -32.4948 -32.4580
   -32.4432 -32.4321 -32.3931 -32.3904 -32.3751 -32.3535 -32.3397 -32.3264
   -32.3236 -32.3048 -32.2851 -32.2585 -32.2407 -32.2191 -32.2110 -32.1983
   -32.1928 -32.1847 -32.1735 -32.1704 -32.1653 -32.1468 -32.1434 -32.1373
   -32.1355 -32.1233 -32.1204 -32.1131 -32.0798 -31.9997 -31.9265 -31.7350
   -31.7101 -31.6453 -31.5825 -31.4944 -31.4720 -31.3992 -31.3127 -31.2017
   -16.9292 -16.6704 -16.4544 -16.3487 -16.2768 -16.2197 -16.0278 -15.9109
   -15.8718 -15.7736 -15.7363 -15.7010 -15.6989 -15.6733 -15.6516 -15.6302
   -15.6199 -15.6014 -15.5643 -15.5553 -15.5188 -15.4642 -15.3609 -15.3444
   -15.3352 -15.2902 -15.2397 -15.2263 -14.7572 -13.6782 -13.5618 -13.5192
    -4.7703  -4.3059  -4.1158  -4.1006  -4.0654  -4.0284  -3.7991  -3.7578
    -3.4042  -3.3658  -3.3590  -3.3209  -3.3035  -3.2549  -3.0887  -3.0189
    -3.0106  -2.9710  -2.9692  -2.9547  -2.9531  -2.9226  -2.9176  -2.8001
    -2.7313  -2.6161  -2.5954  -2.5118  -2.4988  -2.4803  -2.4493  -2.4288
    -2.4203  -2.4108  -2.3829  -2.3717  -2.2309  -2.1970  -2.0432  -1.9977
    -1.9817  -1.8379  -1.8039  -1.6704  -1.6519  -1.6213  -1.5966  -1.5870
    -1.4938  -1.4692  -1.3751  -1.3372  -1.2658  -1.2601  -1.1996  -1.1820
    -1.0741  -1.0641  -1.0437  -0.9573  -0.9397  -0.9295  -0.8832  -0.7869
    -0.6362  -0.5991  -0.5947  -0.5717  -0.4990  -0.4559  -0.3757  -0.3547
    -0.3470  -0.2921  -0.2621  -0.2228  -0.1907  -0.1733  -0.1658  -0.1165
     0.0654   0.1026   0.1571   0.1907   0.1991   0.3484   0.3915   0.4675
     0.5716   0.7725   0.8211   0.8462   0.9642   1.0391   1.4175   1.4630
     2.9412   3.0177   3.0227   3.0746   3.1837   3.1992   3.3911   3.4134
     3.4359   3.4413

[...]

          k = 0.0380-0.0419 0.0000 ( 17876 PWs)   bands (ev):

[...]

          k =-0.0760-0.0000 0.0000 ( 17886 PWs)   bands (ev):

[...]

          k =-0.0760-0.0839 0.0000 ( 17948 PWs)   bands (ev):

   -56.1847 -56.1838 -56.1772 -56.1756 -56.0932 -56.0287 -56.0021 -55.9950
   -55.9903 -55.9886 -55.9512 -55.9505 -55.7443 -55.4448 -55.1584 -55.1583
   -32.5594 -32.5566 -32.4984 -32.4978 -32.4805 -32.4797 -32.4783 -32.4544
   -32.3991 -32.3912 -32.3713 -32.3655 -32.3567 -32.3189 -32.3075 -32.3041
   -32.3033 -32.3022 -32.2940 -32.2919 -32.2906 -32.2882 -32.2843 -32.2328
   -32.2110 -32.2077 -32.2072 -32.1934 -32.1872 -32.1868 -32.1833 -32.1828
   -32.1659 -32.1651 -32.1579 -32.1502 -32.0832 -32.0025 -31.9233 -31.7932
   -31.7116 -31.6673 -31.4847 -31.4846 -31.3954 -31.3952 -31.3560 -31.3560
   -16.3844 -16.3516 -16.1301 -16.1210 -16.1081 -16.1056 -15.9253 -15.8946
   -15.8915 -15.8588 -15.8412 -15.8067 -15.7690 -15.7371 -15.7040 -15.6929
   -15.6841 -15.6708 -15.6477 -15.6337 -15.6277 -15.6198 -15.5115 -15.5073
   -15.4774 -15.4157 -15.3400 -15.2018 -14.9155 -13.6637 -13.6636 -13.5380
    -4.7928  -3.6806  -3.6437  -3.3613  -3.3520  -3.3447  -3.2916  -3.1225
    -3.0830  -3.0554  -3.0479  -3.0071  -3.0031  -2.9902  -2.9772  -2.9476
    -2.9266  -2.9228  -2.9013  -2.8606  -2.8520  -2.8478  -2.8134  -2.8119
    -2.8064  -2.7647  -2.7344  -2.7215  -2.7020  -2.6821  -2.6538  -2.4052
    -2.3867  -2.3292  -2.3244  -2.3186  -2.2775  -2.2566  -2.2514  -2.2440
    -2.1496  -2.0478  -1.9189  -1.8876  -1.8776  -1.7950  -1.7461  -1.6340
    -1.5981  -1.5670  -1.5631  -1.4993  -1.4502  -1.3994  -1.3893  -1.3163
    -1.2818  -1.2719  -1.1699  -1.1523  -1.1475  -1.1442  -1.0349  -0.9578
    -0.9531  -0.9439  -0.9119  -0.9074  -0.8048  -0.8007  -0.7553  -0.6831
    -0.6792  -0.6575  -0.5130  -0.3820  -0.1892  -0.1517  -0.1188  -0.0497
     0.0285   0.0867   0.1147   0.1237   0.1368   0.1955   0.2351   0.3438
     0.3473   0.4541   0.5533   0.8153   1.2103   1.2110   1.2827   1.2828
     3.2232   3.2317   3.2621   3.2897   3.4429   3.4474   3.4691   3.4699
     3.6148   3.6288

     the Fermi energy is     2.9352 ev

!    total energy              =   -2906.48794793 Ry
     estimated scf accuracy    <       0.00000006 Ry
     smearing contrib. (-TS)   =      -0.02176149 Ry
     internal energy E=F+TS    =   -2906.46618644 Ry

     The total energy is F=E-TS. E is the sum of the following terms:
     one-electron contribution =  -25122.61031079 Ry
     hartree contribution      =   12641.44960944 Ry
     xc contribution           =    -475.66282185 Ry
     ewald contribution        =   10050.35656110 Ry
     electric field correction =       0.00077566 Ry

     convergence has been achieved in  63 iterations

     Forces acting on atoms (cartesian axes, Ry/au):

     atom    1 type  1   force =     0.00016155   -0.00026681    0.09705764
     atom    2 type  1   force =    -0.00009205   -0.00053842   -0.17530776
     atom    3 type  2   force =     0.00015027   -0.00009152   -0.02538339
     atom    4 type  2   force =     0.00004957   -0.00152443    0.05271280
     atom    5 type  2   force =    -0.01199039   -0.00048543    0.00190244
     atom    6 type  2   force =     0.01459369   -0.00001824    0.00351720
     atom    7 type  1   force =     0.00108036    0.00035083   -0.01157180
     atom    8 type  1   force =    -0.00050829    0.00755539    0.03127545
     atom    9 type  2   force =     0.00006699    0.00013259   -0.00039089
     atom   10 type  2   force =    -0.00054144    0.00073468   -0.01780687
     atom   11 type  2   force =     0.00023866   -0.00020226   -0.00000129
     atom   12 type  2   force =    -0.00020717   -0.00007303    0.00000292
     atom   13 type  1   force =    -0.00030612    0.00076738    0.00089958
     atom   14 type  1   force =    -0.00068361    0.00037938   -0.00170955
     atom   15 type  2   force =    -0.00022268   -0.00023540   -0.00002598
     atom   16 type  2   force =     0.00024598    0.00000087    0.00099954
     atom   17 type  2   force =    -0.00008798   -0.00007528    0.00014399
     atom   18 type  2   force =    -0.00049902    0.00007690    0.00001209
     atom   19 type  1   force =    -0.00028942    0.00032143    0.00103368
     atom   20 type  1   force =    -0.00012642    0.00226485    0.00136625
     atom   21 type  2   force =     0.00003426   -0.00009073    0.10317910
     atom   22 type  2   force =    -0.00024486    0.00072098    0.00104416
     atom   23 type  2   force =    -0.07155170   -0.00018736   -0.02784595
     atom   24 type  2   force =     0.07147636    0.00028063   -0.02790001
     atom   25 type  1   force =     0.00002503   -0.00025620    0.09659256
     atom   26 type  1   force =    -0.00009435   -0.00035684   -0.17546483
     atom   27 type  2   force =     0.00018690   -0.00020543   -0.02447819
     atom   28 type  2   force =     0.00009266   -0.00126230    0.05251023
     atom   29 type  2   force =    -0.01214912    0.00020282    0.00165616
     atom   30 type  2   force =     0.01464162    0.00048275    0.00330392
     atom   31 type  1   force =     0.00095887    0.00320720   -0.01214771
     atom   32 type  1   force =    -0.00069400   -0.00921155    0.03172583
     atom   33 type  2   force =     0.00010783    0.00003138    0.00010699
     atom   34 type  2   force =    -0.00009479    0.00027148   -0.02688445
     atom   35 type  2   force =     0.00044955    0.00016335    0.00021184
     atom   36 type  2   force =    -0.00038789    0.00019179    0.00026072
     atom   37 type  1   force =    -0.00054556    0.00021117    0.00018885
     atom   38 type  1   force =    -0.00072902   -0.00007479   -0.00167678
     atom   39 type  2   force =    -0.00004251   -0.00009921    0.00068264
     atom   40 type  2   force =     0.00013796   -0.00012439    0.00052648
     atom   41 type  2   force =    -0.00054183    0.00009012   -0.00016783
     atom   42 type  2   force =    -0.00015839    0.00004621   -0.00021531
     atom   43 type  1   force =    -0.00016206   -0.00011110    0.00098099
     atom   44 type  1   force =    -0.00018949   -0.00265824    0.00076096
     atom   45 type  2   force =     0.00001820   -0.00009380    0.10316520
     atom   46 type  2   force =    -0.07155117   -0.00011643   -0.02783300
     atom   47 type  2   force =     0.07150080    0.00029451   -0.02790583
     atom   48 type  3   force =    -0.00663901   -0.00105372    0.00653042
     atom   49 type  3   force =     0.00593248   -0.00054929    0.00689360
     atom   50 type  4   force =    -0.00081921    0.00118351   -0.01652683

     Total force =     0.369594     Total SCF correction =     0.000523
  @ DRIVER MODE: Message from server: STATUS
  @ DRIVER MODE: Message from server: GETFORCE
  @ DRIVER MODE: Returning v,forces,stress,ensemble

     Writing output data file ./calc.save/
  @ DRIVER MODE: Message from server: EXIT
  @ DRIVE MODE: Exiting

     General routines

     Parallel routines

   This run was terminated on:  15:58:10  12Oct2021

   JOB DONE.