     Program PWSCF v.6.7GPU starts on 15Jul2021 at 23:35:56

     R & G space division:  proc/nbgrp/npool/nimage =      16
     Reading input from /storage/home/hcoda1/3/ntian30/research/carbon/15Jul_vib/ads_slab/CH3N_a/out_0018/pw.inp
Warning: card &CELL ignored
Warning: card   CELL_DYNAMICS='IPI', ignored
Warning: card / ignored

     Current dimensions of program PWSCF are:
     Max number of different atomic species (ntypx) = 10
     Max number of k-points (npk) =  40000
     Max angular momentum in pseudopotentials (lmaxx) =  3
     Presently no symmetry can be used with electric field

     Message from routine cell_base_init:
     DEPRECATED: use true lattice parameter, not A to a.u. conversion factor

     IMPORTANT: XC functional enforced from input :
     Exchange-correlation= BEEF-VDW
                           (   1   4  43  14   2   0   0)
     Any further DFT definition will be discarded
     Please, verify this is what you really want

  @ DRIVER MODE: Connecting to
 qe_1139763_2351643.sched-torque.pace.gatech.edufx8fhaph_scratch
  using UNIX socket
  @ DRIVER MODE: Message from server: STATUS
  @ DRIVER MODE: Message from server: INIT
  @ DRIVER MODE: Receiving replica           0          -1
  @ DRIVER MODE: Receiving encoded integer          25
  @ DRIVER MODE:  SCF:  T  FORCE:  T  STRESS:  F  VC:  F  ENSEMBLE:  F
  @ DRIVER MODE:  SCF:  T  FORCE:  T  STRESS:  F  VC:  F  ENSEMBLE:  F

     Using Slab Decomposition

     bravais-lattice index     =            0
     lattice parameter (alat)  =       1.8897  a.u.
     unit-cell volume          =    6658.9804 (a.u.)^3
     number of atoms/cell      =           52
     number of atomic types    =            5
     number of electrons       =       390.00
     number of Kohn-Sham states=          205
     kinetic-energy cutoff     =      29.3995  Ry
     charge density cutoff     =     293.9946  Ry
     scf convergence threshold =      7.3E-08
     mixing beta               =       0.0500
     number of iterations used =            8  plain     mixing
     Exchange-correlation= BEEF-VDW
                           (   1   4  43  14   2   0   0)

     celldm(1)=   1.889726  celldm(2)=   0.000000  celldm(3)=   0.000000
     celldm(4)=   0.000000  celldm(5)=   0.000000  celldm(6)=   0.000000

     crystal axes: (cart. coord. in units of alat)
               a(1) = (   6.579727   0.000000   0.000000 )
               a(2) = (  -0.000775   5.961596   0.000000 )
               a(3) = (   0.000000   0.000000  25.155947 )

     reciprocal axes: (cart. coord. in units 2 pi/alat)
               b(1) = (  0.151982  0.000020  0.000000 )
               b(2) = (  0.000000  0.167740  0.000000 )
               b(3) = (  0.000000  0.000000  0.039752 )

     PseudoPot. # 1 for Ti read from file:
     /storage/coda1/p-amedford6/0/shared/rich_project_chbe-medford/medford-share/data/pseudos_module/espresso/nninc/pbe/van/Ti.UPF
     MD5 check sum: 8e4df49b7f0d34bbd5052bf3f5ea0213
     Pseudo is Ultrasoft, Zval = 12.0
     Generated by new atomic code, or converted to UPF format
     Using radial grid of  851 points,  6 beta functions with:
                l(1) =   0
                l(2) =   0
                l(3) =   1
                l(4) =   1
                l(5) =   2
                l(6) =   2
     Q(r) pseudized with  8 coefficients,  rinner =    1.000   1.000   1.000
                                                       1.000   1.000

     PseudoPot. # 2 for O  read from file:
     /storage/coda1/p-amedford6/0/shared/rich_project_chbe-medford/medford-share/data/pseudos_module/espresso/nninc/pbe/van/O.UPF
     MD5 check sum: 78c19812648e8988a0fe644b0f25305e
     Pseudo is Ultrasoft, Zval =  6.0
     Generated by new atomic code, or converted to UPF format
     Using radial grid of  737 points,  4 beta functions with:
                l(1) =   0
                l(2) =   0
                l(3) =   1
                l(4) =   1
     Q(r) pseudized with  8 coefficients,  rinner =    0.800   0.800   0.800

     PseudoPot. # 3 for N  read from file:
     /storage/coda1/p-amedford6/0/shared/rich_project_chbe-medford/medford-share/data/pseudos_module/espresso/nninc/pbe/van/N.UPF
     MD5 check sum: 90d10febe142ad51ac9d5be1deb811c4
     Pseudo is Ultrasoft, Zval =  5.0
     Generated by new atomic code, or converted to UPF format
     Using radial grid of  729 points,  4 beta functions with:
                l(1) =   0
                l(2) =   0
                l(3) =   1
                l(4) =   1
     Q(r) pseudized with  8 coefficients,  rinner =    0.800   0.800   0.800

     PseudoPot. # 4 for C  read from file:
     /storage/coda1/p-amedford6/0/shared/rich_project_chbe-medford/medford-share/data/pseudos_module/espresso/nninc/pbe/van/C.UPF
     MD5 check sum: 1a69bf6b8db32088f5b2163dbdb77a27
     Pseudo is Ultrasoft, Zval =  4.0
     Generated by new atomic code, or converted to UPF format
     Using radial grid of  721 points,  4 beta functions with:
                l(1) =   0
                l(2) =   0
                l(3) =   1
                l(4) =   1
     Q(r) pseudized with  8 coefficients,  rinner =    0.800   0.800   0.800

     PseudoPot. # 5 for H  read from file:
     /storage/coda1/p-amedford6/0/shared/rich_project_chbe-medford/medford-share/data/pseudos_module/espresso/nninc/pbe/van/H.UPF
     MD5 check sum: b5ee9d7bfd3a09ee7748110bda690ff7
     Pseudo is Ultrasoft, Zval =  1.0
     Generated by new atomic code, or converted to UPF format
     Using radial grid of  615 points,  1 beta functions with:
                l(1) =   0
     Q(r) pseudized with  8 coefficients,  rinner =    0.800

     atomic species   valence    mass     pseudopotential
        Ti1           12.00    47.86700     Ti( 1.00)
        O1             6.00    15.99900     O ( 1.00)
        N1             5.00    14.00700     N ( 1.00)
        C1             4.00    12.01100     C ( 1.00)
        H1             1.00     1.00800     H ( 1.00)

     Starting magnetic structure
     atomic species   magnetization
        Ti1          0.000
        O1           0.000
        N1           0.000
        C1           0.025
        H1           0.000

     No symmetry found

   Cartesian axes

     site n.     atom                  positions (alat units)
         1           Ti1 tau(   1) = (   0.0004258   2.9801865   6.0000000  )
         2           Ti1 tau(   2) = (   3.2906075   1.4906267   6.0002472  )
         3           O1  tau(   3) = (   0.0006271   0.0005054   7.9858123  )
         4           O1  tau(   4) = (   3.2906025   0.0005020   7.3038282  )
         5           O1  tau(   5) = (   4.5942328   1.4918067   9.2879030  )
         6           O1  tau(   6) = (   1.9868534   1.4903216   9.2879459  )
         7           Ti1 tau(   7) = (   3.2907910   2.8959150   9.1758416  )
         8           Ti1 tau(   8) = (   0.0015273   1.4827037   9.2680791  )
         9           O1  tau(   9) = (   3.2848820   0.0184509  11.2968037  )
        10           O1  tau(  10) = (   0.0116148   5.9584955  10.6183126  )
        11           O1  tau(  11) = (   1.3164307   1.5202202  12.6152053  )
        12           O1  tau(  12) = (   5.2938533   1.5248534  12.6363518  )
        13           Ti1 tau(  13) = (   6.4693392   3.0155455  12.7604093  )
        14           Ti1 tau(  14) = (   3.1621140   1.5165027  12.4659144  )
        15           O1  tau(  15) = (   0.0250032   0.0426882  14.5925537  )
        16           O1  tau(  16) = (   3.2896737   0.0171256  13.8799622  )
        17           O1  tau(  17) = (   4.5365032   1.4993634  16.0438468  )
        18           O1  tau(  18) = (   2.0814567   1.5015292  16.0591106  )
        19           Ti1 tau(  19) = (   3.3082904   2.9956922  15.6854367  )
        20           Ti1 tau(  20) = (   0.0032501   1.4479889  16.1249605  )
        21           O1  tau(  21) = (   3.2904802   0.0005063   4.7018136  )
        22           O1  tau(  22) = (   0.0161699   0.0004382  17.1970091  )
        23           O1  tau(  23) = (   1.3043587   1.4918075   6.0039043  )
        24           O1  tau(  24) = (   5.2767064   1.4903225   6.0039473  )
        25           Ti1 tau(  25) = (   0.0000382   5.9609847   6.0000000  )
        26           Ti1 tau(  26) = (   3.2902200   4.4714249   6.0002472  )
        27           O1  tau(  27) = (   0.0002396   2.9813036   7.9858123  )
        28           O1  tau(  28) = (   3.2902150   2.9813002   7.3038282  )
        29           O1  tau(  29) = (   4.5938453   4.4726049   9.2879030  )
        30           O1  tau(  30) = (   1.9864658   4.4711199   9.2879459  )
        31           Ti1 tau(  31) = (   3.2891106   5.8743827   9.1763621  )
        32           Ti1 tau(  32) = (   0.0006254   4.4649316   9.2693709  )
        33           O1  tau(  33) = (   3.2855107   2.9994495  11.2959752  )
        34           O1  tau(  34) = (   0.0092240   2.9805883  10.6323155  )
        35           O1  tau(  35) = (   1.3179678   4.4860142  12.6155112  )
        36           O1  tau(  36) = (   5.2920789   4.4901865  12.6316709  )
        37           Ti1 tau(  37) = (   6.5050993   0.0355131  12.7707974  )
        38           Ti1 tau(  38) = (   3.1594757   4.4963870  12.4672366  )
        39           O1  tau(  39) = (   6.5726527   3.0227966  14.6583025  )
        40           O1  tau(  40) = (   3.2932321   2.9979836  13.8792693  )
        41           O1  tau(  41) = (   4.5322310   4.4839795  16.0418810  )
        42           O1  tau(  42) = (   2.0800586   4.4799519  16.0553745  )
        43           Ti1 tau(  43) = (   3.2910362   0.0127607  15.6894215  )
        44           Ti1 tau(  44) = (   0.0049462   4.4269923  16.0943486  )
        45           O1  tau(  45) = (   3.2900926   2.9813045   4.7018136  )
        46           O1  tau(  46) = (   1.3039711   4.4726057   6.0039043  )
        47           O1  tau(  47) = (   5.2763189   4.4711207   6.0039473  )
        48           N1  tau(  48) = (   0.0596666   2.9942962  17.3216073  )
        49           C1  tau(  49) = (   0.3918855   2.9774893  18.7266025  )
        50           H1  tau(  50) = (   0.0017595   3.8652167  19.2443835  )
        51           H1  tau(  51) = (   0.0043965   2.0815098  19.2200810  )
        52           H1  tau(  52) = (   1.4843755   2.9788857  18.8581259  )

     number of k points=    10  Fermi-Dirac smearing, width (Ry)=  0.0073
                       cart. coord. in units 2pi/alat
        k(    1) = (   0.0000000   0.0000000   0.0000000), wk =   0.0625000
        k(    2) = (   0.0000000   0.0419351   0.0000000), wk =   0.1250000
        k(    3) = (   0.0000000  -0.0838702   0.0000000), wk =   0.0625000
        k(    4) = (   0.0379955   0.0000049   0.0000000), wk =   0.1250000
        k(    5) = (   0.0379955   0.0419400   0.0000000), wk =   0.1250000
        k(    6) = (   0.0379955  -0.0838652   0.0000000), wk =   0.1250000
        k(    7) = (   0.0379955  -0.0419301   0.0000000), wk =   0.1250000
        k(    8) = (  -0.0759910  -0.0000099   0.0000000), wk =   0.0625000
        k(    9) = (  -0.0759910   0.0419252   0.0000000), wk =   0.1250000
        k(   10) = (  -0.0759910  -0.0838800   0.0000000), wk =   0.0625000

     Initial potential from superposition of free atoms

     starting charge  373.99917, renormalised to  390.00000

     negative rho (up, down):  8.644E-03 8.651E-03

     %%%%%%%%%%%%%%%%%%%%%%%%%%%%%%%%%%%%%%%%%%%%%%%%%%%%%%%%%%%%%%%%%%%%%%%%
     %                                                                      %
     % You are using vdW-DF, which was implemented by the Thonhauser group. %
     % Please cite the following two papers that made this development      %
     % possible and the two reviews that describe the various versions:     %
     %                                                                      %
     %   T. Thonhauser et al., PRL 115, 136402 (2015).                      %
     %   T. Thonhauser et al., PRB 76, 125112 (2007).                       %
     %   K. Berland et al., Rep. Prog. Phys. 78, 066501 (2015).             %
     %   D.C. Langreth et al., J. Phys.: Condens. Matter 21, 084203 (2009). %
     %                                                                      %
     %                                                                      %
     % If you are calculating the stress with vdW-DF, please also cite:     %
     %                                                                      %
     %   R. Sabatini et al., J. Phys.: Condens. Matter 24, 424209 (2012).   %
     %                                                                      %
     %%%%%%%%%%%%%%%%%%%%%%%%%%%%%%%%%%%%%%%%%%%%%%%%%%%%%%%%%%%%%%%%%%%%%%%%

     Adding external electric field

     Computed dipole along edir(3) :
        Dipole               -4.6271 Ry au,        -11.7609 Debye
        Dipole field         -0.0087 Ry au,

        Potential amp.        0.8094 Ry
        Total length         46.3494 bohr

[...]

     Starting wfcs are  295 atomic wfcs
  @ DRIVER MODE: Message from server: STATUS
  @ DRIVER MODE: Message from server: POSDATA
  @ DRIVER MODE: Reading and sharing cell
  @ DRIVER MODE: Reading and sharing positions
  @ DRIVER MODE: Received positions

     Self-consistent Calculation

     iteration #  1     ecut=    29.40 Ry     beta= 0.05
     Davidson diagonalization with overlap
     c_bands:  3 eigenvalues not converged
     c_bands:  3 eigenvalues not converged
     c_bands:  2 eigenvalues not converged
     c_bands:  4 eigenvalues not converged
     c_bands:  4 eigenvalues not converged
     c_bands:  2 eigenvalues not converged
     c_bands:  3 eigenvalues not converged
     c_bands:  2 eigenvalues not converged
     c_bands:  4 eigenvalues not converged
     c_bands:  2 eigenvalues not converged
     c_bands:  2 eigenvalues not converged
     c_bands:  4 eigenvalues not converged
     c_bands:  2 eigenvalues not converged
     c_bands:  4 eigenvalues not converged
     c_bands:  2 eigenvalues not converged
     c_bands:  4 eigenvalues not converged
     c_bands:  2 eigenvalues not converged
     ethr =  1.00E-05,  avg # of iterations = 19.8

[...]

     total energy              =   -2876.90767170 Ry
     estimated scf accuracy    <     486.54405822 Ry

     total magnetization       =     0.13 Bohr mag/cell
     absolute magnetization    =     0.16 Bohr mag/cell

     iteration #  2     ecut=    29.40 Ry     beta= 0.05
     Davidson diagonalization with overlap
     ethr =  1.00E-02,  avg # of iterations = 13.6

[...]

     iteration # 32     ecut=    29.40 Ry     beta= 0.05
     Davidson diagonalization with overlap
     c_bands:  2 eigenvalues not converged
     c_bands:  2 eigenvalues not converged
     ethr =  4.19E-07,  avg # of iterations =  9.2

[...]

     total energy              =   -2919.13332592 Ry
     estimated scf accuracy    <       0.00000008 Ry

[...]

     iteration # 59     ecut=    29.40 Ry     beta= 0.05
     Davidson diagonalization with overlap
     ethr =  1.94E-11,  avg # of iterations =  5.0

     negative rho (up, down):  8.883E-03 8.883E-03

[...]

     Adding external electric field

     Computed dipole along edir(3) :
        Dipole                0.2503 Ry au,          0.6362 Debye
        Dipole field          0.0005 Ry au,

        Potential amp.       -0.0438 Ry
        Total length         46.3494 bohr

     Magnetic moment per site  (integrated on atomic sphere of radius R)
     atom   1 (R=0.743)  charge=  8.0712  magn=  0.0000
     atom   2 (R=0.743)  charge=  8.0673  magn=  0.0001
     atom   3 (R=0.743)  charge=  5.0508  magn=  0.0000
     atom   4 (R=0.743)  charge=  5.0897  magn= -0.0000
     atom   5 (R=0.743)  charge=  5.0527  magn= -0.0000
     atom   6 (R=0.743)  charge=  5.0540  magn= -0.0000
     atom   7 (R=0.743)  charge=  8.0606  magn=  0.0000
     atom   8 (R=0.743)  charge=  8.0480  magn=  0.0000
     atom   9 (R=0.743)  charge=  5.0677  magn= -0.0000
     atom  10 (R=0.743)  charge=  4.9974  magn=  0.0000
     atom  11 (R=0.743)  charge=  5.0557  magn= -0.0000
     atom  12 (R=0.743)  charge=  5.0584  magn= -0.0000
     atom  13 (R=0.743)  charge=  8.0594  magn=  0.0000
     atom  14 (R=0.743)  charge=  8.0663  magn=  0.0000
     atom  15 (R=0.743)  charge=  5.0445  magn= -0.0000
     atom  16 (R=0.743)  charge=  5.0715  magn= -0.0000
     atom  17 (R=0.743)  charge=  5.0432  magn= -0.0000
     atom  18 (R=0.743)  charge=  5.0420  magn= -0.0000
     atom  19 (R=0.743)  charge=  8.0873  magn=  0.0000
     atom  20 (R=0.743)  charge=  8.0865  magn=  0.0000
     atom  21 (R=0.743)  charge=  4.9345  magn= -0.0003
     atom  22 (R=0.743)  charge=  5.0261  magn= -0.0000
     atom  23 (R=0.743)  charge=  5.0425  magn= -0.0000
     atom  24 (R=0.743)  charge=  5.0426  magn=  0.0000
     atom  25 (R=0.743)  charge=  8.0712  magn= -0.0000
     atom  26 (R=0.743)  charge=  8.0673  magn=  0.0001
     atom  27 (R=0.743)  charge=  5.0507  magn=  0.0000
     atom  28 (R=0.743)  charge=  5.0899  magn= -0.0000
     atom  29 (R=0.743)  charge=  5.0534  magn= -0.0000
     atom  30 (R=0.743)  charge=  5.0547  magn= -0.0000
     atom  31 (R=0.743)  charge=  8.0608  magn=  0.0000
     atom  32 (R=0.743)  charge=  8.0482  magn=  0.0000
     atom  33 (R=0.743)  charge=  5.0679  magn= -0.0000
     atom  34 (R=0.743)  charge=  4.9963  magn= -0.0000
     atom  35 (R=0.743)  charge=  5.0558  magn= -0.0000
     atom  36 (R=0.743)  charge=  5.0580  magn= -0.0000
     atom  37 (R=0.743)  charge=  8.0669  magn=  0.0000
     atom  38 (R=0.743)  charge=  8.0667  magn=  0.0000
     atom  39 (R=0.743)  charge=  5.0387  magn= -0.0000
     atom  40 (R=0.743)  charge=  5.0730  magn= -0.0000
     atom  41 (R=0.743)  charge=  5.0439  magn= -0.0000
     atom  42 (R=0.743)  charge=  5.0430  magn= -0.0000
     atom  43 (R=0.743)  charge=  8.0878  magn=  0.0000
     atom  44 (R=0.743)  charge=  8.0857  magn= -0.0000
     atom  45 (R=0.743)  charge=  4.9345  magn= -0.0002
     atom  46 (R=0.743)  charge=  5.0425  magn= -0.0000
     atom  47 (R=0.743)  charge=  5.0426  magn= -0.0000
     atom  48 (R=0.596)  charge=  2.7577  magn=  0.0000
     atom  49 (R=0.451)  charge=  0.8540  magn=  0.0000
     atom  50 (R=0.451)  charge=  0.5073  magn= -0.0000
     atom  51 (R=0.451)  charge=  0.5114  magn= -0.0000
     atom  52 (R=0.451)  charge=  0.5057  magn= -0.0000

     End of self-consistent calculation

 ------ SPIN UP ------------

          k = 0.0000 0.0000 0.0000 ( 18029 PWs)   bands (ev):

   -56.8991 -56.8655 -56.0120 -56.0026 -55.9769 -55.9701 -55.8620 -55.8262
   -55.6443 -55.6091 -55.5615 -55.5388 -55.5276 -55.4410 -54.9963 -54.9434
   -33.3265 -33.1732 -33.1450 -33.0754 -32.9844 -32.9525 -32.4853 -32.4761
   -32.4048 -32.2978 -32.2522 -32.2254 -32.2103 -32.1863 -32.1535 -32.1504
   -32.1426 -32.1408 -32.1166 -32.1084 -32.1022 -32.0703 -32.0442 -32.0291
   -32.0154 -31.9982 -31.9893 -31.9658 -31.9534 -31.9000 -31.8758 -31.8758
   -31.7831 -31.7823 -31.7721 -31.7141 -31.7104 -31.6887 -31.6688 -31.6472
   -31.6229 -31.5778 -31.5184 -31.2392 -31.2206 -31.1928 -31.1645 -31.0463
   -17.0609 -16.6211 -16.3901 -16.2601 -16.1885 -16.1382 -16.0904 -15.9629
   -15.8923 -15.8891 -15.8521 -15.8124 -15.7444 -15.6051 -15.5077 -15.4479
   -15.4046 -15.2851 -15.2280 -15.1910 -15.1830 -15.1525 -15.1321 -14.9348
   -14.9125 -14.8166 -14.7990 -14.6759 -14.4479 -14.0590 -13.9490 -13.0832
    -7.8015  -4.6272  -4.1173  -3.8744  -3.7921  -3.6815  -3.6744  -3.5919
    -3.4783  -3.4273  -3.3818  -3.2662  -3.2616  -3.1165  -3.0841  -3.0736
    -3.0669  -3.0236  -2.9946  -2.9511  -2.8989  -2.8909  -2.8884  -2.7370
    -2.6378  -2.5670  -2.5453  -2.5280  -2.5002  -2.4068  -2.4028  -2.3884
    -2.3848  -2.2890  -2.1401  -2.1297  -2.0956  -2.0598  -2.0557  -2.0118
    -2.0015  -1.8459  -1.8015  -1.6854  -1.6731  -1.6385  -1.5724  -1.5689
    -1.4528  -1.3972  -1.3516  -1.3062  -1.1994  -1.1544  -1.1252  -1.0360
    -0.9758  -0.9389  -0.9197  -0.9007  -0.7932  -0.7862  -0.7699  -0.6787
    -0.6729  -0.6226  -0.5330  -0.5104  -0.5085  -0.4178  -0.4095  -0.3103
    -0.2768  -0.2240  -0.1939  -0.1136  -0.0834   0.0209   0.0593   0.0752
     0.2047   0.2203   0.2783   0.3451   0.4015   0.4450   0.4610   0.4956
     0.5046   0.5979   0.7055   0.7077   0.8196   0.8567   1.0140   1.0528
     1.3506   1.3610   2.0233   2.3763   2.5371   2.8352   3.0300   3.1427
     3.3529   3.3669   3.3725   3.5533   3.6009

[...]

          k =-0.0760-0.0000 0.0000 ( 17886 PWs)   bands (ev):

[...]

 ------ SPIN DOWN ----------

[...]

          k = 0.0380-0.0419 0.0000 ( 17876 PWs)   bands (ev):

[...]

          k =-0.0760-0.0839 0.0000 ( 17948 PWs)   bands (ev):

   -56.8824 -56.8821 -55.9958 -55.9915 -55.9871 -55.9867 -55.8470 -55.8410
   -55.6292 -55.6239 -55.5441 -55.5440 -55.5355 -55.4441 -54.9894 -54.9500
   -33.1590 -33.1587 -33.1434 -33.1432 -33.0285 -33.0282 -32.3149 -32.3125
   -32.3000 -32.2947 -32.2419 -32.2405 -32.1979 -32.1972 -32.1969 -32.1931
   -32.1855 -32.1830 -32.1819 -32.1800 -32.0987 -32.0936 -32.0474 -32.0437
   -31.9808 -31.9730 -31.9114 -31.9056 -31.8884 -31.8883 -31.8664 -31.8278
   -31.8265 -31.7930 -31.7693 -31.7692 -31.7601 -31.7302 -31.7301 -31.7089
   -31.6858 -31.6492 -31.3838 -31.3031 -31.2173 -31.1860 -31.1710 -31.1303
   -16.4089 -16.4069 -16.3753 -16.3749 -16.1039 -16.1003 -16.0509 -16.0488
   -15.8770 -15.8691 -15.6648 -15.6556 -15.6492 -15.6455 -15.5177 -15.5108
   -15.4469 -15.4340 -15.3452 -15.3384 -15.2777 -15.2714 -15.2346 -15.2132
   -14.8965 -14.8906 -14.7682 -14.7551 -14.6033 -14.0534 -14.0532 -13.0995
    -7.7920  -3.5079  -3.5071  -3.4408  -3.4398  -3.3148  -3.3080  -3.2395
    -3.2388  -3.1323  -3.1286  -3.0501  -3.0013  -2.9911  -2.9877  -2.9764
    -2.9634  -2.8360  -2.8329  -2.8202  -2.8051  -2.7539  -2.7515  -2.7366
    -2.6567  -2.6406  -2.6094  -2.5653  -2.4648  -2.4485  -2.4319  -2.4050
    -2.3485  -2.3361  -2.3221  -2.2766  -2.2559  -2.1545  -2.1073  -2.0629
    -1.9435  -1.9410  -1.9311  -1.9139  -1.7664  -1.7293  -1.6982  -1.6917
    -1.6825  -1.6329  -1.5417  -1.5334  -1.3987  -1.3940  -1.3220  -1.2390
    -1.2203  -1.1916  -1.0594  -1.0119  -0.9795  -0.9731  -0.9533  -0.9238
    -0.8959  -0.8684  -0.7237  -0.7047  -0.6806  -0.6429  -0.6303  -0.5764
    -0.5275  -0.4474  -0.3682  -0.3672  -0.2855  -0.2415  -0.1781  -0.0952
    -0.0838  -0.0773   0.2025   0.2801   0.3729   0.4574   0.5205   0.5836
     0.6074   0.6729   0.7049   0.8417   0.8448   0.8609   0.8613   0.9290
     0.9337   1.3325   1.9174   2.9501   2.9505   3.0178   3.0182   3.3419
     3.3474   3.4570   3.4664   3.5829   3.5848

     the Fermi energy is     2.2109 ev

!    total energy              =   -2919.13336804 Ry
     estimated scf accuracy    <       0.00000004 Ry
     smearing contrib. (-TS)   =      -0.00464830 Ry
     internal energy E=F+TS    =   -2919.12871974 Ry

     The total energy is F=E-TS. E is the sum of the following terms:
     one-electron contribution =  -24578.62886531 Ry
     hartree contribution      =   12373.50324344 Ry
     xc contribution           =    -479.89728047 Ry
     ewald contribution        =    9765.89406437 Ry
     electric field correction =       0.00011824 Ry

     total magnetization       =     0.00 Bohr mag/cell
     absolute magnetization    =     0.00 Bohr mag/cell

     convergence has been achieved in  59 iterations

     Forces acting on atoms (cartesian axes, Ry/au):

     atom    1 type  1   force =    -0.00002812   -0.00046506    0.12460938
     atom    2 type  1   force =    -0.00012247   -0.00053169   -0.16054075
     atom    3 type  2   force =     0.00016101   -0.00014380   -0.06867941
     atom    4 type  2   force =    -0.00004389   -0.00017621    0.02744634
     atom    5 type  2   force =    -0.01663872    0.00229349   -0.00876730
     atom    6 type  2   force =     0.01809890    0.00296108   -0.00971712
     atom    7 type  1   force =     0.00056781   -0.00364268    0.02221522
     atom    8 type  1   force =    -0.00015659   -0.00291012    0.11213472
     atom    9 type  2   force =     0.00048002   -0.00002805   -0.00027715
     atom   10 type  2   force =    -0.00266273    0.00368983   -0.07363839
     atom   11 type  2   force =     0.00130694   -0.00058323   -0.00043396
     atom   12 type  2   force =    -0.00056655   -0.00105641   -0.00078879
     atom   13 type  1   force =     0.00031230   -0.00065889    0.00065869
     atom   14 type  1   force =    -0.00082462   -0.00054897    0.00005671
     atom   15 type  2   force =    -0.00029818   -0.00009633    0.00002696
     atom   16 type  2   force =     0.00028610    0.00012096   -0.00056987
     atom   17 type  2   force =     0.00021635   -0.00019969   -0.00016928
     atom   18 type  2   force =    -0.00041095   -0.00036260   -0.00050030
     atom   19 type  1   force =     0.00062458   -0.00036545   -0.00006224
     atom   20 type  1   force =    -0.00008650   -0.00035873   -0.00009044
     atom   21 type  2   force =     0.00005489   -0.00006357    0.09972339
     atom   22 type  2   force =     0.00006823   -0.00027372    0.00040285
     atom   23 type  2   force =    -0.07927834   -0.00009238   -0.03248073
     atom   24 type  2   force =     0.07915189    0.00035690   -0.03250369
     atom   25 type  1   force =     0.00000624   -0.00050173    0.12410486
     atom   26 type  1   force =    -0.00015539   -0.00044451   -0.16061936
     atom   27 type  2   force =     0.00029503   -0.00031743   -0.06769362
     atom   28 type  2   force =    -0.00002418   -0.00001626    0.02721218
     atom   29 type  2   force =    -0.01710151    0.00187231   -0.00887589
     atom   30 type  2   force =     0.01843966    0.00225969   -0.00977101
     atom   31 type  1   force =     0.00058470   -0.00093763    0.02175388
     atom   32 type  1   force =    -0.00011588    0.00053393    0.11258545
     atom   33 type  2   force =     0.00026437   -0.00064137   -0.00046511
     atom   34 type  2   force =    -0.00273225    0.00315595   -0.07280333
     atom   35 type  2   force =    -0.00109738    0.00023408    0.00016209
     atom   36 type  2   force =     0.00084002    0.00008553    0.00027434
     atom   37 type  1   force =    -0.00009096   -0.00003255   -0.00018662
     atom   38 type  1   force =     0.00089088   -0.00026874   -0.00013292
     atom   39 type  2   force =    -0.00008358   -0.00051972    0.00009119
     atom   40 type  2   force =     0.00007593   -0.00012483   -0.00015055
     atom   41 type  2   force =     0.00018872   -0.00045074   -0.00011351
     atom   42 type  2   force =     0.00000402   -0.00012654   -0.00060438
     atom   43 type  1   force =     0.00015440    0.00069324    0.00073714
     atom   44 type  1   force =    -0.00059606   -0.00035777   -0.00019498
     atom   45 type  2   force =     0.00004523   -0.00006832    0.09974330
     atom   46 type  2   force =    -0.07928578   -0.00004366   -0.03247411
     atom   47 type  2   force =     0.07916083    0.00040003   -0.03249353
     atom   48 type  3   force =     0.00046662    0.00025169    0.00209236
     atom   49 type  4   force =    -0.00161979    0.00331431    0.00355265
     atom   50 type  5   force =     0.00177488   -0.00367030   -0.00412904
     atom   51 type  5   force =     0.00029836   -0.00079296    0.00010801
     atom   52 type  5   force =    -0.00079849   -0.00035035    0.00023569

     Total force =     0.425678     Total SCF correction =     0.000667
  @ DRIVER MODE: Message from server: STATUS
  @ DRIVER MODE: Message from server: GETFORCE
  @ DRIVER MODE: Returning v,forces,stress,ensemble

     Writing output data file ./calc.save/
  @ DRIVER MODE: Message from server: EXIT
  @ DRIVE MODE: Exiting

     General routines

     Parallel routines

   This run was terminated on:  23:57:11  15Jul2021

   JOB DONE.