     Program PWSCF v.6.7GPU starts on  9Sep2021 at  1:48:48

     R & G space division:  proc/nbgrp/npool/nimage =      10
     Reading input from /storage/home/hcoda1/3/ntian30/research/carbon/CxH_vib/CH3_calc/ads_slab/CH3NHNH2_a/out_0012/pw.inp
Warning: card &CELL ignored
Warning: card   CELL_DYNAMICS='IPI', ignored
Warning: card / ignored

     Current dimensions of program PWSCF are:
     Max number of different atomic species (ntypx) = 10
     Max number of k-points (npk) =  40000
     Max angular momentum in pseudopotentials (lmaxx) =  3
     Presently no symmetry can be used with electric field

     Message from routine cell_base_init:
     DEPRECATED: use true lattice parameter, not A to a.u. conversion factor

     IMPORTANT: XC functional enforced from input :
     Exchange-correlation= BEEF-VDW
                           (   1   4  43  14   2   0   0)
     Any further DFT definition will be discarded
     Please, verify this is what you really want

  @ DRIVER MODE: Connecting to
 qe_1139763_2767398.sched-torque.pace.gatech.eduddzi1_7o_scratch
  using UNIX socket
  @ DRIVER MODE: Message from server: STATUS
  @ DRIVER MODE: Message from server: INIT
  @ DRIVER MODE: Receiving replica           0          -1
  @ DRIVER MODE: Receiving encoded integer          25
  @ DRIVER MODE:  SCF:  T  FORCE:  T  STRESS:  F  VC:  F  ENSEMBLE:  F
  @ DRIVER MODE:  SCF:  T  FORCE:  T  STRESS:  F  VC:  F  ENSEMBLE:  F

     Using Slab Decomposition

     bravais-lattice index     =            0
     lattice parameter (alat)  =       1.8897  a.u.
     unit-cell volume          =    6658.9804 (a.u.)^3
     number of atoms/cell      =           56
     number of atomic types    =            5
     number of electrons       =       398.00
     number of Kohn-Sham states=          209
     kinetic-energy cutoff     =      29.3995  Ry
     charge density cutoff     =     293.9946  Ry
     scf convergence threshold =      7.3E-08
     mixing beta               =       0.0500
     number of iterations used =            8  plain     mixing
     Exchange-correlation= BEEF-VDW
                           (   1   4  43  14   2   0   0)

     celldm(1)=   1.889726  celldm(2)=   0.000000  celldm(3)=   0.000000
     celldm(4)=   0.000000  celldm(5)=   0.000000  celldm(6)=   0.000000

     crystal axes: (cart. coord. in units of alat)
               a(1) = (   6.579727   0.000000   0.000000 )
               a(2) = (  -0.000775   5.961596   0.000000 )
               a(3) = (   0.000000   0.000000  25.155947 )

     reciprocal axes: (cart. coord. in units 2 pi/alat)
               b(1) = (  0.151982  0.000020  0.000000 )
               b(2) = (  0.000000  0.167740  0.000000 )
               b(3) = (  0.000000  0.000000  0.039752 )

     PseudoPot. # 1 for Ti read from file:
     /storage/coda1/p-amedford6/0/shared/rich_project_chbe-medford/medford-share/data/pseudos_module/espresso/nninc/pbe/van/Ti.UPF
     MD5 check sum: 8e4df49b7f0d34bbd5052bf3f5ea0213
     Pseudo is Ultrasoft, Zval = 12.0
     Generated by new atomic code, or converted to UPF format
     Using radial grid of  851 points,  6 beta functions with:
                l(1) =   0
                l(2) =   0
                l(3) =   1
                l(4) =   1
                l(5) =   2
                l(6) =   2
     Q(r) pseudized with  8 coefficients,  rinner =    1.000   1.000   1.000
                                                       1.000   1.000

     PseudoPot. # 2 for O  read from file:
     /storage/coda1/p-amedford6/0/shared/rich_project_chbe-medford/medford-share/data/pseudos_module/espresso/nninc/pbe/van/O.UPF
     MD5 check sum: 78c19812648e8988a0fe644b0f25305e
     Pseudo is Ultrasoft, Zval =  6.0
     Generated by new atomic code, or converted to UPF format
     Using radial grid of  737 points,  4 beta functions with:
                l(1) =   0
                l(2) =   0
                l(3) =   1
                l(4) =   1
     Q(r) pseudized with  8 coefficients,  rinner =    0.800   0.800   0.800

     PseudoPot. # 3 for N  read from file:
     /storage/coda1/p-amedford6/0/shared/rich_project_chbe-medford/medford-share/data/pseudos_module/espresso/nninc/pbe/van/N.UPF
     MD5 check sum: 90d10febe142ad51ac9d5be1deb811c4
     Pseudo is Ultrasoft, Zval =  5.0
     Generated by new atomic code, or converted to UPF format
     Using radial grid of  729 points,  4 beta functions with:
                l(1) =   0
                l(2) =   0
                l(3) =   1
                l(4) =   1
     Q(r) pseudized with  8 coefficients,  rinner =    0.800   0.800   0.800

     PseudoPot. # 4 for C  read from file:
     /storage/coda1/p-amedford6/0/shared/rich_project_chbe-medford/medford-share/data/pseudos_module/espresso/nninc/pbe/van/C.UPF
     MD5 check sum: 1a69bf6b8db32088f5b2163dbdb77a27
     Pseudo is Ultrasoft, Zval =  4.0
     Generated by new atomic code, or converted to UPF format
     Using radial grid of  721 points,  4 beta functions with:
                l(1) =   0
                l(2) =   0
                l(3) =   1
                l(4) =   1
     Q(r) pseudized with  8 coefficients,  rinner =    0.800   0.800   0.800

     PseudoPot. # 5 for H  read from file:
     /storage/coda1/p-amedford6/0/shared/rich_project_chbe-medford/medford-share/data/pseudos_module/espresso/nninc/pbe/van/H.UPF
     MD5 check sum: b5ee9d7bfd3a09ee7748110bda690ff7
     Pseudo is Ultrasoft, Zval =  1.0
     Generated by new atomic code, or converted to UPF format
     Using radial grid of  615 points,  1 beta functions with:
                l(1) =   0
     Q(r) pseudized with  8 coefficients,  rinner =    0.800

     atomic species   valence    mass     pseudopotential
        Ti1           12.00    47.86700     Ti( 1.00)
        O1             6.00    15.99900     O ( 1.00)
        N1             5.00    14.00700     N ( 1.00)
        C1             4.00    12.01100     C ( 1.00)
        H1             1.00     1.00800     H ( 1.00)

     No symmetry found

   Cartesian axes

     site n.     atom                  positions (alat units)
         1           Ti1 tau(   1) = (   0.0004258   2.9801865   6.0000000  )
         2           Ti1 tau(   2) = (   3.2906075   1.4906267   6.0002472  )
         3           O1  tau(   3) = (   0.0006271   0.0005054   7.9858123  )
         4           O1  tau(   4) = (   3.2906025   0.0005020   7.3038282  )
         5           O1  tau(   5) = (   4.5942328   1.4918067   9.2879030  )
         6           O1  tau(   6) = (   1.9868534   1.4903216   9.2879459  )
         7           Ti1 tau(   7) = (   3.2907910   2.8959150   9.1758416  )
         8           Ti1 tau(   8) = (   0.0015273   1.4827037   9.2680791  )
         9           O1  tau(   9) = (   3.2714441   0.0289406  11.3813764  )
        10           O1  tau(  10) = (   0.0116148   5.9584955  10.6183126  )
        11           O1  tau(  11) = (   1.2692032   1.5162281  12.7122965  )
        12           O1  tau(  12) = (   5.2779133   1.5159715  12.6811497  )
        13           Ti1 tau(  13) = (   6.5579218   3.0031650  12.5037829  )
        14           Ti1 tau(  14) = (   3.2791490   1.5128154  12.5375672  )
        15           O1  tau(  15) = (   6.5208524   5.8954130  14.6845636  )
        16           O1  tau(  16) = (   3.2849572   0.0099931  14.0031570  )
        17           O1  tau(  17) = (   4.4884262   1.5607690  16.1641467  )
        18           O1  tau(  18) = (   1.9729656   1.5430890  16.0903287  )
        19           Ti1 tau(  19) = (   3.2372663   3.0309179  15.7728032  )
        20           Ti1 tau(  20) = (   6.5553692   1.3539605  15.8053163  )
        21           O1  tau(  21) = (   3.2904802   0.0005063   4.7018136  )
        22           O1  tau(  22) = (   6.5123495   0.2165906  17.2215032  )
        23           O1  tau(  23) = (   1.3043587   1.4918075   6.0039043  )
        24           O1  tau(  24) = (   5.2767064   1.4903225   6.0039473  )
        25           Ti1 tau(  25) = (   0.0000382   5.9609847   6.0000000  )
        26           Ti1 tau(  26) = (   3.2902200   4.4714249   6.0002472  )
        27           O1  tau(  27) = (   0.0002396   2.9813036   7.9858123  )
        28           O1  tau(  28) = (   3.2902150   2.9813002   7.3038282  )
        29           O1  tau(  29) = (   4.5938453   4.4726049   9.2879030  )
        30           O1  tau(  30) = (   1.9864658   4.4711199   9.2879459  )
        31           Ti1 tau(  31) = (   3.2891106   5.8743827   9.1763621  )
        32           Ti1 tau(  32) = (   0.0006254   4.4649316   9.2693709  )
        33           O1  tau(  33) = (   3.2699379   2.9911670  11.3762017  )
        34           O1  tau(  34) = (   0.0092240   2.9805883  10.6323155  )
        35           O1  tau(  35) = (   1.2730946   4.4825978  12.6662957  )
        36           O1  tau(  36) = (   5.2742290   4.4829497  12.6320226  )
        37           Ti1 tau(  37) = (   6.5783117   0.0079037  12.5026730  )
        38           Ti1 tau(  38) = (   3.2784283   4.4905194  12.5286134  )
        39           O1  tau(  39) = (   6.5033290   3.0824797  14.9867588  )
        40           O1  tau(  40) = (   3.2824109   3.0350539  13.9807796  )
        41           O1  tau(  41) = (   4.4804250   4.5097483  16.2808085  )
        42           O1  tau(  42) = (   1.9642025   4.5165872  16.2225063  )
        43           Ti1 tau(  43) = (   3.2609991   0.0502580  15.7998297  )
        44           Ti1 tau(  44) = (   6.5501253   4.5826093  16.0954727  )
        45           O1  tau(  45) = (   3.2900926   2.9813045   4.7018136  )
        46           O1  tau(  46) = (   1.3039711   4.4726057   6.0039043  )
        47           O1  tau(  47) = (   5.2763189   4.4711207   6.0039473  )
        48           N1  tau(  48) = (   0.8845045   3.2634721  19.1145209  )
        49           N1  tau(  49) = (   6.3504243   3.3997271  18.1987592  )
        50           C1  tau(  50) = (   1.2927081   4.5631590  19.6429350  )
        51           H1  tau(  51) = (   0.4658632   5.1229972  20.1056819  )
        52           H1  tau(  52) = (   2.0600825   4.3818216  20.3958833  )
        53           H1  tau(  53) = (   1.7018904   5.1738364  18.8453250  )
        54           H1  tau(  54) = (   0.5628611   2.6866381  19.8888112  )
        55           H1  tau(  55) = (   5.6051421   3.9827062  18.5884547  )
        56           H1  tau(  56) = (   5.9567982   2.4624696  18.0937858  )

     number of k points=    10  Fermi-Dirac smearing, width (Ry)=  0.0073
                       cart. coord. in units 2pi/alat
        k(    1) = (   0.0000000   0.0000000   0.0000000), wk =   0.1250000
        k(    2) = (   0.0000000   0.0419351   0.0000000), wk =   0.2500000
        k(    3) = (   0.0000000  -0.0838702   0.0000000), wk =   0.1250000
        k(    4) = (   0.0379955   0.0000049   0.0000000), wk =   0.2500000
        k(    5) = (   0.0379955   0.0419400   0.0000000), wk =   0.2500000
        k(    6) = (   0.0379955  -0.0838652   0.0000000), wk =   0.2500000
        k(    7) = (   0.0379955  -0.0419301   0.0000000), wk =   0.2500000
        k(    8) = (  -0.0759910  -0.0000099   0.0000000), wk =   0.1250000
        k(    9) = (  -0.0759910   0.0419252   0.0000000), wk =   0.2500000
        k(   10) = (  -0.0759910  -0.0838800   0.0000000), wk =   0.1250000

     Initial potential from superposition of free atoms

     starting charge  381.99914, renormalised to  398.00000

     negative rho (up, down):  1.416E-02 0.000E+00

     %%%%%%%%%%%%%%%%%%%%%%%%%%%%%%%%%%%%%%%%%%%%%%%%%%%%%%%%%%%%%%%%%%%%%%%%
     %                                                                      %
     % You are using vdW-DF, which was implemented by the Thonhauser group. %
     % Please cite the following two papers that made this development      %
     % possible and the two reviews that describe the various versions:     %
     %                                                                      %
     %   T. Thonhauser et al., PRL 115, 136402 (2015).                      %
     %   T. Thonhauser et al., PRB 76, 125112 (2007).                       %
     %   K. Berland et al., Rep. Prog. Phys. 78, 066501 (2015).             %
     %   D.C. Langreth et al., J. Phys.: Condens. Matter 21, 084203 (2009). %
     %                                                                      %
     %                                                                      %
     % If you are calculating the stress with vdW-DF, please also cite:     %
     %                                                                      %
     %   R. Sabatini et al., J. Phys.: Condens. Matter 24, 424209 (2012).   %
     %                                                                      %
     %%%%%%%%%%%%%%%%%%%%%%%%%%%%%%%%%%%%%%%%%%%%%%%%%%%%%%%%%%%%%%%%%%%%%%%%

     Adding external electric field

     Computed dipole along edir(3) :
        Dipole              -11.7210 Ry au,        -29.7919 Debye
        Dipole field         -0.0221 Ry au,

        Potential amp.        2.0504 Ry
        Total length         46.3494 bohr

     Starting wfcs are  302 atomic wfcs
  @ DRIVER MODE: Message from server: STATUS
  @ DRIVER MODE: Message from server: POSDATA
  @ DRIVER MODE: Reading and sharing cell
  @ DRIVER MODE: Reading and sharing positions
  @ DRIVER MODE: Received positions

     Self-consistent Calculation

     iteration #  1     ecut=    29.40 Ry     beta= 0.05
     Davidson diagonalization with overlap
     c_bands:  3 eigenvalues not converged
     c_bands:  1 eigenvalues not converged
     c_bands:  1 eigenvalues not converged
     c_bands:  4 eigenvalues not converged
     c_bands:  1 eigenvalues not converged
     c_bands:  4 eigenvalues not converged
     c_bands:  5 eigenvalues not converged
     c_bands:  2 eigenvalues not converged
     ethr =  1.00E-05,  avg # of iterations = 21.9

[...]

     total energy              =   -2424.64619206 Ry
     estimated scf accuracy    <    5829.51739590 Ry

     iteration #  2     ecut=    29.40 Ry     beta= 0.05
     Davidson diagonalization with overlap
     ethr =  1.00E-02,  avg # of iterations = 22.5

[...]

     iteration # 71     ecut=    29.40 Ry     beta= 0.05
     Davidson diagonalization with overlap
     c_bands:  1 eigenvalues not converged
     ethr =  4.80E-11,  avg # of iterations = 13.7

[...]

     total energy              =   -2942.84381434 Ry
     estimated scf accuracy    <       0.00000010 Ry

     iteration # 73     ecut=    29.40 Ry     beta= 0.05
     Davidson diagonalization with overlap
     ethr =  2.55E-11,  avg # of iterations =  4.7

     negative rho (up, down):  1.512E-02 0.000E+00

     Adding external electric field

     Computed dipole along edir(3) :
        Dipole                1.4913 Ry au,          3.7905 Debye
        Dipole field          0.0028 Ry au,

        Potential amp.       -0.2609 Ry
        Total length         46.3494 bohr

     End of self-consistent calculation

          k = 0.0000 0.0000 0.0000 ( 18029 PWs)   bands (ev):

   -55.2040 -55.1669 -55.1561 -55.1284 -55.1219 -55.0853 -55.0823 -55.0474
   -55.0281 -55.0153 -54.9938 -54.9888 -54.9552 -54.8588 -54.1885 -54.1544
   -31.7704 -31.6551 -31.6490 -31.5704 -31.5174 -31.5163 -31.5136 -31.4949
   -31.4450 -31.4416 -31.4137 -31.4116 -31.4011 -31.3848 -31.3713 -31.3662
   -31.3585 -31.3489 -31.3414 -31.3245 -31.3087 -31.3061 -31.2746 -31.2703
   -31.2599 -31.2589 -31.2408 -31.2308 -31.2133 -31.2127 -31.2084 -31.1877
   -31.1877 -31.1843 -31.1774 -31.1749 -31.1415 -31.1320 -31.1172 -31.1003
   -31.0720 -31.0529 -30.5981 -30.5034 -30.4814 -30.4143 -30.3275 -30.2167
   -18.0026 -16.0377 -15.7754 -15.6302 -15.5181 -15.4063 -15.2873 -15.2561
   -15.1364 -15.0603 -14.9265 -14.9002 -14.8776 -14.8541 -14.8422 -14.8295
   -14.7537 -14.7472 -14.7314 -14.7030 -14.7009 -14.6559 -14.6461 -14.6067
   -14.5816 -14.5604 -14.4560 -14.3676 -14.2935 -14.0771 -13.4261 -12.6912
   -12.5737  -9.7160  -6.6104  -6.1168  -4.5994  -3.3760  -3.2487  -3.2278
    -3.1397  -3.1061  -3.0983  -3.0008  -2.9518  -2.7944  -2.6522  -2.6251
    -2.4955  -2.4203  -2.4040  -2.3794  -2.2499  -2.2133  -2.1635  -2.1229
    -2.0652  -2.0329  -2.0107  -1.9952  -1.9642  -1.9550  -1.9299  -1.8400
    -1.7808  -1.6858  -1.6671  -1.6037  -1.5919  -1.5630  -1.5417  -1.4965
    -1.4861  -1.4341  -1.4283  -1.4160  -1.3969  -1.2639  -1.2250  -1.1153
    -1.0538  -0.9658  -0.8459  -0.8058  -0.7919  -0.7012  -0.6922  -0.6591
    -0.5836  -0.5810  -0.5500  -0.4419  -0.3771  -0.3133  -0.2544  -0.2278
    -0.1947  -0.1174  -0.0264   0.0097   0.0265   0.0495   0.1496   0.1847
     0.2403   0.3072   0.3187   0.3319   0.4106   0.4526   0.5280   0.5644
     0.5821   0.6710   0.6969   0.7251   0.7256   0.7634   0.7779   0.8173
     0.8662   0.8930   0.9794   1.0552   1.1013   1.3456   1.3979   1.4037
     1.7298   1.7377   1.8342   2.0176   2.4107   2.4591   3.8924   3.9612
     4.0370   4.0419   4.0643   4.1282   4.3661   4.3894   4.3981   4.4004
     4.4270

[...]

          k = 0.0380-0.0419 0.0000 ( 17876 PWs)   bands (ev):

[...]

          k =-0.0760-0.0000 0.0000 ( 17886 PWs)   bands (ev):

[...]

          k =-0.0760-0.0839 0.0000 ( 17948 PWs)   bands (ev):

   -55.1902 -55.1805 -55.1390 -55.1388 -55.1271 -55.0810 -55.0679 -55.0618
   -55.0196 -55.0122 -55.0092 -54.9724 -54.9718 -54.8600 -54.1716 -54.1712
   -31.5786 -31.5784 -31.5708 -31.4860 -31.4640 -31.4640 -31.4611 -31.4303
   -31.4302 -31.4150 -31.4041 -31.4025 -31.3938 -31.3686 -31.3591 -31.3458
   -31.3448 -31.3410 -31.3379 -31.3325 -31.3303 -31.3242 -31.2853 -31.2820
   -31.2818 -31.2806 -31.2630 -31.2612 -31.2589 -31.2585 -31.2538 -31.2452
   -31.2425 -31.2254 -31.2222 -31.2063 -31.2054 -31.2025 -31.1531 -31.1526
   -31.1286 -31.0764 -30.4942 -30.4938 -30.4107 -30.4104 -30.3711 -30.3708
   -17.9994 -15.5637 -15.4326 -15.4035 -15.2471 -15.2110 -15.1776 -15.1642
   -15.0434 -15.0060 -14.9813 -14.9720 -14.9544 -14.9140 -14.9083 -14.9015
   -14.8310 -14.8118 -14.8075 -14.7852 -14.7269 -14.7179 -14.7140 -14.7064
   -14.6558 -14.6522 -14.5725 -14.5615 -14.5583 -14.3781 -13.4294 -12.6751
   -12.6751  -9.7318  -6.5952  -6.1168  -4.5788  -3.2188  -2.9564  -2.6950
    -2.6901  -2.6621  -2.4609  -2.3983  -2.3675  -2.3613  -2.2646  -2.2279
    -2.2033  -2.2001  -2.1342  -2.1202  -2.0878  -2.0592  -2.0431  -2.0287
    -2.0109  -1.9956  -1.9738  -1.9364  -1.9283  -1.9195  -1.8864  -1.8668
    -1.8435  -1.8202  -1.8078  -1.7892  -1.7632  -1.7399  -1.6032  -1.5725
    -1.5016  -1.4519  -1.4158  -1.4115  -1.3398  -1.3034  -1.2530  -1.2408
    -1.2231  -1.0842  -1.0255  -0.9751  -0.9550  -0.9440  -0.8141  -0.8009
    -0.7267  -0.7101  -0.6939  -0.6179  -0.5681  -0.5301  -0.5166  -0.4232
    -0.4078  -0.3412  -0.2393  -0.2167  -0.2025  -0.1618  -0.1588  -0.1117
    -0.1046  -0.0205   0.0239   0.0589   0.0697   0.1053   0.2981   0.3138
     0.3242   0.4771   0.4926   0.6347   0.6781   0.7449   0.8037   0.8423
     0.9043   0.9415   1.0618   1.0879   1.0994   1.1095   1.1691   1.1809
     1.2438   1.2545   2.1903   2.1909   2.2789   2.2792   4.0384   4.1457
     4.1533   4.1950   4.3150   4.3451   4.4074   4.4348   4.4763   4.4796
     4.5398

     the Fermi energy is     3.9558 ev

!    total energy              =   -2942.84382885 Ry
     estimated scf accuracy    <       0.00000004 Ry
     smearing contrib. (-TS)   =      -0.03707523 Ry
     internal energy E=F+TS    =   -2942.80675362 Ry

     The total energy is F=E-TS. E is the sum of the following terms:
     one-electron contribution =  -23364.34258165 Ry
     hartree contribution      =   11776.32501824 Ry
     xc contribution           =    -487.74686005 Ry
     ewald contribution        =    9132.95347299 Ry
     electric field correction =       0.00419685 Ry

     convergence has been achieved in  73 iterations

     Forces acting on atoms (cartesian axes, Ry/au):

     atom    1 type  1   force =     0.00017212   -0.00034041    0.09327611
     atom    2 type  1   force =    -0.00005676   -0.00042034   -0.17823399
     atom    3 type  2   force =     0.00002730   -0.00031710   -0.02004825
     atom    4 type  2   force =     0.00002121   -0.00183197    0.05924271
     atom    5 type  2   force =    -0.01045615   -0.00026148    0.00864292
     atom    6 type  2   force =     0.01147021    0.00040971    0.00645352
     atom    7 type  1   force =    -0.00099926    0.00212697   -0.01399992
     atom    8 type  1   force =     0.00081476   -0.00094193   -0.00572597
     atom    9 type  2   force =    -0.00009937    0.00012788   -0.00002041
     atom   10 type  2   force =    -0.00185288    0.00411806    0.00027357
     atom   11 type  2   force =    -0.00006194   -0.00064940    0.00029363
     atom   12 type  2   force =    -0.00001540   -0.00042244    0.00054871
     atom   13 type  1   force =     0.00004187    0.00008712    0.00029134
     atom   14 type  1   force =    -0.00038305    0.00000235    0.00007948
     atom   15 type  2   force =     0.00053069    0.00005735   -0.00026956
     atom   16 type  2   force =     0.00032451   -0.00035276   -0.00007453
     atom   17 type  2   force =    -0.00054308    0.00000329   -0.00001919
     atom   18 type  2   force =     0.00053439   -0.00018912    0.00000031
     atom   19 type  1   force =    -0.00004164   -0.00056219    0.00024292
     atom   20 type  1   force =     0.00068965    0.00005930    0.00103566
     atom   21 type  2   force =     0.00012455   -0.00012357    0.10404113
     atom   22 type  2   force =    -0.00040896    0.00024942   -0.00038083
     atom   23 type  2   force =    -0.07027256   -0.00023252   -0.02686867
     atom   24 type  2   force =     0.07026454    0.00020639   -0.02689088
     atom   25 type  1   force =     0.00007917   -0.00031468    0.09260212
     atom   26 type  1   force =    -0.00003187   -0.00058468   -0.17834699
     atom   27 type  2   force =     0.00013018   -0.00017349   -0.01908755
     atom   28 type  2   force =     0.00004986   -0.00163404    0.05860693
     atom   29 type  2   force =    -0.01106021   -0.00056543    0.00932233
     atom   30 type  2   force =     0.01197929   -0.00002646    0.00721117
     atom   31 type  1   force =    -0.00093032    0.00647654   -0.01506187
     atom   32 type  1   force =     0.00086280    0.00101657   -0.00587270
     atom   33 type  2   force =     0.00017553   -0.00057575   -0.00004952
     atom   34 type  2   force =    -0.00185884   -0.00052822   -0.00048886
     atom   35 type  2   force =    -0.00044887    0.00006543   -0.00042506
     atom   36 type  2   force =     0.00034647   -0.00011561    0.00018870
     atom   37 type  1   force =    -0.00051300   -0.00025919    0.00013928
     atom   38 type  1   force =    -0.00005072   -0.00014652   -0.00007428
     atom   39 type  2   force =     0.00029377   -0.00057110    0.00010679
     atom   40 type  2   force =    -0.00060052   -0.00051133    0.00024695
     atom   41 type  2   force =    -0.00007837   -0.00079744   -0.00057569
     atom   42 type  2   force =     0.00040456   -0.00012045   -0.00010150
     atom   43 type  1   force =     0.00021238   -0.00019458   -0.00015341
     atom   44 type  1   force =     0.00045120    0.00007071    0.00136723
     atom   45 type  2   force =     0.00013371   -0.00014174    0.10399557
     atom   46 type  2   force =    -0.07027255   -0.00015121   -0.02684000
     atom   47 type  2   force =     0.07023794    0.00027153   -0.02689701
     atom   48 type  3   force =     0.00164822    0.00100384    0.00369325
     atom   49 type  3   force =    -0.00045725   -0.00506306   -0.01150774
     atom   50 type  4   force =     0.00120211   -0.00154497    0.00062082
     atom   51 type  5   force =    -0.00078246    0.00135011    0.00062841
     atom   52 type  5   force =     0.00036958   -0.00013023   -0.00022081
     atom   53 type  5   force =     0.00075515    0.00041375   -0.00126174
     atom   54 type  5   force =     0.00142140   -0.00179769    0.00175429
     atom   55 type  5   force =    -0.00329393    0.00250054    0.00376288
     atom   56 type  5   force =    -0.00019916    0.00197627    0.00082819

     Total force =     0.366623     Total SCF correction =     0.000468
  @ DRIVER MODE: Message from server: STATUS
  @ DRIVER MODE: Message from server: GETFORCE
  @ DRIVER MODE: Returning v,forces,stress,ensemble

     Writing output data file ./calc.save/
  @ DRIVER MODE: Message from server: EXIT
  @ DRIVE MODE: Exiting

     General routines

     Parallel routines

   This run was terminated on:   2: 7:58   9Sep2021

   JOB DONE.