     Program PWSCF v.6.7GPU starts on 22Sep2021 at 21:25:58

     R & G space division:  proc/nbgrp/npool/nimage =      10
     Reading input from /storage/home/hcoda1/3/ntian30/research/carbon/CxH_vib/H2O_calc/ads_slab/CH2NHO_a/out_0017/pw.inp
Warning: card &CELL ignored
Warning: card   CELL_DYNAMICS='IPI', ignored
Warning: card / ignored

     Current dimensions of program PWSCF are:
     Max number of different atomic species (ntypx) = 10
     Max number of k-points (npk) =  40000
     Max angular momentum in pseudopotentials (lmaxx) =  3
     Presently no symmetry can be used with electric field

     Message from routine cell_base_init:
     DEPRECATED: use true lattice parameter, not A to a.u. conversion factor

     IMPORTANT: XC functional enforced from input :
     Exchange-correlation= BEEF-VDW
                           (   1   4  43  14   2   0   0)
     Any further DFT definition will be discarded
     Please, verify this is what you really want

  @ DRIVER MODE: Connecting to
 qe_1139763_2937321.sched-torque.pace.gatech.eduquktvm59_scratch
  using UNIX socket
  @ DRIVER MODE: Message from server: STATUS
  @ DRIVER MODE: Message from server: INIT
  @ DRIVER MODE: Receiving replica           0          -1
  @ DRIVER MODE: Receiving encoded integer          25
  @ DRIVER MODE:  SCF:  T  FORCE:  T  STRESS:  F  VC:  F  ENSEMBLE:  F
  @ DRIVER MODE:  SCF:  T  FORCE:  T  STRESS:  F  VC:  F  ENSEMBLE:  F

     Using Slab Decomposition

     bravais-lattice index     =            0
     lattice parameter (alat)  =       1.8897  a.u.
     unit-cell volume          =    6658.9804 (a.u.)^3
     number of atoms/cell      =           53
     number of atomic types    =            5
     number of electrons       =       396.00
     number of Kohn-Sham states=          208
     kinetic-energy cutoff     =      29.3995  Ry
     charge density cutoff     =     293.9946  Ry
     scf convergence threshold =      7.3E-08
     mixing beta               =       0.0500
     number of iterations used =            8  plain     mixing
     Exchange-correlation= BEEF-VDW
                           (   1   4  43  14   2   0   0)

     celldm(1)=   1.889726  celldm(2)=   0.000000  celldm(3)=   0.000000
     celldm(4)=   0.000000  celldm(5)=   0.000000  celldm(6)=   0.000000

     crystal axes: (cart. coord. in units of alat)
               a(1) = (   6.579727   0.000000   0.000000 )
               a(2) = (  -0.000775   5.961596   0.000000 )
               a(3) = (   0.000000   0.000000  25.155947 )

     reciprocal axes: (cart. coord. in units 2 pi/alat)
               b(1) = (  0.151982  0.000020  0.000000 )
               b(2) = (  0.000000  0.167740  0.000000 )
               b(3) = (  0.000000  0.000000  0.039752 )

     PseudoPot. # 1 for Ti read from file:
     /storage/coda1/p-amedford6/0/shared/rich_project_chbe-medford/medford-share/data/pseudos_module/espresso/nninc/pbe/van/Ti.UPF
     MD5 check sum: 8e4df49b7f0d34bbd5052bf3f5ea0213
     Pseudo is Ultrasoft, Zval = 12.0
     Generated by new atomic code, or converted to UPF format
     Using radial grid of  851 points,  6 beta functions with:
                l(1) =   0
                l(2) =   0
                l(3) =   1
                l(4) =   1
                l(5) =   2
                l(6) =   2
     Q(r) pseudized with  8 coefficients,  rinner =    1.000   1.000   1.000
                                                       1.000   1.000

     PseudoPot. # 2 for O  read from file:
     /storage/coda1/p-amedford6/0/shared/rich_project_chbe-medford/medford-share/data/pseudos_module/espresso/nninc/pbe/van/O.UPF
     MD5 check sum: 78c19812648e8988a0fe644b0f25305e
     Pseudo is Ultrasoft, Zval =  6.0
     Generated by new atomic code, or converted to UPF format
     Using radial grid of  737 points,  4 beta functions with:
                l(1) =   0
                l(2) =   0
                l(3) =   1
                l(4) =   1
     Q(r) pseudized with  8 coefficients,  rinner =    0.800   0.800   0.800

     PseudoPot. # 3 for N  read from file:
     /storage/coda1/p-amedford6/0/shared/rich_project_chbe-medford/medford-share/data/pseudos_module/espresso/nninc/pbe/van/N.UPF
     MD5 check sum: 90d10febe142ad51ac9d5be1deb811c4
     Pseudo is Ultrasoft, Zval =  5.0
     Generated by new atomic code, or converted to UPF format
     Using radial grid of  729 points,  4 beta functions with:
                l(1) =   0
                l(2) =   0
                l(3) =   1
                l(4) =   1
     Q(r) pseudized with  8 coefficients,  rinner =    0.800   0.800   0.800

     PseudoPot. # 4 for C  read from file:
     /storage/coda1/p-amedford6/0/shared/rich_project_chbe-medford/medford-share/data/pseudos_module/espresso/nninc/pbe/van/C.UPF
     MD5 check sum: 1a69bf6b8db32088f5b2163dbdb77a27
     Pseudo is Ultrasoft, Zval =  4.0
     Generated by new atomic code, or converted to UPF format
     Using radial grid of  721 points,  4 beta functions with:
                l(1) =   0
                l(2) =   0
                l(3) =   1
                l(4) =   1
     Q(r) pseudized with  8 coefficients,  rinner =    0.800   0.800   0.800

     PseudoPot. # 5 for H  read from file:
     /storage/coda1/p-amedford6/0/shared/rich_project_chbe-medford/medford-share/data/pseudos_module/espresso/nninc/pbe/van/H.UPF
     MD5 check sum: b5ee9d7bfd3a09ee7748110bda690ff7
     Pseudo is Ultrasoft, Zval =  1.0
     Generated by new atomic code, or converted to UPF format
     Using radial grid of  615 points,  1 beta functions with:
                l(1) =   0
     Q(r) pseudized with  8 coefficients,  rinner =    0.800

     atomic species   valence    mass     pseudopotential
        Ti1           12.00    47.86700     Ti( 1.00)
        O1             6.00    15.99900     O ( 1.00)
        N1             5.00    14.00700     N ( 1.00)
        C1             4.00    12.01100     C ( 1.00)
        H1             1.00     1.00800     H ( 1.00)

     No symmetry found

   Cartesian axes

     site n.     atom                  positions (alat units)
         1           Ti1 tau(   1) = (   0.0004258   2.9801865   6.0000000  )
         2           Ti1 tau(   2) = (   3.2906075   1.4906267   6.0002472  )
         3           O1  tau(   3) = (   0.0006271   0.0005054   7.9858123  )
         4           O1  tau(   4) = (   3.2906025   0.0005020   7.3038282  )
         5           O1  tau(   5) = (   4.5942328   1.4918067   9.2879030  )
         6           O1  tau(   6) = (   1.9868534   1.4903216   9.2879459  )
         7           Ti1 tau(   7) = (   3.2907910   2.8959150   9.1758416  )
         8           Ti1 tau(   8) = (   0.0015273   1.4827037   9.2680791  )
         9           O1  tau(   9) = (   3.3049783   5.9490022  11.2668993  )
        10           O1  tau(  10) = (   0.0116148   5.9584955  10.6183126  )
        11           O1  tau(  11) = (   1.3054562   1.4902858  12.6165390  )
        12           O1  tau(  12) = (   5.3128925   1.4966897  12.6222362  )
        13           Ti1 tau(  13) = (   0.0227526   2.8513963  12.7011302  )
        14           Ti1 tau(  14) = (   3.3146314   1.3157910  12.6511296  )
        15           O1  tau(  15) = (   0.0292331   0.0037381  14.6451560  )
        16           O1  tau(  16) = (   3.3105559   0.0332628  13.8611824  )
        17           O1  tau(  17) = (   4.5798417   1.5533887  16.0574704  )
        18           O1  tau(  18) = (   2.0659959   1.5620864  16.0379710  )
        19           Ti1 tau(  19) = (   3.3199680   3.0150018  15.6455324  )
        20           Ti1 tau(  20) = (   6.5662113   1.5085715  15.8767718  )
        21           O1  tau(  21) = (   3.2904802   0.0005063   4.7018136  )
        22           O1  tau(  22) = (   0.0336757   0.0283057  17.1922241  )
        23           O1  tau(  23) = (   1.3043587   1.4918075   6.0039043  )
        24           O1  tau(  24) = (   5.2767064   1.4903225   6.0039473  )
        25           Ti1 tau(  25) = (   0.0000382   5.9609847   6.0000000  )
        26           Ti1 tau(  26) = (   3.2902200   4.4714249   6.0002472  )
        27           O1  tau(  27) = (   0.0002396   2.9813036   7.9858123  )
        28           O1  tau(  28) = (   3.2902150   2.9813002   7.3038282  )
        29           O1  tau(  29) = (   4.5938453   4.4726049   9.2879030  )
        30           O1  tau(  30) = (   1.9864658   4.4711199   9.2879459  )
        31           Ti1 tau(  31) = (   3.2891106   5.8743827   9.1763621  )
        32           Ti1 tau(  32) = (   0.0006254   4.4649316   9.2693709  )
        33           O1  tau(  33) = (   3.3044035   3.0314990  11.2389097  )
        34           O1  tau(  34) = (   0.0092240   2.9805883  10.6323155  )
        35           O1  tau(  35) = (   1.3090660   4.4724101  12.6204063  )
        36           O1  tau(  36) = (   5.3093727   4.4739031  12.6240458  )
        37           Ti1 tau(  37) = (   0.0315986   5.8296340  12.6341251  )
        38           Ti1 tau(  38) = (   3.3217628   4.4127071  12.4104736  )
        39           O1  tau(  39) = (   0.0286309   2.9529265  14.6620113  )
        40           O1  tau(  40) = (   3.3111648   2.9942334  13.8608864  )
        41           O1  tau(  41) = (   4.5850423   4.4544105  16.0703757  )
        42           O1  tau(  42) = (   2.0817017   4.4739285  16.0881885  )
        43           Ti1 tau(  43) = (   3.2564312   0.0343949  16.3346327  )
        44           Ti1 tau(  44) = (   6.5491996   4.6347227  16.0815441  )
        45           O1  tau(  45) = (   3.2900926   2.9813045   4.7018136  )
        46           O1  tau(  46) = (   1.3039711   4.4726057   6.0039043  )
        47           O1  tau(  47) = (   5.2763189   4.4711207   6.0039473  )
        48           N1  tau(  48) = (   0.0476609   2.9608057  17.4046342  )
        49           C1  tau(  49) = (   0.0744360   2.8714357  18.6596517  )
        50           H1  tau(  50) = (   0.0810575   3.7616739  19.2927278  )
        51           H1  tau(  51) = (   0.0872865   1.8968143  19.1621030  )
        52           O1  tau(  52) = (   3.2917830   0.0572188  18.1605702  )
        53           H1  tau(  53) = (   2.8914424   5.3141097  18.6896264  )

     number of k points=    10  Fermi-Dirac smearing, width (Ry)=  0.0073
                       cart. coord. in units 2pi/alat
        k(    1) = (   0.0000000   0.0000000   0.0000000), wk =   0.1250000
        k(    2) = (   0.0000000   0.0419351   0.0000000), wk =   0.2500000
        k(    3) = (   0.0000000  -0.0838702   0.0000000), wk =   0.1250000
        k(    4) = (   0.0379955   0.0000049   0.0000000), wk =   0.2500000
        k(    5) = (   0.0379955   0.0419400   0.0000000), wk =   0.2500000
        k(    6) = (   0.0379955  -0.0838652   0.0000000), wk =   0.2500000
        k(    7) = (   0.0379955  -0.0419301   0.0000000), wk =   0.2500000
        k(    8) = (  -0.0759910  -0.0000099   0.0000000), wk =   0.1250000
        k(    9) = (  -0.0759910   0.0419252   0.0000000), wk =   0.2500000
        k(   10) = (  -0.0759910  -0.0838800   0.0000000), wk =   0.1250000

     Initial potential from superposition of free atoms

     starting charge  379.99917, renormalised to  396.00000

     negative rho (up, down):  1.695E-02 0.000E+00

     %%%%%%%%%%%%%%%%%%%%%%%%%%%%%%%%%%%%%%%%%%%%%%%%%%%%%%%%%%%%%%%%%%%%%%%%
     %                                                                      %
     % You are using vdW-DF, which was implemented by the Thonhauser group. %
     % Please cite the following two papers that made this development      %
     % possible and the two reviews that describe the various versions:     %
     %                                                                      %
     %   T. Thonhauser et al., PRL 115, 136402 (2015).                      %
     %   T. Thonhauser et al., PRB 76, 125112 (2007).                       %
     %   K. Berland et al., Rep. Prog. Phys. 78, 066501 (2015).             %
     %   D.C. Langreth et al., J. Phys.: Condens. Matter 21, 084203 (2009). %
     %                                                                      %
     %                                                                      %
     % If you are calculating the stress with vdW-DF, please also cite:     %
     %                                                                      %
     %   R. Sabatini et al., J. Phys.: Condens. Matter 24, 424209 (2012).   %
     %                                                                      %
     %%%%%%%%%%%%%%%%%%%%%%%%%%%%%%%%%%%%%%%%%%%%%%%%%%%%%%%%%%%%%%%%%%%%%%%%

     Adding external electric field

     Computed dipole along edir(3) :
        Dipole               -7.7043 Ry au,        -19.5825 Debye
        Dipole field         -0.0145 Ry au,

        Potential amp.        1.3478 Ry
        Total length         46.3494 bohr

     Starting wfcs are  299 atomic wfcs
  @ DRIVER MODE: Message from server: STATUS
  @ DRIVER MODE: Message from server: POSDATA
  @ DRIVER MODE: Reading and sharing cell
  @ DRIVER MODE: Reading and sharing positions
  @ DRIVER MODE: Received positions

     Self-consistent Calculation

     iteration #  1     ecut=    29.40 Ry     beta= 0.05
     Davidson diagonalization with overlap
     c_bands:  1 eigenvalues not converged
     c_bands:  3 eigenvalues not converged
     c_bands:  1 eigenvalues not converged
     c_bands:  2 eigenvalues not converged
     c_bands:  3 eigenvalues not converged
     c_bands:  2 eigenvalues not converged
     c_bands:  3 eigenvalues not converged
     c_bands:  2 eigenvalues not converged
     ethr =  1.00E-05,  avg # of iterations = 19.5

[...]

     total energy              =   -2658.47817735 Ry
     estimated scf accuracy    <    3232.33866324 Ry

     iteration #  2     ecut=    29.40 Ry     beta= 0.05
     Davidson diagonalization with overlap
     ethr =  1.00E-02,  avg # of iterations = 21.2

[...]

     iteration # 43     ecut=    29.40 Ry     beta= 0.05
     Davidson diagonalization with overlap
     c_bands:  1 eigenvalues not converged
     ethr =  4.97E-06,  avg # of iterations =  6.5

[...]

     total energy              =   -2951.50539631 Ry
     estimated scf accuracy    <       0.00000012 Ry

     iteration # 77     ecut=    29.40 Ry     beta= 0.05
     Davidson diagonalization with overlap
     ethr =  3.06E-11,  avg # of iterations =  5.2

     negative rho (up, down):  1.701E-02 0.000E+00

     Adding external electric field

     Computed dipole along edir(3) :
        Dipole                0.3633 Ry au,          0.9233 Debye
        Dipole field          0.0007 Ry au,

        Potential amp.       -0.0635 Ry
        Total length         46.3494 bohr

     End of self-consistent calculation

          k = 0.0000 0.0000 0.0000 ( 18029 PWs)   bands (ev):

   -56.8868 -56.8533 -56.0101 -55.9742 -55.7619 -55.6980 -55.5445 -55.4453
   -55.4114 -55.3924 -55.3297 -55.3056 -55.2765 -55.2571 -55.0756 -55.0132
   -33.3069 -33.1602 -33.1321 -33.0643 -32.9740 -32.9338 -32.4932 -32.2395
   -32.2306 -32.2022 -32.1503 -32.1479 -32.1214 -31.9950 -31.9800 -31.9310
   -31.9024 -31.8931 -31.8699 -31.8616 -31.8245 -31.7926 -31.7920 -31.7676
   -31.7645 -31.7602 -31.7175 -31.6908 -31.6593 -31.6499 -31.5938 -31.5693
   -31.5468 -31.5290 -31.5246 -31.5202 -31.5023 -31.4817 -31.4738 -31.4682
   -31.4577 -31.4271 -31.3383 -31.3169 -31.2821 -31.2758 -31.2539 -31.2150
   -16.9988 -16.4623 -16.4525 -16.2086 -16.1011 -16.0861 -16.0589 -15.9848
   -15.7996 -15.7287 -15.7015 -15.6504 -15.5264 -15.4031 -15.3065 -15.1594
   -15.0755 -15.0302 -15.0288 -15.0119 -14.9759 -14.9623 -14.9404 -14.8769
   -14.8567 -14.7859 -14.6486 -14.6124 -14.6026 -14.3333 -14.3240 -13.9426
   -13.8355  -7.2137  -4.5711  -4.1517  -3.9984  -3.9318  -3.7664  -3.5944
    -3.5800  -3.4438  -3.4102  -3.2688  -3.2645  -3.2503  -3.1654  -3.1501
    -3.0301  -2.9633  -2.9488  -2.8478  -2.8069  -2.6551  -2.6173  -2.5269
    -2.4744  -2.4534  -2.3906  -2.3415  -2.3147  -2.2905  -2.2654  -2.2092
    -2.1888  -2.1549  -2.0892  -2.0527  -1.9658  -1.9288  -1.9182  -1.9114
    -1.7981  -1.7712  -1.7307  -1.5916  -1.5324  -1.5142  -1.4919  -1.4393
    -1.3799  -1.3566  -1.3061  -1.2054  -1.1283  -1.1131  -1.0462  -1.0291
    -1.0161  -0.8917  -0.8380  -0.7446  -0.7355  -0.7200  -0.6533  -0.5943
    -0.5565  -0.4722  -0.3969  -0.3875  -0.3741  -0.3378  -0.3145  -0.2569
    -0.1466  -0.1056  -0.0566   0.0165   0.0378   0.1266   0.2213   0.2558
     0.2694   0.3138   0.3427   0.3636   0.4215   0.4855   0.4989   0.5680
     0.5763   0.5800   0.6657   0.7564   0.7943   0.8453   0.8693   0.8802
     1.0025   1.0883   1.1129   1.1581   1.5268   1.7508   2.4040   2.5735
     2.8496   3.0041   3.3273   3.3903   3.4033   3.4065   3.6739   3.8032

[...]

          k = 0.0380-0.0419 0.0000 ( 17876 PWs)   bands (ev):

[...]

          k =-0.0760-0.0000 0.0000 ( 17886 PWs)   bands (ev):

[...]

          k =-0.0760-0.0839 0.0000 ( 17948 PWs)   bands (ev):

   -56.8706 -56.8693 -55.9984 -55.9857 -55.7570 -55.7028 -55.5436 -55.4288
   -55.4277 -55.3887 -55.3304 -55.3090 -55.2752 -55.2560 -55.0769 -55.0143
   -33.1466 -33.1452 -33.1247 -33.1234 -33.0182 -33.0172 -32.3188 -32.3079
   -32.1930 -32.1806 -32.1802 -32.1720 -32.0626 -32.0198 -31.9882 -31.9770
   -31.9301 -31.9256 -31.8389 -31.7909 -31.7810 -31.7802 -31.7470 -31.7194
   -31.6991 -31.6509 -31.6493 -31.6490 -31.6466 -31.6352 -31.6154 -31.6105
   -31.6094 -31.6085 -31.5859 -31.5452 -31.5380 -31.5176 -31.5057 -31.4834
   -31.4766 -31.4248 -31.4242 -31.3472 -31.3399 -31.2861 -31.2560 -31.2351
   -16.4472 -16.3617 -16.3594 -16.3091 -16.3076 -16.0588 -16.0538 -15.8031
   -15.7721 -15.5882 -15.5112 -15.4791 -15.4291 -15.3881 -15.3533 -15.2519
   -15.2388 -15.1422 -15.1138 -15.1041 -15.0571 -15.0130 -14.9700 -14.9404
   -14.9011 -14.8105 -14.7513 -14.7159 -14.6160 -14.5170 -14.4669 -13.9400
   -13.9395  -7.2089  -4.1495  -3.9909  -3.4302  -3.4255  -3.4155  -3.4072
    -3.3491  -3.1835  -3.1757  -2.9901  -2.9625  -2.9600  -2.8891  -2.8827
    -2.7758  -2.7105  -2.7047  -2.7038  -2.6692  -2.6419  -2.6358  -2.5789
    -2.4719  -2.4210  -2.3960  -2.3743  -2.3451  -2.3166  -2.2626  -2.1733
    -2.1655  -2.1560  -2.1259  -2.1059  -2.0805  -2.0753  -1.9372  -1.8357
    -1.7643  -1.7152  -1.7053  -1.6904  -1.6636  -1.6279  -1.5972  -1.5838
    -1.5378  -1.4789  -1.4536  -1.3980  -1.3491  -1.3011  -1.2189  -1.1579
    -1.0902  -1.0692  -0.9365  -0.9211  -0.9017  -0.8632  -0.8301  -0.8205
    -0.7454  -0.6722  -0.6132  -0.5974  -0.5365  -0.5135  -0.4787  -0.4409
    -0.4319  -0.3764  -0.3546  -0.3053  -0.2904  -0.1695  -0.0865   0.0345
     0.0671   0.0852   0.1423   0.1752   0.3124   0.3216   0.3720   0.4862
     0.5226   0.6647   0.6819   0.7844   0.8334   0.8961   0.9528   0.9564
     0.9569   0.9832   1.0169   1.0380   1.1142   1.6888   2.9942   2.9970
     3.0541   3.0598   3.3665   3.3707   3.4752   3.4808   3.7852   3.7918

     the Fermi energy is     2.1417 ev

!    total energy              =   -2951.50540526 Ry
     estimated scf accuracy    <       0.00000004 Ry
     smearing contrib. (-TS)   =      -0.00232794 Ry
     internal energy E=F+TS    =   -2951.50307732 Ry

     The total energy is F=E-TS. E is the sum of the following terms:
     one-electron contribution =  -24182.27339460 Ry
     hartree contribution      =   12180.63666039 Ry
     xc contribution           =    -487.04287055 Ry
     ewald contribution        =    9537.17627843 Ry
     electric field correction =       0.00024901 Ry

     convergence has been achieved in  77 iterations

     Forces acting on atoms (cartesian axes, Ry/au):

     atom    1 type  1   force =     0.00001106   -0.00051109    0.12457796
     atom    2 type  1   force =    -0.00009599    0.00034471   -0.15488646
     atom    3 type  2   force =     0.00004595   -0.00012422   -0.06537818
     atom    4 type  2   force =     0.00007366    0.00024497    0.01705996
     atom    5 type  2   force =    -0.00338593   -0.00145363   -0.01348083
     atom    6 type  2   force =     0.00542546   -0.00094495   -0.01319650
     atom    7 type  1   force =     0.00030157   -0.00647574    0.05887433
     atom    8 type  1   force =     0.00011417    0.00855359    0.09584369
     atom    9 type  2   force =     0.00026742   -0.00011176    0.00025749
     atom   10 type  2   force =    -0.00166686    0.00093307   -0.05964017
     atom   11 type  2   force =     0.00079917   -0.00033912   -0.00033845
     atom   12 type  2   force =    -0.00102748   -0.00073777   -0.00008261
     atom   13 type  1   force =    -0.00020163   -0.00074645    0.00006781
     atom   14 type  1   force =     0.00003520   -0.00066267   -0.00013083
     atom   15 type  2   force =     0.00008586   -0.00031367   -0.00011957
     atom   16 type  2   force =    -0.00008816    0.00000373   -0.00040446
     atom   17 type  2   force =     0.00021851   -0.00012923   -0.00013101
     atom   18 type  2   force =    -0.00036391   -0.00021764   -0.00014188
     atom   19 type  1   force =    -0.00018371   -0.00140213    0.00011775
     atom   20 type  1   force =    -0.00014486    0.00008047   -0.00018899
     atom   21 type  2   force =     0.00002391    0.00021592    0.09783787
     atom   22 type  2   force =    -0.00027790   -0.00036516    0.00034764
     atom   23 type  2   force =    -0.08254295    0.00005449   -0.03295218
     atom   24 type  2   force =     0.08242799    0.00049571   -0.03300605
     atom   25 type  1   force =     0.00002604   -0.00057694    0.12480447
     atom   26 type  1   force =    -0.00019602   -0.00146359   -0.15527009
     atom   27 type  2   force =     0.00011623   -0.00079764   -0.06369319
     atom   28 type  2   force =     0.00005610    0.00198244    0.01251823
     atom   29 type  2   force =    -0.00156002    0.00507732   -0.01679509
     atom   30 type  2   force =     0.00370665    0.00540050   -0.01640629
     atom   31 type  1   force =     0.00000550    0.00179079    0.04176246
     atom   32 type  1   force =     0.00011744   -0.01183825    0.09590678
     atom   33 type  2   force =     0.00001419   -0.00022861   -0.00027483
     atom   34 type  2   force =    -0.00105238    0.00154100   -0.07415299
     atom   35 type  2   force =    -0.00039847    0.00017755    0.00008848
     atom   36 type  2   force =     0.00110817    0.00043775    0.00016095
     atom   37 type  1   force =    -0.00030018    0.00060338    0.00028686
     atom   38 type  1   force =     0.00020703   -0.00053061    0.00002735
     atom   39 type  2   force =     0.00015585    0.00025017    0.00011704
     atom   40 type  2   force =    -0.00004999   -0.00049564   -0.00057660
     atom   41 type  2   force =     0.00049375    0.00011307   -0.00021130
     atom   42 type  2   force =    -0.00078001   -0.00008000    0.00008918
     atom   43 type  1   force =     0.00002125    0.00107680   -0.00074678
     atom   44 type  1   force =    -0.00002346   -0.00005983   -0.00055934
     atom   45 type  2   force =     0.00003927    0.00001818    0.09766026
     atom   46 type  2   force =    -0.08260314    0.00001265   -0.03296186
     atom   47 type  2   force =     0.08247971    0.00044262   -0.03301176
     atom   48 type  3   force =    -0.00018540   -0.00109003   -0.00131567
     atom   49 type  4   force =    -0.00015459   -0.00393292   -0.00409192
     atom   50 type  5   force =    -0.00005633    0.00452408    0.00525330
     atom   51 type  5   force =    -0.00013516    0.00038063    0.00044035
     atom   52 type  2   force =     0.00014061    0.00055671    0.00015609
     atom   53 type  5   force =    -0.00104317    0.00031700   -0.00011042

     Total force =     0.415587     Total SCF correction =     0.000337
  @ DRIVER MODE: Message from server: STATUS
  @ DRIVER MODE: Message from server: GETFORCE
  @ DRIVER MODE: Returning v,forces,stress,ensemble

     Writing output data file ./calc.save/
  @ DRIVER MODE: Message from server: EXIT
  @ DRIVE MODE: Exiting

     General routines

     Parallel routines

   This run was terminated on:  21:45:11  22Sep2021

   JOB DONE.