     Program PWSCF v.6.7GPU starts on 22Sep2021 at  9:33:55

     R & G space division:  proc/nbgrp/npool/nimage =      10
     Reading input from /storage/home/hcoda1/3/ntian30/research/carbon/CxH_vib/CH_calc/ads_slab/CHNHNHH2O_b/out_0032/pw.inp
Warning: card &CELL ignored
Warning: card   CELL_DYNAMICS='IPI', ignored
Warning: card / ignored

     Current dimensions of program PWSCF are:
     Max number of different atomic species (ntypx) = 10
     Max number of k-points (npk) =  40000
     Max angular momentum in pseudopotentials (lmaxx) =  3
     Presently no symmetry can be used with electric field

     Message from routine cell_base_init:
     DEPRECATED: use true lattice parameter, not A to a.u. conversion factor

     IMPORTANT: XC functional enforced from input :
     Exchange-correlation= BEEF-VDW
                           (   1   4  43  14   2   0   0)
     Any further DFT definition will be discarded
     Please, verify this is what you really want

  @ DRIVER MODE: Connecting to
 qe_1139763_2927424.sched-torque.pace.gatech.edu7oq5_rk__scratch
  using UNIX socket
  @ DRIVER MODE: Message from server: STATUS
  @ DRIVER MODE: Message from server: INIT
  @ DRIVER MODE: Receiving replica           0          -1
  @ DRIVER MODE: Receiving encoded integer          25
  @ DRIVER MODE:  SCF:  T  FORCE:  T  STRESS:  F  VC:  F  ENSEMBLE:  F
  @ DRIVER MODE:  SCF:  T  FORCE:  T  STRESS:  F  VC:  F  ENSEMBLE:  F

     Using Slab Decomposition

     bravais-lattice index     =            0
     lattice parameter (alat)  =       1.8897  a.u.
     unit-cell volume          =    6658.9804 (a.u.)^3
     number of atoms/cell      =           56
     number of atomic types    =            5
     number of electrons       =       403.00
     number of Kohn-Sham states=          211
     kinetic-energy cutoff     =      29.3995  Ry
     charge density cutoff     =     293.9946  Ry
     scf convergence threshold =      7.3E-08
     mixing beta               =       0.0500
     number of iterations used =            8  plain     mixing
     Exchange-correlation= BEEF-VDW
                           (   1   4  43  14   2   0   0)

     celldm(1)=   1.889726  celldm(2)=   0.000000  celldm(3)=   0.000000
     celldm(4)=   0.000000  celldm(5)=   0.000000  celldm(6)=   0.000000

     crystal axes: (cart. coord. in units of alat)
               a(1) = (   6.579727   0.000000   0.000000 )
               a(2) = (  -0.000775   5.961596   0.000000 )
               a(3) = (   0.000000   0.000000  25.155947 )

     reciprocal axes: (cart. coord. in units 2 pi/alat)
               b(1) = (  0.151982  0.000020  0.000000 )
               b(2) = (  0.000000  0.167740  0.000000 )
               b(3) = (  0.000000  0.000000  0.039752 )

     PseudoPot. # 1 for Ti read from file:
     /storage/coda1/p-amedford6/0/shared/rich_project_chbe-medford/medford-share/data/pseudos_module/espresso/nninc/pbe/van/Ti.UPF
     MD5 check sum: 8e4df49b7f0d34bbd5052bf3f5ea0213
     Pseudo is Ultrasoft, Zval = 12.0
     Generated by new atomic code, or converted to UPF format
     Using radial grid of  851 points,  6 beta functions with:
                l(1) =   0
                l(2) =   0
                l(3) =   1
                l(4) =   1
                l(5) =   2
                l(6) =   2
     Q(r) pseudized with  8 coefficients,  rinner =    1.000   1.000   1.000
                                                       1.000   1.000

     PseudoPot. # 2 for O  read from file:
     /storage/coda1/p-amedford6/0/shared/rich_project_chbe-medford/medford-share/data/pseudos_module/espresso/nninc/pbe/van/O.UPF
     MD5 check sum: 78c19812648e8988a0fe644b0f25305e
     Pseudo is Ultrasoft, Zval =  6.0
     Generated by new atomic code, or converted to UPF format
     Using radial grid of  737 points,  4 beta functions with:
                l(1) =   0
                l(2) =   0
                l(3) =   1
                l(4) =   1
     Q(r) pseudized with  8 coefficients,  rinner =    0.800   0.800   0.800

     PseudoPot. # 3 for N  read from file:
     /storage/coda1/p-amedford6/0/shared/rich_project_chbe-medford/medford-share/data/pseudos_module/espresso/nninc/pbe/van/N.UPF
     MD5 check sum: 90d10febe142ad51ac9d5be1deb811c4
     Pseudo is Ultrasoft, Zval =  5.0
     Generated by new atomic code, or converted to UPF format
     Using radial grid of  729 points,  4 beta functions with:
                l(1) =   0
                l(2) =   0
                l(3) =   1
                l(4) =   1
     Q(r) pseudized with  8 coefficients,  rinner =    0.800   0.800   0.800

     PseudoPot. # 4 for C  read from file:
     /storage/coda1/p-amedford6/0/shared/rich_project_chbe-medford/medford-share/data/pseudos_module/espresso/nninc/pbe/van/C.UPF
     MD5 check sum: 1a69bf6b8db32088f5b2163dbdb77a27
     Pseudo is Ultrasoft, Zval =  4.0
     Generated by new atomic code, or converted to UPF format
     Using radial grid of  721 points,  4 beta functions with:
                l(1) =   0
                l(2) =   0
                l(3) =   1
                l(4) =   1
     Q(r) pseudized with  8 coefficients,  rinner =    0.800   0.800   0.800

     PseudoPot. # 5 for H  read from file:
     /storage/coda1/p-amedford6/0/shared/rich_project_chbe-medford/medford-share/data/pseudos_module/espresso/nninc/pbe/van/H.UPF
     MD5 check sum: b5ee9d7bfd3a09ee7748110bda690ff7
     Pseudo is Ultrasoft, Zval =  1.0
     Generated by new atomic code, or converted to UPF format
     Using radial grid of  615 points,  1 beta functions with:
                l(1) =   0
     Q(r) pseudized with  8 coefficients,  rinner =    0.800

     atomic species   valence    mass     pseudopotential
        Ti1           12.00    47.86700     Ti( 1.00)
        O1             6.00    15.99900     O ( 1.00)
        N1             5.00    14.00700     N ( 1.00)
        C1             4.00    12.01100     C ( 1.00)
        H1             1.00     1.00800     H ( 1.00)

     No symmetry found

   Cartesian axes

     site n.     atom                  positions (alat units)
         1           Ti1 tau(   1) = (   0.0004258   2.9801865   6.0000000  )
         2           Ti1 tau(   2) = (   3.2906075   1.4906267   6.0002472  )
         3           O1  tau(   3) = (   0.0006271   0.0005054   7.9858123  )
         4           O1  tau(   4) = (   3.2906025   0.0005020   7.3038282  )
         5           O1  tau(   5) = (   4.5942328   1.4918067   9.2879030  )
         6           O1  tau(   6) = (   1.9868534   1.4903216   9.2879459  )
         7           Ti1 tau(   7) = (   3.2907910   2.8959150   9.1758416  )
         8           Ti1 tau(   8) = (   0.0015273   1.4827037   9.2680791  )
         9           O1  tau(   9) = (   3.2780774   5.9605562  11.3537357  )
        10           O1  tau(  10) = (   0.0116148   5.9584955  10.6183126  )
        11           O1  tau(  11) = (   1.2922713   1.4781662  12.6511241  )
        12           O1  tau(  12) = (   5.2965393   1.5043564  12.6031353  )
        13           Ti1 tau(  13) = (   6.5273184   3.0207086  12.5807821  )
        14           Ti1 tau(  14) = (   3.2344070   1.4559942  12.5004267  )
        15           O1  tau(  15) = (   6.4759410   0.0295824  14.6525783  )
        16           O1  tau(  16) = (   3.3604338   0.0238249  13.9383540  )
        17           O1  tau(  17) = (   4.5324113   1.5808541  16.1066768  )
        18           O1  tau(  18) = (   1.9684897   1.4712893  15.8817925  )
        19           Ti1 tau(  19) = (   3.2566353   3.0739815  15.8599551  )
        20           Ti1 tau(  20) = (   6.5466614   1.5318677  15.7800735  )
        21           O1  tau(  21) = (   3.2904802   0.0005063   4.7018136  )
        22           O1  tau(  22) = (   6.5744325   0.0155309  17.2227980  )
        23           O1  tau(  23) = (   1.3043587   1.4918075   6.0039043  )
        24           O1  tau(  24) = (   5.2767064   1.4903225   6.0039473  )
        25           Ti1 tau(  25) = (   0.0000382   5.9609847   6.0000000  )
        26           Ti1 tau(  26) = (   3.2902200   4.4714249   6.0002472  )
        27           O1  tau(  27) = (   0.0002396   2.9813036   7.9858123  )
        28           O1  tau(  28) = (   3.2902150   2.9813002   7.3038282  )
        29           O1  tau(  29) = (   4.5938453   4.4726049   9.2879030  )
        30           O1  tau(  30) = (   1.9864658   4.4711199   9.2879459  )
        31           Ti1 tau(  31) = (   3.2891106   5.8743827   9.1763621  )
        32           Ti1 tau(  32) = (   0.0006254   4.4649316   9.2693709  )
        33           O1  tau(  33) = (   3.2727763   2.9788165  11.3438337  )
        34           O1  tau(  34) = (   0.0092240   2.9805883  10.6323155  )
        35           O1  tau(  35) = (   1.2865780   4.4896361  12.6556599  )
        36           O1  tau(  36) = (   5.2967437   4.4749066  12.6066920  )
        37           Ti1 tau(  37) = (   6.5467059   0.0356701  12.5108493  )
        38           Ti1 tau(  38) = (   3.2305653   4.4019604  12.5605372  )
        39           O1  tau(  39) = (   6.5199767   2.9846217  14.6905747  )
        40           O1  tau(  40) = (   3.2851694   3.0254550  13.9321539  )
        41           O1  tau(  41) = (   4.5310495   4.4602642  16.1636806  )
        42           O1  tau(  42) = (   1.9842988   4.5744318  15.9411167  )
        43           Ti1 tau(  43) = (   3.2691225   0.1036042  15.7405456  )
        44           Ti1 tau(  44) = (   6.5697781   4.6877429  16.0360384  )
        45           O1  tau(  45) = (   3.2900926   2.9813045   4.7018136  )
        46           O1  tau(  46) = (   1.3039711   4.4726057   6.0039043  )
        47           O1  tau(  47) = (   5.2763189   4.4711207   6.0039473  )
        48           N1  tau(  48) = (   1.2792381   2.8578196  18.3696018  )
        49           N1  tau(  49) = (   0.1888888   2.9646215  17.5057353  )
        50           C1  tau(  50) = (   2.5352320   2.9081513  18.0382144  )
        51           H1  tau(  51) = (   3.1442446   2.7411670  18.9317345  )
        52           H1  tau(  52) = (   1.0014291   2.6635404  19.3302151  )
        53           H1  tau(  53) = (   5.9497212   2.8571719  18.0851170  )
        54           O1  tau(  54) = (   3.2630597   0.0341043  18.2348460  )
        55           H1  tau(  55) = (   4.0455299   5.4198958  18.2485053  )
        56           H1  tau(  56) = (   2.4923979   5.4091459  18.3156537  )

     number of k points=    10  Fermi-Dirac smearing, width (Ry)=  0.0073
                       cart. coord. in units 2pi/alat
        k(    1) = (   0.0000000   0.0000000   0.0000000), wk =   0.1250000
        k(    2) = (   0.0000000   0.0419351   0.0000000), wk =   0.2500000
        k(    3) = (   0.0000000  -0.0838702   0.0000000), wk =   0.1250000
        k(    4) = (   0.0379955   0.0000049   0.0000000), wk =   0.2500000
        k(    5) = (   0.0379955   0.0419400   0.0000000), wk =   0.2500000
        k(    6) = (   0.0379955  -0.0838652   0.0000000), wk =   0.2500000
        k(    7) = (   0.0379955  -0.0419301   0.0000000), wk =   0.2500000
        k(    8) = (  -0.0759910  -0.0000099   0.0000000), wk =   0.1250000
        k(    9) = (  -0.0759910   0.0419252   0.0000000), wk =   0.2500000
        k(   10) = (  -0.0759910  -0.0838800   0.0000000), wk =   0.1250000

     Initial potential from superposition of free atoms

     starting charge  386.99914, renormalised to  403.00000

     negative rho (up, down):  1.738E-02 0.000E+00

     %%%%%%%%%%%%%%%%%%%%%%%%%%%%%%%%%%%%%%%%%%%%%%%%%%%%%%%%%%%%%%%%%%%%%%%%
     %                                                                      %
     % You are using vdW-DF, which was implemented by the Thonhauser group. %
     % Please cite the following two papers that made this development      %
     % possible and the two reviews that describe the various versions:     %
     %                                                                      %
     %   T. Thonhauser et al., PRL 115, 136402 (2015).                      %
     %   T. Thonhauser et al., PRB 76, 125112 (2007).                       %
     %   K. Berland et al., Rep. Prog. Phys. 78, 066501 (2015).             %
     %   D.C. Langreth et al., J. Phys.: Condens. Matter 21, 084203 (2009). %
     %                                                                      %
     %                                                                      %
     % If you are calculating the stress with vdW-DF, please also cite:     %
     %                                                                      %
     %   R. Sabatini et al., J. Phys.: Condens. Matter 24, 424209 (2012).   %
     %                                                                      %
     %%%%%%%%%%%%%%%%%%%%%%%%%%%%%%%%%%%%%%%%%%%%%%%%%%%%%%%%%%%%%%%%%%%%%%%%

     Adding external electric field

     Computed dipole along edir(3) :
        Dipole              -12.3463 Ry au,        -31.3811 Debye
        Dipole field         -0.0233 Ry au,

        Potential amp.        2.1598 Ry
        Total length         46.3494 bohr

     Starting wfcs are  305 atomic wfcs
  @ DRIVER MODE: Message from server: STATUS
  @ DRIVER MODE: Message from server: POSDATA
  @ DRIVER MODE: Reading and sharing cell
  @ DRIVER MODE: Reading and sharing positions
  @ DRIVER MODE: Received positions

     Self-consistent Calculation

     iteration #  1     ecut=    29.40 Ry     beta= 0.05
     Davidson diagonalization with overlap
     c_bands:  5 eigenvalues not converged
     c_bands:  3 eigenvalues not converged
     c_bands:  3 eigenvalues not converged
     c_bands:  1 eigenvalues not converged
     c_bands:  2 eigenvalues not converged
     c_bands:  2 eigenvalues not converged
     c_bands:  5 eigenvalues not converged
     c_bands:  2 eigenvalues not converged
     c_bands:  4 eigenvalues not converged
     ethr =  1.00E-05,  avg # of iterations = 29.3

[...]

     total energy              =   -2358.70369120 Ry
     estimated scf accuracy    <    6971.33712949 Ry

     iteration #  2     ecut=    29.40 Ry     beta= 0.05
     Davidson diagonalization with overlap
     ethr =  1.00E-02,  avg # of iterations = 25.3

[...]

     iteration # 61     ecut=    29.40 Ry     beta= 0.05
     Davidson diagonalization with overlap
     c_bands:  1 eigenvalues not converged
     ethr =  4.33E-10,  avg # of iterations = 12.7

[...]

     total energy              =   -2973.93998945 Ry
     estimated scf accuracy    <       0.00000008 Ry

     iteration # 67     ecut=    29.40 Ry     beta= 0.05
     Davidson diagonalization with overlap
     ethr =  1.96E-11,  avg # of iterations =  8.8

     negative rho (up, down):  1.725E-02 0.000E+00

     Adding external electric field

     Computed dipole along edir(3) :
        Dipole                1.3987 Ry au,          3.5551 Debye
        Dipole field          0.0026 Ry au,

        Potential amp.       -0.2447 Ry
        Total length         46.3494 bohr

     End of self-consistent calculation

          k = 0.0000 0.0000 0.0000 ( 18029 PWs)   bands (ev):

   -55.3194 -55.2853 -55.2103 -55.1860 -55.1674 -55.1557 -55.1404 -55.1184
   -55.1065 -55.1042 -55.0979 -55.0633 -54.9922 -54.8343 -54.3001 -54.2660
   -31.8036 -31.7313 -31.6569 -31.6500 -31.6401 -31.6114 -31.5875 -31.5646
   -31.5200 -31.5013 -31.4718 -31.4640 -31.4556 -31.4409 -31.4254 -31.4216
   -31.3981 -31.3803 -31.3767 -31.3651 -31.3353 -31.3330 -31.3289 -31.3259
   -31.3231 -31.3194 -31.3152 -31.2970 -31.2894 -31.2793 -31.2723 -31.2719
   -31.2618 -31.2604 -31.2523 -31.2482 -31.2403 -31.2148 -31.2104 -31.0905
   -31.0755 -31.0497 -30.7069 -30.6188 -30.5964 -30.5239 -30.4374 -30.3261
   -18.8786 -18.6603 -15.9778 -15.7939 -15.6129 -15.4738 -15.3920 -15.1603
   -15.1019 -15.0634 -14.9824 -14.9596 -14.8587 -14.8402 -14.8386 -14.8204
   -14.8175 -14.7623 -14.7473 -14.7426 -14.6943 -14.6874 -14.6621 -14.6466
   -14.5941 -14.5154 -14.5069 -14.4602 -14.4151 -14.3686 -14.0234 -13.4389
   -12.8006 -12.6841  -8.8052  -7.2866  -6.6176  -4.3213  -3.7908  -3.3620
    -3.2859  -3.2492  -3.2241  -3.0891  -2.9720  -2.8667  -2.7625  -2.6712
    -2.5847  -2.4803  -2.4237  -2.3781  -2.3180  -2.2576  -2.2314  -2.1457
    -2.1261  -2.1062  -2.0846  -2.0580  -2.0285  -1.9915  -1.8688  -1.8582
    -1.7762  -1.7199  -1.6811  -1.6634  -1.6416  -1.6337  -1.6032  -1.5808
    -1.5723  -1.5610  -1.5592  -1.5245  -1.3850  -1.3613  -1.3323  -1.3129
    -1.1634  -1.0259  -0.9369  -0.9345  -0.8251  -0.7604  -0.7571  -0.7186
    -0.7031  -0.6008  -0.5155  -0.4791  -0.4542  -0.3747  -0.3179  -0.2630
    -0.2111  -0.1759  -0.1089  -0.0850  -0.0683  -0.0515   0.0174   0.0800
     0.1412   0.2265   0.2700   0.2943   0.3853   0.3994   0.4226   0.4872
     0.5193   0.5642   0.5997   0.6288   0.6525   0.6827   0.7079   0.7511
     0.7893   0.9149   0.9330   0.9616   0.9827   1.1572   1.2067   1.3095
     1.3399   1.4401   1.4835   1.6629   1.7241   1.8033   1.9160   2.2943
     2.3401   3.7896   3.9010   3.9350   3.9600   3.9992   4.0505   4.2575
     4.3302   4.3715   4.4282

[...]

          k = 0.0380-0.0419 0.0000 ( 17876 PWs)   bands (ev):

[...]

          k =-0.0760-0.0000 0.0000 ( 17886 PWs)   bands (ev):

[...]

          k =-0.0760-0.0839 0.0000 ( 17948 PWs)   bands (ev):

   -55.3026 -55.3020 -55.2009 -55.1826 -55.1760 -55.1442 -55.1303 -55.1235
   -55.1227 -55.1078 -55.0847 -55.0767 -54.9905 -54.8359 -54.2830 -54.2829
   -31.6190 -31.6186 -31.5970 -31.5966 -31.5655 -31.5336 -31.5024 -31.4900
   -31.4828 -31.4675 -31.4489 -31.4438 -31.4397 -31.4305 -31.4256 -31.4237
   -31.4220 -31.4217 -31.4168 -31.4010 -31.3901 -31.3760 -31.3650 -31.3628
   -31.3579 -31.3535 -31.3442 -31.3317 -31.3259 -31.3244 -31.3095 -31.3003
   -31.2967 -31.2963 -31.2945 -31.2914 -31.2611 -31.2335 -31.2196 -31.1466
   -31.0929 -31.0785 -30.6091 -30.6091 -30.5197 -30.5196 -30.4807 -30.4806
   -18.8676 -18.6670 -15.3552 -15.3202 -15.2822 -15.2546 -15.2387 -15.1179
   -15.1042 -15.0685 -15.0270 -15.0137 -14.9834 -14.9548 -14.9060 -14.8973
   -14.8632 -14.8436 -14.8044 -14.7781 -14.7586 -14.7543 -14.7377 -14.7161
   -14.6725 -14.6508 -14.6382 -14.6339 -14.5820 -14.4878 -14.2088 -13.4615
   -12.7859 -12.7858  -8.8010  -7.2134  -6.6186  -4.5280  -3.5736  -2.8659
    -2.6819  -2.6310  -2.5786  -2.4883  -2.4415  -2.3192  -2.3126  -2.2900
    -2.2447  -2.2316  -2.1909  -2.1505  -2.1445  -2.1167  -2.1044  -2.0597
    -2.0484  -2.0454  -2.0310  -1.9975  -1.9918  -1.9713  -1.9474  -1.9440
    -1.9340  -1.9174  -1.8849  -1.8775  -1.8506  -1.8316  -1.6801  -1.6065
    -1.5630  -1.4856  -1.4625  -1.4457  -1.4266  -1.3918  -1.3716  -1.3459
    -1.3177  -1.1720  -1.0312  -0.9965  -0.9718  -0.8730  -0.8583  -0.8389
    -0.7915  -0.7504  -0.7150  -0.6565  -0.6478  -0.6016  -0.5801  -0.4613
    -0.4227  -0.3236  -0.2880  -0.2863  -0.2684  -0.2539  -0.2368  -0.2112
    -0.1615  -0.0899  -0.0746  -0.0259  -0.0020   0.0006   0.0135   0.1594
     0.2304   0.2508   0.3529   0.3831   0.5580   0.7219   0.7338   0.8017
     0.8646   0.9194   0.9536   0.9936   1.0038   1.0693   1.0941   1.1986
     1.2090   1.2578   1.2627   1.3403   1.3541   2.0878   2.0895   2.1600
     2.1602   4.1532   4.1690   4.1972   4.2604   4.3039   4.3155   4.3531
     4.3568   4.4594   4.4753

     the Fermi energy is     3.8077 ev

!    total energy              =   -2973.94002743 Ry
     estimated scf accuracy    <       0.00000006 Ry
     smearing contrib. (-TS)   =      -0.02072614 Ry
     internal energy E=F+TS    =   -2973.91930129 Ry

     The total energy is F=E-TS. E is the sum of the following terms:
     one-electron contribution =  -24339.07905300 Ry
     hartree contribution      =   12267.24966155 Ry
     xc contribution           =    -494.12484516 Ry
     ewald contribution        =    9592.03124351 Ry
     electric field correction =       0.00369180 Ry

     convergence has been achieved in  67 iterations

     Forces acting on atoms (cartesian axes, Ry/au):

     atom    1 type  1   force =     0.00002825   -0.00009917    0.09507658
     atom    2 type  1   force =     0.00017992   -0.00069297   -0.17565514
     atom    3 type  2   force =     0.00008824   -0.00004758   -0.02295055
     atom    4 type  2   force =     0.00002159   -0.00143346    0.05289860
     atom    5 type  2   force =    -0.00999973   -0.00031415    0.00380662
     atom    6 type  2   force =     0.01112207    0.00020376    0.00206116
     atom    7 type  1   force =    -0.00021719    0.00178734   -0.00590323
     atom    8 type  1   force =     0.00080970    0.01009033    0.01602768
     atom    9 type  2   force =    -0.00015690    0.00086872    0.00033889
     atom   10 type  2   force =    -0.00227251    0.00217769   -0.01799869
     atom   11 type  2   force =     0.00023341   -0.00003261    0.00008912
     atom   12 type  2   force =    -0.00034128   -0.00018443    0.00057174
     atom   13 type  1   force =    -0.00002537    0.00125200    0.00018151
     atom   14 type  1   force =    -0.00012283    0.00009041    0.00000170
     atom   15 type  2   force =     0.00012037    0.00021281    0.00001130
     atom   16 type  2   force =    -0.00037326    0.00044234   -0.00023467
     atom   17 type  2   force =    -0.00014115   -0.00023670   -0.00003009
     atom   18 type  2   force =    -0.00005760    0.00002704    0.00039658
     atom   19 type  1   force =    -0.00045020    0.00031128   -0.00022347
     atom   20 type  1   force =    -0.00031861   -0.00013128    0.00008262
     atom   21 type  2   force =     0.00009202   -0.00008582    0.10320057
     atom   22 type  2   force =     0.00038078    0.00003309    0.00058832
     atom   23 type  2   force =    -0.07160434   -0.00016795   -0.02757570
     atom   24 type  2   force =     0.07156251    0.00024724   -0.02762304
     atom   25 type  1   force =     0.00024099   -0.00039857    0.09519569
     atom   26 type  1   force =    -0.00003654   -0.00020146   -0.17581709
     atom   27 type  2   force =     0.00012067   -0.00012353   -0.02197583
     atom   28 type  2   force =     0.00001356   -0.00139804    0.05322799
     atom   29 type  2   force =    -0.01034509   -0.00022750    0.00364792
     atom   30 type  2   force =     0.01138153    0.00042263    0.00191406
     atom   31 type  1   force =    -0.00029988    0.00266259   -0.00010362
     atom   32 type  1   force =     0.00067442   -0.01114556    0.01690480
     atom   33 type  2   force =     0.00036994   -0.00027541    0.00002230
     atom   34 type  2   force =    -0.00033894    0.00143950   -0.01892714
     atom   35 type  2   force =    -0.00001580   -0.00035574   -0.00015353
     atom   36 type  2   force =     0.00001118   -0.00024920    0.00044761
     atom   37 type  1   force =    -0.00005200   -0.00122693    0.00034480
     atom   38 type  1   force =    -0.00039712    0.00089051    0.00006547
     atom   39 type  2   force =     0.00010764    0.00007076    0.00011801
     atom   40 type  2   force =    -0.00049502   -0.00059500   -0.00001349
     atom   41 type  2   force =     0.00020928   -0.00013064    0.00028788
     atom   42 type  2   force =    -0.00023037   -0.00034388   -0.00021302
     atom   43 type  1   force =    -0.00021831   -0.00020214    0.00042909
     atom   44 type  1   force =     0.00000625   -0.00031401    0.00015257
     atom   45 type  2   force =     0.00009931   -0.00010125    0.10322146
     atom   46 type  2   force =    -0.07159027   -0.00016922   -0.02756873
     atom   47 type  2   force =     0.07159067    0.00024524   -0.02758183
     atom   48 type  3   force =     0.00150520   -0.00034813   -0.00057374
     atom   49 type  3   force =     0.01057747    0.00122209   -0.00596762
     atom   50 type  4   force =     0.00039284   -0.00029395    0.00069328
     atom   51 type  5   force =    -0.00008962   -0.00049295   -0.00025149
     atom   52 type  5   force =    -0.00006228   -0.00103922   -0.00078342
     atom   53 type  5   force =    -0.01176048   -0.00164392    0.00584251
     atom   54 type  2   force =    -0.00006327    0.00106802   -0.00009236
     atom   55 type  5   force =     0.00015181   -0.00024953   -0.00001919
     atom   56 type  5   force =    -0.00001567   -0.00081348    0.00038826

     Total force =     0.365662     Total SCF correction =     0.000848
  @ DRIVER MODE: Message from server: STATUS
  @ DRIVER MODE: Message from server: GETFORCE
  @ DRIVER MODE: Returning v,forces,stress,ensemble

     Writing output data file ./calc.save/
  @ DRIVER MODE: Message from server: EXIT
  @ DRIVE MODE: Exiting

     General routines

     Parallel routines

   This run was terminated on:   9:54:19  22Sep2021

   JOB DONE.