     Program PWSCF v.6.7GPU starts on  9Sep2021 at 13:33:21

     R & G space division:  proc/nbgrp/npool/nimage =      10
     Reading input from /storage/home/hcoda1/3/ntian30/research/carbon/CxH_vib/CH3_calc/ads_slab/CH3NNH3_a/out_0048/pw.inp
Warning: card &CELL ignored
Warning: card   CELL_DYNAMICS='IPI', ignored
Warning: card / ignored

     Current dimensions of program PWSCF are:
     Max number of different atomic species (ntypx) = 10
     Max number of k-points (npk) =  40000
     Max angular momentum in pseudopotentials (lmaxx) =  3
     Presently no symmetry can be used with electric field

     Message from routine cell_base_init:
     DEPRECATED: use true lattice parameter, not A to a.u. conversion factor

     IMPORTANT: XC functional enforced from input :
     Exchange-correlation= BEEF-VDW
                           (   1   4  43  14   2   0   0)
     Any further DFT definition will be discarded
     Please, verify this is what you really want

  @ DRIVER MODE: Connecting to
 qe_1139763_2767402.sched-torque.pace.gatech.eduvz1f7vrw_scratch
  using UNIX socket
  @ DRIVER MODE: Message from server: STATUS
  @ DRIVER MODE: Message from server: INIT
  @ DRIVER MODE: Receiving replica           0          -1
  @ DRIVER MODE: Receiving encoded integer          25
  @ DRIVER MODE:  SCF:  T  FORCE:  T  STRESS:  F  VC:  F  ENSEMBLE:  F
  @ DRIVER MODE:  SCF:  T  FORCE:  T  STRESS:  F  VC:  F  ENSEMBLE:  F

     Using Slab Decomposition

     bravais-lattice index     =            0
     lattice parameter (alat)  =       1.8897  a.u.
     unit-cell volume          =    6658.9804 (a.u.)^3
     number of atoms/cell      =           56
     number of atomic types    =            5
     number of electrons       =       398.00
     number of Kohn-Sham states=          209
     kinetic-energy cutoff     =      29.3995  Ry
     charge density cutoff     =     293.9946  Ry
     scf convergence threshold =      7.3E-08
     mixing beta               =       0.0500
     number of iterations used =            8  plain     mixing
     Exchange-correlation= BEEF-VDW
                           (   1   4  43  14   2   0   0)

     celldm(1)=   1.889726  celldm(2)=   0.000000  celldm(3)=   0.000000
     celldm(4)=   0.000000  celldm(5)=   0.000000  celldm(6)=   0.000000

     crystal axes: (cart. coord. in units of alat)
               a(1) = (   6.579727   0.000000   0.000000 )
               a(2) = (  -0.000775   5.961596   0.000000 )
               a(3) = (   0.000000   0.000000  25.155947 )

     reciprocal axes: (cart. coord. in units 2 pi/alat)
               b(1) = (  0.151982  0.000020  0.000000 )
               b(2) = (  0.000000  0.167740  0.000000 )
               b(3) = (  0.000000  0.000000  0.039752 )

     PseudoPot. # 1 for Ti read from file:
     /storage/coda1/p-amedford6/0/shared/rich_project_chbe-medford/medford-share/data/pseudos_module/espresso/nninc/pbe/van/Ti.UPF
     MD5 check sum: 8e4df49b7f0d34bbd5052bf3f5ea0213
     Pseudo is Ultrasoft, Zval = 12.0
     Generated by new atomic code, or converted to UPF format
     Using radial grid of  851 points,  6 beta functions with:
                l(1) =   0
                l(2) =   0
                l(3) =   1
                l(4) =   1
                l(5) =   2
                l(6) =   2
     Q(r) pseudized with  8 coefficients,  rinner =    1.000   1.000   1.000
                                                       1.000   1.000

     PseudoPot. # 2 for O  read from file:
     /storage/coda1/p-amedford6/0/shared/rich_project_chbe-medford/medford-share/data/pseudos_module/espresso/nninc/pbe/van/O.UPF
     MD5 check sum: 78c19812648e8988a0fe644b0f25305e
     Pseudo is Ultrasoft, Zval =  6.0
     Generated by new atomic code, or converted to UPF format
     Using radial grid of  737 points,  4 beta functions with:
                l(1) =   0
                l(2) =   0
                l(3) =   1
                l(4) =   1
     Q(r) pseudized with  8 coefficients,  rinner =    0.800   0.800   0.800

     PseudoPot. # 3 for N  read from file:
     /storage/coda1/p-amedford6/0/shared/rich_project_chbe-medford/medford-share/data/pseudos_module/espresso/nninc/pbe/van/N.UPF
     MD5 check sum: 90d10febe142ad51ac9d5be1deb811c4
     Pseudo is Ultrasoft, Zval =  5.0
     Generated by new atomic code, or converted to UPF format
     Using radial grid of  729 points,  4 beta functions with:
                l(1) =   0
                l(2) =   0
                l(3) =   1
                l(4) =   1
     Q(r) pseudized with  8 coefficients,  rinner =    0.800   0.800   0.800

     PseudoPot. # 4 for C  read from file:
     /storage/coda1/p-amedford6/0/shared/rich_project_chbe-medford/medford-share/data/pseudos_module/espresso/nninc/pbe/van/C.UPF
     MD5 check sum: 1a69bf6b8db32088f5b2163dbdb77a27
     Pseudo is Ultrasoft, Zval =  4.0
     Generated by new atomic code, or converted to UPF format
     Using radial grid of  721 points,  4 beta functions with:
                l(1) =   0
                l(2) =   0
                l(3) =   1
                l(4) =   1
     Q(r) pseudized with  8 coefficients,  rinner =    0.800   0.800   0.800

     PseudoPot. # 5 for H  read from file:
     /storage/coda1/p-amedford6/0/shared/rich_project_chbe-medford/medford-share/data/pseudos_module/espresso/nninc/pbe/van/H.UPF
     MD5 check sum: b5ee9d7bfd3a09ee7748110bda690ff7
     Pseudo is Ultrasoft, Zval =  1.0
     Generated by new atomic code, or converted to UPF format
     Using radial grid of  615 points,  1 beta functions with:
                l(1) =   0
     Q(r) pseudized with  8 coefficients,  rinner =    0.800

     atomic species   valence    mass     pseudopotential
        Ti1           12.00    47.86700     Ti( 1.00)
        O1             6.00    15.99900     O ( 1.00)
        N1             5.00    14.00700     N ( 1.00)
        C1             4.00    12.01100     C ( 1.00)
        H1             1.00     1.00800     H ( 1.00)

     No symmetry found

   Cartesian axes

     site n.     atom                  positions (alat units)
         1           Ti1 tau(   1) = (   0.0004258   2.9801865   6.0000000  )
         2           Ti1 tau(   2) = (   3.2906075   1.4906267   6.0002472  )
         3           O1  tau(   3) = (   0.0006271   0.0005054   7.9858123  )
         4           O1  tau(   4) = (   3.2906025   0.0005020   7.3038282  )
         5           O1  tau(   5) = (   4.5942328   1.4918067   9.2879030  )
         6           O1  tau(   6) = (   1.9868534   1.4903216   9.2879459  )
         7           Ti1 tau(   7) = (   3.2907910   2.8959150   9.1758416  )
         8           Ti1 tau(   8) = (   0.0015273   1.4827037   9.2680791  )
         9           O1  tau(   9) = (   3.2915376   0.0135470  11.3011085  )
        10           O1  tau(  10) = (   0.0116148   5.9584955  10.6183126  )
        11           O1  tau(  11) = (   1.3264285   1.5112823  12.6233503  )
        12           O1  tau(  12) = (   5.3038506   1.5117067  12.6402039  )
        13           Ti1 tau(  13) = (   6.4820107   2.9926285  12.7699842  )
        14           Ti1 tau(  14) = (   3.1705855   1.5046985  12.4703807  )
        15           O1  tau(  15) = (   0.0265921   0.0018185  14.6022993  )
        16           O1  tau(  16) = (   3.3077976   0.0231332  13.8844522  )
        17           O1  tau(  17) = (   4.5431088   1.5356983  16.0582573  )
        18           O1  tau(  18) = (   2.0919096   1.5355568  16.0602035  )
        19           Ti1 tau(  19) = (   3.3160089   3.0194793  15.6930983  )
        20           Ti1 tau(  20) = (   0.0166562   1.5958061  16.1043543  )
        21           O1  tau(  21) = (   3.2904802   0.0005063   4.7018136  )
        22           O1  tau(  22) = (   0.0292894   0.0555714  17.2141426  )
        23           O1  tau(  23) = (   1.3043587   1.4918075   6.0039043  )
        24           O1  tau(  24) = (   5.2767064   1.4903225   6.0039473  )
        25           Ti1 tau(  25) = (   0.0000382   5.9609847   6.0000000  )
        26           Ti1 tau(  26) = (   3.2902200   4.4714249   6.0002472  )
        27           O1  tau(  27) = (   0.0002396   2.9813036   7.9858123  )
        28           O1  tau(  28) = (   3.2902150   2.9813002   7.3038282  )
        29           O1  tau(  29) = (   4.5938453   4.4726049   9.2879030  )
        30           O1  tau(  30) = (   1.9864658   4.4711199   9.2879459  )
        31           Ti1 tau(  31) = (   3.2891106   5.8743827   9.1763621  )
        32           Ti1 tau(  32) = (   0.0006254   4.4649316   9.2693709  )
        33           O1  tau(  33) = (   3.2938734   2.9940915  11.3014364  )
        34           O1  tau(  34) = (   0.0092240   2.9805883  10.6323155  )
        35           O1  tau(  35) = (   1.3265148   4.4779228  12.6213786  )
        36           O1  tau(  36) = (   5.3043665   4.4729268  12.6387898  )
        37           Ti1 tau(  37) = (   6.5102921   0.0103953  12.7821347  )
        38           Ti1 tau(  38) = (   3.1702703   4.4844908  12.4724723  )
        39           O1  tau(  39) = (   0.0044238   2.9856840  14.6711682  )
        40           O1  tau(  40) = (   3.3052367   3.0047533  13.8869641  )
        41           O1  tau(  41) = (   4.5463945   4.5179403  16.0573015  )
        42           O1  tau(  42) = (   2.0913021   4.5186677  16.0620504  )
        43           Ti1 tau(  43) = (   3.3128124   0.0388915  15.6953448  )
        44           Ti1 tau(  44) = (   0.0191476   4.5695365  16.1495174  )
        45           O1  tau(  45) = (   3.2900926   2.9813045   4.7018136  )
        46           O1  tau(  46) = (   1.3039711   4.4726057   6.0039043  )
        47           O1  tau(  47) = (   5.2763189   4.4711207   6.0039473  )
        48           N1  tau(  48) = (   0.0657769   3.0188755  17.3428317  )
        49           N1  tau(  49) = (   6.3710133   2.5762042  22.6422586  )
        50           C1  tau(  50) = (   0.3130180   3.0007025  18.7658599  )
        51           H1  tau(  51) = (   0.2928038   4.0066326  19.1970245  )
        52           H1  tau(  52) = (   6.1505335   2.3845869  19.2855718  )
        53           H1  tau(  53) = (   1.2957935   2.5555442  18.9776258  )
        54           H1  tau(  54) = (   5.9555952   3.1943721  23.3306195  )
        55           H1  tau(  55) = (   0.0098814   1.7053999  23.1248127  )
        56           H1  tau(  56) = (   0.6724875   2.9916800  22.3598805  )

     number of k points=    10  Fermi-Dirac smearing, width (Ry)=  0.0073
                       cart. coord. in units 2pi/alat
        k(    1) = (   0.0000000   0.0000000   0.0000000), wk =   0.1250000
        k(    2) = (   0.0000000   0.0419351   0.0000000), wk =   0.2500000
        k(    3) = (   0.0000000  -0.0838702   0.0000000), wk =   0.1250000
        k(    4) = (   0.0379955   0.0000049   0.0000000), wk =   0.2500000
        k(    5) = (   0.0379955   0.0419400   0.0000000), wk =   0.2500000
        k(    6) = (   0.0379955  -0.0838652   0.0000000), wk =   0.2500000
        k(    7) = (   0.0379955  -0.0419301   0.0000000), wk =   0.2500000
        k(    8) = (  -0.0759910  -0.0000099   0.0000000), wk =   0.1250000
        k(    9) = (  -0.0759910   0.0419252   0.0000000), wk =   0.2500000
        k(   10) = (  -0.0759910  -0.0838800   0.0000000), wk =   0.1250000

     Initial potential from superposition of free atoms

     starting charge  381.99914, renormalised to  398.00000

     negative rho (up, down):  7.218E-03 0.000E+00

     %%%%%%%%%%%%%%%%%%%%%%%%%%%%%%%%%%%%%%%%%%%%%%%%%%%%%%%%%%%%%%%%%%%%%%%%
     %                                                                      %
     % You are using vdW-DF, which was implemented by the Thonhauser group. %
     % Please cite the following two papers that made this development      %
     % possible and the two reviews that describe the various versions:     %
     %                                                                      %
     %   T. Thonhauser et al., PRL 115, 136402 (2015).                      %
     %   T. Thonhauser et al., PRB 76, 125112 (2007).                       %
     %   K. Berland et al., Rep. Prog. Phys. 78, 066501 (2015).             %
     %   D.C. Langreth et al., J. Phys.: Condens. Matter 21, 084203 (2009). %
     %                                                                      %
     %                                                                      %
     % If you are calculating the stress with vdW-DF, please also cite:     %
     %                                                                      %
     %   R. Sabatini et al., J. Phys.: Condens. Matter 24, 424209 (2012).   %
     %                                                                      %
     %%%%%%%%%%%%%%%%%%%%%%%%%%%%%%%%%%%%%%%%%%%%%%%%%%%%%%%%%%%%%%%%%%%%%%%%

     Adding external electric field

     Computed dipole along edir(3) :
        Dipole              -12.0386 Ry au,        -30.5990 Debye
        Dipole field         -0.0227 Ry au,

        Potential amp.        2.1060 Ry
        Total length         46.3494 bohr

     Starting wfcs are  302 atomic wfcs
  @ DRIVER MODE: Message from server: STATUS
  @ DRIVER MODE: Message from server: POSDATA
  @ DRIVER MODE: Reading and sharing cell
  @ DRIVER MODE: Reading and sharing positions
  @ DRIVER MODE: Received positions

     Self-consistent Calculation

     iteration #  1     ecut=    29.40 Ry     beta= 0.05
     Davidson diagonalization with overlap
     c_bands:  1 eigenvalues not converged
     c_bands:  1 eigenvalues not converged
     c_bands:  1 eigenvalues not converged
     c_bands:  1 eigenvalues not converged
     c_bands:  1 eigenvalues not converged
     c_bands:  1 eigenvalues not converged
     c_bands:  1 eigenvalues not converged
     c_bands:  2 eigenvalues not converged
     c_bands:  1 eigenvalues not converged
     ethr =  1.00E-05,  avg # of iterations = 19.6

[...]

     total energy              =   -2520.05438289 Ry
     estimated scf accuracy    <    4725.45492321 Ry

[...]

     iteration #  3     ecut=    29.40 Ry     beta= 0.05
     Davidson diagonalization with overlap
     ethr =  1.00E-02,  avg # of iterations = 17.2

[...]

     iteration # 44     ecut=    29.40 Ry     beta= 0.05
     Davidson diagonalization with overlap
     c_bands:  2 eigenvalues not converged
     ethr =  2.35E-07,  avg # of iterations = 11.1

[...]

     total energy              =   -2942.90431672 Ry
     estimated scf accuracy    <       0.00000013 Ry

     iteration # 63     ecut=    29.40 Ry     beta= 0.05
     Davidson diagonalization with overlap
     ethr =  3.34E-11,  avg # of iterations =  4.5

     negative rho (up, down):  9.735E-03 0.000E+00

     Adding external electric field

     Computed dipole along edir(3) :
        Dipole                0.6813 Ry au,          1.7317 Debye
        Dipole field          0.0013 Ry au,

        Potential amp.       -0.1192 Ry
        Total length         46.3494 bohr

     End of self-consistent calculation

          k = 0.0000 0.0000 0.0000 ( 18029 PWs)   bands (ev):

   -56.5052 -56.4716 -55.6133 -55.6044 -55.5780 -55.5719 -55.4748 -55.4392
   -55.2605 -55.2254 -55.1688 -55.1620 -55.1349 -55.0493 -54.6098 -54.5667
   -32.9326 -32.7790 -32.7508 -32.6819 -32.5909 -32.5587 -32.0925 -32.0708
   -32.0162 -31.9011 -31.8600 -31.8206 -31.8184 -31.7849 -31.7560 -31.7547
   -31.7535 -31.7357 -31.7251 -31.7209 -31.6998 -31.6833 -31.6572 -31.6434
   -31.6304 -31.6102 -31.6041 -31.5803 -31.5612 -31.5072 -31.4920 -31.4830
   -31.4037 -31.3994 -31.3797 -31.3353 -31.3277 -31.2963 -31.2791 -31.2553
   -31.2362 -31.1856 -31.1370 -30.8542 -30.8305 -30.8134 -30.7882 -30.6682
   -16.6664 -16.2244 -15.9963 -15.8663 -15.7930 -15.7444 -15.6915 -15.5754
   -15.4979 -15.4955 -15.4583 -15.4216 -15.3524 -15.2097 -15.1119 -15.0549
   -15.0128 -14.8982 -14.8324 -14.8057 -14.7958 -14.7644 -14.7470 -14.5479
   -14.5045 -14.4143 -14.4047 -14.2680 -14.0657 -13.9847 -13.6676 -13.5576
   -12.6982  -7.4297  -4.2335  -4.0843  -4.0463  -3.7206  -3.4786  -3.3925
    -3.2893  -3.2772  -3.2039  -3.0842  -3.0311  -2.9852  -2.8705  -2.8680
    -2.7253  -2.7065  -2.6800  -2.6693  -2.6326  -2.5857  -2.5555  -2.5084
    -2.5029  -2.4939  -2.3402  -2.2429  -2.1762  -2.1481  -2.1326  -2.1036
    -2.0281  -2.0032  -1.9922  -1.9840  -1.8958  -1.7465  -1.7407  -1.7123
    -1.6678  -1.6671  -1.6236  -1.6124  -1.4709  -1.3957  -1.2858  -1.2801
    -1.2438  -1.1769  -1.1749  -1.0721  -1.0019  -0.9501  -0.9113  -0.8054
    -0.7615  -0.7351  -0.6502  -0.5792  -0.5454  -0.5295  -0.5060  -0.4088
    -0.3917  -0.3690  -0.2856  -0.2762  -0.2280  -0.1405  -0.1197  -0.1160
    -0.0278  -0.0198   0.0820   0.1187   0.1607   0.1889   0.2786   0.3076
     0.4086   0.4526   0.4680   0.5902   0.6074   0.6668   0.7421   0.8039
     0.8243   0.8523   0.8854   0.8957   0.9779   1.0973   1.1024   1.1309
     1.2051   1.2518   1.4066   1.4455   1.7303   1.7421   2.4147   2.7703
     2.9318   3.2303   3.4314   3.5381   3.7473   3.7610   3.7667   3.9431
     3.9939

[...]

          k = 0.0380-0.0419 0.0000 ( 17876 PWs)   bands (ev):

[...]

          k =-0.0760-0.0000 0.0000 ( 17886 PWs)   bands (ev):

[...]

          k =-0.0760-0.0839 0.0000 ( 17948 PWs)   bands (ev):

   -56.4885 -56.4881 -55.5952 -55.5944 -55.5916 -55.5860 -55.4590 -55.4549
   -55.2454 -55.2404 -55.1593 -55.1519 -55.1518 -55.0519 -54.6007 -54.5757
   -32.7648 -32.7645 -32.7496 -32.7494 -32.6350 -32.6347 -31.9212 -31.9189
   -31.8955 -31.8892 -31.8506 -31.8497 -31.8075 -31.8051 -31.8049 -31.8041
   -31.7819 -31.7799 -31.7785 -31.7749 -31.7102 -31.7067 -31.6614 -31.6557
   -31.5960 -31.5875 -31.5278 -31.5231 -31.4961 -31.4960 -31.4883 -31.4441
   -31.4432 -31.4114 -31.3775 -31.3774 -31.3727 -31.3382 -31.3381 -31.3308
   -31.2950 -31.2569 -30.9992 -30.9266 -30.8267 -30.7994 -30.7957 -30.7537
   -16.0133 -16.0113 -15.9815 -15.9812 -15.7069 -15.7034 -15.6559 -15.6538
   -15.4846 -15.4783 -15.2684 -15.2600 -15.2558 -15.2517 -15.1235 -15.1170
   -15.0586 -15.0412 -14.9583 -14.9541 -14.8919 -14.8816 -14.8463 -14.8279
   -14.5065 -14.4855 -14.3671 -14.3488 -14.2139 -13.9839 -13.6611 -13.6610
   -12.7147  -7.4203  -4.0851  -4.0604  -3.1136  -3.1130  -3.0420  -3.0411
    -2.9187  -2.9135  -2.8455  -2.8447  -2.7341  -2.7317  -2.6791  -2.5995
    -2.5980  -2.5956  -2.5762  -2.5564  -2.4445  -2.4369  -2.4245  -2.4059
    -2.3605  -2.3575  -2.3478  -2.2670  -2.2530  -2.2169  -2.1770  -2.0712
    -2.0590  -2.0442  -2.0145  -1.9534  -1.9431  -1.9280  -1.8786  -1.8619
    -1.7785  -1.7230  -1.6602  -1.5529  -1.5487  -1.5391  -1.5268  -1.3720
    -1.3327  -1.3045  -1.2983  -1.2895  -1.2451  -1.1466  -1.1391  -0.9968
    -0.9965  -0.9244  -0.8441  -0.8283  -0.7981  -0.6676  -0.6246  -0.5843
    -0.5777  -0.5555  -0.5315  -0.5113  -0.4788  -0.3327  -0.3206  -0.2899
    -0.2495  -0.2417  -0.1951  -0.1278  -0.0400   0.0230   0.0246   0.0889
     0.1520   0.2118   0.2923   0.3079   0.3129   0.5940   0.6770   0.7649
     0.8413   0.9087   0.9733   0.9954   1.0640   1.0960   1.1297   1.2327
     1.2367   1.2540   1.2544   1.3258   1.3277   1.7073   2.3067   3.3442
     3.3445   3.4126   3.4131   3.7369   3.7425   3.8528   3.8631   3.9729
     3.9769

     the Fermi energy is     2.6029 ev

!    total energy              =   -2942.90435163 Ry
     estimated scf accuracy    <       0.00000007 Ry
     smearing contrib. (-TS)   =      -0.00455068 Ry
     internal energy E=F+TS    =   -2942.89980095 Ry

     The total energy is F=E-TS. E is the sum of the following terms:
     one-electron contribution =  -23042.87480328 Ry
     hartree contribution      =   11612.05488489 Ry
     xc contribution           =    -487.43830746 Ry
     ewald contribution        =    8975.35754895 Ry
     electric field correction =       0.00087595 Ry

     convergence has been achieved in  63 iterations

     Forces acting on atoms (cartesian axes, Ry/au):

     atom    1 type  1   force =     0.00001123   -0.00050063    0.12499818
     atom    2 type  1   force =    -0.00013573   -0.00062225   -0.16057790
     atom    3 type  2   force =     0.00017324   -0.00022427   -0.06935588
     atom    4 type  2   force =    -0.00004303   -0.00027904    0.02761649
     atom    5 type  2   force =    -0.01719734    0.00222554   -0.00888259
     atom    6 type  2   force =     0.01887851    0.00287571   -0.00920468
     atom    7 type  1   force =     0.00088264   -0.00375441    0.02236088
     atom    8 type  1   force =    -0.00036758   -0.00328507    0.11355017
     atom    9 type  2   force =     0.00050045   -0.00039859    0.00005821
     atom   10 type  2   force =    -0.00234468    0.00260104   -0.07319688
     atom   11 type  2   force =     0.00014310   -0.00095506   -0.00012321
     atom   12 type  2   force =     0.00000596   -0.00058493   -0.00004574
     atom   13 type  1   force =     0.00020174   -0.00019238   -0.00029479
     atom   14 type  1   force =    -0.00008974   -0.00053864   -0.00004865
     atom   15 type  2   force =    -0.00035312   -0.00099635    0.00083034
     atom   16 type  2   force =    -0.00013622   -0.00017230    0.00044156
     atom   17 type  2   force =     0.00089377   -0.00042528   -0.00035007
     atom   18 type  2   force =    -0.00058650   -0.00045950   -0.00032111
     atom   19 type  1   force =    -0.00025828    0.00007159   -0.00052914
     atom   20 type  1   force =     0.00055030   -0.00086808   -0.00097394
     atom   21 type  2   force =     0.00005219   -0.00006421    0.09967662
     atom   22 type  2   force =     0.00015014   -0.00038708   -0.00091983
     atom   23 type  2   force =    -0.07922630   -0.00005667   -0.03251161
     atom   24 type  2   force =     0.07908319    0.00037581   -0.03253612
     atom   25 type  1   force =     0.00002991   -0.00050387    0.12433313
     atom   26 type  1   force =    -0.00012286   -0.00049019   -0.16059369
     atom   27 type  2   force =     0.00028232   -0.00044663   -0.06836138
     atom   28 type  2   force =     0.00000356   -0.00013536    0.02746635
     atom   29 type  2   force =    -0.01765742    0.00173692   -0.00895402
     atom   30 type  2   force =     0.01923068    0.00199938   -0.00929315
     atom   31 type  1   force =     0.00080295   -0.00116424    0.02198486
     atom   32 type  1   force =    -0.00029324    0.00070893    0.11418989
     atom   33 type  2   force =    -0.00008007    0.00003819   -0.00056468
     atom   34 type  2   force =    -0.00201466    0.00206202   -0.07185649
     atom   35 type  2   force =     0.00003081   -0.00020931    0.00011202
     atom   36 type  2   force =    -0.00051270    0.00020566    0.00020016
     atom   37 type  1   force =     0.00086423    0.00095290   -0.00022987
     atom   38 type  1   force =    -0.00021715    0.00026625   -0.00018769
     atom   39 type  2   force =    -0.00001950   -0.00029205   -0.00002442
     atom   40 type  2   force =    -0.00001537   -0.00019518   -0.00026471
     atom   41 type  2   force =     0.00023989   -0.00043017   -0.00033016
     atom   42 type  2   force =    -0.00001257   -0.00039222   -0.00038412
     atom   43 type  1   force =    -0.00037001    0.00007225   -0.00042922
     atom   44 type  1   force =     0.00006382    0.00092181    0.00031129
     atom   45 type  2   force =     0.00003961   -0.00007460    0.09971325
     atom   46 type  2   force =    -0.07922862   -0.00003327   -0.03251492
     atom   47 type  2   force =     0.07908371    0.00041119   -0.03251765
     atom   48 type  3   force =    -0.00033589    0.00102754   -0.00097752
     atom   49 type  3   force =    -0.00019808   -0.00756278    0.00455520
     atom   50 type  4   force =    -0.00008736    0.00055545    0.00145790
     atom   51 type  5   force =    -0.00050817   -0.00047277   -0.00046768
     atom   52 type  5   force =     0.00000588    0.00020171   -0.00016412
     atom   53 type  5   force =    -0.00014242    0.00043136   -0.00012544
     atom   54 type  5   force =     0.00031520    0.00099496   -0.00046378
     atom   55 type  5   force =    -0.00033887    0.00690921   -0.00488189
     atom   56 type  5   force =     0.00037445   -0.00047807   -0.00039780

     Total force =     0.426818     Total SCF correction =     0.000843
  @ DRIVER MODE: Message from server: STATUS
  @ DRIVER MODE: Message from server: GETFORCE
  @ DRIVER MODE: Returning v,forces,stress,ensemble

     Writing output data file ./calc.save/
  @ DRIVER MODE: Message from server: EXIT
  @ DRIVE MODE: Exiting

     General routines

     Parallel routines

   This run was terminated on:  13:50: 1   9Sep2021

   JOB DONE.