     Program PWSCF v.6.7GPU starts on 15Sep2021 at 16:22: 5

     R & G space division:  proc/nbgrp/npool/nimage =      10
     Reading input from /storage/home/hcoda1/3/ntian30/research/carbon/CxH_vib/H2O_calc/ads_slab/CH3NH2O_a/out_0003/pw.inp
Warning: card &CELL ignored
Warning: card   CELL_DYNAMICS='IPI', ignored
Warning: card / ignored

     Current dimensions of program PWSCF are:
     Max number of different atomic species (ntypx) = 10
     Max number of k-points (npk) =  40000
     Max angular momentum in pseudopotentials (lmaxx) =  3
     Presently no symmetry can be used with electric field

     Message from routine cell_base_init:
     DEPRECATED: use true lattice parameter, not A to a.u. conversion factor

     IMPORTANT: XC functional enforced from input :
     Exchange-correlation= BEEF-VDW
                           (   1   4  43  14   2   0   0)
     Any further DFT definition will be discarded
     Please, verify this is what you really want

  @ DRIVER MODE: Connecting to
 qe_1139763_2852618.sched-torque.pace.gatech.edu7hzp7m8d_scratch
  using UNIX socket
  @ DRIVER MODE: Message from server: STATUS
  @ DRIVER MODE: Message from server: INIT
  @ DRIVER MODE: Receiving replica           0          -1
  @ DRIVER MODE: Receiving encoded integer          25
  @ DRIVER MODE:  SCF:  T  FORCE:  T  STRESS:  F  VC:  F  ENSEMBLE:  F
  @ DRIVER MODE:  SCF:  T  FORCE:  T  STRESS:  F  VC:  F  ENSEMBLE:  F

     Using Slab Decomposition

     bravais-lattice index     =            0
     lattice parameter (alat)  =       1.8897  a.u.
     unit-cell volume          =    6658.9804 (a.u.)^3
     number of atoms/cell      =           55
     number of atomic types    =            5
     number of electrons       =       398.00
     number of Kohn-Sham states=          209
     kinetic-energy cutoff     =      29.3995  Ry
     charge density cutoff     =     293.9946  Ry
     scf convergence threshold =      7.3E-08
     mixing beta               =       0.0500
     number of iterations used =            8  plain     mixing
     Exchange-correlation= BEEF-VDW
                           (   1   4  43  14   2   0   0)

     celldm(1)=   1.889726  celldm(2)=   0.000000  celldm(3)=   0.000000
     celldm(4)=   0.000000  celldm(5)=   0.000000  celldm(6)=   0.000000

     crystal axes: (cart. coord. in units of alat)
               a(1) = (   6.579727   0.000000   0.000000 )
               a(2) = (  -0.000775   5.961596   0.000000 )
               a(3) = (   0.000000   0.000000  25.155947 )

     reciprocal axes: (cart. coord. in units 2 pi/alat)
               b(1) = (  0.151982  0.000020  0.000000 )
               b(2) = (  0.000000  0.167740  0.000000 )
               b(3) = (  0.000000  0.000000  0.039752 )

     PseudoPot. # 1 for Ti read from file:
     /storage/coda1/p-amedford6/0/shared/rich_project_chbe-medford/medford-share/data/pseudos_module/espresso/nninc/pbe/van/Ti.UPF
     MD5 check sum: 8e4df49b7f0d34bbd5052bf3f5ea0213
     Pseudo is Ultrasoft, Zval = 12.0
     Generated by new atomic code, or converted to UPF format
     Using radial grid of  851 points,  6 beta functions with:
                l(1) =   0
                l(2) =   0
                l(3) =   1
                l(4) =   1
                l(5) =   2
                l(6) =   2
     Q(r) pseudized with  8 coefficients,  rinner =    1.000   1.000   1.000
                                                       1.000   1.000

     PseudoPot. # 2 for O  read from file:
     /storage/coda1/p-amedford6/0/shared/rich_project_chbe-medford/medford-share/data/pseudos_module/espresso/nninc/pbe/van/O.UPF
     MD5 check sum: 78c19812648e8988a0fe644b0f25305e
     Pseudo is Ultrasoft, Zval =  6.0
     Generated by new atomic code, or converted to UPF format
     Using radial grid of  737 points,  4 beta functions with:
                l(1) =   0
                l(2) =   0
                l(3) =   1
                l(4) =   1
     Q(r) pseudized with  8 coefficients,  rinner =    0.800   0.800   0.800

     PseudoPot. # 3 for N  read from file:
     /storage/coda1/p-amedford6/0/shared/rich_project_chbe-medford/medford-share/data/pseudos_module/espresso/nninc/pbe/van/N.UPF
     MD5 check sum: 90d10febe142ad51ac9d5be1deb811c4
     Pseudo is Ultrasoft, Zval =  5.0
     Generated by new atomic code, or converted to UPF format
     Using radial grid of  729 points,  4 beta functions with:
                l(1) =   0
                l(2) =   0
                l(3) =   1
                l(4) =   1
     Q(r) pseudized with  8 coefficients,  rinner =    0.800   0.800   0.800

     PseudoPot. # 4 for C  read from file:
     /storage/coda1/p-amedford6/0/shared/rich_project_chbe-medford/medford-share/data/pseudos_module/espresso/nninc/pbe/van/C.UPF
     MD5 check sum: 1a69bf6b8db32088f5b2163dbdb77a27
     Pseudo is Ultrasoft, Zval =  4.0
     Generated by new atomic code, or converted to UPF format
     Using radial grid of  721 points,  4 beta functions with:
                l(1) =   0
                l(2) =   0
                l(3) =   1
                l(4) =   1
     Q(r) pseudized with  8 coefficients,  rinner =    0.800   0.800   0.800

     PseudoPot. # 5 for H  read from file:
     /storage/coda1/p-amedford6/0/shared/rich_project_chbe-medford/medford-share/data/pseudos_module/espresso/nninc/pbe/van/H.UPF
     MD5 check sum: b5ee9d7bfd3a09ee7748110bda690ff7
     Pseudo is Ultrasoft, Zval =  1.0
     Generated by new atomic code, or converted to UPF format
     Using radial grid of  615 points,  1 beta functions with:
                l(1) =   0
     Q(r) pseudized with  8 coefficients,  rinner =    0.800

     atomic species   valence    mass     pseudopotential
        Ti1           12.00    47.86700     Ti( 1.00)
        O1             6.00    15.99900     O ( 1.00)
        N1             5.00    14.00700     N ( 1.00)
        C1             4.00    12.01100     C ( 1.00)
        H1             1.00     1.00800     H ( 1.00)

     No symmetry found

   Cartesian axes

     site n.     atom                  positions (alat units)
         1           Ti1 tau(   1) = (   0.0004258   2.9801865   6.0000000  )
         2           Ti1 tau(   2) = (   3.2906075   1.4906267   6.0002472  )
         3           O1  tau(   3) = (   0.0006271   0.0005054   7.9858123  )
         4           O1  tau(   4) = (   3.2906025   0.0005020   7.3038282  )
         5           O1  tau(   5) = (   4.5942328   1.4918067   9.2879030  )
         6           O1  tau(   6) = (   1.9868534   1.4903216   9.2879459  )
         7           Ti1 tau(   7) = (   3.2907910   2.8959150   9.1758416  )
         8           Ti1 tau(   8) = (   0.0015273   1.4827037   9.2680791  )
         9           O1  tau(   9) = (   3.2951577   0.0167633  11.2896499  )
        10           O1  tau(  10) = (   0.0116148   5.9584955  10.6183126  )
        11           O1  tau(  11) = (   1.3222759   1.5071707  12.6129440  )
        12           O1  tau(  12) = (   5.3060066   1.5095485  12.6267335  )
        13           Ti1 tau(  13) = (   6.4824898   3.0013615  12.7357613  )
        14           Ti1 tau(  14) = (   3.1735365   1.4973312  12.4739500  )
        15           O1  tau(  15) = (   0.0245190   0.0017265  14.5963640  )
        16           O1  tau(  16) = (   3.2983568   0.0259644  13.8884976  )
        17           O1  tau(  17) = (   4.5535709   1.5599051  15.9919625  )
        18           O1  tau(  18) = (   2.0723989   1.5598234  15.9883263  )
        19           Ti1 tau(  19) = (   3.3263631   3.0313633  15.6478355  )
        20           Ti1 tau(  20) = (   0.0083359   1.6222165  16.0589653  )
        21           O1  tau(  21) = (   3.2904802   0.0005063   4.7018136  )
        22           O1  tau(  22) = (   0.0206953   0.0548308  17.2083480  )
        23           O1  tau(  23) = (   1.3043587   1.4918075   6.0039043  )
        24           O1  tau(  24) = (   5.2767064   1.4903225   6.0039473  )
        25           Ti1 tau(  25) = (   0.0000382   5.9609847   6.0000000  )
        26           Ti1 tau(  26) = (   3.2902200   4.4714249   6.0002472  )
        27           O1  tau(  27) = (   0.0002396   2.9813036   7.9858123  )
        28           O1  tau(  28) = (   3.2902150   2.9813002   7.3038282  )
        29           O1  tau(  29) = (   4.5938453   4.4726049   9.2879030  )
        30           O1  tau(  30) = (   1.9864658   4.4711199   9.2879459  )
        31           Ti1 tau(  31) = (   3.2891106   5.8743827   9.1763621  )
        32           Ti1 tau(  32) = (   0.0006254   4.4649316   9.2693709  )
        33           O1  tau(  33) = (   3.2909539   2.9954008  11.2901670  )
        34           O1  tau(  34) = (   0.0092240   2.9805883  10.6323155  )
        35           O1  tau(  35) = (   1.3211080   4.4795309  12.6092917  )
        36           O1  tau(  36) = (   5.3058445   4.4798052  12.6251394  )
        37           Ti1 tau(  37) = (   6.5140999   0.0198189  12.7603067  )
        38           Ti1 tau(  38) = (   3.1705570   4.4938763  12.4677136  )
        39           O1  tau(  39) = (   0.0016069   2.9863809  14.6467327  )
        40           O1  tau(  40) = (   3.3112668   3.0122049  13.8485686  )
        41           O1  tau(  41) = (   4.5534170   4.5051619  16.0179686  )
        42           O1  tau(  42) = (   2.0797414   4.5084034  16.0201905  )
        43           Ti1 tau(  43) = (   3.2815144   0.0627375  15.7417980  )
        44           Ti1 tau(  44) = (   0.0076503   4.5954094  16.1032789  )
        45           O1  tau(  45) = (   3.2900926   2.9813045   4.7018136  )
        46           O1  tau(  46) = (   1.3039711   4.4726057   6.0039043  )
        47           O1  tau(  47) = (   5.2763189   4.4711207   6.0039473  )
        48           N1  tau(  48) = (   0.0651939   3.0176870  17.3150544  )
        49           C1  tau(  49) = (   0.3375872   3.0185870  18.7284822  )
        50           H1  tau(  50) = (   0.4544735   4.0311245  19.1352477  )
        51           H1  tau(  51) = (   6.1015407   2.5302758  19.2785169  )
        52           H1  tau(  52) = (   1.2508204   2.4494767  18.9518403  )
        53           O1  tau(  53) = (   3.3357083   0.1159715  18.1615364  )
        54           H1  tau(  54) = (   4.1514219   5.6051498  18.3929375  )
        55           H1  tau(  55) = (   2.5926282   5.5337384  18.4710493  )

     number of k points=    10  Fermi-Dirac smearing, width (Ry)=  0.0073
                       cart. coord. in units 2pi/alat
        k(    1) = (   0.0000000   0.0000000   0.0000000), wk =   0.1250000
        k(    2) = (   0.0000000   0.0419351   0.0000000), wk =   0.2500000
        k(    3) = (   0.0000000  -0.0838702   0.0000000), wk =   0.1250000
        k(    4) = (   0.0379955   0.0000049   0.0000000), wk =   0.2500000
        k(    5) = (   0.0379955   0.0419400   0.0000000), wk =   0.2500000
        k(    6) = (   0.0379955  -0.0838652   0.0000000), wk =   0.2500000
        k(    7) = (   0.0379955  -0.0419301   0.0000000), wk =   0.2500000
        k(    8) = (  -0.0759910  -0.0000099   0.0000000), wk =   0.1250000
        k(    9) = (  -0.0759910   0.0419252   0.0000000), wk =   0.2500000
        k(   10) = (  -0.0759910  -0.0838800   0.0000000), wk =   0.1250000

     Initial potential from superposition of free atoms

     starting charge  381.99915, renormalised to  398.00000

     negative rho (up, down):  1.656E-02 0.000E+00

     %%%%%%%%%%%%%%%%%%%%%%%%%%%%%%%%%%%%%%%%%%%%%%%%%%%%%%%%%%%%%%%%%%%%%%%%
     %                                                                      %
     % You are using vdW-DF, which was implemented by the Thonhauser group. %
     % Please cite the following two papers that made this development      %
     % possible and the two reviews that describe the various versions:     %
     %                                                                      %
     %   T. Thonhauser et al., PRL 115, 136402 (2015).                      %
     %   T. Thonhauser et al., PRB 76, 125112 (2007).                       %
     %   K. Berland et al., Rep. Prog. Phys. 78, 066501 (2015).             %
     %   D.C. Langreth et al., J. Phys.: Condens. Matter 21, 084203 (2009). %
     %                                                                      %
     %                                                                      %
     % If you are calculating the stress with vdW-DF, please also cite:     %
     %                                                                      %
     %   R. Sabatini et al., J. Phys.: Condens. Matter 24, 424209 (2012).   %
     %                                                                      %
     %%%%%%%%%%%%%%%%%%%%%%%%%%%%%%%%%%%%%%%%%%%%%%%%%%%%%%%%%%%%%%%%%%%%%%%%

     Adding external electric field

     Computed dipole along edir(3) :
        Dipole               -9.1079 Ry au,        -23.1500 Debye
        Dipole field         -0.0172 Ry au,

        Potential amp.        1.5933 Ry
        Total length         46.3494 bohr

     Starting wfcs are  301 atomic wfcs
  @ DRIVER MODE: Message from server: STATUS
  @ DRIVER MODE: Message from server: POSDATA
  @ DRIVER MODE: Reading and sharing cell
  @ DRIVER MODE: Reading and sharing positions
  @ DRIVER MODE: Received positions

     Self-consistent Calculation

     iteration #  1     ecut=    29.40 Ry     beta= 0.05
     Davidson diagonalization with overlap
     c_bands:  1 eigenvalues not converged
     c_bands:  1 eigenvalues not converged
     c_bands:  1 eigenvalues not converged
     c_bands:  1 eigenvalues not converged
     c_bands:  1 eigenvalues not converged
     c_bands:  1 eigenvalues not converged
     c_bands:  1 eigenvalues not converged
     c_bands:  2 eigenvalues not converged
     ethr =  1.00E-05,  avg # of iterations = 19.6

[...]

     total energy              =   -2564.51995506 Ry
     estimated scf accuracy    <    4317.19810138 Ry

     iteration #  2     ecut=    29.40 Ry     beta= 0.05
     Davidson diagonalization with overlap
     ethr =  1.00E-02,  avg # of iterations = 23.4

[...]

     iteration # 49     ecut=    29.40 Ry     beta= 0.05
     Davidson diagonalization with overlap
     c_bands:  2 eigenvalues not converged
     ethr =  1.92E-06,  avg # of iterations = 11.0

[...]

     total energy              =   -2953.97104264 Ry
     estimated scf accuracy    <       0.00000008 Ry

     iteration # 76     ecut=    29.40 Ry     beta= 0.05
     Davidson diagonalization with overlap
     ethr =  1.94E-11,  avg # of iterations =  5.3

     negative rho (up, down):  1.669E-02 0.000E+00

     Adding external electric field

     Computed dipole along edir(3) :
        Dipole                0.5307 Ry au,          1.3489 Debye
        Dipole field          0.0010 Ry au,

        Potential amp.       -0.0928 Ry
        Total length         46.3494 bohr

     End of self-consistent calculation

          k = 0.0000 0.0000 0.0000 ( 18029 PWs)   bands (ev):

   -56.5944 -56.5608 -55.7118 -55.6778 -55.6675 -55.6327 -55.4905 -55.4543
   -55.3599 -55.2426 -55.2282 -55.2254 -55.2087 -55.1320 -54.7371 -54.6558
   -33.0211 -32.8688 -32.8406 -32.7709 -32.6799 -32.6472 -32.1797 -32.1500
   -32.0260 -31.9766 -31.9288 -31.9095 -31.8805 -31.8701 -31.8426 -31.8365
   -31.8173 -31.8127 -31.7892 -31.7743 -31.7663 -31.7100 -31.7055 -31.6680
   -31.6544 -31.6335 -31.6248 -31.6166 -31.5933 -31.5848 -31.5823 -31.5581
   -31.4636 -31.4526 -31.4177 -31.4035 -31.3778 -31.3695 -31.3558 -31.3374
   -31.3085 -31.2585 -31.2380 -30.9785 -30.9610 -30.9020 -30.8743 -30.7777
   -18.7865 -16.7495 -16.2854 -16.0440 -15.9503 -15.8676 -15.8284 -15.7848
   -15.6362 -15.5642 -15.5440 -15.5422 -15.4735 -15.3292 -15.2755 -15.1777
   -15.0911 -14.9498 -14.9382 -14.8987 -14.8841 -14.8482 -14.8432 -14.7934
   -14.6260 -14.5894 -14.5440 -14.4848 -14.3938 -14.1715 -13.7407 -13.6310
   -12.9734  -7.7750  -6.5809  -4.3168  -3.7839  -3.5185  -3.4867  -3.3585
    -3.3538  -3.3107  -3.1737  -3.1635  -3.0883  -3.0629  -3.0209  -2.9490
    -2.9069  -2.8685  -2.7781  -2.7649  -2.7450  -2.7335  -2.7161  -2.5983
    -2.5543  -2.5037  -2.4005  -2.2906  -2.2477  -2.2208  -2.1752  -2.1415
    -2.0908  -2.0793  -2.0669  -2.0555  -1.9507  -1.8303  -1.8030  -1.7810
    -1.7355  -1.7207  -1.7117  -1.6881  -1.6038  -1.4966  -1.4045  -1.3348
    -1.3268  -1.2525  -1.2440  -1.1908  -1.0746  -1.0121  -1.0065  -0.9879
    -0.8842  -0.8588  -0.7869  -0.7240  -0.6651  -0.6126  -0.5500  -0.4972
    -0.4754  -0.4651  -0.3671  -0.2978  -0.2728  -0.2176  -0.2088  -0.2042
    -0.1778  -0.0819  -0.0468   0.0300   0.0649   0.1132   0.1478   0.2275
     0.2873   0.3531   0.4000   0.4220   0.4871   0.5430   0.5987   0.6898
     0.7464   0.7528   0.7794   0.8384   0.8521   0.9271   1.0084   1.0278
     1.0950   1.1664   1.3291   1.3681   1.6098   1.6885   2.3109   2.6830
     2.8442   3.1394   3.3294   3.4677   3.6623   3.6726   3.6799   3.9024
     3.9308

[...]

          k = 0.0380-0.0419 0.0000 ( 17876 PWs)   bands (ev):

[...]

          k =-0.0760-0.0000 0.0000 ( 17886 PWs)   bands (ev):

[...]

          k =-0.0760-0.0839 0.0000 ( 17948 PWs)   bands (ev):

   -56.5778 -56.5773 -55.6968 -55.6924 -55.6546 -55.6457 -55.4765 -55.4680
   -55.3575 -55.2304 -55.2256 -55.2255 -55.2220 -55.1353 -54.7331 -54.6596
   -32.8547 -32.8543 -32.8381 -32.8378 -32.7241 -32.7237 -32.0034 -31.9975
   -31.9858 -31.9788 -31.9025 -31.8879 -31.8870 -31.8826 -31.8759 -31.8743
   -31.8668 -31.8588 -31.8318 -31.8148 -31.7215 -31.7149 -31.6834 -31.6756
   -31.6522 -31.6167 -31.5846 -31.5712 -31.5711 -31.5682 -31.5464 -31.5291
   -31.4783 -31.4504 -31.4502 -31.4454 -31.4295 -31.4113 -31.4112 -31.3982
   -31.3740 -31.3390 -31.1071 -31.0237 -30.9599 -30.9330 -30.8811 -30.8372
   -18.7857 -16.1002 -16.0982 -16.0629 -16.0622 -15.7955 -15.7922 -15.7020
   -15.6965 -15.5646 -15.4442 -15.3401 -15.3275 -15.2936 -15.2669 -15.1567
   -15.1354 -15.1234 -15.1140 -15.0058 -14.9867 -14.9362 -14.9250 -14.9105
   -14.9018 -14.6053 -14.5914 -14.4889 -14.4654 -14.3255 -13.7346 -13.7345
   -12.9919  -7.7685  -6.5740  -3.1967  -3.1901  -3.1515  -3.1354  -3.1346
    -3.0790  -2.9764  -2.9304  -2.9281  -2.9274  -2.8455  -2.7815  -2.7736
    -2.6988  -2.6669  -2.6494  -2.5921  -2.5763  -2.5138  -2.4875  -2.4792
    -2.4615  -2.4382  -2.4369  -2.3423  -2.2761  -2.2304  -2.2252  -2.1654
    -2.1366  -2.0755  -2.0549  -2.0434  -2.0104  -1.9689  -1.9573  -1.9184
    -1.8762  -1.8421  -1.7793  -1.6127  -1.6034  -1.5941  -1.5737  -1.4515
    -1.4439  -1.4107  -1.3788  -1.3733  -1.3017  -1.2528  -1.2149  -1.1636
    -1.0758  -1.0544  -0.9487  -0.8979  -0.8543  -0.7988  -0.6932  -0.6728
    -0.6657  -0.6543  -0.6240  -0.5536  -0.5193  -0.5161  -0.3928  -0.3682
    -0.3302  -0.3008  -0.2425  -0.2142  -0.1557  -0.1234  -0.0542  -0.0394
    -0.0009   0.0785   0.1528   0.1890   0.2375   0.2441   0.5187   0.5920
     0.7210   0.7857   0.8470   0.9166   0.9800   1.0085   1.0388   1.1636
     1.1676   1.1769   1.1774   1.2487   1.2533   1.5908   2.1891   3.2592
     3.2594   3.3257   3.3263   3.6473   3.6535   3.7606   3.7708   3.9316
     3.9460

     the Fermi energy is     2.5096 ev

!    total energy              =   -2953.97106084 Ry
     estimated scf accuracy    <       0.00000005 Ry
     smearing contrib. (-TS)   =      -0.00441859 Ry
     internal energy E=F+TS    =   -2953.96664225 Ry

     The total energy is F=E-TS. E is the sum of the following terms:
     one-electron contribution =  -24343.99030305 Ry
     hartree contribution      =   12263.90333107 Ry
     xc contribution           =    -488.77249951 Ry
     ewald contribution        =    9614.89229777 Ry
     electric field correction =       0.00053146 Ry

     convergence has been achieved in  76 iterations

     Forces acting on atoms (cartesian axes, Ry/au):

     atom    1 type  1   force =    -0.00002794   -0.00047882    0.12443330
     atom    2 type  1   force =    -0.00003761   -0.00048236   -0.15979507
     atom    3 type  2   force =     0.00020039   -0.00023697   -0.06786329
     atom    4 type  2   force =     0.00000083   -0.00009077    0.02611659
     atom    5 type  2   force =    -0.01437054    0.00191457   -0.00991319
     atom    6 type  2   force =     0.01615461    0.00232468   -0.01028744
     atom    7 type  1   force =     0.00072149   -0.00389858    0.02850787
     atom    8 type  1   force =    -0.00033318   -0.00433416    0.10938494
     atom    9 type  2   force =     0.00002132    0.00002536    0.00005926
     atom   10 type  2   force =    -0.00225801    0.00266092   -0.07360566
     atom   11 type  2   force =     0.00081009   -0.00007413   -0.00023222
     atom   12 type  2   force =    -0.00045156   -0.00002878   -0.00020650
     atom   13 type  1   force =     0.00002221    0.00013727    0.00018242
     atom   14 type  1   force =    -0.00033960    0.00049439   -0.00038395
     atom   15 type  2   force =     0.00001307   -0.00189128    0.00028861
     atom   16 type  2   force =    -0.00018617   -0.00005938    0.00039792
     atom   17 type  2   force =    -0.00139002   -0.00046811   -0.00056480
     atom   18 type  2   force =     0.00097351   -0.00037766   -0.00013862
     atom   19 type  1   force =     0.00045281   -0.00087724   -0.00025600
     atom   20 type  1   force =    -0.00033000   -0.00141858   -0.00236587
     atom   21 type  2   force =     0.00006710   -0.00003893    0.09952811
     atom   22 type  2   force =     0.00003172   -0.00250708    0.00024362
     atom   23 type  2   force =    -0.07970766   -0.00006593   -0.03247118
     atom   24 type  2   force =     0.07957997    0.00037432   -0.03252956
     atom   25 type  1   force =    -0.00000602   -0.00057629    0.12407295
     atom   26 type  1   force =    -0.00010257   -0.00063036   -0.15992353
     atom   27 type  2   force =     0.00033207   -0.00036183   -0.06693489
     atom   28 type  2   force =    -0.00002455    0.00017776    0.02513904
     atom   29 type  2   force =    -0.01496162    0.00189663   -0.00988916
     atom   30 type  2   force =     0.01664797    0.00242481   -0.01022091
     atom   31 type  1   force =     0.00078436   -0.00077435    0.02378633
     atom   32 type  1   force =    -0.00022809    0.00197728    0.11001752
     atom   33 type  2   force =     0.00004231   -0.00028151    0.00032369
     atom   34 type  2   force =    -0.00212001    0.00206981   -0.07180468
     atom   35 type  2   force =     0.00024485   -0.00009266   -0.00010234
     atom   36 type  2   force =    -0.00017521   -0.00017481   -0.00016753
     atom   37 type  1   force =     0.00039518   -0.00004444    0.00023104
     atom   38 type  1   force =     0.00001489   -0.00057242   -0.00015599
     atom   39 type  2   force =     0.00007129    0.00071186    0.00015620
     atom   40 type  2   force =    -0.00009166   -0.00020168    0.00023990
     atom   41 type  2   force =     0.00136186   -0.00044497    0.00040946
     atom   42 type  2   force =    -0.00162094   -0.00056429    0.00090505
     atom   43 type  1   force =     0.00004284    0.00050179    0.00006504
     atom   44 type  1   force =    -0.00019148   -0.00003444   -0.00069922
     atom   45 type  2   force =     0.00005512   -0.00004654    0.09948717
     atom   46 type  2   force =    -0.07971689    0.00000287   -0.03249183
     atom   47 type  2   force =     0.07959587    0.00043046   -0.03251820
     atom   48 type  3   force =    -0.00039193    0.00539449    0.00069473
     atom   49 type  4   force =    -0.00034519   -0.00163285    0.00020733
     atom   50 type  5   force =    -0.00065808    0.00020305   -0.00078997
     atom   51 type  5   force =    -0.00001452   -0.00053083    0.00098516
     atom   52 type  5   force =     0.00061437    0.00024147    0.00071300
     atom   53 type  2   force =    -0.00062963   -0.00011168   -0.00070054
     atom   54 type  5   force =     0.00079448    0.00040040    0.00068033
     atom   55 type  5   force =     0.00066410    0.00004054   -0.00024445

     Total force =     0.423487     Total SCF correction =     0.000531
  @ DRIVER MODE: Message from server: STATUS
  @ DRIVER MODE: Message from server: GETFORCE
  @ DRIVER MODE: Returning v,forces,stress,ensemble

     Writing output data file ./calc.save/
  @ DRIVER MODE: Message from server: EXIT
  @ DRIVE MODE: Exiting

     General routines

     Parallel routines

   This run was terminated on:  16:41:32  15Sep2021

   JOB DONE.