     Program PWSCF v.6.7GPU starts on 16Sep2021 at  2:17:32

     R & G space division:  proc/nbgrp/npool/nimage =      10
     Reading input from /storage/home/hcoda1/3/ntian30/research/carbon/CxH_vib/H2O_calc/ads_slab/CH2NHH2O_a/out_0032/pw.inp
Warning: card &CELL ignored
Warning: card   CELL_DYNAMICS='IPI', ignored
Warning: card / ignored

     Current dimensions of program PWSCF are:
     Max number of different atomic species (ntypx) = 10
     Max number of k-points (npk) =  40000
     Max angular momentum in pseudopotentials (lmaxx) =  3
     Presently no symmetry can be used with electric field

     Message from routine cell_base_init:
     DEPRECATED: use true lattice parameter, not A to a.u. conversion factor

     IMPORTANT: XC functional enforced from input :
     Exchange-correlation= BEEF-VDW
                           (   1   4  43  14   2   0   0)
     Any further DFT definition will be discarded
     Please, verify this is what you really want

  @ DRIVER MODE: Connecting to
 qe_1139763_2852608.sched-torque.pace.gatech.eduwwv7s6ur_scratch
  using UNIX socket
  @ DRIVER MODE: Message from server: STATUS
  @ DRIVER MODE: Message from server: INIT
  @ DRIVER MODE: Receiving replica           0          -1
  @ DRIVER MODE: Receiving encoded integer          25
  @ DRIVER MODE:  SCF:  T  FORCE:  T  STRESS:  F  VC:  F  ENSEMBLE:  F
  @ DRIVER MODE:  SCF:  T  FORCE:  T  STRESS:  F  VC:  F  ENSEMBLE:  F

     Using Slab Decomposition

     bravais-lattice index     =            0
     lattice parameter (alat)  =       1.8897  a.u.
     unit-cell volume          =    6658.9804 (a.u.)^3
     number of atoms/cell      =           55
     number of atomic types    =            5
     number of electrons       =       398.00
     number of Kohn-Sham states=          209
     kinetic-energy cutoff     =      29.3995  Ry
     charge density cutoff     =     293.9946  Ry
     scf convergence threshold =      7.3E-08
     mixing beta               =       0.0500
     number of iterations used =            8  plain     mixing
     Exchange-correlation= BEEF-VDW
                           (   1   4  43  14   2   0   0)

     celldm(1)=   1.889726  celldm(2)=   0.000000  celldm(3)=   0.000000
     celldm(4)=   0.000000  celldm(5)=   0.000000  celldm(6)=   0.000000

     crystal axes: (cart. coord. in units of alat)
               a(1) = (   6.579727   0.000000   0.000000 )
               a(2) = (  -0.000775   5.961596   0.000000 )
               a(3) = (   0.000000   0.000000  25.155947 )

     reciprocal axes: (cart. coord. in units 2 pi/alat)
               b(1) = (  0.151982  0.000020  0.000000 )
               b(2) = (  0.000000  0.167740  0.000000 )
               b(3) = (  0.000000  0.000000  0.039752 )

     PseudoPot. # 1 for Ti read from file:
     /storage/coda1/p-amedford6/0/shared/rich_project_chbe-medford/medford-share/data/pseudos_module/espresso/nninc/pbe/van/Ti.UPF
     MD5 check sum: 8e4df49b7f0d34bbd5052bf3f5ea0213
     Pseudo is Ultrasoft, Zval = 12.0
     Generated by new atomic code, or converted to UPF format
     Using radial grid of  851 points,  6 beta functions with:
                l(1) =   0
                l(2) =   0
                l(3) =   1
                l(4) =   1
                l(5) =   2
                l(6) =   2
     Q(r) pseudized with  8 coefficients,  rinner =    1.000   1.000   1.000
                                                       1.000   1.000

     PseudoPot. # 2 for O  read from file:
     /storage/coda1/p-amedford6/0/shared/rich_project_chbe-medford/medford-share/data/pseudos_module/espresso/nninc/pbe/van/O.UPF
     MD5 check sum: 78c19812648e8988a0fe644b0f25305e
     Pseudo is Ultrasoft, Zval =  6.0
     Generated by new atomic code, or converted to UPF format
     Using radial grid of  737 points,  4 beta functions with:
                l(1) =   0
                l(2) =   0
                l(3) =   1
                l(4) =   1
     Q(r) pseudized with  8 coefficients,  rinner =    0.800   0.800   0.800

     PseudoPot. # 3 for N  read from file:
     /storage/coda1/p-amedford6/0/shared/rich_project_chbe-medford/medford-share/data/pseudos_module/espresso/nninc/pbe/van/N.UPF
     MD5 check sum: 90d10febe142ad51ac9d5be1deb811c4
     Pseudo is Ultrasoft, Zval =  5.0
     Generated by new atomic code, or converted to UPF format
     Using radial grid of  729 points,  4 beta functions with:
                l(1) =   0
                l(2) =   0
                l(3) =   1
                l(4) =   1
     Q(r) pseudized with  8 coefficients,  rinner =    0.800   0.800   0.800

     PseudoPot. # 4 for C  read from file:
     /storage/coda1/p-amedford6/0/shared/rich_project_chbe-medford/medford-share/data/pseudos_module/espresso/nninc/pbe/van/C.UPF
     MD5 check sum: 1a69bf6b8db32088f5b2163dbdb77a27
     Pseudo is Ultrasoft, Zval =  4.0
     Generated by new atomic code, or converted to UPF format
     Using radial grid of  721 points,  4 beta functions with:
                l(1) =   0
                l(2) =   0
                l(3) =   1
                l(4) =   1
     Q(r) pseudized with  8 coefficients,  rinner =    0.800   0.800   0.800

     PseudoPot. # 5 for H  read from file:
     /storage/coda1/p-amedford6/0/shared/rich_project_chbe-medford/medford-share/data/pseudos_module/espresso/nninc/pbe/van/H.UPF
     MD5 check sum: b5ee9d7bfd3a09ee7748110bda690ff7
     Pseudo is Ultrasoft, Zval =  1.0
     Generated by new atomic code, or converted to UPF format
     Using radial grid of  615 points,  1 beta functions with:
                l(1) =   0
     Q(r) pseudized with  8 coefficients,  rinner =    0.800

     atomic species   valence    mass     pseudopotential
        Ti1           12.00    47.86700     Ti( 1.00)
        O1             6.00    15.99900     O ( 1.00)
        N1             5.00    14.00700     N ( 1.00)
        C1             4.00    12.01100     C ( 1.00)
        H1             1.00     1.00800     H ( 1.00)

     No symmetry found

   Cartesian axes

     site n.     atom                  positions (alat units)
         1           Ti1 tau(   1) = (   0.0004258   2.9801865   6.0000000  )
         2           Ti1 tau(   2) = (   3.2906075   1.4906267   6.0002472  )
         3           O1  tau(   3) = (   0.0006271   0.0005054   7.9858123  )
         4           O1  tau(   4) = (   3.2906025   0.0005020   7.3038282  )
         5           O1  tau(   5) = (   4.5942328   1.4918067   9.2879030  )
         6           O1  tau(   6) = (   1.9868534   1.4903216   9.2879459  )
         7           Ti1 tau(   7) = (   3.2907910   2.8959150   9.1758416  )
         8           Ti1 tau(   8) = (   0.0015273   1.4827037   9.2680791  )
         9           O1  tau(   9) = (   3.2898722   0.0008919  11.3582996  )
        10           O1  tau(  10) = (   0.0116148   5.9584955  10.6183126  )
        11           O1  tau(  11) = (   1.2941175   1.4997011  12.6415926  )
        12           O1  tau(  12) = (   5.2900041   1.4988670  12.6311679  )
        13           Ti1 tau(  13) = (   0.0286627   2.9677426  12.5549903  )
        14           Ti1 tau(  14) = (   3.3305619   1.4761135  12.5169476  )
        15           O1  tau(  15) = (   0.0011522   0.0488603  14.6479508  )
        16           O1  tau(  16) = (   3.3026717   0.0283160  13.9913086  )
        17           O1  tau(  17) = (   4.5493611   1.5432082  16.1208237  )
        18           O1  tau(  18) = (   2.0202358   1.5417912  16.1150647  )
        19           Ti1 tau(  19) = (   3.2887705   3.0075965  15.7001020  )
        20           Ti1 tau(  20) = (   0.0091052   1.4341126  16.0176487  )
        21           O1  tau(  21) = (   3.2904802   0.0005063   4.7018136  )
        22           O1  tau(  22) = (   6.5755782   5.8726442  17.1894482  )
        23           O1  tau(  23) = (   1.3043587   1.4918075   6.0039043  )
        24           O1  tau(  24) = (   5.2767064   1.4903225   6.0039473  )
        25           Ti1 tau(  25) = (   0.0000382   5.9609847   6.0000000  )
        26           Ti1 tau(  26) = (   3.2902200   4.4714249   6.0002472  )
        27           O1  tau(  27) = (   0.0002396   2.9813036   7.9858123  )
        28           O1  tau(  28) = (   3.2902150   2.9813002   7.3038282  )
        29           O1  tau(  29) = (   4.5938453   4.4726049   9.2879030  )
        30           O1  tau(  30) = (   1.9864658   4.4711199   9.2879459  )
        31           Ti1 tau(  31) = (   3.2891106   5.8743827   9.1763621  )
        32           Ti1 tau(  32) = (   0.0006254   4.4649316   9.2693709  )
        33           O1  tau(  33) = (   3.2934734   2.9861727  11.3537610  )
        34           O1  tau(  34) = (   0.0092240   2.9805883  10.6323155  )
        35           O1  tau(  35) = (   1.2909626   4.4766429  12.6619247  )
        36           O1  tau(  36) = (   5.2900193   4.4803912  12.6490267  )
        37           Ti1 tau(  37) = (   0.0281377   5.9553508  12.5047683  )
        38           Ti1 tau(  38) = (   3.3302429   4.4653876  12.5079491  )
        39           O1  tau(  39) = (   6.5693844   2.9599090  14.8264494  )
        40           O1  tau(  40) = (   3.2969629   2.9925989  13.9157470  )
        41           O1  tau(  41) = (   4.5484520   4.4472025  16.1223275  )
        42           O1  tau(  42) = (   2.0280084   4.4594140  16.0867804  )
        43           Ti1 tau(  43) = (   3.2969344   0.0408593  15.8189202  )
        44           Ti1 tau(  44) = (   0.0203989   4.6198729  15.8219907  )
        45           O1  tau(  45) = (   3.2900926   2.9813045   4.7018136  )
        46           O1  tau(  46) = (   1.3039711   4.4726057   6.0039043  )
        47           O1  tau(  47) = (   5.2763189   4.4711207   6.0039473  )
        48           N1  tau(  48) = (   6.4956655   2.7544209  17.8339637  )
        49           C1  tau(  49) = (   0.7364952   2.7663736  18.8366375  )
        50           H1  tau(  50) = (   0.4484493   3.1383336  19.8159577  )
        51           H1  tau(  51) = (   1.7396475   2.3816028  18.7013769  )
        52           H1  tau(  52) = (   5.5670006   3.0916272  18.0761613  )
        53           O1  tau(  53) = (   3.3172362   0.1002980  18.2711691  )
        54           H1  tau(  54) = (   4.1501014   5.6086691  18.4387546  )
        55           H1  tau(  55) = (   2.5909652   5.4478326  18.5068232  )

     number of k points=    10  Fermi-Dirac smearing, width (Ry)=  0.0073
                       cart. coord. in units 2pi/alat
        k(    1) = (   0.0000000   0.0000000   0.0000000), wk =   0.1250000
        k(    2) = (   0.0000000   0.0419351   0.0000000), wk =   0.2500000
        k(    3) = (   0.0000000  -0.0838702   0.0000000), wk =   0.1250000
        k(    4) = (   0.0379955   0.0000049   0.0000000), wk =   0.2500000
        k(    5) = (   0.0379955   0.0419400   0.0000000), wk =   0.2500000
        k(    6) = (   0.0379955  -0.0838652   0.0000000), wk =   0.2500000
        k(    7) = (   0.0379955  -0.0419301   0.0000000), wk =   0.2500000
        k(    8) = (  -0.0759910  -0.0000099   0.0000000), wk =   0.1250000
        k(    9) = (  -0.0759910   0.0419252   0.0000000), wk =   0.2500000
        k(   10) = (  -0.0759910  -0.0838800   0.0000000), wk =   0.1250000

     Initial potential from superposition of free atoms

     starting charge  381.99915, renormalised to  398.00000

     negative rho (up, down):  1.644E-02 0.000E+00

     %%%%%%%%%%%%%%%%%%%%%%%%%%%%%%%%%%%%%%%%%%%%%%%%%%%%%%%%%%%%%%%%%%%%%%%%
     %                                                                      %
     % You are using vdW-DF, which was implemented by the Thonhauser group. %
     % Please cite the following two papers that made this development      %
     % possible and the two reviews that describe the various versions:     %
     %                                                                      %
     %   T. Thonhauser et al., PRL 115, 136402 (2015).                      %
     %   T. Thonhauser et al., PRB 76, 125112 (2007).                       %
     %   K. Berland et al., Rep. Prog. Phys. 78, 066501 (2015).             %
     %   D.C. Langreth et al., J. Phys.: Condens. Matter 21, 084203 (2009). %
     %                                                                      %
     %                                                                      %
     % If you are calculating the stress with vdW-DF, please also cite:     %
     %                                                                      %
     %   R. Sabatini et al., J. Phys.: Condens. Matter 24, 424209 (2012).   %
     %                                                                      %
     %%%%%%%%%%%%%%%%%%%%%%%%%%%%%%%%%%%%%%%%%%%%%%%%%%%%%%%%%%%%%%%%%%%%%%%%

     Adding external electric field

     Computed dipole along edir(3) :
        Dipole              -10.4007 Ry au,        -26.4360 Debye
        Dipole field         -0.0196 Ry au,

        Potential amp.        1.8194 Ry
        Total length         46.3494 bohr

     Starting wfcs are  301 atomic wfcs
  @ DRIVER MODE: Message from server: STATUS
  @ DRIVER MODE: Message from server: POSDATA
  @ DRIVER MODE: Reading and sharing cell
  @ DRIVER MODE: Reading and sharing positions
  @ DRIVER MODE: Received positions

     Self-consistent Calculation

     iteration #  1     ecut=    29.40 Ry     beta= 0.05
     Davidson diagonalization with overlap
     c_bands:  3 eigenvalues not converged
     c_bands:  3 eigenvalues not converged
     c_bands:  1 eigenvalues not converged
     c_bands:  4 eigenvalues not converged
     c_bands:  4 eigenvalues not converged
     c_bands:  4 eigenvalues not converged
     c_bands:  2 eigenvalues not converged
     c_bands:  3 eigenvalues not converged
     c_bands:  2 eigenvalues not converged
     ethr =  1.00E-05,  avg # of iterations = 19.9

[...]

     total energy              =   -2485.31961141 Ry
     estimated scf accuracy    <    5245.67004917 Ry

     iteration #  2     ecut=    29.40 Ry     beta= 0.05
     Davidson diagonalization with overlap
     ethr =  1.00E-02,  avg # of iterations = 24.0

[...]

     iteration # 75     ecut=    29.40 Ry     beta= 0.05
     Davidson diagonalization with overlap
     c_bands:  1 eigenvalues not converged
     ethr =  3.15E-11,  avg # of iterations =  9.8

[...]

     total energy              =   -2953.94939896 Ry
     estimated scf accuracy    <       0.00000007 Ry

     iteration # 76     ecut=    29.40 Ry     beta= 0.05
     Davidson diagonalization with overlap
     ethr =  1.88E-11,  avg # of iterations =  6.5

     negative rho (up, down):  1.568E-02 0.000E+00

     Adding external electric field

     Computed dipole along edir(3) :
        Dipole                1.2797 Ry au,          3.2525 Debye
        Dipole field          0.0024 Ry au,

        Potential amp.       -0.2239 Ry
        Total length         46.3494 bohr

     End of self-consistent calculation

          k = 0.0000 0.0000 0.0000 ( 18029 PWs)   bands (ev):

   -55.3926 -55.3728 -55.3566 -55.3398 -55.3387 -55.2726 -55.2281 -55.2078
   -55.1980 -55.1891 -55.1721 -55.1654 -55.1225 -54.9943 -54.3829 -54.3489
   -31.9529 -31.8620 -31.7605 -31.7461 -31.7008 -31.6979 -31.6962 -31.6628
   -31.6560 -31.6231 -31.6174 -31.6064 -31.5865 -31.5696 -31.5689 -31.5347
   -31.5320 -31.5256 -31.5110 -31.5082 -31.4836 -31.4561 -31.4530 -31.4358
   -31.4299 -31.4068 -31.4057 -31.4026 -31.4008 -31.3942 -31.3747 -31.3681
   -31.3620 -31.3575 -31.3482 -31.3311 -31.3290 -31.3225 -31.3052 -31.2942
   -31.2210 -31.1080 -30.7913 -30.6995 -30.6773 -30.6079 -30.5212 -30.4102
   -19.1704 -16.2521 -16.1581 -15.9147 -15.7338 -15.6452 -15.5832 -15.3941
   -15.3526 -15.2618 -15.1789 -15.0874 -15.0333 -14.9893 -14.9786 -14.9584
   -14.9325 -14.9226 -14.8847 -14.8700 -14.8685 -14.8216 -14.8193 -14.7806
   -14.7717 -14.7277 -14.7056 -14.5970 -14.5411 -14.4868 -14.0589 -12.8850
   -12.7679  -9.0950  -6.9906  -5.9821  -4.4635  -3.5505  -3.3996  -3.3894
    -3.3027  -3.2962  -3.2274  -3.1180  -2.9283  -2.7745  -2.6882  -2.6450
    -2.5935  -2.5694  -2.5108  -2.4563  -2.3618  -2.2903  -2.2600  -2.2274
    -2.2099  -2.1907  -2.1671  -2.1431  -2.1036  -2.0790  -2.0418  -1.9401
    -1.8539  -1.8004  -1.7858  -1.7153  -1.6924  -1.6866  -1.6779  -1.6685
    -1.6642  -1.6558  -1.6029  -1.5788  -1.5379  -1.4103  -1.3397  -1.2347
    -1.1224  -1.0718  -1.0313  -1.0126  -0.9255  -0.9198  -0.8648  -0.7883
    -0.7556  -0.7148  -0.7016  -0.5748  -0.4926  -0.4809  -0.4305  -0.3568
    -0.2989  -0.2582  -0.2017  -0.1775  -0.1549  -0.1380   0.0023   0.0346
     0.0782   0.1063   0.1350   0.2097   0.2465   0.3087   0.3566   0.3640
     0.4114   0.4981   0.5118   0.5615   0.5657   0.6104   0.6294   0.7255
     0.7600   0.7686   0.8344   0.8688   1.0111   1.2272   1.2349   1.2821
     1.5549   1.6166   1.6401   1.8270   2.2141   2.2613   3.7010   3.7920
     3.8310   3.8495   3.8624   3.9368   4.0760   4.1916   4.1959   4.2258
     4.2391

[...]

          k = 0.0380-0.0419 0.0000 ( 17876 PWs)   bands (ev):

[...]

          k =-0.0760-0.0000 0.0000 ( 17886 PWs)   bands (ev):

[...]

          k =-0.0760-0.0839 0.0000 ( 17948 PWs)   bands (ev):

   -55.3764 -55.3726 -55.3558 -55.3556 -55.3377 -55.2645 -55.2361 -55.1918
   -55.1909 -55.1866 -55.1825 -55.1821 -55.1202 -54.9966 -54.3659 -54.3658
   -31.7627 -31.7517 -31.6772 -31.6771 -31.6600 -31.6493 -31.6483 -31.6481
   -31.6207 -31.6091 -31.5907 -31.5866 -31.5790 -31.5603 -31.5408 -31.5263
   -31.5250 -31.5219 -31.5175 -31.5127 -31.5069 -31.4944 -31.4753 -31.4750
   -31.4686 -31.4671 -31.4653 -31.4352 -31.4242 -31.4165 -31.4062 -31.4023
   -31.4014 -31.4011 -31.3895 -31.3840 -31.3619 -31.3604 -31.3395 -31.2903
   -31.2245 -31.1938 -30.6900 -30.6900 -30.6040 -30.6038 -30.5646 -30.5645
   -19.1696 -16.1943 -15.6516 -15.5922 -15.5220 -15.3672 -15.3611 -15.3360
   -15.2742 -15.1760 -15.1621 -15.1303 -15.1223 -15.0880 -15.0760 -15.0564
   -15.0341 -14.9622 -14.9541 -14.9494 -14.9268 -14.8954 -14.8806 -14.8717
   -14.8498 -14.8451 -14.7896 -14.7427 -14.7397 -14.5483 -14.3540 -12.8696
   -12.8694  -9.1002  -6.9889  -5.9806  -4.4453  -3.3285  -2.9270  -2.7964
    -2.7447  -2.5950  -2.5677  -2.5205  -2.4630  -2.4028  -2.3757  -2.3568
    -2.3085  -2.3027  -2.2553  -2.2418  -2.2210  -2.2197  -2.2106  -2.1643
    -2.1474  -2.1392  -2.1210  -2.1059  -2.0949  -2.0756  -2.0478  -2.0382
    -2.0040  -1.9737  -1.9601  -1.9379  -1.8828  -1.7674  -1.7375  -1.6948
    -1.5835  -1.5756  -1.5696  -1.5278  -1.4816  -1.4755  -1.4479  -1.4184
    -1.3495  -1.3215  -1.1306  -1.1183  -1.1046  -1.0397  -1.0122  -0.9150
    -0.8965  -0.8296  -0.8116  -0.7965  -0.7105  -0.6790  -0.5744  -0.5653
    -0.5494  -0.5144  -0.4072  -0.3602  -0.3521  -0.3474  -0.3259  -0.2429
    -0.2279  -0.2099  -0.1759  -0.1479  -0.1146  -0.1012  -0.0175   0.1524
     0.1624   0.2500   0.3497   0.4443   0.5651   0.6358   0.6446   0.6992
     0.7424   0.8239   0.8674   0.9053   0.9246   1.0357   1.0684   1.0840
     1.0905   1.1459   1.9992   2.0006   2.0812   2.0815   3.7816   3.9313
     4.0004   4.0177   4.0576   4.1835   4.2226   4.2754   4.2768   4.2821
     4.3702

     the Fermi energy is     3.7468 ev

!    total energy              =   -2953.94941414 Ry
     estimated scf accuracy    <       0.00000005 Ry
     smearing contrib. (-TS)   =      -0.03631361 Ry
     internal energy E=F+TS    =   -2953.91310052 Ry

     The total energy is F=E-TS. E is the sum of the following terms:
     one-electron contribution =  -24165.72614880 Ry
     hartree contribution      =   12176.24879973 Ry
     xc contribution           =    -488.89517139 Ry
     ewald contribution        =    9524.45632975 Ry
     electric field correction =       0.00309019 Ry

     convergence has been achieved in  76 iterations

     Forces acting on atoms (cartesian axes, Ry/au):

     atom    1 type  1   force =     0.00005635   -0.00021627    0.09432036
     atom    2 type  1   force =    -0.00029514   -0.00033459   -0.17717157
     atom    3 type  2   force =     0.00001736   -0.00013980   -0.02178335
     atom    4 type  2   force =    -0.00002240   -0.00175359    0.05663039
     atom    5 type  2   force =    -0.01065667   -0.00110724    0.00625485
     atom    6 type  2   force =     0.01215463   -0.00036005    0.00530074
     atom    7 type  1   force =    -0.00069510    0.00164160   -0.01075349
     atom    8 type  1   force =     0.00018247    0.00661175    0.00669492
     atom    9 type  2   force =     0.00024829   -0.00039941   -0.00055245
     atom   10 type  2   force =    -0.00109432    0.00063812   -0.01011915
     atom   11 type  2   force =    -0.00026035   -0.00016549   -0.00022127
     atom   12 type  2   force =     0.00038379   -0.00023664    0.00001108
     atom   13 type  1   force =     0.00019396   -0.00051506    0.00121067
     atom   14 type  1   force =    -0.00007212    0.00039786    0.00041976
     atom   15 type  2   force =     0.00009483    0.00018760    0.00117821
     atom   16 type  2   force =    -0.00018317   -0.00066295    0.00023177
     atom   17 type  2   force =    -0.00001645    0.00004197   -0.00043247
     atom   18 type  2   force =    -0.00096925   -0.00014857    0.00070389
     atom   19 type  1   force =     0.00129337   -0.00036451   -0.00048074
     atom   20 type  1   force =    -0.00152072    0.00068767   -0.00051416
     atom   21 type  2   force =     0.00000583   -0.00004767    0.10371776
     atom   22 type  2   force =     0.00010493    0.00052028    0.00063360
     atom   23 type  2   force =    -0.07089627   -0.00015191   -0.02716543
     atom   24 type  2   force =     0.07074263    0.00028974   -0.02723465
     atom   25 type  1   force =     0.00001108   -0.00013716    0.09408142
     atom   26 type  1   force =    -0.00023078   -0.00036288   -0.17732436
     atom   27 type  2   force =     0.00005496   -0.00031669   -0.02070047
     atom   28 type  2   force =     0.00005094   -0.00136368    0.05587293
     atom   29 type  2   force =    -0.01087824    0.00029286    0.00603682
     atom   30 type  2   force =     0.01228116    0.00055194    0.00507339
     atom   31 type  1   force =    -0.00056859    0.00495871   -0.01402753
     atom   32 type  1   force =     0.00030249   -0.00744846    0.00636877
     atom   33 type  2   force =     0.00025082    0.00013309   -0.00021247
     atom   34 type  2   force =    -0.00066371    0.00183353   -0.00595097
     atom   35 type  2   force =    -0.00001664   -0.00024266    0.00002703
     atom   36 type  2   force =     0.00025198   -0.00031788    0.00018483
     atom   37 type  1   force =     0.00022619    0.00090604    0.00051775
     atom   38 type  1   force =    -0.00008891    0.00004861    0.00067704
     atom   39 type  2   force =     0.00037873    0.00027105    0.00003864
     atom   40 type  2   force =    -0.00013377   -0.00037306    0.00055660
     atom   41 type  2   force =    -0.00057554   -0.00038880   -0.00054308
     atom   42 type  2   force =    -0.00022971    0.00021792    0.00052681
     atom   43 type  1   force =     0.00111893   -0.00141408   -0.00057261
     atom   44 type  1   force =    -0.00119895    0.00039251   -0.00151373
     atom   45 type  2   force =     0.00000466   -0.00009669    0.10369475
     atom   46 type  2   force =    -0.07092754   -0.00009141   -0.02716915
     atom   47 type  2   force =     0.07077305    0.00033803   -0.02722109
     atom   48 type  3   force =     0.00127240   -0.00040606    0.00014548
     atom   49 type  4   force =     0.00008695   -0.00035466    0.00003400
     atom   50 type  5   force =    -0.00005321   -0.00025201   -0.00020945
     atom   51 type  5   force =     0.00038594   -0.00031653   -0.00012321
     atom   52 type  5   force =    -0.00126087    0.00101360    0.00049439
     atom   53 type  2   force =    -0.02497990   -0.00158204    0.00099325
     atom   54 type  5   force =     0.01436354   -0.00776365    0.00294163
     atom   55 type  5   force =     0.01119606    0.00785768   -0.00357672

     Total force =     0.367178     Total SCF correction =     0.000592
  @ DRIVER MODE: Message from server: STATUS
  @ DRIVER MODE: Message from server: GETFORCE
  @ DRIVER MODE: Returning v,forces,stress,ensemble

     Writing output data file ./calc.save/
  @ DRIVER MODE: Message from server: EXIT
  @ DRIVE MODE: Exiting

     General routines

     Parallel routines

   This run was terminated on:   2:37:48  16Sep2021

   JOB DONE.