     Program PWSCF v.6.7GPU starts on 20Sep2021 at 12:45:43

     R & G space division:  proc/nbgrp/npool/nimage =      10
     Reading input from /storage/home/hcoda1/3/ntian30/research/carbon/CxH_vib/CH3_calc/ads_slab/CH3O_a/out_0013/pw.inp
Warning: card &CELL ignored
Warning: card   CELL_DYNAMICS='IPI', ignored
Warning: card / ignored

     Current dimensions of program PWSCF are:
     Max number of different atomic species (ntypx) = 10
     Max number of k-points (npk) =  40000
     Max angular momentum in pseudopotentials (lmaxx) =  3
     Presently no symmetry can be used with electric field

     Message from routine cell_base_init:
     DEPRECATED: use true lattice parameter, not A to a.u. conversion factor

     IMPORTANT: XC functional enforced from input :
     Exchange-correlation= BEEF-VDW
                           (   1   4  43  14   2   0   0)
     Any further DFT definition will be discarded
     Please, verify this is what you really want

  @ DRIVER MODE: Connecting to
 qe_1139763_2907627.sched-torque.pace.gatech.eduzrf8gbl0_scratch
  using UNIX socket
  @ DRIVER MODE: Message from server: STATUS
  @ DRIVER MODE: Message from server: INIT
  @ DRIVER MODE: Receiving replica           0          -1
  @ DRIVER MODE: Receiving encoded integer          25
  @ DRIVER MODE:  SCF:  T  FORCE:  T  STRESS:  F  VC:  F  ENSEMBLE:  F
  @ DRIVER MODE:  SCF:  T  FORCE:  T  STRESS:  F  VC:  F  ENSEMBLE:  F

     Using Slab Decomposition

     bravais-lattice index     =            0
     lattice parameter (alat)  =       1.8897  a.u.
     unit-cell volume          =    6658.9804 (a.u.)^3
     number of atoms/cell      =           52
     number of atomic types    =            4
     number of electrons       =       391.00
     number of Kohn-Sham states=          205
     kinetic-energy cutoff     =      29.3995  Ry
     charge density cutoff     =     293.9946  Ry
     scf convergence threshold =      7.3E-08
     mixing beta               =       0.0500
     number of iterations used =            8  plain     mixing
     Exchange-correlation= BEEF-VDW
                           (   1   4  43  14   2   0   0)

     celldm(1)=   1.889726  celldm(2)=   0.000000  celldm(3)=   0.000000
     celldm(4)=   0.000000  celldm(5)=   0.000000  celldm(6)=   0.000000

     crystal axes: (cart. coord. in units of alat)
               a(1) = (   6.579727   0.000000   0.000000 )
               a(2) = (  -0.000775   5.961596   0.000000 )
               a(3) = (   0.000000   0.000000  25.155947 )

     reciprocal axes: (cart. coord. in units 2 pi/alat)
               b(1) = (  0.151982  0.000020  0.000000 )
               b(2) = (  0.000000  0.167740  0.000000 )
               b(3) = (  0.000000  0.000000  0.039752 )

     PseudoPot. # 1 for Ti read from file:
     /storage/coda1/p-amedford6/0/shared/rich_project_chbe-medford/medford-share/data/pseudos_module/espresso/nninc/pbe/van/Ti.UPF
     MD5 check sum: 8e4df49b7f0d34bbd5052bf3f5ea0213
     Pseudo is Ultrasoft, Zval = 12.0
     Generated by new atomic code, or converted to UPF format
     Using radial grid of  851 points,  6 beta functions with:
                l(1) =   0
                l(2) =   0
                l(3) =   1
                l(4) =   1
                l(5) =   2
                l(6) =   2
     Q(r) pseudized with  8 coefficients,  rinner =    1.000   1.000   1.000
                                                       1.000   1.000

     PseudoPot. # 2 for O  read from file:
     /storage/coda1/p-amedford6/0/shared/rich_project_chbe-medford/medford-share/data/pseudos_module/espresso/nninc/pbe/van/O.UPF
     MD5 check sum: 78c19812648e8988a0fe644b0f25305e
     Pseudo is Ultrasoft, Zval =  6.0
     Generated by new atomic code, or converted to UPF format
     Using radial grid of  737 points,  4 beta functions with:
                l(1) =   0
                l(2) =   0
                l(3) =   1
                l(4) =   1
     Q(r) pseudized with  8 coefficients,  rinner =    0.800   0.800   0.800

     PseudoPot. # 3 for C  read from file:
     /storage/coda1/p-amedford6/0/shared/rich_project_chbe-medford/medford-share/data/pseudos_module/espresso/nninc/pbe/van/C.UPF
     MD5 check sum: 1a69bf6b8db32088f5b2163dbdb77a27
     Pseudo is Ultrasoft, Zval =  4.0
     Generated by new atomic code, or converted to UPF format
     Using radial grid of  721 points,  4 beta functions with:
                l(1) =   0
                l(2) =   0
                l(3) =   1
                l(4) =   1
     Q(r) pseudized with  8 coefficients,  rinner =    0.800   0.800   0.800

     PseudoPot. # 4 for H  read from file:
     /storage/coda1/p-amedford6/0/shared/rich_project_chbe-medford/medford-share/data/pseudos_module/espresso/nninc/pbe/van/H.UPF
     MD5 check sum: b5ee9d7bfd3a09ee7748110bda690ff7
     Pseudo is Ultrasoft, Zval =  1.0
     Generated by new atomic code, or converted to UPF format
     Using radial grid of  615 points,  1 beta functions with:
                l(1) =   0
     Q(r) pseudized with  8 coefficients,  rinner =    0.800

     atomic species   valence    mass     pseudopotential
        Ti1           12.00    47.86700     Ti( 1.00)
        O1             6.00    15.99900     O ( 1.00)
        C1             4.00    12.01100     C ( 1.00)
        H1             1.00     1.00800     H ( 1.00)

     No symmetry found

   Cartesian axes

     site n.     atom                  positions (alat units)
         1           Ti1 tau(   1) = (   0.0004258   2.9801865   6.0000000  )
         2           Ti1 tau(   2) = (   3.2906075   1.4906267   6.0002472  )
         3           O1  tau(   3) = (   0.0006271   0.0005054   7.9858123  )
         4           O1  tau(   4) = (   3.2906025   0.0005020   7.3038282  )
         5           O1  tau(   5) = (   4.5942328   1.4918067   9.2879030  )
         6           O1  tau(   6) = (   1.9868534   1.4903216   9.2879459  )
         7           Ti1 tau(   7) = (   3.3187032   3.0312427   9.1575206  )
         8           Ti1 tau(   8) = (   0.0282419   1.6147502   9.3704053  )
         9           O1  tau(   9) = (   3.3236385   0.0141534  11.3532293  )
        10           O1  tau(  10) = (   0.0104197   0.0125229  10.6127740  )
        11           O1  tau(  11) = (   1.3245732   1.5021988  12.6430083  )
        12           O1  tau(  12) = (   5.3244981   1.5061434  12.6562219  )
        13           Ti1 tau(  13) = (   0.0403031   3.0097444  12.8244759  )
        14           Ti1 tau(  14) = (   3.3296682   1.5108177  12.4986020  )
        15           O1  tau(  15) = (   0.0398480   0.0117783  14.7343716  )
        16           O1  tau(  16) = (   3.3300567   0.0146708  13.9469669  )
        17           O1  tau(  17) = (   4.5805658   1.5026465  16.1145873  )
        18           O1  tau(  18) = (   2.0880061   1.5021997  16.1152651  )
        19           Ti1 tau(  19) = (   3.3307167   2.9906167  15.7324548  )
        20           Ti1 tau(  20) = (   0.0579274   1.3843852  16.1188819  )
        21           O1  tau(  21) = (   3.2904802   0.0005063   4.7018136  )
        22           O1  tau(  22) = (   0.0436517   5.9586681  17.2572535  )
        23           O1  tau(  23) = (   1.3043587   1.4918075   6.0039043  )
        24           O1  tau(  24) = (   5.2767064   1.4903225   6.0039473  )
        25           Ti1 tau(  25) = (   0.0000382   5.9609847   6.0000000  )
        26           Ti1 tau(  26) = (   3.2902200   4.4714249   6.0002472  )
        27           O1  tau(  27) = (   0.0002396   2.9813036   7.9858123  )
        28           O1  tau(  28) = (   3.2902150   2.9813002   7.3038282  )
        29           O1  tau(  29) = (   4.5938453   4.4726049   9.2879030  )
        30           O1  tau(  30) = (   1.9864658   4.4711199   9.2879459  )
        31           Ti1 tau(  31) = (   3.3083866   0.0539517   9.1541167  )
        32           Ti1 tau(  32) = (   0.0315341   4.5377404   9.2709708  )
        33           O1  tau(  33) = (   3.3215087   2.9954721  11.3555336  )
        34           O1  tau(  34) = (   0.0112336   2.9957203  10.5730616  )
        35           O1  tau(  35) = (   1.3257220   4.4896437  12.6447561  )
        36           O1  tau(  36) = (   5.3225596   4.4851362  12.6583724  )
        37           Ti1 tau(  37) = (   0.0354833   0.0274604  12.5282598  )
        38           Ti1 tau(  38) = (   3.3297026   4.4921445  12.4963722  )
        39           O1  tau(  39) = (   0.0599690   3.0154325  14.7102929  )
        40           O1  tau(  40) = (   3.3251099   2.9889739  13.9402376  )
        41           O1  tau(  41) = (   4.5781535   4.4756942  16.0984728  )
        42           O1  tau(  42) = (   2.0867977   4.4764083  16.0997756  )
        43           Ti1 tau(  43) = (   3.3478802   0.0108728  15.7387323  )
        44           Ti1 tau(  44) = (   0.0598937   4.5429110  15.9843511  )
        45           O1  tau(  45) = (   3.2900926   2.9813045   4.7018136  )
        46           O1  tau(  46) = (   1.3039711   4.4726057   6.0039043  )
        47           O1  tau(  47) = (   5.2763189   4.4711207   6.0039473  )
        48           C1  tau(  48) = (   6.0696523   3.0631652  18.6664891  )
        49           O1  tau(  49) = (   0.0149881   2.9985468  17.3426271  )
        50           H1  tau(  50) = (   4.9803245   2.8753800  18.6581135  )
        51           H1  tau(  51) = (   6.5502243   2.3063723  19.2898855  )
        52           H1  tau(  52) = (   6.2508803   4.0560215  19.0798806  )

     number of k points=    10  Fermi-Dirac smearing, width (Ry)=  0.0073
                       cart. coord. in units 2pi/alat
        k(    1) = (   0.0000000   0.0000000   0.0000000), wk =   0.1250000
        k(    2) = (   0.0000000   0.0419351   0.0000000), wk =   0.2500000
        k(    3) = (   0.0000000  -0.0838702   0.0000000), wk =   0.1250000
        k(    4) = (   0.0379955   0.0000049   0.0000000), wk =   0.2500000
        k(    5) = (   0.0379955   0.0419400   0.0000000), wk =   0.2500000
        k(    6) = (   0.0379955  -0.0838652   0.0000000), wk =   0.2500000
        k(    7) = (   0.0379955  -0.0419301   0.0000000), wk =   0.2500000
        k(    8) = (  -0.0759910  -0.0000099   0.0000000), wk =   0.1250000
        k(    9) = (  -0.0759910   0.0419252   0.0000000), wk =   0.2500000
        k(   10) = (  -0.0759910  -0.0838800   0.0000000), wk =   0.1250000

     Initial potential from superposition of free atoms

     starting charge  374.99918, renormalised to  391.00000

     negative rho (up, down):  1.818E-02 0.000E+00

     %%%%%%%%%%%%%%%%%%%%%%%%%%%%%%%%%%%%%%%%%%%%%%%%%%%%%%%%%%%%%%%%%%%%%%%%
     %                                                                      %
     % You are using vdW-DF, which was implemented by the Thonhauser group. %
     % Please cite the following two papers that made this development      %
     % possible and the two reviews that describe the various versions:     %
     %                                                                      %
     %   T. Thonhauser et al., PRL 115, 136402 (2015).                      %
     %   T. Thonhauser et al., PRB 76, 125112 (2007).                       %
     %   K. Berland et al., Rep. Prog. Phys. 78, 066501 (2015).             %
     %   D.C. Langreth et al., J. Phys.: Condens. Matter 21, 084203 (2009). %
     %                                                                      %
     %                                                                      %
     % If you are calculating the stress with vdW-DF, please also cite:     %
     %                                                                      %
     %   R. Sabatini et al., J. Phys.: Condens. Matter 24, 424209 (2012).   %
     %                                                                      %
     %%%%%%%%%%%%%%%%%%%%%%%%%%%%%%%%%%%%%%%%%%%%%%%%%%%%%%%%%%%%%%%%%%%%%%%%

     Adding external electric field

     Computed dipole along edir(3) :
        Dipole               -5.5401 Ry au,        -14.0815 Debye
        Dipole field         -0.0105 Ry au,

        Potential amp.        0.9692 Ry
        Total length         46.3494 bohr

     Starting wfcs are  295 atomic wfcs
  @ DRIVER MODE: Message from server: STATUS
  @ DRIVER MODE: Message from server: POSDATA
  @ DRIVER MODE: Reading and sharing cell
  @ DRIVER MODE: Reading and sharing positions
  @ DRIVER MODE: Received positions

     Self-consistent Calculation

     iteration #  1     ecut=    29.40 Ry     beta= 0.05
     Davidson diagonalization with overlap
     c_bands:  3 eigenvalues not converged
     c_bands:  2 eigenvalues not converged
     c_bands:  3 eigenvalues not converged
     c_bands:  2 eigenvalues not converged
     c_bands:  3 eigenvalues not converged
     c_bands:  2 eigenvalues not converged
     c_bands:  1 eigenvalues not converged
     c_bands:  1 eigenvalues not converged
     c_bands:  2 eigenvalues not converged
     ethr =  1.00E-05,  avg # of iterations = 19.7

[...]

     total energy              =   -2791.63831772 Ry
     estimated scf accuracy    <    1532.28196311 Ry

     iteration #  2     ecut=    29.40 Ry     beta= 0.05
     Davidson diagonalization with overlap
     ethr =  1.00E-02,  avg # of iterations = 17.9

[...]

     iteration # 59     ecut=    29.40 Ry     beta= 0.05
     Davidson diagonalization with overlap
     c_bands:  1 eigenvalues not converged
     ethr =  2.05E-10,  avg # of iterations = 14.5

[...]

     total energy              =   -2931.50272310 Ry
     estimated scf accuracy    <       0.00000020 Ry

     iteration # 64     ecut=    29.40 Ry     beta= 0.05
     Davidson diagonalization with overlap
     ethr =  3.72E-11,  avg # of iterations = 14.2

     negative rho (up, down):  1.842E-02 0.000E+00

     Adding external electric field

     Computed dipole along edir(3) :
        Dipole                0.7528 Ry au,          1.9135 Debye
        Dipole field          0.0014 Ry au,

        Potential amp.       -0.1317 Ry
        Total length         46.3494 bohr

     End of self-consistent calculation

          k = 0.0000 0.0000 0.0000 ( 18029 PWs)   bands (ev):

   -55.9543 -55.9396 -55.9177 -55.9034 -55.8390 -55.8349 -55.8134 -55.7835
   -55.7794 -55.7286 -55.7191 -55.7132 -55.6792 -55.5963 -54.9676 -54.9336
   -32.5052 -32.4216 -32.3503 -32.2974 -32.2721 -32.2525 -32.2450 -32.2226
   -32.1917 -32.1789 -32.1587 -32.1535 -32.1500 -32.1202 -32.1150 -32.0931
   -32.0875 -32.0855 -32.0698 -32.0445 -32.0435 -32.0198 -32.0137 -31.9958
   -31.9955 -31.9949 -31.9663 -31.9657 -31.9537 -31.9439 -31.9373 -31.9344
   -31.9267 -31.9149 -31.8894 -31.8867 -31.8777 -31.8567 -31.8209 -31.8154
   -31.7929 -31.7849 -31.3777 -31.2802 -31.2579 -31.1942 -31.1082 -30.9971
   -17.6732 -16.6824 -16.3966 -16.2328 -16.1005 -16.0646 -15.9613 -15.7769
   -15.6381 -15.6207 -15.5569 -15.5177 -15.5021 -15.4762 -15.4725 -15.4593
   -15.4562 -15.4074 -15.3719 -15.3707 -15.3554 -15.3334 -15.2721 -15.2311
   -15.1488 -15.0956 -15.0709 -15.0157 -14.9541 -14.9349 -13.4685 -13.3503
    -9.4788  -4.3895  -4.1465  -4.0409  -3.8701  -3.8558  -3.8378  -3.8075
    -3.7536  -3.5030  -3.4880  -3.1686  -3.1094  -3.0852  -3.0713  -3.0650
    -2.8265  -2.8076  -2.7789  -2.7686  -2.7605  -2.7313  -2.7032  -2.6940
    -2.6704  -2.6542  -2.5537  -2.4791  -2.4702  -2.3618  -2.3160  -2.3047
    -2.2544  -2.2163  -2.2086  -2.1889  -2.1642  -2.1472  -2.1191  -2.1158
    -2.0196  -1.8901  -1.7851  -1.7551  -1.7132  -1.6543  -1.4479  -1.4025
    -1.3674  -1.3541  -1.2970  -1.2643  -1.2551  -1.1807  -1.1440  -1.1270
    -1.0202  -0.9596  -0.9322  -0.9075  -0.8448  -0.8093  -0.7606  -0.6902
    -0.6714  -0.6565  -0.4432  -0.4186  -0.4126  -0.4016  -0.2896  -0.2379
    -0.1820  -0.1708  -0.1586  -0.1273  -0.0559   0.0087   0.0200   0.0420
     0.0751   0.1015   0.1792   0.2053   0.2310   0.2552   0.2889   0.3755
     0.4222   0.5635   0.6927   0.7148   0.8151   0.9586   1.0566   1.1291
     1.2268   1.6461   1.7062   3.2312   3.2504   3.2951   3.3248   3.3831
     3.5044   3.6238   3.6591   3.6940   3.7160

[...]

          k = 0.0380-0.0419 0.0000 ( 17876 PWs)   bands (ev):

[...]

          k =-0.0760-0.0000 0.0000 ( 17886 PWs)   bands (ev):

[...]

          k =-0.0760-0.0839 0.0000 ( 17948 PWs)   bands (ev):

   -55.9427 -55.9291 -55.9217 -55.9211 -55.8338 -55.8320 -55.7969 -55.7960
   -55.7886 -55.7258 -55.7216 -55.6994 -55.6933 -55.5985 -54.9511 -54.9499
   -32.3093 -32.3049 -32.2500 -32.2451 -32.2342 -32.2307 -32.2128 -32.2074
   -32.2039 -32.1611 -32.1401 -32.1332 -32.1293 -32.0922 -32.0832 -32.0776
   -32.0694 -32.0659 -32.0629 -32.0605 -32.0503 -32.0383 -32.0343 -32.0283
   -32.0205 -32.0157 -32.0127 -32.0002 -31.9950 -31.9937 -31.9686 -31.9515
   -31.9493 -31.9459 -31.9395 -31.9228 -31.9200 -31.9088 -31.9030 -31.8912
   -31.8286 -31.7930 -31.2712 -31.2698 -31.1911 -31.1901 -31.1518 -31.1507
   -17.6359 -16.1231 -16.1070 -15.8732 -15.8675 -15.8632 -15.7935 -15.7084
   -15.6887 -15.6733 -15.6676 -15.6124 -15.5981 -15.5867 -15.5255 -15.4879
   -15.4618 -15.4538 -15.4503 -15.4017 -15.3977 -15.3446 -15.3264 -15.3119
   -15.3009 -15.2853 -15.2778 -15.1812 -15.1801 -15.1103 -13.4526 -13.4504
    -9.4795  -4.2575  -4.1148  -3.8558  -3.4131  -3.3953  -3.1141  -3.0818
    -3.0783  -2.9893  -2.9034  -2.8612  -2.8250  -2.7929  -2.7886  -2.7864
    -2.7663  -2.7371  -2.7334  -2.7127  -2.6926  -2.6816  -2.6275  -2.5917
    -2.5835  -2.5812  -2.5700  -2.5399  -2.5248  -2.5032  -2.4946  -2.4850
    -2.4642  -2.3656  -2.2371  -2.2044  -2.0922  -2.0843  -2.0475  -2.0341
    -2.0066  -1.9972  -1.9782  -1.8689  -1.8045  -1.6774  -1.6736  -1.6548
    -1.5971  -1.5278  -1.4564  -1.3877  -1.3662  -1.3510  -1.2525  -1.2410
    -1.1723  -1.1526  -1.0952  -1.0636  -1.0529  -0.9530  -0.9194  -0.9049
    -0.8904  -0.8158  -0.7995  -0.7776  -0.7493  -0.6887  -0.6778  -0.6084
    -0.5736  -0.5295  -0.4660  -0.4418  -0.3932  -0.3044  -0.1278  -0.0476
     0.0552   0.0982   0.1574   0.1703   0.2620   0.3060   0.3207   0.3279
     0.4165   0.4800   0.5086   0.5718   0.5851   0.6111   0.6729   1.4162
     1.4180   1.5087   1.5189   3.4390   3.4697   3.4837   3.5321   3.6912
     3.6963   3.7162   3.7212   3.7948   3.8570

     the Fermi energy is     3.2007 ev

!    total energy              =   -2931.50275356 Ry
     estimated scf accuracy    <       0.00000006 Ry
     smearing contrib. (-TS)   =      -0.02313240 Ry
     internal energy E=F+TS    =   -2931.47962116 Ry

     The total energy is F=E-TS. E is the sum of the following terms:
     one-electron contribution =  -24510.16686281 Ry
     hartree contribution      =   12340.08523238 Ry
     xc contribution           =    -482.04562274 Ry
     ewald contribution        =    9720.64656252 Ry
     electric field correction =       0.00106950 Ry

     convergence has been achieved in  64 iterations

     Forces acting on atoms (cartesian axes, Ry/au):

     atom    1 type  1   force =    -0.00013799   -0.00171941    0.10700763
     atom    2 type  1   force =    -0.00040719    0.00039220   -0.17997281
     atom    3 type  2   force =     0.00029661   -0.00714891   -0.03305794
     atom    4 type  2   force =     0.00067625    0.00051907    0.04594842
     atom    5 type  2   force =    -0.01814104    0.00043900    0.00392287
     atom    6 type  2   force =     0.02136740   -0.00104164    0.00544541
     atom    7 type  1   force =    -0.00015971   -0.00029741   -0.00014125
     atom    8 type  1   force =    -0.00008889   -0.00029460   -0.00176178
     atom    9 type  2   force =    -0.00030590   -0.00017942    0.00032626
     atom   10 type  2   force =    -0.00014518   -0.00052747    0.00016800
     atom   11 type  2   force =    -0.00033863    0.00013941    0.00061145
     atom   12 type  2   force =    -0.00019280    0.00021629    0.00022034
     atom   13 type  1   force =    -0.00018373   -0.00038585   -0.00101453
     atom   14 type  1   force =     0.00029495    0.00022329   -0.00048278
     atom   15 type  2   force =    -0.00014420    0.00017047   -0.00118200
     atom   16 type  2   force =    -0.00039971   -0.00027516   -0.00089470
     atom   17 type  2   force =    -0.00124855    0.00043428   -0.00078057
     atom   18 type  2   force =     0.00007856    0.00024393   -0.00076872
     atom   19 type  1   force =    -0.00002752   -0.00002808    0.00020182
     atom   20 type  1   force =    -0.00086708   -0.00099586    0.00106991
     atom   21 type  2   force =    -0.00005690    0.00009440    0.10422505
     atom   22 type  2   force =     0.00012772    0.00026282   -0.00088339
     atom   23 type  2   force =    -0.06896360    0.00066644   -0.02970629
     atom   24 type  2   force =     0.06866975    0.00113862   -0.02976151
     atom   25 type  1   force =    -0.00011769    0.00159796    0.11783173
     atom   26 type  1   force =    -0.00016210    0.00002759   -0.18003082
     atom   27 type  2   force =     0.00043566    0.00401692   -0.02694577
     atom   28 type  2   force =     0.00078236    0.00082731    0.04756152
     atom   29 type  2   force =    -0.01696332    0.00166946    0.00319660
     atom   30 type  2   force =     0.01945235    0.00119117    0.00454509
     atom   31 type  1   force =    -0.00025795    0.00053457   -0.00019252
     atom   32 type  1   force =    -0.00001457    0.00018644   -0.00096576
     atom   33 type  2   force =    -0.00030371   -0.00006863   -0.00005808
     atom   34 type  2   force =    -0.00012489    0.00070706    0.00050872
     atom   35 type  2   force =    -0.00030284   -0.00002423    0.00014859
     atom   36 type  2   force =    -0.00021129   -0.00003444   -0.00020284
     atom   37 type  1   force =    -0.00012538    0.00061603    0.00081682
     atom   38 type  1   force =     0.00020114   -0.00030929   -0.00048442
     atom   39 type  2   force =    -0.00026502   -0.00021630    0.00035125
     atom   40 type  2   force =    -0.00034604    0.00023791   -0.00037324
     atom   41 type  2   force =    -0.00074226   -0.00008832   -0.00044774
     atom   42 type  2   force =     0.00027424    0.00010521   -0.00059030
     atom   43 type  1   force =    -0.00008734    0.00020425    0.00060433
     atom   44 type  1   force =    -0.00073412    0.00080397    0.00126458
     atom   45 type  2   force =    -0.00006277    0.00006392    0.10426773
     atom   46 type  2   force =    -0.06851546   -0.00129432   -0.02973591
     atom   47 type  2   force =     0.06832968   -0.00085541   -0.02981570
     atom   48 type  3   force =    -0.01009017   -0.00274562   -0.00122593
     atom   49 type  2   force =    -0.00147741    0.00028054    0.00153954
     atom   50 type  4   force =     0.01165344    0.00146347    0.00017099
     atom   51 type  4   force =    -0.00029186   -0.00073482   -0.00068212
     atom   52 type  4   force =     0.00036472   -0.00020882    0.00020476

     Total force =     0.377268     Total SCF correction =     0.000497
  @ DRIVER MODE: Message from server: STATUS
  @ DRIVER MODE: Message from server: GETFORCE
  @ DRIVER MODE: Returning v,forces,stress,ensemble

     Writing output data file ./calc.save/
  @ DRIVER MODE: Message from server: EXIT
  @ DRIVE MODE: Exiting

     General routines

     Parallel routines

   This run was terminated on:  13: 2:10  20Sep2021

   JOB DONE.