     Program PWSCF v.6.7GPU starts on 16Sep2021 at  0:19:31

     R & G space division:  proc/nbgrp/npool/nimage =      10
     Reading input from /storage/home/hcoda1/3/ntian30/research/carbon/CxH_vib/H2O_calc/ads_slab/CH3N2HH2O_a/out_0027/pw.inp
Warning: card &CELL ignored
Warning: card   CELL_DYNAMICS='IPI', ignored
Warning: card / ignored

     Current dimensions of program PWSCF are:
     Max number of different atomic species (ntypx) = 10
     Max number of k-points (npk) =  40000
     Max angular momentum in pseudopotentials (lmaxx) =  3
     Presently no symmetry can be used with electric field

     Message from routine cell_base_init:
     DEPRECATED: use true lattice parameter, not A to a.u. conversion factor

     IMPORTANT: XC functional enforced from input :
     Exchange-correlation= BEEF-VDW
                           (   1   4  43  14   2   0   0)
     Any further DFT definition will be discarded
     Please, verify this is what you really want

  @ DRIVER MODE: Connecting to
 qe_1139763_2852617.sched-torque.pace.gatech.eduts604fmk_scratch
  using UNIX socket
  @ DRIVER MODE: Message from server: STATUS
  @ DRIVER MODE: Message from server: INIT
  @ DRIVER MODE: Receiving replica           0          -1
  @ DRIVER MODE: Receiving encoded integer          25
  @ DRIVER MODE:  SCF:  T  FORCE:  T  STRESS:  F  VC:  F  ENSEMBLE:  F
  @ DRIVER MODE:  SCF:  T  FORCE:  T  STRESS:  F  VC:  F  ENSEMBLE:  F

     Using Slab Decomposition

     bravais-lattice index     =            0
     lattice parameter (alat)  =       1.8897  a.u.
     unit-cell volume          =    6658.9804 (a.u.)^3
     number of atoms/cell      =           57
     number of atomic types    =            5
     number of electrons       =       404.00
     number of Kohn-Sham states=          212
     kinetic-energy cutoff     =      29.3995  Ry
     charge density cutoff     =     293.9946  Ry
     scf convergence threshold =      7.3E-08
     mixing beta               =       0.0500
     number of iterations used =            8  plain     mixing
     Exchange-correlation= BEEF-VDW
                           (   1   4  43  14   2   0   0)

     celldm(1)=   1.889726  celldm(2)=   0.000000  celldm(3)=   0.000000
     celldm(4)=   0.000000  celldm(5)=   0.000000  celldm(6)=   0.000000

     crystal axes: (cart. coord. in units of alat)
               a(1) = (   6.579727   0.000000   0.000000 )
               a(2) = (  -0.000775   5.961596   0.000000 )
               a(3) = (   0.000000   0.000000  25.155947 )

     reciprocal axes: (cart. coord. in units 2 pi/alat)
               b(1) = (  0.151982  0.000020  0.000000 )
               b(2) = (  0.000000  0.167740  0.000000 )
               b(3) = (  0.000000  0.000000  0.039752 )

     PseudoPot. # 1 for Ti read from file:
     /storage/coda1/p-amedford6/0/shared/rich_project_chbe-medford/medford-share/data/pseudos_module/espresso/nninc/pbe/van/Ti.UPF
     MD5 check sum: 8e4df49b7f0d34bbd5052bf3f5ea0213
     Pseudo is Ultrasoft, Zval = 12.0
     Generated by new atomic code, or converted to UPF format
     Using radial grid of  851 points,  6 beta functions with:
                l(1) =   0
                l(2) =   0
                l(3) =   1
                l(4) =   1
                l(5) =   2
                l(6) =   2
     Q(r) pseudized with  8 coefficients,  rinner =    1.000   1.000   1.000
                                                       1.000   1.000

     PseudoPot. # 2 for O  read from file:
     /storage/coda1/p-amedford6/0/shared/rich_project_chbe-medford/medford-share/data/pseudos_module/espresso/nninc/pbe/van/O.UPF
     MD5 check sum: 78c19812648e8988a0fe644b0f25305e
     Pseudo is Ultrasoft, Zval =  6.0
     Generated by new atomic code, or converted to UPF format
     Using radial grid of  737 points,  4 beta functions with:
                l(1) =   0
                l(2) =   0
                l(3) =   1
                l(4) =   1
     Q(r) pseudized with  8 coefficients,  rinner =    0.800   0.800   0.800

     PseudoPot. # 3 for N  read from file:
     /storage/coda1/p-amedford6/0/shared/rich_project_chbe-medford/medford-share/data/pseudos_module/espresso/nninc/pbe/van/N.UPF
     MD5 check sum: 90d10febe142ad51ac9d5be1deb811c4
     Pseudo is Ultrasoft, Zval =  5.0
     Generated by new atomic code, or converted to UPF format
     Using radial grid of  729 points,  4 beta functions with:
                l(1) =   0
                l(2) =   0
                l(3) =   1
                l(4) =   1
     Q(r) pseudized with  8 coefficients,  rinner =    0.800   0.800   0.800

     PseudoPot. # 4 for C  read from file:
     /storage/coda1/p-amedford6/0/shared/rich_project_chbe-medford/medford-share/data/pseudos_module/espresso/nninc/pbe/van/C.UPF
     MD5 check sum: 1a69bf6b8db32088f5b2163dbdb77a27
     Pseudo is Ultrasoft, Zval =  4.0
     Generated by new atomic code, or converted to UPF format
     Using radial grid of  721 points,  4 beta functions with:
                l(1) =   0
                l(2) =   0
                l(3) =   1
                l(4) =   1
     Q(r) pseudized with  8 coefficients,  rinner =    0.800   0.800   0.800

     PseudoPot. # 5 for H  read from file:
     /storage/coda1/p-amedford6/0/shared/rich_project_chbe-medford/medford-share/data/pseudos_module/espresso/nninc/pbe/van/H.UPF
     MD5 check sum: b5ee9d7bfd3a09ee7748110bda690ff7
     Pseudo is Ultrasoft, Zval =  1.0
     Generated by new atomic code, or converted to UPF format
     Using radial grid of  615 points,  1 beta functions with:
                l(1) =   0
     Q(r) pseudized with  8 coefficients,  rinner =    0.800

     atomic species   valence    mass     pseudopotential
        Ti1           12.00    47.86700     Ti( 1.00)
        O1             6.00    15.99900     O ( 1.00)
        N1             5.00    14.00700     N ( 1.00)
        C1             4.00    12.01100     C ( 1.00)
        H1             1.00     1.00800     H ( 1.00)

     No symmetry found

   Cartesian axes

     site n.     atom                  positions (alat units)
         1           Ti1 tau(   1) = (   0.0004258   2.9801865   6.0000000  )
         2           Ti1 tau(   2) = (   3.2906075   1.4906267   6.0002472  )
         3           O1  tau(   3) = (   0.0006271   0.0005054   7.9858123  )
         4           O1  tau(   4) = (   3.2906025   0.0005020   7.3038282  )
         5           O1  tau(   5) = (   4.5942328   1.4918067   9.2879030  )
         6           O1  tau(   6) = (   1.9868534   1.4903216   9.2879459  )
         7           Ti1 tau(   7) = (   3.2907910   2.8959150   9.1758416  )
         8           Ti1 tau(   8) = (   0.0015273   1.4827037   9.2680791  )
         9           O1  tau(   9) = (   3.2846840   0.0164488  11.3171736  )
        10           O1  tau(  10) = (   0.0116148   5.9584955  10.6183126  )
        11           O1  tau(  11) = (   1.2780696   1.4966870  12.6228330  )
        12           O1  tau(  12) = (   5.2671132   1.5021727  12.6038655  )
        13           Ti1 tau(  13) = (   0.0814623   2.9703834  12.6092300  )
        14           Ti1 tau(  14) = (   3.3984034   1.5042134  12.4754612  )
        15           O1  tau(  15) = (   6.5611900   5.9602394  14.6246442  )
        16           O1  tau(  16) = (   3.2847170   0.0117735  13.9091713  )
        17           O1  tau(  17) = (   4.5127615   1.5439160  15.9886145  )
        18           O1  tau(  18) = (   2.0245574   1.5486524  15.9865356  )
        19           Ti1 tau(  19) = (   3.2678410   3.0292036  15.6627315  )
        20           Ti1 tau(  20) = (   6.5437773   1.5790868  15.8036792  )
        21           O1  tau(  21) = (   3.2904802   0.0005063   4.7018136  )
        22           O1  tau(  22) = (   6.5616667   0.0409992  17.2467836  )
        23           O1  tau(  23) = (   1.3043587   1.4918075   6.0039043  )
        24           O1  tau(  24) = (   5.2767064   1.4903225   6.0039473  )
        25           Ti1 tau(  25) = (   0.0000382   5.9609847   6.0000000  )
        26           Ti1 tau(  26) = (   3.2902200   4.4714249   6.0002472  )
        27           O1  tau(  27) = (   0.0002396   2.9813036   7.9858123  )
        28           O1  tau(  28) = (   3.2902150   2.9813002   7.3038282  )
        29           O1  tau(  29) = (   4.5938453   4.4726049   9.2879030  )
        30           O1  tau(  30) = (   1.9864658   4.4711199   9.2879459  )
        31           Ti1 tau(  31) = (   3.2891106   5.8743827   9.1763621  )
        32           Ti1 tau(  32) = (   0.0006254   4.4649316   9.2693709  )
        33           O1  tau(  33) = (   3.2886753   2.9955121  11.3174028  )
        34           O1  tau(  34) = (   0.0092240   2.9805883  10.6323155  )
        35           O1  tau(  35) = (   1.2771457   4.4765085  12.6200386  )
        36           O1  tau(  36) = (   5.2716127   4.4859779  12.5990880  )
        37           Ti1 tau(  37) = (   0.0719143   5.9417653  12.6408960  )
        38           Ti1 tau(  38) = (   3.4009286   4.4967646  12.4819834  )
        39           O1  tau(  39) = (   6.5633752   2.9851081  14.6229342  )
        40           O1  tau(  40) = (   3.2806164   3.0132077  13.8636590  )
        41           O1  tau(  41) = (   4.5054435   4.4842064  16.0752605  )
        42           O1  tau(  42) = (   2.0287922   4.4846499  16.0567397  )
        43           Ti1 tau(  43) = (   3.2585180   0.0608266  15.7494983  )
        44           Ti1 tau(  44) = (   6.5556145   4.6328118  16.1363011  )
        45           O1  tau(  45) = (   3.2900926   2.9813045   4.7018136  )
        46           O1  tau(  46) = (   1.3039711   4.4726057   6.0039043  )
        47           O1  tau(  47) = (   5.2763189   4.4711207   6.0039473  )
        48           N1  tau(  48) = (   6.4582227   2.6263240  18.5734135  )
        49           N1  tau(  49) = (   6.5493832   2.9496485  17.3103279  )
        50           C1  tau(  50) = (   0.1600853   3.5596473  19.6455425  )
        51           H1  tau(  51) = (   6.1911903   4.4878083  19.4849519  )
        52           H1  tau(  52) = (   6.4401482   3.0980517  20.5902855  )
        53           H1  tau(  53) = (   1.2308410   3.8049764  19.6956042  )
        54           H1  tau(  54) = (   6.5044843   1.6253530  18.7706356  )
        55           O1  tau(  55) = (   3.2415852   0.0755412  18.2049893  )
        56           H1  tau(  56) = (   4.0109045   5.4607113  18.3409029  )
        57           H1  tau(  57) = (   2.4534619   5.4803556  18.3240773  )

     number of k points=    10  Fermi-Dirac smearing, width (Ry)=  0.0073
                       cart. coord. in units 2pi/alat
        k(    1) = (   0.0000000   0.0000000   0.0000000), wk =   0.1250000
        k(    2) = (   0.0000000   0.0419351   0.0000000), wk =   0.2500000
        k(    3) = (   0.0000000  -0.0838702   0.0000000), wk =   0.1250000
        k(    4) = (   0.0379955   0.0000049   0.0000000), wk =   0.2500000
        k(    5) = (   0.0379955   0.0419400   0.0000000), wk =   0.2500000
        k(    6) = (   0.0379955  -0.0838652   0.0000000), wk =   0.2500000
        k(    7) = (   0.0379955  -0.0419301   0.0000000), wk =   0.2500000
        k(    8) = (  -0.0759910  -0.0000099   0.0000000), wk =   0.1250000
        k(    9) = (  -0.0759910   0.0419252   0.0000000), wk =   0.2500000
        k(   10) = (  -0.0759910  -0.0838800   0.0000000), wk =   0.1250000

     Initial potential from superposition of free atoms

     starting charge  387.99913, renormalised to  404.00000

     negative rho (up, down):  1.445E-02 0.000E+00

     %%%%%%%%%%%%%%%%%%%%%%%%%%%%%%%%%%%%%%%%%%%%%%%%%%%%%%%%%%%%%%%%%%%%%%%%
     %                                                                      %
     % You are using vdW-DF, which was implemented by the Thonhauser group. %
     % Please cite the following two papers that made this development      %
     % possible and the two reviews that describe the various versions:     %
     %                                                                      %
     %   T. Thonhauser et al., PRL 115, 136402 (2015).                      %
     %   T. Thonhauser et al., PRB 76, 125112 (2007).                       %
     %   K. Berland et al., Rep. Prog. Phys. 78, 066501 (2015).             %
     %   D.C. Langreth et al., J. Phys.: Condens. Matter 21, 084203 (2009). %
     %                                                                      %
     %                                                                      %
     % If you are calculating the stress with vdW-DF, please also cite:     %
     %                                                                      %
     %   R. Sabatini et al., J. Phys.: Condens. Matter 24, 424209 (2012).   %
     %                                                                      %
     %%%%%%%%%%%%%%%%%%%%%%%%%%%%%%%%%%%%%%%%%%%%%%%%%%%%%%%%%%%%%%%%%%%%%%%%

     Adding external electric field

     Computed dipole along edir(3) :
        Dipole              -13.5668 Ry au,        -34.4835 Debye
        Dipole field         -0.0256 Ry au,

        Potential amp.        2.3733 Ry
        Total length         46.3494 bohr

     Starting wfcs are  306 atomic wfcs
  @ DRIVER MODE: Message from server: STATUS
  @ DRIVER MODE: Message from server: POSDATA
  @ DRIVER MODE: Reading and sharing cell
  @ DRIVER MODE: Reading and sharing positions
  @ DRIVER MODE: Received positions

     Self-consistent Calculation

     iteration #  1     ecut=    29.40 Ry     beta= 0.05
     Davidson diagonalization with overlap
     c_bands:  4 eigenvalues not converged
     c_bands:  4 eigenvalues not converged
     c_bands:  4 eigenvalues not converged
     c_bands:  4 eigenvalues not converged
     c_bands:  3 eigenvalues not converged
     c_bands:  3 eigenvalues not converged
     ethr =  1.00E-05,  avg # of iterations = 25.3

[...]

     total energy              =   -2339.22898580 Ry
     estimated scf accuracy    <    7249.89207915 Ry

     iteration #  2     ecut=    29.40 Ry     beta= 0.05
     Davidson diagonalization with overlap
     ethr =  1.00E-02,  avg # of iterations = 23.0

[...]

     iteration # 38     ecut=    29.40 Ry     beta= 0.05
     Davidson diagonalization with overlap
     c_bands:  1 eigenvalues not converged
     ethr =  7.23E-06,  avg # of iterations = 13.8

[...]

     total energy              =   -2975.23047025 Ry
     estimated scf accuracy    <       0.00000008 Ry

     iteration # 68     ecut=    29.40 Ry     beta= 0.05
     Davidson diagonalization with overlap
     ethr =  1.91E-11,  avg # of iterations =  6.8

     negative rho (up, down):  1.506E-02 0.000E+00

     Adding external electric field

     Computed dipole along edir(3) :
        Dipole                1.1590 Ry au,          2.9459 Debye
        Dipole field          0.0022 Ry au,

        Potential amp.       -0.2027 Ry
        Total length         46.3494 bohr

     End of self-consistent calculation

          k = 0.0000 0.0000 0.0000 ( 18029 PWs)   bands (ev):

   -55.5061 -55.4721 -55.3332 -55.2967 -55.2633 -55.2296 -55.2030 -55.1993
   -55.1884 -55.1654 -55.1540 -55.0150 -54.5535 -54.4366 -54.4026 -54.3897
   -31.9791 -31.8685 -31.8004 -31.7854 -31.7222 -31.7130 -31.6774 -31.6595
   -31.6221 -31.6050 -31.6015 -31.5745 -31.5651 -31.5207 -31.5124 -31.5014
   -31.4827 -31.4807 -31.4562 -31.4391 -31.4259 -31.4175 -31.4145 -31.3966
   -31.3933 -31.3855 -31.3759 -31.3688 -31.3664 -31.3641 -31.3421 -31.3307
   -31.3181 -31.3008 -31.2071 -31.1799 -31.0473 -30.8416 -30.7777 -30.7635
   -30.7585 -30.7357 -30.7248 -30.6586 -30.6000 -30.5724 -30.5692 -30.4612
   -18.7897 -17.7498 -16.0745 -15.8825 -15.6102 -15.4866 -15.4596 -15.2757
   -15.1994 -15.1481 -15.0159 -14.9686 -14.9394 -14.9091 -14.8969 -14.8395
   -14.8120 -14.7851 -14.7554 -14.7510 -14.7315 -14.7092 -14.6681 -14.6109
   -14.5855 -14.5242 -14.4741 -14.4525 -14.3590 -14.3545 -13.9295 -12.9381
   -12.8226 -11.8996  -8.8009  -6.5596  -5.5977  -4.3271  -4.0846  -3.4593
    -3.3838  -3.3247  -3.2088  -3.1306  -2.9905  -2.9513  -2.8821  -2.7774
    -2.6057  -2.5476  -2.5217  -2.4927  -2.4083  -2.2748  -2.2635  -2.2154
    -2.1876  -2.1670  -2.1523  -2.1364  -2.0407  -2.0023  -1.9652  -1.8546
    -1.8186  -1.7963  -1.7791  -1.7705  -1.7535  -1.6896  -1.6575  -1.6390
    -1.6290  -1.5920  -1.5573  -1.5463  -1.4166  -1.3981  -1.2807  -1.1519
    -1.1293  -1.0717  -1.0476  -0.8888  -0.8822  -0.8610  -0.8199  -0.8125
    -0.7405  -0.6677  -0.6250  -0.5510  -0.4323  -0.4231  -0.3882  -0.2421
    -0.2385  -0.2156  -0.1774  -0.1661  -0.1147  -0.1062  -0.0597   0.0014
     0.0958   0.1666   0.2723   0.2750   0.3279   0.3673   0.3801   0.4377
     0.4543   0.5040   0.5157   0.5234   0.5754   0.6102   0.6229   0.6809
     0.7321   0.8491   0.9185   0.9434   0.9900   1.1120   1.1872   1.2350
     1.2401   1.4084   1.5309   1.5609   1.5858   1.7859   1.8177   2.1527
     2.1965   3.6679   3.6847   3.7744   3.8334   3.9476   4.0193   4.1078
     4.1873   4.2570   4.3495   4.4075

[...]

          k = 0.0380-0.0419 0.0000 ( 17876 PWs)   bands (ev):

[...]

          k =-0.0760-0.0000 0.0000 ( 17886 PWs)   bands (ev):

[...]

          k =-0.0760-0.0839 0.0000 ( 17948 PWs)   bands (ev):

   -55.4892 -55.4888 -55.3186 -55.3110 -55.2464 -55.2461 -55.1976 -55.1914
   -55.1769 -55.1744 -55.1680 -55.0165 -54.5519 -54.4196 -54.4194 -54.3911
   -31.7947 -31.7946 -31.7856 -31.7856 -31.6816 -31.6644 -31.6103 -31.6098
   -31.5708 -31.5662 -31.5629 -31.5584 -31.5557 -31.5498 -31.5175 -31.5124
   -31.4905 -31.4813 -31.4789 -31.4715 -31.4395 -31.4373 -31.4292 -31.4266
   -31.4157 -31.4132 -31.4026 -31.4000 -31.3958 -31.3898 -31.3891 -31.3840
   -31.3565 -31.3323 -31.3169 -31.2148 -30.9568 -30.8011 -30.7666 -30.7485
   -30.7485 -30.7462 -30.6547 -30.6545 -30.6189 -30.6156 -30.6156 -30.6001
   -18.7887 -17.7439 -15.4976 -15.4316 -15.3611 -15.3572 -15.2523 -15.1993
   -15.1046 -15.0938 -15.0867 -15.0835 -14.9832 -14.9798 -14.9137 -14.9048
   -14.8654 -14.8588 -14.8550 -14.8383 -14.8235 -14.8183 -14.8033 -14.7566
   -14.7396 -14.7338 -14.5703 -14.5450 -14.4296 -14.4111 -14.0536 -12.9247
   -12.9245 -11.9009  -8.8114  -6.5434  -5.5897  -4.2771  -4.1048  -2.9325
    -2.9163  -2.7890  -2.6618  -2.5293  -2.5170  -2.4959  -2.4596  -2.2933
    -2.2806  -2.2652  -2.2557  -2.2140  -2.2027  -2.1838  -2.1695  -2.1155
    -2.0982  -2.0797  -2.0750  -2.0639  -2.0575  -2.0478  -2.0387  -2.0306
    -2.0070  -1.9597  -1.9382  -1.8563  -1.7712  -1.7614  -1.6840  -1.5551
    -1.5484  -1.5368  -1.5353  -1.5227  -1.5130  -1.4717  -1.4351  -1.3815
    -1.2699  -1.1529  -1.1024  -1.0841  -1.0293  -1.0105  -0.9219  -0.8415
    -0.8067  -0.7883  -0.7028  -0.6541  -0.5752  -0.5596  -0.5228  -0.4721
    -0.4482  -0.4342  -0.4183  -0.4101  -0.3466  -0.3026  -0.2350  -0.2211
    -0.1654  -0.1342  -0.1057  -0.0828  -0.0417   0.0512   0.0592   0.0874
     0.1143   0.1293   0.2041   0.3547   0.3951   0.6342   0.6433   0.7152
     0.8436   0.8661   0.8732   0.9498   0.9632   1.0006   1.0218   1.1421
     1.1649   1.1897   1.3176   1.3529   1.4455   1.9556   1.9565   2.0155
     2.0160   3.5307   4.1322   4.1422   4.1593   4.1727   4.1981   4.2047
     4.2471   4.2604   4.3942   4.4389

     the Fermi energy is     3.6438 ev

!    total energy              =   -2975.23049193 Ry
     estimated scf accuracy    <       0.00000004 Ry
     smearing contrib. (-TS)   =      -0.02107668 Ry
     internal energy E=F+TS    =   -2975.20941525 Ry

     The total energy is F=E-TS. E is the sum of the following terms:
     one-electron contribution =  -23878.60351388 Ry
     hartree contribution      =   12036.70911407 Ry
     xc contribution           =    -494.92442081 Ry
     ewald contribution        =    9361.60687045 Ry
     electric field correction =       0.00253492 Ry

     convergence has been achieved in  68 iterations

     Forces acting on atoms (cartesian axes, Ry/au):

     atom    1 type  1   force =     0.00016721   -0.00022884    0.09946046
     atom    2 type  1   force =    -0.00014668   -0.00038500   -0.17310124
     atom    3 type  2   force =    -0.00006894   -0.00000437   -0.02913748
     atom    4 type  2   force =     0.00003847   -0.00102584    0.04891491
     atom    5 type  2   force =    -0.01224527    0.00099478    0.00048033
     atom    6 type  2   force =     0.01355209    0.00186794   -0.00111385
     atom    7 type  1   force =    -0.00136276   -0.00053083   -0.00299114
     atom    8 type  1   force =     0.00094585   -0.00608476    0.04541730
     atom    9 type  2   force =    -0.00000425   -0.00023301   -0.00002077
     atom   10 type  2   force =    -0.00155655    0.00261523   -0.03094806
     atom   11 type  2   force =    -0.00018024   -0.00045187    0.00004539
     atom   12 type  2   force =     0.00009692   -0.00023559    0.00015105
     atom   13 type  1   force =    -0.00019346   -0.00054378   -0.00034169
     atom   14 type  1   force =     0.00031352   -0.00017179    0.00023326
     atom   15 type  2   force =     0.00000123   -0.00013416   -0.00026263
     atom   16 type  2   force =    -0.00021973    0.00005043    0.00014088
     atom   17 type  2   force =     0.00018387   -0.00027910    0.00015641
     atom   18 type  2   force =    -0.00005756   -0.00034961    0.00001842
     atom   19 type  1   force =     0.00007890   -0.00015058    0.00034187
     atom   20 type  1   force =    -0.00002956   -0.00051974    0.00022909
     atom   21 type  2   force =     0.00008773   -0.00000676    0.10256741
     atom   22 type  2   force =     0.00009235   -0.00023680   -0.00000221
     atom   23 type  2   force =    -0.07250695   -0.00008850   -0.02846330
     atom   24 type  2   force =     0.07247195    0.00034246   -0.02844371
     atom   25 type  1   force =     0.00009183   -0.00027670    0.09896816
     atom   26 type  1   force =    -0.00005988   -0.00041419   -0.17327426
     atom   27 type  2   force =    -0.00003325    0.00000383   -0.02844067
     atom   28 type  2   force =     0.00009548   -0.00075941    0.04807330
     atom   29 type  2   force =    -0.01261265    0.00063180    0.00051623
     atom   30 type  2   force =     0.01384714    0.00096087   -0.00105182
     atom   31 type  1   force =    -0.00146482    0.00226138   -0.00570766
     atom   32 type  1   force =     0.00112423    0.00383874    0.04593616
     atom   33 type  2   force =    -0.00006612   -0.00026314   -0.00010016
     atom   34 type  2   force =    -0.00096456    0.00134132   -0.03380176
     atom   35 type  2   force =    -0.00028966    0.00004525   -0.00024114
     atom   36 type  2   force =     0.00050113    0.00010029   -0.00003038
     atom   37 type  1   force =    -0.00031791    0.00007670    0.00024405
     atom   38 type  1   force =     0.00018950   -0.00029561    0.00004291
     atom   39 type  2   force =     0.00002831   -0.00051785    0.00039394
     atom   40 type  2   force =    -0.00005255    0.00017397   -0.00025913
     atom   41 type  2   force =    -0.00013108   -0.00024529    0.00005534
     atom   42 type  2   force =     0.00020752   -0.00017890   -0.00005431
     atom   43 type  1   force =     0.00009700    0.00003289   -0.00013637
     atom   44 type  1   force =    -0.00001888   -0.00025704   -0.00004530
     atom   45 type  2   force =     0.00009437   -0.00001271    0.10255407
     atom   46 type  2   force =    -0.07253020   -0.00000817   -0.02845445
     atom   47 type  2   force =     0.07248682    0.00037681   -0.02844706
     atom   48 type  3   force =    -0.00015909   -0.00000601   -0.00128439
     atom   49 type  3   force =     0.00012860   -0.00065257   -0.00029831
     atom   50 type  4   force =    -0.00099939   -0.00411669    0.00381809
     atom   51 type  5   force =    -0.00019283   -0.00042656    0.00100925
     atom   52 type  5   force =     0.00124513    0.00405029   -0.00347071
     atom   53 type  5   force =     0.00004533   -0.00017227    0.00032821
     atom   54 type  5   force =     0.00033513    0.00010988    0.00022345
     atom   55 type  2   force =     0.00060110    0.00057156   -0.00027166
     atom   56 type  5   force =    -0.00019326   -0.00038572   -0.00023173
     atom   57 type  5   force =    -0.00049065    0.00020333    0.00010740

     Total force =     0.372147     Total SCF correction =     0.000360
  @ DRIVER MODE: Message from server: STATUS
  @ DRIVER MODE: Message from server: GETFORCE
  @ DRIVER MODE: Returning v,forces,stress,ensemble

     Writing output data file ./calc.save/
  @ DRIVER MODE: Message from server: EXIT
  @ DRIVE MODE: Exiting

     General routines

     Parallel routines

   This run was terminated on:   0:37:51  16Sep2021

   JOB DONE.