     Program PWSCF v.6.7GPU starts on 22Sep2021 at 16:30:34

     R & G space division:  proc/nbgrp/npool/nimage =      10
     Reading input from /storage/home/hcoda1/3/ntian30/research/carbon/CxH_vib/CH_calc/ads_slab/CHNHNHH2O_b/out_0051/pw.inp
Warning: card &CELL ignored
Warning: card   CELL_DYNAMICS='IPI', ignored
Warning: card / ignored

     Current dimensions of program PWSCF are:
     Max number of different atomic species (ntypx) = 10
     Max number of k-points (npk) =  40000
     Max angular momentum in pseudopotentials (lmaxx) =  3
     Presently no symmetry can be used with electric field

     Message from routine cell_base_init:
     DEPRECATED: use true lattice parameter, not A to a.u. conversion factor

     IMPORTANT: XC functional enforced from input :
     Exchange-correlation= BEEF-VDW
                           (   1   4  43  14   2   0   0)
     Any further DFT definition will be discarded
     Please, verify this is what you really want

  @ DRIVER MODE: Connecting to
 qe_1139763_2927424.sched-torque.pace.gatech.edux3czqqie_scratch
  using UNIX socket
  @ DRIVER MODE: Message from server: STATUS
  @ DRIVER MODE: Message from server: INIT
  @ DRIVER MODE: Receiving replica           0          -1
  @ DRIVER MODE: Receiving encoded integer          25
  @ DRIVER MODE:  SCF:  T  FORCE:  T  STRESS:  F  VC:  F  ENSEMBLE:  F
  @ DRIVER MODE:  SCF:  T  FORCE:  T  STRESS:  F  VC:  F  ENSEMBLE:  F

     Using Slab Decomposition

     bravais-lattice index     =            0
     lattice parameter (alat)  =       1.8897  a.u.
     unit-cell volume          =    6658.9804 (a.u.)^3
     number of atoms/cell      =           56
     number of atomic types    =            5
     number of electrons       =       403.00
     number of Kohn-Sham states=          211
     kinetic-energy cutoff     =      29.3995  Ry
     charge density cutoff     =     293.9946  Ry
     scf convergence threshold =      7.3E-08
     mixing beta               =       0.0500
     number of iterations used =            8  plain     mixing
     Exchange-correlation= BEEF-VDW
                           (   1   4  43  14   2   0   0)

     celldm(1)=   1.889726  celldm(2)=   0.000000  celldm(3)=   0.000000
     celldm(4)=   0.000000  celldm(5)=   0.000000  celldm(6)=   0.000000

     crystal axes: (cart. coord. in units of alat)
               a(1) = (   6.579727   0.000000   0.000000 )
               a(2) = (  -0.000775   5.961596   0.000000 )
               a(3) = (   0.000000   0.000000  25.155947 )

     reciprocal axes: (cart. coord. in units 2 pi/alat)
               b(1) = (  0.151982  0.000020  0.000000 )
               b(2) = (  0.000000  0.167740  0.000000 )
               b(3) = (  0.000000  0.000000  0.039752 )

     PseudoPot. # 1 for Ti read from file:
     /storage/coda1/p-amedford6/0/shared/rich_project_chbe-medford/medford-share/data/pseudos_module/espresso/nninc/pbe/van/Ti.UPF
     MD5 check sum: 8e4df49b7f0d34bbd5052bf3f5ea0213
     Pseudo is Ultrasoft, Zval = 12.0
     Generated by new atomic code, or converted to UPF format
     Using radial grid of  851 points,  6 beta functions with:
                l(1) =   0
                l(2) =   0
                l(3) =   1
                l(4) =   1
                l(5) =   2
                l(6) =   2
     Q(r) pseudized with  8 coefficients,  rinner =    1.000   1.000   1.000
                                                       1.000   1.000

     PseudoPot. # 2 for O  read from file:
     /storage/coda1/p-amedford6/0/shared/rich_project_chbe-medford/medford-share/data/pseudos_module/espresso/nninc/pbe/van/O.UPF
     MD5 check sum: 78c19812648e8988a0fe644b0f25305e
     Pseudo is Ultrasoft, Zval =  6.0
     Generated by new atomic code, or converted to UPF format
     Using radial grid of  737 points,  4 beta functions with:
                l(1) =   0
                l(2) =   0
                l(3) =   1
                l(4) =   1
     Q(r) pseudized with  8 coefficients,  rinner =    0.800   0.800   0.800

     PseudoPot. # 3 for N  read from file:
     /storage/coda1/p-amedford6/0/shared/rich_project_chbe-medford/medford-share/data/pseudos_module/espresso/nninc/pbe/van/N.UPF
     MD5 check sum: 90d10febe142ad51ac9d5be1deb811c4
     Pseudo is Ultrasoft, Zval =  5.0
     Generated by new atomic code, or converted to UPF format
     Using radial grid of  729 points,  4 beta functions with:
                l(1) =   0
                l(2) =   0
                l(3) =   1
                l(4) =   1
     Q(r) pseudized with  8 coefficients,  rinner =    0.800   0.800   0.800

     PseudoPot. # 4 for C  read from file:
     /storage/coda1/p-amedford6/0/shared/rich_project_chbe-medford/medford-share/data/pseudos_module/espresso/nninc/pbe/van/C.UPF
     MD5 check sum: 1a69bf6b8db32088f5b2163dbdb77a27
     Pseudo is Ultrasoft, Zval =  4.0
     Generated by new atomic code, or converted to UPF format
     Using radial grid of  721 points,  4 beta functions with:
                l(1) =   0
                l(2) =   0
                l(3) =   1
                l(4) =   1
     Q(r) pseudized with  8 coefficients,  rinner =    0.800   0.800   0.800

     PseudoPot. # 5 for H  read from file:
     /storage/coda1/p-amedford6/0/shared/rich_project_chbe-medford/medford-share/data/pseudos_module/espresso/nninc/pbe/van/H.UPF
     MD5 check sum: b5ee9d7bfd3a09ee7748110bda690ff7
     Pseudo is Ultrasoft, Zval =  1.0
     Generated by new atomic code, or converted to UPF format
     Using radial grid of  615 points,  1 beta functions with:
                l(1) =   0
     Q(r) pseudized with  8 coefficients,  rinner =    0.800

     atomic species   valence    mass     pseudopotential
        Ti1           12.00    47.86700     Ti( 1.00)
        O1             6.00    15.99900     O ( 1.00)
        N1             5.00    14.00700     N ( 1.00)
        C1             4.00    12.01100     C ( 1.00)
        H1             1.00     1.00800     H ( 1.00)

     No symmetry found

   Cartesian axes

     site n.     atom                  positions (alat units)
         1           Ti1 tau(   1) = (   0.0004258   2.9801865   6.0000000  )
         2           Ti1 tau(   2) = (   3.2906075   1.4906267   6.0002472  )
         3           O1  tau(   3) = (   0.0006271   0.0005054   7.9858123  )
         4           O1  tau(   4) = (   3.2906025   0.0005020   7.3038282  )
         5           O1  tau(   5) = (   4.5942328   1.4918067   9.2879030  )
         6           O1  tau(   6) = (   1.9868534   1.4903216   9.2879459  )
         7           Ti1 tau(   7) = (   3.2907910   2.8959150   9.1758416  )
         8           Ti1 tau(   8) = (   0.0015273   1.4827037   9.2680791  )
         9           O1  tau(   9) = (   3.2780774   5.9605562  11.3537357  )
        10           O1  tau(  10) = (   0.0116148   5.9584955  10.6183126  )
        11           O1  tau(  11) = (   1.2922713   1.4781662  12.6511241  )
        12           O1  tau(  12) = (   5.2965393   1.5043564  12.6031353  )
        13           Ti1 tau(  13) = (   6.5273184   3.0207086  12.5807821  )
        14           Ti1 tau(  14) = (   3.2344070   1.4559942  12.5004267  )
        15           O1  tau(  15) = (   6.4759410   0.0295824  14.6525783  )
        16           O1  tau(  16) = (   3.3604338   0.0238249  13.9383540  )
        17           O1  tau(  17) = (   4.5324113   1.5808541  16.1066768  )
        18           O1  tau(  18) = (   1.9684897   1.4712893  15.8817925  )
        19           Ti1 tau(  19) = (   3.2566353   3.0739815  15.8599551  )
        20           Ti1 tau(  20) = (   6.5466614   1.5318677  15.7800735  )
        21           O1  tau(  21) = (   3.2904802   0.0005063   4.7018136  )
        22           O1  tau(  22) = (   6.5744325   0.0155309  17.2227980  )
        23           O1  tau(  23) = (   1.3043587   1.4918075   6.0039043  )
        24           O1  tau(  24) = (   5.2767064   1.4903225   6.0039473  )
        25           Ti1 tau(  25) = (   0.0000382   5.9609847   6.0000000  )
        26           Ti1 tau(  26) = (   3.2902200   4.4714249   6.0002472  )
        27           O1  tau(  27) = (   0.0002396   2.9813036   7.9858123  )
        28           O1  tau(  28) = (   3.2902150   2.9813002   7.3038282  )
        29           O1  tau(  29) = (   4.5938453   4.4726049   9.2879030  )
        30           O1  tau(  30) = (   1.9864658   4.4711199   9.2879459  )
        31           Ti1 tau(  31) = (   3.2891106   5.8743827   9.1763621  )
        32           Ti1 tau(  32) = (   0.0006254   4.4649316   9.2693709  )
        33           O1  tau(  33) = (   3.2727763   2.9788165  11.3438337  )
        34           O1  tau(  34) = (   0.0092240   2.9805883  10.6323155  )
        35           O1  tau(  35) = (   1.2865780   4.4896361  12.6556599  )
        36           O1  tau(  36) = (   5.2967437   4.4749066  12.6066920  )
        37           Ti1 tau(  37) = (   6.5467059   0.0356701  12.5108493  )
        38           Ti1 tau(  38) = (   3.2305653   4.4019604  12.5605372  )
        39           O1  tau(  39) = (   6.5199767   2.9846217  14.6905747  )
        40           O1  tau(  40) = (   3.2851694   3.0254550  13.9321539  )
        41           O1  tau(  41) = (   4.5310495   4.4602642  16.1636806  )
        42           O1  tau(  42) = (   1.9842988   4.5744318  15.9411167  )
        43           Ti1 tau(  43) = (   3.2691225   0.1036042  15.7405456  )
        44           Ti1 tau(  44) = (   6.5697781   4.6877429  16.0360384  )
        45           O1  tau(  45) = (   3.2900926   2.9813045   4.7018136  )
        46           O1  tau(  46) = (   1.3039711   4.4726057   6.0039043  )
        47           O1  tau(  47) = (   5.2763189   4.4711207   6.0039473  )
        48           N1  tau(  48) = (   1.2792381   2.8578196  18.3696018  )
        49           N1  tau(  49) = (   0.1888888   2.9646215  17.5057353  )
        50           C1  tau(  50) = (   2.5352320   2.9081513  18.0382144  )
        51           H1  tau(  51) = (   3.1442446   2.7411670  18.9317345  )
        52           H1  tau(  52) = (   1.0014291   2.6635404  19.3302151  )
        53           H1  tau(  53) = (   5.9397212   2.8571719  18.0851170  )
        54           O1  tau(  54) = (   3.2630597   0.0341043  18.2348460  )
        55           H1  tau(  55) = (   4.0455299   5.4198958  18.2485053  )
        56           H1  tau(  56) = (   2.4923979   5.3991459  18.3156537  )

     number of k points=    10  Fermi-Dirac smearing, width (Ry)=  0.0073
                       cart. coord. in units 2pi/alat
        k(    1) = (   0.0000000   0.0000000   0.0000000), wk =   0.1250000
        k(    2) = (   0.0000000   0.0419351   0.0000000), wk =   0.2500000
        k(    3) = (   0.0000000  -0.0838702   0.0000000), wk =   0.1250000
        k(    4) = (   0.0379955   0.0000049   0.0000000), wk =   0.2500000
        k(    5) = (   0.0379955   0.0419400   0.0000000), wk =   0.2500000
        k(    6) = (   0.0379955  -0.0838652   0.0000000), wk =   0.2500000
        k(    7) = (   0.0379955  -0.0419301   0.0000000), wk =   0.2500000
        k(    8) = (  -0.0759910  -0.0000099   0.0000000), wk =   0.1250000
        k(    9) = (  -0.0759910   0.0419252   0.0000000), wk =   0.2500000
        k(   10) = (  -0.0759910  -0.0838800   0.0000000), wk =   0.1250000

     Initial potential from superposition of free atoms

     starting charge  386.99914, renormalised to  403.00000

     negative rho (up, down):  1.738E-02 0.000E+00

     %%%%%%%%%%%%%%%%%%%%%%%%%%%%%%%%%%%%%%%%%%%%%%%%%%%%%%%%%%%%%%%%%%%%%%%%
     %                                                                      %
     % You are using vdW-DF, which was implemented by the Thonhauser group. %
     % Please cite the following two papers that made this development      %
     % possible and the two reviews that describe the various versions:     %
     %                                                                      %
     %   T. Thonhauser et al., PRL 115, 136402 (2015).                      %
     %   T. Thonhauser et al., PRB 76, 125112 (2007).                       %
     %   K. Berland et al., Rep. Prog. Phys. 78, 066501 (2015).             %
     %   D.C. Langreth et al., J. Phys.: Condens. Matter 21, 084203 (2009). %
     %                                                                      %
     %                                                                      %
     % If you are calculating the stress with vdW-DF, please also cite:     %
     %                                                                      %
     %   R. Sabatini et al., J. Phys.: Condens. Matter 24, 424209 (2012).   %
     %                                                                      %
     %%%%%%%%%%%%%%%%%%%%%%%%%%%%%%%%%%%%%%%%%%%%%%%%%%%%%%%%%%%%%%%%%%%%%%%%

     Adding external electric field

     Computed dipole along edir(3) :
        Dipole              -12.3463 Ry au,        -31.3811 Debye
        Dipole field         -0.0233 Ry au,

        Potential amp.        2.1598 Ry
        Total length         46.3494 bohr

     Starting wfcs are  305 atomic wfcs
  @ DRIVER MODE: Message from server: STATUS
  @ DRIVER MODE: Message from server: POSDATA
  @ DRIVER MODE: Reading and sharing cell
  @ DRIVER MODE: Reading and sharing positions
  @ DRIVER MODE: Received positions

     Self-consistent Calculation

     iteration #  1     ecut=    29.40 Ry     beta= 0.05
     Davidson diagonalization with overlap
     c_bands:  5 eigenvalues not converged
     c_bands:  3 eigenvalues not converged
     c_bands:  3 eigenvalues not converged
     c_bands:  1 eigenvalues not converged
     c_bands:  2 eigenvalues not converged
     c_bands:  2 eigenvalues not converged
     c_bands:  5 eigenvalues not converged
     c_bands:  2 eigenvalues not converged
     c_bands:  4 eigenvalues not converged
     ethr =  1.00E-05,  avg # of iterations = 29.3

[...]

     total energy              =   -2358.73910540 Ry
     estimated scf accuracy    <    6971.31739839 Ry

     iteration #  2     ecut=    29.40 Ry     beta= 0.05
     Davidson diagonalization with overlap
     ethr =  1.00E-02,  avg # of iterations = 26.2

[...]

     iteration # 60     ecut=    29.40 Ry     beta= 0.05
     Davidson diagonalization with overlap
     c_bands:  2 eigenvalues not converged
     c_bands:  1 eigenvalues not converged
     ethr =  1.59E-10,  avg # of iterations = 13.3

[...]

     total energy              =   -2973.94004635 Ry
     estimated scf accuracy    <       0.00000009 Ry

     iteration # 63     ecut=    29.40 Ry     beta= 0.05
     Davidson diagonalization with overlap
     ethr =  2.17E-11,  avg # of iterations =  9.5

     negative rho (up, down):  1.725E-02 0.000E+00

     Adding external electric field

     Computed dipole along edir(3) :
        Dipole                1.3982 Ry au,          3.5539 Debye
        Dipole field          0.0026 Ry au,

        Potential amp.       -0.2446 Ry
        Total length         46.3494 bohr

     End of self-consistent calculation

          k = 0.0000 0.0000 0.0000 ( 18029 PWs)   bands (ev):

   -55.3201 -55.2860 -55.2106 -55.1862 -55.1676 -55.1562 -55.1409 -55.1189
   -55.1071 -55.1049 -55.0980 -55.0634 -54.9924 -54.8343 -54.3002 -54.2662
   -31.8043 -31.7315 -31.6573 -31.6506 -31.6407 -31.6120 -31.5876 -31.5652
   -31.5202 -31.5015 -31.4725 -31.4644 -31.4559 -31.4412 -31.4261 -31.4219
   -31.3987 -31.3806 -31.3774 -31.3654 -31.3358 -31.3336 -31.3294 -31.3263
   -31.3234 -31.3196 -31.3156 -31.2975 -31.2895 -31.2796 -31.2729 -31.2724
   -31.2625 -31.2610 -31.2525 -31.2487 -31.2404 -31.2151 -31.2105 -31.0906
   -31.0755 -31.0497 -30.7070 -30.6191 -30.5967 -30.5241 -30.4376 -30.3263
   -18.8504 -18.6528 -15.9783 -15.7945 -15.6134 -15.4745 -15.3924 -15.1608
   -15.1024 -15.0639 -14.9828 -14.9600 -14.8596 -14.8406 -14.8391 -14.8208
   -14.8179 -14.7629 -14.7476 -14.7433 -14.6947 -14.6879 -14.6625 -14.6471
   -14.5945 -14.5159 -14.5072 -14.4610 -14.4157 -14.3692 -14.0224 -13.4157
   -12.8011 -12.6846  -8.8055  -7.2729  -6.5633  -4.3238  -3.7958  -3.3614
    -3.2850  -3.2498  -3.2249  -3.0891  -2.9724  -2.8730  -2.7565  -2.6728
    -2.5851  -2.4807  -2.4242  -2.3786  -2.3180  -2.2581  -2.2318  -2.1462
    -2.1265  -2.1068  -2.0847  -2.0583  -2.0290  -1.9923  -1.8693  -1.8587
    -1.7766  -1.7201  -1.6802  -1.6637  -1.6398  -1.6343  -1.6019  -1.5815
    -1.5727  -1.5612  -1.5592  -1.5239  -1.3855  -1.3610  -1.3327  -1.3105
    -1.1638  -1.0264  -0.9374  -0.9349  -0.8254  -0.7607  -0.7577  -0.7193
    -0.7036  -0.6010  -0.5158  -0.4790  -0.4546  -0.3740  -0.3168  -0.2629
    -0.2114  -0.1756  -0.1095  -0.0856  -0.0690  -0.0521   0.0174   0.0796
     0.1408   0.2261   0.2694   0.2938   0.3848   0.3989   0.4220   0.4870
     0.5189   0.5637   0.5991   0.6283   0.6517   0.6822   0.7075   0.7506
     0.7888   0.9145   0.9328   0.9612   0.9824   1.1568   1.2065   1.3085
     1.3394   1.4402   1.4833   1.6624   1.7237   1.8029   1.9155   2.2936
     2.3394   3.7891   3.9004   3.9345   3.9596   3.9989   4.0501   4.2568
     4.3298   4.3711   4.4278

[...]

          k = 0.0380-0.0419 0.0000 ( 17876 PWs)   bands (ev):

[...]

          k =-0.0760-0.0000 0.0000 ( 17886 PWs)   bands (ev):

[...]

          k =-0.0760-0.0839 0.0000 ( 17948 PWs)   bands (ev):

   -55.3033 -55.3026 -55.2011 -55.1828 -55.1763 -55.1447 -55.1308 -55.1241
   -55.1233 -55.1085 -55.0847 -55.0768 -54.9907 -54.8359 -54.2832 -54.2831
   -31.6198 -31.6193 -31.5977 -31.5972 -31.5658 -31.5337 -31.5026 -31.4901
   -31.4834 -31.4680 -31.4495 -31.4443 -31.4403 -31.4308 -31.4258 -31.4239
   -31.4227 -31.4223 -31.4171 -31.4013 -31.3903 -31.3764 -31.3656 -31.3634
   -31.3584 -31.3539 -31.3448 -31.3322 -31.3264 -31.3249 -31.3095 -31.3004
   -31.2973 -31.2964 -31.2947 -31.2920 -31.2619 -31.2337 -31.2198 -31.1466
   -31.0929 -31.0785 -30.6094 -30.6094 -30.5199 -30.5198 -30.4809 -30.4808
   -18.8380 -18.6608 -15.3556 -15.3205 -15.2825 -15.2554 -15.2393 -15.1183
   -15.1046 -15.0691 -15.0275 -15.0143 -14.9840 -14.9554 -14.9065 -14.8980
   -14.8638 -14.8443 -14.8051 -14.7786 -14.7593 -14.7550 -14.7382 -14.7166
   -14.6730 -14.6512 -14.6387 -14.6344 -14.5825 -14.4882 -14.2075 -13.4384
   -12.7865 -12.7863  -8.8014  -7.1983  -6.5647  -4.5331  -3.5742  -2.8754
    -2.6705  -2.6312  -2.5798  -2.4886  -2.4416  -2.3196  -2.3130  -2.2904
    -2.2451  -2.2320  -2.1911  -2.1510  -2.1450  -2.1172  -2.1047  -2.0602
    -2.0488  -2.0458  -2.0315  -1.9977  -1.9923  -1.9718  -1.9475  -1.9444
    -1.9342  -1.9180  -1.8849  -1.8779  -1.8506  -1.8316  -1.6799  -1.6063
    -1.5634  -1.4861  -1.4630  -1.4462  -1.4271  -1.3925  -1.3722  -1.3465
    -1.3182  -1.1721  -1.0295  -0.9970  -0.9720  -0.8735  -0.8585  -0.8389
    -0.7921  -0.7506  -0.7151  -0.6563  -0.6481  -0.6013  -0.5807  -0.4606
    -0.4230  -0.3233  -0.2885  -0.2865  -0.2689  -0.2544  -0.2372  -0.2114
    -0.1619  -0.0905  -0.0750  -0.0263  -0.0026   0.0000   0.0131   0.1589
     0.2298   0.2503   0.3529   0.3827   0.5576   0.7216   0.7334   0.8013
     0.8643   0.9194   0.9531   0.9929   1.0031   1.0689   1.0939   1.1980
     1.2085   1.2574   1.2622   1.3407   1.3537   2.0873   2.0890   2.1593
     2.1595   4.1530   4.1682   4.1969   4.2599   4.3033   4.3149   4.3525
     4.3562   4.4590   4.4747

     the Fermi energy is     3.8072 ev

!    total energy              =   -2973.94008004 Ry
     estimated scf accuracy    <       0.00000007 Ry
     smearing contrib. (-TS)   =      -0.02072304 Ry
     internal energy E=F+TS    =   -2973.91935700 Ry

     The total energy is F=E-TS. E is the sum of the following terms:
     one-electron contribution =  -24338.91778369 Ry
     hartree contribution      =   12267.16261265 Ry
     xc contribution           =    -494.11271140 Ry
     ewald contribution        =    9591.94483604 Ry
     electric field correction =       0.00368940 Ry

     convergence has been achieved in  63 iterations

     Forces acting on atoms (cartesian axes, Ry/au):

     atom    1 type  1   force =     0.00002770   -0.00009711    0.09507436
     atom    2 type  1   force =     0.00017936   -0.00069042   -0.17564284
     atom    3 type  2   force =     0.00008809   -0.00004722   -0.02294248
     atom    4 type  2   force =     0.00002089   -0.00143233    0.05289317
     atom    5 type  2   force =    -0.01001223   -0.00031078    0.00380621
     atom    6 type  2   force =     0.01113542    0.00020570    0.00206020
     atom    7 type  1   force =    -0.00021445    0.00179037   -0.00589735
     atom    8 type  1   force =     0.00080918    0.01008499    0.01603124
     atom    9 type  2   force =    -0.00015670    0.00087059    0.00032962
     atom   10 type  2   force =    -0.00227453    0.00217845   -0.01802974
     atom   11 type  2   force =     0.00023073   -0.00003302    0.00007351
     atom   12 type  2   force =    -0.00033572   -0.00018486    0.00055577
     atom   13 type  1   force =    -0.00002470    0.00124848    0.00018262
     atom   14 type  1   force =    -0.00011812    0.00008140   -0.00001158
     atom   15 type  2   force =     0.00012017    0.00024287    0.00000561
     atom   16 type  2   force =    -0.00037274    0.00044114   -0.00022755
     atom   17 type  2   force =    -0.00018045   -0.00022859    0.00001684
     atom   18 type  2   force =    -0.00003713    0.00005070    0.00038672
     atom   19 type  1   force =    -0.00052005    0.00031227   -0.00032371
     atom   20 type  1   force =    -0.00023313   -0.00019993    0.00016246
     atom   21 type  2   force =     0.00009264   -0.00008413    0.10318573
     atom   22 type  2   force =     0.00034326   -0.00003882    0.00043839
     atom   23 type  2   force =    -0.07160213   -0.00016069   -0.02757761
     atom   24 type  2   force =     0.07156115    0.00025368   -0.02762484
     atom   25 type  1   force =     0.00023663   -0.00039554    0.09518748
     atom   26 type  1   force =    -0.00003682   -0.00020296   -0.17580814
     atom   27 type  2   force =     0.00012130   -0.00012122   -0.02197533
     atom   28 type  2   force =     0.00001407   -0.00139796    0.05322256
     atom   29 type  2   force =    -0.01035789   -0.00022527    0.00364842
     atom   30 type  2   force =     0.01139531    0.00042663    0.00191508
     atom   31 type  1   force =    -0.00029988    0.00266769   -0.00009435
     atom   32 type  1   force =     0.00067267   -0.01114572    0.01690691
     atom   33 type  2   force =     0.00037701   -0.00027189    0.00000499
     atom   34 type  2   force =    -0.00034037    0.00144115   -0.01895840
     atom   35 type  2   force =    -0.00001348   -0.00035295   -0.00017231
     atom   36 type  2   force =     0.00000986   -0.00024888    0.00042796
     atom   37 type  1   force =    -0.00005122   -0.00122270    0.00034311
     atom   38 type  1   force =    -0.00039189    0.00090356    0.00005089
     atom   39 type  2   force =     0.00009485    0.00004714    0.00010002
     atom   40 type  2   force =    -0.00048594   -0.00059475    0.00001288
     atom   41 type  2   force =     0.00017226   -0.00018346    0.00028485
     atom   42 type  2   force =    -0.00020392   -0.00037067   -0.00021511
     atom   43 type  1   force =    -0.00030443   -0.00018736    0.00058788
     atom   44 type  1   force =     0.00002997   -0.00021003    0.00024783
     atom   45 type  2   force =     0.00009961   -0.00010221    0.10321188
     atom   46 type  2   force =    -0.07158889   -0.00017515   -0.02756833
     atom   47 type  2   force =     0.07158906    0.00023845   -0.02758169
     atom   48 type  3   force =    -0.00001830   -0.00050791    0.00024595
     atom   49 type  3   force =     0.00017058    0.00008892   -0.00002536
     atom   50 type  4   force =     0.00042617   -0.00021639    0.00048610
     atom   51 type  5   force =    -0.00016665   -0.00053926   -0.00023149
     atom   52 type  5   force =    -0.00002844   -0.00107115   -0.00080686
     atom   53 type  5   force =     0.00016671   -0.00040701   -0.00059825
     atom   54 type  2   force =    -0.00902449   -0.00677985    0.00102404
     atom   55 type  5   force =     0.00115276    0.00020131   -0.00010200
     atom   56 type  5   force =     0.00805727    0.00666269   -0.00069595

     Total force =     0.365523     Total SCF correction =     0.000454
  @ DRIVER MODE: Message from server: STATUS
  @ DRIVER MODE: Message from server: GETFORCE
  @ DRIVER MODE: Returning v,forces,stress,ensemble

     Writing output data file ./calc.save/
  @ DRIVER MODE: Message from server: EXIT
  @ DRIVE MODE: Exiting

     General routines

     Parallel routines

   This run was terminated on:  16:52:45  22Sep2021

   JOB DONE.