     Program PWSCF v.6.7GPU starts on  9Sep2021 at  7:39:49

     R & G space division:  proc/nbgrp/npool/nimage =      10
     Reading input from /storage/home/hcoda1/3/ntian30/research/carbon/CxH_vib/CH3_calc/ads_slab/CH3NHNH_a/out_0031/pw.inp
Warning: card &CELL ignored
Warning: card   CELL_DYNAMICS='IPI', ignored
Warning: card / ignored

     Current dimensions of program PWSCF are:
     Max number of different atomic species (ntypx) = 10
     Max number of k-points (npk) =  40000
     Max angular momentum in pseudopotentials (lmaxx) =  3
     Presently no symmetry can be used with electric field

     Message from routine cell_base_init:
     DEPRECATED: use true lattice parameter, not A to a.u. conversion factor

     IMPORTANT: XC functional enforced from input :
     Exchange-correlation= BEEF-VDW
                           (   1   4  43  14   2   0   0)
     Any further DFT definition will be discarded
     Please, verify this is what you really want

  @ DRIVER MODE: Connecting to
 qe_1139763_2767401.sched-torque.pace.gatech.edu4bhqiw9p_scratch
  using UNIX socket
  @ DRIVER MODE: Message from server: STATUS
  @ DRIVER MODE: Message from server: INIT
  @ DRIVER MODE: Receiving replica           0          -1
  @ DRIVER MODE: Receiving encoded integer          25
  @ DRIVER MODE:  SCF:  T  FORCE:  T  STRESS:  F  VC:  F  ENSEMBLE:  F
  @ DRIVER MODE:  SCF:  T  FORCE:  T  STRESS:  F  VC:  F  ENSEMBLE:  F

     Using Slab Decomposition

     bravais-lattice index     =            0
     lattice parameter (alat)  =       1.8897  a.u.
     unit-cell volume          =    6658.9804 (a.u.)^3
     number of atoms/cell      =           55
     number of atomic types    =            5
     number of electrons       =       397.00
     number of Kohn-Sham states=          208
     kinetic-energy cutoff     =      29.3995  Ry
     charge density cutoff     =     293.9946  Ry
     scf convergence threshold =      7.3E-08
     mixing beta               =       0.0500
     number of iterations used =            8  plain     mixing
     Exchange-correlation= BEEF-VDW
                           (   1   4  43  14   2   0   0)

     celldm(1)=   1.889726  celldm(2)=   0.000000  celldm(3)=   0.000000
     celldm(4)=   0.000000  celldm(5)=   0.000000  celldm(6)=   0.000000

     crystal axes: (cart. coord. in units of alat)
               a(1) = (   6.579727   0.000000   0.000000 )
               a(2) = (  -0.000775   5.961596   0.000000 )
               a(3) = (   0.000000   0.000000  25.155947 )

     reciprocal axes: (cart. coord. in units 2 pi/alat)
               b(1) = (  0.151982  0.000020  0.000000 )
               b(2) = (  0.000000  0.167740  0.000000 )
               b(3) = (  0.000000  0.000000  0.039752 )

     PseudoPot. # 1 for Ti read from file:
     /storage/coda1/p-amedford6/0/shared/rich_project_chbe-medford/medford-share/data/pseudos_module/espresso/nninc/pbe/van/Ti.UPF
     MD5 check sum: 8e4df49b7f0d34bbd5052bf3f5ea0213
     Pseudo is Ultrasoft, Zval = 12.0
     Generated by new atomic code, or converted to UPF format
     Using radial grid of  851 points,  6 beta functions with:
                l(1) =   0
                l(2) =   0
                l(3) =   1
                l(4) =   1
                l(5) =   2
                l(6) =   2
     Q(r) pseudized with  8 coefficients,  rinner =    1.000   1.000   1.000
                                                       1.000   1.000

     PseudoPot. # 2 for O  read from file:
     /storage/coda1/p-amedford6/0/shared/rich_project_chbe-medford/medford-share/data/pseudos_module/espresso/nninc/pbe/van/O.UPF
     MD5 check sum: 78c19812648e8988a0fe644b0f25305e
     Pseudo is Ultrasoft, Zval =  6.0
     Generated by new atomic code, or converted to UPF format
     Using radial grid of  737 points,  4 beta functions with:
                l(1) =   0
                l(2) =   0
                l(3) =   1
                l(4) =   1
     Q(r) pseudized with  8 coefficients,  rinner =    0.800   0.800   0.800

     PseudoPot. # 3 for N  read from file:
     /storage/coda1/p-amedford6/0/shared/rich_project_chbe-medford/medford-share/data/pseudos_module/espresso/nninc/pbe/van/N.UPF
     MD5 check sum: 90d10febe142ad51ac9d5be1deb811c4
     Pseudo is Ultrasoft, Zval =  5.0
     Generated by new atomic code, or converted to UPF format
     Using radial grid of  729 points,  4 beta functions with:
                l(1) =   0
                l(2) =   0
                l(3) =   1
                l(4) =   1
     Q(r) pseudized with  8 coefficients,  rinner =    0.800   0.800   0.800

     PseudoPot. # 4 for C  read from file:
     /storage/coda1/p-amedford6/0/shared/rich_project_chbe-medford/medford-share/data/pseudos_module/espresso/nninc/pbe/van/C.UPF
     MD5 check sum: 1a69bf6b8db32088f5b2163dbdb77a27
     Pseudo is Ultrasoft, Zval =  4.0
     Generated by new atomic code, or converted to UPF format
     Using radial grid of  721 points,  4 beta functions with:
                l(1) =   0
                l(2) =   0
                l(3) =   1
                l(4) =   1
     Q(r) pseudized with  8 coefficients,  rinner =    0.800   0.800   0.800

     PseudoPot. # 5 for H  read from file:
     /storage/coda1/p-amedford6/0/shared/rich_project_chbe-medford/medford-share/data/pseudos_module/espresso/nninc/pbe/van/H.UPF
     MD5 check sum: b5ee9d7bfd3a09ee7748110bda690ff7
     Pseudo is Ultrasoft, Zval =  1.0
     Generated by new atomic code, or converted to UPF format
     Using radial grid of  615 points,  1 beta functions with:
                l(1) =   0
     Q(r) pseudized with  8 coefficients,  rinner =    0.800

     atomic species   valence    mass     pseudopotential
        Ti1           12.00    47.86700     Ti( 1.00)
        O1             6.00    15.99900     O ( 1.00)
        N1             5.00    14.00700     N ( 1.00)
        C1             4.00    12.01100     C ( 1.00)
        H1             1.00     1.00800     H ( 1.00)

     No symmetry found

   Cartesian axes

     site n.     atom                  positions (alat units)
         1           Ti1 tau(   1) = (   0.0004258   2.9801865   6.0000000  )
         2           Ti1 tau(   2) = (   3.2906075   1.4906267   6.0002472  )
         3           O1  tau(   3) = (   0.0006271   0.0005054   7.9858123  )
         4           O1  tau(   4) = (   3.2906025   0.0005020   7.3038282  )
         5           O1  tau(   5) = (   4.5942328   1.4918067   9.2879030  )
         6           O1  tau(   6) = (   1.9868534   1.4903216   9.2879459  )
         7           Ti1 tau(   7) = (   3.2907910   2.8959150   9.1758416  )
         8           Ti1 tau(   8) = (   0.0015273   1.4827037   9.2680791  )
         9           O1  tau(   9) = (   3.2830128   5.9597860  11.3344455  )
        10           O1  tau(  10) = (   0.0116148   5.9584955  10.6183126  )
        11           O1  tau(  11) = (   1.2885291   1.4855062  12.6376555  )
        12           O1  tau(  12) = (   5.2724004   1.4911608  12.5936499  )
        13           Ti1 tau(  13) = (   0.0410009   3.0319447  12.6084003  )
        14           Ti1 tau(  14) = (   3.3739341   1.4916561  12.4823474  )
        15           O1  tau(  15) = (   6.4862162   0.0153916  14.6455093  )
        16           O1  tau(  16) = (   3.3439542   5.9611638  13.9051029  )
        17           O1  tau(  17) = (   4.4933269   1.5483200  16.1231154  )
        18           O1  tau(  18) = (   1.9964937   1.4536654  15.9127221  )
        19           Ti1 tau(  19) = (   3.1412959   3.0017366  15.7441667  )
        20           Ti1 tau(  20) = (   6.4823597   1.5369342  15.8006069  )
        21           O1  tau(  21) = (   3.2904802   0.0005063   4.7018136  )
        22           O1  tau(  22) = (   6.5709111   0.0522475  17.2082838  )
        23           O1  tau(  23) = (   1.3043587   1.4918075   6.0039043  )
        24           O1  tau(  24) = (   5.2767064   1.4903225   6.0039473  )
        25           Ti1 tau(  25) = (   0.0000382   5.9609847   6.0000000  )
        26           Ti1 tau(  26) = (   3.2902200   4.4714249   6.0002472  )
        27           O1  tau(  27) = (   0.0002396   2.9813036   7.9858123  )
        28           O1  tau(  28) = (   3.2902150   2.9813002   7.3038282  )
        29           O1  tau(  29) = (   4.5938453   4.4726049   9.2879030  )
        30           O1  tau(  30) = (   1.9864658   4.4711199   9.2879459  )
        31           Ti1 tau(  31) = (   3.2891106   5.8743827   9.1763621  )
        32           Ti1 tau(  32) = (   0.0006254   4.4649316   9.2693709  )
        33           O1  tau(  33) = (   3.2833609   2.9822938  11.3349093  )
        34           O1  tau(  34) = (   0.0092240   2.9805883  10.6323155  )
        35           O1  tau(  35) = (   1.2838611   4.4860338  12.6468719  )
        36           O1  tau(  36) = (   5.2760156   4.4607002  12.6015494  )
        37           Ti1 tau(  37) = (   0.0673138   0.0440259  12.5461749  )
        38           Ti1 tau(  38) = (   3.3712377   4.4654930  12.4933830  )
        39           O1  tau(  39) = (   6.5217465   2.9589972  14.6412948  )
        40           O1  tau(  40) = (   3.2809526   2.9956502  13.9333893  )
        41           O1  tau(  41) = (   4.4911989   4.4583117  16.1637052  )
        42           O1  tau(  42) = (   1.9937212   4.5427850  15.9740970  )
        43           Ti1 tau(  43) = (   3.2955853   0.0167752  15.6963065  )
        44           Ti1 tau(  44) = (   6.5082246   4.6715011  16.1069148  )
        45           O1  tau(  45) = (   3.2900926   2.9813045   4.7018136  )
        46           O1  tau(  46) = (   1.3039711   4.4726057   6.0039043  )
        47           O1  tau(  47) = (   5.2763189   4.4711207   6.0039473  )
        48           N1  tau(  48) = (   1.3945086   2.8365607  18.1849301  )
        49           N1  tau(  49) = (   0.1777896   2.9650562  17.4211889  )
        50           C1  tau(  50) = (   1.4118813   3.7128676  19.3556819  )
        51           H1  tau(  51) = (   0.5171711   3.5996102  19.9880000  )
        52           H1  tau(  52) = (   2.2935099   3.4681107  19.9517681  )
        53           H1  tau(  53) = (   1.4603795   4.7520035  19.0319817  )
        54           H1  tau(  54) = (   1.4579882   1.8621926  18.4823179  )
        55           H1  tau(  55) = (   5.9558665   2.8747675  18.0551794  )

     number of k points=    10  Fermi-Dirac smearing, width (Ry)=  0.0073
                       cart. coord. in units 2pi/alat
        k(    1) = (   0.0000000   0.0000000   0.0000000), wk =   0.1250000
        k(    2) = (   0.0000000   0.0419351   0.0000000), wk =   0.2500000
        k(    3) = (   0.0000000  -0.0838702   0.0000000), wk =   0.1250000
        k(    4) = (   0.0379955   0.0000049   0.0000000), wk =   0.2500000
        k(    5) = (   0.0379955   0.0419400   0.0000000), wk =   0.2500000
        k(    6) = (   0.0379955  -0.0838652   0.0000000), wk =   0.2500000
        k(    7) = (   0.0379955  -0.0419301   0.0000000), wk =   0.2500000
        k(    8) = (  -0.0759910  -0.0000099   0.0000000), wk =   0.1250000
        k(    9) = (  -0.0759910   0.0419252   0.0000000), wk =   0.2500000
        k(   10) = (  -0.0759910  -0.0838800   0.0000000), wk =   0.1250000

     Initial potential from superposition of free atoms

     starting charge  380.99914, renormalised to  397.00000

     negative rho (up, down):  1.540E-02 0.000E+00

     %%%%%%%%%%%%%%%%%%%%%%%%%%%%%%%%%%%%%%%%%%%%%%%%%%%%%%%%%%%%%%%%%%%%%%%%
     %                                                                      %
     % You are using vdW-DF, which was implemented by the Thonhauser group. %
     % Please cite the following two papers that made this development      %
     % possible and the two reviews that describe the various versions:     %
     %                                                                      %
     %   T. Thonhauser et al., PRL 115, 136402 (2015).                      %
     %   T. Thonhauser et al., PRB 76, 125112 (2007).                       %
     %   K. Berland et al., Rep. Prog. Phys. 78, 066501 (2015).             %
     %   D.C. Langreth et al., J. Phys.: Condens. Matter 21, 084203 (2009). %
     %                                                                      %
     %                                                                      %
     % If you are calculating the stress with vdW-DF, please also cite:     %
     %                                                                      %
     %   R. Sabatini et al., J. Phys.: Condens. Matter 24, 424209 (2012).   %
     %                                                                      %
     %%%%%%%%%%%%%%%%%%%%%%%%%%%%%%%%%%%%%%%%%%%%%%%%%%%%%%%%%%%%%%%%%%%%%%%%

     Adding external electric field

     Computed dipole along edir(3) :
        Dipole               -9.6180 Ry au,        -24.4465 Debye
        Dipole field         -0.0182 Ry au,

        Potential amp.        1.6825 Ry
        Total length         46.3494 bohr

     Starting wfcs are  301 atomic wfcs
  @ DRIVER MODE: Message from server: STATUS
  @ DRIVER MODE: Message from server: POSDATA
  @ DRIVER MODE: Reading and sharing cell
  @ DRIVER MODE: Reading and sharing positions
  @ DRIVER MODE: Received positions

     Self-consistent Calculation

     iteration #  1     ecut=    29.40 Ry     beta= 0.05
     Davidson diagonalization with overlap
     c_bands:  1 eigenvalues not converged
     c_bands:  1 eigenvalues not converged
     c_bands:  1 eigenvalues not converged
     c_bands:  1 eigenvalues not converged
     c_bands:  1 eigenvalues not converged
     c_bands:  1 eigenvalues not converged
     c_bands:  2 eigenvalues not converged
     ethr =  1.00E-05,  avg # of iterations = 18.8

[...]

     total energy              =   -2533.46903632 Ry
     estimated scf accuracy    <    4540.48053496 Ry

     iteration #  2     ecut=    29.40 Ry     beta= 0.05
     Davidson diagonalization with overlap
     ethr =  1.00E-02,  avg # of iterations = 24.8

[...]

     iteration # 59     ecut=    29.40 Ry     beta= 0.05
     Davidson diagonalization with overlap
     c_bands:  1 eigenvalues not converged
     ethr =  1.43E-09,  avg # of iterations =  9.5

[...]

     total energy              =   -2941.66156958 Ry
     estimated scf accuracy    <       0.00000009 Ry

     iteration # 68     ecut=    29.40 Ry     beta= 0.05
     Davidson diagonalization with overlap
     ethr =  2.15E-11,  avg # of iterations = 10.2

     negative rho (up, down):  1.607E-02 0.000E+00

     Adding external electric field

     Computed dipole along edir(3) :
        Dipole                0.9403 Ry au,          2.3899 Debye
        Dipole field          0.0018 Ry au,

        Potential amp.       -0.1645 Ry
        Total length         46.3494 bohr

     End of self-consistent calculation

          k = 0.0000 0.0000 0.0000 ( 18029 PWs)   bands (ev):

   -55.6876 -55.6705 -55.6536 -55.6339 -55.5934 -55.5391 -55.5322 -55.5020
   -55.4961 -55.4680 -55.4659 -55.4318 -55.2592 -55.0359 -54.6679 -54.6338
   -32.2215 -32.1708 -32.0437 -32.0337 -32.0004 -31.9856 -31.9804 -31.9563
   -31.9316 -31.8997 -31.8974 -31.8911 -31.8480 -31.8399 -31.8260 -31.8242
   -31.8076 -31.7926 -31.7837 -31.7485 -31.7448 -31.7378 -31.7222 -31.7187
   -31.6956 -31.6912 -31.6886 -31.6809 -31.6665 -31.6646 -31.6569 -31.6478
   -31.6421 -31.6325 -31.6190 -31.6095 -31.5781 -31.5095 -31.4657 -31.3021
   -31.2927 -31.2384 -31.0751 -30.9866 -30.9642 -30.8919 -30.8054 -30.6943
   -16.7733 -16.4181 -16.1635 -15.9340 -15.8430 -15.8125 -15.6601 -15.5286
   -15.4192 -15.3374 -15.2524 -15.2335 -15.2264 -15.2154 -15.1894 -15.1836
   -15.1365 -15.1318 -15.1125 -15.0995 -15.0494 -15.0329 -15.0294 -14.9346
   -14.8706 -14.8354 -14.8208 -14.7860 -14.7486 -14.3349 -13.1702 -13.0538
   -11.8076  -8.9818  -5.4333  -4.3656  -3.8400  -3.7893  -3.6455  -3.5952
    -3.5347  -3.4950  -3.3181  -3.2158  -2.9430  -2.8857  -2.8565  -2.8473
    -2.7883  -2.7561  -2.6021  -2.5762  -2.5063  -2.4968  -2.4811  -2.4522
    -2.4449  -2.4371  -2.4034  -2.3772  -2.3481  -2.2442  -2.1056  -2.0958
    -2.0724  -2.0390  -2.0017  -1.9529  -1.9365  -1.9163  -1.8979  -1.8853
    -1.8726  -1.7376  -1.7027  -1.5867  -1.4968  -1.4493  -1.3696  -1.2996
    -1.2683  -1.1589  -1.1192  -1.1060  -1.0924  -1.0819  -0.9820  -0.8764
    -0.8591  -0.8213  -0.7663  -0.7104  -0.6397  -0.5949  -0.5439  -0.4917
    -0.4675  -0.4522  -0.4494  -0.4143  -0.3228  -0.1814  -0.1295  -0.0951
    -0.0728   0.0038   0.0389   0.0949   0.1196   0.1429   0.1788   0.2317
     0.2753   0.2817   0.2952   0.3098   0.3145   0.4888   0.5383   0.5801
     0.6134   0.6594   0.8206   0.8427   0.9644   1.0387   1.2013   1.2799
     1.3544   1.4323   1.5461   1.6220   1.9256   1.9713   3.4431   3.5306
     3.5754   3.5892   3.6845   3.7263   3.8960   3.9266   3.9409   4.0012

[...]

          k = 0.0380-0.0419 0.0000 ( 17876 PWs)   bands (ev):

[...]

          k =-0.0760-0.0000 0.0000 ( 17886 PWs)   bands (ev):

[...]

          k =-0.0760-0.0839 0.0000 ( 17948 PWs)   bands (ev):

   -55.6709 -55.6701 -55.6558 -55.6484 -55.5874 -55.5450 -55.5196 -55.5087
   -55.4855 -55.4840 -55.4519 -55.4461 -55.2581 -55.0370 -54.6508 -54.6508
   -32.0306 -32.0210 -31.9864 -31.9857 -31.9662 -31.9653 -31.9452 -31.9388
   -31.8860 -31.8854 -31.8751 -31.8698 -31.8529 -31.8350 -31.8104 -31.8056
   -31.8013 -31.7976 -31.7910 -31.7910 -31.7898 -31.7894 -31.7855 -31.7458
   -31.7376 -31.7261 -31.7178 -31.7066 -31.6859 -31.6850 -31.6829 -31.6761
   -31.6662 -31.6621 -31.6590 -31.6565 -31.6154 -31.5120 -31.4625 -31.3643
   -31.2948 -31.2645 -30.9769 -30.9768 -30.8879 -30.8878 -30.8487 -30.8486
   -16.7471 -15.8654 -15.8043 -15.6465 -15.6113 -15.5916 -15.5567 -15.4960
   -15.4128 -15.3857 -15.3811 -15.3339 -15.3082 -15.2754 -15.2373 -15.2228
   -15.2157 -15.1968 -15.1845 -15.1507 -15.1412 -15.1297 -15.1224 -15.0469
   -15.0093 -15.0049 -14.9994 -14.8958 -14.7693 -14.5029 -13.1556 -13.1555
   -11.8140  -8.9960  -5.4473  -4.3527  -3.7621  -3.1581  -3.0711  -2.8965
    -2.8408  -2.8120  -2.7961  -2.6307  -2.6176  -2.6045  -2.5549  -2.5370
    -2.5279  -2.5183  -2.5094  -2.4884  -2.4755  -2.4410  -2.4309  -2.3960
    -2.3816  -2.3638  -2.3469  -2.3301  -2.3101  -2.2967  -2.2811  -2.2387
    -2.2195  -2.2083  -2.1871  -2.1438  -1.9332  -1.8833  -1.8375  -1.8341
    -1.8228  -1.8037  -1.7486  -1.7436  -1.7095  -1.6585  -1.5797  -1.4349
    -1.3895  -1.3730  -1.2799  -1.2583  -1.2055  -1.1336  -1.0878  -1.0708
    -1.0360  -0.9717  -0.9358  -0.8981  -0.8318  -0.8072  -0.8013  -0.7075
    -0.6867  -0.6507  -0.6440  -0.5653  -0.5143  -0.4519  -0.4365  -0.4201
    -0.3884  -0.3550  -0.3369  -0.2689  -0.1769  -0.1758  -0.1530  -0.0437
     0.0470   0.2753   0.3380   0.3751   0.4199   0.5136   0.5820   0.6066
     0.6225   0.6441   0.6636   0.7116   0.8387   0.8488   0.8830   0.9960
     1.1000   1.6382   1.7179   1.7187   1.7911   1.7913   3.7448   3.7631
     3.7836   3.8300   3.9492   3.9562   3.9783   3.9805   4.1033   4.1162

     the Fermi energy is     3.4448 ev

!    total energy              =   -2941.66159039 Ry
     estimated scf accuracy    <       0.00000006 Ry
     smearing contrib. (-TS)   =      -0.02151697 Ry
     internal energy E=F+TS    =   -2941.64007342 Ry

     The total energy is F=E-TS. E is the sum of the following terms:
     one-electron contribution =  -24276.05530298 Ry
     hartree contribution      =   12228.48217698 Ry
     xc contribution           =    -486.87379758 Ry
     ewald contribution        =    9592.80518172 Ry
     electric field correction =       0.00166844 Ry

     convergence has been achieved in  68 iterations

     Forces acting on atoms (cartesian axes, Ry/au):

     atom    1 type  1   force =     0.00017813   -0.00011787    0.09634665
     atom    2 type  1   force =    -0.00021834   -0.00063087   -0.17551836
     atom    3 type  2   force =    -0.00004245   -0.00003689   -0.02420035
     atom    4 type  2   force =     0.00004870   -0.00143899    0.05291027
     atom    5 type  2   force =    -0.01181982   -0.00049449    0.00395932
     atom    6 type  2   force =     0.01313217    0.00023453    0.00229585
     atom    7 type  1   force =    -0.00140266    0.00080194   -0.01148678
     atom    8 type  1   force =     0.00053300    0.00920970    0.02522578
     atom    9 type  2   force =    -0.00010999    0.00017513    0.00037440
     atom   10 type  2   force =    -0.00086562    0.00148589   -0.01581009
     atom   11 type  2   force =    -0.00018106   -0.00049563    0.00039301
     atom   12 type  2   force =    -0.00013822   -0.00026327    0.00002707
     atom   13 type  1   force =     0.00054660   -0.00091955    0.00007836
     atom   14 type  1   force =    -0.00008075   -0.00040599    0.00024570
     atom   15 type  2   force =     0.00017527    0.00003655   -0.00030060
     atom   16 type  2   force =     0.00006935    0.00025058    0.00003840
     atom   17 type  2   force =    -0.00050248    0.00034450    0.00048399
     atom   18 type  2   force =     0.00009452    0.00010354    0.00027994
     atom   19 type  1   force =     0.00008614   -0.00055382    0.00027458
     atom   20 type  1   force =     0.00015833    0.00036634    0.00058159
     atom   21 type  2   force =     0.00007591   -0.00008174    0.10321259
     atom   22 type  2   force =    -0.00042743   -0.00025267    0.00028195
     atom   23 type  2   force =    -0.07148416   -0.00018217   -0.02770472
     atom   24 type  2   force =     0.07140437    0.00025071   -0.02770576
     atom   25 type  1   force =     0.00003099   -0.00027400    0.09580405
     atom   26 type  1   force =    -0.00014684   -0.00023663   -0.17569201
     atom   27 type  2   force =     0.00009197   -0.00012533   -0.02330460
     atom   28 type  2   force =     0.00007955   -0.00129613    0.05333215
     atom   29 type  2   force =    -0.01194960   -0.00005865    0.00375646
     atom   30 type  2   force =     0.01320004    0.00042870    0.00213282
     atom   31 type  1   force =    -0.00141570    0.00344552   -0.01081014
     atom   32 type  1   force =     0.00064267   -0.01009727    0.02563547
     atom   33 type  2   force =    -0.00039086    0.00004885    0.00003516
     atom   34 type  2   force =     0.00074826    0.00089805   -0.02308004
     atom   35 type  2   force =    -0.00009723    0.00029644   -0.00002833
     atom   36 type  2   force =    -0.00022897    0.00059966   -0.00029308
     atom   37 type  1   force =    -0.00082431   -0.00102089   -0.00013329
     atom   38 type  1   force =    -0.00002913   -0.00010078   -0.00003008
     atom   39 type  2   force =    -0.00035306    0.00004138    0.00056759
     atom   40 type  2   force =     0.00048988    0.00024549    0.00025473
     atom   41 type  2   force =     0.00006760    0.00050441    0.00026065
     atom   42 type  2   force =     0.00005980    0.00029040   -0.00020096
     atom   43 type  1   force =     0.00019140    0.00009166   -0.00017188
     atom   44 type  1   force =    -0.00026276   -0.00062654   -0.00003429
     atom   45 type  2   force =     0.00007017   -0.00008733    0.10324676
     atom   46 type  2   force =    -0.07148340   -0.00017069   -0.02770150
     atom   47 type  2   force =     0.07141283    0.00030410   -0.02771393
     atom   48 type  3   force =    -0.00061115   -0.00015182   -0.00020929
     atom   49 type  3   force =     0.00048885   -0.00020346    0.00038834
     atom   50 type  4   force =    -0.00118469   -0.00043955    0.00115192
     atom   51 type  5   force =     0.00105577   -0.00057479   -0.00025097
     atom   52 type  5   force =    -0.00020654    0.00164755   -0.00093524
     atom   53 type  5   force =     0.00154762   -0.00118000    0.00031294
     atom   54 type  5   force =     0.00005277    0.00068014   -0.00043640
     atom   55 type  5   force =    -0.00027542   -0.00026397   -0.00013577

     Total force =     0.367340     Total SCF correction =     0.000663
  @ DRIVER MODE: Message from server: STATUS
  @ DRIVER MODE: Message from server: GETFORCE
  @ DRIVER MODE: Returning v,forces,stress,ensemble

     Writing output data file ./calc.save/
  @ DRIVER MODE: Message from server: EXIT
  @ DRIVE MODE: Exiting

     General routines

     Parallel routines

   This run was terminated on:   7:57:59   9Sep2021

   JOB DONE.