     Program PWSCF v.6.7GPU starts on  9Sep2021 at  1:44:38

     R & G space division:  proc/nbgrp/npool/nimage =      10
     Reading input from /storage/home/hcoda1/3/ntian30/research/carbon/CxH_vib/CH2_calc/ads_slab/CH2N2H_a/out_0013/pw.inp
Warning: card &CELL ignored
Warning: card   CELL_DYNAMICS='IPI', ignored
Warning: card / ignored

     Current dimensions of program PWSCF are:
     Max number of different atomic species (ntypx) = 10
     Max number of k-points (npk) =  40000
     Max angular momentum in pseudopotentials (lmaxx) =  3
     Presently no symmetry can be used with electric field

     Message from routine cell_base_init:
     DEPRECATED: use true lattice parameter, not A to a.u. conversion factor

     IMPORTANT: XC functional enforced from input :
     Exchange-correlation= BEEF-VDW
                           (   1   4  43  14   2   0   0)
     Any further DFT definition will be discarded
     Please, verify this is what you really want

  @ DRIVER MODE: Connecting to
 qe_1139763_2767385.sched-torque.pace.gatech.eduqk9cq5m7_scratch
  using UNIX socket
  @ DRIVER MODE: Message from server: STATUS
  @ DRIVER MODE: Message from server: INIT
  @ DRIVER MODE: Receiving replica           0          -1
  @ DRIVER MODE: Receiving encoded integer          25
  @ DRIVER MODE:  SCF:  T  FORCE:  T  STRESS:  F  VC:  F  ENSEMBLE:  F
  @ DRIVER MODE:  SCF:  T  FORCE:  T  STRESS:  F  VC:  F  ENSEMBLE:  F

     Using Slab Decomposition

     bravais-lattice index     =            0
     lattice parameter (alat)  =       1.8897  a.u.
     unit-cell volume          =    6658.9804 (a.u.)^3
     number of atoms/cell      =           53
     number of atomic types    =            5
     number of electrons       =       395.00
     number of Kohn-Sham states=          207
     kinetic-energy cutoff     =      29.3995  Ry
     charge density cutoff     =     293.9946  Ry
     scf convergence threshold =      7.3E-08
     mixing beta               =       0.0500
     number of iterations used =            8  plain     mixing
     Exchange-correlation= BEEF-VDW
                           (   1   4  43  14   2   0   0)

     celldm(1)=   1.889726  celldm(2)=   0.000000  celldm(3)=   0.000000
     celldm(4)=   0.000000  celldm(5)=   0.000000  celldm(6)=   0.000000

     crystal axes: (cart. coord. in units of alat)
               a(1) = (   6.579727   0.000000   0.000000 )
               a(2) = (  -0.000775   5.961596   0.000000 )
               a(3) = (   0.000000   0.000000  25.155947 )

     reciprocal axes: (cart. coord. in units 2 pi/alat)
               b(1) = (  0.151982  0.000020  0.000000 )
               b(2) = (  0.000000  0.167740  0.000000 )
               b(3) = (  0.000000  0.000000  0.039752 )

     PseudoPot. # 1 for Ti read from file:
     /storage/coda1/p-amedford6/0/shared/rich_project_chbe-medford/medford-share/data/pseudos_module/espresso/nninc/pbe/van/Ti.UPF
     MD5 check sum: 8e4df49b7f0d34bbd5052bf3f5ea0213
     Pseudo is Ultrasoft, Zval = 12.0
     Generated by new atomic code, or converted to UPF format
     Using radial grid of  851 points,  6 beta functions with:
                l(1) =   0
                l(2) =   0
                l(3) =   1
                l(4) =   1
                l(5) =   2
                l(6) =   2
     Q(r) pseudized with  8 coefficients,  rinner =    1.000   1.000   1.000
                                                       1.000   1.000

     PseudoPot. # 2 for O  read from file:
     /storage/coda1/p-amedford6/0/shared/rich_project_chbe-medford/medford-share/data/pseudos_module/espresso/nninc/pbe/van/O.UPF
     MD5 check sum: 78c19812648e8988a0fe644b0f25305e
     Pseudo is Ultrasoft, Zval =  6.0
     Generated by new atomic code, or converted to UPF format
     Using radial grid of  737 points,  4 beta functions with:
                l(1) =   0
                l(2) =   0
                l(3) =   1
                l(4) =   1
     Q(r) pseudized with  8 coefficients,  rinner =    0.800   0.800   0.800

     PseudoPot. # 3 for N  read from file:
     /storage/coda1/p-amedford6/0/shared/rich_project_chbe-medford/medford-share/data/pseudos_module/espresso/nninc/pbe/van/N.UPF
     MD5 check sum: 90d10febe142ad51ac9d5be1deb811c4
     Pseudo is Ultrasoft, Zval =  5.0
     Generated by new atomic code, or converted to UPF format
     Using radial grid of  729 points,  4 beta functions with:
                l(1) =   0
                l(2) =   0
                l(3) =   1
                l(4) =   1
     Q(r) pseudized with  8 coefficients,  rinner =    0.800   0.800   0.800

     PseudoPot. # 4 for C  read from file:
     /storage/coda1/p-amedford6/0/shared/rich_project_chbe-medford/medford-share/data/pseudos_module/espresso/nninc/pbe/van/C.UPF
     MD5 check sum: 1a69bf6b8db32088f5b2163dbdb77a27
     Pseudo is Ultrasoft, Zval =  4.0
     Generated by new atomic code, or converted to UPF format
     Using radial grid of  721 points,  4 beta functions with:
                l(1) =   0
                l(2) =   0
                l(3) =   1
                l(4) =   1
     Q(r) pseudized with  8 coefficients,  rinner =    0.800   0.800   0.800

     PseudoPot. # 5 for H  read from file:
     /storage/coda1/p-amedford6/0/shared/rich_project_chbe-medford/medford-share/data/pseudos_module/espresso/nninc/pbe/van/H.UPF
     MD5 check sum: b5ee9d7bfd3a09ee7748110bda690ff7
     Pseudo is Ultrasoft, Zval =  1.0
     Generated by new atomic code, or converted to UPF format
     Using radial grid of  615 points,  1 beta functions with:
                l(1) =   0
     Q(r) pseudized with  8 coefficients,  rinner =    0.800

     atomic species   valence    mass     pseudopotential
        Ti1           12.00    47.86700     Ti( 1.00)
        O1             6.00    15.99900     O ( 1.00)
        N1             5.00    14.00700     N ( 1.00)
        C1             4.00    12.01100     C ( 1.00)
        H1             1.00     1.00800     H ( 1.00)

     No symmetry found

   Cartesian axes

     site n.     atom                  positions (alat units)
         1           Ti1 tau(   1) = (   0.0004258   2.9801865   6.0000000  )
         2           Ti1 tau(   2) = (   3.2906075   1.4906267   6.0002472  )
         3           O1  tau(   3) = (   0.0006271   0.0005054   7.9858123  )
         4           O1  tau(   4) = (   3.2906025   0.0005020   7.3038282  )
         5           O1  tau(   5) = (   4.5942328   1.4918067   9.2879030  )
         6           O1  tau(   6) = (   1.9868534   1.4903216   9.2879459  )
         7           Ti1 tau(   7) = (   3.2907910   2.8959150   9.1758416  )
         8           Ti1 tau(   8) = (   0.0015273   1.4827037   9.2680791  )
         9           O1  tau(   9) = (   3.3007851   0.0027079  11.3193151  )
        10           O1  tau(  10) = (   0.0116148   5.9584955  10.6183126  )
        11           O1  tau(  11) = (   1.3147357   1.5019762  12.6210215  )
        12           O1  tau(  12) = (   5.3120411   1.4917641  12.6342566  )
        13           Ti1 tau(  13) = (   6.5359925   2.9538565  12.6086018  )
        14           Ti1 tau(  14) = (   3.2189980   1.4905645  12.4770757  )
        15           O1  tau(  15) = (   0.0426301   5.9606301  14.6312846  )
        16           O1  tau(  16) = (   3.3149351   0.0098317  13.8848037  )
        17           O1  tau(  17) = (   4.5523768   1.5206755  16.0744300  )
        18           O1  tau(  18) = (   2.0715852   1.4807026  15.9918588  )
        19           Ti1 tau(  19) = (   3.2935730   2.9941335  15.6827836  )
        20           Ti1 tau(  20) = (   0.0200723   1.3023755  15.9747514  )
        21           O1  tau(  21) = (   3.2904802   0.0005063   4.7018136  )
        22           O1  tau(  22) = (   6.5179923   0.0002674  17.1556216  )
        23           O1  tau(  23) = (   1.3043587   1.4918075   6.0039043  )
        24           O1  tau(  24) = (   5.2767064   1.4903225   6.0039473  )
        25           Ti1 tau(  25) = (   0.0000382   5.9609847   6.0000000  )
        26           Ti1 tau(  26) = (   3.2902200   4.4714249   6.0002472  )
        27           O1  tau(  27) = (   0.0002396   2.9813036   7.9858123  )
        28           O1  tau(  28) = (   3.2902150   2.9813002   7.3038282  )
        29           O1  tau(  29) = (   4.5938453   4.4726049   9.2879030  )
        30           O1  tau(  30) = (   1.9864658   4.4711199   9.2879459  )
        31           Ti1 tau(  31) = (   3.2891106   5.8743827   9.1763621  )
        32           Ti1 tau(  32) = (   0.0006254   4.4649316   9.2693709  )
        33           O1  tau(  33) = (   3.3053585   2.9833221  11.3185053  )
        34           O1  tau(  34) = (   0.0092240   2.9805883  10.6323155  )
        35           O1  tau(  35) = (   1.3157767   4.4721532  12.6203727  )
        36           O1  tau(  36) = (   5.3104355   4.4689601  12.6331991  )
        37           Ti1 tau(  37) = (   6.5385524   5.9338372  12.5465384  )
        38           Ti1 tau(  38) = (   3.2200853   4.4710709  12.4725482  )
        39           O1  tau(  39) = (   0.0068575   2.9964749  14.7765288  )
        40           O1  tau(  40) = (   3.3021705   2.9848394  13.8818356  )
        41           O1  tau(  41) = (   4.5334443   4.4765196  15.9883447  )
        42           O1  tau(  42) = (   2.0816803   4.4801587  16.0471567  )
        43           Ti1 tau(  43) = (   3.3155128   0.0116264  15.6901768  )
        44           Ti1 tau(  44) = (   6.5575601   4.4671909  15.9479714  )
        45           O1  tau(  45) = (   3.2900926   2.9813045   4.7018136  )
        46           O1  tau(  46) = (   1.3039711   4.4726057   6.0039043  )
        47           O1  tau(  47) = (   5.2763189   4.4711207   6.0039473  )
        48           N1  tau(  48) = (   0.4270260   2.3853988  17.9668900  )
        49           C1  tau(  49) = (   0.9469377   1.9340014  19.0583692  )
        50           H1  tau(  50) = (   1.0689317   2.5769861  19.9249762  )
        51           H1  tau(  51) = (   1.2326487   0.8959138  19.0941702  )
        52           N1  tau(  52) = (   0.0025679   3.6232397  17.7996529  )
        53           H1  tau(  53) = (   0.1020252   4.2324666  18.6151602  )

     number of k points=    10  Fermi-Dirac smearing, width (Ry)=  0.0073
                       cart. coord. in units 2pi/alat
        k(    1) = (   0.0000000   0.0000000   0.0000000), wk =   0.1250000
        k(    2) = (   0.0000000   0.0419351   0.0000000), wk =   0.2500000
        k(    3) = (   0.0000000  -0.0838702   0.0000000), wk =   0.1250000
        k(    4) = (   0.0379955   0.0000049   0.0000000), wk =   0.2500000
        k(    5) = (   0.0379955   0.0419400   0.0000000), wk =   0.2500000
        k(    6) = (   0.0379955  -0.0838652   0.0000000), wk =   0.2500000
        k(    7) = (   0.0379955  -0.0419301   0.0000000), wk =   0.2500000
        k(    8) = (  -0.0759910  -0.0000099   0.0000000), wk =   0.1250000
        k(    9) = (  -0.0759910   0.0419252   0.0000000), wk =   0.2500000
        k(   10) = (  -0.0759910  -0.0838800   0.0000000), wk =   0.1250000

     Initial potential from superposition of free atoms

     starting charge  378.99916, renormalised to  395.00000

     negative rho (up, down):  1.649E-02 0.000E+00

     %%%%%%%%%%%%%%%%%%%%%%%%%%%%%%%%%%%%%%%%%%%%%%%%%%%%%%%%%%%%%%%%%%%%%%%%
     %                                                                      %
     % You are using vdW-DF, which was implemented by the Thonhauser group. %
     % Please cite the following two papers that made this development      %
     % possible and the two reviews that describe the various versions:     %
     %                                                                      %
     %   T. Thonhauser et al., PRL 115, 136402 (2015).                      %
     %   T. Thonhauser et al., PRB 76, 125112 (2007).                       %
     %   K. Berland et al., Rep. Prog. Phys. 78, 066501 (2015).             %
     %   D.C. Langreth et al., J. Phys.: Condens. Matter 21, 084203 (2009). %
     %                                                                      %
     %                                                                      %
     % If you are calculating the stress with vdW-DF, please also cite:     %
     %                                                                      %
     %   R. Sabatini et al., J. Phys.: Condens. Matter 24, 424209 (2012).   %
     %                                                                      %
     %%%%%%%%%%%%%%%%%%%%%%%%%%%%%%%%%%%%%%%%%%%%%%%%%%%%%%%%%%%%%%%%%%%%%%%%

     Adding external electric field

     Computed dipole along edir(3) :
        Dipole               -8.3970 Ry au,        -21.3430 Debye
        Dipole field         -0.0158 Ry au,

        Potential amp.        1.4689 Ry
        Total length         46.3494 bohr

     Starting wfcs are  299 atomic wfcs
  @ DRIVER MODE: Message from server: STATUS
  @ DRIVER MODE: Message from server: POSDATA
  @ DRIVER MODE: Reading and sharing cell
  @ DRIVER MODE: Reading and sharing positions
  @ DRIVER MODE: Received positions

     Self-consistent Calculation

     iteration #  1     ecut=    29.40 Ry     beta= 0.05
     Davidson diagonalization with overlap
     c_bands:  2 eigenvalues not converged
     c_bands:  1 eigenvalues not converged
     c_bands:  2 eigenvalues not converged
     c_bands:  3 eigenvalues not converged
     c_bands:  3 eigenvalues not converged
     c_bands:  2 eigenvalues not converged
     c_bands:  1 eigenvalues not converged
     ethr =  1.00E-05,  avg # of iterations = 19.3

[...]

     total energy              =   -2613.94200089 Ry
     estimated scf accuracy    <    3601.32700535 Ry

[...]

     iteration #  3     ecut=    29.40 Ry     beta= 0.05
     Davidson diagonalization with overlap
     ethr =  1.00E-02,  avg # of iterations = 14.1

[...]

     iteration # 63     ecut=    29.40 Ry     beta= 0.05
     Davidson diagonalization with overlap
     c_bands:  1 eigenvalues not converged
     ethr =  7.52E-11,  avg # of iterations = 16.4

[...]

     total energy              =   -2939.13539774 Ry
     estimated scf accuracy    <       0.00000037 Ry

     iteration # 65     ecut=    29.40 Ry     beta= 0.05
     Davidson diagonalization with overlap
     ethr =  7.52E-11,  avg # of iterations = 10.5

     negative rho (up, down):  1.681E-02 0.000E+00

     Adding external electric field

     Computed dipole along edir(3) :
        Dipole                0.7883 Ry au,          2.0035 Debye
        Dipole field          0.0015 Ry au,

        Potential amp.       -0.1379 Ry
        Total length         46.3494 bohr

     End of self-consistent calculation

          k = 0.0000 0.0000 0.0000 ( 18029 PWs)   bands (ev):

   -55.8521 -55.8511 -55.8181 -55.8150 -55.7454 -55.7023 -55.6646 -55.6629
   -55.6297 -55.6289 -55.6243 -55.5906 -55.1899 -55.1440 -54.8279 -54.7938
   -32.4052 -32.3350 -32.2411 -32.1628 -32.1489 -32.1443 -32.1306 -32.1160
   -32.0952 -32.0821 -32.0292 -32.0113 -32.0045 -32.0028 -31.9928 -31.9892
   -31.9569 -31.9452 -31.9392 -31.9365 -31.9095 -31.9071 -31.8914 -31.8892
   -31.8584 -31.8542 -31.8520 -31.8509 -31.8258 -31.8107 -31.8032 -31.7930
   -31.7811 -31.7788 -31.7711 -31.7377 -31.7311 -31.4542 -31.4170 -31.3897
   -31.3373 -31.3021 -31.2347 -31.1470 -31.1245 -31.0517 -30.9652 -30.8539
   -17.9124 -16.6115 -16.3313 -16.0758 -16.0006 -15.9969 -15.8633 -15.7004
   -15.5877 -15.5207 -15.4405 -15.4107 -15.3884 -15.3531 -15.3468 -15.3091
   -15.3003 -15.2746 -15.2710 -15.2089 -15.2054 -15.1982 -15.1884 -15.1043
   -15.0465 -14.9951 -14.9871 -14.9140 -14.8798 -14.3520 -13.3297 -13.2133
   -12.1632  -7.8751  -5.3624  -4.5447  -3.9883  -3.8290  -3.7590  -3.7248
    -3.6479  -3.4884  -3.4096  -3.1276  -3.0789  -3.0233  -3.0138  -2.9774
    -2.9326  -2.7809  -2.7033  -2.6765  -2.6608  -2.6385  -2.6235  -2.6114
    -2.5953  -2.5762  -2.4952  -2.4139  -2.3699  -2.2931  -2.2795  -2.2444
    -2.1644  -2.1638  -2.1240  -2.1036  -2.0855  -2.0693  -2.0607  -2.0456
    -1.9054  -1.8492  -1.8342  -1.6537  -1.6374  -1.5879  -1.4615  -1.4549
    -1.3382  -1.3230  -1.2827  -1.2448  -1.1723  -1.1506  -1.0391  -0.9978
    -0.9362  -0.8891  -0.8740  -0.7981  -0.7335  -0.6954  -0.6822  -0.6168
    -0.6099  -0.5969  -0.4623  -0.3855  -0.3323  -0.2765  -0.2541  -0.1982
    -0.1586  -0.1153  -0.0280  -0.0009   0.0109   0.0691   0.0908   0.1163
     0.1280   0.1476   0.1767   0.2320   0.3502   0.3817   0.4578   0.4721
     0.5329   0.6669   0.8050   0.8721   0.9248   1.0212   1.1255   1.1950
     1.2683   1.3874   1.7652   1.8107   2.1369   3.2676   3.3695   3.4024
     3.4133   3.5164   3.6652   3.7267   3.7418   3.7831   3.8170

[...]

          k = 0.0380-0.0419 0.0000 ( 17876 PWs)   bands (ev):

[...]

          k =-0.0760-0.0000 0.0000 ( 17886 PWs)   bands (ev):

[...]

          k =-0.0760-0.0839 0.0000 ( 17948 PWs)   bands (ev):

   -55.8352 -55.8348 -55.8335 -55.8323 -55.7368 -55.7109 -55.6479 -55.6463
   -55.6462 -55.6452 -55.6081 -55.6069 -55.1820 -55.1517 -54.8109 -54.8106
   -32.2074 -32.2057 -32.1504 -32.1501 -32.1298 -32.1295 -32.0959 -32.0930
   -32.0838 -32.0672 -32.0016 -31.9988 -31.9934 -31.9915 -31.9696 -31.9620
   -31.9550 -31.9545 -31.9495 -31.9482 -31.9463 -31.9347 -31.9289 -31.9221
   -31.9101 -31.9051 -31.8602 -31.8499 -31.8481 -31.8473 -31.8390 -31.8383
   -31.8251 -31.8244 -31.8239 -31.8226 -31.6838 -31.4496 -31.4158 -31.4114
   -31.3932 -31.3383 -31.1374 -31.1371 -31.0476 -31.0473 -31.0086 -31.0084
   -17.8989 -16.0266 -16.0238 -15.8161 -15.7772 -15.7580 -15.7522 -15.6624
   -15.5767 -15.5430 -15.5400 -15.4531 -15.4269 -15.4109 -15.3947 -15.3893
   -15.3804 -15.3508 -15.3158 -15.3083 -15.2941 -15.2885 -15.2765 -15.2198
   -15.1684 -15.1642 -15.1417 -15.0697 -14.8308 -14.6921 -13.3152 -13.3151
   -12.1240  -7.8156  -5.4076  -4.6049  -3.3211  -3.3116  -3.0653  -3.0224
    -3.0181  -2.9916  -2.9502  -2.7893  -2.7768  -2.7574  -2.7496  -2.7049
    -2.6813  -2.6609  -2.6414  -2.6362  -2.6072  -2.5811  -2.5660  -2.5291
    -2.5221  -2.5133  -2.4816  -2.4708  -2.4244  -2.4188  -2.3983  -2.3707
    -2.3613  -2.3275  -2.1804  -2.1069  -2.0788  -1.9939  -1.9870  -1.9475
    -1.9247  -1.9029  -1.8972  -1.8680  -1.8303  -1.6941  -1.6115  -1.5499
    -1.5412  -1.4567  -1.4291  -1.3675  -1.2777  -1.2521  -1.2313  -1.1596
    -1.0840  -1.0457  -0.9947  -0.9814  -0.9138  -0.9050  -0.8474  -0.8104
    -0.8084  -0.7317  -0.7014  -0.6541  -0.6176  -0.6008  -0.5779  -0.5513
    -0.5356  -0.5125  -0.4369  -0.3524  -0.3008  -0.2397  -0.1471  -0.0173
     0.1026   0.2154   0.2373   0.2816   0.3343   0.3685   0.4618   0.4656
     0.5291   0.5522   0.5937   0.6712   0.6825   0.7069   0.8180   0.8491
     1.5595   1.5599   1.6306   1.6307   2.0774   3.5904   3.6192   3.6383
     3.6700   3.7995   3.8055   3.8160   3.8168   3.9532   3.9548

     the Fermi energy is     3.2774 ev

!    total energy              =   -2939.13543504 Ry
     estimated scf accuracy    <       0.00000006 Ry
     smearing contrib. (-TS)   =      -0.02098989 Ry
     internal energy E=F+TS    =   -2939.11444516 Ry

     The total energy is F=E-TS. E is the sum of the following terms:
     one-electron contribution =  -24492.38595769 Ry
     hartree contribution      =   12334.15198436 Ry
     xc contribution           =    -485.37159608 Ry
     ewald contribution        =    9704.48995170 Ry
     electric field correction =       0.00117255 Ry

     convergence has been achieved in  65 iterations

     Forces acting on atoms (cartesian axes, Ry/au):

     atom    1 type  1   force =     0.00007706   -0.00024021    0.09637134
     atom    2 type  1   force =     0.00005367   -0.00056589   -0.17512518
     atom    3 type  2   force =     0.00015050   -0.00012927   -0.02408731
     atom    4 type  2   force =    -0.00000398   -0.00124879    0.05220881
     atom    5 type  2   force =    -0.01055833   -0.00047886    0.00251025
     atom    6 type  2   force =     0.01237656    0.00022101    0.00288398
     atom    7 type  1   force =     0.00098276    0.00026848   -0.01175398
     atom    8 type  1   force =    -0.00013911    0.00774940    0.02262671
     atom    9 type  2   force =    -0.00019827   -0.00015312   -0.00027155
     atom   10 type  2   force =    -0.00262339    0.00115497   -0.01267814
     atom   11 type  2   force =     0.00005397   -0.00012628    0.00005871
     atom   12 type  2   force =     0.00010507    0.00017926   -0.00038032
     atom   13 type  1   force =     0.00044013   -0.00034807    0.00024007
     atom   14 type  1   force =     0.00015268    0.00032147   -0.00013288
     atom   15 type  2   force =    -0.00022947    0.00011568    0.00003541
     atom   16 type  2   force =     0.00011284   -0.00021561    0.00033284
     atom   17 type  2   force =     0.00049937   -0.00002109    0.00036535
     atom   18 type  2   force =     0.00070399   -0.00019262    0.00024076
     atom   19 type  1   force =    -0.00119677   -0.00004081    0.00020643
     atom   20 type  1   force =     0.00035668   -0.00035267   -0.00055604
     atom   21 type  2   force =     0.00004725    0.00000234    0.10310465
     atom   22 type  2   force =     0.00014366   -0.00027052   -0.00002133
     atom   23 type  2   force =    -0.07161652   -0.00015473   -0.02764601
     atom   24 type  2   force =     0.07155662    0.00034414   -0.02770858
     atom   25 type  1   force =     0.00015426   -0.00023358    0.09589996
     atom   26 type  1   force =     0.00010109   -0.00041178   -0.17539038
     atom   27 type  2   force =     0.00017732   -0.00021501   -0.02291702
     atom   28 type  2   force =     0.00006492   -0.00101176    0.05216871
     atom   29 type  2   force =    -0.01086085    0.00048306    0.00243183
     atom   30 type  2   force =     0.01255719    0.00064437    0.00278216
     atom   31 type  1   force =     0.00087087    0.00348929   -0.01293166
     atom   32 type  1   force =     0.00002859   -0.00926114    0.02305736
     atom   33 type  2   force =    -0.00048375    0.00013526    0.00023168
     atom   34 type  2   force =    -0.00302440    0.00022733   -0.01290413
     atom   35 type  2   force =     0.00007872    0.00009269   -0.00007701
     atom   36 type  2   force =     0.00011440    0.00033967   -0.00039304
     atom   37 type  1   force =     0.00033742    0.00036587    0.00008499
     atom   38 type  1   force =     0.00002408   -0.00042464    0.00016374
     atom   39 type  2   force =     0.00015391    0.00044498    0.00053306
     atom   40 type  2   force =     0.00035530    0.00013532   -0.00039661
     atom   41 type  2   force =     0.00043261    0.00003952    0.00027837
     atom   42 type  2   force =     0.00091371    0.00003337    0.00050678
     atom   43 type  1   force =    -0.00157057   -0.00034994   -0.00035853
     atom   44 type  1   force =     0.00070577   -0.00029106   -0.00080628
     atom   45 type  2   force =     0.00005808   -0.00004236    0.10308337
     atom   46 type  2   force =    -0.07164217   -0.00007102   -0.02766000
     atom   47 type  2   force =     0.07158493    0.00033077   -0.02772996
     atom   48 type  3   force =    -0.00016571   -0.00111414   -0.00112663
     atom   49 type  4   force =    -0.00220455   -0.00036396   -0.00132641
     atom   50 type  5   force =     0.00003893    0.00108743    0.00207717
     atom   51 type  5   force =     0.00057464   -0.00043876    0.00040701
     atom   52 type  3   force =    -0.00044274    0.00055953   -0.00132093
     atom   53 type  5   force =    -0.00017901    0.00000249    0.00080843

     Total force =     0.365723     Total SCF correction =     0.000500
  @ DRIVER MODE: Message from server: STATUS
  @ DRIVER MODE: Message from server: GETFORCE
  @ DRIVER MODE: Returning v,forces,stress,ensemble

     Writing output data file ./calc.save/
  @ DRIVER MODE: Message from server: EXIT
  @ DRIVE MODE: Exiting

     General routines

     Parallel routines

   This run was terminated on:   2: 0:52   9Sep2021

   JOB DONE.