     Program PWSCF v.6.7GPU starts on  8Sep2021 at 22:10: 1

     R & G space division:  proc/nbgrp/npool/nimage =      10
     Reading input from /storage/home/hcoda1/3/ntian30/research/carbon/CxH_vib/C_calc/ads_slab/CN_a/out_0001/pw.inp
Warning: card &CELL ignored
Warning: card   CELL_DYNAMICS='IPI', ignored
Warning: card / ignored

     Current dimensions of program PWSCF are:
     Max number of different atomic species (ntypx) = 10
     Max number of k-points (npk) =  40000
     Max angular momentum in pseudopotentials (lmaxx) =  3
     Presently no symmetry can be used with electric field

     Message from routine cell_base_init:
     DEPRECATED: use true lattice parameter, not A to a.u. conversion factor

     IMPORTANT: XC functional enforced from input :
     Exchange-correlation= BEEF-VDW
                           (   1   4  43  14   2   0   0)
     Any further DFT definition will be discarded
     Please, verify this is what you really want

  @ DRIVER MODE: Connecting to
 qe_1139763_2767374.sched-torque.pace.gatech.edutjyse9hx_scratch
  using UNIX socket
  @ DRIVER MODE: Message from server: STATUS
  @ DRIVER MODE: Message from server: INIT
  @ DRIVER MODE: Receiving replica           0          -1
  @ DRIVER MODE: Receiving encoded integer          25
  @ DRIVER MODE:  SCF:  T  FORCE:  T  STRESS:  F  VC:  F  ENSEMBLE:  F
  @ DRIVER MODE:  SCF:  T  FORCE:  T  STRESS:  F  VC:  F  ENSEMBLE:  F

     Using Slab Decomposition

     bravais-lattice index     =            0
     lattice parameter (alat)  =       1.8897  a.u.
     unit-cell volume          =    6658.9804 (a.u.)^3
     number of atoms/cell      =           49
     number of atomic types    =            4
     number of electrons       =       387.00
     number of Kohn-Sham states=          203
     kinetic-energy cutoff     =      29.3995  Ry
     charge density cutoff     =     293.9946  Ry
     scf convergence threshold =      7.3E-08
     mixing beta               =       0.0500
     number of iterations used =            8  plain     mixing
     Exchange-correlation= BEEF-VDW
                           (   1   4  43  14   2   0   0)

     celldm(1)=   1.889726  celldm(2)=   0.000000  celldm(3)=   0.000000
     celldm(4)=   0.000000  celldm(5)=   0.000000  celldm(6)=   0.000000

     crystal axes: (cart. coord. in units of alat)
               a(1) = (   6.579727   0.000000   0.000000 )
               a(2) = (  -0.000775   5.961596   0.000000 )
               a(3) = (   0.000000   0.000000  25.155947 )

     reciprocal axes: (cart. coord. in units 2 pi/alat)
               b(1) = (  0.151982  0.000020  0.000000 )
               b(2) = (  0.000000  0.167740  0.000000 )
               b(3) = (  0.000000  0.000000  0.039752 )

     PseudoPot. # 1 for Ti read from file:
     /storage/coda1/p-amedford6/0/shared/rich_project_chbe-medford/medford-share/data/pseudos_module/espresso/nninc/pbe/van/Ti.UPF
     MD5 check sum: 8e4df49b7f0d34bbd5052bf3f5ea0213
     Pseudo is Ultrasoft, Zval = 12.0
     Generated by new atomic code, or converted to UPF format
     Using radial grid of  851 points,  6 beta functions with:
                l(1) =   0
                l(2) =   0
                l(3) =   1
                l(4) =   1
                l(5) =   2
                l(6) =   2
     Q(r) pseudized with  8 coefficients,  rinner =    1.000   1.000   1.000
                                                       1.000   1.000

     PseudoPot. # 2 for O  read from file:
     /storage/coda1/p-amedford6/0/shared/rich_project_chbe-medford/medford-share/data/pseudos_module/espresso/nninc/pbe/van/O.UPF
     MD5 check sum: 78c19812648e8988a0fe644b0f25305e
     Pseudo is Ultrasoft, Zval =  6.0
     Generated by new atomic code, or converted to UPF format
     Using radial grid of  737 points,  4 beta functions with:
                l(1) =   0
                l(2) =   0
                l(3) =   1
                l(4) =   1
     Q(r) pseudized with  8 coefficients,  rinner =    0.800   0.800   0.800

     PseudoPot. # 3 for N  read from file:
     /storage/coda1/p-amedford6/0/shared/rich_project_chbe-medford/medford-share/data/pseudos_module/espresso/nninc/pbe/van/N.UPF
     MD5 check sum: 90d10febe142ad51ac9d5be1deb811c4
     Pseudo is Ultrasoft, Zval =  5.0
     Generated by new atomic code, or converted to UPF format
     Using radial grid of  729 points,  4 beta functions with:
                l(1) =   0
                l(2) =   0
                l(3) =   1
                l(4) =   1
     Q(r) pseudized with  8 coefficients,  rinner =    0.800   0.800   0.800

     PseudoPot. # 4 for C  read from file:
     /storage/coda1/p-amedford6/0/shared/rich_project_chbe-medford/medford-share/data/pseudos_module/espresso/nninc/pbe/van/C.UPF
     MD5 check sum: 1a69bf6b8db32088f5b2163dbdb77a27
     Pseudo is Ultrasoft, Zval =  4.0
     Generated by new atomic code, or converted to UPF format
     Using radial grid of  721 points,  4 beta functions with:
                l(1) =   0
                l(2) =   0
                l(3) =   1
                l(4) =   1
     Q(r) pseudized with  8 coefficients,  rinner =    0.800   0.800   0.800

     atomic species   valence    mass     pseudopotential
        Ti1           12.00    47.86700     Ti( 1.00)
        O1             6.00    15.99900     O ( 1.00)
        N1             5.00    14.00700     N ( 1.00)
        C1             4.00    12.01100     C ( 1.00)

     No symmetry found

   Cartesian axes

     site n.     atom                  positions (alat units)
         1           Ti1 tau(   1) = (   0.0004258   2.9801865   6.0000000  )
         2           Ti1 tau(   2) = (   3.2906075   1.4906267   6.0002472  )
         3           O1  tau(   3) = (   0.0006271   0.0005054   7.9858123  )
         4           O1  tau(   4) = (   3.2906025   0.0005020   7.3038282  )
         5           O1  tau(   5) = (   4.5942328   1.4918067   9.2879030  )
         6           O1  tau(   6) = (   1.9868534   1.4903216   9.2879459  )
         7           Ti1 tau(   7) = (   3.2907910   2.8959150   9.1758416  )
         8           Ti1 tau(   8) = (   0.0015273   1.4827037   9.2680791  )
         9           O1  tau(   9) = (   3.2906544   5.9526486  11.3360365  )
        10           O1  tau(  10) = (   0.0116148   5.9584955  10.6183126  )
        11           O1  tau(  11) = (   1.2859751   1.4766153  12.6250921  )
        12           O1  tau(  12) = (   5.2747213   1.4793106  12.6166009  )
        13           Ti1 tau(  13) = (   0.0603843   2.9584451  12.6427671  )
        14           Ti1 tau(  14) = (   3.3778536   1.4756059  12.4863933  )
        15           O1  tau(  15) = (   6.5752277   0.0194043  14.6532461  )
        16           O1  tau(  16) = (   3.2875826   0.0023437  13.9196692  )
        17           O1  tau(  17) = (   4.5326611   1.5140167  16.0393429  )
        18           O1  tau(  18) = (   2.0377802   1.5105360  16.0392308  )
        19           Ti1 tau(  19) = (   3.2776205   2.9998382  15.7112304  )
        20           Ti1 tau(  20) = (   6.5636215   1.4772787  15.8536107  )
        21           O1  tau(  21) = (   3.2904802   0.0005063   4.7018136  )
        22           O1  tau(  22) = (   6.5677839   0.0282815  17.1640259  )
        23           O1  tau(  23) = (   1.3043587   1.4918075   6.0039043  )
        24           O1  tau(  24) = (   5.2767064   1.4903225   6.0039473  )
        25           Ti1 tau(  25) = (   0.0000382   5.9609847   6.0000000  )
        26           Ti1 tau(  26) = (   3.2902200   4.4714249   6.0002472  )
        27           O1  tau(  27) = (   0.0002396   2.9813036   7.9858123  )
        28           O1  tau(  28) = (   3.2902150   2.9813002   7.3038282  )
        29           O1  tau(  29) = (   4.5938453   4.4726049   9.2879030  )
        30           O1  tau(  30) = (   1.9864658   4.4711199   9.2879459  )
        31           Ti1 tau(  31) = (   3.2891106   5.8743827   9.1763621  )
        32           Ti1 tau(  32) = (   0.0006254   4.4649316   9.2693709  )
        33           O1  tau(  33) = (   3.2934253   2.9766276  11.3360394  )
        34           O1  tau(  34) = (   0.0092240   2.9805883  10.6323155  )
        35           O1  tau(  35) = (   1.2837843   4.4682058  12.6378402  )
        36           O1  tau(  36) = (   5.2794199   4.4724371  12.6287280  )
        37           Ti1 tau(  37) = (   0.0629162   5.9364049  12.5278104  )
        38           Ti1 tau(  38) = (   3.3790601   4.4565194  12.4925032  )
        39           O1  tau(  39) = (   6.5767340   2.9373485  14.6650829  )
        40           O1  tau(  40) = (   3.2863475   2.9847055  13.9098935  )
        41           O1  tau(  41) = (   4.5306188   4.4848726  16.0532295  )
        42           O1  tau(  42) = (   2.0355158   4.4881816  16.0516428  )
        43           Ti1 tau(  43) = (   3.2786155   0.0182257  15.7221571  )
        44           Ti1 tau(  44) = (   6.5667443   4.6373684  16.0773964  )
        45           O1  tau(  45) = (   3.2900926   2.9813045   4.7018136  )
        46           O1  tau(  46) = (   1.3039711   4.4726057   6.0039043  )
        47           O1  tau(  47) = (   5.2763189   4.4711207   6.0039473  )
        48           N1  tau(  48) = (   6.5721710   2.9903893  17.4749376  )
        49           C1  tau(  49) = (   0.0264708   2.9368645  18.6621426  )

     number of k points=    10  Fermi-Dirac smearing, width (Ry)=  0.0073
                       cart. coord. in units 2pi/alat
        k(    1) = (   0.0000000   0.0000000   0.0000000), wk =   0.1250000
        k(    2) = (   0.0000000   0.0419351   0.0000000), wk =   0.2500000
        k(    3) = (   0.0000000  -0.0838702   0.0000000), wk =   0.1250000
        k(    4) = (   0.0379955   0.0000049   0.0000000), wk =   0.2500000
        k(    5) = (   0.0379955   0.0419400   0.0000000), wk =   0.2500000
        k(    6) = (   0.0379955  -0.0838652   0.0000000), wk =   0.2500000
        k(    7) = (   0.0379955  -0.0419301   0.0000000), wk =   0.2500000
        k(    8) = (  -0.0759910  -0.0000099   0.0000000), wk =   0.1250000
        k(    9) = (  -0.0759910   0.0419252   0.0000000), wk =   0.2500000
        k(   10) = (  -0.0759910  -0.0838800   0.0000000), wk =   0.1250000

     Initial potential from superposition of free atoms

     starting charge  370.99920, renormalised to  387.00000

     negative rho (up, down):  2.000E-02 0.000E+00

     %%%%%%%%%%%%%%%%%%%%%%%%%%%%%%%%%%%%%%%%%%%%%%%%%%%%%%%%%%%%%%%%%%%%%%%%
     %                                                                      %
     % You are using vdW-DF, which was implemented by the Thonhauser group. %
     % Please cite the following two papers that made this development      %
     % possible and the two reviews that describe the various versions:     %
     %                                                                      %
     %   T. Thonhauser et al., PRL 115, 136402 (2015).                      %
     %   T. Thonhauser et al., PRB 76, 125112 (2007).                       %
     %   K. Berland et al., Rep. Prog. Phys. 78, 066501 (2015).             %
     %   D.C. Langreth et al., J. Phys.: Condens. Matter 21, 084203 (2009). %
     %                                                                      %
     %                                                                      %
     % If you are calculating the stress with vdW-DF, please also cite:     %
     %                                                                      %
     %   R. Sabatini et al., J. Phys.: Condens. Matter 24, 424209 (2012).   %
     %                                                                      %
     %%%%%%%%%%%%%%%%%%%%%%%%%%%%%%%%%%%%%%%%%%%%%%%%%%%%%%%%%%%%%%%%%%%%%%%%

     Adding external electric field

     Computed dipole along edir(3) :
        Dipole               -3.3355 Ry au,         -8.4779 Debye
        Dipole field         -0.0063 Ry au,

        Potential amp.        0.5835 Ry
        Total length         46.3494 bohr

     Starting wfcs are  292 atomic wfcs
  @ DRIVER MODE: Message from server: STATUS
  @ DRIVER MODE: Message from server: POSDATA
  @ DRIVER MODE: Reading and sharing cell
  @ DRIVER MODE: Reading and sharing positions
  @ DRIVER MODE: Received positions

     Self-consistent Calculation

     iteration #  1     ecut=    29.40 Ry     beta= 0.05
     Davidson diagonalization with overlap
     c_bands:  2 eigenvalues not converged
     c_bands:  3 eigenvalues not converged
     c_bands:  1 eigenvalues not converged
     c_bands:  5 eigenvalues not converged
     c_bands:  1 eigenvalues not converged
     c_bands:  4 eigenvalues not converged
     ethr =  1.00E-05,  avg # of iterations = 18.6

[...]

     total energy              =   -2906.85807059 Ry
     estimated scf accuracy    <     123.37791776 Ry

[...]

     iteration #  4     ecut=    29.40 Ry     beta= 0.05
     Davidson diagonalization with overlap
     ethr =  1.00E-02,  avg # of iterations =  2.3

[...]

     iteration # 56     ecut=    29.40 Ry     beta= 0.05
     Davidson diagonalization with overlap
     c_bands:  1 eigenvalues not converged
     ethr =  1.05E-09,  avg # of iterations = 14.9

[...]

     total energy              =   -2915.40629776 Ry
     estimated scf accuracy    <       0.00000009 Ry

     iteration # 67     ecut=    29.40 Ry     beta= 0.05
     Davidson diagonalization with overlap
     ethr =  2.30E-11,  avg # of iterations =  6.8

     negative rho (up, down):  1.872E-02 0.000E+00

     Adding external electric field

     Computed dipole along edir(3) :
        Dipole               -0.2919 Ry au,         -0.7420 Debye
        Dipole field         -0.0006 Ry au,

        Potential amp.        0.0511 Ry
        Total length         46.3494 bohr

     End of self-consistent calculation

          k = 0.0000 0.0000 0.0000 ( 18029 PWs)   bands (ev):

   -56.6727 -56.6602 -56.6386 -56.6239 -56.5383 -56.5265 -56.5035 -56.4912
   -56.4822 -56.4502 -56.4481 -56.4163 -56.4144 -56.1990 -55.6522 -55.6182
   -33.2114 -33.1556 -33.0263 -32.9994 -32.9820 -32.9676 -32.9652 -32.9405
   -32.9156 -32.8864 -32.8833 -32.8656 -32.8598 -32.8388 -32.8248 -32.8129
   -32.7973 -32.7823 -32.7775 -32.7657 -32.7432 -32.7303 -32.7297 -32.6816
   -32.6813 -32.6748 -32.6744 -32.6715 -32.6695 -32.6513 -32.6403 -32.6320
   -32.6243 -32.6171 -32.6148 -32.6091 -32.6031 -32.5854 -32.5619 -32.4445
   -32.4234 -32.4054 -32.0594 -31.9709 -31.9485 -31.8761 -31.7896 -31.6786
   -17.4111 -17.1501 -16.9178 -16.8293 -16.8033 -16.6583 -16.5219 -16.4038
   -16.3282 -16.2792 -16.2323 -16.2214 -16.2099 -16.1753 -16.1368 -16.1194
   -16.1125 -16.0917 -16.0607 -16.0503 -16.0335 -16.0127 -15.9718 -15.8464
   -15.8080 -15.7568 -15.7319 -15.7018 -15.4045 -15.3150 -14.1547 -14.0382
    -5.3012  -4.7784  -4.6315  -4.5795  -4.5215  -4.4445  -4.2909  -4.2009
    -3.9296  -3.8597  -3.8383  -3.8209  -3.7769  -3.5963  -3.5727  -3.4890
    -3.4751  -3.4722  -3.4515  -3.4338  -3.4283  -3.3746  -3.2856  -3.2302
    -3.2194  -3.1156  -3.0726  -3.0608  -2.9967  -2.9860  -2.9640  -2.9288
    -2.9105  -2.9093  -2.8882  -2.8556  -2.7484  -2.7313  -2.6435  -2.5515
    -2.4747  -2.4141  -2.2826  -2.1541  -2.1408  -2.1037  -2.0834  -2.0656
    -2.0026  -1.9700  -1.9205  -1.8416  -1.8359  -1.7878  -1.7288  -1.6576
    -1.6254  -1.5527  -1.4871  -1.4357  -1.4336  -1.4196  -1.3486  -1.1599
    -1.1171  -1.0947  -1.0525  -0.9937  -0.9462  -0.9401  -0.8793  -0.8551
    -0.8122  -0.7607  -0.7254  -0.7050  -0.6961  -0.6751  -0.6669  -0.6283
    -0.5777  -0.4732  -0.4396  -0.3991  -0.3640  -0.2552  -0.1234  -0.0454
    -0.0170   0.0992   0.2957   0.3699   0.4628   0.5091   0.5617   0.9413
     0.9870   2.4591   2.5478   2.5917   2.6079   2.6933   2.7104   2.9141
     2.9419   2.9516   3.0114

[...]

          k = 0.0380-0.0419 0.0000 ( 17876 PWs)   bands (ev):

[...]

          k =-0.0760-0.0000 0.0000 ( 17886 PWs)   bands (ev):

[...]

          k =-0.0760-0.0839 0.0000 ( 17948 PWs)   bands (ev):

   -56.6563 -56.6547 -56.6449 -56.6390 -56.5227 -56.5189 -56.5132 -56.5045
   -56.4665 -56.4634 -56.4357 -56.4311 -56.4131 -56.2002 -55.6352 -55.6351
   -33.0175 -33.0118 -32.9714 -32.9704 -32.9513 -32.9499 -32.9206 -32.9161
   -32.8740 -32.8679 -32.8512 -32.8473 -32.8092 -32.8064 -32.8050 -32.7998
   -32.7936 -32.7876 -32.7786 -32.7760 -32.7742 -32.7732 -32.7692 -32.7314
   -32.7236 -32.7172 -32.7157 -32.7130 -32.6860 -32.6676 -32.6663 -32.6648
   -32.6620 -32.6500 -32.6477 -32.6467 -32.6385 -32.6274 -32.6221 -32.4872
   -32.4505 -32.4260 -31.9612 -31.9611 -31.8722 -31.8721 -31.8329 -31.8329
   -16.8276 -16.8140 -16.6526 -16.5873 -16.5646 -16.5573 -16.5178 -16.3773
   -16.3639 -16.3628 -16.2890 -16.2537 -16.2433 -16.2137 -16.1987 -16.1951
   -16.1837 -16.1729 -16.1333 -16.1276 -16.1165 -16.1054 -16.0724 -16.0407
   -15.9929 -15.9883 -15.8102 -15.6919 -15.5843 -15.3991 -14.1401 -14.1399
    -5.1962  -4.1164  -4.0988  -3.9251  -3.8163  -3.8061  -3.7567  -3.6255
    -3.5734  -3.5658  -3.5333  -3.5154  -3.5023  -3.4948  -3.4854  -3.4564
    -3.4267  -3.3920  -3.3769  -3.3590  -3.3467  -3.3278  -3.3111  -3.3018
    -3.2855  -3.2631  -3.2303  -3.2167  -3.2008  -3.1713  -3.0388  -2.9292
    -2.8663  -2.8171  -2.8049  -2.7935  -2.7494  -2.7386  -2.7273  -2.6881
    -2.5469  -2.5099  -2.3789  -2.3767  -2.3311  -2.2763  -2.2700  -2.1315
    -2.1041  -2.0934  -2.0734  -2.0092  -1.9778  -1.9033  -1.8757  -1.8231
    -1.7976  -1.7527  -1.6793  -1.6697  -1.6418  -1.6320  -1.6238  -1.5474
    -1.5034  -1.4373  -1.4315  -1.4108  -1.3501  -1.3189  -1.2659  -1.1873
    -1.1506  -1.0176  -0.9559  -0.7713  -0.7578  -0.6571  -0.5997  -0.5822
    -0.5361  -0.4991  -0.3758  -0.3620  -0.3550  -0.2835  -0.2718  -0.2566
    -0.1474  -0.1372  -0.1171   0.0667   0.4954   0.7333   0.7342   0.8065
     0.8071   2.7686   2.7751   2.8118   2.8309   2.9633   2.9727   2.9940
     2.9956   3.1048   3.1234

     the Fermi energy is     2.4607 ev

!    total energy              =   -2915.40631601 Ry
     estimated scf accuracy    <       0.00000004 Ry
     smearing contrib. (-TS)   =      -0.02159288 Ry
     internal energy E=F+TS    =   -2915.38472313 Ry

     The total energy is F=E-TS. E is the sum of the following terms:
     one-electron contribution =  -24972.16075459 Ry
     hartree contribution      =   12561.26673046 Ry
     xc contribution           =    -477.44723885 Ry
     ewald contribution        =    9972.95637904 Ry
     electric field correction =       0.00016082 Ry

     convergence has been achieved in  67 iterations

     Forces acting on atoms (cartesian axes, Ry/au):

     atom    1 type  1   force =     0.00015208   -0.00019487    0.09634797
     atom    2 type  1   force =    -0.00008992   -0.00060668   -0.17544751
     atom    3 type  2   force =     0.00003155   -0.00003271   -0.02459544
     atom    4 type  2   force =     0.00008466   -0.00145504    0.05303668
     atom    5 type  2   force =    -0.01196630   -0.00120295    0.00380849
     atom    6 type  2   force =     0.01362213   -0.00046788    0.00268985
     atom    7 type  1   force =    -0.00106676    0.00059042   -0.01036124
     atom    8 type  1   force =     0.00048138    0.01691989    0.02649226
     atom    9 type  2   force =    -0.00005280   -0.00011501   -0.00060467
     atom   10 type  2   force =    -0.00124072    0.00037987   -0.01551321
     atom   11 type  2   force =     0.00008071    0.00021487   -0.00017591
     atom   12 type  2   force =     0.00009946    0.00035021   -0.00034095
     atom   13 type  1   force =    -0.00016469   -0.00003799    0.00007203
     atom   14 type  1   force =     0.00003579    0.00029935   -0.00031247
     atom   15 type  2   force =    -0.00024185   -0.00016802    0.00087823
     atom   16 type  2   force =    -0.00007254    0.00039275    0.00012367
     atom   17 type  2   force =    -0.00022268   -0.00017659   -0.00008814
     atom   18 type  2   force =    -0.00049005    0.00038124    0.00043247
     atom   19 type  1   force =     0.00045827   -0.00016229    0.00017336
     atom   20 type  1   force =    -0.00031597    0.00011409   -0.00019570
     atom   21 type  2   force =     0.00009976   -0.00000910    0.10331891
     atom   22 type  2   force =     0.00064577    0.00033777    0.00025910
     atom   23 type  2   force =    -0.07144128   -0.00008377   -0.02762228
     atom   24 type  2   force =     0.07144290    0.00033997   -0.02763645
     atom   25 type  1   force =     0.00005935   -0.00021434    0.09628124
     atom   26 type  1   force =    -0.00017141   -0.00015912   -0.17556306
     atom   27 type  2   force =     0.00009852   -0.00023202   -0.02352009
     atom   28 type  2   force =     0.00011589   -0.00123471    0.05332819
     atom   29 type  2   force =    -0.01212487    0.00067624    0.00352693
     atom   30 type  2   force =     0.01369869    0.00102984    0.00241321
     atom   31 type  1   force =    -0.00090315    0.00338191   -0.01148074
     atom   32 type  1   force =     0.00065586   -0.01868256    0.02687479
     atom   33 type  2   force =    -0.00015086    0.00029514   -0.00004288
     atom   34 type  2   force =    -0.00097030    0.00039175   -0.02320809
     atom   35 type  2   force =     0.00018791    0.00000652   -0.00006357
     atom   36 type  2   force =    -0.00017395    0.00002763   -0.00021780
     atom   37 type  1   force =    -0.00022683   -0.00019337   -0.00029794
     atom   38 type  1   force =    -0.00003002    0.00029293   -0.00042283
     atom   39 type  2   force =     0.00027937   -0.00055395    0.00004323
     atom   40 type  2   force =    -0.00006114    0.00015970    0.00053977
     atom   41 type  2   force =     0.00009503   -0.00019926   -0.00026293
     atom   42 type  2   force =    -0.00073727   -0.00077515    0.00000340
     atom   43 type  1   force =     0.00032661   -0.00004072   -0.00039902
     atom   44 type  1   force =    -0.00053355   -0.00069279    0.00033691
     atom   45 type  2   force =     0.00009437   -0.00002965    0.10331878
     atom   46 type  2   force =    -0.07145778   -0.00005142   -0.02763718
     atom   47 type  2   force =     0.07146731    0.00038616   -0.02765591
     atom   48 type  3   force =     0.00097773    0.00028061   -0.00026225
     atom   49 type  4   force =    -0.00038442    0.00052307   -0.00037121

     Total force =     0.368258     Total SCF correction =     0.000545
  @ DRIVER MODE: Message from server: STATUS
  @ DRIVER MODE: Message from server: GETFORCE
  @ DRIVER MODE: Returning v,forces,stress,ensemble

     Writing output data file ./calc.save/
  @ DRIVER MODE: Message from server: EXIT
  @ DRIVE MODE: Exiting

     General routines

     Parallel routines

   This run was terminated on:  22:28:34   8Sep2021

   JOB DONE.