     Program PWSCF v.6.7GPU starts on 23Sep2021 at 21:50:11

     R & G space division:  proc/nbgrp/npool/nimage =       8
     Reading input from /storage/home/hcoda1/3/ntian30/research/carbon/CxH_vib/H2O_calc/ads_slab/CH3NNHHHHO_a/out_0027/pw.inp
Warning: card &CELL ignored
Warning: card   CELL_DYNAMICS='IPI', ignored
Warning: card / ignored

     Current dimensions of program PWSCF are:
     Max number of different atomic species (ntypx) = 10
     Max number of k-points (npk) =  40000
     Max angular momentum in pseudopotentials (lmaxx) =  3
     Presently no symmetry can be used with electric field

     Message from routine cell_base_init:
     DEPRECATED: use true lattice parameter, not A to a.u. conversion factor

     IMPORTANT: XC functional enforced from input :
     Exchange-correlation= BEEF-VDW
                           (   1   4  43  14   2   0   0)
     Any further DFT definition will be discarded
     Please, verify this is what you really want

  @ DRIVER MODE: Connecting to
 qe_1139763_2947308.sched-torque.pace.gatech.edu5xy6d5_u_scratch
  using UNIX socket
  @ DRIVER MODE: Message from server: STATUS
  @ DRIVER MODE: Message from server: INIT
  @ DRIVER MODE: Receiving replica           0          -1
  @ DRIVER MODE: Receiving encoded integer          25
  @ DRIVER MODE:  SCF:  T  FORCE:  T  STRESS:  F  VC:  F  ENSEMBLE:  F
  @ DRIVER MODE:  SCF:  T  FORCE:  T  STRESS:  F  VC:  F  ENSEMBLE:  F

     Using Slab Decomposition

     bravais-lattice index     =            0
     lattice parameter (alat)  =       1.8897  a.u.
     unit-cell volume          =    6658.9804 (a.u.)^3
     number of atoms/cell      =           58
     number of atomic types    =            5
     number of electrons       =       405.00
     number of Kohn-Sham states=          212
     kinetic-energy cutoff     =      29.3995  Ry
     charge density cutoff     =     293.9946  Ry
     scf convergence threshold =      7.3E-08
     mixing beta               =       0.0500
     number of iterations used =            8  plain     mixing
     Exchange-correlation= BEEF-VDW
                           (   1   4  43  14   2   0   0)

     celldm(1)=   1.889726  celldm(2)=   0.000000  celldm(3)=   0.000000
     celldm(4)=   0.000000  celldm(5)=   0.000000  celldm(6)=   0.000000

     crystal axes: (cart. coord. in units of alat)
               a(1) = (   6.579727   0.000000   0.000000 )
               a(2) = (  -0.000775   5.961596   0.000000 )
               a(3) = (   0.000000   0.000000  25.155947 )

     reciprocal axes: (cart. coord. in units 2 pi/alat)
               b(1) = (  0.151982  0.000020  0.000000 )
               b(2) = (  0.000000  0.167740  0.000000 )
               b(3) = (  0.000000  0.000000  0.039752 )

     PseudoPot. # 1 for Ti read from file:
     /storage/coda1/p-amedford6/0/shared/rich_project_chbe-medford/medford-share/data/pseudos_module/espresso/nninc/pbe/van/Ti.UPF
     MD5 check sum: 8e4df49b7f0d34bbd5052bf3f5ea0213
     Pseudo is Ultrasoft, Zval = 12.0
     Generated by new atomic code, or converted to UPF format
     Using radial grid of  851 points,  6 beta functions with:
                l(1) =   0
                l(2) =   0
                l(3) =   1
                l(4) =   1
                l(5) =   2
                l(6) =   2
     Q(r) pseudized with  8 coefficients,  rinner =    1.000   1.000   1.000
                                                       1.000   1.000

     PseudoPot. # 2 for O  read from file:
     /storage/coda1/p-amedford6/0/shared/rich_project_chbe-medford/medford-share/data/pseudos_module/espresso/nninc/pbe/van/O.UPF
     MD5 check sum: 78c19812648e8988a0fe644b0f25305e
     Pseudo is Ultrasoft, Zval =  6.0
     Generated by new atomic code, or converted to UPF format
     Using radial grid of  737 points,  4 beta functions with:
                l(1) =   0
                l(2) =   0
                l(3) =   1
                l(4) =   1
     Q(r) pseudized with  8 coefficients,  rinner =    0.800   0.800   0.800

     PseudoPot. # 3 for N  read from file:
     /storage/coda1/p-amedford6/0/shared/rich_project_chbe-medford/medford-share/data/pseudos_module/espresso/nninc/pbe/van/N.UPF
     MD5 check sum: 90d10febe142ad51ac9d5be1deb811c4
     Pseudo is Ultrasoft, Zval =  5.0
     Generated by new atomic code, or converted to UPF format
     Using radial grid of  729 points,  4 beta functions with:
                l(1) =   0
                l(2) =   0
                l(3) =   1
                l(4) =   1
     Q(r) pseudized with  8 coefficients,  rinner =    0.800   0.800   0.800

     PseudoPot. # 4 for C  read from file:
     /storage/coda1/p-amedford6/0/shared/rich_project_chbe-medford/medford-share/data/pseudos_module/espresso/nninc/pbe/van/C.UPF
     MD5 check sum: 1a69bf6b8db32088f5b2163dbdb77a27
     Pseudo is Ultrasoft, Zval =  4.0
     Generated by new atomic code, or converted to UPF format
     Using radial grid of  721 points,  4 beta functions with:
                l(1) =   0
                l(2) =   0
                l(3) =   1
                l(4) =   1
     Q(r) pseudized with  8 coefficients,  rinner =    0.800   0.800   0.800

     PseudoPot. # 5 for H  read from file:
     /storage/coda1/p-amedford6/0/shared/rich_project_chbe-medford/medford-share/data/pseudos_module/espresso/nninc/pbe/van/H.UPF
     MD5 check sum: b5ee9d7bfd3a09ee7748110bda690ff7
     Pseudo is Ultrasoft, Zval =  1.0
     Generated by new atomic code, or converted to UPF format
     Using radial grid of  615 points,  1 beta functions with:
                l(1) =   0
     Q(r) pseudized with  8 coefficients,  rinner =    0.800

     atomic species   valence    mass     pseudopotential
        Ti1           12.00    47.86700     Ti( 1.00)
        O1             6.00    15.99900     O ( 1.00)
        N1             5.00    14.00700     N ( 1.00)
        C1             4.00    12.01100     C ( 1.00)
        H1             1.00     1.00800     H ( 1.00)

     No symmetry found

   Cartesian axes

     site n.     atom                  positions (alat units)
         1           Ti1 tau(   1) = (   0.0004258   2.9801865   6.0000000  )
         2           Ti1 tau(   2) = (   3.2906075   1.4906267   6.0002472  )
         3           O1  tau(   3) = (   0.0006271   0.0005054   7.9858123  )
         4           O1  tau(   4) = (   3.2906025   0.0005020   7.3038282  )
         5           O1  tau(   5) = (   4.5942328   1.4918067   9.2879030  )
         6           O1  tau(   6) = (   1.9868534   1.4903216   9.2879459  )
         7           Ti1 tau(   7) = (   3.2907910   2.8959150   9.1758416  )
         8           Ti1 tau(   8) = (   0.0015273   1.4827037   9.2680791  )
         9           O1  tau(   9) = (   3.3066316   0.0080679  11.3583267  )
        10           O1  tau(  10) = (   0.0116148   5.9584955  10.6183126  )
        11           O1  tau(  11) = (   1.3000076   1.5005770  12.6434233  )
        12           O1  tau(  12) = (   5.3281586   1.4930334  12.6431679  )
        13           Ti1 tau(  13) = (   0.0126194   3.0144704  12.5166071  )
        14           Ti1 tau(  14) = (   3.3185830   1.5708444  12.4374219  )
        15           O1  tau(  15) = (   0.0449490   0.0685618  14.6579901  )
        16           O1  tau(  16) = (   3.3164028   5.8986079  13.9921319  )
        17           O1  tau(  17) = (   4.5763498   1.4919541  16.1892649  )
        18           O1  tau(  18) = (   2.0390356   1.5007807  16.1677599  )
        19           Ti1 tau(  19) = (   3.3152479   2.9236451  15.6986563  )
        20           Ti1 tau(  20) = (   0.0808212   1.4292116  16.0039943  )
        21           O1  tau(  21) = (   3.2904802   0.0005063   4.7018136  )
        22           O1  tau(  22) = (   0.0303022   5.8046116  17.1736243  )
        23           O1  tau(  23) = (   1.3043587   1.4918075   6.0039043  )
        24           O1  tau(  24) = (   5.2767064   1.4903225   6.0039473  )
        25           Ti1 tau(  25) = (   0.0000382   5.9609847   6.0000000  )
        26           Ti1 tau(  26) = (   3.2902200   4.4714249   6.0002472  )
        27           O1  tau(  27) = (   0.0002396   2.9813036   7.9858123  )
        28           O1  tau(  28) = (   3.2902150   2.9813002   7.3038282  )
        29           O1  tau(  29) = (   4.5938453   4.4726049   9.2879030  )
        30           O1  tau(  30) = (   1.9864658   4.4711199   9.2879459  )
        31           Ti1 tau(  31) = (   3.2891106   5.8743827   9.1763621  )
        32           Ti1 tau(  32) = (   0.0006254   4.4649316   9.2693709  )
        33           O1  tau(  33) = (   3.3101163   2.9547251  11.3177968  )
        34           O1  tau(  34) = (   0.0092240   2.9805883  10.6323155  )
        35           O1  tau(  35) = (   1.2917786   4.4638488  12.6831265  )
        36           O1  tau(  36) = (   5.3332004   4.4701953  12.6833355  )
        37           Ti1 tau(  37) = (   0.0360484   0.0435164  12.5022323  )
        38           Ti1 tau(  38) = (   3.3166134   4.6596848  12.7231989  )
        39           O1  tau(  39) = (   6.5734590   2.9070644  14.8960501  )
        40           O1  tau(  40) = (   3.3256711   2.9499323  13.9293234  )
        41           O1  tau(  41) = (   4.5718193   4.3849529  16.1598725  )
        42           O1  tau(  42) = (   2.0293811   4.3548050  16.0908550  )
        43           Ti1 tau(  43) = (   3.3839698   5.9011270  16.3477160  )
        44           Ti1 tau(  44) = (   0.0762916   4.6312412  15.8077656  )
        45           O1  tau(  45) = (   3.2900926   2.9813045   4.7018136  )
        46           O1  tau(  46) = (   1.3039711   4.4726057   6.0039043  )
        47           O1  tau(  47) = (   5.2763189   4.4711207   6.0039473  )
        48           N1  tau(  48) = (   1.0338470   3.0145746  18.8549854  )
        49           N1  tau(  49) = (   6.4614719   2.5758313  18.0922931  )
        50           C1  tau(  50) = (   0.6385090   3.7489381  20.0602371  )
        51           H1  tau(  51) = (   6.5128770   4.5633600  19.8465500  )
        52           H1  tau(  52) = (   0.1876125   3.0556416  20.7809517  )
        53           H1  tau(  53) = (   1.5398112   4.1767214  20.4987412  )
        54           H1  tau(  54) = (   5.7034478   3.2665398  18.1448723  )
        55           H1  tau(  55) = (   6.1095767   1.7263867  18.5341855  )
        56           H1  tau(  56) = (   1.5400177   3.6533120  18.2466354  )
        57           O1  tau(  57) = (   3.2295176   5.8880611  18.1942677  )
        58           H1  tau(  58) = (   2.6769533   0.6239085  18.5854980  )

     number of k points=    10  Fermi-Dirac smearing, width (Ry)=  0.0073
                       cart. coord. in units 2pi/alat
        k(    1) = (   0.0000000   0.0000000   0.0000000), wk =   0.1250000
        k(    2) = (   0.0000000   0.0419351   0.0000000), wk =   0.2500000
        k(    3) = (   0.0000000  -0.0838702   0.0000000), wk =   0.1250000
        k(    4) = (   0.0379955   0.0000049   0.0000000), wk =   0.2500000
        k(    5) = (   0.0379955   0.0419400   0.0000000), wk =   0.2500000
        k(    6) = (   0.0379955  -0.0838652   0.0000000), wk =   0.2500000
        k(    7) = (   0.0379955  -0.0419301   0.0000000), wk =   0.2500000
        k(    8) = (  -0.0759910  -0.0000099   0.0000000), wk =   0.1250000
        k(    9) = (  -0.0759910   0.0419252   0.0000000), wk =   0.2500000
        k(   10) = (  -0.0759910  -0.0838800   0.0000000), wk =   0.1250000

     Initial potential from superposition of free atoms

     starting charge  388.99913, renormalised to  405.00000

     negative rho (up, down):  1.325E-02 0.000E+00

     %%%%%%%%%%%%%%%%%%%%%%%%%%%%%%%%%%%%%%%%%%%%%%%%%%%%%%%%%%%%%%%%%%%%%%%%
     %                                                                      %
     % You are using vdW-DF, which was implemented by the Thonhauser group. %
     % Please cite the following two papers that made this development      %
     % possible and the two reviews that describe the various versions:     %
     %                                                                      %
     %   T. Thonhauser et al., PRL 115, 136402 (2015).                      %
     %   T. Thonhauser et al., PRB 76, 125112 (2007).                       %
     %   K. Berland et al., Rep. Prog. Phys. 78, 066501 (2015).             %
     %   D.C. Langreth et al., J. Phys.: Condens. Matter 21, 084203 (2009). %
     %                                                                      %
     %                                                                      %
     % If you are calculating the stress with vdW-DF, please also cite:     %
     %                                                                      %
     %   R. Sabatini et al., J. Phys.: Condens. Matter 24, 424209 (2012).   %
     %                                                                      %
     %%%%%%%%%%%%%%%%%%%%%%%%%%%%%%%%%%%%%%%%%%%%%%%%%%%%%%%%%%%%%%%%%%%%%%%%

     Adding external electric field

     Computed dipole along edir(3) :
        Dipole              -14.7651 Ry au,        -37.5293 Debye
        Dipole field         -0.0279 Ry au,

        Potential amp.        2.5829 Ry
        Total length         46.3494 bohr

     Starting wfcs are  307 atomic wfcs
  @ DRIVER MODE: Message from server: STATUS
  @ DRIVER MODE: Message from server: POSDATA
  @ DRIVER MODE: Reading and sharing cell
  @ DRIVER MODE: Reading and sharing positions
  @ DRIVER MODE: Received positions

     Self-consistent Calculation

     iteration #  1     ecut=    29.40 Ry     beta= 0.05
     Davidson diagonalization with overlap
     c_bands:  3 eigenvalues not converged
     c_bands:  4 eigenvalues not converged
     c_bands:  2 eigenvalues not converged
     c_bands:  3 eigenvalues not converged
     c_bands:  3 eigenvalues not converged
     c_bands:  3 eigenvalues not converged
     ethr =  1.00E-05,  avg # of iterations = 23.2

[...]

     total energy              =   -2204.24829568 Ry
     estimated scf accuracy    <    8785.88481239 Ry

[...]

     iteration #  3     ecut=    29.40 Ry     beta= 0.05
     Davidson diagonalization with overlap
     ethr =  1.00E-02,  avg # of iterations = 16.2

[...]

     iteration # 45     ecut=    29.40 Ry     beta= 0.05
     Davidson diagonalization with overlap
     c_bands:  1 eigenvalues not converged
     ethr =  1.50E-07,  avg # of iterations = 11.9

[...]

     total energy              =   -2976.49820879 Ry
     estimated scf accuracy    <       0.00000008 Ry

     iteration # 65     ecut=    29.40 Ry     beta= 0.05
     Davidson diagonalization with overlap
     ethr =  2.08E-11,  avg # of iterations = 10.7

     negative rho (up, down):  1.442E-02 0.000E+00

     Adding external electric field

     Computed dipole along edir(3) :
        Dipole                0.9909 Ry au,          2.5186 Debye
        Dipole field          0.0019 Ry au,

        Potential amp.       -0.1733 Ry
        Total length         46.3494 bohr

     End of self-consistent calculation

          k = 0.0000 0.0000 0.0000 ( 18029 PWs)   bands (ev):

   -55.5828 -55.4990 -55.4650 -55.3641 -55.3431 -55.3273 -55.3129 -55.3066
   -55.2935 -55.2641 -55.2204 -55.0978 -55.0865 -55.0101 -54.4686 -54.4346
   -31.9835 -31.9191 -31.8778 -31.8308 -31.8291 -31.8101 -31.7997 -31.7900
   -31.7506 -31.7450 -31.7268 -31.6517 -31.6279 -31.6076 -31.6055 -31.6040
   -31.5979 -31.5860 -31.5835 -31.5567 -31.5505 -31.5251 -31.5248 -31.5130
   -31.4974 -31.4869 -31.4788 -31.4614 -31.4576 -31.4545 -31.4449 -31.4392
   -31.4351 -31.4160 -31.3741 -31.3720 -31.3010 -31.2944 -31.2798 -31.2597
   -31.2228 -31.2155 -30.8743 -30.7887 -30.7662 -30.6919 -30.6056 -30.4937
   -17.5820 -16.4010 -16.1401 -15.9775 -15.7617 -15.6761 -15.6478 -15.4553
   -15.3499 -15.2970 -15.1104 -15.0644 -15.0340 -15.0226 -15.0077 -14.9850
   -14.9650 -14.9270 -14.9184 -14.9081 -14.9025 -14.8640 -14.8417 -14.7910
   -14.7681 -14.7057 -14.6335 -14.5659 -14.5184 -14.2570 -14.2396 -12.9673
   -12.9668 -12.8505  -9.4480  -6.1534  -5.2011  -4.6320  -3.9626  -3.5048
    -3.4038  -3.3880  -3.3327  -3.2693  -3.1682  -2.9963  -2.8876  -2.8331
    -2.7332  -2.6258  -2.5707  -2.5067  -2.4723  -2.4304  -2.3979  -2.3849
    -2.3789  -2.2832  -2.2738  -2.2474  -2.2116  -2.1562  -2.1403  -2.0622
    -2.0262  -2.0176  -1.8931  -1.8805  -1.8149  -1.8105  -1.8043  -1.7706
    -1.7497  -1.7349  -1.7057  -1.6218  -1.5690  -1.4985  -1.4757  -1.4458
    -1.1867  -1.0950  -1.0571  -1.0292  -0.9316  -0.9149  -0.9017  -0.8982
    -0.8843  -0.8346  -0.7881  -0.7040  -0.5947  -0.5743  -0.5657  -0.5207
    -0.4551  -0.3734  -0.3003  -0.2707  -0.2335  -0.2202  -0.1540  -0.0766
    -0.0605  -0.0481   0.0606   0.0749   0.1571   0.2158   0.2298   0.2746
     0.3157   0.3485   0.4048   0.4412   0.4716   0.4776   0.5110   0.5554
     0.6111   0.6416   0.6694   0.7518   0.8073   0.8526   0.8804   1.0520
     1.0821   1.1389   1.1779   1.2653   1.5078   1.5581   1.5975   1.7524
     2.1245   2.1697   3.5854   3.7366   3.7517   3.8213   3.8461   3.9373
     4.0748   4.1426   4.2823   4.3438

[...]

          k = 0.0380-0.0419 0.0000 ( 17876 PWs)   bands (ev):

[...]

          k =-0.0760-0.0000 0.0000 ( 17886 PWs)   bands (ev):

[...]

          k =-0.0760-0.0839 0.0000 ( 17948 PWs)   bands (ev):

   -55.5821 -55.4821 -55.4818 -55.3629 -55.3300 -55.3196 -55.3135 -55.3104
   -55.3100 -55.2562 -55.2283 -55.0947 -55.0876 -55.0131 -54.4517 -54.4513
   -31.8665 -31.8087 -31.8034 -31.7989 -31.7988 -31.7845 -31.7755 -31.7753
   -31.7063 -31.6505 -31.6426 -31.6351 -31.6303 -31.6167 -31.6022 -31.6020
   -31.6001 -31.5993 -31.5856 -31.5749 -31.5673 -31.5585 -31.5379 -31.5196
   -31.5165 -31.5131 -31.5059 -31.5027 -31.4901 -31.4830 -31.4803 -31.4750
   -31.4698 -31.4512 -31.4454 -31.3680 -31.3556 -31.3420 -31.3030 -31.2985
   -31.2649 -31.2189 -30.7791 -30.7788 -30.6874 -30.6870 -30.6490 -30.6486
   -17.5760 -16.3869 -15.7480 -15.5700 -15.4740 -15.4675 -15.3368 -15.2708
   -15.2622 -15.2275 -15.2089 -15.1938 -15.1610 -15.1435 -15.1038 -15.0513
   -15.0179 -14.9952 -14.9837 -14.9466 -14.9341 -14.9121 -14.9049 -14.8963
   -14.8379 -14.8060 -14.7969 -14.7656 -14.5705 -14.5480 -14.3722 -12.9688
   -12.9525 -12.9524  -9.4455  -6.1386  -5.2028  -4.6420  -3.9588  -3.1687
    -2.9224  -2.7790  -2.7030  -2.5688  -2.5588  -2.5011  -2.4834  -2.4476
    -2.4393  -2.3987  -2.3449  -2.3282  -2.2857  -2.2802  -2.2500  -2.2374
    -2.2268  -2.2177  -2.1923  -2.1732  -2.1643  -2.1233  -2.1189  -2.1029
    -2.0827  -2.0669  -2.0394  -2.0283  -1.9881  -1.9484  -1.8832  -1.8095
    -1.7239  -1.6412  -1.6307  -1.6200  -1.5735  -1.5670  -1.5203  -1.5085
    -1.4613  -1.4096  -1.2957  -1.1729  -1.1331  -1.1069  -1.0748  -1.0424
    -0.9879  -0.9652  -0.9302  -0.8816  -0.8499  -0.7261  -0.7152  -0.6498
    -0.5650  -0.5318  -0.4562  -0.4430  -0.4283  -0.4121  -0.3904  -0.3736
    -0.3441  -0.3281  -0.2237  -0.1998  -0.1967  -0.1740  -0.1229  -0.0203
     0.0538   0.1368   0.2393   0.2890   0.3168   0.3506   0.4506   0.5686
     0.5939   0.6568   0.6888   0.7317   0.7988   0.8195   0.8675   0.9527
     1.0058   1.0383   1.0645   1.0696   1.1241   1.1546   1.9211   1.9296
     1.9899   1.9902   3.7993   4.0754   4.1009   4.1168   4.1542   4.1583
     4.1805   4.1949   4.2600   4.2757

     the Fermi energy is     3.6224 ev

!    total energy              =   -2976.49824309 Ry
     estimated scf accuracy    <       0.00000003 Ry
     smearing contrib. (-TS)   =      -0.01952301 Ry
     internal energy E=F+TS    =   -2976.47872008 Ry

     The total energy is F=E-TS. E is the sum of the following terms:
     one-electron contribution =  -23034.43635594 Ry
     hartree contribution      =   11613.57199891 Ry
     xc contribution           =    -495.70492681 Ry
     ewald contribution        =    8940.08871085 Ry
     electric field correction =       0.00185291 Ry

     convergence has been achieved in  65 iterations

     Forces acting on atoms (cartesian axes, Ry/au):

     atom    1 type  1   force =     0.00000866   -0.00022143    0.09406261
     atom    2 type  1   force =    -0.00015951    0.00024846   -0.17516145
     atom    3 type  2   force =     0.00007365   -0.00015911   -0.02115355
     atom    4 type  2   force =     0.00000355   -0.00103953    0.05356688
     atom    5 type  2   force =    -0.00453446   -0.00322660    0.00114751
     atom    6 type  2   force =     0.00659157   -0.00242609    0.00161116
     atom    7 type  1   force =     0.00037351    0.00457409    0.01037931
     atom    8 type  1   force =    -0.00055950    0.00198952    0.00312242
     atom    9 type  2   force =     0.00010319   -0.00050323   -0.00048159
     atom   10 type  2   force =    -0.00031055   -0.00003976   -0.01131419
     atom   11 type  2   force =    -0.00023855    0.00046308    0.00003788
     atom   12 type  2   force =    -0.00026482    0.00067966    0.00007589
     atom   13 type  1   force =     0.00061333   -0.00065388    0.00025093
     atom   14 type  1   force =    -0.00035567    0.00017491    0.00021502
     atom   15 type  2   force =    -0.00017117    0.00009659    0.00050852
     atom   16 type  2   force =     0.00004607   -0.00002165    0.00041156
     atom   17 type  2   force =    -0.00038407    0.00023944    0.00008083
     atom   18 type  2   force =     0.00003744    0.00009518    0.00024059
     atom   19 type  1   force =    -0.00010890    0.00054298   -0.00027367
     atom   20 type  1   force =     0.00000547   -0.00011456   -0.00010841
     atom   21 type  2   force =     0.00003008   -0.00001098    0.10311549
     atom   22 type  2   force =    -0.00007152   -0.00017844   -0.00032406
     atom   23 type  2   force =    -0.07216536   -0.00021106   -0.02726097
     atom   24 type  2   force =     0.07207050    0.00023209   -0.02733895
     atom   25 type  1   force =     0.00007213   -0.00034741    0.09404666
     atom   26 type  1   force =    -0.00000427   -0.00128610   -0.17519399
     atom   27 type  2   force =     0.00015436   -0.00021557   -0.01993148
     atom   28 type  2   force =     0.00008697   -0.00111096    0.04908870
     atom   29 type  2   force =    -0.00667145    0.00152487    0.00212553
     atom   30 type  2   force =     0.00854038    0.00170370    0.00249637
     atom   31 type  1   force =     0.00050018   -0.00019488    0.00053663
     atom   32 type  1   force =    -0.00020400   -0.00145229    0.00351395
     atom   33 type  2   force =    -0.00007856   -0.00000069   -0.00002159
     atom   34 type  2   force =    -0.00088902    0.00246460   -0.01152085
     atom   35 type  2   force =     0.00002926   -0.00043500    0.00047787
     atom   36 type  2   force =    -0.00052817   -0.00041159    0.00033309
     atom   37 type  1   force =     0.00036686    0.00028381    0.00003823
     atom   38 type  1   force =    -0.00037933    0.00019738    0.00030981
     atom   39 type  2   force =    -0.00050990    0.00043982    0.00046439
     atom   40 type  2   force =    -0.00001997   -0.00007192   -0.00006404
     atom   41 type  2   force =    -0.00038029   -0.00027671    0.00026435
     atom   42 type  2   force =    -0.00021464   -0.00024935   -0.00026461
     atom   43 type  1   force =    -0.00004045   -0.00037890    0.00072099
     atom   44 type  1   force =    -0.00016607    0.00015575    0.00012314
     atom   45 type  2   force =     0.00002112   -0.00001516    0.10296297
     atom   46 type  2   force =    -0.07217364   -0.00008504   -0.02725807
     atom   47 type  2   force =     0.07202806    0.00035361   -0.02730001
     atom   48 type  3   force =     0.00090729   -0.00003819   -0.00084913
     atom   49 type  3   force =    -0.00065748    0.00017593    0.00009255
     atom   50 type  4   force =    -0.00220795   -0.00610986    0.00415728
     atom   51 type  5   force =    -0.00068173   -0.00029002    0.00055108
     atom   52 type  5   force =     0.00250217    0.00534600   -0.00409159
     atom   53 type  5   force =     0.00008499   -0.00080875    0.00030285
     atom   54 type  5   force =     0.00017604    0.00019289   -0.00055780
     atom   55 type  5   force =    -0.00017812    0.00030617    0.00044181
     atom   56 type  5   force =     0.00034437    0.00018552   -0.00054354
     atom   57 type  2   force =    -0.00022518    0.00052603   -0.00066402
     atom   58 type  5   force =    -0.00023692   -0.00060734   -0.00019734

     Total force =     0.361905     Total SCF correction =     0.000513
  @ DRIVER MODE: Message from server: STATUS
  @ DRIVER MODE: Message from server: GETFORCE
  @ DRIVER MODE: Returning v,forces,stress,ensemble

     Writing output data file ./calc.save/
  @ DRIVER MODE: Message from server: EXIT
  @ DRIVE MODE: Exiting

     General routines

     Parallel routines

   This run was terminated on:  22:14:46  23Sep2021

   JOB DONE.