     Program PWSCF v.6.7GPU starts on  5Nov2021 at 14:49:33

     R & G space division:  proc/nbgrp/npool/nimage =       8
     Reading input from /storage/home/hcoda1/3/ntian30/research/carbon/CxH_vib/CH2_calc/ads_slab/N2/out_0003/pw.inp
Warning: card &CELL ignored
Warning: card   CELL_DYNAMICS='IPI', ignored
Warning: card / ignored

     Current dimensions of program PWSCF are:
     Max number of different atomic species (ntypx) = 10
     Max number of k-points (npk) =  40000
     Max angular momentum in pseudopotentials (lmaxx) =  3
     Presently no symmetry can be used with electric field

     Message from routine cell_base_init:
     DEPRECATED: use true lattice parameter, not A to a.u. conversion factor

     IMPORTANT: XC functional enforced from input :
     Exchange-correlation= BEEF-VDW
                           (   1   4  43  14   2   0   0)
     Any further DFT definition will be discarded
     Please, verify this is what you really want

  @ DRIVER MODE: Connecting to
 qe_1139763_3472288.sched-torque.pace.gatech.edu_ypzt09v_scratch
  using UNIX socket
  @ DRIVER MODE: Message from server: STATUS
  @ DRIVER MODE: Message from server: INIT
  @ DRIVER MODE: Receiving replica           0          -1
  @ DRIVER MODE: Receiving encoded integer          25
  @ DRIVER MODE:  SCF:  T  FORCE:  T  STRESS:  F  VC:  F  ENSEMBLE:  F
  @ DRIVER MODE:  SCF:  T  FORCE:  T  STRESS:  F  VC:  F  ENSEMBLE:  F

     Using Slab Decomposition

     bravais-lattice index     =            0
     lattice parameter (alat)  =       1.8897  a.u.
     unit-cell volume          =    6658.9804 (a.u.)^3
     number of atoms/cell      =           49
     number of atomic types    =            3
     number of electrons       =       388.00
     number of Kohn-Sham states=          204
     kinetic-energy cutoff     =      29.3995  Ry
     charge density cutoff     =     293.9946  Ry
     scf convergence threshold =      7.3E-08
     mixing beta               =       0.0500
     number of iterations used =            8  plain     mixing
     Exchange-correlation= BEEF-VDW
                           (   1   4  43  14   2   0   0)

     celldm(1)=   1.889726  celldm(2)=   0.000000  celldm(3)=   0.000000
     celldm(4)=   0.000000  celldm(5)=   0.000000  celldm(6)=   0.000000

     crystal axes: (cart. coord. in units of alat)
               a(1) = (   6.579727   0.000000   0.000000 )
               a(2) = (  -0.000775   5.961596   0.000000 )
               a(3) = (   0.000000   0.000000  25.155947 )

     reciprocal axes: (cart. coord. in units 2 pi/alat)
               b(1) = (  0.151982  0.000020  0.000000 )
               b(2) = (  0.000000  0.167740  0.000000 )
               b(3) = (  0.000000  0.000000  0.039752 )

     PseudoPot. # 1 for Ti read from file:
     /storage/coda1/p-amedford6/0/shared/rich_project_chbe-medford/medford-share/data/pseudos_module/espresso/nninc/pbe/van/Ti.UPF
     MD5 check sum: 8e4df49b7f0d34bbd5052bf3f5ea0213
     Pseudo is Ultrasoft, Zval = 12.0
     Generated by new atomic code, or converted to UPF format
     Using radial grid of  851 points,  6 beta functions with:
                l(1) =   0
                l(2) =   0
                l(3) =   1
                l(4) =   1
                l(5) =   2
                l(6) =   2
     Q(r) pseudized with  8 coefficients,  rinner =    1.000   1.000   1.000
                                                       1.000   1.000

     PseudoPot. # 2 for O  read from file:
     /storage/coda1/p-amedford6/0/shared/rich_project_chbe-medford/medford-share/data/pseudos_module/espresso/nninc/pbe/van/O.UPF
     MD5 check sum: 78c19812648e8988a0fe644b0f25305e
     Pseudo is Ultrasoft, Zval =  6.0
     Generated by new atomic code, or converted to UPF format
     Using radial grid of  737 points,  4 beta functions with:
                l(1) =   0
                l(2) =   0
                l(3) =   1
                l(4) =   1
     Q(r) pseudized with  8 coefficients,  rinner =    0.800   0.800   0.800

     PseudoPot. # 3 for N  read from file:
     /storage/coda1/p-amedford6/0/shared/rich_project_chbe-medford/medford-share/data/pseudos_module/espresso/nninc/pbe/van/N.UPF
     MD5 check sum: 90d10febe142ad51ac9d5be1deb811c4
     Pseudo is Ultrasoft, Zval =  5.0
     Generated by new atomic code, or converted to UPF format
     Using radial grid of  729 points,  4 beta functions with:
                l(1) =   0
                l(2) =   0
                l(3) =   1
                l(4) =   1
     Q(r) pseudized with  8 coefficients,  rinner =    0.800   0.800   0.800

     atomic species   valence    mass     pseudopotential
        Ti1           12.00    47.86700     Ti( 1.00)
        O1             6.00    15.99900     O ( 1.00)
        N1             5.00    14.00700     N ( 1.00)

     No symmetry found

   Cartesian axes

     site n.     atom                  positions (alat units)
         1           Ti1 tau(   1) = (   0.0004258   2.9801865   6.0000000  )
         2           Ti1 tau(   2) = (   3.2906075   1.4906267   6.0002472  )
         3           O1  tau(   3) = (   0.0006271   0.0005054   7.9858123  )
         4           O1  tau(   4) = (   3.2906025   0.0005020   7.3038282  )
         5           O1  tau(   5) = (   4.5942328   1.4918067   9.2879030  )
         6           O1  tau(   6) = (   1.9868534   1.4903216   9.2879459  )
         7           Ti1 tau(   7) = (   3.2908052   2.9770834   9.1558022  )
         8           Ti1 tau(   8) = (   0.0014723   1.4899557   9.2574618  )
         9           O1  tau(   9) = (   3.2881908   5.9516078  11.3945087  )
        10           O1  tau(  10) = (  -0.0003175   5.9583709  10.6096931  )
        11           O1  tau(  11) = (   1.2852824   1.4845632  12.6702234  )
        12           O1  tau(  12) = (   5.2939303   1.4843324  12.6686402  )
        13           Ti1 tau(  13) = (   6.5787990   2.9666629  12.5005897  )
        14           Ti1 tau(  14) = (   3.2868008   1.4811001  12.5380687  )
        15           O1  tau(  15) = (   6.5784413   5.9555407  14.6880896  )
        16           O1  tau(  16) = (   3.2900854   5.9490857  14.0192957  )
        17           O1  tau(  17) = (   4.5550864   1.4910534  16.1905290  )
        18           O1  tau(  18) = (   2.0267207   1.4911860  16.1885539  )
        19           Ti1 tau(  19) = (   3.2920938   2.9632630  15.7783758  )
        20           Ti1 tau(  20) = (   0.0012712   1.3436693  15.9485112  )
        21           O1  tau(  21) = (   3.2904802   0.0005063   4.7018136  )
        22           O1  tau(  22) = (   0.0010074   5.9436290  17.2207989  )
        23           O1  tau(  23) = (   1.3043587   1.4918075   6.0039043  )
        24           O1  tau(  24) = (   5.2767064   1.4903225   6.0039473  )
        25           Ti1 tau(  25) = (   0.0000382   5.9609847   6.0000000  )
        26           Ti1 tau(  26) = (   3.2902200   4.4714249   6.0002472  )
        27           O1  tau(  27) = (   0.0002396   2.9813036   7.9858123  )
        28           O1  tau(  28) = (   3.2902150   2.9813002   7.3038282  )
        29           O1  tau(  29) = (   4.5938453   4.4726049   9.2879030  )
        30           O1  tau(  30) = (   1.9864658   4.4711199   9.2879459  )
        31           Ti1 tau(  31) = (   3.2904038   5.9576809   9.1543053  )
        32           Ti1 tau(  32) = (   0.0010712   4.4688839   9.2576884  )
        33           O1  tau(  33) = (   3.2885413   2.9721674  11.3880671  )
        34           O1  tau(  34) = (   0.0004151   2.9779830  10.6294632  )
        35           O1  tau(  35) = (   1.2846649   4.4573343  12.6727517  )
        36           O1  tau(  36) = (   5.2936178   4.4572275  12.6712304  )
        37           Ti1 tau(  37) = (   6.5756517   5.9477182  12.4782824  )
        38           Ti1 tau(  38) = (   3.2865759   4.4596547  12.5399293  )
        39           O1  tau(  39) = (   6.5788509   2.9666905  14.9890508  )
        40           O1  tau(  40) = (   3.2903703   2.9673333  13.9858678  )
        41           O1  tau(  41) = (   4.5544046   4.4428806  16.1860403  )
        42           O1  tau(  42) = (   2.0267033   4.4429097  16.1842269  )
        43           Ti1 tau(  43) = (   3.2900559   5.9435813  15.8195655  )
        44           Ti1 tau(  44) = (   0.0007437   4.6011129  15.9424720  )
        45           O1  tau(  45) = (   3.2900926   2.9813045   4.7018136  )
        46           O1  tau(  46) = (   1.3039711   4.4726057   6.0039043  )
        47           O1  tau(  47) = (   5.2763189   4.4711207   6.0039473  )
        48           N1  tau(  48) = (   0.1199117   2.9086963  19.5608096  )
        49           N1  tau(  49) = (   0.0588791   2.9354632  18.4591897  )

     number of k points=    10  Fermi-Dirac smearing, width (Ry)=  0.0073
                       cart. coord. in units 2pi/alat
        k(    1) = (   0.0000000   0.0000000   0.0000000), wk =   0.1250000
        k(    2) = (   0.0000000   0.0419351   0.0000000), wk =   0.2500000
        k(    3) = (   0.0000000  -0.0838702   0.0000000), wk =   0.1250000
        k(    4) = (   0.0379955   0.0000049   0.0000000), wk =   0.2500000
        k(    5) = (   0.0379955   0.0419400   0.0000000), wk =   0.2500000
        k(    6) = (   0.0379955  -0.0838652   0.0000000), wk =   0.2500000
        k(    7) = (   0.0379955  -0.0419301   0.0000000), wk =   0.2500000
        k(    8) = (  -0.0759910  -0.0000099   0.0000000), wk =   0.1250000
        k(    9) = (  -0.0759910   0.0419252   0.0000000), wk =   0.2500000
        k(   10) = (  -0.0759910  -0.0838800   0.0000000), wk =   0.1250000

     Initial potential from superposition of free atoms

     starting charge  371.99923, renormalised to  388.00000

     negative rho (up, down):  1.868E-02 0.000E+00

     %%%%%%%%%%%%%%%%%%%%%%%%%%%%%%%%%%%%%%%%%%%%%%%%%%%%%%%%%%%%%%%%%%%%%%%%
     %                                                                      %
     % You are using vdW-DF, which was implemented by the Thonhauser group. %
     % Please cite the following two papers that made this development      %
     % possible and the two reviews that describe the various versions:     %
     %                                                                      %
     %   T. Thonhauser et al., PRL 115, 136402 (2015).                      %
     %   T. Thonhauser et al., PRB 76, 125112 (2007).                       %
     %   K. Berland et al., Rep. Prog. Phys. 78, 066501 (2015).             %
     %   D.C. Langreth et al., J. Phys.: Condens. Matter 21, 084203 (2009). %
     %                                                                      %
     %                                                                      %
     % If you are calculating the stress with vdW-DF, please also cite:     %
     %                                                                      %
     %   R. Sabatini et al., J. Phys.: Condens. Matter 24, 424209 (2012).   %
     %                                                                      %
     %%%%%%%%%%%%%%%%%%%%%%%%%%%%%%%%%%%%%%%%%%%%%%%%%%%%%%%%%%%%%%%%%%%%%%%%

     Adding external electric field

     Computed dipole along edir(3) :
        Dipole               -5.4532 Ry au,        -13.8607 Debye
        Dipole field         -0.0103 Ry au,

        Potential amp.        0.9540 Ry
        Total length         46.3494 bohr

     Starting wfcs are  292 atomic wfcs
  @ DRIVER MODE: Message from server: STATUS
  @ DRIVER MODE: Message from server: POSDATA
  @ DRIVER MODE: Reading and sharing cell
  @ DRIVER MODE: Reading and sharing positions
  @ DRIVER MODE: Received positions

     Self-consistent Calculation

     iteration #  1     ecut=    29.40 Ry     beta= 0.05
     Davidson diagonalization with overlap
     c_bands:  3 eigenvalues not converged
     c_bands:  2 eigenvalues not converged
     c_bands:  2 eigenvalues not converged
     c_bands:  1 eigenvalues not converged
     c_bands:  3 eigenvalues not converged
     c_bands:  2 eigenvalues not converged
     c_bands:  4 eigenvalues not converged
     c_bands:  1 eigenvalues not converged
     ethr =  1.00E-05,  avg # of iterations = 21.4

[...]

     total energy              =   -2822.47960069 Ry
     estimated scf accuracy    <    1128.82489442 Ry

     iteration #  2     ecut=    29.40 Ry     beta= 0.05
     Davidson diagonalization with overlap
     ethr =  1.00E-02,  avg # of iterations = 16.9

[...]

     iteration # 72     ecut=    29.40 Ry     beta= 0.05
     Davidson diagonalization with overlap
     c_bands:  1 eigenvalues not converged
     ethr =  5.80E-11,  avg # of iterations = 12.8

[...]

     total energy              =   -2924.04890533 Ry
     estimated scf accuracy    <       0.00000012 Ry

     iteration # 74     ecut=    29.40 Ry     beta= 0.05
     Davidson diagonalization with overlap
     ethr =  3.01E-11,  avg # of iterations = 10.8

     negative rho (up, down):  1.840E-02 0.000E+00

     Adding external electric field

     Computed dipole along edir(3) :
        Dipole                0.6997 Ry au,          1.7784 Debye
        Dipole field          0.0013 Ry au,

        Potential amp.       -0.1224 Ry
        Total length         46.3494 bohr

     End of self-consistent calculation

          k = 0.0000 0.0000 0.0000 ( 18029 PWs)   bands (ev):

   -55.9042 -55.8683 -55.8581 -55.8238 -55.7872 -55.7767 -55.7420 -55.7418
   -55.7299 -55.7078 -55.7056 -55.6847 -55.6682 -55.6508 -54.9687 -54.9346
   -32.4682 -32.4145 -32.3593 -32.2622 -32.2147 -32.2119 -32.2096 -32.1977
   -32.1481 -32.1368 -32.1110 -32.1046 -32.1030 -32.0764 -32.0710 -32.0543
   -32.0402 -32.0379 -32.0323 -32.0186 -32.0098 -32.0062 -32.0033 -32.0014
   -31.9798 -31.9732 -31.9558 -31.9136 -31.9073 -31.9002 -31.8935 -31.8884
   -31.8798 -31.8781 -31.8769 -31.8709 -31.8615 -31.8393 -31.8282 -31.8175
   -31.7993 -31.7456 -31.3815 -31.2771 -31.2558 -31.1976 -31.1113 -31.0003
   -21.8199 -16.7346 -16.5016 -16.3638 -16.2356 -16.1300 -16.0212 -15.9222
   -15.8554 -15.7838 -15.6290 -15.5973 -15.5676 -15.5320 -15.5113 -15.5057
   -15.4958 -15.4607 -15.4389 -15.4146 -15.4130 -15.3965 -15.3827 -15.3500
   -15.2964 -15.2144 -15.1359 -15.0659 -15.0077 -14.6780 -13.4694 -13.3497
    -7.2605  -4.9641  -4.9570  -4.0699  -4.0206  -3.9171  -3.8393  -3.8256
    -3.7313  -3.6698  -3.4652  -3.3890  -3.3520  -3.2014  -3.1587  -3.1018
    -3.0516  -2.9628  -2.8983  -2.8912  -2.8019  -2.7785  -2.7767  -2.7671
    -2.6773  -2.6647  -2.6287  -2.6213  -2.5944  -2.5001  -2.3762  -2.3407
    -2.2859  -2.2847  -2.2626  -2.2488  -2.2238  -2.1841  -2.1613  -2.1522
    -2.1006  -2.0887  -1.9476  -1.8037  -1.7693  -1.6930  -1.6077  -1.5143
    -1.4646  -1.4236  -1.3638  -1.3592  -1.3123  -1.2844  -1.2486  -1.1642
    -1.0740  -1.0333  -0.9380  -0.9213  -0.8490  -0.8119  -0.7584  -0.6989
    -0.6968  -0.6570  -0.5618  -0.5273  -0.4097  -0.3998  -0.3859  -0.3661
    -0.3021  -0.2492  -0.1436  -0.1149  -0.1131  -0.1037   0.0041   0.0322
     0.0342   0.0475   0.0587   0.1220   0.1908   0.2311   0.2738   0.4212
     0.6454   0.6486   0.7086   0.9417   1.0196   1.0575   1.2147   1.6437
     1.6976   3.1915   3.2581   3.2890   3.3218   3.3567   3.3985   3.6872
     3.7030   3.7296   3.7464   3.7665

[...]

          k = 0.0380-0.0419 0.0000 ( 17876 PWs)   bands (ev):

[...]

          k =-0.0760-0.0000 0.0000 ( 17886 PWs)   bands (ev):

[...]

          k =-0.0760-0.0839 0.0000 ( 17948 PWs)   bands (ev):

   -55.8863 -55.8859 -55.8416 -55.8401 -55.7834 -55.7624 -55.7560 -55.7260
   -55.7235 -55.7234 -55.7093 -55.6746 -55.6680 -55.6676 -54.9516 -54.9516
   -32.3396 -32.2722 -32.2714 -32.1779 -32.1748 -32.1733 -32.1578 -32.1345
   -32.1323 -32.1043 -32.1027 -32.1005 -32.0932 -32.0509 -32.0447 -32.0434
   -32.0407 -32.0392 -32.0290 -32.0244 -32.0233 -32.0112 -32.0013 -31.9885
   -31.9840 -31.9836 -31.9814 -31.9794 -31.9596 -31.9586 -31.9559 -31.9482
   -31.9219 -31.9202 -31.9048 -31.8966 -31.8962 -31.8912 -31.8767 -31.8538
   -31.8529 -31.8472 -31.2683 -31.2683 -31.1942 -31.1941 -31.1545 -31.1544
   -21.8198 -16.4118 -16.1049 -16.0649 -15.9502 -15.9452 -15.8641 -15.8486
   -15.7425 -15.6973 -15.6870 -15.6858 -15.6249 -15.6223 -15.6025 -15.5910
   -15.5178 -15.5067 -15.4827 -15.4793 -15.4222 -15.4179 -15.4165 -15.4123
   -15.3747 -15.3741 -15.3385 -15.3353 -15.2161 -15.0489 -13.4506 -13.4506
    -7.2648  -4.9601  -4.9590  -3.9850  -3.4419  -3.3775  -3.3234  -3.1719
    -3.0946  -3.0836  -3.0380  -3.0085  -2.9350  -2.8993  -2.8988  -2.8167
    -2.8070  -2.8018  -2.8004  -2.7327  -2.7195  -2.6894  -2.6734  -2.6214
    -2.6209  -2.5989  -2.5951  -2.5799  -2.5709  -2.5520  -2.5456  -2.5163
    -2.4863  -2.4315  -2.4233  -2.2839  -2.2731  -2.2179  -2.1429  -2.1399
    -2.0578  -2.0430  -2.0068  -1.9754  -1.9104  -1.8950  -1.7258  -1.7050
    -1.7014  -1.6409  -1.5531  -1.5303  -1.4824  -1.4633  -1.4115  -1.3573
    -1.2538  -1.2274  -1.2075  -1.1005  -1.0930  -1.0284  -0.9426  -0.9014
    -0.8995  -0.8948  -0.8714  -0.8513  -0.8492  -0.7474  -0.6968  -0.6492
    -0.6382  -0.6257  -0.4252  -0.3689  -0.3415  -0.2349  -0.1919   0.0043
     0.0120   0.0390   0.1545   0.1554   0.1612   0.2211   0.3476   0.3527
     0.4230   0.4644   0.4924   0.5158   0.5181   1.4066   1.4076   1.5148
     1.5153   3.3522   3.4335   3.4509   3.5079   3.6374   3.6450   3.6998
     3.7383   3.7466   3.7472   3.8330

     the Fermi energy is     3.2558 ev

!    total energy              =   -2924.04891598 Ry
     estimated scf accuracy    <       0.00000007 Ry
     smearing contrib. (-TS)   =      -0.03677026 Ry
     internal energy E=F+TS    =   -2924.01214572 Ry

     The total energy is F=E-TS. E is the sum of the following terms:
     one-electron contribution =  -24117.06408387 Ry
     hartree contribution      =   12140.96583089 Ry
     xc contribution           =    -479.17644618 Ry
     ewald contribution        =    9531.26162959 Ry
     electric field correction =       0.00092385 Ry

     convergence has been achieved in  74 iterations

     Forces acting on atoms (cartesian axes, Ry/au):

     atom    1 type  1   force =     0.00005070    0.00004139    0.09028902
     atom    2 type  1   force =    -0.00002571    0.00037987   -0.18447686
     atom    3 type  2   force =     0.00007388   -0.00045462   -0.02388441
     atom    4 type  2   force =     0.00002035   -0.00009232    0.05159066
     atom    5 type  2   force =    -0.01360439   -0.00063822    0.00572851
     atom    6 type  2   force =     0.01347698   -0.00016215    0.00563624
     atom    7 type  1   force =     0.00011363   -0.00004459    0.00097797
     atom    8 type  1   force =     0.00001384    0.00011461    0.00022949
     atom    9 type  2   force =     0.00006049    0.00011705   -0.00040581
     atom   10 type  2   force =    -0.00000011    0.00009020    0.00076001
     atom   11 type  2   force =    -0.00001449    0.00022461    0.00001527
     atom   12 type  2   force =    -0.00000102    0.00022593    0.00009735
     atom   13 type  1   force =     0.00003240    0.00028709   -0.00059830
     atom   14 type  1   force =    -0.00006235    0.00015228   -0.00114796
     atom   15 type  2   force =     0.00008934   -0.00037739   -0.00041131
     atom   16 type  2   force =    -0.00005252    0.00021680   -0.00024057
     atom   17 type  2   force =    -0.00015091   -0.00014960    0.00018700
     atom   18 type  2   force =     0.00023384   -0.00020136    0.00023745
     atom   19 type  1   force =     0.00012250    0.00006437    0.00069866
     atom   20 type  1   force =    -0.00006401    0.00014279    0.00173746
     atom   21 type  2   force =     0.00007031    0.00014509    0.10525346
     atom   22 type  2   force =     0.00001767    0.00010738   -0.00097551
     atom   23 type  2   force =    -0.06755257   -0.00011466   -0.02617093
     atom   24 type  2   force =     0.06747646    0.00032193   -0.02621284
     atom   25 type  1   force =     0.00007360    0.00005415    0.09058193
     atom   26 type  1   force =    -0.00008143   -0.00033215   -0.18442003
     atom   27 type  2   force =     0.00006380   -0.00049841   -0.02270519
     atom   28 type  2   force =     0.00002397   -0.00008683    0.05141742
     atom   29 type  2   force =    -0.01362355   -0.00058188    0.00566229
     atom   30 type  2   force =     0.01348803   -0.00006848    0.00557549
     atom   31 type  1   force =     0.00008402    0.00009272    0.00081282
     atom   32 type  1   force =     0.00001285   -0.00002915    0.00017727
     atom   33 type  2   force =     0.00006951   -0.00005954    0.00000366
     atom   34 type  2   force =    -0.00000823   -0.00004995   -0.00002130
     atom   35 type  2   force =    -0.00009702    0.00000337   -0.00002962
     atom   36 type  2   force =     0.00011311   -0.00000008    0.00003843
     atom   37 type  1   force =     0.00008112    0.00010732    0.00088554
     atom   38 type  1   force =    -0.00006200   -0.00018105   -0.00130892
     atom   39 type  2   force =     0.00009788    0.00029981   -0.00002238
     atom   40 type  2   force =     0.00004501    0.00000848    0.00011714
     atom   41 type  2   force =     0.00008529    0.00003902    0.00018992
     atom   42 type  2   force =    -0.00001151    0.00001562    0.00025147
     atom   43 type  1   force =     0.00003115    0.00045994    0.00092069
     atom   44 type  1   force =    -0.00008966   -0.00023674    0.00168111
     atom   45 type  2   force =     0.00006571    0.00013744    0.10520528
     atom   46 type  2   force =    -0.06756135   -0.00019575   -0.02616979
     atom   47 type  2   force =     0.06748175    0.00023417   -0.02621440
     atom   48 type  3   force =    -0.00021633    0.00064270   -0.00095546
     atom   49 type  3   force =    -0.00039002   -0.00017125   -0.00058743

     Total force =     0.367149     Total SCF correction =     0.000593
  @ DRIVER MODE: Message from server: STATUS
  @ DRIVER MODE: Message from server: GETFORCE
  @ DRIVER MODE: Returning v,forces,stress,ensemble

     Writing output data file ./calc.save/
  @ DRIVER MODE: Message from server: EXIT
  @ DRIVE MODE: Exiting

     General routines

     Parallel routines

   This run was terminated on:  15:11:32   5Nov2021

   JOB DONE.