     Program PWSCF v.6.7GPU starts on 23Aug2021 at 12:41:50

     R & G space division:  proc/nbgrp/npool/nimage =       6
     Reading input from /storage/home/hcoda1/3/ntian30/research/carbon/CH_vib/ads_slab/CHN2_b/out_0000/pw.inp
Warning: card &CELL ignored
Warning: card   CELL_DYNAMICS='IPI', ignored
Warning: card / ignored

     Current dimensions of program PWSCF are:
     Max number of different atomic species (ntypx) = 10
     Max number of k-points (npk) =  40000
     Max angular momentum in pseudopotentials (lmaxx) =  3
     Presently no symmetry can be used with electric field

     Message from routine cell_base_init:
     DEPRECATED: use true lattice parameter, not A to a.u. conversion factor

     IMPORTANT: XC functional enforced from input :
     Exchange-correlation= BEEF-VDW
                           (   1   4  43  14   2   0   0)
     Any further DFT definition will be discarded
     Please, verify this is what you really want

  @ DRIVER MODE: Connecting to
 qe_1139763_2632794.sched-torque.pace.gatech.eduvhh6de2k_scratch
  using UNIX socket
  @ DRIVER MODE: Message from server: STATUS
  @ DRIVER MODE: Message from server: INIT
  @ DRIVER MODE: Receiving replica           0          -1
  @ DRIVER MODE: Receiving encoded integer          25
  @ DRIVER MODE:  SCF:  T  FORCE:  T  STRESS:  F  VC:  F  ENSEMBLE:  F
  @ DRIVER MODE:  SCF:  T  FORCE:  T  STRESS:  F  VC:  F  ENSEMBLE:  F

     Using Slab Decomposition

     bravais-lattice index     =            0
     lattice parameter (alat)  =       1.8897  a.u.
     unit-cell volume          =    6658.9804 (a.u.)^3
     number of atoms/cell      =           51
     number of atomic types    =            5
     number of electrons       =       393.00
     number of Kohn-Sham states=          206
     kinetic-energy cutoff     =      29.3995  Ry
     charge density cutoff     =     293.9946  Ry
     scf convergence threshold =      7.3E-08
     mixing beta               =       0.0500
     number of iterations used =            8  plain     mixing
     Exchange-correlation= BEEF-VDW
                           (   1   4  43  14   2   0   0)

     celldm(1)=   1.889726  celldm(2)=   0.000000  celldm(3)=   0.000000
     celldm(4)=   0.000000  celldm(5)=   0.000000  celldm(6)=   0.000000

     crystal axes: (cart. coord. in units of alat)
               a(1) = (   6.579727   0.000000   0.000000 )
               a(2) = (  -0.000775   5.961596   0.000000 )
               a(3) = (   0.000000   0.000000  25.155947 )

     reciprocal axes: (cart. coord. in units 2 pi/alat)
               b(1) = (  0.151982  0.000020  0.000000 )
               b(2) = (  0.000000  0.167740  0.000000 )
               b(3) = (  0.000000  0.000000  0.039752 )

     PseudoPot. # 1 for Ti read from file:
     /storage/coda1/p-amedford6/0/shared/rich_project_chbe-medford/medford-share/data/pseudos_module/espresso/nninc/pbe/van/Ti.UPF
     MD5 check sum: 8e4df49b7f0d34bbd5052bf3f5ea0213
     Pseudo is Ultrasoft, Zval = 12.0
     Generated by new atomic code, or converted to UPF format
     Using radial grid of  851 points,  6 beta functions with:
                l(1) =   0
                l(2) =   0
                l(3) =   1
                l(4) =   1
                l(5) =   2
                l(6) =   2
     Q(r) pseudized with  8 coefficients,  rinner =    1.000   1.000   1.000
                                                       1.000   1.000

     PseudoPot. # 2 for O  read from file:
     /storage/coda1/p-amedford6/0/shared/rich_project_chbe-medford/medford-share/data/pseudos_module/espresso/nninc/pbe/van/O.UPF
     MD5 check sum: 78c19812648e8988a0fe644b0f25305e
     Pseudo is Ultrasoft, Zval =  6.0
     Generated by new atomic code, or converted to UPF format
     Using radial grid of  737 points,  4 beta functions with:
                l(1) =   0
                l(2) =   0
                l(3) =   1
                l(4) =   1
     Q(r) pseudized with  8 coefficients,  rinner =    0.800   0.800   0.800

     PseudoPot. # 3 for N  read from file:
     /storage/coda1/p-amedford6/0/shared/rich_project_chbe-medford/medford-share/data/pseudos_module/espresso/nninc/pbe/van/N.UPF
     MD5 check sum: 90d10febe142ad51ac9d5be1deb811c4
     Pseudo is Ultrasoft, Zval =  5.0
     Generated by new atomic code, or converted to UPF format
     Using radial grid of  729 points,  4 beta functions with:
                l(1) =   0
                l(2) =   0
                l(3) =   1
                l(4) =   1
     Q(r) pseudized with  8 coefficients,  rinner =    0.800   0.800   0.800

     PseudoPot. # 4 for C  read from file:
     /storage/coda1/p-amedford6/0/shared/rich_project_chbe-medford/medford-share/data/pseudos_module/espresso/nninc/pbe/van/C.UPF
     MD5 check sum: 1a69bf6b8db32088f5b2163dbdb77a27
     Pseudo is Ultrasoft, Zval =  4.0
     Generated by new atomic code, or converted to UPF format
     Using radial grid of  721 points,  4 beta functions with:
                l(1) =   0
                l(2) =   0
                l(3) =   1
                l(4) =   1
     Q(r) pseudized with  8 coefficients,  rinner =    0.800   0.800   0.800

     PseudoPot. # 5 for H  read from file:
     /storage/coda1/p-amedford6/0/shared/rich_project_chbe-medford/medford-share/data/pseudos_module/espresso/nninc/pbe/van/H.UPF
     MD5 check sum: b5ee9d7bfd3a09ee7748110bda690ff7
     Pseudo is Ultrasoft, Zval =  1.0
     Generated by new atomic code, or converted to UPF format
     Using radial grid of  615 points,  1 beta functions with:
                l(1) =   0
     Q(r) pseudized with  8 coefficients,  rinner =    0.800

     atomic species   valence    mass     pseudopotential
        Ti1           12.00    47.86700     Ti( 1.00)
        O1             6.00    15.99900     O ( 1.00)
        N1             5.00    14.00700     N ( 1.00)
        C1             4.00    12.01100     C ( 1.00)
        H1             1.00     1.00800     H ( 1.00)

     No symmetry found

   Cartesian axes

     site n.     atom                  positions (alat units)
         1           Ti1 tau(   1) = (   0.0004258   2.9801865   6.0000000  )
         2           Ti1 tau(   2) = (   3.2906075   1.4906267   6.0002472  )
         3           O1  tau(   3) = (   0.0006271   0.0005054   7.9858123  )
         4           O1  tau(   4) = (   3.2906025   0.0005020   7.3038282  )
         5           O1  tau(   5) = (   4.5942328   1.4918067   9.2879030  )
         6           O1  tau(   6) = (   1.9868534   1.4903216   9.2879459  )
         7           Ti1 tau(   7) = (   3.2907910   2.8959150   9.1758416  )
         8           Ti1 tau(   8) = (   0.0015273   1.4827037   9.2680791  )
         9           O1  tau(   9) = (   3.2950996   0.0139504  11.3317891  )
        10           O1  tau(  10) = (   0.0116148   5.9584955  10.6183126  )
        11           O1  tau(  11) = (   1.2919129   1.4990403  12.6236220  )
        12           O1  tau(  12) = (   5.2764399   1.5074276  12.6212280  )
        13           Ti1 tau(  13) = (   0.0528816   2.9532107  12.6238214  )
        14           Ti1 tau(  14) = (   3.3640876   1.5054642  12.4823551  )
        15           O1  tau(  15) = (   0.0126464   0.0517330  14.6735668  )
        16           O1  tau(  16) = (   3.2893787   0.0313947  13.9162352  )
        17           O1  tau(  17) = (   4.5455072   1.5470193  16.0571763  )
        18           O1  tau(  18) = (   2.0683839   1.5479149  16.0688871  )
        19           Ti1 tau(  19) = (   3.3004933   3.0285056  15.7062229  )
        20           Ti1 tau(  20) = (   6.5748692   1.5544668  15.8636821  )
        21           O1  tau(  21) = (   3.2904802   0.0005063   4.7018136  )
        22           O1  tau(  22) = (   0.0156978   0.0568370  17.2307755  )
        23           O1  tau(  23) = (   1.3043587   1.4918075   6.0039043  )
        24           O1  tau(  24) = (   5.2767064   1.4903225   6.0039473  )
        25           Ti1 tau(  25) = (   0.0000382   5.9609847   6.0000000  )
        26           Ti1 tau(  26) = (   3.2902200   4.4714249   6.0002472  )
        27           O1  tau(  27) = (   0.0002396   2.9813036   7.9858123  )
        28           O1  tau(  28) = (   3.2902150   2.9813002   7.3038282  )
        29           O1  tau(  29) = (   4.5938453   4.4726049   9.2879030  )
        30           O1  tau(  30) = (   1.9864658   4.4711199   9.2879459  )
        31           Ti1 tau(  31) = (   3.2891106   5.8743827   9.1763621  )
        32           Ti1 tau(  32) = (   0.0006254   4.4649316   9.2693709  )
        33           O1  tau(  33) = (   3.2930415   3.0011583  11.3325650  )
        34           O1  tau(  34) = (   0.0092240   2.9805883  10.6323155  )
        35           O1  tau(  35) = (   1.2898468   4.4882246  12.6384491  )
        36           O1  tau(  36) = (   5.2806636   4.4975927  12.6358184  )
        37           Ti1 tau(  37) = (   0.0525728   5.9296047  12.5528222  )
        38           Ti1 tau(  38) = (   3.3636738   4.4864912  12.4891182  )
        39           O1  tau(  39) = (   0.0107234   2.9627607  14.6747216  )
        40           O1  tau(  40) = (   3.2927234   3.0099296  13.9079960  )
        41           O1  tau(  41) = (   4.5395255   4.5218754  16.0742521  )
        42           O1  tau(  42) = (   2.0629885   4.5199598  16.0715304  )
        43           Ti1 tau(  43) = (   3.2878121   0.0461507  15.7166771  )
        44           Ti1 tau(  44) = (   0.0020781   4.6962996  16.1098215  )
        45           O1  tau(  45) = (   3.2900926   2.9813045   4.7018136  )
        46           O1  tau(  46) = (   1.3039711   4.4726057   6.0039043  )
        47           O1  tau(  47) = (   5.2763189   4.4711207   6.0039473  )
        48           N1  tau(  48) = (   0.1203982   2.9607606  18.6152809  )
        49           N1  tau(  49) = (   0.0157770   3.0106383  17.4001577  )
        50           C1  tau(  50) = (   0.0651646   2.9076078  19.8026698  )
        51           H1  tau(  51) = (   0.7310076   2.8879977  20.6380856  )

     number of k points=    10  Fermi-Dirac smearing, width (Ry)=  0.0073
                       cart. coord. in units 2pi/alat
        k(    1) = (   0.0000000   0.0000000   0.0000000), wk =   0.1250000
        k(    2) = (   0.0000000   0.0419351   0.0000000), wk =   0.2500000
        k(    3) = (   0.0000000  -0.0838702   0.0000000), wk =   0.1250000
        k(    4) = (   0.0379955   0.0000049   0.0000000), wk =   0.2500000
        k(    5) = (   0.0379955   0.0419400   0.0000000), wk =   0.2500000
        k(    6) = (   0.0379955  -0.0838652   0.0000000), wk =   0.2500000
        k(    7) = (   0.0379955  -0.0419301   0.0000000), wk =   0.2500000
        k(    8) = (  -0.0759910  -0.0000099   0.0000000), wk =   0.1250000
        k(    9) = (  -0.0759910   0.0419252   0.0000000), wk =   0.2500000
        k(   10) = (  -0.0759910  -0.0838800   0.0000000), wk =   0.1250000

     Initial potential from superposition of free atoms

     starting charge  376.99918, renormalised to  393.00000

     negative rho (up, down):  1.564E-02 0.000E+00

     %%%%%%%%%%%%%%%%%%%%%%%%%%%%%%%%%%%%%%%%%%%%%%%%%%%%%%%%%%%%%%%%%%%%%%%%
     %                                                                      %
     % You are using vdW-DF, which was implemented by the Thonhauser group. %
     % Please cite the following two papers that made this development      %
     % possible and the two reviews that describe the various versions:     %
     %                                                                      %
     %   T. Thonhauser et al., PRL 115, 136402 (2015).                      %
     %   T. Thonhauser et al., PRB 76, 125112 (2007).                       %
     %   K. Berland et al., Rep. Prog. Phys. 78, 066501 (2015).             %
     %   D.C. Langreth et al., J. Phys.: Condens. Matter 21, 084203 (2009). %
     %                                                                      %
     %                                                                      %
     % If you are calculating the stress with vdW-DF, please also cite:     %
     %                                                                      %
     %   R. Sabatini et al., J. Phys.: Condens. Matter 24, 424209 (2012).   %
     %                                                                      %
     %%%%%%%%%%%%%%%%%%%%%%%%%%%%%%%%%%%%%%%%%%%%%%%%%%%%%%%%%%%%%%%%%%%%%%%%

     Adding external electric field

     Computed dipole along edir(3) :
        Dipole               -7.5501 Ry au,        -19.1904 Debye
        Dipole field         -0.0142 Ry au,

        Potential amp.        1.3208 Ry
        Total length         46.3494 bohr

     Starting wfcs are  297 atomic wfcs
  @ DRIVER MODE: Message from server: STATUS
  @ DRIVER MODE: Message from server: POSDATA
  @ DRIVER MODE: Reading and sharing cell
  @ DRIVER MODE: Reading and sharing positions
  @ DRIVER MODE: Received positions

     Self-consistent Calculation

     iteration #  1     ecut=    29.40 Ry     beta= 0.05
     Davidson diagonalization with overlap
     ethr =  1.00E-02,  avg # of iterations =  2.0

[...]

     total energy              =   -2709.17517826 Ry
     estimated scf accuracy    <    2519.82663197 Ry

     iteration #  2     ecut=    29.40 Ry     beta= 0.05
     Davidson diagonalization with overlap
     c_bands:  5 eigenvalues not converged
     c_bands:  5 eigenvalues not converged
     c_bands:  5 eigenvalues not converged
     ethr =  1.00E-02,  avg # of iterations = 21.1

[...]

     iteration # 50     ecut=    29.40 Ry     beta= 0.05
     Davidson diagonalization with overlap
     c_bands:  1 eigenvalues not converged
     ethr =  4.35E-07,  avg # of iterations =  7.8

[...]

     total energy              =   -2936.63954958 Ry
     estimated scf accuracy    <       0.00000027 Ry

     iteration # 74     ecut=    29.40 Ry     beta= 0.05
     Davidson diagonalization with overlap
     ethr =  3.16E-11,  avg # of iterations =  8.8

     negative rho (up, down):  1.607E-02 0.000E+00

     Adding external electric field

     Computed dipole along edir(3) :
        Dipole                0.7494 Ry au,          1.9047 Debye
        Dipole field          0.0014 Ry au,

        Potential amp.       -0.1311 Ry
        Total length         46.3494 bohr

     End of self-consistent calculation

          k = 0.0000 0.0000 0.0000 ( 18029 PWs)   bands (ev):

   -55.9094 -55.9082 -55.8753 -55.8715 -55.7685 -55.7548 -55.7332 -55.7186
   -55.7171 -55.6846 -55.6844 -55.6508 -55.4677 -55.2233 -54.8880 -54.8539
   -32.4622 -32.3920 -32.2657 -32.2177 -32.2152 -32.2091 -32.2021 -32.1750
   -32.1521 -32.1269 -32.0959 -32.0865 -32.0813 -32.0617 -32.0544 -32.0480
   -32.0139 -32.0011 -31.9934 -31.9725 -31.9701 -31.9666 -31.9476 -31.9223
   -31.9154 -31.9076 -31.9048 -31.8959 -31.8937 -31.8864 -31.8812 -31.8596
   -31.8495 -31.8377 -31.8253 -31.8223 -31.7965 -31.6889 -31.6815 -31.5010
   -31.4533 -31.4524 -31.2951 -31.2068 -31.1844 -31.1119 -31.0254 -30.9142
   -19.2699 -16.6489 -16.3838 -16.1382 -16.0570 -16.0278 -15.9121 -15.7502
   -15.6331 -15.5721 -15.4718 -15.4661 -15.4459 -15.4129 -15.3830 -15.3579
   -15.3530 -15.3432 -15.3267 -15.2944 -15.2704 -15.2490 -15.2251 -15.1361
   -15.0790 -15.0437 -14.9836 -14.9758 -14.9662 -14.5050 -13.9325 -13.3903
   -13.2739  -6.6592  -5.3166  -4.2231  -4.0233  -3.9226  -3.8644  -3.8158
    -3.7607  -3.6568  -3.5197  -3.4504  -3.1371  -3.0848  -3.0728  -3.0482
    -3.0237  -2.8104  -2.7451  -2.7220  -2.6884  -2.6833  -2.6805  -2.6720
    -2.6552  -2.6225  -2.5012  -2.4449  -2.3731  -2.3331  -2.3039  -2.2964
    -2.2216  -2.1825  -2.1713  -2.1466  -2.1449  -2.1211  -2.1120  -2.0948
    -1.9573  -1.8905  -1.7685  -1.7035  -1.6696  -1.5182  -1.4912  -1.3872
    -1.3616  -1.3381  -1.3019  -1.2708  -1.2121  -1.0783  -1.0702  -1.0595
    -1.0275  -0.9288  -0.8761  -0.8031  -0.7473  -0.7284  -0.6783  -0.6664
    -0.6628  -0.6187  -0.4595  -0.3840  -0.3245  -0.3151  -0.2703  -0.2096
    -0.1798  -0.1015  -0.0592  -0.0293  -0.0155   0.0275   0.0646   0.0884
     0.0988   0.1085   0.1222   0.3077   0.3500   0.3681   0.4262   0.4437
     0.6160   0.6616   0.7462   0.8413   1.0596   1.1342   1.2179   1.3263
     1.3346   1.5835   1.7055   1.7511   3.2220   3.3116   3.3482   3.3570
     3.4642   3.5366   3.6785   3.6908   3.7113   3.7542

[...]

          k = 0.0380-0.0419 0.0000 ( 17876 PWs)   bands (ev):

[...]

          k =-0.0760-0.0000 0.0000 ( 17886 PWs)   bands (ev):

[...]

          k =-0.0760-0.0839 0.0000 ( 17948 PWs)   bands (ev):

   -55.8935 -55.8928 -55.8918 -55.8860 -55.7551 -55.7466 -55.7434 -55.7284
   -55.7024 -55.7001 -55.6693 -55.6662 -55.4665 -55.2244 -54.8709 -54.8708
   -32.2683 -32.2613 -32.2076 -32.2070 -32.1879 -32.1871 -32.1594 -32.1549
   -32.1151 -32.1076 -32.0814 -32.0792 -32.0401 -32.0328 -32.0241 -32.0221
   -32.0148 -32.0141 -32.0124 -32.0114 -32.0075 -32.0044 -31.9712 -31.9603
   -31.9514 -31.9455 -31.9313 -31.9278 -31.9027 -31.9020 -31.9002 -31.8977
   -31.8838 -31.8819 -31.8784 -31.8761 -31.8448 -31.6916 -31.6771 -31.5713
   -31.4745 -31.4551 -31.1971 -31.1970 -31.1079 -31.1077 -31.0687 -31.0686
   -19.2674 -16.0769 -16.0635 -15.8596 -15.8259 -15.8134 -15.8060 -15.6899
   -15.6107 -15.6024 -15.6012 -15.4996 -15.4877 -15.4794 -15.4472 -15.4375
   -15.4180 -15.4165 -15.3780 -15.3711 -15.3651 -15.3479 -15.3402 -15.2544
   -15.2280 -15.2239 -15.1927 -15.0791 -14.9445 -14.6852 -13.9383 -13.3758
   -13.3756  -6.6581  -5.2849  -4.1861  -3.9229  -3.3664  -3.3500  -3.0952
    -3.0637  -3.0546  -2.9993  -2.8272  -2.8098  -2.7861  -2.7641  -2.7335
    -2.7270  -2.7195  -2.7126  -2.6937  -2.6495  -2.6252  -2.5948  -2.5803
    -2.5659  -2.5654  -2.5348  -2.5220  -2.4806  -2.4663  -2.4558  -2.4332
    -2.4085  -2.3985  -2.2454  -2.1524  -2.1211  -2.0485  -2.0418  -2.0006
    -1.9743  -1.9592  -1.9358  -1.9005  -1.7585  -1.6439  -1.6081  -1.5933
    -1.5133  -1.4695  -1.3931  -1.3339  -1.2899  -1.2833  -1.2269  -1.1775
    -1.1169  -1.1057  -1.0423  -1.0092  -0.9715  -0.9389  -0.8986  -0.8682
    -0.8629  -0.7772  -0.7266  -0.7188  -0.6674  -0.6635  -0.6336  -0.5767
    -0.5575  -0.5294  -0.4067  -0.3868  -0.2793  -0.1973  -0.1361   0.0584
     0.1396   0.1645   0.2180   0.2884   0.3782   0.3921   0.4073   0.4131
     0.4614   0.5132   0.6196   0.6307   0.6689   0.7993   1.2545   1.4667
     1.4978   1.4986   1.5708   1.5710   3.5354   3.5451   3.5633   3.5794
     3.7351   3.7378   3.7574   3.7588   3.8932   3.9054

     the Fermi energy is     3.2235 ev

!    total energy              =   -2936.63956700 Ry
     estimated scf accuracy    <       0.00000007 Ry
     smearing contrib. (-TS)   =      -0.02146420 Ry
     internal energy E=F+TS    =   -2936.61810280 Ry

     The total energy is F=E-TS. E is the sum of the following terms:
     one-electron contribution =  -24291.81243639 Ry
     hartree contribution      =   12231.47307778 Ry
     xc contribution           =    -483.56614149 Ry
     ewald contribution        =    9607.28633763 Ry
     electric field correction =       0.00105968 Ry

     convergence has been achieved in  74 iterations

     Forces acting on atoms (cartesian axes, Ry/au):

     atom    1 type  1   force =     0.00009843   -0.00014618    0.09652722
     atom    2 type  1   force =    -0.00014865   -0.00057645   -0.17552898
     atom    3 type  2   force =    -0.00000079    0.00006374   -0.02459179
     atom    4 type  2   force =     0.00005257   -0.00130352    0.05297781
     atom    5 type  2   force =    -0.01197856    0.00010164    0.00367055
     atom    6 type  2   force =     0.01362703    0.00069053    0.00267913
     atom    7 type  1   force =    -0.00091195    0.00089532   -0.01123673
     atom    8 type  1   force =     0.00035656    0.00992579    0.02720139
     atom    9 type  2   force =    -0.00018313   -0.00023563    0.00016451
     atom   10 type  2   force =    -0.00142797    0.00227755   -0.01251868
     atom   11 type  2   force =    -0.00013071    0.00025544   -0.00026602
     atom   12 type  2   force =     0.00033070    0.00000265   -0.00057300
     atom   13 type  1   force =     0.00034817   -0.00123237   -0.00058169
     atom   14 type  1   force =     0.00041849    0.00001048    0.00000720
     atom   15 type  2   force =    -0.00002358   -0.00080442   -0.00038960
     atom   16 type  2   force =     0.00009890   -0.00047708    0.00005707
     atom   17 type  2   force =    -0.00048806   -0.00056049    0.00006929
     atom   18 type  2   force =    -0.00026951   -0.00068310   -0.00017902
     atom   19 type  1   force =     0.00003852   -0.00031554    0.00002344
     atom   20 type  1   force =     0.00013045   -0.00010272   -0.00008749
     atom   21 type  2   force =     0.00003649   -0.00004077    0.10324802
     atom   22 type  2   force =    -0.00033282   -0.00082869   -0.00098326
     atom   23 type  2   force =    -0.07146571   -0.00010537   -0.02766874
     atom   24 type  2   force =     0.07138151    0.00031939   -0.02767653
     atom   25 type  1   force =     0.00006220   -0.00012590    0.09603786
     atom   26 type  1   force =    -0.00022606   -0.00022130   -0.17569158
     atom   27 type  2   force =     0.00006058   -0.00012959   -0.02361386
     atom   28 type  2   force =     0.00005779   -0.00109404    0.05316111
     atom   29 type  2   force =    -0.01210291    0.00087102    0.00328272
     atom   30 type  2   force =     0.01366147    0.00134003    0.00233716
     atom   31 type  1   force =    -0.00082837    0.00331828   -0.01194668
     atom   32 type  1   force =     0.00043473   -0.01208001    0.02752251
     atom   33 type  2   force =     0.00022060    0.00015831    0.00011954
     atom   34 type  2   force =    -0.00106958    0.00252628   -0.02034719
     atom   35 type  2   force =     0.00015759   -0.00086835   -0.00029891
     atom   36 type  2   force =     0.00038882   -0.00058972   -0.00059168
     atom   37 type  1   force =     0.00005709    0.00116418   -0.00031381
     atom   38 type  1   force =     0.00032529    0.00031774   -0.00012012
     atom   39 type  2   force =    -0.00003773    0.00040065   -0.00081840
     atom   40 type  2   force =    -0.00001389    0.00005894   -0.00054852
     atom   41 type  2   force =     0.00043160   -0.00006888   -0.00010837
     atom   42 type  2   force =    -0.00051085    0.00011430    0.00083742
     atom   43 type  1   force =    -0.00010578   -0.00035528    0.00025871
     atom   44 type  1   force =    -0.00009800   -0.00022521    0.00000066
     atom   45 type  2   force =     0.00004977   -0.00005722    0.10325183
     atom   46 type  2   force =    -0.07146775   -0.00006736   -0.02767166
     atom   47 type  2   force =     0.07139476    0.00034483   -0.02767996
     atom   48 type  3   force =     0.00013071   -0.00065165   -0.00151663
     atom   49 type  3   force =     0.00007840   -0.00045198    0.00023198
     atom   50 type  4   force =    -0.00112472   -0.00033586   -0.00003022
     atom   51 type  5   force =     0.00051785   -0.00042242   -0.00008800

     Total force =     0.367613     Total SCF correction =     0.000639
  @ DRIVER MODE: Message from server: STATUS
  @ DRIVER MODE: Message from server: GETFORCE
  @ DRIVER MODE: Returning v,forces,stress,ensemble

     Writing output data file ./calc.save/
  @ DRIVER MODE: Message from server: EXIT
  @ DRIVE MODE: Exiting

     General routines

     Parallel routines

   This run was terminated on:  13:14:15  23Aug2021

   JOB DONE.