     Program PWSCF v.6.7GPU starts on 27Sep2021 at  2:48:33

     R & G space division:  proc/nbgrp/npool/nimage =       8
     Reading input from /storage/home/hcoda1/3/ntian30/research/carbon/CxH_vib/H2O_calc/ads_slab/CH2NHNHHO_b/out_0037/pw.inp
Warning: card &CELL ignored
Warning: card   CELL_DYNAMICS='IPI', ignored
Warning: card / ignored

     Current dimensions of program PWSCF are:
     Max number of different atomic species (ntypx) = 10
     Max number of k-points (npk) =  40000
     Max angular momentum in pseudopotentials (lmaxx) =  3
     Presently no symmetry can be used with electric field

     Message from routine cell_base_init:
     DEPRECATED: use true lattice parameter, not A to a.u. conversion factor

     IMPORTANT: XC functional enforced from input :
     Exchange-correlation= BEEF-VDW
                           (   1   4  43  14   2   0   0)
     Any further DFT definition will be discarded
     Please, verify this is what you really want

  @ DRIVER MODE: Connecting to
 qe_1139763_2971671.sched-torque.pace.gatech.edu99i137dm_scratch
  using UNIX socket
  @ DRIVER MODE: Message from server: STATUS
  @ DRIVER MODE: Message from server: INIT
  @ DRIVER MODE: Receiving replica           0          -1
  @ DRIVER MODE: Receiving encoded integer          25
  @ DRIVER MODE:  SCF:  T  FORCE:  T  STRESS:  F  VC:  F  ENSEMBLE:  F
  @ DRIVER MODE:  SCF:  T  FORCE:  T  STRESS:  F  VC:  F  ENSEMBLE:  F

     Using Slab Decomposition

     bravais-lattice index     =            0
     lattice parameter (alat)  =       1.8897  a.u.
     unit-cell volume          =    6658.9804 (a.u.)^3
     number of atoms/cell      =           56
     number of atomic types    =            5
     number of electrons       =       403.00
     number of Kohn-Sham states=          211
     kinetic-energy cutoff     =      29.3995  Ry
     charge density cutoff     =     293.9946  Ry
     scf convergence threshold =      7.3E-08
     mixing beta               =       0.0500
     number of iterations used =            8  plain     mixing
     Exchange-correlation= BEEF-VDW
                           (   1   4  43  14   2   0   0)

     celldm(1)=   1.889726  celldm(2)=   0.000000  celldm(3)=   0.000000
     celldm(4)=   0.000000  celldm(5)=   0.000000  celldm(6)=   0.000000

     crystal axes: (cart. coord. in units of alat)
               a(1) = (   6.579727   0.000000   0.000000 )
               a(2) = (  -0.000775   5.961596   0.000000 )
               a(3) = (   0.000000   0.000000  25.155947 )

     reciprocal axes: (cart. coord. in units 2 pi/alat)
               b(1) = (  0.151982  0.000020  0.000000 )
               b(2) = (  0.000000  0.167740  0.000000 )
               b(3) = (  0.000000  0.000000  0.039752 )

     PseudoPot. # 1 for Ti read from file:
     /storage/coda1/p-amedford6/0/shared/rich_project_chbe-medford/medford-share/data/pseudos_module/espresso/nninc/pbe/van/Ti.UPF
     MD5 check sum: 8e4df49b7f0d34bbd5052bf3f5ea0213
     Pseudo is Ultrasoft, Zval = 12.0
     Generated by new atomic code, or converted to UPF format
     Using radial grid of  851 points,  6 beta functions with:
                l(1) =   0
                l(2) =   0
                l(3) =   1
                l(4) =   1
                l(5) =   2
                l(6) =   2
     Q(r) pseudized with  8 coefficients,  rinner =    1.000   1.000   1.000
                                                       1.000   1.000

     PseudoPot. # 2 for O  read from file:
     /storage/coda1/p-amedford6/0/shared/rich_project_chbe-medford/medford-share/data/pseudos_module/espresso/nninc/pbe/van/O.UPF
     MD5 check sum: 78c19812648e8988a0fe644b0f25305e
     Pseudo is Ultrasoft, Zval =  6.0
     Generated by new atomic code, or converted to UPF format
     Using radial grid of  737 points,  4 beta functions with:
                l(1) =   0
                l(2) =   0
                l(3) =   1
                l(4) =   1
     Q(r) pseudized with  8 coefficients,  rinner =    0.800   0.800   0.800

     PseudoPot. # 3 for N  read from file:
     /storage/coda1/p-amedford6/0/shared/rich_project_chbe-medford/medford-share/data/pseudos_module/espresso/nninc/pbe/van/N.UPF
     MD5 check sum: 90d10febe142ad51ac9d5be1deb811c4
     Pseudo is Ultrasoft, Zval =  5.0
     Generated by new atomic code, or converted to UPF format
     Using radial grid of  729 points,  4 beta functions with:
                l(1) =   0
                l(2) =   0
                l(3) =   1
                l(4) =   1
     Q(r) pseudized with  8 coefficients,  rinner =    0.800   0.800   0.800

     PseudoPot. # 4 for C  read from file:
     /storage/coda1/p-amedford6/0/shared/rich_project_chbe-medford/medford-share/data/pseudos_module/espresso/nninc/pbe/van/C.UPF
     MD5 check sum: 1a69bf6b8db32088f5b2163dbdb77a27
     Pseudo is Ultrasoft, Zval =  4.0
     Generated by new atomic code, or converted to UPF format
     Using radial grid of  721 points,  4 beta functions with:
                l(1) =   0
                l(2) =   0
                l(3) =   1
                l(4) =   1
     Q(r) pseudized with  8 coefficients,  rinner =    0.800   0.800   0.800

     PseudoPot. # 5 for H  read from file:
     /storage/coda1/p-amedford6/0/shared/rich_project_chbe-medford/medford-share/data/pseudos_module/espresso/nninc/pbe/van/H.UPF
     MD5 check sum: b5ee9d7bfd3a09ee7748110bda690ff7
     Pseudo is Ultrasoft, Zval =  1.0
     Generated by new atomic code, or converted to UPF format
     Using radial grid of  615 points,  1 beta functions with:
                l(1) =   0
     Q(r) pseudized with  8 coefficients,  rinner =    0.800

     atomic species   valence    mass     pseudopotential
        Ti1           12.00    47.86700     Ti( 1.00)
        O1             6.00    15.99900     O ( 1.00)
        N1             5.00    14.00700     N ( 1.00)
        C1             4.00    12.01100     C ( 1.00)
        H1             1.00     1.00800     H ( 1.00)

     No symmetry found

   Cartesian axes

     site n.     atom                  positions (alat units)
         1           Ti1 tau(   1) = (   0.0004258   2.9801865   6.0000000  )
         2           Ti1 tau(   2) = (   3.2906075   1.4906267   6.0002472  )
         3           O1  tau(   3) = (   0.0006271   0.0005054   7.9858123  )
         4           O1  tau(   4) = (   3.2906025   0.0005020   7.3038282  )
         5           O1  tau(   5) = (   4.5942328   1.4918067   9.2879030  )
         6           O1  tau(   6) = (   1.9868534   1.4903216   9.2879459  )
         7           Ti1 tau(   7) = (   3.2907910   2.8959150   9.1758416  )
         8           Ti1 tau(   8) = (   0.0015273   1.4827037   9.2680791  )
         9           O1  tau(   9) = (   3.2987294   5.9443783  11.3578989  )
        10           O1  tau(  10) = (   0.0116148   5.9584955  10.6183126  )
        11           O1  tau(  11) = (   1.2795512   1.4821507  12.6386044  )
        12           O1  tau(  12) = (   5.2980455   1.5005163  12.6536529  )
        13           Ti1 tau(  13) = (   6.5652885   2.9238251  12.5528928  )
        14           Ti1 tau(  14) = (   3.2988635   1.2998061  12.7048432  )
        15           O1  tau(  15) = (   0.0127057   0.0339484  14.6761273  )
        16           O1  tau(  16) = (   3.2875936   0.0940603  14.0290633  )
        17           O1  tau(  17) = (   4.5650748   1.6033894  16.0357995  )
        18           O1  tau(  18) = (   2.0190796   1.5896112  16.2175902  )
        19           Ti1 tau(  19) = (   3.3013862   3.0422678  15.6649453  )
        20           Ti1 tau(  20) = (   6.4815444   1.5191555  15.8288377  )
        21           O1  tau(  21) = (   3.2904802   0.0005063   4.7018136  )
        22           O1  tau(  22) = (   6.5172723   5.9480513  17.2191950  )
        23           O1  tau(  23) = (   1.3043587   1.4918075   6.0039043  )
        24           O1  tau(  24) = (   5.2767064   1.4903225   6.0039473  )
        25           Ti1 tau(  25) = (   0.0000382   5.9609847   6.0000000  )
        26           Ti1 tau(  26) = (   3.2902200   4.4714249   6.0002472  )
        27           O1  tau(  27) = (   0.0002396   2.9813036   7.9858123  )
        28           O1  tau(  28) = (   3.2902150   2.9813002   7.3038282  )
        29           O1  tau(  29) = (   4.5938453   4.4726049   9.2879030  )
        30           O1  tau(  30) = (   1.9864658   4.4711199   9.2879459  )
        31           Ti1 tau(  31) = (   3.2891106   5.8743827   9.1763621  )
        32           Ti1 tau(  32) = (   0.0006254   4.4649316   9.2693709  )
        33           O1  tau(  33) = (   3.2945946   2.9940555  11.3077331  )
        34           O1  tau(  34) = (   0.0092240   2.9805883  10.6323155  )
        35           O1  tau(  35) = (   1.2876619   4.4781899  12.6403949  )
        36           O1  tau(  36) = (   5.3010724   4.4646845  12.6541769  )
        37           Ti1 tau(  37) = (   0.0424196   5.9023569  12.5123361  )
        38           Ti1 tau(  38) = (   3.3119368   4.3729351  12.4217702  )
        39           O1  tau(  39) = (   0.0401333   2.9740317  14.7512036  )
        40           O1  tau(  40) = (   3.2576645   3.0028392  13.8982547  )
        41           O1  tau(  41) = (   4.5666544   4.4234537  16.0705803  )
        42           O1  tau(  42) = (   2.0215446   4.4756893  16.1430302  )
        43           Ti1 tau(  43) = (   3.2259990   0.0392177  16.2341362  )
        44           Ti1 tau(  44) = (   6.5723990   4.6710500  15.9980081  )
        45           O1  tau(  45) = (   3.2900926   2.9813045   4.7018136  )
        46           O1  tau(  46) = (   1.3039711   4.4726057   6.0039043  )
        47           O1  tau(  47) = (   5.2763189   4.4711207   6.0039473  )
        48           N1  tau(  48) = (   0.9334729   2.5913682  18.4753943  )
        49           N1  tau(  49) = (   6.5156687   2.9055835  17.6419879  )
        50           C1  tau(  50) = (   1.0224037   2.6952286  19.7617917  )
        51           H1  tau(  51) = (   1.9166829   2.3177709  20.2270220  )
        52           H1  tau(  52) = (   0.2162702   3.1370440  20.3260263  )
        53           H1  tau(  53) = (   1.6995924   2.1399843  17.9426691  )
        54           H1  tau(  54) = (   5.6685098   3.1284051  18.1783837  )
        55           O1  tau(  55) = (   3.5318048   0.0910060  18.0897867  )
        56           H1  tau(  56) = (   4.4897960   0.0680733  18.2655997  )

     number of k points=    10  Fermi-Dirac smearing, width (Ry)=  0.0073
                       cart. coord. in units 2pi/alat
        k(    1) = (   0.0000000   0.0000000   0.0000000), wk =   0.1250000
        k(    2) = (   0.0000000   0.0419351   0.0000000), wk =   0.2500000
        k(    3) = (   0.0000000  -0.0838702   0.0000000), wk =   0.1250000
        k(    4) = (   0.0379955   0.0000049   0.0000000), wk =   0.2500000
        k(    5) = (   0.0379955   0.0419400   0.0000000), wk =   0.2500000
        k(    6) = (   0.0379955  -0.0838652   0.0000000), wk =   0.2500000
        k(    7) = (   0.0379955  -0.0419301   0.0000000), wk =   0.2500000
        k(    8) = (  -0.0759910  -0.0000099   0.0000000), wk =   0.1250000
        k(    9) = (  -0.0759910   0.0419252   0.0000000), wk =   0.2500000
        k(   10) = (  -0.0759910  -0.0838800   0.0000000), wk =   0.1250000

     Initial potential from superposition of free atoms

     starting charge  386.99914, renormalised to  403.00000

     negative rho (up, down):  1.427E-02 0.000E+00

     %%%%%%%%%%%%%%%%%%%%%%%%%%%%%%%%%%%%%%%%%%%%%%%%%%%%%%%%%%%%%%%%%%%%%%%%
     %                                                                      %
     % You are using vdW-DF, which was implemented by the Thonhauser group. %
     % Please cite the following two papers that made this development      %
     % possible and the two reviews that describe the various versions:     %
     %                                                                      %
     %   T. Thonhauser et al., PRL 115, 136402 (2015).                      %
     %   T. Thonhauser et al., PRB 76, 125112 (2007).                       %
     %   K. Berland et al., Rep. Prog. Phys. 78, 066501 (2015).             %
     %   D.C. Langreth et al., J. Phys.: Condens. Matter 21, 084203 (2009). %
     %                                                                      %
     %                                                                      %
     % If you are calculating the stress with vdW-DF, please also cite:     %
     %                                                                      %
     %   R. Sabatini et al., J. Phys.: Condens. Matter 24, 424209 (2012).   %
     %                                                                      %
     %%%%%%%%%%%%%%%%%%%%%%%%%%%%%%%%%%%%%%%%%%%%%%%%%%%%%%%%%%%%%%%%%%%%%%%%

     Adding external electric field

     Computed dipole along edir(3) :
        Dipole              -12.9683 Ry au,        -32.9621 Debye
        Dipole field         -0.0245 Ry au,

        Potential amp.        2.2686 Ry
        Total length         46.3494 bohr

     Starting wfcs are  305 atomic wfcs
  @ DRIVER MODE: Message from server: STATUS
  @ DRIVER MODE: Message from server: POSDATA
  @ DRIVER MODE: Reading and sharing cell
  @ DRIVER MODE: Reading and sharing positions
  @ DRIVER MODE: Received positions

     Self-consistent Calculation

     iteration #  1     ecut=    29.40 Ry     beta= 0.05
     Davidson diagonalization with overlap
     c_bands:  4 eigenvalues not converged
     c_bands:  4 eigenvalues not converged
     c_bands:  3 eigenvalues not converged
     c_bands:  1 eigenvalues not converged
     c_bands:  3 eigenvalues not converged
     c_bands:  2 eigenvalues not converged
     ethr =  1.00E-05,  avg # of iterations = 25.6

[...]

     total energy              =   -2352.68625134 Ry
     estimated scf accuracy    <    7059.78804023 Ry

     iteration #  2     ecut=    29.40 Ry     beta= 0.05
     Davidson diagonalization with overlap
     ethr =  1.00E-02,  avg # of iterations = 22.2

[...]

     iteration # 61     ecut=    29.40 Ry     beta= 0.05
     Davidson diagonalization with overlap
     ethr =  3.78E-11,  avg # of iterations =  5.8

[...]

     total energy              =   -2973.99828498 Ry
     estimated scf accuracy    <       0.00000010 Ry

     iteration # 62     ecut=    29.40 Ry     beta= 0.05
     Davidson diagonalization with overlap
     c_bands:  1 eigenvalues not converged
     ethr =  2.57E-11,  avg # of iterations =  8.1

     negative rho (up, down):  1.505E-02 0.000E+00

     Adding external electric field

     Computed dipole along edir(3) :
        Dipole                1.3500 Ry au,          3.4313 Debye
        Dipole field          0.0025 Ry au,

        Potential amp.       -0.2362 Ry
        Total length         46.3494 bohr

     End of self-consistent calculation

          k = 0.0000 0.0000 0.0000 ( 18029 PWs)   bands (ev):

   -55.4234 -55.3275 -55.2934 -55.1485 -55.1449 -55.1334 -55.1128 -55.1109
   -55.0840 -55.0552 -55.0339 -54.9572 -54.9541 -54.9106 -54.2910 -54.2569
   -31.8104 -31.7454 -31.6799 -31.6484 -31.6370 -31.6270 -31.6191 -31.5972
   -31.5724 -31.5715 -31.5673 -31.4828 -31.4798 -31.4325 -31.4188 -31.4046
   -31.3984 -31.3849 -31.3617 -31.3471 -31.3389 -31.3379 -31.3291 -31.3151
   -31.3028 -31.2909 -31.2784 -31.2757 -31.2744 -31.2630 -31.2596 -31.2493
   -31.2335 -31.2294 -31.2260 -31.1898 -31.1784 -31.1508 -31.1386 -31.1279
   -31.1164 -31.1121 -30.6965 -30.6113 -30.5888 -30.5141 -30.4278 -30.3160
   -19.6069 -16.1802 -15.9492 -15.7971 -15.6149 -15.4912 -15.4332 -15.2201
   -15.1523 -15.0814 -15.0009 -14.9361 -14.8583 -14.8442 -14.8188 -14.8036
   -14.7792 -14.7412 -14.7397 -14.7354 -14.6926 -14.6862 -14.6557 -14.6059
   -14.6005 -14.5785 -14.4563 -14.3827 -14.3366 -14.2028 -14.0813 -13.9331
   -12.7895 -12.6733 -10.1490  -7.0147  -6.6754  -4.2756  -4.0192  -3.6423
    -3.3288  -3.2520  -3.2223  -3.1814  -3.0571  -2.8764  -2.7545  -2.6849
    -2.5823  -2.4582  -2.4410  -2.3386  -2.3152  -2.2478  -2.2119  -2.1723
    -2.1518  -2.1280  -2.1053  -2.1018  -1.9898  -1.9854  -1.8602  -1.8427
    -1.7921  -1.7323  -1.6843  -1.6395  -1.6279  -1.6092  -1.5936  -1.5849
    -1.5543  -1.5403  -1.5168  -1.4646  -1.4042  -1.3568  -1.3198  -1.2061
    -1.0175  -0.9197  -0.8675  -0.8259  -0.7930  -0.7440  -0.7175  -0.7095
    -0.6795  -0.6411  -0.5087  -0.5009  -0.4546  -0.3788  -0.3391  -0.3182
    -0.1919  -0.1792  -0.1067  -0.0500  -0.0473  -0.0359   0.0584   0.1158
     0.1444   0.1734   0.2242   0.2808   0.3544   0.3832   0.4165   0.4760
     0.5372   0.5652   0.6247   0.6439   0.6557   0.7378   0.7585   0.7830
     0.8053   0.8766   0.9239   0.9597   0.9997   1.0882   1.1190   1.1689
     1.2049   1.3601   1.4147   1.6840   1.7354   1.7997   1.9292   2.3017
     2.3466   3.7744   3.9101   3.9293   3.9336   4.0312   4.1341   4.2472
     4.2955   4.3309   4.3763

[...]

          k = 0.0380-0.0419 0.0000 ( 17876 PWs)   bands (ev):

[...]

          k =-0.0760-0.0000 0.0000 ( 17886 PWs)   bands (ev):

[...]

          k =-0.0760-0.0839 0.0000 ( 17948 PWs)   bands (ev):

   -55.4226 -55.3107 -55.3100 -55.1340 -55.1336 -55.1305 -55.1288 -55.1236
   -55.0775 -55.0523 -55.0404 -54.9569 -54.9506 -54.9171 -54.2744 -54.2733
   -31.6791 -31.6718 -31.6286 -31.6259 -31.6256 -31.6048 -31.6042 -31.5453
   -31.5052 -31.4593 -31.4516 -31.4511 -31.4446 -31.4435 -31.4305 -31.4297
   -31.4200 -31.3981 -31.3773 -31.3683 -31.3573 -31.3425 -31.3415 -31.3301
   -31.3286 -31.3188 -31.3085 -31.3012 -31.2983 -31.2967 -31.2944 -31.2848
   -31.2730 -31.2624 -31.2571 -31.2494 -31.2201 -31.2089 -31.1822 -31.1595
   -31.1433 -31.1169 -30.6019 -30.6012 -30.5101 -30.5088 -30.4713 -30.4706
   -19.6050 -16.1429 -15.4852 -15.4162 -15.2677 -15.2585 -15.1875 -15.1463
   -15.1400 -15.0886 -15.0822 -15.0141 -14.9892 -14.9808 -14.9409 -14.8897
   -14.8395 -14.8096 -14.8041 -14.7560 -14.7460 -14.7346 -14.6981 -14.6784
   -14.6296 -14.6261 -14.6107 -14.5312 -14.4760 -14.3172 -14.3021 -13.9452
   -12.7755 -12.7749 -10.1523  -7.0105  -6.6726  -4.2662  -4.0073  -3.5954
    -2.6916  -2.6791  -2.6208  -2.4702  -2.4265  -2.3263  -2.3153  -2.2562
    -2.2425  -2.1948  -2.1741  -2.1626  -2.1262  -2.1062  -2.1030  -2.0761
    -2.0565  -2.0462  -2.0203  -1.9843  -1.9820  -1.9520  -1.9434  -1.9266
    -1.9061  -1.8848  -1.8654  -1.8599  -1.8074  -1.7752  -1.6172  -1.5976
    -1.4601  -1.4574  -1.4432  -1.4218  -1.3882  -1.3766  -1.3376  -1.3034
    -1.2333  -1.1908  -1.0957  -1.0606  -0.9537  -0.9254  -0.8541  -0.8071
    -0.7680  -0.7450  -0.7342  -0.7043  -0.6311  -0.5562  -0.5099  -0.4696
    -0.3699  -0.2941  -0.2696  -0.2652  -0.2580  -0.2249  -0.1545  -0.1533
    -0.1120  -0.0959  -0.0138  -0.0034   0.0107   0.0299   0.1641   0.1951
     0.2930   0.3569   0.4068   0.4607   0.4933   0.5437   0.6579   0.7891
     0.8419   0.8673   0.8810   0.9437   0.9912   1.0063   1.0531   1.1251
     1.1964   1.2453   1.2650   1.2885   1.3396   2.0983   2.1070   2.1666
     2.1671   4.0374   4.1381   4.2527   4.2875   4.3033   4.3224   4.3397
     4.3648   4.4092   4.4506

     the Fermi energy is     3.7998 ev

!    total energy              =   -2973.99835068 Ry
     estimated scf accuracy    <       0.00000007 Ry
     smearing contrib. (-TS)   =      -0.02052689 Ry
     internal energy E=F+TS    =   -2973.97782379 Ry

     The total energy is F=E-TS. E is the sum of the following terms:
     one-electron contribution =  -23635.37115194 Ry
     hartree contribution      =   11914.59422166 Ry
     xc contribution           =    -494.11120952 Ry
     ewald contribution        =    9240.90687689 Ry
     electric field correction =       0.00343913 Ry

     convergence has been achieved in  62 iterations

     Forces acting on atoms (cartesian axes, Ry/au):

     atom    1 type  1   force =    -0.00005867   -0.00028441    0.09523115
     atom    2 type  1   force =    -0.00011082    0.00042755   -0.17497239
     atom    3 type  2   force =     0.00000895   -0.00028197   -0.02253066
     atom    4 type  2   force =     0.00005129   -0.00195684    0.05326759
     atom    5 type  2   force =    -0.00764527   -0.00251025    0.00195808
     atom    6 type  2   force =     0.00923712   -0.00207119    0.00148197
     atom    7 type  1   force =    -0.00022792   -0.00467184    0.00732599
     atom    8 type  1   force =     0.00014072    0.00535783    0.01281838
     atom    9 type  2   force =    -0.00010836   -0.00003559    0.00021209
     atom   10 type  2   force =    -0.00275571    0.00061232   -0.01379988
     atom   11 type  2   force =    -0.00015248    0.00022566   -0.00000182
     atom   12 type  2   force =     0.00014285   -0.00003284    0.00025171
     atom   13 type  1   force =     0.00025838    0.00018969    0.00030502
     atom   14 type  1   force =     0.00001870   -0.00002083    0.00020236
     atom   15 type  2   force =     0.00036764   -0.00007219    0.00008076
     atom   16 type  2   force =    -0.00037055   -0.00008651    0.00007491
     atom   17 type  2   force =     0.00026041   -0.00023563   -0.00001228
     atom   18 type  2   force =     0.00007799    0.00006030    0.00027038
     atom   19 type  1   force =     0.00024041   -0.00002878   -0.00012261
     atom   20 type  1   force =     0.00016044   -0.00014294   -0.00009583
     atom   21 type  2   force =     0.00005673    0.00003486    0.10300139
     atom   22 type  2   force =     0.00006008    0.00014672   -0.00017389
     atom   23 type  2   force =    -0.07219809   -0.00019964   -0.02751105
     atom   24 type  2   force =     0.07210200    0.00021053   -0.02758165
     atom   25 type  1   force =     0.00010768   -0.00024750    0.09495945
     atom   26 type  1   force =    -0.00022929   -0.00136931   -0.17517983
     atom   27 type  2   force =     0.00015806   -0.00013442   -0.02136862
     atom   28 type  2   force =     0.00004904   -0.00025192    0.04861069
     atom   29 type  2   force =    -0.00690734    0.00261743    0.00145429
     atom   30 type  2   force =     0.00849080    0.00314129    0.00087982
     atom   31 type  1   force =    -0.00009787    0.00788219   -0.00301116
     atom   32 type  1   force =     0.00038617   -0.00772665    0.01220213
     atom   33 type  2   force =     0.00008315   -0.00004083   -0.00014742
     atom   34 type  2   force =    -0.00195981    0.00049234   -0.01636872
     atom   35 type  2   force =    -0.00012296    0.00002369    0.00000530
     atom   36 type  2   force =    -0.00005756    0.00031679   -0.00000451
     atom   37 type  1   force =    -0.00014333    0.00017626    0.00004993
     atom   38 type  1   force =    -0.00009327    0.00004583    0.00014927
     atom   39 type  2   force =    -0.00005738   -0.00027070   -0.00000262
     atom   40 type  2   force =     0.00012503    0.00000325    0.00022393
     atom   41 type  2   force =     0.00005011   -0.00013371   -0.00003262
     atom   42 type  2   force =     0.00025150   -0.00014902   -0.00006124
     atom   43 type  1   force =    -0.00024257   -0.00000333   -0.00035155
     atom   44 type  1   force =     0.00027569   -0.00005031    0.00000480
     atom   45 type  2   force =     0.00008824   -0.00014143    0.10279092
     atom   46 type  2   force =    -0.07218526   -0.00009252   -0.02757009
     atom   47 type  2   force =     0.07211442    0.00036304   -0.02759350
     atom   48 type  3   force =    -0.00140416    0.00066467    0.00069424
     atom   49 type  3   force =    -0.00962109    0.00247854    0.00494565
     atom   50 type  4   force =    -0.00009667    0.00020835    0.00000270
     atom   51 type  5   force =     0.00026609    0.00024838    0.00036719
     atom   52 type  5   force =    -0.00056788   -0.00021095    0.00013435
     atom   53 type  5   force =     0.00053378    0.00003367   -0.00034290
     atom   54 type  5   force =     0.01138807   -0.00274782   -0.00552627
     atom   55 type  2   force =    -0.00055985   -0.00011731    0.00024267
     atom   56 type  5   force =     0.00042258    0.00035800    0.00016400

     Total force =     0.363612     Total SCF correction =     0.000672
  @ DRIVER MODE: Message from server: STATUS
  @ DRIVER MODE: Message from server: GETFORCE
  @ DRIVER MODE: Returning v,forces,stress,ensemble

     Writing output data file ./calc.save/
  @ DRIVER MODE: Message from server: EXIT
  @ DRIVE MODE: Exiting

     General routines

     Parallel routines

   This run was terminated on:   3:12:34  27Sep2021

   JOB DONE.