     Program PWSCF v.6.7GPU starts on 15Sep2021 at 15:21:12

     R & G space division:  proc/nbgrp/npool/nimage =      10
     Reading input from /storage/home/hcoda1/3/ntian30/research/carbon/CxH_vib/CH_calc/ads_slab/CHNHNH_b/out_0019/pw.inp
Warning: card &CELL ignored
Warning: card   CELL_DYNAMICS='IPI', ignored
Warning: card / ignored

     Current dimensions of program PWSCF are:
     Max number of different atomic species (ntypx) = 10
     Max number of k-points (npk) =  40000
     Max angular momentum in pseudopotentials (lmaxx) =  3
     Presently no symmetry can be used with electric field

     Message from routine cell_base_init:
     DEPRECATED: use true lattice parameter, not A to a.u. conversion factor

     IMPORTANT: XC functional enforced from input :
     Exchange-correlation= BEEF-VDW
                           (   1   4  43  14   2   0   0)
     Any further DFT definition will be discarded
     Please, verify this is what you really want

  @ DRIVER MODE: Connecting to
 qe_1139763_2850202.sched-torque.pace.gatech.eduheiacwcy_scratch
  using UNIX socket
  @ DRIVER MODE: Message from server: STATUS
  @ DRIVER MODE: Message from server: INIT
  @ DRIVER MODE: Receiving replica           0          -1
  @ DRIVER MODE: Receiving encoded integer          25
  @ DRIVER MODE:  SCF:  T  FORCE:  T  STRESS:  F  VC:  F  ENSEMBLE:  F
  @ DRIVER MODE:  SCF:  T  FORCE:  T  STRESS:  F  VC:  F  ENSEMBLE:  F

     Using Slab Decomposition

     bravais-lattice index     =            0
     lattice parameter (alat)  =       1.8897  a.u.
     unit-cell volume          =    6658.9804 (a.u.)^3
     number of atoms/cell      =           53
     number of atomic types    =            5
     number of electrons       =       395.00
     number of Kohn-Sham states=          207
     kinetic-energy cutoff     =      29.3995  Ry
     charge density cutoff     =     293.9946  Ry
     scf convergence threshold =      7.3E-08
     mixing beta               =       0.0500
     number of iterations used =            8  plain     mixing
     Exchange-correlation= BEEF-VDW
                           (   1   4  43  14   2   0   0)

     celldm(1)=   1.889726  celldm(2)=   0.000000  celldm(3)=   0.000000
     celldm(4)=   0.000000  celldm(5)=   0.000000  celldm(6)=   0.000000

     crystal axes: (cart. coord. in units of alat)
               a(1) = (   6.579727   0.000000   0.000000 )
               a(2) = (  -0.000775   5.961596   0.000000 )
               a(3) = (   0.000000   0.000000  25.155947 )

     reciprocal axes: (cart. coord. in units 2 pi/alat)
               b(1) = (  0.151982  0.000020  0.000000 )
               b(2) = (  0.000000  0.167740  0.000000 )
               b(3) = (  0.000000  0.000000  0.039752 )

     PseudoPot. # 1 for Ti read from file:
     /storage/coda1/p-amedford6/0/shared/rich_project_chbe-medford/medford-share/data/pseudos_module/espresso/nninc/pbe/van/Ti.UPF
     MD5 check sum: 8e4df49b7f0d34bbd5052bf3f5ea0213
     Pseudo is Ultrasoft, Zval = 12.0
     Generated by new atomic code, or converted to UPF format
     Using radial grid of  851 points,  6 beta functions with:
                l(1) =   0
                l(2) =   0
                l(3) =   1
                l(4) =   1
                l(5) =   2
                l(6) =   2
     Q(r) pseudized with  8 coefficients,  rinner =    1.000   1.000   1.000
                                                       1.000   1.000

     PseudoPot. # 2 for O  read from file:
     /storage/coda1/p-amedford6/0/shared/rich_project_chbe-medford/medford-share/data/pseudos_module/espresso/nninc/pbe/van/O.UPF
     MD5 check sum: 78c19812648e8988a0fe644b0f25305e
     Pseudo is Ultrasoft, Zval =  6.0
     Generated by new atomic code, or converted to UPF format
     Using radial grid of  737 points,  4 beta functions with:
                l(1) =   0
                l(2) =   0
                l(3) =   1
                l(4) =   1
     Q(r) pseudized with  8 coefficients,  rinner =    0.800   0.800   0.800

     PseudoPot. # 3 for N  read from file:
     /storage/coda1/p-amedford6/0/shared/rich_project_chbe-medford/medford-share/data/pseudos_module/espresso/nninc/pbe/van/N.UPF
     MD5 check sum: 90d10febe142ad51ac9d5be1deb811c4
     Pseudo is Ultrasoft, Zval =  5.0
     Generated by new atomic code, or converted to UPF format
     Using radial grid of  729 points,  4 beta functions with:
                l(1) =   0
                l(2) =   0
                l(3) =   1
                l(4) =   1
     Q(r) pseudized with  8 coefficients,  rinner =    0.800   0.800   0.800

     PseudoPot. # 4 for C  read from file:
     /storage/coda1/p-amedford6/0/shared/rich_project_chbe-medford/medford-share/data/pseudos_module/espresso/nninc/pbe/van/C.UPF
     MD5 check sum: 1a69bf6b8db32088f5b2163dbdb77a27
     Pseudo is Ultrasoft, Zval =  4.0
     Generated by new atomic code, or converted to UPF format
     Using radial grid of  721 points,  4 beta functions with:
                l(1) =   0
                l(2) =   0
                l(3) =   1
                l(4) =   1
     Q(r) pseudized with  8 coefficients,  rinner =    0.800   0.800   0.800

     PseudoPot. # 5 for H  read from file:
     /storage/coda1/p-amedford6/0/shared/rich_project_chbe-medford/medford-share/data/pseudos_module/espresso/nninc/pbe/van/H.UPF
     MD5 check sum: b5ee9d7bfd3a09ee7748110bda690ff7
     Pseudo is Ultrasoft, Zval =  1.0
     Generated by new atomic code, or converted to UPF format
     Using radial grid of  615 points,  1 beta functions with:
                l(1) =   0
     Q(r) pseudized with  8 coefficients,  rinner =    0.800

     atomic species   valence    mass     pseudopotential
        Ti1           12.00    47.86700     Ti( 1.00)
        O1             6.00    15.99900     O ( 1.00)
        N1             5.00    14.00700     N ( 1.00)
        C1             4.00    12.01100     C ( 1.00)
        H1             1.00     1.00800     H ( 1.00)

     No symmetry found

   Cartesian axes

     site n.     atom                  positions (alat units)
         1           Ti1 tau(   1) = (   0.0004258   2.9801865   6.0000000  )
         2           Ti1 tau(   2) = (   3.2906075   1.4906267   6.0002472  )
         3           O1  tau(   3) = (   0.0006271   0.0005054   7.9858123  )
         4           O1  tau(   4) = (   3.2906025   0.0005020   7.3038282  )
         5           O1  tau(   5) = (   4.5942328   1.4918067   9.2879030  )
         6           O1  tau(   6) = (   1.9868534   1.4903216   9.2879459  )
         7           Ti1 tau(   7) = (   3.2907910   2.8959150   9.1758416  )
         8           Ti1 tau(   8) = (   0.0015273   1.4827037   9.2680791  )
         9           O1  tau(   9) = (   3.2799393   5.9535521  11.3540639  )
        10           O1  tau(  10) = (   0.0116148   5.9584955  10.6183126  )
        11           O1  tau(  11) = (   1.2974255   1.4613897  12.6506698  )
        12           O1  tau(  12) = (   5.3017888   1.4901577  12.6050164  )
        13           Ti1 tau(  13) = (   6.5221663   3.0180504  12.5986966  )
        14           Ti1 tau(  14) = (   3.2221172   1.5532140  12.5512791  )
        15           O1  tau(  15) = (   6.4783894   5.9520290  14.6579590  )
        16           O1  tau(  16) = (   3.3696489   5.9508513  13.9183136  )
        17           O1  tau(  17) = (   4.5179258   1.5103438  16.1624884  )
        18           O1  tau(  18) = (   1.9802590   1.4047766  15.9099196  )
        19           Ti1 tau(  19) = (   3.2637731   3.0080032  15.8837983  )
        20           Ti1 tau(  20) = (   6.5766856   1.4756295  15.8014380  )
        21           O1  tau(  21) = (   3.2904802   0.0005063   4.7018136  )
        22           O1  tau(  22) = (   0.0065935   5.9492922  17.2122405  )
        23           O1  tau(  23) = (   1.3043587   1.4918075   6.0039043  )
        24           O1  tau(  24) = (   5.2767064   1.4903225   6.0039473  )
        25           Ti1 tau(  25) = (   0.0000382   5.9609847   6.0000000  )
        26           Ti1 tau(  26) = (   3.2902200   4.4714249   6.0002472  )
        27           O1  tau(  27) = (   0.0002396   2.9813036   7.9858123  )
        28           O1  tau(  28) = (   3.2902150   2.9813002   7.3038282  )
        29           O1  tau(  29) = (   4.5938453   4.4726049   9.2879030  )
        30           O1  tau(  30) = (   1.9864658   4.4711199   9.2879459  )
        31           Ti1 tau(  31) = (   3.2891106   5.8743827   9.1763621  )
        32           Ti1 tau(  32) = (   0.0006254   4.4649316   9.2693709  )
        33           O1  tau(  33) = (   3.2772596   2.9828089  11.3369495  )
        34           O1  tau(  34) = (   0.0092240   2.9805883  10.6323155  )
        35           O1  tau(  35) = (   1.2916203   4.4718874  12.6594431  )
        36           O1  tau(  36) = (   5.2999639   4.4615573  12.6129894  )
        37           Ti1 tau(  37) = (   6.5361528   0.0312684  12.5125129  )
        38           Ti1 tau(  38) = (   3.2177194   4.4831555  12.4956785  )
        39           O1  tau(  39) = (   6.5168025   2.9395006  14.7032746  )
        40           O1  tau(  40) = (   3.2870264   2.9515371  13.9313172  )
        41           O1  tau(  41) = (   4.5204763   4.4345026  16.1736457  )
        42           O1  tau(  42) = (   1.9972348   4.5331091  15.9467552  )
        43           Ti1 tau(  43) = (   3.2981618   0.0182476  15.6956140  )
        44           Ti1 tau(  44) = (   0.0010288   4.6427453  16.0560918  )
        45           O1  tau(  45) = (   3.2900926   2.9813045   4.7018136  )
        46           O1  tau(  46) = (   1.3039711   4.4726057   6.0039043  )
        47           O1  tau(  47) = (   5.2763189   4.4711207   6.0039473  )
        48           N1  tau(  48) = (   1.3052520   2.8252889  18.3786263  )
        49           N1  tau(  49) = (   0.2128110   2.9323531  17.5195281  )
        50           C1  tau(  50) = (   2.5582938   2.8657590  18.0399718  )
        51           H1  tau(  51) = (   3.1686551   2.7222395  18.9297303  )
        52           H1  tau(  52) = (   1.0317423   2.6491596  19.3433462  )
        53           H1  tau(  53) = (   5.9645394   2.8535341  18.1048464  )

     number of k points=    10  Fermi-Dirac smearing, width (Ry)=  0.0073
                       cart. coord. in units 2pi/alat
        k(    1) = (   0.0000000   0.0000000   0.0000000), wk =   0.1250000
        k(    2) = (   0.0000000   0.0419351   0.0000000), wk =   0.2500000
        k(    3) = (   0.0000000  -0.0838702   0.0000000), wk =   0.1250000
        k(    4) = (   0.0379955   0.0000049   0.0000000), wk =   0.2500000
        k(    5) = (   0.0379955   0.0419400   0.0000000), wk =   0.2500000
        k(    6) = (   0.0379955  -0.0838652   0.0000000), wk =   0.2500000
        k(    7) = (   0.0379955  -0.0419301   0.0000000), wk =   0.2500000
        k(    8) = (  -0.0759910  -0.0000099   0.0000000), wk =   0.1250000
        k(    9) = (  -0.0759910   0.0419252   0.0000000), wk =   0.2500000
        k(   10) = (  -0.0759910  -0.0838800   0.0000000), wk =   0.1250000

     Initial potential from superposition of free atoms

     starting charge  378.99916, renormalised to  395.00000

     negative rho (up, down):  1.762E-02 0.000E+00

     %%%%%%%%%%%%%%%%%%%%%%%%%%%%%%%%%%%%%%%%%%%%%%%%%%%%%%%%%%%%%%%%%%%%%%%%
     %                                                                      %
     % You are using vdW-DF, which was implemented by the Thonhauser group. %
     % Please cite the following two papers that made this development      %
     % possible and the two reviews that describe the various versions:     %
     %                                                                      %
     %   T. Thonhauser et al., PRL 115, 136402 (2015).                      %
     %   T. Thonhauser et al., PRB 76, 125112 (2007).                       %
     %   K. Berland et al., Rep. Prog. Phys. 78, 066501 (2015).             %
     %   D.C. Langreth et al., J. Phys.: Condens. Matter 21, 084203 (2009). %
     %                                                                      %
     %                                                                      %
     % If you are calculating the stress with vdW-DF, please also cite:     %
     %                                                                      %
     %   R. Sabatini et al., J. Phys.: Condens. Matter 24, 424209 (2012).   %
     %                                                                      %
     %%%%%%%%%%%%%%%%%%%%%%%%%%%%%%%%%%%%%%%%%%%%%%%%%%%%%%%%%%%%%%%%%%%%%%%%

     Adding external electric field

     Computed dipole along edir(3) :
        Dipole               -7.9500 Ry au,        -20.2069 Debye
        Dipole field         -0.0150 Ry au,

        Potential amp.        1.3907 Ry
        Total length         46.3494 bohr

     Starting wfcs are  299 atomic wfcs
  @ DRIVER MODE: Message from server: STATUS
  @ DRIVER MODE: Message from server: POSDATA
  @ DRIVER MODE: Reading and sharing cell
  @ DRIVER MODE: Reading and sharing positions
  @ DRIVER MODE: Received positions

     Self-consistent Calculation

     iteration #  1     ecut=    29.40 Ry     beta= 0.05
     Davidson diagonalization with overlap
     c_bands:  1 eigenvalues not converged
     c_bands:  2 eigenvalues not converged
     c_bands:  2 eigenvalues not converged
     c_bands:  3 eigenvalues not converged
     c_bands:  3 eigenvalues not converged
     c_bands:  1 eigenvalues not converged
     c_bands:  1 eigenvalues not converged
     ethr =  1.00E-05,  avg # of iterations = 19.2

[...]

     total energy              =   -2627.20733646 Ry
     estimated scf accuracy    <    3450.00638787 Ry

[...]

     iteration #  3     ecut=    29.40 Ry     beta= 0.05
     Davidson diagonalization with overlap
     ethr =  1.00E-02,  avg # of iterations = 14.4

[...]

     iteration # 77     ecut=    29.40 Ry     beta= 0.05
     Davidson diagonalization with overlap
     c_bands:  1 eigenvalues not converged
     ethr =  3.25E-11,  avg # of iterations = 13.7

[...]

     total energy              =   -2939.10946119 Ry
     estimated scf accuracy    <       0.00000017 Ry

     iteration # 78     ecut=    29.40 Ry     beta= 0.05
     Davidson diagonalization with overlap
     ethr =  3.25E-11,  avg # of iterations =  7.7

     negative rho (up, down):  1.782E-02 0.000E+00

     Adding external electric field

     Computed dipole along edir(3) :
        Dipole                1.3681 Ry au,          3.4775 Debye
        Dipole field          0.0026 Ry au,

        Potential amp.       -0.2393 Ry
        Total length         46.3494 bohr

     End of self-consistent calculation

          k = 0.0000 0.0000 0.0000 ( 18029 PWs)   bands (ev):

   -55.4842 -55.4501 -55.3910 -55.3457 -55.3337 -55.3255 -55.3020 -55.2951
   -55.2909 -55.2680 -55.2603 -55.2255 -55.1449 -54.9900 -54.4638 -54.4297
   -31.9681 -31.9189 -31.8319 -31.8055 -31.8019 -31.7763 -31.7498 -31.7289
   -31.7142 -31.6554 -31.6467 -31.6366 -31.6357 -31.6020 -31.5900 -31.5829
   -31.5669 -31.5638 -31.5490 -31.5415 -31.5072 -31.4963 -31.4957 -31.4937
   -31.4934 -31.4850 -31.4805 -31.4787 -31.4520 -31.4427 -31.4416 -31.4409
   -31.4334 -31.4265 -31.4144 -31.4088 -31.3914 -31.3725 -31.3688 -31.2428
   -31.2292 -31.1948 -30.8706 -30.7826 -30.7602 -30.6875 -30.6011 -30.4899
   -18.7505 -16.1641 -15.9627 -15.7764 -15.6463 -15.5926 -15.3580 -15.2537
   -15.2193 -15.1362 -15.0907 -15.0624 -15.0237 -15.0088 -14.9930 -14.9853
   -14.9271 -14.9084 -14.9021 -14.8717 -14.8530 -14.8292 -14.8162 -14.7264
   -14.6421 -14.6379 -14.6263 -14.6013 -14.5385 -14.1487 -13.5047 -12.9647
   -12.8483  -8.8923  -7.3763  -4.4420  -3.6711  -3.5322  -3.4234  -3.4070
    -3.3887  -3.2632  -3.1466  -2.8968  -2.8839  -2.7493  -2.6622  -2.6215
    -2.5489  -2.4747  -2.4398  -2.3815  -2.3165  -2.2938  -2.2763  -2.2429
    -2.2210  -2.2112  -2.1815  -2.0381  -2.0189  -1.9532  -1.8651  -1.8564
    -1.7991  -1.7942  -1.7728  -1.7423  -1.7393  -1.7324  -1.7117  -1.6916
    -1.6217  -1.5435  -1.4984  -1.4570  -1.3187  -1.1895  -1.1365  -1.0948
    -1.0305  -0.9556  -0.9209  -0.9075  -0.8915  -0.8754  -0.7261  -0.6796
    -0.6563  -0.6196  -0.5014  -0.4197  -0.3639  -0.3166  -0.2841  -0.2556
    -0.2349  -0.2224  -0.1861  -0.0673   0.0013   0.0484   0.0808   0.1565
     0.2132   0.2474   0.2595   0.3243   0.3604   0.3858   0.4355   0.4739
     0.4878   0.5107   0.5438   0.5616   0.6374   0.7508   0.7740   0.7767
     0.8170   1.0070   1.0716   1.1298   1.1741   1.2947   1.3236   1.4948
     1.5599   1.6358   1.7525   2.1302   2.1760   3.6298   3.7366   3.7731
     3.8129   3.8479   3.8944   4.0930   4.1389   4.1837   4.2692

[...]

          k = 0.0380-0.0419 0.0000 ( 17876 PWs)   bands (ev):

[...]

          k =-0.0760-0.0000 0.0000 ( 17886 PWs)   bands (ev):

[...]

          k =-0.0760-0.0839 0.0000 ( 17948 PWs)   bands (ev):

   -55.4675 -55.4668 -55.3823 -55.3540 -55.3233 -55.3123 -55.3058 -55.3039
   -55.2853 -55.2841 -55.2476 -55.2384 -55.1431 -54.9917 -54.4468 -54.4466
   -31.7836 -31.7831 -31.7619 -31.7614 -31.7614 -31.7311 -31.6677 -31.6640
   -31.6492 -31.6287 -31.6212 -31.6115 -31.6009 -31.6001 -31.5906 -31.5870
   -31.5863 -31.5797 -31.5793 -31.5773 -31.5618 -31.5584 -31.5453 -31.5330
   -31.5318 -31.5133 -31.5103 -31.5083 -31.4871 -31.4854 -31.4751 -31.4628
   -31.4602 -31.4581 -31.4565 -31.4550 -31.4415 -31.3854 -31.3730 -31.2883
   -31.2452 -31.2327 -30.7729 -30.7728 -30.6836 -30.6833 -30.6444 -30.6443
   -18.7469 -15.5993 -15.5038 -15.4872 -15.4126 -15.3888 -15.2884 -15.2519
   -15.2119 -15.1878 -15.1809 -15.1486 -15.0995 -15.0856 -15.0465 -15.0353
   -15.0099 -14.9756 -14.9658 -14.9291 -14.9263 -14.9194 -14.8827 -14.8224
   -14.8056 -14.7979 -14.7959 -14.7156 -14.6090 -14.3538 -13.5243 -12.9502
   -12.9500  -8.8832  -7.2957  -4.5725  -3.6479  -2.8496  -2.7851  -2.7685
    -2.6718  -2.5928  -2.5274  -2.4856  -2.4600  -2.4033  -2.3945  -2.3400
    -2.3312  -2.3052  -2.2906  -2.2772  -2.2433  -2.2264  -2.2240  -2.1898
    -2.1829  -2.1594  -2.1329  -2.1106  -2.0995  -2.0837  -2.0682  -2.0438
    -2.0307  -1.9984  -1.9580  -1.8258  -1.7090  -1.6602  -1.6298  -1.6093
    -1.5864  -1.5557  -1.5384  -1.5267  -1.4938  -1.4518  -1.3104  -1.1725
    -1.1508  -1.0615  -1.0140  -0.9920  -0.9551  -0.8997  -0.8771  -0.8737
    -0.8170  -0.7908  -0.7055  -0.6568  -0.6159  -0.5901  -0.4587  -0.4507
    -0.4464  -0.4309  -0.3998  -0.3806  -0.3272  -0.2474  -0.2159  -0.2099
    -0.1642  -0.1620  -0.1496  -0.0081   0.0570   0.1017   0.1931   0.2405
     0.3892   0.5431   0.5675   0.6022   0.6936   0.7488   0.7903   0.8280
     0.8442   0.8966   0.9617   1.0298   1.0420   1.0962   1.1166   1.1976
     1.2360   1.9242   1.9250   1.9957   1.9961   3.9953   4.0024   4.0178
     4.0871   4.1485   4.1551   4.1880   4.1890   4.2909   4.3182

     the Fermi energy is     3.6444 ev

!    total energy              =   -2939.10947028 Ry
     estimated scf accuracy    <       0.00000004 Ry
     smearing contrib. (-TS)   =      -0.02093324 Ry
     internal energy E=F+TS    =   -2939.08853704 Ry

     The total energy is F=E-TS. E is the sum of the following terms:
     one-electron contribution =  -24577.83520450 Ry
     hartree contribution      =   12380.50942995 Ry
     xc contribution           =    -485.21205463 Ry
     ewald contribution        =    9743.44575975 Ry
     electric field correction =       0.00353239 Ry

     convergence has been achieved in  78 iterations

     Forces acting on atoms (cartesian axes, Ry/au):

     atom    1 type  1   force =     0.00004861   -0.00021389    0.09561861
     atom    2 type  1   force =    -0.00001374   -0.00052333   -0.17548106
     atom    3 type  2   force =     0.00008654   -0.00008982   -0.02326784
     atom    4 type  2   force =    -0.00003177   -0.00149055    0.05266566
     atom    5 type  2   force =    -0.01057238   -0.00050183    0.00371903
     atom    6 type  2   force =     0.01175994   -0.00007274    0.00224228
     atom    7 type  1   force =    -0.00002383   -0.00028471   -0.00806998
     atom    8 type  1   force =     0.00049763    0.01258369    0.01817491
     atom    9 type  2   force =    -0.00031336    0.00005313    0.00006495
     atom   10 type  2   force =    -0.00242538    0.00020151   -0.01643372
     atom   11 type  2   force =    -0.00028848    0.00019787    0.00002003
     atom   12 type  2   force =    -0.00046625   -0.00014533   -0.00012885
     atom   13 type  1   force =     0.00022664   -0.00008282    0.00004930
     atom   14 type  1   force =     0.00033552    0.00002716   -0.00005236
     atom   15 type  2   force =     0.00014426    0.00022020    0.00002680
     atom   16 type  2   force =    -0.00015903   -0.00020161    0.00017645
     atom   17 type  2   force =    -0.00001942   -0.00024975   -0.00030269
     atom   18 type  2   force =     0.00004038   -0.00005220   -0.00036071
     atom   19 type  1   force =     0.00028528    0.00002128   -0.00072322
     atom   20 type  1   force =     0.00033232    0.00015321   -0.00034537
     atom   21 type  2   force =     0.00005432   -0.00006078    0.10320529
     atom   22 type  2   force =     0.00004330    0.00012555    0.00000466
     atom   23 type  2   force =    -0.07159728   -0.00015961   -0.02755963
     atom   24 type  2   force =     0.07152575    0.00028017   -0.02761751
     atom   25 type  1   force =     0.00017414   -0.00026003    0.09532294
     atom   26 type  1   force =     0.00004830   -0.00030342   -0.17587049
     atom   27 type  2   force =     0.00009014   -0.00019330   -0.02225475
     atom   28 type  2   force =    -0.00001538   -0.00114757    0.05314425
     atom   29 type  2   force =    -0.01039834   -0.00021510    0.00331778
     atom   30 type  2   force =     0.01139403    0.00019869    0.00189085
     atom   31 type  1   force =    -0.00013645    0.00481886   -0.00023982
     atom   32 type  1   force =     0.00058796   -0.01318205    0.01871284
     atom   33 type  2   force =    -0.00015385    0.00013745   -0.00009343
     atom   34 type  2   force =    -0.00060001    0.00043190   -0.01725437
     atom   35 type  2   force =    -0.00035334   -0.00015052    0.00014602
     atom   36 type  2   force =    -0.00021813   -0.00033496    0.00020576
     atom   37 type  1   force =     0.00032863   -0.00016400    0.00007901
     atom   38 type  1   force =     0.00016456    0.00021835    0.00018935
     atom   39 type  2   force =    -0.00030237   -0.00004746   -0.00029381
     atom   40 type  2   force =    -0.00011259   -0.00009583    0.00047077
     atom   41 type  2   force =    -0.00007439    0.00010402   -0.00002283
     atom   42 type  2   force =     0.00031330   -0.00007583    0.00013370
     atom   43 type  1   force =    -0.00011606    0.00014242    0.00012480
     atom   44 type  1   force =     0.00029142    0.00012684    0.00022564
     atom   45 type  2   force =     0.00006724   -0.00009665    0.10322316
     atom   46 type  2   force =    -0.07165459   -0.00011390   -0.02760244
     atom   47 type  2   force =     0.07154299    0.00026902   -0.02764301
     atom   48 type  3   force =    -0.00120178   -0.00004294   -0.00159931
     atom   49 type  3   force =    -0.00001035   -0.00031306   -0.00009433
     atom   50 type  4   force =    -0.00471433    0.00042786   -0.00374178
     atom   51 type  5   force =     0.00565449   -0.00078822    0.00518709
     atom   52 type  5   force =    -0.00028633    0.00124071   -0.00056888
     atom   53 type  5   force =     0.00022152   -0.00032604   -0.00071974

     Total force =     0.365713     Total SCF correction =     0.000769
  @ DRIVER MODE: Message from server: STATUS
  @ DRIVER MODE: Message from server: GETFORCE
  @ DRIVER MODE: Returning v,forces,stress,ensemble

     Writing output data file ./calc.save/
  @ DRIVER MODE: Message from server: EXIT
  @ DRIVE MODE: Exiting

     General routines

     Parallel routines

   This run was terminated on:  15:42: 2  15Sep2021

   JOB DONE.