     Program PWSCF v.6.7GPU starts on 15Sep2021 at 18:20:48

     R & G space division:  proc/nbgrp/npool/nimage =      10
     Reading input from /storage/home/hcoda1/3/ntian30/research/carbon/CxH_vib/H2O_calc/ads_slab/CHOH2O_a/out_0009/pw.inp
Warning: card &CELL ignored
Warning: card   CELL_DYNAMICS='IPI', ignored
Warning: card / ignored

     Current dimensions of program PWSCF are:
     Max number of different atomic species (ntypx) = 10
     Max number of k-points (npk) =  40000
     Max angular momentum in pseudopotentials (lmaxx) =  3
     Presently no symmetry can be used with electric field

     Message from routine cell_base_init:
     DEPRECATED: use true lattice parameter, not A to a.u. conversion factor

     IMPORTANT: XC functional enforced from input :
     Exchange-correlation= BEEF-VDW
                           (   1   4  43  14   2   0   0)
     Any further DFT definition will be discarded
     Please, verify this is what you really want

  @ DRIVER MODE: Connecting to
 qe_1139763_2852631.sched-torque.pace.gatech.eduepiyyvet_scratch
  using UNIX socket
  @ DRIVER MODE: Message from server: STATUS
  @ DRIVER MODE: Message from server: INIT
  @ DRIVER MODE: Receiving replica           0          -1
  @ DRIVER MODE: Receiving encoded integer          25
  @ DRIVER MODE:  SCF:  T  FORCE:  T  STRESS:  F  VC:  F  ENSEMBLE:  F
  @ DRIVER MODE:  SCF:  T  FORCE:  T  STRESS:  F  VC:  F  ENSEMBLE:  F

     Using Slab Decomposition

     bravais-lattice index     =            0
     lattice parameter (alat)  =       1.8897  a.u.
     unit-cell volume          =    6658.9804 (a.u.)^3
     number of atoms/cell      =           53
     number of atomic types    =            4
     number of electrons       =       397.00
     number of Kohn-Sham states=          208
     kinetic-energy cutoff     =      29.3995  Ry
     charge density cutoff     =     293.9946  Ry
     scf convergence threshold =      7.3E-08
     mixing beta               =       0.0500
     number of iterations used =            8  plain     mixing
     Exchange-correlation= BEEF-VDW
                           (   1   4  43  14   2   0   0)

     celldm(1)=   1.889726  celldm(2)=   0.000000  celldm(3)=   0.000000
     celldm(4)=   0.000000  celldm(5)=   0.000000  celldm(6)=   0.000000

     crystal axes: (cart. coord. in units of alat)
               a(1) = (   6.579727   0.000000   0.000000 )
               a(2) = (  -0.000775   5.961596   0.000000 )
               a(3) = (   0.000000   0.000000  25.155947 )

     reciprocal axes: (cart. coord. in units 2 pi/alat)
               b(1) = (  0.151982  0.000020  0.000000 )
               b(2) = (  0.000000  0.167740  0.000000 )
               b(3) = (  0.000000  0.000000  0.039752 )

     PseudoPot. # 1 for O  read from file:
     /storage/coda1/p-amedford6/0/shared/rich_project_chbe-medford/medford-share/data/pseudos_module/espresso/nninc/pbe/van/O.UPF
     MD5 check sum: 78c19812648e8988a0fe644b0f25305e
     Pseudo is Ultrasoft, Zval =  6.0
     Generated by new atomic code, or converted to UPF format
     Using radial grid of  737 points,  4 beta functions with:
                l(1) =   0
                l(2) =   0
                l(3) =   1
                l(4) =   1
     Q(r) pseudized with  8 coefficients,  rinner =    0.800   0.800   0.800

     PseudoPot. # 2 for Ti read from file:
     /storage/coda1/p-amedford6/0/shared/rich_project_chbe-medford/medford-share/data/pseudos_module/espresso/nninc/pbe/van/Ti.UPF
     MD5 check sum: 8e4df49b7f0d34bbd5052bf3f5ea0213
     Pseudo is Ultrasoft, Zval = 12.0
     Generated by new atomic code, or converted to UPF format
     Using radial grid of  851 points,  6 beta functions with:
                l(1) =   0
                l(2) =   0
                l(3) =   1
                l(4) =   1
                l(5) =   2
                l(6) =   2
     Q(r) pseudized with  8 coefficients,  rinner =    1.000   1.000   1.000
                                                       1.000   1.000

     PseudoPot. # 3 for C  read from file:
     /storage/coda1/p-amedford6/0/shared/rich_project_chbe-medford/medford-share/data/pseudos_module/espresso/nninc/pbe/van/C.UPF
     MD5 check sum: 1a69bf6b8db32088f5b2163dbdb77a27
     Pseudo is Ultrasoft, Zval =  4.0
     Generated by new atomic code, or converted to UPF format
     Using radial grid of  721 points,  4 beta functions with:
                l(1) =   0
                l(2) =   0
                l(3) =   1
                l(4) =   1
     Q(r) pseudized with  8 coefficients,  rinner =    0.800   0.800   0.800

     PseudoPot. # 4 for H  read from file:
     /storage/coda1/p-amedford6/0/shared/rich_project_chbe-medford/medford-share/data/pseudos_module/espresso/nninc/pbe/van/H.UPF
     MD5 check sum: b5ee9d7bfd3a09ee7748110bda690ff7
     Pseudo is Ultrasoft, Zval =  1.0
     Generated by new atomic code, or converted to UPF format
     Using radial grid of  615 points,  1 beta functions with:
                l(1) =   0
     Q(r) pseudized with  8 coefficients,  rinner =    0.800

     atomic species   valence    mass     pseudopotential
        O1             6.00    15.99900     O ( 1.00)
        Ti1           12.00    47.86700     Ti( 1.00)
        C1             4.00    12.01100     C ( 1.00)
        H1             1.00     1.00800     H ( 1.00)

     No symmetry found

   Cartesian axes

     site n.     atom                  positions (alat units)
         1           O1  tau(   1) = (   3.2904802   0.0005063   4.7018136  )
         2           O1  tau(   2) = (   3.2900926   2.9813045   4.7018136  )
         3           Ti1 tau(   3) = (   0.0004258   2.9801865   6.0000000  )
         4           Ti1 tau(   4) = (   0.0000382   5.9609847   6.0000000  )
         5           Ti1 tau(   5) = (   3.2906075   1.4906267   6.0002472  )
         6           Ti1 tau(   6) = (   3.2902200   4.4714249   6.0002472  )
         7           O1  tau(   7) = (   1.3043587   1.4918075   6.0039043  )
         8           O1  tau(   8) = (   1.3039711   4.4726057   6.0039043  )
         9           O1  tau(   9) = (   5.2767064   1.4903225   6.0039473  )
        10           O1  tau(  10) = (   5.2763189   4.4711207   6.0039473  )
        11           O1  tau(  11) = (   3.2906025   0.0005020   7.3038282  )
        12           O1  tau(  12) = (   3.2902150   2.9813002   7.3038282  )
        13           O1  tau(  13) = (   0.0006271   0.0005054   7.9858123  )
        14           O1  tau(  14) = (   0.0002396   2.9813036   7.9858123  )
        15           Ti1 tau(  15) = (   3.2898052   0.0549011   9.1556235  )
        16           Ti1 tau(  16) = (   3.3203827   3.0319468   9.1649589  )
        17           Ti1 tau(  17) = (   0.0233352   4.5284096   9.2575609  )
        18           Ti1 tau(  18) = (   0.0173867   1.6076536   9.3607995  )
        19           O1  tau(  19) = (   4.5942328   1.4918067   9.2879030  )
        20           O1  tau(  20) = (   4.5938453   4.4726049   9.2879030  )
        21           O1  tau(  21) = (   1.9868534   1.4903216   9.2879459  )
        22           O1  tau(  22) = (   1.9864658   4.4711199   9.2879459  )
        23           O1  tau(  23) = (   0.0034721   0.0125384  10.6021848  )
        24           O1  tau(  24) = (   0.0020335   2.9928551  10.5785608  )
        25           O1  tau(  25) = (   3.2937812   2.9995440  11.3622203  )
        26           O1  tau(  26) = (   3.2898347   0.0201518  11.3605052  )
        27           Ti1 tau(  27) = (   0.0300534   0.0302837  12.4945235  )
        28           Ti1 tau(  28) = (   3.3347356   4.5017157  12.5123549  )
        29           Ti1 tau(  29) = (   3.3349302   1.5071924  12.5110355  )
        30           Ti1 tau(  30) = (   0.0295963   3.0145660  12.7881340  )
        31           O1  tau(  31) = (   1.2797855   4.4923438  12.6426172  )
        32           O1  tau(  32) = (   1.2799313   1.5104473  12.6443552  )
        33           O1  tau(  33) = (   5.2866386   4.4922094  12.6434695  )
        34           O1  tau(  34) = (   5.2866683   1.5083124  12.6439979  )
        35           O1  tau(  35) = (   3.2814828   3.0070543  13.9178409  )
        36           O1  tau(  36) = (   3.2867003   0.0227894  13.9786966  )
        37           O1  tau(  37) = (   0.0021618   0.0175046  14.6784646  )
        38           O1  tau(  38) = (   0.0002945   3.0143855  14.7103493  )
        39           Ti1 tau(  39) = (   3.2869621   3.0144872  15.7052805  )
        40           Ti1 tau(  40) = (   3.3044863   0.0423327  15.8215216  )
        41           Ti1 tau(  41) = (   0.0135451   4.5796903  15.9522020  )
        42           Ti1 tau(  42) = (   0.0105102   1.3838334  15.9764479  )
        43           O1  tau(  43) = (   4.5519026   4.4709862  16.0573678  )
        44           O1  tau(  44) = (   4.5564327   1.5473262  16.0430495  )
        45           O1  tau(  45) = (   2.0152543   1.5518810  16.0555283  )
        46           O1  tau(  46) = (   2.0123771   4.4621050  16.0713562  )
        47           O1  tau(  47) = (   0.0008539   0.0298781  17.1953024  )
        48           O1  tau(  48) = (   6.5358978   3.0350243  17.4695059  )
        49           C1  tau(  49) = (   6.3916590   3.0674531  18.7359330  )
        50           H1  tau(  50) = (   6.4332689   2.0249999  19.1325638  )
        51           O1  tau(  51) = (   3.2941481   0.0813851  18.1811625  )
        52           H1  tau(  52) = (   4.0521942   5.5777154  18.5714528  )
        53           H1  tau(  53) = (   2.4879692   5.6555715  18.5615442  )

     number of k points=    10  Fermi-Dirac smearing, width (Ry)=  0.0073
                       cart. coord. in units 2pi/alat
        k(    1) = (   0.0000000   0.0000000   0.0000000), wk =   0.1250000
        k(    2) = (   0.0000000   0.0419351   0.0000000), wk =   0.2500000
        k(    3) = (   0.0000000  -0.0838702   0.0000000), wk =   0.1250000
        k(    4) = (   0.0379955   0.0000049   0.0000000), wk =   0.2500000
        k(    5) = (   0.0379955   0.0419400   0.0000000), wk =   0.2500000
        k(    6) = (   0.0379955  -0.0838652   0.0000000), wk =   0.2500000
        k(    7) = (   0.0379955  -0.0419301   0.0000000), wk =   0.2500000
        k(    8) = (  -0.0759910  -0.0000099   0.0000000), wk =   0.1250000
        k(    9) = (  -0.0759910   0.0419252   0.0000000), wk =   0.2500000
        k(   10) = (  -0.0759910  -0.0838800   0.0000000), wk =   0.1250000

     Initial potential from superposition of free atoms

     starting charge  380.99918, renormalised to  397.00000

     negative rho (up, down):  1.751E-02 0.000E+00

     %%%%%%%%%%%%%%%%%%%%%%%%%%%%%%%%%%%%%%%%%%%%%%%%%%%%%%%%%%%%%%%%%%%%%%%%
     %                                                                      %
     % You are using vdW-DF, which was implemented by the Thonhauser group. %
     % Please cite the following two papers that made this development      %
     % possible and the two reviews that describe the various versions:     %
     %                                                                      %
     %   T. Thonhauser et al., PRL 115, 136402 (2015).                      %
     %   T. Thonhauser et al., PRB 76, 125112 (2007).                       %
     %   K. Berland et al., Rep. Prog. Phys. 78, 066501 (2015).             %
     %   D.C. Langreth et al., J. Phys.: Condens. Matter 21, 084203 (2009). %
     %                                                                      %
     %                                                                      %
     % If you are calculating the stress with vdW-DF, please also cite:     %
     %                                                                      %
     %   R. Sabatini et al., J. Phys.: Condens. Matter 24, 424209 (2012).   %
     %                                                                      %
     %%%%%%%%%%%%%%%%%%%%%%%%%%%%%%%%%%%%%%%%%%%%%%%%%%%%%%%%%%%%%%%%%%%%%%%%

     Adding external electric field

     Computed dipole along edir(3) :
        Dipole               -8.9490 Ry au,        -22.7462 Debye
        Dipole field         -0.0169 Ry au,

        Potential amp.        1.5655 Ry
        Total length         46.3494 bohr

     Starting wfcs are  299 atomic wfcs
  @ DRIVER MODE: Message from server: STATUS
  @ DRIVER MODE: Message from server: POSDATA
  @ DRIVER MODE: Reading and sharing cell
  @ DRIVER MODE: Reading and sharing positions
  @ DRIVER MODE: Received positions

     Self-consistent Calculation

     iteration #  1     ecut=    29.40 Ry     beta= 0.05
     Davidson diagonalization with overlap
     c_bands:  1 eigenvalues not converged
     c_bands:  1 eigenvalues not converged
     c_bands:  1 eigenvalues not converged
     c_bands:  1 eigenvalues not converged
     c_bands:  2 eigenvalues not converged
     ethr =  1.00E-05,  avg # of iterations = 19.3

[...]

     total energy              =   -2583.14226785 Ry
     estimated scf accuracy    <    4233.82066230 Ry

     iteration #  2     ecut=    29.40 Ry     beta= 0.05
     Davidson diagonalization with overlap
     ethr =  1.00E-02,  avg # of iterations = 24.2

[...]

     iteration # 71     ecut=    29.40 Ry     beta= 0.05
     Davidson diagonalization with overlap
     c_bands:  1 eigenvalues not converged
     ethr =  1.18E-10,  avg # of iterations = 13.6

[...]

     total energy              =   -2963.67523859 Ry
     estimated scf accuracy    <       0.00000014 Ry

     iteration # 73     ecut=    29.40 Ry     beta= 0.05
     Davidson diagonalization with overlap
     ethr =  3.57E-11,  avg # of iterations = 10.6

     negative rho (up, down):  1.622E-02 0.000E+00

     Adding external electric field

     Computed dipole along edir(3) :
        Dipole                0.4709 Ry au,          1.1970 Debye
        Dipole field          0.0009 Ry au,

        Potential amp.       -0.0824 Ry
        Total length         46.3494 bohr

     End of self-consistent calculation

          k = 0.0000 0.0000 0.0000 ( 18029 PWs)   bands (ev):

   -56.0088 -55.9730 -55.9720 -55.9507 -55.9369 -55.8916 -55.8576 -55.8229
   -55.7914 -55.7869 -55.7759 -55.7493 -55.7423 -55.6821 -55.0177 -54.9836
   -32.5262 -32.4795 -32.4012 -32.3685 -32.3595 -32.3046 -32.2851 -32.2744
   -32.2544 -32.2414 -32.2033 -32.1965 -32.1861 -32.1673 -32.1665 -32.1552
   -32.1276 -32.1152 -32.1015 -32.1014 -32.0800 -32.0720 -32.0668 -32.0601
   -32.0457 -32.0375 -32.0347 -32.0233 -32.0068 -31.9970 -31.9935 -31.9801
   -31.9605 -31.9543 -31.9512 -31.9488 -31.9204 -31.9024 -31.8919 -31.8814
   -31.8685 -31.8645 -31.4272 -31.3313 -31.3089 -31.2437 -31.1575 -31.0465
   -19.4473 -19.1207 -16.7299 -16.4687 -16.3096 -16.1902 -16.1416 -15.9252
   -15.8413 -15.7911 -15.7035 -15.6278 -15.5986 -15.5825 -15.5490 -15.5340
   -15.5275 -15.5076 -15.4546 -15.4378 -15.4155 -15.4103 -15.3987 -15.3795
   -15.2981 -15.2263 -15.1629 -15.1305 -15.0582 -15.0186 -14.9816 -13.5186
   -13.4007  -7.9295  -6.9274  -4.7025  -4.0883  -3.9462  -3.9259  -3.8970
    -3.8269  -3.6573  -3.6118  -3.4679  -3.3175  -3.3038  -3.1813  -3.1440
    -3.1203  -3.0532  -3.0355  -2.9760  -2.8445  -2.8313  -2.8201  -2.8025
    -2.7923  -2.7495  -2.7272  -2.6909  -2.6493  -2.5951  -2.5151  -2.4933
    -2.4114  -2.4058  -2.3685  -2.3125  -2.3088  -2.2833  -2.2683  -2.2420
    -2.1919  -2.1772  -2.1680  -2.0632  -1.9750  -1.8637  -1.7028  -1.6776
    -1.6743  -1.5512  -1.5012  -1.4485  -1.4145  -1.4125  -1.3628  -1.3143
    -1.2685  -1.2494  -1.1448  -1.0313  -0.9996  -0.9402  -0.9124  -0.7877
    -0.7366  -0.7308  -0.7221  -0.7141  -0.6920  -0.6213  -0.5060  -0.4337
    -0.4249  -0.3327  -0.3111  -0.2977  -0.2397  -0.2305  -0.2091  -0.1544
    -0.1096  -0.0619  -0.0451  -0.0149   0.0221   0.0270   0.1568   0.2062
     0.2350   0.2564   0.2942   0.4622   0.5074   0.6377   0.7425   0.9138
     1.0063   1.0707   1.1807   1.5918   1.6490   2.8486   3.1686   3.2127
     3.2262   3.2407   3.3034   3.4059   3.5508   3.6217   3.6706   3.7204

[...]

          k = 0.0380-0.0419 0.0000 ( 17876 PWs)   bands (ev):

[...]

          k =-0.0760-0.0000 0.0000 ( 17886 PWs)   bands (ev):

[...]

          k =-0.0760-0.0839 0.0000 ( 17948 PWs)   bands (ev):

   -55.9974 -55.9832 -55.9561 -55.9537 -55.9487 -55.8794 -55.8698 -55.8186
   -55.7887 -55.7881 -55.7609 -55.7575 -55.7534 -55.6847 -55.0012 -55.0000
   -32.3412 -32.3205 -32.3137 -32.3036 -32.2910 -32.2880 -32.2681 -32.2413
   -32.2330 -32.2220 -32.2117 -32.2050 -32.1641 -32.1533 -32.1459 -32.1348
   -32.1218 -32.1179 -32.1127 -32.1115 -32.1072 -32.1057 -32.0876 -32.0836
   -32.0831 -32.0769 -32.0706 -32.0429 -32.0265 -32.0206 -32.0126 -32.0111
   -32.0029 -31.9898 -31.9788 -31.9721 -31.9693 -31.9669 -31.9565 -31.9425
   -31.9090 -31.8784 -31.3223 -31.3209 -31.2406 -31.2396 -31.2011 -31.2001
   -19.4389 -19.1200 -16.1826 -16.0749 -16.0662 -15.8909 -15.8773 -15.8546
   -15.8127 -15.8026 -15.7100 -15.7073 -15.6634 -15.6508 -15.6246 -15.5903
   -15.5854 -15.5238 -15.5229 -15.5185 -15.4636 -15.4576 -15.4357 -15.4205
   -15.3990 -15.3888 -15.3435 -15.3320 -15.2688 -15.2013 -15.1869 -13.5031
   -13.5009  -7.9304  -6.9207  -4.6501  -3.7263  -3.4646  -3.3184  -3.2933
    -3.2263  -3.1276  -3.1005  -3.0632  -3.0164  -2.9751  -2.9253  -2.8653
    -2.8418  -2.8382  -2.8273  -2.8218  -2.8025  -2.7964  -2.7574  -2.7319
    -2.7007  -2.6721  -2.6529  -2.6300  -2.6247  -2.6164  -2.5858  -2.5704
    -2.5578  -2.5492  -2.4804  -2.4578  -2.3290  -2.3222  -2.2395  -2.2079
    -2.1453  -2.1391  -2.1158  -2.0733  -2.0645  -2.0492  -1.8750  -1.8518
    -1.7421  -1.7356  -1.7139  -1.6843  -1.5977  -1.5269  -1.4904  -1.4727
    -1.4194  -1.4026  -1.3307  -1.2650  -1.2052  -1.1686  -1.1004  -1.0695
    -1.0537  -0.9753  -0.9654  -0.9306  -0.9047  -0.8871  -0.7675  -0.7604
    -0.7254  -0.6892  -0.6585  -0.6066  -0.5578  -0.5410  -0.5053  -0.4519
    -0.3802  -0.3558  -0.1656   0.0163   0.0223   0.0517   0.1431   0.1810
     0.3005   0.3318   0.3374   0.3733   0.4139   0.5079   0.5306   0.5380
     0.6117   1.3666   1.3675   1.4539   1.4649   2.7180   3.3571   3.4171
     3.4811   3.5171   3.6220   3.6399   3.6545   3.6659   3.7011   3.8030

     the Fermi energy is     3.1419 ev

!    total energy              =   -2963.67525310 Ry
     estimated scf accuracy    <       0.00000006 Ry
     smearing contrib. (-TS)   =      -0.02589892 Ry
     internal energy E=F+TS    =   -2963.64935418 Ry

     The total energy is F=E-TS. E is the sum of the following terms:
     one-electron contribution =  -24423.08350215 Ry
     hartree contribution      =   12299.00926920 Ry
     xc contribution           =    -489.19563747 Ry
     ewald contribution        =    9649.62009772 Ry
     electric field correction =       0.00041852 Ry

     convergence has been achieved in  73 iterations

     Forces acting on atoms (cartesian axes, Ry/au):

     atom    1 type  1   force =    -0.00006612    0.00006893    0.10401946
     atom    2 type  1   force =    -0.00005865    0.00005305    0.10403849
     atom    3 type  2   force =    -0.00017765   -0.00196185    0.10281624
     atom    4 type  2   force =    -0.00007769    0.00160594    0.11471463
     atom    5 type  2   force =    -0.00026468    0.00155618   -0.17907498
     atom    6 type  2   force =    -0.00014073   -0.00104814   -0.17945081
     atom    7 type  1   force =    -0.06950369    0.00065742   -0.02929139
     atom    8 type  1   force =    -0.06904899   -0.00122432   -0.02933607
     atom    9 type  1   force =     0.06918216    0.00118752   -0.02934526
     atom   10 type  1   force =     0.06880519   -0.00085575   -0.02941793
     atom   11 type  1   force =     0.00005965    0.00064125    0.04737752
     atom   12 type  1   force =     0.00063747    0.00090337    0.04974561
     atom   13 type  1   force =     0.00021848   -0.00563440   -0.03309765
     atom   14 type  1   force =     0.00028386    0.00398294   -0.02650276
     atom   15 type  2   force =    -0.00016120   -0.00004801   -0.00075246
     atom   16 type  2   force =    -0.00019502   -0.00006050   -0.00079478
     atom   17 type  2   force =     0.00009085   -0.00094003   -0.00008326
     atom   18 type  2   force =     0.00011903    0.00110356   -0.00009708
     atom   19 type  1   force =    -0.01880401   -0.00005950    0.00452178
     atom   20 type  1   force =    -0.01689874    0.00164966    0.00397524
     atom   21 type  1   force =     0.01838242   -0.00109533    0.00450513
     atom   22 type  1   force =     0.01749292    0.00197720    0.00383310
     atom   23 type  1   force =     0.00017834    0.00005223   -0.00074870
     atom   24 type  1   force =     0.00011066   -0.00022077   -0.00028148
     atom   25 type  1   force =    -0.00032090    0.00015860   -0.00069921
     atom   26 type  1   force =    -0.00019349   -0.00004371   -0.00087180
     atom   27 type  2   force =    -0.00019881    0.00044611    0.00035157
     atom   28 type  2   force =     0.00027666    0.00065614    0.00078377
     atom   29 type  2   force =     0.00028927   -0.00012378    0.00096875
     atom   30 type  2   force =    -0.00018856   -0.00022028    0.00017145
     atom   31 type  1   force =     0.00026660   -0.00008345   -0.00036838
     atom   32 type  1   force =     0.00004192    0.00012603   -0.00009133
     atom   33 type  1   force =    -0.00012299   -0.00017842   -0.00072854
     atom   34 type  1   force =     0.00003031    0.00012270   -0.00042554
     atom   35 type  1   force =     0.00010276   -0.00003996   -0.00114115
     atom   36 type  1   force =     0.00012987   -0.00053513    0.00038463
     atom   37 type  1   force =    -0.00019033    0.00007875    0.00003179
     atom   38 type  1   force =     0.00014534   -0.00007469   -0.00067571
     atom   39 type  2   force =    -0.00010148   -0.00048605    0.00067308
     atom   40 type  2   force =    -0.00000162   -0.00077745   -0.00020182
     atom   41 type  2   force =     0.00021415   -0.00092733   -0.00024551
     atom   42 type  2   force =     0.00004280    0.00034997   -0.00011096
     atom   43 type  1   force =    -0.00080277   -0.00048448    0.00021915
     atom   44 type  1   force =    -0.00015850   -0.00015259    0.00018240
     atom   45 type  1   force =     0.00015023   -0.00032006    0.00027942
     atom   46 type  1   force =     0.00074146   -0.00016989    0.00015791
     atom   47 type  1   force =    -0.00030707    0.00043685    0.00049592
     atom   48 type  1   force =     0.00013680   -0.00137654    0.00098458
     atom   49 type  3   force =    -0.00064397    0.01097807   -0.00242160
     atom   50 type  4   force =    -0.00001340   -0.00798576    0.00032357
     atom   51 type  1   force =    -0.00015377   -0.00001334   -0.00090116
     atom   52 type  4   force =     0.00088862   -0.00122119    0.00112820
     atom   53 type  4   force =    -0.00022300   -0.00042980    0.00047389

     Total force =     0.374655     Total SCF correction =     0.000705
  @ DRIVER MODE: Message from server: STATUS
  @ DRIVER MODE: Message from server: GETFORCE
  @ DRIVER MODE: Returning v,forces,stress,ensemble

     Writing output data file ./calc.save/
  @ DRIVER MODE: Message from server: EXIT
  @ DRIVE MODE: Exiting

     General routines

     Parallel routines

   This run was terminated on:  18:39:33  15Sep2021

   JOB DONE.