     Program PWSCF v.6.7GPU starts on 16Jul2021 at 19:26: 3

     R & G space division:  proc/nbgrp/npool/nimage =      16
     Reading input from /storage/home/hcoda1/3/ntian30/research/carbon/15Jul_vib/ads_slab/CH3NNH3_a/out_0050/pw.inp
Warning: card &CELL ignored
Warning: card   CELL_DYNAMICS='IPI', ignored
Warning: card / ignored

     Current dimensions of program PWSCF are:
     Max number of different atomic species (ntypx) = 10
     Max number of k-points (npk) =  40000
     Max angular momentum in pseudopotentials (lmaxx) =  3
     Presently no symmetry can be used with electric field

     Message from routine cell_base_init:
     DEPRECATED: use true lattice parameter, not A to a.u. conversion factor

     IMPORTANT: XC functional enforced from input :
     Exchange-correlation= BEEF-VDW
                           (   1   4  43  14   2   0   0)
     Any further DFT definition will be discarded
     Please, verify this is what you really want

  @ DRIVER MODE: Connecting to
 qe_1139763_2351650.sched-torque.pace.gatech.eduvxl4pyfu_scratch
  using UNIX socket
  @ DRIVER MODE: Message from server: STATUS
  @ DRIVER MODE: Message from server: INIT
  @ DRIVER MODE: Receiving replica           0          -1
  @ DRIVER MODE: Receiving encoded integer          25
  @ DRIVER MODE:  SCF:  T  FORCE:  T  STRESS:  F  VC:  F  ENSEMBLE:  F
  @ DRIVER MODE:  SCF:  T  FORCE:  T  STRESS:  F  VC:  F  ENSEMBLE:  F

     Using Slab Decomposition

     bravais-lattice index     =            0
     lattice parameter (alat)  =       1.8897  a.u.
     unit-cell volume          =    6658.9804 (a.u.)^3
     number of atoms/cell      =           56
     number of atomic types    =            5
     number of electrons       =       398.00
     number of Kohn-Sham states=          209
     kinetic-energy cutoff     =      29.3995  Ry
     charge density cutoff     =     293.9946  Ry
     scf convergence threshold =      7.3E-08
     mixing beta               =       0.0500
     number of iterations used =            8  plain     mixing
     Exchange-correlation= BEEF-VDW
                           (   1   4  43  14   2   0   0)

     celldm(1)=   1.889726  celldm(2)=   0.000000  celldm(3)=   0.000000
     celldm(4)=   0.000000  celldm(5)=   0.000000  celldm(6)=   0.000000

     crystal axes: (cart. coord. in units of alat)
               a(1) = (   6.579727   0.000000   0.000000 )
               a(2) = (  -0.000775   5.961596   0.000000 )
               a(3) = (   0.000000   0.000000  25.155947 )

     reciprocal axes: (cart. coord. in units 2 pi/alat)
               b(1) = (  0.151982  0.000020  0.000000 )
               b(2) = (  0.000000  0.167740  0.000000 )
               b(3) = (  0.000000  0.000000  0.039752 )

     PseudoPot. # 1 for Ti read from file:
     /storage/coda1/p-amedford6/0/shared/rich_project_chbe-medford/medford-share/data/pseudos_module/espresso/nninc/pbe/van/Ti.UPF
     MD5 check sum: 8e4df49b7f0d34bbd5052bf3f5ea0213
     Pseudo is Ultrasoft, Zval = 12.0
     Generated by new atomic code, or converted to UPF format
     Using radial grid of  851 points,  6 beta functions with:
                l(1) =   0
                l(2) =   0
                l(3) =   1
                l(4) =   1
                l(5) =   2
                l(6) =   2
     Q(r) pseudized with  8 coefficients,  rinner =    1.000   1.000   1.000
                                                       1.000   1.000

     PseudoPot. # 2 for O  read from file:
     /storage/coda1/p-amedford6/0/shared/rich_project_chbe-medford/medford-share/data/pseudos_module/espresso/nninc/pbe/van/O.UPF
     MD5 check sum: 78c19812648e8988a0fe644b0f25305e
     Pseudo is Ultrasoft, Zval =  6.0
     Generated by new atomic code, or converted to UPF format
     Using radial grid of  737 points,  4 beta functions with:
                l(1) =   0
                l(2) =   0
                l(3) =   1
                l(4) =   1
     Q(r) pseudized with  8 coefficients,  rinner =    0.800   0.800   0.800

     PseudoPot. # 3 for N  read from file:
     /storage/coda1/p-amedford6/0/shared/rich_project_chbe-medford/medford-share/data/pseudos_module/espresso/nninc/pbe/van/N.UPF
     MD5 check sum: 90d10febe142ad51ac9d5be1deb811c4
     Pseudo is Ultrasoft, Zval =  5.0
     Generated by new atomic code, or converted to UPF format
     Using radial grid of  729 points,  4 beta functions with:
                l(1) =   0
                l(2) =   0
                l(3) =   1
                l(4) =   1
     Q(r) pseudized with  8 coefficients,  rinner =    0.800   0.800   0.800

     PseudoPot. # 4 for C  read from file:
     /storage/coda1/p-amedford6/0/shared/rich_project_chbe-medford/medford-share/data/pseudos_module/espresso/nninc/pbe/van/C.UPF
     MD5 check sum: 1a69bf6b8db32088f5b2163dbdb77a27
     Pseudo is Ultrasoft, Zval =  4.0
     Generated by new atomic code, or converted to UPF format
     Using radial grid of  721 points,  4 beta functions with:
                l(1) =   0
                l(2) =   0
                l(3) =   1
                l(4) =   1
     Q(r) pseudized with  8 coefficients,  rinner =    0.800   0.800   0.800

     PseudoPot. # 5 for H  read from file:
     /storage/coda1/p-amedford6/0/shared/rich_project_chbe-medford/medford-share/data/pseudos_module/espresso/nninc/pbe/van/H.UPF
     MD5 check sum: b5ee9d7bfd3a09ee7748110bda690ff7
     Pseudo is Ultrasoft, Zval =  1.0
     Generated by new atomic code, or converted to UPF format
     Using radial grid of  615 points,  1 beta functions with:
                l(1) =   0
     Q(r) pseudized with  8 coefficients,  rinner =    0.800

     atomic species   valence    mass     pseudopotential
        Ti1           12.00    47.86700     Ti( 1.00)
        O1             6.00    15.99900     O ( 1.00)
        N1             5.00    14.00700     N ( 1.00)
        C1             4.00    12.01100     C ( 1.00)
        H1             1.00     1.00800     H ( 1.00)

     Starting magnetic structure
     atomic species   magnetization
        Ti1          0.000
        O1           0.000
        N1           0.000
        C1           0.025
        H1           0.000

     No symmetry found

   Cartesian axes

     site n.     atom                  positions (alat units)
         1           Ti1 tau(   1) = (   0.0004258   2.9801865   6.0000000  )
         2           Ti1 tau(   2) = (   3.2906075   1.4906267   6.0002472  )
         3           O1  tau(   3) = (   0.0006271   0.0005054   7.9858123  )
         4           O1  tau(   4) = (   3.2906025   0.0005020   7.3038282  )
         5           O1  tau(   5) = (   4.5942328   1.4918067   9.2879030  )
         6           O1  tau(   6) = (   1.9868534   1.4903216   9.2879459  )
         7           Ti1 tau(   7) = (   3.2907910   2.8959150   9.1758416  )
         8           Ti1 tau(   8) = (   0.0015273   1.4827037   9.2680791  )
         9           O1  tau(   9) = (   3.3019049   5.9598586  11.2958584  )
        10           O1  tau(  10) = (   0.0116148   5.9584955  10.6183126  )
        11           O1  tau(  11) = (   1.3346742   1.4914638  12.6145280  )
        12           O1  tau(  12) = (   5.3113054   1.4894223  12.6320738  )
        13           Ti1 tau(  13) = (   6.4919192   2.9607050  12.7581921  )
        14           Ti1 tau(  14) = (   3.1808934   1.4809541  12.4628303  )
        15           O1  tau(  15) = (   0.0259758   5.9327586  14.5948705  )
        16           O1  tau(  16) = (   3.3179433   0.0111293  13.8771559  )
        17           O1  tau(  17) = (   4.5450242   1.5254396  16.0425357  )
        18           O1  tau(  18) = (   2.0945915   1.5254857  16.0466093  )
        19           Ti1 tau(  19) = (   3.3175380   3.0118254  15.6854273  )
        20           Ti1 tau(  20) = (   0.0287691   1.6153805  16.0968480  )
        21           O1  tau(  21) = (   3.2904802   0.0005063   4.7018136  )
        22           O1  tau(  22) = (   0.0272082   0.0527987  17.2096484  )
        23           O1  tau(  23) = (   1.3043587   1.4918075   6.0039043  )
        24           O1  tau(  24) = (   5.2767064   1.4903225   6.0039473  )
        25           Ti1 tau(  25) = (   0.0000382   5.9609847   6.0000000  )
        26           Ti1 tau(  26) = (   3.2902200   4.4714249   6.0002472  )
        27           O1  tau(  27) = (   0.0002396   2.9813036   7.9858123  )
        28           O1  tau(  28) = (   3.2902150   2.9813002   7.3038282  )
        29           O1  tau(  29) = (   4.5938453   4.4726049   9.2879030  )
        30           O1  tau(  30) = (   1.9864658   4.4711199   9.2879459  )
        31           Ti1 tau(  31) = (   3.2891106   5.8743827   9.1763621  )
        32           Ti1 tau(  32) = (   0.0006254   4.4649316   9.2693709  )
        33           O1  tau(  33) = (   3.3007599   2.9794320  11.2948048  )
        34           O1  tau(  34) = (   0.0092240   2.9805883  10.6323155  )
        35           O1  tau(  35) = (   1.3367187   4.4652043  12.6121808  )
        36           O1  tau(  36) = (   5.3110114   4.4536366  12.6300246  )
        37           Ti1 tau(  37) = (   6.5175235   5.9394146  12.7678677  )
        38           Ti1 tau(  38) = (   3.1810223   4.4618757  12.4682998  )
        39           O1  tau(  39) = (   0.0141956   2.9656780  14.6533049  )
        40           O1  tau(  40) = (   3.3125561   2.9946134  13.8784269  )
        41           O1  tau(  41) = (   4.5469694   4.5079638  16.0550352  )
        42           O1  tau(  42) = (   2.0896055   4.5089645  16.0567747  )
        43           Ti1 tau(  43) = (   3.3249511   0.0336637  15.6879192  )
        44           Ti1 tau(  44) = (   0.0309337   4.5948497  16.1324869  )
        45           O1  tau(  45) = (   3.2900926   2.9813045   4.7018136  )
        46           O1  tau(  46) = (   1.3039711   4.4726057   6.0039043  )
        47           O1  tau(  47) = (   5.2763189   4.4711207   6.0039473  )
        48           N1  tau(  48) = (   0.0510883   3.0100077  17.3315927  )
        49           C1  tau(  49) = (   0.2149723   3.0659314  18.7643681  )
        50           H1  tau(  50) = (   6.1109748   3.7957518  19.2115106  )
        51           H1  tau(  51) = (   0.0391147   2.0919789  19.2277120  )
        52           H1  tau(  52) = (   1.2341903   3.3897193  19.0223879  )
        53           N1  tau(  53) = (   4.7717085   1.8344328  21.5424420  )
        54           H1  tau(  54) = (   4.4711387   2.7986659  21.4441960  )
        55           H1  tau(  55) = (   4.1840297   1.2822813  20.9257432  )
        56           H1  tau(  56) = (   4.5527024   1.5537098  22.4892962  )

     number of k points=    10  Fermi-Dirac smearing, width (Ry)=  0.0073
                       cart. coord. in units 2pi/alat
        k(    1) = (   0.0000000   0.0000000   0.0000000), wk =   0.0625000
        k(    2) = (   0.0000000   0.0419351   0.0000000), wk =   0.1250000
        k(    3) = (   0.0000000  -0.0838702   0.0000000), wk =   0.0625000
        k(    4) = (   0.0379955   0.0000049   0.0000000), wk =   0.1250000
        k(    5) = (   0.0379955   0.0419400   0.0000000), wk =   0.1250000
[...]
     % Please cite the following two papers that made this development      %
     % possible and the two reviews that describe the various versions:     %
     %                                                                      %
     %   T. Thonhauser et al., PRL 115, 136402 (2015).                      %
     %   T. Thonhauser et al., PRB 76, 125112 (2007).                       %
     %   K. Berland et al., Rep. Prog. Phys. 78, 066501 (2015).             %
     %   D.C. Langreth et al., J. Phys.: Condens. Matter 21, 084203 (2009). %
     %                                                                      %
     %                                                                      %
     % If you are calculating the stress with vdW-DF, please also cite:     %
     %                                                                      %
     %   R. Sabatini et al., J. Phys.: Condens. Matter 24, 424209 (2012).   %
     %                                                                      %
     %%%%%%%%%%%%%%%%%%%%%%%%%%%%%%%%%%%%%%%%%%%%%%%%%%%%%%%%%%%%%%%%%%%%%%%%

     Adding external electric field

     Computed dipole along edir(3) :
        Dipole              -11.2917 Ry au,        -28.7007 Debye
        Dipole field         -0.0213 Ry au,

        Potential amp.        1.9753 Ry
        Total length         46.3494 bohr

[...]

     Starting wfcs are  302 atomic wfcs
  @ DRIVER MODE: Message from server: STATUS
  @ DRIVER MODE: Message from server: POSDATA
  @ DRIVER MODE: Reading and sharing cell
  @ DRIVER MODE: Reading and sharing positions
  @ DRIVER MODE: Received positions

     Self-consistent Calculation

     iteration #  1     ecut=    29.40 Ry     beta= 0.05
     Davidson diagonalization with overlap
     c_bands:  1 eigenvalues not converged
     c_bands:  1 eigenvalues not converged
     c_bands:  2 eigenvalues not converged
     c_bands:  1 eigenvalues not converged
     c_bands:  1 eigenvalues not converged
     c_bands:  1 eigenvalues not converged
     c_bands:  2 eigenvalues not converged
     c_bands:  2 eigenvalues not converged
     c_bands:  1 eigenvalues not converged
     c_bands:  1 eigenvalues not converged
     c_bands:  2 eigenvalues not converged
     c_bands:  1 eigenvalues not converged
     c_bands:  1 eigenvalues not converged
     c_bands:  1 eigenvalues not converged
     c_bands:  2 eigenvalues not converged
     c_bands:  2 eigenvalues not converged
     ethr =  1.00E-05,  avg # of iterations = 19.6

[...]

     total energy              =   -2520.81962263 Ry
     estimated scf accuracy    <    4704.42619591 Ry

     total magnetization       =     0.00 Bohr mag/cell
     absolute magnetization    =     0.01 Bohr mag/cell

     iteration #  2     ecut=    29.40 Ry     beta= 0.05
     Davidson diagonalization with overlap
     ethr =  1.00E-02,  avg # of iterations = 21.9

[...]

     iteration # 55     ecut=    29.40 Ry     beta= 0.05
     Davidson diagonalization with overlap
     c_bands:  1 eigenvalues not converged
     c_bands:  1 eigenvalues not converged
     ethr =  1.64E-09,  avg # of iterations =  6.7

[...]

     total energy              =   -2942.90774127 Ry
     estimated scf accuracy    <       0.00000009 Ry

[...]

     iteration # 66     ecut=    29.40 Ry     beta= 0.05
     Davidson diagonalization with overlap
     ethr =  2.26E-11,  avg # of iterations =  5.0

     negative rho (up, down):  5.679E-03 5.679E-03

[...]

     Adding external electric field

     Computed dipole along edir(3) :
        Dipole                0.4212 Ry au,          1.0707 Debye
        Dipole field          0.0008 Ry au,

        Potential amp.       -0.0737 Ry
        Total length         46.3494 bohr

     Magnetic moment per site  (integrated on atomic sphere of radius R)
     atom   1 (R=0.735)  charge=  8.0053  magn=  0.0002
     atom   2 (R=0.735)  charge=  8.0011  magn= -0.0001
     atom   3 (R=0.735)  charge=  4.9958  magn= -0.0000
     atom   4 (R=0.735)  charge=  5.0345  magn=  0.0000
     atom   5 (R=0.735)  charge=  4.9982  magn=  0.0000
     atom   6 (R=0.735)  charge=  4.9994  magn=  0.0000
     atom   7 (R=0.735)  charge=  7.9947  magn= -0.0000
     atom   8 (R=0.735)  charge=  7.9823  magn= -0.0000
     atom   9 (R=0.735)  charge=  5.0128  magn=  0.0001
     atom  10 (R=0.735)  charge=  4.9434  magn=  0.0001
     atom  11 (R=0.735)  charge=  4.9999  magn=  0.0001
     atom  12 (R=0.735)  charge=  5.0035  magn=  0.0001
     atom  13 (R=0.735)  charge=  7.9933  magn= -0.0001
     atom  14 (R=0.735)  charge=  8.0007  magn= -0.0001
     atom  15 (R=0.735)  charge=  4.9894  magn=  0.0001
     atom  16 (R=0.735)  charge=  5.0146  magn=  0.0001
     atom  17 (R=0.735)  charge=  4.9901  magn=  0.0001
     atom  18 (R=0.735)  charge=  4.9888  magn=  0.0001
     atom  19 (R=0.735)  charge=  8.0209  magn= -0.0001
     atom  20 (R=0.735)  charge=  8.0242  magn= -0.0001
     atom  21 (R=0.735)  charge=  4.8827  magn=  0.0001
     atom  22 (R=0.735)  charge=  4.9720  magn=  0.0000
     atom  23 (R=0.735)  charge=  4.9884  magn= -0.0001
     atom  24 (R=0.735)  charge=  4.9885  magn= -0.0001
     atom  25 (R=0.735)  charge=  8.0053  magn=  0.0003
     atom  26 (R=0.735)  charge=  8.0011  magn= -0.0001
     atom  27 (R=0.735)  charge=  4.9957  magn= -0.0000
     atom  28 (R=0.735)  charge=  5.0347  magn=  0.0000
     atom  29 (R=0.735)  charge=  4.9989  magn=  0.0000
     atom  30 (R=0.735)  charge=  5.0001  magn=  0.0000
     atom  31 (R=0.735)  charge=  7.9948  magn= -0.0000
     atom  32 (R=0.735)  charge=  7.9826  magn= -0.0000
     atom  33 (R=0.735)  charge=  5.0125  magn=  0.0001
     atom  34 (R=0.735)  charge=  4.9424  magn=  0.0000
     atom  35 (R=0.735)  charge=  5.0006  magn=  0.0001
     atom  36 (R=0.735)  charge=  5.0043  magn=  0.0001
     atom  37 (R=0.735)  charge=  7.9991  magn= -0.0001
     atom  38 (R=0.735)  charge=  8.0004  magn= -0.0001
     atom  39 (R=0.735)  charge=  4.9853  magn=  0.0000
     atom  40 (R=0.735)  charge=  5.0160  magn=  0.0001
     atom  41 (R=0.735)  charge=  4.9884  magn=  0.0001
     atom  42 (R=0.735)  charge=  4.9879  magn=  0.0001
     atom  43 (R=0.735)  charge=  8.0214  magn= -0.0001
     atom  44 (R=0.735)  charge=  8.0216  magn= -0.0000
     atom  45 (R=0.735)  charge=  4.8827  magn=  0.0001
     atom  46 (R=0.735)  charge=  4.9884  magn= -0.0001
     atom  47 (R=0.735)  charge=  4.9885  magn= -0.0001
     atom  48 (R=0.417)  charge=  1.3067  magn=  0.0001
     atom  49 (R=0.451)  charge=  0.8534  magn=  0.0000
     atom  50 (R=0.417)  charge=  0.4352  magn= -0.0000
     atom  51 (R=0.417)  charge=  0.4372  magn= -0.0000
     atom  52 (R=0.417)  charge=  0.4321  magn= -0.0000
     atom  53 (R=0.417)  charge=  1.3233  magn=  0.0000
     atom  54 (R=0.417)  charge=  0.4499  magn= -0.0000
     atom  55 (R=0.417)  charge=  0.4489  magn= -0.0000
     atom  56 (R=0.417)  charge=  0.4531  magn= -0.0000

     End of self-consistent calculation

 ------ SPIN UP ------------

          k = 0.0000 0.0000 0.0000 ( 18029 PWs)   bands (ev):

   -56.6305 -56.5969 -55.7548 -55.7428 -55.7198 -55.7099 -55.6093 -55.5739
   -55.3918 -55.3559 -55.2954 -55.2903 -55.2615 -55.1925 -54.7266 -54.6149
   -33.0582 -32.9051 -32.8769 -32.8063 -32.7152 -32.6842 -32.2254 -32.2193
   -32.1520 -32.0387 -31.9926 -31.9684 -31.9499 -31.9287 -31.8950 -31.8906
   -31.8892 -31.8838 -31.8581 -31.8555 -31.8441 -31.8168 -31.7920 -31.7771
   -31.7641 -31.7456 -31.7361 -31.7115 -31.6876 -31.6337 -31.6224 -31.6095
   -31.5331 -31.5299 -31.5062 -31.4660 -31.4578 -31.4227 -31.4205 -31.3962
   -31.3737 -31.3118 -31.2322 -30.9723 -30.9569 -30.8741 -30.8367 -30.7466
   -16.7949 -16.3631 -16.1325 -15.9928 -15.9274 -15.8710 -15.8283 -15.7029
   -15.6349 -15.6267 -15.5848 -15.5574 -15.4858 -15.3459 -15.2473 -15.1950
   -15.1505 -15.0301 -14.9686 -14.9366 -14.9261 -14.8832 -14.8736 -14.6799
   -14.6566 -14.5629 -14.5417 -14.4209 -14.1862 -13.7942 -13.7033 -13.6841
   -12.7993  -7.4970  -4.3602  -3.8589  -3.7962  -3.7448  -3.6204  -3.5339
    -3.4269  -3.4126  -3.3262  -3.2115  -3.1674  -3.1196  -3.0032  -3.0020
    -2.8537  -2.8089  -2.8059  -2.8036  -2.7545  -2.6955  -2.6718  -2.6403
    -2.6311  -2.6016  -2.4751  -2.3788  -2.3073  -2.2840  -2.2783  -2.2423
    -2.1672  -2.1377  -2.1290  -2.1254  -2.0181  -1.8727  -1.8665  -1.8434
    -1.8015  -1.7959  -1.7535  -1.7403  -1.6225  -1.5321  -1.4294  -1.4133
    -1.3693  -1.3128  -1.3050  -1.2152  -1.1372  -1.0462  -1.0451  -0.9353
    -0.8881  -0.8713  -0.7809  -0.7212  -0.6819  -0.6557  -0.6433  -0.5431
    -0.5203  -0.5105  -0.4265  -0.4146  -0.3654  -0.2765  -0.2536  -0.2448
    -0.1625  -0.1599  -0.0647  -0.0228   0.0172   0.0524   0.1684   0.1856
     0.2839   0.3125   0.3403   0.4531   0.4691   0.5345   0.6090   0.6716
     0.6994   0.7260   0.7551   0.7745   0.8491   0.9610   0.9702   1.0723
     1.1045   1.2786   1.3176   1.4015   1.6033   1.6371   2.3060   2.6441
     2.8033   3.1020   3.2898   3.4029   3.6185   3.6347   3.6402   3.8091
     3.8617

[...]

          k =-0.0760-0.0000 0.0000 ( 17886 PWs)   bands (ev):

[...]

 ------ SPIN DOWN ----------

[...]

          k = 0.0380-0.0419 0.0000 ( 17876 PWs)   bands (ev):

[...]

          k =-0.0760-0.0839 0.0000 ( 17948 PWs)   bands (ev):

   -56.6129 -56.6126 -55.7397 -55.7339 -55.7271 -55.7266 -55.5924 -55.5916
   -55.3782 -55.3698 -55.2874 -55.2787 -55.2786 -55.1959 -54.7238 -54.6179
   -32.8901 -32.8898 -32.8745 -32.8743 -32.7583 -32.7580 -32.0553 -32.0530
   -32.0439 -32.0372 -31.9842 -31.9832 -31.9406 -31.9402 -31.9380 -31.9368
   -31.9291 -31.9262 -31.9240 -31.9224 -31.8449 -31.8428 -31.7939 -31.7911
   -31.7289 -31.7186 -31.6598 -31.6518 -31.6228 -31.6227 -31.6165 -31.5765
   -31.5724 -31.5448 -31.5106 -31.5040 -31.5040 -31.4649 -31.4649 -31.4616
   -31.4382 -31.3987 -31.1124 -30.9922 -30.9565 -30.9259 -30.8394 -30.8022
   -16.1439 -16.1418 -16.1090 -16.1087 -15.8402 -15.8366 -15.7939 -15.7914
   -15.6177 -15.6116 -15.4050 -15.3963 -15.3897 -15.3882 -15.2603 -15.2544
   -15.1890 -15.1786 -15.0893 -15.0801 -15.0237 -15.0172 -14.9747 -14.9537
   -14.6434 -14.6341 -14.5134 -14.4960 -14.3298 -13.7872 -13.7871 -13.7024
   -12.8153  -7.4868  -3.7985  -3.7579  -3.2427  -3.2424  -3.1786  -3.1776
    -3.0564  -3.0523  -2.9733  -2.9726  -2.8747  -2.8734  -2.7593  -2.7308
    -2.7277  -2.7267  -2.7099  -2.6619  -2.5742  -2.5711  -2.5607  -2.5462
    -2.4879  -2.4859  -2.4636  -2.3979  -2.3841  -2.3527  -2.3150  -2.2007
    -2.1905  -2.1785  -2.1467  -2.0833  -2.0762  -2.0633  -2.0208  -1.9883
    -1.9114  -1.8390  -1.8007  -1.6874  -1.6828  -1.6709  -1.6591  -1.5054
    -1.4651  -1.4346  -1.4275  -1.4214  -1.3736  -1.2786  -1.2711  -1.1392
    -1.1375  -1.0635  -0.9818  -0.9606  -0.9322  -0.8036  -0.7596  -0.7251
    -0.7173  -0.6893  -0.6691  -0.6475  -0.6038  -0.4682  -0.4564  -0.4175
    -0.3830  -0.3609  -0.3266  -0.2689  -0.1830  -0.1045  -0.1040  -0.0494
     0.0191   0.0798   0.1669   0.1769   0.1824   0.4634   0.5422   0.6317
     0.7075   0.7736   0.8371   0.8681   0.9234   0.9682   1.1046   1.1079
     1.1272   1.1276   1.1867   1.1904   1.3844   1.6437   2.1963   3.2174
     3.2177   3.2847   3.2851   3.6086   3.6144   3.7225   3.7318   3.8384
     3.8433

     the Fermi energy is     2.4849 ev

!    total energy              =   -2942.90777902 Ry
     estimated scf accuracy    <       0.00000004 Ry
     smearing contrib. (-TS)   =      -0.00487971 Ry
     internal energy E=F+TS    =   -2942.90289931 Ry

     The total energy is F=E-TS. E is the sum of the following terms:
     one-electron contribution =  -23242.42544284 Ry
     hartree contribution      =   11711.42546490 Ry
     xc contribution           =    -487.47402862 Ry
     ewald contribution        =    9075.57077238 Ry
     electric field correction =       0.00033487 Ry

     total magnetization       =     0.00 Bohr mag/cell
     absolute magnetization    =     0.01 Bohr mag/cell

     convergence has been achieved in  66 iterations

     Forces acting on atoms (cartesian axes, Ry/au):

     atom    1 type  1   force =     0.00003764   -0.00040800    0.12407774
     atom    2 type  1   force =    -0.00010318   -0.00057250   -0.16066137
     atom    3 type  2   force =     0.00023453   -0.00026860   -0.06798461
     atom    4 type  2   force =     0.00001408   -0.00029190    0.02758586
     atom    5 type  2   force =    -0.01615784    0.00175444   -0.00936976
     atom    6 type  2   force =     0.01819135    0.00219351   -0.00899072
     atom    7 type  1   force =     0.00115146   -0.00377445    0.02168544
     atom    8 type  1   force =    -0.00057741   -0.00291058    0.11105832
     atom    9 type  2   force =    -0.00018222    0.00030545   -0.00045397
     atom   10 type  2   force =    -0.00196013    0.00129334   -0.07322990
     atom   11 type  2   force =     0.00022779   -0.00010698    0.00017698
     atom   12 type  2   force =    -0.00026080    0.00022152    0.00021250
     atom   13 type  1   force =    -0.00008805    0.00008182   -0.00042961
     atom   14 type  1   force =    -0.00059516    0.00045182    0.00040623
     atom   15 type  2   force =     0.00027689    0.00000233    0.00017784
     atom   16 type  2   force =    -0.00049166   -0.00036983    0.00058266
     atom   17 type  2   force =    -0.00060665    0.00023941    0.00008895
     atom   18 type  2   force =     0.00003646    0.00024710    0.00009262
     atom   19 type  1   force =     0.00038114   -0.00054846    0.00001913
     atom   20 type  1   force =    -0.00009530    0.00009339    0.00017825
     atom   21 type  2   force =     0.00005199   -0.00000986    0.09971208
     atom   22 type  2   force =     0.00027321   -0.00003765   -0.00039878
     atom   23 type  2   force =    -0.07914543    0.00000118   -0.03243117
     atom   24 type  2   force =     0.07903212    0.00043930   -0.03245543
     atom   25 type  1   force =     0.00002189   -0.00041584    0.12360991
     atom   26 type  1   force =    -0.00009827   -0.00046528   -0.16080173
     atom   27 type  2   force =     0.00033056   -0.00048400   -0.06703283
     atom   28 type  2   force =     0.00002869   -0.00012102    0.02731201
     atom   29 type  2   force =    -0.01663400    0.00127705   -0.00947587
     atom   30 type  2   force =     0.01856485    0.00165437   -0.00911007
     atom   31 type  1   force =     0.00116797   -0.00137824    0.02111387
     atom   32 type  1   force =    -0.00053398    0.00034421    0.11170801
     atom   33 type  2   force =    -0.00016234   -0.00024789    0.00006913
     atom   34 type  2   force =    -0.00132550    0.00066866   -0.07268468
     atom   35 type  2   force =    -0.00077987   -0.00043037   -0.00001770
     atom   36 type  2   force =     0.00010512   -0.00001758    0.00011493
     atom   37 type  1   force =     0.00006586    0.00064058    0.00022555
     atom   38 type  1   force =    -0.00022304    0.00002717   -0.00017559
     atom   39 type  2   force =     0.00013245   -0.00018344    0.00092034
     atom   40 type  2   force =    -0.00018325   -0.00046520    0.00034790
     atom   41 type  2   force =     0.00007058   -0.00008844    0.00005881
     atom   42 type  2   force =     0.00041169    0.00002048    0.00001980
     atom   43 type  1   force =    -0.00023342   -0.00012088    0.00007704
     atom   44 type  1   force =    -0.00025173    0.00049011    0.00008349
     atom   45 type  2   force =     0.00002689   -0.00003285    0.09973574
     atom   46 type  2   force =    -0.07915106    0.00005456   -0.03243292
     atom   47 type  2   force =     0.07903272    0.00047699   -0.03245284
     atom   48 type  3   force =     0.00091094    0.00074101   -0.00135165
     atom   49 type  4   force =     0.00009638   -0.00051170    0.00005159
     atom   50 type  5   force =    -0.00007989    0.00075247    0.00080681
     atom   51 type  5   force =     0.00025153    0.00052154   -0.00012300
     atom   52 type  5   force =    -0.00026246   -0.00023849   -0.00000770
     atom   53 type  3   force =     0.00123583    0.00070354   -0.00417328
     atom   54 type  5   force =     0.00005893   -0.00002993   -0.00011136
     atom   55 type  5   force =     0.00014996    0.00006556    0.00009039
     atom   56 type  5   force =    -0.00238885   -0.00123297    0.00395661

     Total force =     0.424406     Total SCF correction =     0.000573
  @ DRIVER MODE: Message from server: STATUS
  @ DRIVER MODE: Message from server: GETFORCE
  @ DRIVER MODE: Returning v,forces,stress,ensemble

     Writing output data file ./calc.save/
  @ DRIVER MODE: Message from server: EXIT
  @ DRIVE MODE: Exiting

     General routines

     Parallel routines

   This run was terminated on:  19:54:55  16Jul2021

   JOB DONE.