     Program PWSCF v.6.7GPU starts on 18Oct2021 at 18:58:45

     R & G space division:  proc/nbgrp/npool/nimage =       8
     Reading input from /storage/home/hcoda1/3/ntian30/research/carbon/CxH_vib/Thiel_calc/ads_slab/NH2HNH_perslab/out_0016/pw.inp
Warning: card &CELL ignored
Warning: card   CELL_DYNAMICS='IPI', ignored
Warning: card / ignored

     Current dimensions of program PWSCF are:
     Max number of different atomic species (ntypx) = 10
     Max number of k-points (npk) =  40000
     Max angular momentum in pseudopotentials (lmaxx) =  3
     Presently no symmetry can be used with electric field

     Message from routine cell_base_init:
     DEPRECATED: use true lattice parameter, not A to a.u. conversion factor

     IMPORTANT: XC functional enforced from input :
     Exchange-correlation= BEEF-VDW
                           (   1   4  43  14   2   0   0)
     Any further DFT definition will be discarded
     Please, verify this is what you really want

  @ DRIVER MODE: Connecting to
 qe_1139763_3255135.sched-torque.pace.gatech.edu6meanz99_scratch
  using UNIX socket
  @ DRIVER MODE: Message from server: STATUS
  @ DRIVER MODE: Message from server: INIT
  @ DRIVER MODE: Receiving replica           0          -1
  @ DRIVER MODE: Receiving encoded integer          25
  @ DRIVER MODE:  SCF:  T  FORCE:  T  STRESS:  F  VC:  F  ENSEMBLE:  F
  @ DRIVER MODE:  SCF:  T  FORCE:  T  STRESS:  F  VC:  F  ENSEMBLE:  F

     Using Slab Decomposition

     bravais-lattice index     =            0
     lattice parameter (alat)  =       1.8897  a.u.
     unit-cell volume          =    9988.4706 (a.u.)^3
     number of atoms/cell      =           59
     number of atomic types    =            4
     number of electrons       =       440.00
     number of Kohn-Sham states=          230
     kinetic-energy cutoff     =      29.3995  Ry
     charge density cutoff     =     293.9946  Ry
     scf convergence threshold =      7.3E-08
     mixing beta               =       0.0500
     number of iterations used =            8  plain     mixing
     Exchange-correlation= BEEF-VDW
                           (   1   4  43  14   2   0   0)

     celldm(1)=   1.889726  celldm(2)=   0.000000  celldm(3)=   0.000000
     celldm(4)=   0.000000  celldm(5)=   0.000000  celldm(6)=   0.000000

     crystal axes: (cart. coord. in units of alat)
               a(1) = (   6.579727   0.000000   0.000000 )
               a(2) = (  -0.001163   8.942395   0.000000 )
               a(3) = (   0.000000   0.000000  25.155947 )

     reciprocal axes: (cart. coord. in units 2 pi/alat)
               b(1) = (  0.151982  0.000020  0.000000 )
               b(2) = (  0.000000  0.111827  0.000000 )
               b(3) = (  0.000000  0.000000  0.039752 )

     PseudoPot. # 1 for O  read from file:
     /storage/coda1/p-amedford6/0/shared/rich_project_chbe-medford/medford-share/data/pseudos_module/espresso/nninc/pbe/van/O.UPF
     MD5 check sum: 78c19812648e8988a0fe644b0f25305e
     Pseudo is Ultrasoft, Zval =  6.0
     Generated by new atomic code, or converted to UPF format
     Using radial grid of  737 points,  4 beta functions with:
                l(1) =   0
                l(2) =   0
                l(3) =   1
                l(4) =   1
     Q(r) pseudized with  8 coefficients,  rinner =    0.800   0.800   0.800

     PseudoPot. # 2 for Ti read from file:
     /storage/coda1/p-amedford6/0/shared/rich_project_chbe-medford/medford-share/data/pseudos_module/espresso/nninc/pbe/van/Ti.UPF
     MD5 check sum: 8e4df49b7f0d34bbd5052bf3f5ea0213
     Pseudo is Ultrasoft, Zval = 12.0
     Generated by new atomic code, or converted to UPF format
     Using radial grid of  851 points,  6 beta functions with:
                l(1) =   0
                l(2) =   0
                l(3) =   1
                l(4) =   1
                l(5) =   2
                l(6) =   2
     Q(r) pseudized with  8 coefficients,  rinner =    1.000   1.000   1.000
                                                       1.000   1.000

     PseudoPot. # 3 for H  read from file:
     /storage/coda1/p-amedford6/0/shared/rich_project_chbe-medford/medford-share/data/pseudos_module/espresso/nninc/pbe/van/H.UPF
     MD5 check sum: b5ee9d7bfd3a09ee7748110bda690ff7
     Pseudo is Ultrasoft, Zval =  1.0
     Generated by new atomic code, or converted to UPF format
     Using radial grid of  615 points,  1 beta functions with:
                l(1) =   0
     Q(r) pseudized with  8 coefficients,  rinner =    0.800

     PseudoPot. # 4 for N  read from file:
     /storage/coda1/p-amedford6/0/shared/rich_project_chbe-medford/medford-share/data/pseudos_module/espresso/nninc/pbe/van/N.UPF
     MD5 check sum: 90d10febe142ad51ac9d5be1deb811c4
     Pseudo is Ultrasoft, Zval =  5.0
     Generated by new atomic code, or converted to UPF format
     Using radial grid of  729 points,  4 beta functions with:
                l(1) =   0
                l(2) =   0
                l(3) =   1
                l(4) =   1
     Q(r) pseudized with  8 coefficients,  rinner =    0.800   0.800   0.800

     atomic species   valence    mass     pseudopotential
        O1             6.00    15.99900     O ( 1.00)
        Ti1           12.00    47.86700     Ti( 1.00)
        H1             1.00     1.00800     H ( 1.00)
        N1             5.00    14.00700     N ( 1.00)

     No symmetry found

   Cartesian axes

     site n.     atom                  positions (alat units)
         1           O1  tau(   1) = (   0.0007354   0.0005023  10.5931620  )
         2           O1  tau(   2) = (   3.2891522   8.9193323  13.7813865  )
         3           O1  tau(   3) = (  -0.0003195   8.9357148  17.1597790  )
         4           O1  tau(   4) = (   0.0006271   0.0005054   7.9858123  )
         5           O1  tau(   5) = (   3.2896276   8.9330874  11.1456747  )
         6           O1  tau(   6) = (   0.0000757   8.8957392  14.5326415  )
         7           O1  tau(   7) = (   1.9868534   1.4903216   9.2879459  )
         8           O1  tau(   8) = (   5.2085136   1.5567490  12.5272226  )
         9           O1  tau(   9) = (   2.0368910   1.4086519  15.9478609  )
        10           Ti1 tau(  10) = (   0.0007404   1.4906270   9.2895810  )
        11           Ti1 tau(  11) = (   3.2920048   1.2896434  12.4335303  )
        12           Ti1 tau(  12) = (   0.0003947   1.7483972  15.9485354  )
        13           O1  tau(  13) = (   4.5942328   1.4918067   9.2879030  )
        14           O1  tau(  14) = (   1.3734151   1.5562871  12.5269411  )
        15           O1  tau(  15) = (   4.5446063   1.4075665  15.9467422  )
        16           Ti1 tau(  16) = (   3.2902859   2.9801868   9.2893338  )
        17           Ti1 tau(  17) = (   0.0022843   2.7629733  12.5422407  )
        18           Ti1 tau(  18) = (   3.2887740   3.1097933  15.6402895  )
        19           O1  tau(  19) = (   0.0003479   2.9813005  10.5931620  )
        20           O1  tau(  20) = (   3.2903674   2.9527630  13.7969158  )
        21           O1  tau(  21) = (   0.0002396   2.9813036   7.9858123  )
        22           O1  tau(  22) = (   3.2906228   2.9775883  11.1663003  )
        23           O1  tau(  23) = (   0.0006598   2.9368866  14.5305733  )
        24           O1  tau(  24) = (   1.9864658   4.4711199   9.2879459  )
        25           O1  tau(  25) = (   5.2231876   4.5386380  12.5467233  )
        26           O1  tau(  26) = (   2.0248981   4.3679406  15.9930346  )
        27           Ti1 tau(  27) = (   0.0003529   4.4714252   9.2895810  )
        28           Ti1 tau(  28) = (   3.2918124   4.3135021  12.5344809  )
        29           Ti1 tau(  29) = (   6.5788423   4.6929592  16.0739603  )
        30           O1  tau(  30) = (   4.5938453   4.4726049   9.2879030  )
        31           O1  tau(  31) = (   1.3570704   4.5373869  12.5465102  )
        32           O1  tau(  32) = (   4.5538814   4.3671241  15.9936543  )
        33           Ti1 tau(  33) = (   3.2898983   5.9609850   9.2893338  )
        34           Ti1 tau(  34) = (   0.0013264   5.7428985  12.5110789  )
        35           Ti1 tau(  35) = (   3.2898306   6.0937744  16.2866611  )
        36           O1  tau(  36) = (  -0.0000397   5.9620987  10.5931620  )
        37           O1  tau(  37) = (   3.2897329   5.8964334  13.7986068  )
        38           O1  tau(  38) = (  -0.0007474   6.0119579  17.1634496  )
        39           O1  tau(  39) = (  -0.0001480   5.9621018   7.9858123  )
        40           O1  tau(  40) = (   3.2898370   5.9388437  11.1687384  )
        41           O1  tau(  41) = (  -0.0001539   5.9931028  14.5676369  )
        42           O1  tau(  42) = (   1.9860782   7.4519181   9.2879459  )
        43           O1  tau(  43) = (   5.2258842   7.5046952  12.5406166  )
        44           O1  tau(  44) = (   2.0242945   7.4351242  16.0034066  )
        45           Ti1 tau(  45) = (  -0.0000347   7.4522234   9.2895810  )
        46           Ti1 tau(  46) = (   3.2896699   7.1866417  12.6007890  )
        47           Ti1 tau(  47) = (   0.0000787   7.5542351  15.7482610  )
        48           O1  tau(  48) = (   4.5934577   7.4534031   9.2879030  )
        49           O1  tau(  49) = (   1.3527639   7.5038087  12.5404143  )
        50           O1  tau(  50) = (   4.5545665   7.4356877  16.0029592  )
        51           Ti1 tau(  51) = (   3.2895107   8.9417832   9.2893338  )
        52           Ti1 tau(  52) = (  -0.0005703   8.7121504  12.4856418  )
        53           Ti1 tau(  53) = (   3.2909615   0.1005107  15.6284087  )
        54           H1  tau(  54) = (   6.5785809   3.1351568  18.2688824  )
        55           H1  tau(  55) = (   6.5783155   8.7923607  18.1116139  )
        56           N1  tau(  56) = (  -0.0001347   2.9816693  17.2674093  )
        57           N1  tau(  57) = (   3.2897564   5.9921341  18.1800631  )
        58           H1  tau(  58) = (   3.2887465   5.1266479  18.7045293  )
        59           H1  tau(  59) = (   3.2892443   6.7858760  18.8071070  )

     number of k points=    10  Fermi-Dirac smearing, width (Ry)=  0.0073
                       cart. coord. in units 2pi/alat
        k(    1) = (   0.0000000   0.0000000   0.0000000), wk =   0.1250000
        k(    2) = (   0.0000000   0.0279567   0.0000000), wk =   0.2500000
        k(    3) = (   0.0000000  -0.0559134   0.0000000), wk =   0.1250000
        k(    4) = (   0.0379955   0.0000049   0.0000000), wk =   0.2500000
        k(    5) = (   0.0379955   0.0279617   0.0000000), wk =   0.2500000
        k(    6) = (   0.0379955  -0.0559085   0.0000000), wk =   0.2500000
        k(    7) = (   0.0379955  -0.0279518   0.0000000), wk =   0.2500000
        k(    8) = (  -0.0759910  -0.0000099   0.0000000), wk =   0.1250000
        k(    9) = (  -0.0759910   0.0279468   0.0000000), wk =   0.2500000
        k(   10) = (  -0.0759910  -0.0559233   0.0000000), wk =   0.1250000

     Initial potential from superposition of free atoms

     starting charge  421.99910, renormalised to  440.00000

     negative rho (up, down):  3.702E-02 0.000E+00

     %%%%%%%%%%%%%%%%%%%%%%%%%%%%%%%%%%%%%%%%%%%%%%%%%%%%%%%%%%%%%%%%%%%%%%%%
     %                                                                      %
     % You are using vdW-DF, which was implemented by the Thonhauser group. %
     % Please cite the following two papers that made this development      %
     % possible and the two reviews that describe the various versions:     %
     %                                                                      %
     %   T. Thonhauser et al., PRL 115, 136402 (2015).                      %
     %   T. Thonhauser et al., PRB 76, 125112 (2007).                       %
     %   K. Berland et al., Rep. Prog. Phys. 78, 066501 (2015).             %
     %   D.C. Langreth et al., J. Phys.: Condens. Matter 21, 084203 (2009). %
     %                                                                      %
     %                                                                      %
     % If you are calculating the stress with vdW-DF, please also cite:     %
     %                                                                      %
     %   R. Sabatini et al., J. Phys.: Condens. Matter 24, 424209 (2012).   %
     %                                                                      %
     %%%%%%%%%%%%%%%%%%%%%%%%%%%%%%%%%%%%%%%%%%%%%%%%%%%%%%%%%%%%%%%%%%%%%%%%

     Adding external electric field

     Computed dipole along edir(3) :
        Dipole               -3.9424 Ry au,        -10.0206 Debye
        Dipole field         -0.0050 Ry au,

        Potential amp.        0.4598 Ry
        Total length         46.3494 bohr

     Starting wfcs are  332 atomic wfcs
  @ DRIVER MODE: Message from server: STATUS
  @ DRIVER MODE: Message from server: POSDATA
  @ DRIVER MODE: Reading and sharing cell
  @ DRIVER MODE: Reading and sharing positions
  @ DRIVER MODE: Received positions

     Self-consistent Calculation

     iteration #  1     ecut=    29.40 Ry     beta= 0.05
     Davidson diagonalization with overlap
     c_bands:  1 eigenvalues not converged
     c_bands:  2 eigenvalues not converged
     c_bands:  4 eigenvalues not converged
     c_bands:  2 eigenvalues not converged
     c_bands:  2 eigenvalues not converged
     c_bands:  2 eigenvalues not converged
     c_bands:  4 eigenvalues not converged
     c_bands:  3 eigenvalues not converged
     c_bands:  2 eigenvalues not converged
     ethr =  1.00E-05,  avg # of iterations = 20.0

[...]

     total energy              =   -3294.67599472 Ry
     estimated scf accuracy    <      19.62414401 Ry

     iteration #  2     ecut=    29.40 Ry     beta= 0.05
     Davidson diagonalization with overlap
     ethr =  4.46E-03,  avg # of iterations =  1.0

[...]

     iteration # 31     ecut=    29.40 Ry     beta= 0.05
     Davidson diagonalization with overlap
     c_bands:  1 eigenvalues not converged
     c_bands:  1 eigenvalues not converged
     ethr =  2.51E-06,  avg # of iterations =  8.2

[...]

     total energy              =   -3293.29244572 Ry
     estimated scf accuracy    <       0.00000012 Ry

     iteration # 68     ecut=    29.40 Ry     beta= 0.05
     Davidson diagonalization with overlap
     ethr =  2.71E-11,  avg # of iterations =  3.3

     negative rho (up, down):  3.602E-02 0.000E+00

     Adding external electric field

     Computed dipole along edir(3) :
        Dipole                1.2918 Ry au,          3.2833 Debye
        Dipole field          0.0016 Ry au,

        Potential amp.       -0.1506 Ry
        Total length         46.3494 bohr

     End of self-consistent calculation

          k = 0.0000 0.0000 0.0000 ( 26871 PWs)   bands (ev):

   -58.2982 -58.2743 -58.2704 -58.2115 -58.1620 -57.7939 -57.7730 -57.7570
   -57.6249 -57.5921 -57.5722 -57.5101 -57.4876 -56.8855 -56.8786 -56.8623
   -56.8529 -56.8379 -34.6894 -34.6622 -34.6320 -34.6203 -34.6147 -34.6097
   -34.5466 -34.4838 -34.4733 -34.4101 -34.4067 -34.4038 -34.3905 -34.3592
   -34.3348 -34.1950 -34.1503 -34.1448 -34.1260 -34.0980 -34.0830 -34.0791
   -34.0562 -34.0210 -34.0080 -33.9633 -33.9213 -33.8749 -33.8581 -33.8514
   -33.8330 -33.8282 -33.7813 -33.7601 -33.7470 -33.7430 -33.6957 -33.6878
   -33.6757 -33.3636 -33.2233 -33.2112 -33.2035 -33.1891 -33.1822 -33.1640
   -33.1585 -33.1146 -33.1011 -33.0863 -33.0357 -33.0270 -33.0096 -32.8864
   -18.9174 -18.8284 -18.3728 -18.2971 -18.1757 -18.1202 -18.1142 -18.0476
   -17.9457 -17.7251 -17.6845 -17.6759 -17.6473 -17.5402 -17.5317 -17.5242
   -17.4957 -17.4876 -17.4750 -17.3860 -17.3242 -17.3156 -17.3099 -17.3096
   -17.2009 -17.1751 -17.1223 -17.0577 -17.0483 -16.9474 -16.7719 -16.4232
   -15.3547 -15.3140 -15.3043 -15.1538 -13.6040  -6.9839  -6.6238  -6.1800
    -5.9866  -5.7765  -5.6376  -5.5233  -5.4704  -5.3780  -5.3120  -5.2872
    -5.2698  -5.2307  -5.1960  -5.1687  -5.0665  -5.0557  -4.9746  -4.9207
    -4.8749  -4.8271  -4.7864  -4.7404  -4.7368  -4.6992  -4.6287  -4.6172
    -4.5830  -4.5363  -4.5070  -4.4998  -4.4445  -4.4155  -4.3943  -4.2720
    -4.2585  -4.1932  -4.1809  -4.1733  -4.0706  -4.0623  -4.0183  -3.9855
    -3.9818  -3.9603  -3.9111  -3.8298  -3.8031  -3.6451  -3.6206  -3.6128
    -3.5213  -3.3802  -3.3685  -3.3223  -3.2032  -3.1380  -3.1135  -3.0760
    -3.0583  -3.0407  -3.0171  -3.0062  -2.9725  -2.8787  -2.8775  -2.8163
    -2.8140  -2.7990  -2.7745  -2.7717  -2.7314  -2.6588  -2.5995  -2.5865
    -2.5666  -2.5485  -2.4622  -2.4464  -2.3568  -2.3379  -2.2856  -2.2435
    -2.2388  -2.1720  -2.0959  -2.0882  -2.0243  -2.0002  -1.8261  -1.8004
    -1.7244  -1.7188  -1.6524  -1.6254  -1.6025  -1.5508  -1.4240  -1.3962
    -1.2954  -1.1788  -1.0224  -0.7839  -0.5892  -0.5715  -0.5624  -0.5300
    -0.4240  -0.3835  -0.3673  -0.2725   0.9801   1.1262   1.2791   1.3006
     1.4946   1.6041   1.6166   1.6718   1.7509   1.8714

[...]

          k = 0.0380-0.0280 0.0000 ( 26873 PWs)   bands (ev):

[...]

          k =-0.0760-0.0000 0.0000 ( 26902 PWs)   bands (ev):

[...]

          k =-0.0760-0.0559 0.0000 ( 26868 PWs)   bands (ev):

   -58.2915 -58.2874 -58.2638 -58.2114 -58.1621 -57.7938 -57.7725 -57.7574
   -57.6235 -57.5953 -57.5704 -57.5099 -57.4877 -56.8856 -56.8757 -56.8622
   -56.8587 -56.8348 -34.7146 -34.7108 -34.6645 -34.6399 -34.6070 -34.4987
   -34.4843 -34.4499 -34.4468 -34.4342 -34.4277 -34.4072 -34.3864 -34.3824
   -34.3611 -34.2303 -34.1731 -34.1686 -34.1398 -34.1212 -34.0791 -34.0017
   -33.9991 -33.9979 -33.9650 -33.9299 -33.9223 -33.9070 -33.8990 -33.8726
   -33.8641 -33.8509 -33.7755 -33.7696 -33.7397 -33.7116 -33.7106 -33.6936
   -33.6860 -33.3384 -33.2650 -33.2243 -33.2207 -33.2091 -33.1860 -33.1608
   -33.1173 -33.1019 -33.0732 -33.0545 -33.0419 -32.9974 -32.9908 -32.9739
   -18.8964 -18.6229 -18.4752 -18.2396 -18.1391 -17.9753 -17.8922 -17.8804
   -17.8619 -17.8612 -17.7622 -17.7509 -17.6971 -17.6754 -17.6322 -17.6226
   -17.6103 -17.5712 -17.5665 -17.4495 -17.3617 -17.3557 -17.2587 -17.2438
   -17.2168 -17.1531 -17.1355 -17.0484 -17.0260 -16.9532 -16.7790 -16.4086
   -15.3657 -15.3540 -15.2435 -15.1545 -13.6010  -6.9561  -6.6249  -5.9507
    -5.7558  -5.7217  -5.6708  -5.3507  -5.3133  -5.2323  -5.2032  -5.1647
    -5.1372  -5.1247  -5.0944  -5.0831  -5.0079  -4.9714  -4.9627  -4.9587
    -4.9152  -4.8967  -4.8473  -4.8232  -4.7768  -4.7556  -4.7483  -4.7131
    -4.6666  -4.6502  -4.5747  -4.5712  -4.4999  -4.4589  -4.3196  -4.2342
    -4.2107  -4.1816  -4.0847  -4.0688  -4.0372  -3.9410  -3.9251  -3.9064
    -3.7771  -3.7423  -3.6339  -3.6173  -3.5683  -3.5458  -3.5171  -3.4896
    -3.4253  -3.3838  -3.3670  -3.3626  -3.3288  -3.2596  -3.2296  -3.2120
    -3.1808  -3.1640  -3.1538  -3.1428  -3.0764  -3.0598  -3.0297  -2.9910
    -2.9299  -2.9034  -2.8486  -2.8452  -2.7873  -2.7468  -2.6940  -2.6879
    -2.6155  -2.5917  -2.5869  -2.5797  -2.4760  -2.4513  -2.4453  -2.3051
    -2.1653  -2.1122  -2.0678  -1.9657  -1.9086  -1.9045  -1.8821  -1.8107
    -1.7883  -1.7069  -1.6506  -1.6303  -1.6199  -1.5903  -1.3761  -1.3456
    -1.3336  -1.2929  -1.2274  -1.1301  -0.8137  -0.5898  -0.5691  -0.5006
    -0.4776  -0.4251  -0.4034  -0.3888   1.0292   1.2042   1.2755   1.3691
     1.3697   1.4023   1.4521   1.6185   1.6515   1.7668

     the Fermi energy is     0.3874 ev

!    total energy              =   -3293.29246278 Ry
     estimated scf accuracy    <       0.00000007 Ry
     smearing contrib. (-TS)   =      -0.00047968 Ry
     internal energy E=F+TS    =   -3293.29198310 Ry

     The total energy is F=E-TS. E is the sum of the following terms:
     one-electron contribution =  -34638.92882678 Ry
     hartree contribution      =   17383.73715742 Ry
     xc contribution           =    -542.08581493 Ry
     ewald contribution        =   14503.98340189 Ry
     electric field correction =       0.00209930 Ry

     convergence has been achieved in  68 iterations

     Forces acting on atoms (cartesian axes, Ry/au):

     atom    1 type  1   force =     0.00000883    0.00246816    0.04673995
     atom    2 type  1   force =     0.00000779   -0.00336220   -0.00277122
     atom    3 type  1   force =    -0.00000954    0.00396054   -0.00080892
     atom    4 type  1   force =     0.00005075   -0.00096347    0.10171020
     atom    5 type  1   force =    -0.00000967   -0.00067743    0.00564380
     atom    6 type  1   force =    -0.00001370    0.00412090    0.00086016
     atom    7 type  1   force =     0.07818670    0.00085950   -0.03538837
     atom    8 type  1   force =     0.00842732   -0.02581776    0.00021787
     atom    9 type  1   force =     0.00788611    0.02080056    0.00145739
     atom   10 type  2   force =    -0.00006496    0.00863410   -0.15841015
     atom   11 type  2   force =    -0.00003748    0.02313490   -0.00234651
     atom   12 type  2   force =     0.00005206   -0.02234849   -0.00208783
     atom   13 type  1   force =    -0.07827959    0.00040265   -0.03537745
     atom   14 type  1   force =    -0.00847457   -0.02573076    0.00022489
     atom   15 type  1   force =    -0.00783643    0.02091284    0.00149091
     atom   16 type  2   force =     0.00013132    0.00087874    0.07319011
     atom   17 type  2   force =     0.00006197    0.03073244    0.00184813
     atom   18 type  2   force =    -0.00005971   -0.02589284    0.00094821
     atom   19 type  1   force =     0.00004043    0.00296750    0.05025180
     atom   20 type  1   force =    -0.00002172   -0.00133203   -0.00162630
     atom   21 type  1   force =     0.00005079   -0.00065292    0.10020394
     atom   22 type  1   force =    -0.00001626   -0.00184070    0.00543040
     atom   23 type  1   force =    -0.00002195    0.00138375    0.00479391
     atom   24 type  1   force =     0.07913762    0.00063882   -0.03604730
     atom   25 type  1   force =     0.00925593   -0.02957338    0.00062156
     atom   26 type  1   force =     0.00916105    0.02150253    0.00284860
     atom   27 type  2   force =    -0.00006814   -0.00805250   -0.15493777
     atom   28 type  2   force =    -0.00000625    0.02630628   -0.00213071
     atom   29 type  2   force =     0.00004358   -0.02358062   -0.00238756
     atom   30 type  1   force =    -0.07922734    0.00022932   -0.03604192
     atom   31 type  1   force =    -0.00926263   -0.02950440    0.00062785
     atom   32 type  1   force =    -0.00911783    0.02158014    0.00287706
     atom   33 type  2   force =     0.00013344   -0.00256060    0.07889282
     atom   34 type  2   force =     0.00004445    0.03594424    0.00310592
     atom   35 type  2   force =    -0.00006859   -0.02963403    0.00311879
     atom   36 type  1   force =     0.00004191    0.00308291    0.05231833
     atom   37 type  1   force =    -0.00000372   -0.00182029   -0.00297264
     atom   38 type  1   force =    -0.00002092    0.00271892    0.00066178
     atom   39 type  1   force =     0.00004709    0.00285965    0.10110410
     atom   40 type  1   force =    -0.00000931   -0.00170610    0.00616401
     atom   41 type  1   force =    -0.00002680    0.00368710    0.00306074
     atom   42 type  1   force =     0.07825384    0.00077197   -0.03487007
     atom   43 type  1   force =     0.00661661   -0.02297769   -0.00022676
     atom   44 type  1   force =     0.01115997    0.02240356   -0.00721840
     atom   45 type  2   force =    -0.00005939   -0.00553491   -0.16462417
     atom   46 type  2   force =    -0.00007769    0.01949433    0.00104677
     atom   47 type  2   force =     0.00002580   -0.01962993    0.00739513
     atom   48 type  1   force =    -0.07835032    0.00032222   -0.03485263
     atom   49 type  1   force =    -0.00665764   -0.02294448   -0.00022385
     atom   50 type  1   force =    -0.01112837    0.02238670   -0.00717502
     atom   51 type  2   force =     0.00012658   -0.00437698    0.06095335
     atom   52 type  2   force =     0.00012391    0.02952321    0.00357521
     atom   53 type  2   force =    -0.00007572   -0.02561110    0.00083177
     atom   54 type  3   force =    -0.00000929    0.00135247    0.00235766
     atom   55 type  3   force =    -0.00001713   -0.00018152    0.00017424
     atom   56 type  4   force =    -0.00001432    0.00120251   -0.00485305
     atom   57 type  4   force =    -0.00000787   -0.00043444    0.00046737
     atom   58 type  3   force =    -0.00000542   -0.00012643   -0.00006642
     atom   59 type  3   force =    -0.00001559   -0.00039545    0.00023029

     Total force =     0.437144     Total SCF correction =     0.000872
  @ DRIVER MODE: Message from server: STATUS
  @ DRIVER MODE: Message from server: GETFORCE
  @ DRIVER MODE: Returning v,forces,stress,ensemble

     Writing output data file ./calc.save/
  @ DRIVER MODE: Message from server: EXIT
  @ DRIVE MODE: Exiting

     General routines

     Parallel routines

   This run was terminated on:  19:30:44  18Oct2021

   JOB DONE.