     Program PWSCF v.6.7GPU starts on 22Sep2021 at 23:56:41

     R & G space division:  proc/nbgrp/npool/nimage =      10
     Reading input from /storage/home/hcoda1/3/ntian30/research/carbon/CxH_vib/H2O_calc/ads_slab/CH3NHHH2O_a/out_0025/pw.inp
Warning: card &CELL ignored
Warning: card   CELL_DYNAMICS='IPI', ignored
Warning: card / ignored

     Current dimensions of program PWSCF are:
     Max number of different atomic species (ntypx) = 10
     Max number of k-points (npk) =  40000
     Max angular momentum in pseudopotentials (lmaxx) =  3
     Presently no symmetry can be used with electric field

     Message from routine cell_base_init:
     DEPRECATED: use true lattice parameter, not A to a.u. conversion factor

     IMPORTANT: XC functional enforced from input :
     Exchange-correlation= BEEF-VDW
                           (   1   4  43  14   2   0   0)
     Any further DFT definition will be discarded
     Please, verify this is what you really want

  @ DRIVER MODE: Connecting to
 qe_1139763_2937309.sched-torque.pace.gatech.edur0b5cs_e_scratch
  using UNIX socket
  @ DRIVER MODE: Message from server: STATUS
  @ DRIVER MODE: Message from server: INIT
  @ DRIVER MODE: Receiving replica           0          -1
  @ DRIVER MODE: Receiving encoded integer          25
  @ DRIVER MODE:  SCF:  T  FORCE:  T  STRESS:  F  VC:  F  ENSEMBLE:  F
  @ DRIVER MODE:  SCF:  T  FORCE:  T  STRESS:  F  VC:  F  ENSEMBLE:  F

     Using Slab Decomposition

     bravais-lattice index     =            0
     lattice parameter (alat)  =       1.8897  a.u.
     unit-cell volume          =    6658.9804 (a.u.)^3
     number of atoms/cell      =           57
     number of atomic types    =            5
     number of electrons       =       400.00
     number of Kohn-Sham states=          210
     kinetic-energy cutoff     =      29.3995  Ry
     charge density cutoff     =     293.9946  Ry
     scf convergence threshold =      7.3E-08
     mixing beta               =       0.0500
     number of iterations used =            8  plain     mixing
     Exchange-correlation= BEEF-VDW
                           (   1   4  43  14   2   0   0)

     celldm(1)=   1.889726  celldm(2)=   0.000000  celldm(3)=   0.000000
     celldm(4)=   0.000000  celldm(5)=   0.000000  celldm(6)=   0.000000

     crystal axes: (cart. coord. in units of alat)
               a(1) = (   6.579727   0.000000   0.000000 )
               a(2) = (  -0.000775   5.961596   0.000000 )
               a(3) = (   0.000000   0.000000  25.155947 )

     reciprocal axes: (cart. coord. in units 2 pi/alat)
               b(1) = (  0.151982  0.000020  0.000000 )
               b(2) = (  0.000000  0.167740  0.000000 )
               b(3) = (  0.000000  0.000000  0.039752 )

     PseudoPot. # 1 for Ti read from file:
     /storage/coda1/p-amedford6/0/shared/rich_project_chbe-medford/medford-share/data/pseudos_module/espresso/nninc/pbe/van/Ti.UPF
     MD5 check sum: 8e4df49b7f0d34bbd5052bf3f5ea0213
     Pseudo is Ultrasoft, Zval = 12.0
     Generated by new atomic code, or converted to UPF format
     Using radial grid of  851 points,  6 beta functions with:
                l(1) =   0
                l(2) =   0
                l(3) =   1
                l(4) =   1
                l(5) =   2
                l(6) =   2
     Q(r) pseudized with  8 coefficients,  rinner =    1.000   1.000   1.000
                                                       1.000   1.000

     PseudoPot. # 2 for O  read from file:
     /storage/coda1/p-amedford6/0/shared/rich_project_chbe-medford/medford-share/data/pseudos_module/espresso/nninc/pbe/van/O.UPF
     MD5 check sum: 78c19812648e8988a0fe644b0f25305e
     Pseudo is Ultrasoft, Zval =  6.0
     Generated by new atomic code, or converted to UPF format
     Using radial grid of  737 points,  4 beta functions with:
                l(1) =   0
                l(2) =   0
                l(3) =   1
                l(4) =   1
     Q(r) pseudized with  8 coefficients,  rinner =    0.800   0.800   0.800

     PseudoPot. # 3 for N  read from file:
     /storage/coda1/p-amedford6/0/shared/rich_project_chbe-medford/medford-share/data/pseudos_module/espresso/nninc/pbe/van/N.UPF
     MD5 check sum: 90d10febe142ad51ac9d5be1deb811c4
     Pseudo is Ultrasoft, Zval =  5.0
     Generated by new atomic code, or converted to UPF format
     Using radial grid of  729 points,  4 beta functions with:
                l(1) =   0
                l(2) =   0
                l(3) =   1
                l(4) =   1
     Q(r) pseudized with  8 coefficients,  rinner =    0.800   0.800   0.800

     PseudoPot. # 4 for C  read from file:
     /storage/coda1/p-amedford6/0/shared/rich_project_chbe-medford/medford-share/data/pseudos_module/espresso/nninc/pbe/van/C.UPF
     MD5 check sum: 1a69bf6b8db32088f5b2163dbdb77a27
     Pseudo is Ultrasoft, Zval =  4.0
     Generated by new atomic code, or converted to UPF format
     Using radial grid of  721 points,  4 beta functions with:
                l(1) =   0
                l(2) =   0
                l(3) =   1
                l(4) =   1
     Q(r) pseudized with  8 coefficients,  rinner =    0.800   0.800   0.800

     PseudoPot. # 5 for H  read from file:
     /storage/coda1/p-amedford6/0/shared/rich_project_chbe-medford/medford-share/data/pseudos_module/espresso/nninc/pbe/van/H.UPF
     MD5 check sum: b5ee9d7bfd3a09ee7748110bda690ff7
     Pseudo is Ultrasoft, Zval =  1.0
     Generated by new atomic code, or converted to UPF format
     Using radial grid of  615 points,  1 beta functions with:
                l(1) =   0
     Q(r) pseudized with  8 coefficients,  rinner =    0.800

     atomic species   valence    mass     pseudopotential
        Ti1           12.00    47.86700     Ti( 1.00)
        O1             6.00    15.99900     O ( 1.00)
        N1             5.00    14.00700     N ( 1.00)
        C1             4.00    12.01100     C ( 1.00)
        H1             1.00     1.00800     H ( 1.00)

     No symmetry found

   Cartesian axes

     site n.     atom                  positions (alat units)
         1           Ti1 tau(   1) = (   0.0004258   2.9801865   6.0000000  )
         2           Ti1 tau(   2) = (   3.2906075   1.4906267   6.0002472  )
         3           O1  tau(   3) = (   0.0006271   0.0005054   7.9858123  )
         4           O1  tau(   4) = (   3.2906025   0.0005020   7.3038282  )
         5           O1  tau(   5) = (   4.5942328   1.4918067   9.2879030  )
         6           O1  tau(   6) = (   1.9868534   1.4903216   9.2879459  )
         7           Ti1 tau(   7) = (   3.2907910   2.8959150   9.1758416  )
         8           Ti1 tau(   8) = (   0.0015273   1.4827037   9.2680791  )
         9           O1  tau(   9) = (   3.2912042   0.0294118  11.3810798  )
        10           O1  tau(  10) = (   0.0116148   5.9584955  10.6183126  )
        11           O1  tau(  11) = (   1.2906363   1.5151137  12.6946382  )
        12           O1  tau(  12) = (   5.2977377   1.5118052  12.6897239  )
        13           Ti1 tau(  13) = (   0.0154927   3.0055723  12.5114375  )
        14           Ti1 tau(  14) = (   3.3120461   1.5076926  12.5412499  )
        15           O1  tau(  15) = (   0.0087391   5.9056098  14.6936070  )
        16           O1  tau(  16) = (   3.3000944   0.0090435  14.0218108  )
        17           O1  tau(  17) = (   4.5606481   1.5918460  16.0876707  )
        18           O1  tau(  18) = (   2.0070218   1.5857768  16.0794533  )
        19           Ti1 tau(  19) = (   3.2835068   3.0412122  15.7371975  )
        20           Ti1 tau(  20) = (   0.0166266   1.3536260  15.8406240  )
        21           O1  tau(  21) = (   3.2904802   0.0005063   4.7018136  )
        22           O1  tau(  22) = (   6.5628702   0.1917167  17.2472498  )
        23           O1  tau(  23) = (   1.3043587   1.4918075   6.0039043  )
        24           O1  tau(  24) = (   5.2767064   1.4903225   6.0039473  )
        25           Ti1 tau(  25) = (   0.0000382   5.9609847   6.0000000  )
        26           Ti1 tau(  26) = (   3.2902200   4.4714249   6.0002472  )
        27           O1  tau(  27) = (   0.0002396   2.9813036   7.9858123  )
        28           O1  tau(  28) = (   3.2902150   2.9813002   7.3038282  )
        29           O1  tau(  29) = (   4.5938453   4.4726049   9.2879030  )
        30           O1  tau(  30) = (   1.9864658   4.4711199   9.2879459  )
        31           Ti1 tau(  31) = (   3.2891106   5.8743827   9.1763621  )
        32           Ti1 tau(  32) = (   0.0006254   4.4649316   9.2693709  )
        33           O1  tau(  33) = (   3.2975917   2.9887808  11.3748511  )
        34           O1  tau(  34) = (   0.0092240   2.9805883  10.6323155  )
        35           O1  tau(  35) = (   1.2927870   4.4849180  12.6503915  )
        36           O1  tau(  36) = (   5.2959677   4.4879952  12.6460094  )
        37           Ti1 tau(  37) = (   0.0189062   0.0134437  12.4995343  )
        38           Ti1 tau(  38) = (   3.3131396   4.4925875  12.5257625  )
        39           O1  tau(  39) = (   6.5658147   3.0796170  14.9398047  )
        40           O1  tau(  40) = (   3.2912769   3.0351834  13.9531456  )
        41           O1  tau(  41) = (   4.5372935   4.5058929  16.2491503  )
        42           O1  tau(  42) = (   2.0060561   4.4992570  16.2466123  )
        43           Ti1 tau(  43) = (   3.3106529   0.0781036  15.8389635  )
        44           Ti1 tau(  44) = (   0.0259428   4.5566345  16.0434284  )
        45           O1  tau(  45) = (   3.2900926   2.9813045   4.7018136  )
        46           O1  tau(  46) = (   1.3039711   4.4726057   6.0039043  )
        47           O1  tau(  47) = (   5.2763189   4.4711207   6.0039473  )
        48           N1  tau(  48) = (   6.3514164   3.3085518  18.1544664  )
        49           C1  tau(  49) = (   0.8695967   3.1501053  19.1301808  )
        50           H1  tau(  50) = (   1.3785670   4.1052268  19.2416751  )
        51           H1  tau(  51) = (   0.5086663   2.8389580  20.1145987  )
        52           H1  tau(  52) = (   1.5679067   2.4119510  18.7640910  )
        53           H1  tau(  53) = (   5.7211048   4.0382881  18.4729098  )
        54           H1  tau(  54) = (   5.7931489   2.4557210  18.1309407  )
        55           O1  tau(  55) = (   3.2817172   0.3149129  18.3340421  )
        56           H1  tau(  56) = (   4.0380937   5.6864266  18.4726034  )
        57           H1  tau(  57) = (   2.4816286   5.7371253  18.4434621  )

     number of k points=    10  Fermi-Dirac smearing, width (Ry)=  0.0073
                       cart. coord. in units 2pi/alat
        k(    1) = (   0.0000000   0.0000000   0.0000000), wk =   0.1250000
        k(    2) = (   0.0000000   0.0419351   0.0000000), wk =   0.2500000
        k(    3) = (   0.0000000  -0.0838702   0.0000000), wk =   0.1250000
        k(    4) = (   0.0379955   0.0000049   0.0000000), wk =   0.2500000
        k(    5) = (   0.0379955   0.0419400   0.0000000), wk =   0.2500000
        k(    6) = (   0.0379955  -0.0838652   0.0000000), wk =   0.2500000
        k(    7) = (   0.0379955  -0.0419301   0.0000000), wk =   0.2500000
        k(    8) = (  -0.0759910  -0.0000099   0.0000000), wk =   0.1250000
        k(    9) = (  -0.0759910   0.0419252   0.0000000), wk =   0.2500000
        k(   10) = (  -0.0759910  -0.0838800   0.0000000), wk =   0.1250000

     Initial potential from superposition of free atoms

     starting charge  383.99913, renormalised to  400.00000

     negative rho (up, down):  1.554E-02 0.000E+00

     %%%%%%%%%%%%%%%%%%%%%%%%%%%%%%%%%%%%%%%%%%%%%%%%%%%%%%%%%%%%%%%%%%%%%%%%
     %                                                                      %
     % You are using vdW-DF, which was implemented by the Thonhauser group. %
     % Please cite the following two papers that made this development      %
     % possible and the two reviews that describe the various versions:     %
     %                                                                      %
     %   T. Thonhauser et al., PRL 115, 136402 (2015).                      %
     %   T. Thonhauser et al., PRB 76, 125112 (2007).                       %
     %   K. Berland et al., Rep. Prog. Phys. 78, 066501 (2015).             %
     %   D.C. Langreth et al., J. Phys.: Condens. Matter 21, 084203 (2009). %
     %                                                                      %
     %                                                                      %
     % If you are calculating the stress with vdW-DF, please also cite:     %
     %                                                                      %
     %   R. Sabatini et al., J. Phys.: Condens. Matter 24, 424209 (2012).   %
     %                                                                      %
     %%%%%%%%%%%%%%%%%%%%%%%%%%%%%%%%%%%%%%%%%%%%%%%%%%%%%%%%%%%%%%%%%%%%%%%%

     Adding external electric field

     Computed dipole along edir(3) :
        Dipole              -12.0858 Ry au,        -30.7189 Debye
        Dipole field         -0.0228 Ry au,

        Potential amp.        2.1142 Ry
        Total length         46.3494 bohr

     Starting wfcs are  303 atomic wfcs
  @ DRIVER MODE: Message from server: STATUS
  @ DRIVER MODE: Message from server: POSDATA
  @ DRIVER MODE: Reading and sharing cell
  @ DRIVER MODE: Reading and sharing positions
  @ DRIVER MODE: Received positions

     Self-consistent Calculation

     iteration #  1     ecut=    29.40 Ry     beta= 0.05
     Davidson diagonalization with overlap
     c_bands:  2 eigenvalues not converged
     c_bands:  2 eigenvalues not converged
     c_bands:  3 eigenvalues not converged
     c_bands:  4 eigenvalues not converged
     c_bands:  2 eigenvalues not converged
     c_bands:  1 eigenvalues not converged
     c_bands:  4 eigenvalues not converged
     c_bands:  4 eigenvalues not converged
     c_bands:  5 eigenvalues not converged
     ethr =  1.00E-05,  avg # of iterations = 22.0

[...]

     total energy              =   -2384.87328329 Ry
     estimated scf accuracy    <    6449.85102432 Ry

     iteration #  2     ecut=    29.40 Ry     beta= 0.05
     Davidson diagonalization with overlap
     ethr =  1.00E-02,  avg # of iterations = 26.4

[...]

     iteration # 73     ecut=    29.40 Ry     beta= 0.05
     Davidson diagonalization with overlap
     ethr =  2.70E-11,  avg # of iterations =  8.0

[...]

     total energy              =   -2956.45481641 Ry
     estimated scf accuracy    <       0.00000014 Ry

     iteration # 74     ecut=    29.40 Ry     beta= 0.05
     Davidson diagonalization with overlap
     c_bands:  1 eigenvalues not converged
     ethr =  2.70E-11,  avg # of iterations = 13.6

     negative rho (up, down):  1.589E-02 0.000E+00

     Adding external electric field

     Computed dipole along edir(3) :
        Dipole                1.4021 Ry au,          3.5637 Debye
        Dipole field          0.0026 Ry au,

        Potential amp.       -0.2453 Ry
        Total length         46.3494 bohr

     End of self-consistent calculation

          k = 0.0000 0.0000 0.0000 ( 18029 PWs)   bands (ev):

   -55.2157 -55.1784 -55.1730 -55.1472 -55.1388 -55.1186 -55.0968 -55.0619
   -55.0417 -55.0069 -55.0036 -54.9945 -54.9700 -54.9348 -54.2030 -54.1690
   -31.7791 -31.6895 -31.6654 -31.5856 -31.5305 -31.5254 -31.5168 -31.5092
   -31.4619 -31.4385 -31.4267 -31.4177 -31.4134 -31.4116 -31.3876 -31.3846
   -31.3621 -31.3609 -31.3536 -31.3382 -31.3256 -31.3176 -31.3024 -31.2933
   -31.2867 -31.2742 -31.2719 -31.2429 -31.2303 -31.2277 -31.2225 -31.2023
   -31.1995 -31.1918 -31.1878 -31.1709 -31.1548 -31.1406 -31.1330 -31.1316
   -31.1147 -31.1127 -30.6125 -30.5181 -30.4960 -30.4288 -30.3420 -30.2312
   -19.2339 -16.1563 -16.0247 -15.7759 -15.6342 -15.5397 -15.4195 -15.3041
   -15.2395 -15.1256 -15.0673 -14.9323 -14.9169 -14.9049 -14.8803 -14.8468
   -14.8083 -14.7605 -14.7592 -14.7355 -14.7150 -14.7063 -14.6645 -14.6572
   -14.6176 -14.5962 -14.5953 -14.4598 -14.3786 -14.3083 -14.1233 -12.7055
   -12.5880 -10.2860  -7.0281  -6.2779  -4.8284  -3.9377  -3.4029  -3.3436
    -3.2375  -3.1485  -3.1260  -3.1132  -2.9763  -2.9036  -2.7478  -2.6671
    -2.6345  -2.4981  -2.4246  -2.4134  -2.3807  -2.2656  -2.2133  -2.1870
    -2.1538  -2.0824  -2.0342  -2.0236  -2.0056  -1.9750  -1.9598  -1.9257
    -1.8720  -1.7869  -1.7558  -1.6528  -1.6150  -1.5853  -1.5754  -1.5507
    -1.5338  -1.5091  -1.5028  -1.4423  -1.4388  -1.4090  -1.3627  -1.2480
    -1.0855  -1.0226  -0.9506  -0.8579  -0.8099  -0.7963  -0.7269  -0.7168
    -0.7031  -0.5993  -0.5658  -0.5539  -0.4570  -0.4255  -0.3868  -0.3143
    -0.2430  -0.2149  -0.2019  -0.0866  -0.0216  -0.0034   0.0164   0.0234
     0.1131   0.1863   0.2338   0.2855   0.3264   0.3336   0.3992   0.4315
     0.4993   0.5512   0.5691   0.6563   0.7012   0.7139   0.7201   0.7533
     0.7653   0.8270   0.8633   0.8877   0.9743   1.0895   1.2415   1.3833
     1.3914   1.7244   1.7252   1.8198   2.0036   2.3961   2.4444   3.8774
     3.9500   4.0092   4.0226   4.0281   4.1133   4.3597   4.3819   4.3876
     4.3977   4.4263

[...]

          k = 0.0380-0.0419 0.0000 ( 17876 PWs)   bands (ev):

[...]

          k =-0.0760-0.0000 0.0000 ( 17886 PWs)   bands (ev):

[...]

          k =-0.0760-0.0839 0.0000 ( 17948 PWs)   bands (ev):

   -55.2021 -55.1918 -55.1560 -55.1557 -55.1455 -55.1163 -55.0826 -55.0761
   -55.0271 -55.0210 -54.9967 -54.9871 -54.9868 -54.9362 -54.1862 -54.1857
   -31.6081 -31.5879 -31.5791 -31.4806 -31.4803 -31.4767 -31.4691 -31.4472
   -31.4470 -31.4274 -31.4196 -31.4130 -31.4055 -31.3911 -31.3736 -31.3587
   -31.3559 -31.3536 -31.3516 -31.3497 -31.3422 -31.3396 -31.3227 -31.3166
   -31.2960 -31.2955 -31.2768 -31.2758 -31.2756 -31.2735 -31.2683 -31.2602
   -31.2526 -31.2400 -31.2341 -31.2196 -31.2168 -31.1991 -31.1722 -31.1675
   -31.1669 -31.1463 -30.5089 -30.5085 -30.4251 -30.4248 -30.3855 -30.3853
   -19.2330 -16.1105 -15.5982 -15.4842 -15.3584 -15.2485 -15.2277 -15.1813
   -15.1325 -15.0822 -15.0303 -15.0017 -14.9808 -14.9720 -14.9292 -14.9187
   -14.8996 -14.8340 -14.8186 -14.8075 -14.7836 -14.7363 -14.7280 -14.7203
   -14.7163 -14.6704 -14.6663 -14.6186 -14.5750 -14.5711 -14.3920 -12.6896
   -12.6894 -10.2877  -7.0548  -6.2108  -4.8291  -3.9524  -3.2416  -3.0045
    -2.7497  -2.6978  -2.6094  -2.4657  -2.4220  -2.3770  -2.3460  -2.2843
    -2.2336  -2.2187  -2.2069  -2.1306  -2.1037  -2.0963  -2.0628  -2.0511
    -2.0409  -2.0028  -1.9822  -1.9569  -1.9483  -1.9377  -1.9350  -1.9253
    -1.8674  -1.8547  -1.8443  -1.8404  -1.7816  -1.7703  -1.7556  -1.7414
    -1.5970  -1.5786  -1.4278  -1.4244  -1.4021  -1.3496  -1.3380  -1.2973
    -1.2540  -1.2448  -1.2180  -0.9738  -0.9648  -0.9616  -0.9299  -0.8963
    -0.8585  -0.7966  -0.7677  -0.6979  -0.6896  -0.5736  -0.5574  -0.4421
    -0.4337  -0.4212  -0.3379  -0.2895  -0.2408  -0.2018  -0.1850  -0.1743
    -0.1577  -0.1211  -0.1187  -0.0215   0.0146   0.0454   0.0588   0.0983
     0.2749   0.3037   0.3194   0.4634   0.4709   0.6305   0.6814   0.7095
     0.8000   0.8602   0.8949   0.9387   1.0745   1.0878   1.1052   1.1599
     1.1831   1.2323   1.2455   2.1759   2.1773   2.2644   2.2644   4.0225
     4.1317   4.1409   4.1987   4.3100   4.3187   4.3925   4.4236   4.4615
     4.4648   4.5301

     the Fermi energy is     3.9396 ev

!    total energy              =   -2956.45482889 Ry
     estimated scf accuracy    <       0.00000006 Ry
     smearing contrib. (-TS)   =      -0.03685369 Ry
     internal energy E=F+TS    =   -2956.41797520 Ry

     The total energy is F=E-TS. E is the sum of the following terms:
     one-electron contribution =  -23693.67369426 Ry
     hartree contribution      =   11942.34030841 Ry
     xc contribution           =    -490.61778196 Ry
     ewald contribution        =    9285.52948290 Ry
     electric field correction =       0.00370971 Ry

     convergence has been achieved in  74 iterations

     Forces acting on atoms (cartesian axes, Ry/au):

     atom    1 type  1   force =    -0.00000241   -0.00026511    0.09335621
     atom    2 type  1   force =    -0.00007166   -0.00035566   -0.17817061
     atom    3 type  2   force =     0.00004271   -0.00030597   -0.02033656
     atom    4 type  2   force =    -0.00003314   -0.00185091    0.05913905
     atom    5 type  2   force =    -0.01020818   -0.00060877    0.00750459
     atom    6 type  2   force =     0.01173323    0.00022049    0.00683521
     atom    7 type  1   force =    -0.00030712    0.00187442   -0.01237652
     atom    8 type  1   force =     0.00016233    0.00084817   -0.00449220
     atom    9 type  2   force =     0.00038459   -0.00015876   -0.00081998
     atom   10 type  2   force =    -0.00141772    0.00414855   -0.00109836
     atom   11 type  2   force =    -0.00086433   -0.00030349    0.00018706
     atom   12 type  2   force =     0.00087537   -0.00005626    0.00004708
     atom   13 type  1   force =    -0.00012632   -0.00022222    0.00010519
     atom   14 type  1   force =    -0.00004823   -0.00009663    0.00004710
     atom   15 type  2   force =    -0.00066914   -0.00002766   -0.00008222
     atom   16 type  2   force =    -0.00011066    0.00022581   -0.00042300
     atom   17 type  2   force =     0.00031205   -0.00072043   -0.00000636
     atom   18 type  2   force =     0.00076424   -0.00062738   -0.00023268
     atom   19 type  1   force =    -0.00078810    0.00014859    0.00150336
     atom   20 type  1   force =     0.00075765   -0.00071973    0.00033641
     atom   21 type  2   force =     0.00002163   -0.00011036    0.10401828
     atom   22 type  2   force =     0.00010920   -0.00061137    0.00044308
     atom   23 type  2   force =    -0.07042411   -0.00020580   -0.02692290
     atom   24 type  2   force =     0.07026053    0.00023486   -0.02697911
     atom   25 type  1   force =    -0.00005122   -0.00021761    0.09286843
     atom   26 type  1   force =    -0.00020349   -0.00053583   -0.17843517
     atom   27 type  2   force =     0.00006858   -0.00013965   -0.01932622
     atom   28 type  2   force =     0.00005760   -0.00157627    0.05814943
     atom   29 type  2   force =    -0.01091183   -0.00007156    0.00842569
     atom   30 type  2   force =     0.01231607    0.00011653    0.00771232
     atom   31 type  1   force =    -0.00029372    0.00668191   -0.01504701
     atom   32 type  1   force =     0.00010824   -0.00075000   -0.00469650
     atom   33 type  2   force =    -0.00022157    0.00035499   -0.00053806
     atom   34 type  2   force =    -0.00111201   -0.00023365   -0.00040232
     atom   35 type  2   force =    -0.00019076   -0.00012209   -0.00016421
     atom   36 type  2   force =     0.00026846   -0.00036587   -0.00026352
     atom   37 type  1   force =     0.00023552   -0.00018187    0.00022011
     atom   38 type  1   force =    -0.00011569    0.00067524    0.00064558
     atom   39 type  2   force =     0.00013346   -0.00112362    0.00099913
     atom   40 type  2   force =     0.00026151    0.00099805   -0.00063634
     atom   41 type  2   force =    -0.00020769    0.00020696   -0.00028352
     atom   42 type  2   force =     0.00117609    0.00018573   -0.00046310
     atom   43 type  1   force =    -0.00111694    0.00002367    0.00036901
     atom   44 type  1   force =     0.00034674   -0.00122481    0.00105599
     atom   45 type  2   force =     0.00001557   -0.00011625    0.10397821
     atom   46 type  2   force =    -0.07039083   -0.00012946   -0.02688669
     atom   47 type  2   force =     0.07024638    0.00028120   -0.02695560
     atom   48 type  3   force =     0.00000953    0.00084277   -0.00041891
     atom   49 type  4   force =    -0.00587561    0.00420289    0.00228890
     atom   50 type  5   force =     0.00028236   -0.00117195   -0.00007526
     atom   51 type  5   force =    -0.00027274   -0.00029106   -0.00042446
     atom   52 type  5   force =     0.00652375   -0.00487994   -0.00278646
     atom   53 type  5   force =    -0.00010949    0.00010179   -0.00072777
     atom   54 type  5   force =     0.00005789   -0.00018009   -0.00063119
     atom   55 type  2   force =     0.00031438   -0.00074159    0.00061769
     atom   56 type  5   force =    -0.00075278   -0.00018150    0.00016995
     atom   57 type  5   force =    -0.00094817   -0.00089143    0.00007976

     Total force =     0.366490     Total SCF correction =     0.001091
  @ DRIVER MODE: Message from server: STATUS
  @ DRIVER MODE: Message from server: GETFORCE
  @ DRIVER MODE: Returning v,forces,stress,ensemble

     Writing output data file ./calc.save/
  @ DRIVER MODE: Message from server: EXIT
  @ DRIVE MODE: Exiting

     General routines

     Parallel routines

   This run was terminated on:   0:16: 3  23Sep2021

   JOB DONE.