     Program PWSCF v.6.7GPU starts on 23Sep2021 at 18:14: 2

     R & G space division:  proc/nbgrp/npool/nimage =       8
     Reading input from /storage/home/hcoda1/3/ntian30/research/carbon/CxH_vib/H2O_calc/ads_slab/CH3NHNH2HO_a/out_0017/pw.inp
Warning: card &CELL ignored
Warning: card   CELL_DYNAMICS='IPI', ignored
Warning: card / ignored

     Current dimensions of program PWSCF are:
     Max number of different atomic species (ntypx) = 10
     Max number of k-points (npk) =  40000
     Max angular momentum in pseudopotentials (lmaxx) =  3
     Presently no symmetry can be used with electric field

     Message from routine cell_base_init:
     DEPRECATED: use true lattice parameter, not A to a.u. conversion factor

     IMPORTANT: XC functional enforced from input :
     Exchange-correlation= BEEF-VDW
                           (   1   4  43  14   2   0   0)
     Any further DFT definition will be discarded
     Please, verify this is what you really want

  @ DRIVER MODE: Connecting to
 qe_1139763_2947307.sched-torque.pace.gatech.edu08vzbd3x_scratch
  using UNIX socket
  @ DRIVER MODE: Message from server: STATUS
  @ DRIVER MODE: Message from server: INIT
  @ DRIVER MODE: Receiving replica           0          -1
  @ DRIVER MODE: Receiving encoded integer          25
  @ DRIVER MODE:  SCF:  T  FORCE:  T  STRESS:  F  VC:  F  ENSEMBLE:  F
  @ DRIVER MODE:  SCF:  T  FORCE:  T  STRESS:  F  VC:  F  ENSEMBLE:  F

     Using Slab Decomposition

     bravais-lattice index     =            0
     lattice parameter (alat)  =       1.8897  a.u.
     unit-cell volume          =    6658.9804 (a.u.)^3
     number of atoms/cell      =           58
     number of atomic types    =            5
     number of electrons       =       405.00
     number of Kohn-Sham states=          212
     kinetic-energy cutoff     =      29.3995  Ry
     charge density cutoff     =     293.9946  Ry
     scf convergence threshold =      7.3E-08
     mixing beta               =       0.0500
     number of iterations used =            8  plain     mixing
     Exchange-correlation= BEEF-VDW
                           (   1   4  43  14   2   0   0)

     celldm(1)=   1.889726  celldm(2)=   0.000000  celldm(3)=   0.000000
     celldm(4)=   0.000000  celldm(5)=   0.000000  celldm(6)=   0.000000

     crystal axes: (cart. coord. in units of alat)
               a(1) = (   6.579727   0.000000   0.000000 )
               a(2) = (  -0.000775   5.961596   0.000000 )
               a(3) = (   0.000000   0.000000  25.155947 )

     reciprocal axes: (cart. coord. in units 2 pi/alat)
               b(1) = (  0.151982  0.000020  0.000000 )
               b(2) = (  0.000000  0.167740  0.000000 )
               b(3) = (  0.000000  0.000000  0.039752 )

     PseudoPot. # 1 for Ti read from file:
     /storage/coda1/p-amedford6/0/shared/rich_project_chbe-medford/medford-share/data/pseudos_module/espresso/nninc/pbe/van/Ti.UPF
     MD5 check sum: 8e4df49b7f0d34bbd5052bf3f5ea0213
     Pseudo is Ultrasoft, Zval = 12.0
     Generated by new atomic code, or converted to UPF format
     Using radial grid of  851 points,  6 beta functions with:
                l(1) =   0
                l(2) =   0
                l(3) =   1
                l(4) =   1
                l(5) =   2
                l(6) =   2
     Q(r) pseudized with  8 coefficients,  rinner =    1.000   1.000   1.000
                                                       1.000   1.000

     PseudoPot. # 2 for O  read from file:
     /storage/coda1/p-amedford6/0/shared/rich_project_chbe-medford/medford-share/data/pseudos_module/espresso/nninc/pbe/van/O.UPF
     MD5 check sum: 78c19812648e8988a0fe644b0f25305e
     Pseudo is Ultrasoft, Zval =  6.0
     Generated by new atomic code, or converted to UPF format
     Using radial grid of  737 points,  4 beta functions with:
                l(1) =   0
                l(2) =   0
                l(3) =   1
                l(4) =   1
     Q(r) pseudized with  8 coefficients,  rinner =    0.800   0.800   0.800

     PseudoPot. # 3 for N  read from file:
     /storage/coda1/p-amedford6/0/shared/rich_project_chbe-medford/medford-share/data/pseudos_module/espresso/nninc/pbe/van/N.UPF
     MD5 check sum: 90d10febe142ad51ac9d5be1deb811c4
     Pseudo is Ultrasoft, Zval =  5.0
     Generated by new atomic code, or converted to UPF format
     Using radial grid of  729 points,  4 beta functions with:
                l(1) =   0
                l(2) =   0
                l(3) =   1
                l(4) =   1
     Q(r) pseudized with  8 coefficients,  rinner =    0.800   0.800   0.800

     PseudoPot. # 4 for C  read from file:
     /storage/coda1/p-amedford6/0/shared/rich_project_chbe-medford/medford-share/data/pseudos_module/espresso/nninc/pbe/van/C.UPF
     MD5 check sum: 1a69bf6b8db32088f5b2163dbdb77a27
     Pseudo is Ultrasoft, Zval =  4.0
     Generated by new atomic code, or converted to UPF format
     Using radial grid of  721 points,  4 beta functions with:
                l(1) =   0
                l(2) =   0
                l(3) =   1
                l(4) =   1
     Q(r) pseudized with  8 coefficients,  rinner =    0.800   0.800   0.800

     PseudoPot. # 5 for H  read from file:
     /storage/coda1/p-amedford6/0/shared/rich_project_chbe-medford/medford-share/data/pseudos_module/espresso/nninc/pbe/van/H.UPF
     MD5 check sum: b5ee9d7bfd3a09ee7748110bda690ff7
     Pseudo is Ultrasoft, Zval =  1.0
     Generated by new atomic code, or converted to UPF format
     Using radial grid of  615 points,  1 beta functions with:
                l(1) =   0
     Q(r) pseudized with  8 coefficients,  rinner =    0.800

     atomic species   valence    mass     pseudopotential
        Ti1           12.00    47.86700     Ti( 1.00)
        O1             6.00    15.99900     O ( 1.00)
        N1             5.00    14.00700     N ( 1.00)
        C1             4.00    12.01100     C ( 1.00)
        H1             1.00     1.00800     H ( 1.00)

     No symmetry found

   Cartesian axes

     site n.     atom                  positions (alat units)
         1           Ti1 tau(   1) = (   0.0004258   2.9801865   6.0000000  )
         2           Ti1 tau(   2) = (   3.2906075   1.4906267   6.0002472  )
         3           O1  tau(   3) = (   0.0006271   0.0005054   7.9858123  )
         4           O1  tau(   4) = (   3.2906025   0.0005020   7.3038282  )
         5           O1  tau(   5) = (   4.5942328   1.4918067   9.2879030  )
         6           O1  tau(   6) = (   1.9868534   1.4903216   9.2879459  )
         7           Ti1 tau(   7) = (   3.2907910   2.8959150   9.1758416  )
         8           Ti1 tau(   8) = (   0.0015273   1.4827037   9.2680791  )
         9           O1  tau(   9) = (   3.3003128   0.0493987  11.3625472  )
        10           O1  tau(  10) = (   0.0116148   5.9584955  10.6183126  )
        11           O1  tau(  11) = (   1.2863924   1.5188706  12.6959087  )
        12           O1  tau(  12) = (   5.3173592   1.5183023  12.6957539  )
        13           Ti1 tau(  13) = (   0.0130489   2.9571150  12.5182267  )
        14           Ti1 tau(  14) = (   3.3124343   1.5987737  12.4587140  )
        15           O1  tau(  15) = (   0.0455642   5.8537743  14.6515032  )
        16           O1  tau(  16) = (   3.3135256   5.8999501  14.0036581  )
        17           O1  tau(  17) = (   4.5824137   1.5787328  16.0473457  )
        18           O1  tau(  18) = (   2.0456054   1.5356268  16.0652349  )
        19           Ti1 tau(  19) = (   3.2855744   2.9948502  15.7047272  )
        20           Ti1 tau(  20) = (   0.0729980   1.3194477  15.7501807  )
        21           O1  tau(  21) = (   3.2904802   0.0005063   4.7018136  )
        22           O1  tau(  22) = (   6.5643345   0.1786488  17.1561759  )
        23           O1  tau(  23) = (   1.3043587   1.4918075   6.0039043  )
        24           O1  tau(  24) = (   5.2767064   1.4903225   6.0039473  )
        25           Ti1 tau(  25) = (   0.0000382   5.9609847   6.0000000  )
        26           Ti1 tau(  26) = (   3.2902200   4.4714249   6.0002472  )
        27           O1  tau(  27) = (   0.0002396   2.9813036   7.9858123  )
        28           O1  tau(  28) = (   3.2902150   2.9813002   7.3038282  )
        29           O1  tau(  29) = (   4.5938453   4.4726049   9.2879030  )
        30           O1  tau(  30) = (   1.9864658   4.4711199   9.2879459  )
        31           Ti1 tau(  31) = (   3.2891106   5.8743827   9.1763621  )
        32           Ti1 tau(  32) = (   0.0006254   4.4649316   9.2693709  )
        33           O1  tau(  33) = (   3.3044115   2.9646987  11.3227374  )
        34           O1  tau(  34) = (   0.0092240   2.9805883  10.6323155  )
        35           O1  tau(  35) = (   1.2889249   4.4812606  12.6373974  )
        36           O1  tau(  36) = (   5.3198440   4.4849614  12.6453916  )
        37           Ti1 tau(  37) = (   0.0274371   5.9167426  12.5032498  )
        38           Ti1 tau(  38) = (   3.3124303   4.6827448  12.7121475  )
        39           O1  tau(  39) = (   0.0064664   3.0605765  14.9143048  )
        40           O1  tau(  40) = (   3.2921723   3.0190953  13.9337278  )
        41           O1  tau(  41) = (   4.5343043   4.4484976  16.2223827  )
        42           O1  tau(  42) = (   2.0055671   4.4324605  16.2273083  )
        43           Ti1 tau(  43) = (   3.3963104   0.0511244  16.3072024  )
        44           Ti1 tau(  44) = (   0.1011521   4.5293608  16.0606835  )
        45           O1  tau(  45) = (   3.2900926   2.9813045   4.7018136  )
        46           O1  tau(  46) = (   1.3039711   4.4726057   6.0039043  )
        47           O1  tau(  47) = (   5.2763189   4.4711207   6.0039473  )
        48           N1  tau(  48) = (   0.7799224   3.1460235  19.0808133  )
        49           N1  tau(  49) = (   6.3029119   3.3142126  18.0946246  )
        50           C1  tau(  50) = (   0.9829876   4.3811599  19.8196872  )
        51           H1  tau(  51) = (   0.0599524   4.7630682  20.2995108  )
        52           H1  tau(  52) = (   1.7087173   4.1728717  20.6153690  )
        53           H1  tau(  53) = (   1.3778604   5.1510331  19.1745456  )
        54           H1  tau(  54) = (   0.4845774   2.4057476  19.7140978  )
        55           H1  tau(  55) = (   5.5451363   3.8924421  18.4761980  )
        56           H1  tau(  56) = (   5.8791802   2.3931312  17.9634808  )
        57           O1  tau(  57) = (   3.3895457   0.1916509  18.1699706  )
        58           H1  tau(  58) = (   3.8128180   5.4341384  18.6581559  )

     number of k points=    10  Fermi-Dirac smearing, width (Ry)=  0.0073
                       cart. coord. in units 2pi/alat
        k(    1) = (   0.0000000   0.0000000   0.0000000), wk =   0.1250000
        k(    2) = (   0.0000000   0.0419351   0.0000000), wk =   0.2500000
        k(    3) = (   0.0000000  -0.0838702   0.0000000), wk =   0.1250000
        k(    4) = (   0.0379955   0.0000049   0.0000000), wk =   0.2500000
        k(    5) = (   0.0379955   0.0419400   0.0000000), wk =   0.2500000
        k(    6) = (   0.0379955  -0.0838652   0.0000000), wk =   0.2500000
        k(    7) = (   0.0379955  -0.0419301   0.0000000), wk =   0.2500000
        k(    8) = (  -0.0759910  -0.0000099   0.0000000), wk =   0.1250000
        k(    9) = (  -0.0759910   0.0419252   0.0000000), wk =   0.2500000
        k(   10) = (  -0.0759910  -0.0838800   0.0000000), wk =   0.1250000

     Initial potential from superposition of free atoms

     starting charge  388.99913, renormalised to  405.00000

     negative rho (up, down):  1.369E-02 0.000E+00

     %%%%%%%%%%%%%%%%%%%%%%%%%%%%%%%%%%%%%%%%%%%%%%%%%%%%%%%%%%%%%%%%%%%%%%%%
     %                                                                      %
     % You are using vdW-DF, which was implemented by the Thonhauser group. %
     % Please cite the following two papers that made this development      %
     % possible and the two reviews that describe the various versions:     %
     %                                                                      %
     %   T. Thonhauser et al., PRL 115, 136402 (2015).                      %
     %   T. Thonhauser et al., PRB 76, 125112 (2007).                       %
     %   K. Berland et al., Rep. Prog. Phys. 78, 066501 (2015).             %
     %   D.C. Langreth et al., J. Phys.: Condens. Matter 21, 084203 (2009). %
     %                                                                      %
     %                                                                      %
     % If you are calculating the stress with vdW-DF, please also cite:     %
     %                                                                      %
     %   R. Sabatini et al., J. Phys.: Condens. Matter 24, 424209 (2012).   %
     %                                                                      %
     %%%%%%%%%%%%%%%%%%%%%%%%%%%%%%%%%%%%%%%%%%%%%%%%%%%%%%%%%%%%%%%%%%%%%%%%

     Adding external electric field

     Computed dipole along edir(3) :
        Dipole              -14.8093 Ry au,        -37.6414 Debye
        Dipole field         -0.0279 Ry au,

        Potential amp.        2.5907 Ry
        Total length         46.3494 bohr

     Starting wfcs are  307 atomic wfcs
  @ DRIVER MODE: Message from server: STATUS
  @ DRIVER MODE: Message from server: POSDATA
  @ DRIVER MODE: Reading and sharing cell
  @ DRIVER MODE: Reading and sharing positions
  @ DRIVER MODE: Received positions

     Self-consistent Calculation

     iteration #  1     ecut=    29.40 Ry     beta= 0.05
     Davidson diagonalization with overlap
     c_bands:  4 eigenvalues not converged
     c_bands:  4 eigenvalues not converged
     c_bands:  5 eigenvalues not converged
     c_bands:  2 eigenvalues not converged
     c_bands:  3 eigenvalues not converged
     c_bands:  4 eigenvalues not converged
     c_bands:  2 eigenvalues not converged
     ethr =  1.00E-05,  avg # of iterations = 22.9

[...]

     total energy              =   -2202.97889791 Ry
     estimated scf accuracy    <    8803.81720255 Ry

     iteration #  2     ecut=    29.40 Ry     beta= 0.05
     Davidson diagonalization with overlap
     ethr =  1.00E-02,  avg # of iterations = 30.8

[...]

     iteration # 49     ecut=    29.40 Ry     beta= 0.05
     Davidson diagonalization with overlap
     c_bands:  1 eigenvalues not converged
     c_bands:  1 eigenvalues not converged
     ethr =  1.77E-06,  avg # of iterations = 11.3

[...]

     total energy              =   -2976.46386461 Ry
     estimated scf accuracy    <       0.00000042 Ry

     iteration # 78     ecut=    29.40 Ry     beta= 0.05
     Davidson diagonalization with overlap
     ethr =  2.19E-11,  avg # of iterations = 12.0

     negative rho (up, down):  1.440E-02 0.000E+00

     Adding external electric field

     Computed dipole along edir(3) :
        Dipole                1.2239 Ry au,          3.1109 Debye
        Dipole field          0.0023 Ry au,

        Potential amp.       -0.2141 Ry
        Total length         46.3494 bohr

     End of self-consistent calculation

          k = 0.0000 0.0000 0.0000 ( 18029 PWs)   bands (ev):

   -55.4462 -55.3583 -55.3242 -55.2198 -55.2165 -55.1890 -55.1868 -55.1790
   -55.1550 -55.1319 -55.0888 -54.9867 -54.9385 -54.8950 -54.3334 -54.2993
   -31.8435 -31.7926 -31.7235 -31.7058 -31.6918 -31.6768 -31.6561 -31.6492
   -31.6180 -31.6045 -31.5984 -31.5108 -31.4957 -31.4886 -31.4689 -31.4654
   -31.4613 -31.4524 -31.4519 -31.4219 -31.4157 -31.3940 -31.3871 -31.3771
   -31.3723 -31.3563 -31.3552 -31.3234 -31.3229 -31.3164 -31.3157 -31.3100
   -31.3016 -31.2836 -31.2596 -31.2413 -31.1758 -31.1543 -31.1423 -31.1343
   -31.1133 -31.1041 -30.7394 -30.6529 -30.6305 -30.5568 -30.4705 -30.3588
   -17.7597 -16.3683 -16.0126 -15.8488 -15.6340 -15.5413 -15.5143 -15.3154
   -15.2204 -15.1622 -14.9608 -14.9337 -14.8963 -14.8833 -14.8745 -14.8534
   -14.8497 -14.7982 -14.7828 -14.7728 -14.7693 -14.7390 -14.7119 -14.6726
   -14.6132 -14.5993 -14.4969 -14.4413 -14.4014 -14.1601 -14.1400 -13.1930
   -12.8323 -12.7159  -9.4346  -6.4534  -5.7508  -4.2802  -3.9351  -3.3706
    -3.2692  -3.2576  -3.1998  -3.1335  -2.9686  -2.8857  -2.7852  -2.7477
    -2.6184  -2.5963  -2.4940  -2.4450  -2.3721  -2.3261  -2.2846  -2.2500
    -2.2218  -2.1662  -2.1441  -2.1183  -2.1070  -2.0340  -2.0156  -1.9263
    -1.8932  -1.8797  -1.7619  -1.7274  -1.6923  -1.6791  -1.6704  -1.6616
    -1.6197  -1.6101  -1.5995  -1.5558  -1.4567  -1.4490  -1.4314  -1.3407
    -1.2425  -0.9932  -0.9621  -0.9114  -0.9000  -0.8217  -0.7832  -0.7517
    -0.7189  -0.6485  -0.6379  -0.6118  -0.5506  -0.4750  -0.4209  -0.3731
    -0.3389  -0.2271  -0.1771  -0.1333  -0.1004  -0.0637  -0.0007   0.0390
     0.0631   0.1061   0.1936   0.2569   0.2845   0.3014   0.3516   0.3934
     0.4312   0.4721   0.5436   0.5661   0.5762   0.6154   0.6241   0.6451
     0.7406   0.7590   0.8184   0.8457   0.9336   0.9646   1.0088   1.1782
     1.2479   1.3060   1.3843   1.4750   1.6383   1.6927   1.7180   1.8868
     2.2601   2.3055   3.7255   3.8729   3.8892   3.9669   3.9839   4.0481
     4.2144   4.2737   4.4124   4.4228

[...]

          k = 0.0380-0.0419 0.0000 ( 17876 PWs)   bands (ev):

[...]

          k =-0.0760-0.0000 0.0000 ( 17886 PWs)   bands (ev):

[...]

          k =-0.0760-0.0839 0.0000 ( 17948 PWs)   bands (ev):

   -55.4454 -55.3413 -55.3411 -55.2186 -55.2049 -55.1906 -55.1875 -55.1732
   -55.1704 -55.1239 -55.0970 -54.9836 -54.9396 -54.8979 -54.3163 -54.3162
   -31.7313 -31.6709 -31.6589 -31.6587 -31.6576 -31.6436 -31.6348 -31.6345
   -31.5773 -31.5323 -31.5109 -31.5002 -31.4948 -31.4896 -31.4669 -31.4612
   -31.4606 -31.4577 -31.4512 -31.4386 -31.4320 -31.4293 -31.4174 -31.3914
   -31.3868 -31.3848 -31.3775 -31.3697 -31.3512 -31.3458 -31.3424 -31.3421
   -31.3393 -31.3191 -31.3175 -31.2528 -31.2358 -31.2082 -31.1800 -31.1566
   -31.1502 -31.1089 -30.6432 -30.6432 -30.5524 -30.5521 -30.5138 -30.5136
   -17.7557 -16.3583 -15.5933 -15.4482 -15.3399 -15.3295 -15.2056 -15.1384
   -15.1287 -15.0949 -15.0722 -15.0505 -15.0319 -15.0167 -14.9620 -14.9222
   -14.8908 -14.8634 -14.8588 -14.8159 -14.8061 -14.7947 -14.7769 -14.7653
   -14.7100 -14.6740 -14.6644 -14.6058 -14.4665 -14.4462 -14.2903 -13.1944
   -12.8178 -12.8176  -9.4539  -6.4375  -5.7564  -4.2651  -3.9242  -2.9447
    -2.8035  -2.6602  -2.6230  -2.5646  -2.4510  -2.4274  -2.3686  -2.3178
    -2.2937  -2.2724  -2.2190  -2.2101  -2.1644  -2.1484  -2.1237  -2.1094
    -2.0929  -2.0864  -2.0585  -2.0427  -2.0324  -2.0200  -1.9924  -1.9812
    -1.9630  -1.9344  -1.9141  -1.9051  -1.8714  -1.8292  -1.7678  -1.6565
    -1.5823  -1.5714  -1.5287  -1.5039  -1.4876  -1.4466  -1.4341  -1.3930
    -1.3755  -1.3094  -1.1515  -1.1262  -1.1118  -0.9694  -0.9622  -0.9333
    -0.8592  -0.8174  -0.7956  -0.7376  -0.7071  -0.6664  -0.5907  -0.5474
    -0.4933  -0.4269  -0.3271  -0.3196  -0.3036  -0.2835  -0.2673  -0.2594
    -0.2263  -0.1891  -0.1160  -0.0694  -0.0608  -0.0548  -0.0036   0.0762
     0.1271   0.2415   0.3877   0.3921   0.4592   0.4600   0.6597   0.6685
     0.7452   0.7806   0.8149   0.8422   0.9359   0.9539   0.9916   1.0743
     1.1380   1.1676   1.1884   1.1932   1.2463   1.4570   2.0551   2.0629
     2.1258   2.1259   3.9667   4.1996   4.2400   4.2531   4.2715   4.2979
     4.3116   4.3256   4.3933   4.4226

     the Fermi energy is     3.7628 ev

!    total energy              =   -2976.46387744 Ry
     estimated scf accuracy    <       0.00000007 Ry
     smearing contrib. (-TS)   =      -0.01955411 Ry
     internal energy E=F+TS    =   -2976.44432333 Ry

     The total energy is F=E-TS. E is the sum of the following terms:
     one-electron contribution =  -23038.92401427 Ry
     hartree contribution      =   11617.16438504 Ry
     xc contribution           =    -495.72633547 Ry
     ewald contribution        =    8941.03881449 Ry
     electric field correction =       0.00282687 Ry

     convergence has been achieved in  78 iterations

     Forces acting on atoms (cartesian axes, Ry/au):

     atom    1 type  1   force =     0.00016037   -0.00022623    0.09414865
     atom    2 type  1   force =    -0.00010363    0.00018621   -0.17537119
     atom    3 type  2   force =     0.00005342   -0.00049382   -0.02105223
     atom    4 type  2   force =    -0.00002409   -0.00093636    0.05425128
     atom    5 type  2   force =    -0.00488894   -0.00216195    0.00107662
     atom    6 type  2   force =     0.00671227   -0.00138760    0.00109093
     atom    7 type  1   force =     0.00006674    0.00331336    0.00866655
     atom    8 type  1   force =    -0.00009917    0.00120286    0.00272281
     atom    9 type  2   force =    -0.00021931   -0.00030663   -0.00058773
     atom   10 type  2   force =    -0.00112041    0.00429043   -0.01023672
     atom   11 type  2   force =    -0.00007331   -0.00055020   -0.00009622
     atom   12 type  2   force =     0.00061825   -0.00031490   -0.00025722
     atom   13 type  1   force =    -0.00142792    0.00019755   -0.00058302
     atom   14 type  1   force =     0.00070581    0.00017722   -0.00046996
     atom   15 type  2   force =     0.00013374   -0.00002251    0.00005415
     atom   16 type  2   force =    -0.00009685   -0.00068582   -0.00028364
     atom   17 type  2   force =    -0.00044808    0.00069104    0.00006466
     atom   18 type  2   force =    -0.00076350    0.00032392   -0.00021291
     atom   19 type  1   force =     0.00043775   -0.00094433    0.00056335
     atom   20 type  1   force =    -0.00070661   -0.00004421    0.00053417
     atom   21 type  2   force =     0.00003868   -0.00000911    0.10316308
     atom   22 type  2   force =    -0.00010493    0.00003595    0.00040230
     atom   23 type  2   force =    -0.07198567   -0.00019794   -0.02725828
     atom   24 type  2   force =     0.07186284    0.00025804   -0.02732810
     atom   25 type  1   force =     0.00007749   -0.00016920    0.09388306
     atom   26 type  1   force =    -0.00012562   -0.00135901   -0.17550047
     atom   27 type  2   force =     0.00011040   -0.00005284   -0.01986335
     atom   28 type  2   force =     0.00006391   -0.00104996    0.04980066
     atom   29 type  2   force =    -0.00747245    0.00209360    0.00339948
     atom   30 type  2   force =     0.00907691    0.00223525    0.00331861
     atom   31 type  1   force =     0.00019776    0.00151420    0.00006291
     atom   32 type  1   force =    -0.00008571   -0.00225897    0.00302838
     atom   33 type  2   force =    -0.00017643   -0.00030156   -0.00002287
     atom   34 type  2   force =    -0.00117195   -0.00218339   -0.00962703
     atom   35 type  2   force =     0.00064334    0.00005446   -0.00021464
     atom   36 type  2   force =     0.00037173    0.00011586   -0.00034413
     atom   37 type  1   force =    -0.00096614    0.00024589    0.00034967
     atom   38 type  1   force =     0.00096560   -0.00024687    0.00018737
     atom   39 type  2   force =    -0.00016639   -0.00052052    0.00009825
     atom   40 type  2   force =    -0.00019984   -0.00018926   -0.00015658
     atom   41 type  2   force =     0.00024978   -0.00032411   -0.00009383
     atom   42 type  2   force =    -0.00066928    0.00004310   -0.00008083
     atom   43 type  1   force =     0.00025530    0.00093612    0.00049462
     atom   44 type  1   force =    -0.00043314    0.00085593    0.00000517
     atom   45 type  2   force =     0.00002471    0.00003445    0.10297951
     atom   46 type  2   force =    -0.07193675   -0.00007984   -0.02721031
     atom   47 type  2   force =     0.07182781    0.00035006   -0.02729564
     atom   48 type  3   force =    -0.00124615   -0.00269879   -0.00502085
     atom   49 type  3   force =    -0.00049482   -0.00136018   -0.00127615
     atom   50 type  4   force =     0.00060720   -0.00308102    0.02046421
     atom   51 type  5   force =     0.00169629   -0.00110537   -0.00270144
     atom   52 type  5   force =    -0.00389654    0.00152765   -0.00615130
     atom   53 type  5   force =     0.00210348    0.00488592   -0.00635041
     atom   54 type  5   force =     0.00095521    0.00048288    0.00043110
     atom   55 type  5   force =     0.00057762   -0.00052532    0.00026582
     atom   56 type  5   force =     0.00058552   -0.00001152   -0.00021020
     atom   57 type  2   force =     0.00069437   -0.00120591    0.00008790
     atom   58 type  5   force =    -0.00077064    0.00095329    0.00026196

     Total force =     0.362778     Total SCF correction =     0.000645
  @ DRIVER MODE: Message from server: STATUS
  @ DRIVER MODE: Message from server: GETFORCE
  @ DRIVER MODE: Returning v,forces,stress,ensemble

     Writing output data file ./calc.save/
  @ DRIVER MODE: Message from server: EXIT
  @ DRIVE MODE: Exiting

     General routines

     Parallel routines

   This run was terminated on:  18:44:59  23Sep2021

   JOB DONE.