     Program PWSCF v.6.7GPU starts on 18Oct2021 at 20:21:15

     R & G space division:  proc/nbgrp/npool/nimage =       8
     Reading input from /storage/home/hcoda1/3/ntian30/research/carbon/CxH_vib/Thiel_calc/ads_slab/NH3NH3_perslab/out_0019/pw.inp
Warning: card &CELL ignored
Warning: card   CELL_DYNAMICS='IPI', ignored
Warning: card / ignored

     Current dimensions of program PWSCF are:
     Max number of different atomic species (ntypx) = 10
     Max number of k-points (npk) =  40000
     Max angular momentum in pseudopotentials (lmaxx) =  3
     Presently no symmetry can be used with electric field

     Message from routine cell_base_init:
     DEPRECATED: use true lattice parameter, not A to a.u. conversion factor

     IMPORTANT: XC functional enforced from input :
     Exchange-correlation= BEEF-VDW
                           (   1   4  43  14   2   0   0)
     Any further DFT definition will be discarded
     Please, verify this is what you really want

  @ DRIVER MODE: Connecting to
 qe_1139763_3255140.sched-torque.pace.gatech.eduvt2gmir__scratch
  using UNIX socket
  @ DRIVER MODE: Message from server: STATUS
  @ DRIVER MODE: Message from server: INIT
  @ DRIVER MODE: Receiving replica           0          -1
  @ DRIVER MODE: Receiving encoded integer          25
  @ DRIVER MODE:  SCF:  T  FORCE:  T  STRESS:  F  VC:  F  ENSEMBLE:  F
  @ DRIVER MODE:  SCF:  T  FORCE:  T  STRESS:  F  VC:  F  ENSEMBLE:  F

     Using Slab Decomposition

     bravais-lattice index     =            0
     lattice parameter (alat)  =       1.8897  a.u.
     unit-cell volume          =    9988.4706 (a.u.)^3
     number of atoms/cell      =           61
     number of atomic types    =            4
     number of electrons       =       442.00
     number of Kohn-Sham states=          231
     kinetic-energy cutoff     =      29.3995  Ry
     charge density cutoff     =     293.9946  Ry
     scf convergence threshold =      7.3E-08
     mixing beta               =       0.0500
     number of iterations used =            8  plain     mixing
     Exchange-correlation= BEEF-VDW
                           (   1   4  43  14   2   0   0)

     celldm(1)=   1.889726  celldm(2)=   0.000000  celldm(3)=   0.000000
     celldm(4)=   0.000000  celldm(5)=   0.000000  celldm(6)=   0.000000

     crystal axes: (cart. coord. in units of alat)
               a(1) = (   6.579727   0.000000   0.000000 )
               a(2) = (  -0.001163   8.942395   0.000000 )
               a(3) = (   0.000000   0.000000  25.155947 )

     reciprocal axes: (cart. coord. in units 2 pi/alat)
               b(1) = (  0.151982  0.000020  0.000000 )
               b(2) = (  0.000000  0.111827  0.000000 )
               b(3) = (  0.000000  0.000000  0.039752 )

     PseudoPot. # 1 for O  read from file:
     /storage/coda1/p-amedford6/0/shared/rich_project_chbe-medford/medford-share/data/pseudos_module/espresso/nninc/pbe/van/O.UPF
     MD5 check sum: 78c19812648e8988a0fe644b0f25305e
     Pseudo is Ultrasoft, Zval =  6.0
     Generated by new atomic code, or converted to UPF format
     Using radial grid of  737 points,  4 beta functions with:
                l(1) =   0
                l(2) =   0
                l(3) =   1
                l(4) =   1
     Q(r) pseudized with  8 coefficients,  rinner =    0.800   0.800   0.800

     PseudoPot. # 2 for Ti read from file:
     /storage/coda1/p-amedford6/0/shared/rich_project_chbe-medford/medford-share/data/pseudos_module/espresso/nninc/pbe/van/Ti.UPF
     MD5 check sum: 8e4df49b7f0d34bbd5052bf3f5ea0213
     Pseudo is Ultrasoft, Zval = 12.0
     Generated by new atomic code, or converted to UPF format
     Using radial grid of  851 points,  6 beta functions with:
                l(1) =   0
                l(2) =   0
                l(3) =   1
                l(4) =   1
                l(5) =   2
                l(6) =   2
     Q(r) pseudized with  8 coefficients,  rinner =    1.000   1.000   1.000
                                                       1.000   1.000

     PseudoPot. # 3 for N  read from file:
     /storage/coda1/p-amedford6/0/shared/rich_project_chbe-medford/medford-share/data/pseudos_module/espresso/nninc/pbe/van/N.UPF
     MD5 check sum: 90d10febe142ad51ac9d5be1deb811c4
     Pseudo is Ultrasoft, Zval =  5.0
     Generated by new atomic code, or converted to UPF format
     Using radial grid of  729 points,  4 beta functions with:
                l(1) =   0
                l(2) =   0
                l(3) =   1
                l(4) =   1
     Q(r) pseudized with  8 coefficients,  rinner =    0.800   0.800   0.800

     PseudoPot. # 4 for H  read from file:
     /storage/coda1/p-amedford6/0/shared/rich_project_chbe-medford/medford-share/data/pseudos_module/espresso/nninc/pbe/van/H.UPF
     MD5 check sum: b5ee9d7bfd3a09ee7748110bda690ff7
     Pseudo is Ultrasoft, Zval =  1.0
     Generated by new atomic code, or converted to UPF format
     Using radial grid of  615 points,  1 beta functions with:
                l(1) =   0
     Q(r) pseudized with  8 coefficients,  rinner =    0.800

     atomic species   valence    mass     pseudopotential
        O1             6.00    15.99900     O ( 1.00)
        Ti1           12.00    47.86700     Ti( 1.00)
        N1             5.00    14.00700     N ( 1.00)
        H1             1.00     1.00800     H ( 1.00)

     No symmetry found

   Cartesian axes

     site n.     atom                  positions (alat units)
         1           O1  tau(   1) = (   0.0007354   0.0005023  10.5931620  )
         2           O1  tau(   2) = (   3.2905679   0.0262843  13.8966672  )
         3           O1  tau(   3) = (   0.0007290   0.0579300  17.2579193  )
         4           O1  tau(   4) = (   0.0006271   0.0005054   7.9858123  )
         5           O1  tau(   5) = (   3.2893100   8.9214726  11.1892856  )
         6           O1  tau(   6) = (   0.0005199   0.0455907  14.6396817  )
         7           O1  tau(   7) = (   1.9868534   1.4903216   9.2879459  )
         8           O1  tau(   8) = (   5.2380180   1.6024468  12.5713634  )
         9           O1  tau(   9) = (   2.0277759   1.4975965  16.1012153  )
        10           Ti1 tau(  10) = (   0.0007404   1.4906270   9.2895810  )
        11           Ti1 tau(  11) = (   3.2903786   1.3551844  12.4711573  )
        12           Ti1 tau(  12) = (   0.0003174   1.4440192  15.7330511  )
        13           O1  tau(  13) = (   4.5942328   1.4918067   9.2879030  )
        14           O1  tau(  14) = (   1.3426987   1.6023923  12.5713351  )
        15           O1  tau(  15) = (   4.5529958   1.4977110  16.1013444  )
        16           Ti1 tau(  16) = (   3.2902859   2.9801868   9.2893338  )
        17           Ti1 tau(  17) = (   0.0005333   2.8255407  12.4640987  )
        18           Ti1 tau(  18) = (   3.2895849   3.0341113  15.6952405  )
        19           O1  tau(  19) = (   0.0003479   2.9813005  10.5931620  )
        20           O1  tau(  20) = (   3.2900438   2.9627632  13.8881152  )
        21           O1  tau(  21) = (   0.0002396   2.9813036   7.9858123  )
        22           O1  tau(  22) = (   3.2902621   2.9759438  11.1922459  )
        23           O1  tau(  23) = (   0.0002943   2.9805036  14.7119039  )
        24           O1  tau(  24) = (   1.9864658   4.4711199   9.2879459  )
        25           O1  tau(  25) = (   5.2407125   4.5787950  12.5855407  )
        26           O1  tau(  26) = (   1.9842138   4.3634165  16.0604883  )
        27           Ti1 tau(  27) = (   0.0003529   4.4714252   9.2895810  )
        28           Ti1 tau(  28) = (   3.2904166   4.3402611  12.5252975  )
        29           Ti1 tau(  29) = (  -0.0003584   4.7219071  15.7914592  )
        30           O1  tau(  30) = (   4.5938453   4.4726049   9.2879030  )
        31           O1  tau(  31) = (   1.3394863   4.5787101  12.5854501  )
        32           O1  tau(  32) = (   4.5953883   4.3633133  16.0606172  )
        33           Ti1 tau(  33) = (   3.2898983   5.9609850   9.2893338  )
        34           Ti1 tau(  34) = (   0.0004309   5.8055675  12.4642027  )
        35           Ti1 tau(  35) = (   3.2895961   6.0676247  15.8182862  )
        36           O1  tau(  36) = (  -0.0000397   5.9620987  10.5931620  )
        37           O1  tau(  37) = (   3.2897974   5.9491097  13.9522666  )
        38           O1  tau(  38) = (  -0.0001005   5.9419674  17.2168411  )
        39           O1  tau(  39) = (  -0.0001480   5.9621018   7.9858123  )
        40           O1  tau(  40) = (   3.2898294   5.9516608  11.2068290  )
        41           O1  tau(  41) = (  -0.0002620   6.0093330  14.6024556  )
        42           O1  tau(  42) = (   1.9860782   7.4519181   9.2879459  )
        43           O1  tau(  43) = (   5.2335766   7.5615516  12.5803788  )
        44           O1  tau(  44) = (   2.0229086   7.4656171  16.0362607  )
        45           Ti1 tau(  45) = (  -0.0000347   7.4522234   9.2895810  )
        46           Ti1 tau(  46) = (   3.2895523   7.2794780  12.5477951  )
        47           Ti1 tau(  47) = (  -0.0001499   7.5569733  16.2601047  )
        48           O1  tau(  48) = (   4.5934577   7.4534031   9.2879030  )
        49           O1  tau(  49) = (   1.3453152   7.5613653  12.5804751  )
        50           O1  tau(  50) = (   4.5562564   7.4656138  16.0364310  )
        51           Ti1 tau(  51) = (   3.2895107   8.9417832   9.2893338  )
        52           Ti1 tau(  52) = (  -0.0004710   8.7769229  12.4586551  )
        53           Ti1 tau(  53) = (   3.2909234   0.0582169  15.6986445  )
        54           N1  tau(  54) = (   3.2892347   5.9685454  18.1810142  )
        55           H1  tau(  55) = (   3.2893406   5.0219839  18.5418895  )
        56           H1  tau(  56) = (   2.4590131   6.4368771  18.5304692  )
        57           H1  tau(  57) = (   4.1090552   6.4372901  18.5310312  )
        58           N1  tau(  58) = (  -0.0003436   2.9015831  17.9177722  )
        59           H1  tau(  59) = (   6.5794260   1.9611702  18.3102355  )
        60           H1  tau(  60) = (   5.7593157   3.3919262  18.2600543  )
        61           H1  tau(  61) = (   0.8192290   3.3923488  18.2608005  )

     number of k points=    10  Fermi-Dirac smearing, width (Ry)=  0.0073
                       cart. coord. in units 2pi/alat
        k(    1) = (   0.0000000   0.0000000   0.0000000), wk =   0.1250000
        k(    2) = (   0.0000000   0.0279567   0.0000000), wk =   0.2500000
        k(    3) = (   0.0000000  -0.0559134   0.0000000), wk =   0.1250000
        k(    4) = (   0.0379955   0.0000049   0.0000000), wk =   0.2500000
        k(    5) = (   0.0379955   0.0279617   0.0000000), wk =   0.2500000
        k(    6) = (   0.0379955  -0.0559085   0.0000000), wk =   0.2500000
        k(    7) = (   0.0379955  -0.0279518   0.0000000), wk =   0.2500000
        k(    8) = (  -0.0759910  -0.0000099   0.0000000), wk =   0.1250000
        k(    9) = (  -0.0759910   0.0279468   0.0000000), wk =   0.2500000
        k(   10) = (  -0.0759910  -0.0559233   0.0000000), wk =   0.1250000

     Initial potential from superposition of free atoms

     starting charge  423.99908, renormalised to  442.00000

     negative rho (up, down):  3.646E-02 0.000E+00

     %%%%%%%%%%%%%%%%%%%%%%%%%%%%%%%%%%%%%%%%%%%%%%%%%%%%%%%%%%%%%%%%%%%%%%%%
     %                                                                      %
     % You are using vdW-DF, which was implemented by the Thonhauser group. %
     % Please cite the following two papers that made this development      %
     % possible and the two reviews that describe the various versions:     %
     %                                                                      %
     %   T. Thonhauser et al., PRL 115, 136402 (2015).                      %
     %   T. Thonhauser et al., PRB 76, 125112 (2007).                       %
     %   K. Berland et al., Rep. Prog. Phys. 78, 066501 (2015).             %
     %   D.C. Langreth et al., J. Phys.: Condens. Matter 21, 084203 (2009). %
     %                                                                      %
     %                                                                      %
     % If you are calculating the stress with vdW-DF, please also cite:     %
     %                                                                      %
     %   R. Sabatini et al., J. Phys.: Condens. Matter 24, 424209 (2012).   %
     %                                                                      %
     %%%%%%%%%%%%%%%%%%%%%%%%%%%%%%%%%%%%%%%%%%%%%%%%%%%%%%%%%%%%%%%%%%%%%%%%

     Adding external electric field

     Computed dipole along edir(3) :
        Dipole               -6.4271 Ry au,        -16.3360 Debye
        Dipole field         -0.0081 Ry au,

        Potential amp.        0.7495 Ry
        Total length         46.3494 bohr

     Starting wfcs are  334 atomic wfcs
  @ DRIVER MODE: Message from server: STATUS
  @ DRIVER MODE: Message from server: POSDATA
  @ DRIVER MODE: Reading and sharing cell
  @ DRIVER MODE: Reading and sharing positions
  @ DRIVER MODE: Received positions

     Self-consistent Calculation

     iteration #  1     ecut=    29.40 Ry     beta= 0.05
     Davidson diagonalization with overlap
     c_bands:  1 eigenvalues not converged
     c_bands:  2 eigenvalues not converged
     c_bands:  2 eigenvalues not converged
     c_bands:  1 eigenvalues not converged
     c_bands:  3 eigenvalues not converged
     c_bands:  5 eigenvalues not converged
     c_bands:  3 eigenvalues not converged
     c_bands:  2 eigenvalues not converged
     c_bands:  3 eigenvalues not converged
     ethr =  1.00E-05,  avg # of iterations = 19.8

[...]

     total energy              =   -3273.09778586 Ry
     estimated scf accuracy    <     292.45422604 Ry

     iteration #  2     ecut=    29.40 Ry     beta= 0.05
     Davidson diagonalization with overlap
     ethr =  1.00E-02,  avg # of iterations = 16.0

[...]

     iteration # 54     ecut=    29.40 Ry     beta= 0.05
     Davidson diagonalization with overlap
     c_bands:  1 eigenvalues not converged
     ethr =  2.79E-11,  avg # of iterations = 10.9

[...]

     total energy              =   -3295.91267884 Ry
     estimated scf accuracy    <       0.00000019 Ry

     iteration # 56     ecut=    29.40 Ry     beta= 0.05
     Davidson diagonalization with overlap
     ethr =  2.79E-11,  avg # of iterations =  7.0

     negative rho (up, down):  3.470E-02 0.000E+00

     Adding external electric field

     Computed dipole along edir(3) :
        Dipole                1.8688 Ry au,          4.7499 Debye
        Dipole field          0.0024 Ry au,

        Potential amp.       -0.2179 Ry
        Total length         46.3494 bohr

     End of self-consistent calculation

          k = 0.0000 0.0000 0.0000 ( 26871 PWs)   bands (ev):

   -57.5939 -57.5534 -57.5299 -57.5238 -57.4938 -57.3945 -57.3869 -57.3661
   -57.3514 -57.3264 -57.3000 -57.2810 -57.2176 -57.1579 -57.0608 -56.5656
   -56.5405 -56.5395 -33.9747 -33.9349 -33.9304 -33.9044 -33.8863 -33.8678
   -33.8656 -33.8564 -33.8296 -33.8194 -33.8085 -33.7932 -33.7767 -33.7587
   -33.7486 -33.7349 -33.7205 -33.6878 -33.6800 -33.6766 -33.6669 -33.6520
   -33.6467 -33.6439 -33.6378 -33.6067 -33.5881 -33.5847 -33.5745 -33.5602
   -33.5572 -33.5513 -33.5373 -33.5359 -33.5326 -33.5185 -33.5143 -33.5006
   -33.4988 -33.4701 -33.4116 -33.3659 -33.3377 -33.3319 -33.2382 -32.8810
   -32.8786 -32.8771 -32.8643 -32.8633 -32.7914 -32.7274 -32.7264 -32.5912
   -18.3892 -18.0527 -17.8390 -17.7843 -17.7611 -17.6924 -17.6418 -17.6266
   -17.5705 -17.4895 -17.3649 -17.3267 -17.3214 -17.3082 -17.2985 -17.2373
   -17.2224 -17.2053 -17.2028 -17.1860 -17.1818 -17.1386 -17.0658 -17.0566
   -17.0157 -17.0017 -16.9811 -16.9785 -16.9305 -16.8779 -16.8677 -16.6738
   -16.6337 -16.4810 -15.0322 -14.9751 -14.9728  -7.7791  -7.7321  -7.5151
    -7.4516  -5.7129  -5.5304  -5.4653  -5.3709  -4.9986  -4.9411  -4.9266
    -4.9005  -4.8588  -4.8177  -4.8027  -4.7776  -4.7765  -4.7328  -4.6895
    -4.6639  -4.6445  -4.5447  -4.5077  -4.4695  -4.4394  -4.4331  -4.3815
    -4.3660  -4.3263  -4.3258  -4.2774  -4.2370  -4.2264  -4.2054  -4.1387
    -4.1195  -4.0156  -3.9294  -3.8697  -3.8626  -3.8220  -3.8086  -3.7635
    -3.7401  -3.7030  -3.6808  -3.6345  -3.6105  -3.5424  -3.4903  -3.3898
    -3.2938  -3.2671  -3.2413  -3.2199  -3.1735  -3.1206  -3.0011  -2.9605
    -2.9284  -2.9060  -2.8169  -2.8156  -2.7263  -2.7103  -2.6957  -2.6520
    -2.6004  -2.5857  -2.5517  -2.4354  -2.4143  -2.3217  -2.3125  -2.3105
    -2.2810  -2.2193  -2.2077  -2.1837  -2.1618  -2.1344  -2.1199  -2.0815
    -2.0778  -1.9790  -1.9578  -1.9013  -1.8786  -1.8785  -1.7799  -1.7624
    -1.7370  -1.7245  -1.6567  -1.5731  -1.4624  -1.4120  -1.3869  -1.3838
    -1.2847  -1.2563  -1.2132  -1.1326  -0.7970  -0.6003  -0.3133  -0.2691
    -0.2687  -0.0062  -0.0045   0.1241   1.4466   1.6619   1.6833   1.8753
     1.8975   1.9414   2.0279   2.0359   2.0982   2.1975   2.2152

[...]

          k = 0.0380-0.0280 0.0000 ( 26873 PWs)   bands (ev):

[...]

          k =-0.0760-0.0000 0.0000 ( 26902 PWs)   bands (ev):

[...]

          k =-0.0760-0.0559 0.0000 ( 26868 PWs)   bands (ev):

   -57.5938 -57.5472 -57.5418 -57.5180 -57.4940 -57.3921 -57.3868 -57.3709
   -57.3485 -57.3243 -57.3044 -57.2788 -57.2174 -57.1582 -57.0607 -56.5576
   -56.5565 -56.5315 -34.0259 -34.0141 -33.9175 -33.8924 -33.8825 -33.8777
   -33.8761 -33.8548 -33.8260 -33.8130 -33.7779 -33.7434 -33.7380 -33.7351
   -33.7236 -33.6961 -33.6926 -33.6879 -33.6824 -33.6795 -33.6419 -33.6359
   -33.6330 -33.6258 -33.6073 -33.6072 -33.6046 -33.6025 -33.5986 -33.5860
   -33.5785 -33.5705 -33.5690 -33.5599 -33.5392 -33.5271 -33.5228 -33.5150
   -33.4990 -33.4244 -33.4180 -33.3713 -33.3382 -33.3336 -33.2711 -32.9695
   -32.8801 -32.8790 -32.8552 -32.7705 -32.7695 -32.7053 -32.6888 -32.6875
   -18.0789 -18.0163 -17.7715 -17.7054 -17.6889 -17.6529 -17.6412 -17.5609
   -17.5405 -17.5383 -17.5049 -17.4402 -17.3890 -17.3368 -17.3345 -17.3279
   -17.2578 -17.2526 -17.2452 -17.2406 -17.1945 -17.1802 -17.1578 -17.1140
   -17.0364 -16.9668 -16.9540 -16.9471 -16.9083 -16.8933 -16.8420 -16.7076
   -16.6985 -16.4080 -15.0307 -15.0282 -14.9116  -7.7838  -7.7201  -7.5237
    -7.4524  -5.3357  -5.3056  -5.2762  -5.2116  -5.0209  -4.8609  -4.8303
    -4.8237  -4.7861  -4.7366  -4.7095  -4.7027  -4.6938  -4.6765  -4.6618
    -4.6138  -4.6095  -4.5842  -4.5115  -4.4702  -4.4654  -4.4465  -4.4324
    -4.4264  -4.3582  -4.2836  -4.2164  -4.1702  -4.1578  -4.1391  -4.0914
    -4.0548  -4.0249  -3.9819  -3.9717  -3.9030  -3.7944  -3.7116  -3.6716
    -3.6711  -3.6304  -3.5814  -3.5810  -3.4794  -3.4200  -3.3421  -3.2110
    -3.2051  -3.1923  -3.1676  -3.1535  -3.1141  -3.1038  -3.0794  -3.0281
    -3.0181  -2.9966  -2.9358  -2.8697  -2.7852  -2.7563  -2.7227  -2.7169
    -2.6918  -2.6812  -2.6534  -2.6504  -2.6164  -2.6073  -2.5535  -2.5265
    -2.4749  -2.4482  -2.4044  -2.3188  -2.3029  -2.2806  -2.1892  -2.1266
    -2.1096  -2.1049  -2.0757  -2.0284  -1.9316  -1.8374  -1.8021  -1.7576
    -1.6458  -1.6451  -1.6418  -1.6259  -1.5524  -1.5379  -1.3343  -1.3221
    -1.2628  -1.1875  -1.1480  -1.1122  -1.1098  -0.8925  -0.4820  -0.1986
    -0.1855  -0.1619  -0.0092  -0.0041   1.5928   1.6747   1.7095   1.7592
     1.7949   1.7982   1.8044   1.8679   1.9317   1.9415   2.1826

     the Fermi energy is     1.5309 ev

!    total energy              =   -3295.91273931 Ry
     estimated scf accuracy    <       0.00000007 Ry
     smearing contrib. (-TS)   =      -0.03397211 Ry
     internal energy E=F+TS    =   -3295.87876720 Ry

     The total energy is F=E-TS. E is the sum of the following terms:
     one-electron contribution =  -34427.57551943 Ry
     hartree contribution      =   17282.31321448 Ry
     xc contribution           =    -543.76420667 Ry
     ewald contribution        =   14393.14335079 Ry
     electric field correction =       0.00439362 Ry

     convergence has been achieved in  56 iterations

     Forces acting on atoms (cartesian axes, Ry/au):

     atom    1 type  1   force =     0.00001605    0.00450223    0.05616062
     atom    2 type  1   force =     0.00000113   -0.00095524   -0.00072362
     atom    3 type  1   force =     0.00000035    0.00151927   -0.00017958
     atom    4 type  1   force =     0.00005840    0.00030906    0.10699054
     atom    5 type  1   force =     0.00000242    0.00081201    0.00980285
     atom    6 type  1   force =     0.00000464   -0.00264057    0.00105968
     atom    7 type  1   force =     0.06730200   -0.00022747   -0.02912983
     atom    8 type  1   force =     0.00475699   -0.02827092    0.00257122
     atom    9 type  1   force =     0.00734905   -0.00159461   -0.00300759
     atom   10 type  2   force =    -0.00005376   -0.00148441   -0.18424534
     atom   11 type  2   force =     0.00003813    0.02164471   -0.00779619
     atom   12 type  2   force =     0.00003128   -0.00243454    0.01228144
     atom   13 type  1   force =    -0.06740441   -0.00068989   -0.02909515
     atom   14 type  1   force =    -0.00478247   -0.02827265    0.00257150
     atom   15 type  1   force =    -0.00737073   -0.00159431   -0.00302441
     atom   16 type  2   force =     0.00009481    0.00013071    0.06631761
     atom   17 type  2   force =    -0.00001264    0.03587449    0.00370373
     atom   18 type  2   force =     0.00002437   -0.01055042   -0.00434966
     atom   19 type  1   force =     0.00001909    0.00444259    0.05988412
     atom   20 type  1   force =    -0.00000278    0.00083217   -0.00595731
     atom   21 type  1   force =     0.00005858    0.00018852    0.10723146
     atom   22 type  1   force =    -0.00000073   -0.00065558    0.00884984
     atom   23 type  1   force =    -0.00000514    0.00496014    0.00313560
     atom   24 type  1   force =     0.06805748    0.00051745   -0.02902733
     atom   25 type  1   force =     0.00342190   -0.02996217    0.00208203
     atom   26 type  1   force =     0.01014892    0.02029857    0.00206848
     atom   27 type  2   force =    -0.00005875    0.00003327   -0.18366088
     atom   28 type  2   force =     0.00003535    0.02157839   -0.00596248
     atom   29 type  2   force =     0.00000502   -0.02169632   -0.00587535
     atom   30 type  1   force =    -0.06815774    0.00006903   -0.02899530
     atom   31 type  1   force =    -0.00345435   -0.02994858    0.00208986
     atom   32 type  1   force =    -0.01017294    0.02029506    0.00205059
     atom   33 type  2   force =     0.00010505   -0.00026361    0.06933486
     atom   34 type  2   force =    -0.00001422    0.03687287    0.00371016
     atom   35 type  2   force =     0.00002008   -0.02929898    0.01031545
     atom   36 type  1   force =     0.00002543    0.00481936    0.05628949
     atom   37 type  1   force =    -0.00000968    0.00206602   -0.00516144
     atom   38 type  1   force =     0.00002168    0.00423192   -0.00016968
     atom   39 type  1   force =     0.00005647    0.00002537    0.10682339
     atom   40 type  1   force =    -0.00000555   -0.00060415    0.00811522
     atom   41 type  1   force =     0.00000211    0.00071047    0.00247288
     atom   42 type  1   force =     0.06807923   -0.00121701   -0.02962376
     atom   43 type  1   force =     0.00353724   -0.02804600    0.00205560
     atom   44 type  1   force =     0.01055838    0.01133769    0.00282682
     atom   45 type  2   force =    -0.00006108   -0.00196929   -0.18353251
     atom   46 type  2   force =     0.00003501    0.01959058   -0.00655276
     atom   47 type  2   force =    -0.00003221   -0.01039894   -0.01261165
     atom   48 type  1   force =    -0.06817393   -0.00165849   -0.02958612
     atom   49 type  1   force =    -0.00355329   -0.02804669    0.00205326
     atom   50 type  1   force =    -0.01060089    0.01132313    0.00283903
     atom   51 type  2   force =     0.00009661   -0.00308319    0.06760555
     atom   52 type  2   force =    -0.00001945    0.03494179    0.00627009
     atom   53 type  2   force =     0.00000345    0.00511757    0.00129168
     atom   54 type  3   force =    -0.01123271   -0.00455063   -0.00613847
     atom   55 type  4   force =     0.00006933   -0.00129380   -0.00043495
     atom   56 type  4   force =    -0.00210413   -0.00008295   -0.00031607
     atom   57 type  4   force =     0.01323392    0.00625636    0.00446935
     atom   58 type  3   force =     0.00010838   -0.00183150    0.00125486
     atom   59 type  4   force =    -0.00000363   -0.00007649    0.00015957
     atom   60 type  4   force =     0.00071113   -0.00092522   -0.00077998
     atom   61 type  4   force =    -0.00080226   -0.00097620   -0.00080104

     Total force =     0.455266     Total SCF correction =     0.000935
  @ DRIVER MODE: Message from server: STATUS
  @ DRIVER MODE: Message from server: GETFORCE
  @ DRIVER MODE: Returning v,forces,stress,ensemble

     Writing output data file ./calc.save/
  @ DRIVER MODE: Message from server: EXIT
  @ DRIVE MODE: Exiting

     General routines

     Parallel routines

   This run was terminated on:  20:50:27  18Oct2021

   JOB DONE.