     Program PWSCF v.6.7GPU starts on 26Sep2021 at 14:45: 3

     R & G space division:  proc/nbgrp/npool/nimage =       8
     Reading input from /storage/home/hcoda1/3/ntian30/research/carbon/CxH_vib/H2O_calc/ads_slab/CH3OH2O_a/out_0023/pw.inp
Warning: card &CELL ignored
Warning: card   CELL_DYNAMICS='IPI', ignored
Warning: card / ignored

     Current dimensions of program PWSCF are:
     Max number of different atomic species (ntypx) = 10
     Max number of k-points (npk) =  40000
     Max angular momentum in pseudopotentials (lmaxx) =  3
     Presently no symmetry can be used with electric field

     Message from routine cell_base_init:
     DEPRECATED: use true lattice parameter, not A to a.u. conversion factor

     IMPORTANT: XC functional enforced from input :
     Exchange-correlation= BEEF-VDW
                           (   1   4  43  14   2   0   0)
     Any further DFT definition will be discarded
     Please, verify this is what you really want

  @ DRIVER MODE: Connecting to
 qe_1139763_2971673.sched-torque.pace.gatech.eduz7wqam8f_scratch
  using UNIX socket
  @ DRIVER MODE: Message from server: STATUS
  @ DRIVER MODE: Message from server: INIT
  @ DRIVER MODE: Receiving replica           0          -1
  @ DRIVER MODE: Receiving encoded integer          25
  @ DRIVER MODE:  SCF:  T  FORCE:  T  STRESS:  F  VC:  F  ENSEMBLE:  F
  @ DRIVER MODE:  SCF:  T  FORCE:  T  STRESS:  F  VC:  F  ENSEMBLE:  F

     Using Slab Decomposition

     bravais-lattice index     =            0
     lattice parameter (alat)  =       1.8897  a.u.
     unit-cell volume          =    6658.9804 (a.u.)^3
     number of atoms/cell      =           55
     number of atomic types    =            4
     number of electrons       =       399.00
     number of Kohn-Sham states=          209
     kinetic-energy cutoff     =      29.3995  Ry
     charge density cutoff     =     293.9946  Ry
     scf convergence threshold =      7.3E-08
     mixing beta               =       0.0500
     number of iterations used =            8  plain     mixing
     Exchange-correlation= BEEF-VDW
                           (   1   4  43  14   2   0   0)

     celldm(1)=   1.889726  celldm(2)=   0.000000  celldm(3)=   0.000000
     celldm(4)=   0.000000  celldm(5)=   0.000000  celldm(6)=   0.000000

     crystal axes: (cart. coord. in units of alat)
               a(1) = (   6.579727   0.000000   0.000000 )
               a(2) = (  -0.000775   5.961596   0.000000 )
               a(3) = (   0.000000   0.000000  25.155947 )

     reciprocal axes: (cart. coord. in units 2 pi/alat)
               b(1) = (  0.151982  0.000020  0.000000 )
               b(2) = (  0.000000  0.167740  0.000000 )
               b(3) = (  0.000000  0.000000  0.039752 )

     PseudoPot. # 1 for Ti read from file:
     /storage/coda1/p-amedford6/0/shared/rich_project_chbe-medford/medford-share/data/pseudos_module/espresso/nninc/pbe/van/Ti.UPF
     MD5 check sum: 8e4df49b7f0d34bbd5052bf3f5ea0213
     Pseudo is Ultrasoft, Zval = 12.0
     Generated by new atomic code, or converted to UPF format
     Using radial grid of  851 points,  6 beta functions with:
                l(1) =   0
                l(2) =   0
                l(3) =   1
                l(4) =   1
                l(5) =   2
                l(6) =   2
     Q(r) pseudized with  8 coefficients,  rinner =    1.000   1.000   1.000
                                                       1.000   1.000

     PseudoPot. # 2 for O  read from file:
     /storage/coda1/p-amedford6/0/shared/rich_project_chbe-medford/medford-share/data/pseudos_module/espresso/nninc/pbe/van/O.UPF
     MD5 check sum: 78c19812648e8988a0fe644b0f25305e
     Pseudo is Ultrasoft, Zval =  6.0
     Generated by new atomic code, or converted to UPF format
     Using radial grid of  737 points,  4 beta functions with:
                l(1) =   0
                l(2) =   0
                l(3) =   1
                l(4) =   1
     Q(r) pseudized with  8 coefficients,  rinner =    0.800   0.800   0.800

     PseudoPot. # 3 for C  read from file:
     /storage/coda1/p-amedford6/0/shared/rich_project_chbe-medford/medford-share/data/pseudos_module/espresso/nninc/pbe/van/C.UPF
     MD5 check sum: 1a69bf6b8db32088f5b2163dbdb77a27
     Pseudo is Ultrasoft, Zval =  4.0
     Generated by new atomic code, or converted to UPF format
     Using radial grid of  721 points,  4 beta functions with:
                l(1) =   0
                l(2) =   0
                l(3) =   1
                l(4) =   1
     Q(r) pseudized with  8 coefficients,  rinner =    0.800   0.800   0.800

     PseudoPot. # 4 for H  read from file:
     /storage/coda1/p-amedford6/0/shared/rich_project_chbe-medford/medford-share/data/pseudos_module/espresso/nninc/pbe/van/H.UPF
     MD5 check sum: b5ee9d7bfd3a09ee7748110bda690ff7
     Pseudo is Ultrasoft, Zval =  1.0
     Generated by new atomic code, or converted to UPF format
     Using radial grid of  615 points,  1 beta functions with:
                l(1) =   0
     Q(r) pseudized with  8 coefficients,  rinner =    0.800

     atomic species   valence    mass     pseudopotential
        Ti1           12.00    47.86700     Ti( 1.00)
        O1             6.00    15.99900     O ( 1.00)
        C1             4.00    12.01100     C ( 1.00)
        H1             1.00     1.00800     H ( 1.00)

     No symmetry found

   Cartesian axes

     site n.     atom                  positions (alat units)
         1           Ti1 tau(   1) = (   0.0004258   2.9801865   6.0000000  )
         2           Ti1 tau(   2) = (   3.2906075   1.4906267   6.0002472  )
         3           O1  tau(   3) = (   0.0006271   0.0005054   7.9858123  )
         4           O1  tau(   4) = (   3.2906025   0.0005020   7.3038282  )
         5           O1  tau(   5) = (   4.5942328   1.4918067   9.2879030  )
         6           O1  tau(   6) = (   1.9868534   1.4903216   9.2879459  )
         7           Ti1 tau(   7) = (   3.2820359   3.0439161   9.1623595  )
         8           Ti1 tau(   8) = (   6.5599266   1.6132547   9.3553476  )
         9           O1  tau(   9) = (   3.2945286   0.0238644  11.3456088  )
        10           O1  tau(  10) = (   0.0063054   0.0138127  10.6020390  )
        11           O1  tau(  11) = (   1.2951583   1.5100513  12.6443238  )
        12           O1  tau(  12) = (   5.2990995   1.5148170  12.6233090  )
        13           Ti1 tau(  13) = (   0.0263474   3.0106421  12.7494805  )
        14           Ti1 tau(  14) = (   3.3336015   1.5167552  12.4948480  )
        15           O1  tau(  15) = (   6.5448532   0.0190031  14.6983011  )
        16           O1  tau(  16) = (   3.3224233   0.0259125  13.9568087  )
        17           O1  tau(  17) = (   4.5367000   1.5168325  16.1249780  )
        18           O1  tau(  18) = (   2.0218268   1.5507800  16.0022153  )
        19           Ti1 tau(  19) = (   3.2743302   2.9980917  15.6870858  )
        20           Ti1 tau(  20) = (   0.0201860   1.3869735  16.0719154  )
        21           O1  tau(  21) = (   3.2904802   0.0005063   4.7018136  )
        22           O1  tau(  22) = (   0.0925506   0.0150102  17.2361640  )
        23           O1  tau(  23) = (   1.3043587   1.4918075   6.0039043  )
        24           O1  tau(  24) = (   5.2767064   1.4903225   6.0039473  )
        25           Ti1 tau(  25) = (   0.0000382   5.9609847   6.0000000  )
        26           Ti1 tau(  26) = (   3.2902200   4.4714249   6.0002472  )
        27           O1  tau(  27) = (   0.0002396   2.9813036   7.9858123  )
        28           O1  tau(  28) = (   3.2902150   2.9813002   7.3038282  )
        29           O1  tau(  29) = (   4.5938453   4.4726049   9.2879030  )
        30           O1  tau(  30) = (   1.9864658   4.4711199   9.2879459  )
        31           Ti1 tau(  31) = (   3.2669230   0.0652730   9.1555536  )
        32           Ti1 tau(  32) = (   6.5613759   4.5453191   9.2698998  )
        33           O1  tau(  33) = (   3.2918870   3.0052186  11.3478826  )
        34           O1  tau(  34) = (   0.0060846   2.9950393  10.5821163  )
        35           O1  tau(  35) = (   1.2959246   4.5006532  12.6413340  )
        36           O1  tau(  36) = (   5.2961686   4.4944485  12.6189864  )
        37           Ti1 tau(  37) = (   0.0327138   0.0295606  12.5236923  )
        38           Ti1 tau(  38) = (   3.3339673   4.5113903  12.4983483  )
        39           O1  tau(  39) = (   6.5730609   3.0277731  14.6772624  )
        40           O1  tau(  40) = (   3.3208155   3.0007925  13.9016932  )
        41           O1  tau(  41) = (   4.5507661   4.4739758  16.0704957  )
        42           O1  tau(  42) = (   2.0281244   4.4521521  15.9894756  )
        43           Ti1 tau(  43) = (   3.3328935   0.0118079  15.7915215  )
        44           Ti1 tau(  44) = (   0.0096178   4.5175135  15.9069376  )
        45           O1  tau(  45) = (   3.2900926   2.9813045   4.7018136  )
        46           O1  tau(  46) = (   1.3039711   4.4726057   6.0039043  )
        47           O1  tau(  47) = (   5.2763189   4.4711207   6.0039473  )
        48           C1  tau(  48) = (   6.0108469   3.0492512  18.6187439  )
        49           O1  tau(  49) = (   6.5747659   3.0013081  17.3187206  )
        50           H1  tau(  50) = (   4.9221177   3.1735116  18.5649479  )
        51           H1  tau(  51) = (   6.2378858   2.1236533  19.1467593  )
        52           H1  tau(  52) = (   6.4208835   3.9027719  19.1655001  )
        53           O1  tau(  53) = (   2.8960476   5.8777769  18.1661119  )
        54           H1  tau(  54) = (   3.1709146   0.7341104  18.6084320  )
        55           H1  tau(  55) = (   1.9162551   5.9097105  18.1191095  )

     number of k points=    10  Fermi-Dirac smearing, width (Ry)=  0.0073
                       cart. coord. in units 2pi/alat
        k(    1) = (   0.0000000   0.0000000   0.0000000), wk =   0.1250000
        k(    2) = (   0.0000000   0.0419351   0.0000000), wk =   0.2500000
        k(    3) = (   0.0000000  -0.0838702   0.0000000), wk =   0.1250000
        k(    4) = (   0.0379955   0.0000049   0.0000000), wk =   0.2500000
        k(    5) = (   0.0379955   0.0419400   0.0000000), wk =   0.2500000
        k(    6) = (   0.0379955  -0.0838652   0.0000000), wk =   0.2500000
        k(    7) = (   0.0379955  -0.0419301   0.0000000), wk =   0.2500000
        k(    8) = (  -0.0759910  -0.0000099   0.0000000), wk =   0.1250000
        k(    9) = (  -0.0759910   0.0419252   0.0000000), wk =   0.2500000
        k(   10) = (  -0.0759910  -0.0838800   0.0000000), wk =   0.1250000

     Initial potential from superposition of free atoms

     starting charge  382.99916, renormalised to  399.00000

     negative rho (up, down):  1.705E-02 0.000E+00

     %%%%%%%%%%%%%%%%%%%%%%%%%%%%%%%%%%%%%%%%%%%%%%%%%%%%%%%%%%%%%%%%%%%%%%%%
     %                                                                      %
     % You are using vdW-DF, which was implemented by the Thonhauser group. %
     % Please cite the following two papers that made this development      %
     % possible and the two reviews that describe the various versions:     %
     %                                                                      %
     %   T. Thonhauser et al., PRL 115, 136402 (2015).                      %
     %   T. Thonhauser et al., PRB 76, 125112 (2007).                       %
     %   K. Berland et al., Rep. Prog. Phys. 78, 066501 (2015).             %
     %   D.C. Langreth et al., J. Phys.: Condens. Matter 21, 084203 (2009). %
     %                                                                      %
     %                                                                      %
     % If you are calculating the stress with vdW-DF, please also cite:     %
     %                                                                      %
     %   R. Sabatini et al., J. Phys.: Condens. Matter 24, 424209 (2012).   %
     %                                                                      %
     %%%%%%%%%%%%%%%%%%%%%%%%%%%%%%%%%%%%%%%%%%%%%%%%%%%%%%%%%%%%%%%%%%%%%%%%

     Adding external electric field

     Computed dipole along edir(3) :
        Dipole               -9.9863 Ry au,        -25.3827 Debye
        Dipole field         -0.0188 Ry au,

        Potential amp.        1.7470 Ry
        Total length         46.3494 bohr

     Starting wfcs are  301 atomic wfcs
  @ DRIVER MODE: Message from server: STATUS
  @ DRIVER MODE: Message from server: POSDATA
  @ DRIVER MODE: Reading and sharing cell
  @ DRIVER MODE: Reading and sharing positions
  @ DRIVER MODE: Received positions

     Self-consistent Calculation

     iteration #  1     ecut=    29.40 Ry     beta= 0.05
     Davidson diagonalization with overlap
     c_bands:  2 eigenvalues not converged
     c_bands:  2 eigenvalues not converged
     c_bands:  3 eigenvalues not converged
     c_bands:  3 eigenvalues not converged
     c_bands:  2 eigenvalues not converged
     c_bands:  3 eigenvalues not converged
     c_bands:  3 eigenvalues not converged
     c_bands:  1 eigenvalues not converged
     ethr =  1.00E-05,  avg # of iterations = 19.6

[...]

     total energy              =   -2489.86069325 Ry
     estimated scf accuracy    <    5304.35954486 Ry

     iteration #  2     ecut=    29.40 Ry     beta= 0.05
     Davidson diagonalization with overlap
     ethr =  1.00E-02,  avg # of iterations = 24.7

[...]

     iteration # 76     ecut=    29.40 Ry     beta= 0.05
     Davidson diagonalization with overlap
     c_bands:  1 eigenvalues not converged
     c_bands:  1 eigenvalues not converged
     ethr =  4.63E-10,  avg # of iterations = 18.2

[...]

     total energy              =   -2966.34221334 Ry
     estimated scf accuracy    <       0.00000008 Ry

     iteration # 82     ecut=    29.40 Ry     beta= 0.05
     Davidson diagonalization with overlap
     ethr =  1.95E-11,  avg # of iterations = 13.8

     negative rho (up, down):  1.687E-02 0.000E+00

     Adding external electric field

     Computed dipole along edir(3) :
        Dipole                0.9467 Ry au,          2.4062 Debye
        Dipole field          0.0018 Ry au,

        Potential amp.       -0.1656 Ry
        Total length         46.3494 bohr

     End of self-consistent calculation

          k = 0.0000 0.0000 0.0000 ( 18029 PWs)   bands (ev):

   -55.7042 -55.6684 -55.6654 -55.6291 -55.6175 -55.6038 -55.5830 -55.5488
   -55.4939 -55.4805 -55.4714 -55.4544 -55.4196 -55.3789 -54.7072 -54.6732
   -32.2231 -32.1738 -32.0948 -32.0625 -32.0463 -31.9966 -31.9804 -31.9698
   -31.9368 -31.9338 -31.8927 -31.8820 -31.8762 -31.8707 -31.8637 -31.8474
   -31.8468 -31.8035 -31.7989 -31.7960 -31.7876 -31.7830 -31.7686 -31.7548
   -31.7484 -31.7437 -31.7256 -31.7030 -31.6961 -31.6950 -31.6881 -31.6848
   -31.6724 -31.6646 -31.6516 -31.6439 -31.6366 -31.6006 -31.5947 -31.5700
   -31.5613 -31.5549 -31.1163 -31.0213 -30.9989 -30.9331 -30.8470 -30.7357
   -18.9061 -17.5510 -16.4188 -16.1495 -15.9883 -15.8606 -15.8221 -15.6265
   -15.5105 -15.3859 -15.3596 -15.3047 -15.2800 -15.2401 -15.2343 -15.2254
   -15.2148 -15.2062 -15.1524 -15.1181 -15.1055 -15.0959 -15.0843 -15.0329
   -14.9809 -14.9167 -14.8442 -14.8213 -14.7971 -14.7253 -14.7043 -13.2079
   -13.0901  -9.4339  -6.6749  -4.2648  -4.1077  -3.8032  -3.7666  -3.6419
    -3.6167  -3.5869  -3.5057  -3.3083  -3.2753  -3.1527  -2.9411  -2.8825
    -2.8268  -2.8030  -2.7607  -2.6097  -2.5914  -2.5201  -2.5094  -2.4907
    -2.4803  -2.4481  -2.4300  -2.3974  -2.3702  -2.3307  -2.2859  -2.2246
    -2.0857  -2.0715  -2.0341  -2.0168  -2.0050  -1.9905  -1.9535  -1.9323
    -1.8990  -1.8810  -1.8719  -1.7710  -1.6631  -1.5698  -1.5329  -1.4638
    -1.3822  -1.2382  -1.2172  -1.1462  -1.1210  -1.1052  -1.0546  -1.0025
    -0.9417  -0.9374  -0.8806  -0.7817  -0.7152  -0.6942  -0.6575  -0.6086
    -0.5494  -0.4733  -0.4441  -0.4266  -0.4035  -0.3913  -0.2036  -0.1787
    -0.1365  -0.1090  -0.0267   0.0319   0.0488   0.0670   0.0939   0.1207
     0.1939   0.2534   0.2628   0.2894   0.3332   0.3479   0.3817   0.4497
     0.4982   0.5166   0.5640   0.6131   0.6649   0.8049   0.9089   0.9512
     1.0628   1.2278   1.3169   1.3907   1.4920   1.9024   1.9584   3.4757
     3.5077   3.5357   3.5570   3.6339   3.7259   3.8357   3.9279   3.9430
     3.9723

[...]

          k = 0.0380-0.0419 0.0000 ( 17876 PWs)   bands (ev):

[...]

          k =-0.0760-0.0000 0.0000 ( 17886 PWs)   bands (ev):

[...]

          k =-0.0760-0.0839 0.0000 ( 17948 PWs)   bands (ev):

   -55.6919 -55.6806 -55.6491 -55.6452 -55.6147 -55.6018 -55.5703 -55.5615
   -55.4962 -55.4772 -55.4736 -55.4415 -55.4326 -55.3818 -54.6906 -54.6896
   -32.0362 -32.0172 -31.9964 -31.9896 -31.9846 -31.9832 -31.9662 -31.9292
   -31.9199 -31.9115 -31.9028 -31.8933 -31.8556 -31.8450 -31.8304 -31.8261
   -31.8255 -31.8191 -31.8175 -31.8101 -31.8024 -31.7996 -31.7926 -31.7835
   -31.7743 -31.7713 -31.7667 -31.7661 -31.7562 -31.7401 -31.7138 -31.6974
   -31.6918 -31.6857 -31.6849 -31.6812 -31.6757 -31.6581 -31.6480 -31.6368
   -31.6067 -31.5724 -31.0122 -31.0110 -30.9296 -30.9288 -30.8905 -30.8896
   -18.9048 -17.5184 -15.8874 -15.7738 -15.6553 -15.5814 -15.5695 -15.5234
   -15.4932 -15.4670 -15.4093 -15.4021 -15.3543 -15.3526 -15.3019 -15.2959
   -15.2449 -15.2128 -15.2087 -15.1674 -15.1445 -15.1360 -15.1261 -15.0896
   -15.0727 -15.0630 -15.0281 -15.0188 -14.9698 -14.9314 -14.9050 -13.1923
   -13.1906  -9.4363  -6.6694  -4.1633  -4.0716  -3.8034  -3.3073  -3.1736
    -2.9701  -2.9012  -2.8354  -2.7731  -2.7693  -2.6535  -2.6337  -2.5947
    -2.5640  -2.5313  -2.5235  -2.5133  -2.4968  -2.4940  -2.4769  -2.4376
    -2.4171  -2.3934  -2.3715  -2.3601  -2.3386  -2.3161  -2.3085  -2.2888
    -2.2557  -2.2491  -2.2414  -2.1781  -2.1154  -1.9828  -1.9394  -1.9260
    -1.8409  -1.8063  -1.7898  -1.7607  -1.7525  -1.7370  -1.6063  -1.5867
    -1.4920  -1.4263  -1.4069  -1.3790  -1.2712  -1.2122  -1.1811  -1.1580
    -1.1217  -1.0744  -1.0072  -0.9661  -0.9148  -0.8562  -0.8122  -0.7982
    -0.7654  -0.6610  -0.6567  -0.6495  -0.6079  -0.5677  -0.5166  -0.4659
    -0.4584  -0.4333  -0.4013  -0.3590  -0.3397  -0.2429  -0.2320  -0.1929
    -0.1466  -0.0538   0.1268   0.2101   0.3169   0.3511   0.3911   0.4528
     0.4975   0.5494   0.5956   0.6439   0.6694   0.7136   0.7471   0.8293
     0.8477   0.8530   0.9214   1.6786   1.6790   1.7651   1.7736   3.7194
     3.7347   3.7870   3.8058   3.9440   3.9498   3.9634   3.9729   4.0716
     4.1283

     the Fermi energy is     3.4468 ev

!    total energy              =   -2966.34222484 Ry
     estimated scf accuracy    <       0.00000006 Ry
     smearing contrib. (-TS)   =      -0.02283189 Ry
     internal energy E=F+TS    =   -2966.31939295 Ry

     The total energy is F=E-TS. E is the sum of the following terms:
     one-electron contribution =  -24405.68297194 Ry
     hartree contribution      =   12294.84564452 Ry
     xc contribution           =    -490.96732320 Ry
     ewald contribution        =    9635.48356644 Ry
     electric field correction =       0.00169123 Ry

     convergence has been achieved in  82 iterations

     Forces acting on atoms (cartesian axes, Ry/au):

     atom    1 type  1   force =     0.00017970   -0.00147086    0.10508847
     atom    2 type  1   force =     0.00007229    0.00124973   -0.17893033
     atom    3 type  2   force =    -0.00001402   -0.00500873   -0.03285121
     atom    4 type  2   force =    -0.00058137    0.00074159    0.04591122
     atom    5 type  2   force =    -0.01789747   -0.00052948    0.00427853
     atom    6 type  2   force =     0.01739983    0.00074244    0.00347265
     atom    7 type  1   force =    -0.00005878   -0.00057273   -0.00007963
     atom    8 type  1   force =    -0.00038238   -0.00056328    0.00046752
     atom    9 type  2   force =     0.00014853   -0.00029103   -0.00003673
     atom   10 type  2   force =     0.00022742   -0.00001798    0.00053605
     atom   11 type  2   force =     0.00000980   -0.00009285   -0.00004796
     atom   12 type  2   force =    -0.00014523   -0.00027966   -0.00025281
     atom   13 type  1   force =     0.00055885   -0.00057983   -0.00131068
     atom   14 type  1   force =     0.00001540   -0.00046386    0.00036346
     atom   15 type  2   force =    -0.00013728   -0.00030813    0.00001158
     atom   16 type  2   force =     0.00005101   -0.00063961   -0.00004267
     atom   17 type  2   force =    -0.00033860   -0.00012448   -0.00037508
     atom   18 type  2   force =     0.00048790   -0.00043186    0.00004333
     atom   19 type  1   force =     0.00002349    0.00052610    0.00019205
     atom   20 type  1   force =     0.00007536   -0.00078715    0.00061718
     atom   21 type  2   force =     0.00007148    0.00010587    0.10394958
     atom   22 type  2   force =    -0.00032258   -0.00025790   -0.00013417
     atom   23 type  2   force =    -0.06946287    0.00051183   -0.02942938
     atom   24 type  2   force =     0.06949621    0.00087680   -0.02946130
     atom   25 type  1   force =     0.00026617    0.00145194    0.11392102
     atom   26 type  1   force =    -0.00005876   -0.00044297   -0.17910151
     atom   27 type  2   force =    -0.00013520    0.00370569   -0.02691697
     atom   28 type  2   force =    -0.00027056    0.00101688    0.04785273
     atom   29 type  2   force =    -0.01571036    0.00042241    0.00351551
     atom   30 type  2   force =     0.01708737    0.00264319    0.00289296
     atom   31 type  1   force =     0.00036487    0.00006190   -0.00019997
     atom   32 type  1   force =    -0.00066600    0.00011179    0.00029535
     atom   33 type  2   force =     0.00024971   -0.00040035    0.00017096
     atom   34 type  2   force =     0.00007003   -0.00005376   -0.00005488
     atom   35 type  2   force =     0.00013180   -0.00019269    0.00023390
     atom   36 type  2   force =     0.00017617    0.00016074    0.00016408
     atom   37 type  1   force =     0.00034552    0.00077819   -0.00021694
     atom   38 type  1   force =    -0.00008834   -0.00053863    0.00002318
     atom   39 type  2   force =    -0.00047084    0.00023620    0.00023552
     atom   40 type  2   force =     0.00026267   -0.00064119   -0.00011385
     atom   41 type  2   force =     0.00009092   -0.00003127   -0.00012404
     atom   42 type  2   force =    -0.00033566   -0.00036507   -0.00038556
     atom   43 type  1   force =    -0.00012877   -0.00026033   -0.00012967
     atom   44 type  1   force =     0.00033863    0.00016013    0.00036737
     atom   45 type  2   force =     0.00007785    0.00008358    0.10397566
     atom   46 type  2   force =    -0.06916210   -0.00107152   -0.02944603
     atom   47 type  2   force =     0.06914021   -0.00060532   -0.02952103
     atom   48 type  3   force =    -0.00111280    0.00384308   -0.00276712
     atom   49 type  2   force =    -0.00035353    0.00140150   -0.00111629
     atom   50 type  4   force =     0.00051302    0.00034165    0.00055560
     atom   51 type  4   force =     0.00065584   -0.00338621    0.00389074
     atom   52 type  4   force =    -0.00014855   -0.00102601    0.00018012
     atom   53 type  2   force =     0.00082986    0.00109076    0.00050012
     atom   54 type  4   force =    -0.00021440   -0.00088847   -0.00061892
     atom   55 type  4   force =    -0.00122149    0.00005922   -0.00004168

     Total force =     0.374121     Total SCF correction =     0.000751
  @ DRIVER MODE: Message from server: STATUS
  @ DRIVER MODE: Message from server: GETFORCE
  @ DRIVER MODE: Returning v,forces,stress,ensemble

     Writing output data file ./calc.save/
  @ DRIVER MODE: Message from server: EXIT
  @ DRIVE MODE: Exiting

     General routines

     Parallel routines

   This run was terminated on:  15:49:37  26Sep2021

   JOB DONE.