     Program PWSCF v.6.7GPU starts on  2Aug2021 at 15:26:38

     R & G space division:  proc/nbgrp/npool/nimage =      16
     Reading input from /storage/home/hcoda1/3/ntian30/research/carbon/02Aug_vib_paired/ads_slab/CH3N2_b/out_0010/pw.inp
Warning: card &CELL ignored
Warning: card   CELL_DYNAMICS='IPI', ignored
Warning: card / ignored

     Current dimensions of program PWSCF are:
     Max number of different atomic species (ntypx) = 10
     Max number of k-points (npk) =  40000
     Max angular momentum in pseudopotentials (lmaxx) =  3
     Presently no symmetry can be used with electric field

     Message from routine cell_base_init:
     DEPRECATED: use true lattice parameter, not A to a.u. conversion factor

     IMPORTANT: XC functional enforced from input :
     Exchange-correlation= BEEF-VDW
                           (   1   4  43  14   2   0   0)
     Any further DFT definition will be discarded
     Please, verify this is what you really want

  @ DRIVER MODE: Connecting to
 qe_1139763_2482536.sched-torque.pace.gatech.edu17kvfa6g_scratch
  using UNIX socket
  @ DRIVER MODE: Message from server: STATUS
  @ DRIVER MODE: Message from server: INIT
  @ DRIVER MODE: Receiving replica           0          -1
  @ DRIVER MODE: Receiving encoded integer          25
  @ DRIVER MODE:  SCF:  T  FORCE:  T  STRESS:  F  VC:  F  ENSEMBLE:  F
  @ DRIVER MODE:  SCF:  T  FORCE:  T  STRESS:  F  VC:  F  ENSEMBLE:  F

     Using Slab Decomposition

     bravais-lattice index     =            0
     lattice parameter (alat)  =       1.8897  a.u.
     unit-cell volume          =    6658.9804 (a.u.)^3
     number of atoms/cell      =           53
     number of atomic types    =            5
     number of electrons       =       395.00
     number of Kohn-Sham states=          207
     kinetic-energy cutoff     =      29.3995  Ry
     charge density cutoff     =     293.9946  Ry
     scf convergence threshold =      7.3E-08
     mixing beta               =       0.0500
     number of iterations used =            8  plain     mixing
     Exchange-correlation= BEEF-VDW
                           (   1   4  43  14   2   0   0)

     celldm(1)=   1.889726  celldm(2)=   0.000000  celldm(3)=   0.000000
     celldm(4)=   0.000000  celldm(5)=   0.000000  celldm(6)=   0.000000

     crystal axes: (cart. coord. in units of alat)
               a(1) = (   6.579727   0.000000   0.000000 )
               a(2) = (  -0.000775   5.961596   0.000000 )
               a(3) = (   0.000000   0.000000  25.155947 )

     reciprocal axes: (cart. coord. in units 2 pi/alat)
               b(1) = (  0.151982  0.000020  0.000000 )
               b(2) = (  0.000000  0.167740  0.000000 )
               b(3) = (  0.000000  0.000000  0.039752 )

     PseudoPot. # 1 for Ti read from file:
     /storage/coda1/p-amedford6/0/shared/rich_project_chbe-medford/medford-share/data/pseudos_module/espresso/nninc/pbe/van/Ti.UPF
     MD5 check sum: 8e4df49b7f0d34bbd5052bf3f5ea0213
     Pseudo is Ultrasoft, Zval = 12.0
     Generated by new atomic code, or converted to UPF format
     Using radial grid of  851 points,  6 beta functions with:
                l(1) =   0
                l(2) =   0
                l(3) =   1
                l(4) =   1
                l(5) =   2
                l(6) =   2
     Q(r) pseudized with  8 coefficients,  rinner =    1.000   1.000   1.000
                                                       1.000   1.000

     PseudoPot. # 2 for O  read from file:
     /storage/coda1/p-amedford6/0/shared/rich_project_chbe-medford/medford-share/data/pseudos_module/espresso/nninc/pbe/van/O.UPF
     MD5 check sum: 78c19812648e8988a0fe644b0f25305e
     Pseudo is Ultrasoft, Zval =  6.0
     Generated by new atomic code, or converted to UPF format
     Using radial grid of  737 points,  4 beta functions with:
                l(1) =   0
                l(2) =   0
                l(3) =   1
                l(4) =   1
     Q(r) pseudized with  8 coefficients,  rinner =    0.800   0.800   0.800

     PseudoPot. # 3 for N  read from file:
     /storage/coda1/p-amedford6/0/shared/rich_project_chbe-medford/medford-share/data/pseudos_module/espresso/nninc/pbe/van/N.UPF
     MD5 check sum: 90d10febe142ad51ac9d5be1deb811c4
     Pseudo is Ultrasoft, Zval =  5.0
     Generated by new atomic code, or converted to UPF format
     Using radial grid of  729 points,  4 beta functions with:
                l(1) =   0
                l(2) =   0
                l(3) =   1
                l(4) =   1
     Q(r) pseudized with  8 coefficients,  rinner =    0.800   0.800   0.800

     PseudoPot. # 4 for C  read from file:
     /storage/coda1/p-amedford6/0/shared/rich_project_chbe-medford/medford-share/data/pseudos_module/espresso/nninc/pbe/van/C.UPF
     MD5 check sum: 1a69bf6b8db32088f5b2163dbdb77a27
     Pseudo is Ultrasoft, Zval =  4.0
     Generated by new atomic code, or converted to UPF format
     Using radial grid of  721 points,  4 beta functions with:
                l(1) =   0
                l(2) =   0
                l(3) =   1
                l(4) =   1
     Q(r) pseudized with  8 coefficients,  rinner =    0.800   0.800   0.800

     PseudoPot. # 5 for H  read from file:
     /storage/coda1/p-amedford6/0/shared/rich_project_chbe-medford/medford-share/data/pseudos_module/espresso/nninc/pbe/van/H.UPF
     MD5 check sum: b5ee9d7bfd3a09ee7748110bda690ff7
     Pseudo is Ultrasoft, Zval =  1.0
     Generated by new atomic code, or converted to UPF format
     Using radial grid of  615 points,  1 beta functions with:
                l(1) =   0
     Q(r) pseudized with  8 coefficients,  rinner =    0.800

     atomic species   valence    mass     pseudopotential
        Ti1           12.00    47.86700     Ti( 1.00)
        O1             6.00    15.99900     O ( 1.00)
        N1             5.00    14.00700     N ( 1.00)
        C1             4.00    12.01100     C ( 1.00)
        H1             1.00     1.00800     H ( 1.00)

     No symmetry found

   Cartesian axes

     site n.     atom                  positions (alat units)
         1           Ti1 tau(   1) = (   0.0004258   2.9801865   6.0000000  )
         2           Ti1 tau(   2) = (   3.2906075   1.4906267   6.0002472  )
         3           O1  tau(   3) = (   0.0006271   0.0005054   7.9858123  )
         4           O1  tau(   4) = (   3.2906025   0.0005020   7.3038282  )
         5           O1  tau(   5) = (   4.5942328   1.4918067   9.2879030  )
         6           O1  tau(   6) = (   1.9868534   1.4903216   9.2879459  )
         7           Ti1 tau(   7) = (   3.2907910   2.8959150   9.1758416  )
         8           Ti1 tau(   8) = (   0.0015273   1.4827037   9.2680791  )
         9           O1  tau(   9) = (   3.3037365   0.0094216  11.3222111  )
        10           O1  tau(  10) = (   0.0116148   5.9584955  10.6183126  )
        11           O1  tau(  11) = (   1.3152514   1.5075076  12.6320051  )
        12           O1  tau(  12) = (   5.3186361   1.4995162  12.6508707  )
        13           Ti1 tau(  13) = (   6.5540705   2.9956815  12.5884341  )
        14           Ti1 tau(  14) = (   3.2234832   1.4927074  12.4921739  )
        15           O1  tau(  15) = (   0.0610261   5.9052480  14.6017706  )
        16           O1  tau(  16) = (   3.2936532   0.0132264  13.8830087  )
        17           O1  tau(  17) = (   4.5722397   1.5061520  16.0138922  )
        18           O1  tau(  18) = (   2.0767725   1.5295127  16.0808449  )
        19           Ti1 tau(  19) = (   3.3650854   3.0251465  15.6907462  )
        20           Ti1 tau(  20) = (   0.0387768   1.3037779  15.7216176  )
        21           O1  tau(  21) = (   3.2904802   0.0005063   4.7018136  )
        22           O1  tau(  22) = (   0.0189486   0.1070799  17.1824039  )
        23           O1  tau(  23) = (   1.3043587   1.4918075   6.0039043  )
        24           O1  tau(  24) = (   5.2767064   1.4903225   6.0039473  )
        25           Ti1 tau(  25) = (   0.0000382   5.9609847   6.0000000  )
        26           Ti1 tau(  26) = (   3.2902200   4.4714249   6.0002472  )
        27           O1  tau(  27) = (   0.0002396   2.9813036   7.9858123  )
        28           O1  tau(  28) = (   3.2902150   2.9813002   7.3038282  )
        29           O1  tau(  29) = (   4.5938453   4.4726049   9.2879030  )
        30           O1  tau(  30) = (   1.9864658   4.4711199   9.2879459  )
        31           Ti1 tau(  31) = (   3.2891106   5.8743827   9.1763621  )
        32           Ti1 tau(  32) = (   0.0006254   4.4649316   9.2693709  )
        33           O1  tau(  33) = (   3.3043114   2.9829305  11.3227053  )
        34           O1  tau(  34) = (   0.0092240   2.9805883  10.6323155  )
        35           O1  tau(  35) = (   1.3131995   4.4620516  12.6081187  )
        36           O1  tau(  36) = (   5.3117129   4.4692194  12.6284301  )
        37           Ti1 tau(  37) = (   6.5303063   5.9583428  12.5400172  )
        38           Ti1 tau(  38) = (   3.2255477   4.4746212  12.4748647  )
        39           O1  tau(  39) = (   0.0377805   3.0059521  14.8845374  )
        40           O1  tau(  40) = (   3.3120027   2.9986483  13.8863452  )
        41           O1  tau(  41) = (   4.5434534   4.5277214  16.0148975  )
        42           O1  tau(  42) = (   2.1165747   4.4940517  16.0783766  )
        43           Ti1 tau(  43) = (   3.3042555   0.0241951  15.7004812  )
        44           Ti1 tau(  44) = (   0.0495666   4.4505358  16.3362958  )
        45           O1  tau(  45) = (   3.2900926   2.9813045   4.7018136  )
        46           O1  tau(  46) = (   1.3039711   4.4726057   6.0039043  )
        47           O1  tau(  47) = (   5.2763189   4.4711207   6.0039473  )
        48           N1  tau(  48) = (   0.5348212   3.4288502  18.0689430  )
        49           C1  tau(  49) = (   1.3556880   3.0179929  19.2215664  )
        50           H1  tau(  50) = (   1.4862090   3.8900195  19.8496782  )
        51           H1  tau(  51) = (   0.8469181   2.2141957  19.7647163  )
        52           H1  tau(  52) = (   2.3296892   2.6851793  18.8624704  )
        53           N1  tau(  53) = (   5.9145885   3.2636146  17.9655992  )

     number of k points=    10  Fermi-Dirac smearing, width (Ry)=  0.0073
                       cart. coord. in units 2pi/alat
        k(    1) = (   0.0000000   0.0000000   0.0000000), wk =   0.1250000
        k(    2) = (   0.0000000   0.0419351   0.0000000), wk =   0.2500000
        k(    3) = (   0.0000000  -0.0838702   0.0000000), wk =   0.1250000
        k(    4) = (   0.0379955   0.0000049   0.0000000), wk =   0.2500000
        k(    5) = (   0.0379955   0.0419400   0.0000000), wk =   0.2500000
        k(    6) = (   0.0379955  -0.0838652   0.0000000), wk =   0.2500000
        k(    7) = (   0.0379955  -0.0419301   0.0000000), wk =   0.2500000
        k(    8) = (  -0.0759910  -0.0000099   0.0000000), wk =   0.1250000
        k(    9) = (  -0.0759910   0.0419252   0.0000000), wk =   0.2500000
        k(   10) = (  -0.0759910  -0.0838800   0.0000000), wk =   0.1250000

     Initial potential from superposition of free atoms

     starting charge  378.99916, renormalised to  395.00000

     negative rho (up, down):  1.610E-02 0.000E+00

     %%%%%%%%%%%%%%%%%%%%%%%%%%%%%%%%%%%%%%%%%%%%%%%%%%%%%%%%%%%%%%%%%%%%%%%%
     %                                                                      %
     % You are using vdW-DF, which was implemented by the Thonhauser group. %
     % Please cite the following two papers that made this development      %
     % possible and the two reviews that describe the various versions:     %
     %                                                                      %
     %   T. Thonhauser et al., PRL 115, 136402 (2015).                      %
     %   T. Thonhauser et al., PRB 76, 125112 (2007).                       %
     %   K. Berland et al., Rep. Prog. Phys. 78, 066501 (2015).             %
     %   D.C. Langreth et al., J. Phys.: Condens. Matter 21, 084203 (2009). %
     %                                                                      %
     %                                                                      %
     % If you are calculating the stress with vdW-DF, please also cite:     %
     %                                                                      %
     %   R. Sabatini et al., J. Phys.: Condens. Matter 24, 424209 (2012).   %
     %                                                                      %
     %%%%%%%%%%%%%%%%%%%%%%%%%%%%%%%%%%%%%%%%%%%%%%%%%%%%%%%%%%%%%%%%%%%%%%%%

     Adding external electric field

     Computed dipole along edir(3) :
        Dipole               -8.5786 Ry au,        -21.8047 Debye
        Dipole field         -0.0162 Ry au,

        Potential amp.        1.5007 Ry
        Total length         46.3494 bohr

     Starting wfcs are  299 atomic wfcs
  @ DRIVER MODE: Message from server: STATUS
  @ DRIVER MODE: Message from server: POSDATA
  @ DRIVER MODE: Reading and sharing cell
  @ DRIVER MODE: Reading and sharing positions
  @ DRIVER MODE: Received positions

     Self-consistent Calculation

     iteration #  1     ecut=    29.40 Ry     beta= 0.05
     Davidson diagonalization with overlap
     c_bands:  1 eigenvalues not converged
     c_bands:  2 eigenvalues not converged
     c_bands:  1 eigenvalues not converged
     c_bands:  3 eigenvalues not converged
     c_bands:  1 eigenvalues not converged
     c_bands:  2 eigenvalues not converged
     c_bands:  2 eigenvalues not converged
     c_bands:  2 eigenvalues not converged
     ethr =  1.00E-05,  avg # of iterations = 19.2

[...]

     total energy              =   -2599.38995904 Ry
     estimated scf accuracy    <    3763.31300282 Ry

     iteration #  2     ecut=    29.40 Ry     beta= 0.05
     Davidson diagonalization with overlap
     ethr =  1.00E-02,  avg # of iterations = 22.9

[...]

     iteration # 49     ecut=    29.40 Ry     beta= 0.05
     Davidson diagonalization with overlap
     c_bands:  1 eigenvalues not converged
     ethr =  5.30E-08,  avg # of iterations = 13.4

[...]

     total energy              =   -2939.12524461 Ry
     estimated scf accuracy    <       0.00000010 Ry

     iteration # 66     ecut=    29.40 Ry     beta= 0.05
     Davidson diagonalization with overlap
     ethr =  2.45E-11,  avg # of iterations = 10.8

     negative rho (up, down):  1.617E-02 0.000E+00

     Adding external electric field

     Computed dipole along edir(3) :
        Dipole                0.9108 Ry au,          2.3149 Debye
        Dipole field          0.0017 Ry au,

        Potential amp.       -0.1593 Ry
        Total length         46.3494 bohr

     End of self-consistent calculation

          k = 0.0000 0.0000 0.0000 ( 18029 PWs)   bands (ev):

   -55.7759 -55.7699 -55.7419 -55.7339 -55.6834 -55.6352 -55.5965 -55.5625
   -55.5556 -55.5219 -55.5197 -55.4466 -54.9563 -54.8072 -54.7559 -54.7218
   -32.3187 -32.2599 -32.1747 -32.0960 -32.0681 -32.0564 -32.0475 -32.0212
   -32.0058 -31.9703 -31.9402 -31.9282 -31.9218 -31.9049 -31.8828 -31.8818
   -31.8788 -31.8784 -31.8652 -31.8352 -31.8331 -31.8217 -31.8005 -31.7919
   -31.7889 -31.7824 -31.7813 -31.7556 -31.7411 -31.7364 -31.7257 -31.7107
   -31.7068 -31.6694 -31.6363 -31.5640 -31.4925 -31.3382 -31.1675 -31.1628
   -31.1055 -31.0748 -31.0662 -31.0524 -30.9799 -30.9132 -30.8934 -30.7820
   -19.4454 -16.5175 -16.2527 -15.9674 -15.9156 -15.8413 -15.7480 -15.6250
   -15.5293 -15.4107 -15.3718 -15.3157 -15.3084 -15.2641 -15.2369 -15.2330
   -15.2066 -15.1985 -15.1345 -15.1270 -15.0763 -15.0647 -15.0167 -14.9817
   -14.9701 -14.9151 -14.8463 -14.8050 -14.6859 -14.1603 -13.2574 -13.1409
   -12.3247  -7.2661  -4.9314  -4.8114  -3.8997  -3.7573  -3.6967  -3.6852
    -3.6404  -3.4395  -3.3435  -3.2840  -3.0446  -2.9529  -2.9285  -2.9179
    -2.8686  -2.7118  -2.6755  -2.6026  -2.5882  -2.5624  -2.5409  -2.5324
    -2.4970  -2.4869  -2.4516  -2.4319  -2.3268  -2.2131  -2.1829  -2.1050
    -2.0908  -2.0755  -2.0447  -2.0342  -2.0253  -2.0153  -1.9974  -1.9594
    -1.8908  -1.8521  -1.7862  -1.7021  -1.5613  -1.5404  -1.4611  -1.3854
    -1.3054  -1.2631  -1.2411  -1.2128  -1.1731  -1.0932  -1.0674  -0.9212
    -0.8244  -0.7911  -0.7742  -0.7314  -0.6956  -0.5933  -0.5716  -0.5425
    -0.5334  -0.5058  -0.4320  -0.3757  -0.2436  -0.2129  -0.2090  -0.1714
    -0.1006  -0.0468   0.0068   0.0558   0.0637   0.0995   0.1596   0.1847
     0.1896   0.2324   0.2746   0.3497   0.3757   0.4498   0.4538   0.5180
     0.5617   0.6433   0.7510   0.8733   1.0165   1.1536   1.1982   1.2673
     1.3626   1.4591   1.8375   1.8830   2.1435   3.3374   3.4447   3.4682
     3.4803   3.5870   3.7956   3.8181   3.8672   3.8878   3.8957

[...]

          k = 0.0380-0.0419 0.0000 ( 17876 PWs)   bands (ev):

[...]

          k =-0.0760-0.0000 0.0000 ( 17886 PWs)   bands (ev):

[...]

          k =-0.0760-0.0839 0.0000 ( 17948 PWs)   bands (ev):

   -55.7589 -55.7588 -55.7524 -55.7510 -55.6762 -55.6424 -55.5795 -55.5791
   -55.5390 -55.5386 -55.5152 -55.4510 -54.9549 -54.8084 -54.7389 -54.7387
   -32.1223 -32.1187 -32.0752 -32.0752 -32.0536 -32.0535 -32.0197 -32.0049
   -31.9987 -31.9899 -31.9212 -31.9159 -31.9052 -31.8988 -31.8823 -31.8800
   -31.8794 -31.8781 -31.8778 -31.8725 -31.8542 -31.8514 -31.8502 -31.8138
   -31.7844 -31.7827 -31.7810 -31.7685 -31.7683 -31.7589 -31.7580 -31.7562
   -31.7549 -31.7365 -31.7120 -31.6610 -31.4397 -31.3203 -31.1694 -31.1592
   -31.0835 -31.0652 -31.0650 -30.9757 -30.9755 -30.9367 -30.9366 -30.9161
   -19.4433 -15.9180 -15.9118 -15.7505 -15.7159 -15.6502 -15.6414 -15.5736
   -15.5065 -15.4618 -15.4568 -15.3417 -15.3395 -15.3251 -15.3032 -15.2492
   -15.2329 -15.2316 -15.2281 -15.2203 -15.2084 -15.1809 -15.1504 -15.0998
   -15.0948 -15.0739 -15.0636 -14.9422 -14.5324 -14.4703 -13.2428 -13.2426
   -12.3272  -7.2527  -4.9335  -4.8092  -3.6163  -3.2071  -3.1908  -3.0030
    -2.9196  -2.9084  -2.8930  -2.7382  -2.7260  -2.7116  -2.6528  -2.6463
    -2.6374  -2.6006  -2.5845  -2.5606  -2.5190  -2.5147  -2.4666  -2.4652
    -2.4495  -2.4354  -2.4089  -2.4037  -2.3897  -2.3749  -2.3374  -2.2817
    -2.2429  -2.2156  -2.1875  -2.0910  -2.0303  -1.9944  -1.9274  -1.9188
    -1.8679  -1.8431  -1.8286  -1.7595  -1.6913  -1.6615  -1.5779  -1.4864
    -1.4682  -1.4527  -1.3340  -1.3202  -1.2453  -1.2216  -1.1378  -1.1208
    -1.0811  -0.9704  -0.9471  -0.9158  -0.8810  -0.8375  -0.7736  -0.7367
    -0.7347  -0.6861  -0.6420  -0.5857  -0.5245  -0.5126  -0.4973  -0.4886
    -0.4252  -0.3910  -0.3692  -0.2869  -0.2717  -0.1900  -0.0463  -0.0134
     0.1440   0.1933   0.3022   0.3298   0.4206   0.4423   0.5362   0.5394
     0.5724   0.7012   0.7202   0.7377   0.7538   0.7736   0.7976   0.9368
     1.6316   1.6317   1.7032   1.7032   2.0809   3.6705   3.7075   3.7577
     3.7796   3.8836   3.8886   3.8913   3.8990   4.0210   4.0248

     the Fermi energy is     3.3510 ev

!    total energy              =   -2939.12526978 Ry
     estimated scf accuracy    <       0.00000006 Ry
     smearing contrib. (-TS)   =      -0.02052603 Ry
     internal energy E=F+TS    =   -2939.10474375 Ry

     The total energy is F=E-TS. E is the sum of the following terms:
     one-electron contribution =  -24213.40946896 Ry
     hartree contribution      =   12195.43875753 Ry
     xc contribution           =    -485.19967109 Ry
     ewald contribution        =    9564.06407341 Ry
     electric field correction =       0.00156536 Ry

     convergence has been achieved in  66 iterations

     Forces acting on atoms (cartesian axes, Ry/au):

     atom    1 type  1   force =     0.00011272   -0.00019637    0.09585680
     atom    2 type  1   force =     0.00005902   -0.00061146   -0.17551322
     atom    3 type  2   force =     0.00017611   -0.00019572   -0.02305176
     atom    4 type  2   force =     0.00004054   -0.00128665    0.05260795
     atom    5 type  2   force =    -0.00976879   -0.00031535    0.00254034
     atom    6 type  2   force =     0.01165407    0.00022605    0.00292021
     atom    7 type  1   force =     0.00088497    0.00001623   -0.00990596
     atom    8 type  1   force =    -0.00000412    0.00532466    0.01819243
     atom    9 type  2   force =    -0.00001456   -0.00028769   -0.00009603
     atom   10 type  2   force =    -0.00253805    0.00216219   -0.01348904
     atom   11 type  2   force =    -0.00097515    0.00010989    0.00017602
     atom   12 type  2   force =     0.00039860   -0.00025634    0.00049115
     atom   13 type  1   force =     0.00011186   -0.00008853    0.00052966
     atom   14 type  1   force =    -0.00004270   -0.00016667   -0.00015056
     atom   15 type  2   force =    -0.00058404    0.00025953    0.00042004
     atom   16 type  2   force =    -0.00043484    0.00008146    0.00019353
     atom   17 type  2   force =    -0.00017422   -0.00009963   -0.00033166
     atom   18 type  2   force =     0.00029746    0.00021706    0.00008155
     atom   19 type  1   force =    -0.00061990   -0.00059619    0.00072137
     atom   20 type  1   force =    -0.00028264    0.00044632   -0.00074332
     atom   21 type  2   force =     0.00007306   -0.00006327    0.10323423
     atom   22 type  2   force =     0.00006847   -0.00007186   -0.00033828
     atom   23 type  2   force =    -0.07155016   -0.00019414   -0.02754356
     atom   24 type  2   force =     0.07152714    0.00030717   -0.02760211
     atom   25 type  1   force =     0.00013442   -0.00028903    0.09519145
     atom   26 type  1   force =     0.00009143   -0.00046669   -0.17565437
     atom   27 type  2   force =     0.00015821   -0.00011795   -0.02179770
     atom   28 type  2   force =     0.00008156   -0.00106112    0.05248340
     atom   29 type  2   force =    -0.01014853    0.00023243    0.00291598
     atom   30 type  2   force =     0.01196713    0.00051915    0.00329127
     atom   31 type  1   force =     0.00089105    0.00415678   -0.01177835
     atom   32 type  1   force =     0.00011773   -0.00634640    0.01833029
     atom   33 type  2   force =     0.00016378    0.00041572   -0.00009440
     atom   34 type  2   force =    -0.00308443   -0.00010158   -0.00866936
     atom   35 type  2   force =    -0.00021316    0.00006578    0.00000975
     atom   36 type  2   force =    -0.00002781    0.00027971   -0.00006303
     atom   37 type  1   force =     0.00045674   -0.00093863    0.00021100
     atom   38 type  1   force =    -0.00032729    0.00008097    0.00034004
     atom   39 type  2   force =     0.00012613   -0.00029761    0.00050137
     atom   40 type  2   force =    -0.00008461    0.00026262    0.00016272
     atom   41 type  2   force =     0.00004280   -0.00013143   -0.00014013
     atom   42 type  2   force =    -0.00045264    0.00015384   -0.00040760
     atom   43 type  1   force =     0.00022638    0.00051523    0.00008243
     atom   44 type  1   force =    -0.00009287   -0.00114725   -0.00115367
     atom   45 type  2   force =     0.00007962   -0.00006176    0.10318446
     atom   46 type  2   force =    -0.07156264   -0.00009624   -0.02753458
     atom   47 type  2   force =     0.07154883    0.00025563   -0.02760217
     atom   48 type  3   force =     0.00013785    0.00238388   -0.00072984
     atom   49 type  4   force =    -0.00086132   -0.02024001   -0.00174293
     atom   50 type  5   force =     0.00128693    0.00865260    0.00461799
     atom   51 type  5   force =     0.00263055    0.00669019   -0.00336628
     atom   52 type  5   force =    -0.00239325    0.00183170    0.00032219
     atom   53 type  3   force =     0.00069255    0.00007875   -0.00010977

     Total force =     0.365575     Total SCF correction =     0.000703
  @ DRIVER MODE: Message from server: STATUS
  @ DRIVER MODE: Message from server: GETFORCE
  @ DRIVER MODE: Returning v,forces,stress,ensemble

     Writing output data file ./calc.save/
  @ DRIVER MODE: Message from server: EXIT
  @ DRIVE MODE: Exiting

     General routines

     Parallel routines

   This run was terminated on:  15:45:11   2Aug2021

   JOB DONE.