     Program PWSCF v.6.7GPU starts on 23Sep2021 at  5: 9: 3

     R & G space division:  proc/nbgrp/npool/nimage =      10
     Reading input from /storage/home/hcoda1/3/ntian30/research/carbon/CxH_vib/H2O_calc/ads_slab/CHNHNHHO_b/out_0040/pw.inp
Warning: card &CELL ignored
Warning: card   CELL_DYNAMICS='IPI', ignored
Warning: card / ignored

     Current dimensions of program PWSCF are:
     Max number of different atomic species (ntypx) = 10
     Max number of k-points (npk) =  40000
     Max angular momentum in pseudopotentials (lmaxx) =  3
     Presently no symmetry can be used with electric field

     Message from routine cell_base_init:
     DEPRECATED: use true lattice parameter, not A to a.u. conversion factor

     IMPORTANT: XC functional enforced from input :
     Exchange-correlation= BEEF-VDW
                           (   1   4  43  14   2   0   0)
     Any further DFT definition will be discarded
     Please, verify this is what you really want

  @ DRIVER MODE: Connecting to
 qe_1139763_2937316.sched-torque.pace.gatech.educxj1_znl_scratch
  using UNIX socket
  @ DRIVER MODE: Message from server: STATUS
  @ DRIVER MODE: Message from server: INIT
  @ DRIVER MODE: Receiving replica           0          -1
  @ DRIVER MODE: Receiving encoded integer          25
  @ DRIVER MODE:  SCF:  T  FORCE:  T  STRESS:  F  VC:  F  ENSEMBLE:  F
  @ DRIVER MODE:  SCF:  T  FORCE:  T  STRESS:  F  VC:  F  ENSEMBLE:  F

     Using Slab Decomposition

     bravais-lattice index     =            0
     lattice parameter (alat)  =       1.8897  a.u.
     unit-cell volume          =    6658.9804 (a.u.)^3
     number of atoms/cell      =           55
     number of atomic types    =            5
     number of electrons       =       402.00
     number of Kohn-Sham states=          211
     kinetic-energy cutoff     =      29.3995  Ry
     charge density cutoff     =     293.9946  Ry
     scf convergence threshold =      7.3E-08
     mixing beta               =       0.0500
     number of iterations used =            8  plain     mixing
     Exchange-correlation= BEEF-VDW
                           (   1   4  43  14   2   0   0)

     celldm(1)=   1.889726  celldm(2)=   0.000000  celldm(3)=   0.000000
     celldm(4)=   0.000000  celldm(5)=   0.000000  celldm(6)=   0.000000

     crystal axes: (cart. coord. in units of alat)
               a(1) = (   6.579727   0.000000   0.000000 )
               a(2) = (  -0.000775   5.961596   0.000000 )
               a(3) = (   0.000000   0.000000  25.155947 )

     reciprocal axes: (cart. coord. in units 2 pi/alat)
               b(1) = (  0.151982  0.000020  0.000000 )
               b(2) = (  0.000000  0.167740  0.000000 )
               b(3) = (  0.000000  0.000000  0.039752 )

     PseudoPot. # 1 for Ti read from file:
     /storage/coda1/p-amedford6/0/shared/rich_project_chbe-medford/medford-share/data/pseudos_module/espresso/nninc/pbe/van/Ti.UPF
     MD5 check sum: 8e4df49b7f0d34bbd5052bf3f5ea0213
     Pseudo is Ultrasoft, Zval = 12.0
     Generated by new atomic code, or converted to UPF format
     Using radial grid of  851 points,  6 beta functions with:
                l(1) =   0
                l(2) =   0
                l(3) =   1
                l(4) =   1
                l(5) =   2
                l(6) =   2
     Q(r) pseudized with  8 coefficients,  rinner =    1.000   1.000   1.000
                                                       1.000   1.000

     PseudoPot. # 2 for O  read from file:
     /storage/coda1/p-amedford6/0/shared/rich_project_chbe-medford/medford-share/data/pseudos_module/espresso/nninc/pbe/van/O.UPF
     MD5 check sum: 78c19812648e8988a0fe644b0f25305e
     Pseudo is Ultrasoft, Zval =  6.0
     Generated by new atomic code, or converted to UPF format
     Using radial grid of  737 points,  4 beta functions with:
                l(1) =   0
                l(2) =   0
                l(3) =   1
                l(4) =   1
     Q(r) pseudized with  8 coefficients,  rinner =    0.800   0.800   0.800

     PseudoPot. # 3 for N  read from file:
     /storage/coda1/p-amedford6/0/shared/rich_project_chbe-medford/medford-share/data/pseudos_module/espresso/nninc/pbe/van/N.UPF
     MD5 check sum: 90d10febe142ad51ac9d5be1deb811c4
     Pseudo is Ultrasoft, Zval =  5.0
     Generated by new atomic code, or converted to UPF format
     Using radial grid of  729 points,  4 beta functions with:
                l(1) =   0
                l(2) =   0
                l(3) =   1
                l(4) =   1
     Q(r) pseudized with  8 coefficients,  rinner =    0.800   0.800   0.800

     PseudoPot. # 4 for C  read from file:
     /storage/coda1/p-amedford6/0/shared/rich_project_chbe-medford/medford-share/data/pseudos_module/espresso/nninc/pbe/van/C.UPF
     MD5 check sum: 1a69bf6b8db32088f5b2163dbdb77a27
     Pseudo is Ultrasoft, Zval =  4.0
     Generated by new atomic code, or converted to UPF format
     Using radial grid of  721 points,  4 beta functions with:
                l(1) =   0
                l(2) =   0
                l(3) =   1
                l(4) =   1
     Q(r) pseudized with  8 coefficients,  rinner =    0.800   0.800   0.800

     PseudoPot. # 5 for H  read from file:
     /storage/coda1/p-amedford6/0/shared/rich_project_chbe-medford/medford-share/data/pseudos_module/espresso/nninc/pbe/van/H.UPF
     MD5 check sum: b5ee9d7bfd3a09ee7748110bda690ff7
     Pseudo is Ultrasoft, Zval =  1.0
     Generated by new atomic code, or converted to UPF format
     Using radial grid of  615 points,  1 beta functions with:
                l(1) =   0
     Q(r) pseudized with  8 coefficients,  rinner =    0.800

     atomic species   valence    mass     pseudopotential
        Ti1           12.00    47.86700     Ti( 1.00)
        O1             6.00    15.99900     O ( 1.00)
        N1             5.00    14.00700     N ( 1.00)
        C1             4.00    12.01100     C ( 1.00)
        H1             1.00     1.00800     H ( 1.00)

     No symmetry found

   Cartesian axes

     site n.     atom                  positions (alat units)
         1           Ti1 tau(   1) = (   0.0004258   2.9801865   6.0000000  )
         2           Ti1 tau(   2) = (   3.2906075   1.4906267   6.0002472  )
         3           O1  tau(   3) = (   0.0006271   0.0005054   7.9858123  )
         4           O1  tau(   4) = (   3.2906025   0.0005020   7.3038282  )
         5           O1  tau(   5) = (   4.5942328   1.4918067   9.2879030  )
         6           O1  tau(   6) = (   1.9868534   1.4903216   9.2879459  )
         7           Ti1 tau(   7) = (   3.2907910   2.8959150   9.1758416  )
         8           Ti1 tau(   8) = (   0.0015273   1.4827037   9.2680791  )
         9           O1  tau(   9) = (   3.2644249   0.0086278  11.2869930  )
        10           O1  tau(  10) = (   0.0116148   5.9584955  10.6183126  )
        11           O1  tau(  11) = (   1.2700591   1.4733127  12.6309263  )
        12           O1  tau(  12) = (   5.2751843   1.4954020  12.5848179  )
        13           Ti1 tau(  13) = (   6.5455424   3.1153876  12.7101385  )
        14           Ti1 tau(  14) = (   3.2833704   1.6184148  12.4736748  )
        15           O1  tau(  15) = (   6.4599305   0.0050319  14.6091115  )
        16           O1  tau(  16) = (   3.3300269   5.9263713  13.9180617  )
        17           O1  tau(  17) = (   4.5165145   1.5716339  16.0125648  )
        18           O1  tau(  18) = (   1.9127028   1.4417528  15.8564018  )
        19           Ti1 tau(  19) = (   3.2288969   3.0847727  15.7886749  )
        20           Ti1 tau(  20) = (   6.4478006   1.4606891  15.8161894  )
        21           O1  tau(  21) = (   3.2904802   0.0005063   4.7018136  )
        22           O1  tau(  22) = (   6.4882405   0.0114324  17.1415363  )
        23           O1  tau(  23) = (   1.3043587   1.4918075   6.0039043  )
        24           O1  tau(  24) = (   5.2767064   1.4903225   6.0039473  )
        25           Ti1 tau(  25) = (   0.0000382   5.9609847   6.0000000  )
        26           Ti1 tau(  26) = (   3.2902200   4.4714249   6.0002472  )
        27           O1  tau(  27) = (   0.0002396   2.9813036   7.9858123  )
        28           O1  tau(  28) = (   3.2902150   2.9813002   7.3038282  )
        29           O1  tau(  29) = (   4.5938453   4.4726049   9.2879030  )
        30           O1  tau(  30) = (   1.9864658   4.4711199   9.2879459  )
        31           Ti1 tau(  31) = (   3.2891106   5.8743827   9.1763621  )
        32           Ti1 tau(  32) = (   0.0006254   4.4649316   9.2693709  )
        33           O1  tau(  33) = (   3.2692249   2.9538419  11.2423542  )
        34           O1  tau(  34) = (   0.0092240   2.9805883  10.6323155  )
        35           O1  tau(  35) = (   1.2565178   4.4877289  12.6449601  )
        36           O1  tau(  36) = (   5.2732762   4.4628510  12.5929129  )
        37           Ti1 tau(  37) = (   6.5734634   0.1294159  12.5697125  )
        38           Ti1 tau(  38) = (   3.2704022   4.6437612  12.6513646  )
        39           O1  tau(  39) = (   6.5063912   2.9643141  14.6466205  )
        40           O1  tau(  40) = (   3.2471416   2.9787476  13.8564769  )
        41           O1  tau(  41) = (   4.5405411   4.3625105  16.0593999  )
        42           O1  tau(  42) = (   1.9254132   4.5167653  15.8604027  )
        43           Ti1 tau(  43) = (   3.1528194   0.1083906  16.0566338  )
        44           Ti1 tau(  44) = (   6.5270785   4.6226534  15.9816197  )
        45           O1  tau(  45) = (   3.2900926   2.9813045   4.7018136  )
        46           O1  tau(  46) = (   1.3039711   4.4726057   6.0039043  )
        47           O1  tau(  47) = (   5.2763189   4.4711207   6.0039473  )
        48           N1  tau(  48) = (   1.2829970   2.9130689  18.3045482  )
        49           N1  tau(  49) = (   0.1654257   2.9641015  17.4510142  )
        50           C1  tau(  50) = (   2.5260228   2.9473648  17.9488278  )
        51           H1  tau(  51) = (   3.1619500   2.8785295  18.8336233  )
        52           H1  tau(  52) = (   1.0209804   2.8219014  19.2831343  )
        53           H1  tau(  53) = (   5.9303595   2.9248499  18.0583253  )
        54           O1  tau(  54) = (   3.2854906   0.0273217  17.9285145  )
        55           H1  tau(  55) = (   4.1908827   5.7946650  18.2246816  )

     number of k points=    10  Fermi-Dirac smearing, width (Ry)=  0.0073
                       cart. coord. in units 2pi/alat
        k(    1) = (   0.0000000   0.0000000   0.0000000), wk =   0.1250000
        k(    2) = (   0.0000000   0.0419351   0.0000000), wk =   0.2500000
        k(    3) = (   0.0000000  -0.0838702   0.0000000), wk =   0.1250000
        k(    4) = (   0.0379955   0.0000049   0.0000000), wk =   0.2500000
        k(    5) = (   0.0379955   0.0419400   0.0000000), wk =   0.2500000
        k(    6) = (   0.0379955  -0.0838652   0.0000000), wk =   0.2500000
        k(    7) = (   0.0379955  -0.0419301   0.0000000), wk =   0.2500000
        k(    8) = (  -0.0759910  -0.0000099   0.0000000), wk =   0.1250000
        k(    9) = (  -0.0759910   0.0419252   0.0000000), wk =   0.2500000
        k(   10) = (  -0.0759910  -0.0838800   0.0000000), wk =   0.1250000

     Initial potential from superposition of free atoms

     starting charge  385.99915, renormalised to  402.00000

     negative rho (up, down):  1.798E-02 0.000E+00

     %%%%%%%%%%%%%%%%%%%%%%%%%%%%%%%%%%%%%%%%%%%%%%%%%%%%%%%%%%%%%%%%%%%%%%%%
     %                                                                      %
     % You are using vdW-DF, which was implemented by the Thonhauser group. %
     % Please cite the following two papers that made this development      %
     % possible and the two reviews that describe the various versions:     %
     %                                                                      %
     %   T. Thonhauser et al., PRL 115, 136402 (2015).                      %
     %   T. Thonhauser et al., PRB 76, 125112 (2007).                       %
     %   K. Berland et al., Rep. Prog. Phys. 78, 066501 (2015).             %
     %   D.C. Langreth et al., J. Phys.: Condens. Matter 21, 084203 (2009). %
     %                                                                      %
     %                                                                      %
     % If you are calculating the stress with vdW-DF, please also cite:     %
     %                                                                      %
     %   R. Sabatini et al., J. Phys.: Condens. Matter 24, 424209 (2012).   %
     %                                                                      %
     %%%%%%%%%%%%%%%%%%%%%%%%%%%%%%%%%%%%%%%%%%%%%%%%%%%%%%%%%%%%%%%%%%%%%%%%

     Adding external electric field

     Computed dipole along edir(3) :
        Dipole              -10.6951 Ry au,        -27.1842 Debye
        Dipole field         -0.0202 Ry au,

        Potential amp.        1.8709 Ry
        Total length         46.3494 bohr

     Starting wfcs are  304 atomic wfcs
  @ DRIVER MODE: Message from server: STATUS
  @ DRIVER MODE: Message from server: POSDATA
  @ DRIVER MODE: Reading and sharing cell
  @ DRIVER MODE: Reading and sharing positions
  @ DRIVER MODE: Received positions

     Self-consistent Calculation

     iteration #  1     ecut=    29.40 Ry     beta= 0.05
     Davidson diagonalization with overlap
     c_bands:  2 eigenvalues not converged
     c_bands:  4 eigenvalues not converged
     c_bands:  4 eigenvalues not converged
     c_bands:  3 eigenvalues not converged
     c_bands:  3 eigenvalues not converged
     c_bands:  3 eigenvalues not converged
     c_bands:  2 eigenvalues not converged
     c_bands:  4 eigenvalues not converged
     c_bands:  4 eigenvalues not converged
     ethr =  1.00E-05,  avg # of iterations = 21.9

[...]

     total energy              =   -2415.27731587 Ry
     estimated scf accuracy    <    6216.81104713 Ry

     iteration #  2     ecut=    29.40 Ry     beta= 0.05
     Davidson diagonalization with overlap
     ethr =  1.00E-02,  avg # of iterations = 25.4

[...]

     iteration # 32     ecut=    29.40 Ry     beta= 0.05
     Davidson diagonalization with overlap
     c_bands:  1 eigenvalues not converged
     ethr =  9.17E-06,  avg # of iterations =  8.5

[...]

     total energy              =   -2972.68745825 Ry
     estimated scf accuracy    <       0.00000010 Ry

     iteration # 70     ecut=    29.40 Ry     beta= 0.05
     Davidson diagonalization with overlap
     ethr =  2.52E-11,  avg # of iterations =  2.0

     negative rho (up, down):  1.822E-02 0.000E+00

     Adding external electric field

     Computed dipole along edir(3) :
        Dipole                0.6941 Ry au,          1.7643 Debye
        Dipole field          0.0013 Ry au,

        Potential amp.       -0.1214 Ry
        Total length         46.3494 bohr

     End of self-consistent calculation

          k = 0.0000 0.0000 0.0000 ( 18029 PWs)   bands (ev):

   -56.6066 -56.5730 -55.7180 -55.6843 -55.4146 -55.3708 -55.1428 -55.1090
   -54.9710 -54.9629 -54.9314 -54.8929 -54.8129 -54.7851 -54.7823 -54.7091
   -33.0248 -32.8789 -32.8509 -32.7847 -32.6946 -32.6519 -32.2067 -31.9406
   -31.9027 -31.9012 -31.8649 -31.8534 -31.8284 -31.6436 -31.6342 -31.6067
   -31.5719 -31.5273 -31.5142 -31.4912 -31.4669 -31.4667 -31.4484 -31.3787
   -31.3454 -31.2872 -31.2744 -31.2662 -31.2321 -31.2283 -31.1772 -31.1637
   -31.1546 -31.1127 -31.1078 -31.0945 -31.0690 -31.0618 -31.0604 -31.0238
   -31.0081 -31.0052 -30.9979 -30.9859 -30.9425 -30.9214 -30.9165 -30.9021
   -18.0649 -16.7068 -16.1529 -15.9191 -15.7965 -15.7748 -15.7693 -15.7510
   -15.5582 -15.5100 -15.4069 -15.3289 -15.3052 -15.0724 -15.0473 -14.9752
   -14.8433 -14.8084 -14.7248 -14.6987 -14.6894 -14.6086 -14.5942 -14.5083
   -14.4584 -14.4411 -14.3541 -14.2452 -14.1915 -14.0799 -14.0363 -13.6404
   -13.5339 -12.9618  -8.2629  -6.7734  -4.2807  -3.8374  -3.6182  -3.4603
    -3.2995  -3.2670  -3.1175  -3.0864  -3.0405  -3.0110  -2.9530  -2.9367
    -2.8641  -2.8439  -2.7427  -2.7078  -2.6582  -2.6395  -2.4087  -2.3504
    -2.3144  -2.3128  -2.2086  -2.1332  -2.1107  -2.1058  -2.0368  -1.9664
    -1.9088  -1.8627  -1.8450  -1.8241  -1.8000  -1.7008  -1.6152  -1.6028
    -1.5966  -1.5532  -1.4418  -1.4143  -1.3923  -1.3312  -1.2665  -1.2031
    -1.1734  -1.1508  -1.0519  -1.0414  -0.9385  -0.9106  -0.8742  -0.8200
    -0.7413  -0.7151  -0.5950  -0.5845  -0.4772  -0.4702  -0.4429  -0.4372
    -0.3374  -0.2584  -0.2032  -0.1517  -0.1270  -0.1056  -0.0469  -0.0408
    -0.0035   0.0325   0.1079   0.2003   0.2633   0.2984   0.3417   0.4971
     0.5380   0.5679   0.5822   0.6708   0.7141   0.7370   0.7699   0.8477
     0.8749   0.8782   0.9763   1.0150   1.0551   1.0785   1.1383   1.1748
     1.2035   1.3805   1.4128   1.4311   1.4557   1.5305   1.7650   1.7973
     1.9347   2.6881   2.8615   3.1309   3.2874   3.6537   3.6737   3.6922
     3.6933   3.9717   4.1417

[...]

          k = 0.0380-0.0419 0.0000 ( 17876 PWs)   bands (ev):

[...]

          k =-0.0760-0.0000 0.0000 ( 17886 PWs)   bands (ev):

[...]

          k =-0.0760-0.0839 0.0000 ( 17948 PWs)   bands (ev):

   -56.5900 -56.5895 -55.7028 -55.6994 -55.4066 -55.3787 -55.1259 -55.1258
   -54.9691 -54.9585 -54.9297 -54.8972 -54.8102 -54.7859 -54.7847 -54.7117
   -32.8649 -32.8645 -32.8425 -32.8416 -32.7383 -32.7383 -32.0294 -32.0252
   -31.9002 -31.8923 -31.8766 -31.8757 -31.7194 -31.6980 -31.6314 -31.6235
   -31.6052 -31.6001 -31.4798 -31.4797 -31.3850 -31.3450 -31.3446 -31.3064
   -31.3059 -31.2910 -31.2703 -31.2455 -31.2215 -31.2073 -31.1943 -31.1887
   -31.1721 -31.1463 -31.1443 -31.1325 -31.1187 -31.0995 -31.0787 -31.0618
   -31.0497 -31.0398 -31.0259 -31.0143 -31.0095 -30.9611 -30.9215 -30.9101
   -18.0599 -16.0715 -16.0684 -16.0168 -16.0161 -15.7689 -15.7615 -15.6930
   -15.4583 -15.4530 -15.2655 -15.1527 -15.1306 -15.0724 -15.0685 -14.9360
   -14.9164 -14.8982 -14.8101 -14.7589 -14.7273 -14.7051 -14.6422 -14.5716
   -14.4611 -14.4431 -14.4291 -14.3931 -14.3376 -14.2445 -14.2054 -13.6388
   -13.6379 -12.9826  -8.2548  -6.6925  -3.9898  -3.2923  -3.1350  -3.1341
    -3.1334  -3.1121  -2.9082  -2.8926  -2.8845  -2.7140  -2.6205  -2.6148
    -2.6114  -2.4739  -2.4418  -2.4302  -2.4167  -2.3995  -2.3274  -2.3130
    -2.3090  -2.2739  -2.2514  -2.0970  -2.0894  -2.0397  -1.9715  -1.9621
    -1.9397  -1.9058  -1.8410  -1.8036  -1.7989  -1.7812  -1.7638  -1.7437
    -1.6983  -1.6472  -1.4465  -1.3998  -1.3831  -1.3634  -1.3181  -1.3100
    -1.2904  -1.2323  -1.1948  -1.1854  -1.1605  -1.1331  -1.0602  -1.0409
    -0.9952  -0.8624  -0.8142  -0.7866  -0.7506  -0.6574  -0.6179  -0.5895
    -0.5565  -0.4692  -0.4124  -0.3797  -0.3016  -0.2640  -0.2192  -0.1929
    -0.1694  -0.1240  -0.1044   0.0030   0.0589   0.0904   0.1130   0.1986
     0.3281   0.3441   0.3981   0.4468   0.5380   0.5779   0.6559   0.6981
     0.7798   0.8563   0.9306   1.0796   1.1152   1.1713   1.2383   1.2549
     1.2566   1.2854   1.2965   1.3401   1.3613   1.4458   1.5205   1.6796
     1.6994   3.2830   3.2844   3.3421   3.3456   3.6509   3.6571   3.7598
     3.7669   4.0781   4.1283

     the Fermi energy is     2.3650 ev

!    total energy              =   -2972.68747825 Ry
     estimated scf accuracy    <       0.00000005 Ry
     smearing contrib. (-TS)   =      -0.00151816 Ry
     internal energy E=F+TS    =   -2972.68596009 Ry

     The total energy is F=E-TS. E is the sum of the following terms:
     one-electron contribution =  -24519.59113740 Ry
     hartree contribution      =   12356.09673136 Ry
     xc contribution           =    -493.19047957 Ry
     ewald contribution        =    9683.99801627 Ry
     electric field correction =       0.00090925 Ry

     convergence has been achieved in  70 iterations

     Forces acting on atoms (cartesian axes, Ry/au):

     atom    1 type  1   force =     0.00015723   -0.00060761    0.12522960
     atom    2 type  1   force =     0.00002252    0.00002483   -0.15411995
     atom    3 type  2   force =    -0.00002914   -0.00028202   -0.06549952
     atom    4 type  2   force =    -0.00011441    0.00074112    0.01448765
     atom    5 type  2   force =     0.00023207   -0.00325688   -0.01520787
     atom    6 type  2   force =     0.00028104   -0.00242103   -0.01817115
     atom    7 type  1   force =    -0.00129639   -0.00082131    0.06317750
     atom    8 type  1   force =     0.00165040    0.01846809    0.09184124
     atom    9 type  2   force =     0.00018228   -0.00019564   -0.00009288
     atom   10 type  2   force =    -0.00307496    0.00125891   -0.06786684
     atom   11 type  2   force =    -0.00035280   -0.00020734   -0.00022400
     atom   12 type  2   force =    -0.00028621    0.00043133    0.00014114
     atom   13 type  1   force =     0.00102184    0.00024719   -0.00005742
     atom   14 type  1   force =    -0.00050597    0.00058519   -0.00060078
     atom   15 type  2   force =    -0.00002825    0.00058734    0.00016366
     atom   16 type  2   force =     0.00008705    0.00017238   -0.00031978
     atom   17 type  2   force =     0.00005641    0.00054184   -0.00059042
     atom   18 type  2   force =     0.00093736   -0.00066462   -0.00006375
     atom   19 type  1   force =    -0.00036516   -0.00061703   -0.00025670
     atom   20 type  1   force =     0.00039917   -0.00032975   -0.00020437
     atom   21 type  2   force =     0.00008163    0.00004972    0.09748883
     atom   22 type  2   force =    -0.00020320    0.00016766    0.00047018
     atom   23 type  2   force =    -0.08326911    0.00001067   -0.03311425
     atom   24 type  2   force =     0.08318322    0.00045311   -0.03313276
     atom   25 type  1   force =     0.00014970   -0.00036525    0.12545577
     atom   26 type  1   force =    -0.00002172   -0.00122345   -0.15377839
     atom   27 type  2   force =    -0.00002100   -0.00014733   -0.06358766
     atom   28 type  2   force =     0.00000261    0.00070951    0.01024404
     atom   29 type  2   force =    -0.00228170    0.00251186   -0.01350040
     atom   30 type  2   force =     0.00266752    0.00282857   -0.01638337
     atom   31 type  1   force =    -0.00126659   -0.00143274    0.06111242
     atom   32 type  1   force =     0.00158269   -0.01942965    0.09389491
     atom   33 type  2   force =     0.00026141   -0.00000564   -0.00020383
     atom   34 type  2   force =    -0.00075949    0.00124644   -0.07929824
     atom   35 type  2   force =     0.00027513   -0.00003722    0.00008262
     atom   36 type  2   force =    -0.00051691    0.00014806    0.00039914
     atom   37 type  1   force =     0.00094022    0.00012118    0.00034102
     atom   38 type  1   force =    -0.00055849   -0.00022987   -0.00005521
     atom   39 type  2   force =     0.00035602    0.00017854   -0.00003277
     atom   40 type  2   force =    -0.00015547    0.00012462    0.00046434
     atom   41 type  2   force =    -0.00047479    0.00023399   -0.00002518
     atom   42 type  2   force =     0.00058691   -0.00024554    0.00041454
     atom   43 type  1   force =    -0.00116375    0.00018088   -0.00074647
     atom   44 type  1   force =     0.00040805    0.00090028   -0.00026873
     atom   45 type  2   force =     0.00007274    0.00005837    0.09734483
     atom   46 type  2   force =    -0.08321197   -0.00003488   -0.03309870
     atom   47 type  2   force =     0.08316010    0.00038081   -0.03310478
     atom   48 type  3   force =     0.00035141   -0.00008012    0.00017580
     atom   49 type  3   force =     0.00048406   -0.00010657    0.00041744
     atom   50 type  4   force =     0.00039786   -0.00019095    0.00006590
     atom   51 type  5   force =    -0.00022534   -0.00022766   -0.00033562
     atom   52 type  5   force =     0.00017305   -0.00016785   -0.00056235
     atom   53 type  5   force =    -0.00030213   -0.00028475    0.00030508
     atom   54 type  2   force =     0.00345215   -0.00140869    0.00198324
     atom   55 type  5   force =    -0.00312891    0.00165888   -0.00119674

     Total force =     0.419820     Total SCF correction =     0.000718
  @ DRIVER MODE: Message from server: STATUS
  @ DRIVER MODE: Message from server: GETFORCE
  @ DRIVER MODE: Returning v,forces,stress,ensemble

     Writing output data file ./calc.save/
  @ DRIVER MODE: Message from server: EXIT
  @ DRIVE MODE: Exiting

     General routines

     Parallel routines

   This run was terminated on:   5:28:53  23Sep2021

   JOB DONE.