     Program PWSCF v.6.7GPU starts on  2Aug2021 at 18:47:41

     R & G space division:  proc/nbgrp/npool/nimage =      16
     Reading input from /storage/home/hcoda1/3/ntian30/research/carbon/02Aug_vib_paired/ads_slab/CH3NNHHH_a/out_0024/pw.inp
Warning: card &CELL ignored
Warning: card   CELL_DYNAMICS='IPI', ignored
Warning: card / ignored

     Current dimensions of program PWSCF are:
     Max number of different atomic species (ntypx) = 10
     Max number of k-points (npk) =  40000
     Max angular momentum in pseudopotentials (lmaxx) =  3
     Presently no symmetry can be used with electric field

     Message from routine cell_base_init:
     DEPRECATED: use true lattice parameter, not A to a.u. conversion factor

     IMPORTANT: XC functional enforced from input :
     Exchange-correlation= BEEF-VDW
                           (   1   4  43  14   2   0   0)
     Any further DFT definition will be discarded
     Please, verify this is what you really want

  @ DRIVER MODE: Connecting to
 qe_1139763_2482545.sched-torque.pace.gatech.edu8dzneb9e_scratch
  using UNIX socket
  @ DRIVER MODE: Message from server: STATUS
  @ DRIVER MODE: Message from server: INIT
  @ DRIVER MODE: Receiving replica           0          -1
  @ DRIVER MODE: Receiving encoded integer          25
  @ DRIVER MODE:  SCF:  T  FORCE:  T  STRESS:  F  VC:  F  ENSEMBLE:  F
  @ DRIVER MODE:  SCF:  T  FORCE:  T  STRESS:  F  VC:  F  ENSEMBLE:  F

     Using Slab Decomposition

     bravais-lattice index     =            0
     lattice parameter (alat)  =       1.8897  a.u.
     unit-cell volume          =    6658.9804 (a.u.)^3
     number of atoms/cell      =           56
     number of atomic types    =            5
     number of electrons       =       398.00
     number of Kohn-Sham states=          209
     kinetic-energy cutoff     =      29.3995  Ry
     charge density cutoff     =     293.9946  Ry
     scf convergence threshold =      7.3E-08
     mixing beta               =       0.0500
     number of iterations used =            8  plain     mixing
     Exchange-correlation= BEEF-VDW
                           (   1   4  43  14   2   0   0)

     celldm(1)=   1.889726  celldm(2)=   0.000000  celldm(3)=   0.000000
     celldm(4)=   0.000000  celldm(5)=   0.000000  celldm(6)=   0.000000

     crystal axes: (cart. coord. in units of alat)
               a(1) = (   6.579727   0.000000   0.000000 )
               a(2) = (  -0.000775   5.961596   0.000000 )
               a(3) = (   0.000000   0.000000  25.155947 )

     reciprocal axes: (cart. coord. in units 2 pi/alat)
               b(1) = (  0.151982  0.000020  0.000000 )
               b(2) = (  0.000000  0.167740  0.000000 )
               b(3) = (  0.000000  0.000000  0.039752 )

     PseudoPot. # 1 for Ti read from file:
     /storage/coda1/p-amedford6/0/shared/rich_project_chbe-medford/medford-share/data/pseudos_module/espresso/nninc/pbe/van/Ti.UPF
     MD5 check sum: 8e4df49b7f0d34bbd5052bf3f5ea0213
     Pseudo is Ultrasoft, Zval = 12.0
     Generated by new atomic code, or converted to UPF format
     Using radial grid of  851 points,  6 beta functions with:
                l(1) =   0
                l(2) =   0
                l(3) =   1
                l(4) =   1
                l(5) =   2
                l(6) =   2
     Q(r) pseudized with  8 coefficients,  rinner =    1.000   1.000   1.000
                                                       1.000   1.000

     PseudoPot. # 2 for O  read from file:
     /storage/coda1/p-amedford6/0/shared/rich_project_chbe-medford/medford-share/data/pseudos_module/espresso/nninc/pbe/van/O.UPF
     MD5 check sum: 78c19812648e8988a0fe644b0f25305e
     Pseudo is Ultrasoft, Zval =  6.0
     Generated by new atomic code, or converted to UPF format
     Using radial grid of  737 points,  4 beta functions with:
                l(1) =   0
                l(2) =   0
                l(3) =   1
                l(4) =   1
     Q(r) pseudized with  8 coefficients,  rinner =    0.800   0.800   0.800

     PseudoPot. # 3 for N  read from file:
     /storage/coda1/p-amedford6/0/shared/rich_project_chbe-medford/medford-share/data/pseudos_module/espresso/nninc/pbe/van/N.UPF
     MD5 check sum: 90d10febe142ad51ac9d5be1deb811c4
     Pseudo is Ultrasoft, Zval =  5.0
     Generated by new atomic code, or converted to UPF format
     Using radial grid of  729 points,  4 beta functions with:
                l(1) =   0
                l(2) =   0
                l(3) =   1
                l(4) =   1
     Q(r) pseudized with  8 coefficients,  rinner =    0.800   0.800   0.800

     PseudoPot. # 4 for C  read from file:
     /storage/coda1/p-amedford6/0/shared/rich_project_chbe-medford/medford-share/data/pseudos_module/espresso/nninc/pbe/van/C.UPF
     MD5 check sum: 1a69bf6b8db32088f5b2163dbdb77a27
     Pseudo is Ultrasoft, Zval =  4.0
     Generated by new atomic code, or converted to UPF format
     Using radial grid of  721 points,  4 beta functions with:
                l(1) =   0
                l(2) =   0
                l(3) =   1
                l(4) =   1
     Q(r) pseudized with  8 coefficients,  rinner =    0.800   0.800   0.800

     PseudoPot. # 5 for H  read from file:
     /storage/coda1/p-amedford6/0/shared/rich_project_chbe-medford/medford-share/data/pseudos_module/espresso/nninc/pbe/van/H.UPF
     MD5 check sum: b5ee9d7bfd3a09ee7748110bda690ff7
     Pseudo is Ultrasoft, Zval =  1.0
     Generated by new atomic code, or converted to UPF format
     Using radial grid of  615 points,  1 beta functions with:
                l(1) =   0
     Q(r) pseudized with  8 coefficients,  rinner =    0.800

     atomic species   valence    mass     pseudopotential
        Ti1           12.00    47.86700     Ti( 1.00)
        O1             6.00    15.99900     O ( 1.00)
        N1             5.00    14.00700     N ( 1.00)
        C1             4.00    12.01100     C ( 1.00)
        H1             1.00     1.00800     H ( 1.00)

     No symmetry found

   Cartesian axes

     site n.     atom                  positions (alat units)
         1           Ti1 tau(   1) = (   0.0004258   2.9801865   6.0000000  )
         2           Ti1 tau(   2) = (   3.2906075   1.4906267   6.0002472  )
         3           O1  tau(   3) = (   0.0006271   0.0005054   7.9858123  )
         4           O1  tau(   4) = (   3.2906025   0.0005020   7.3038282  )
         5           O1  tau(   5) = (   4.5942328   1.4918067   9.2879030  )
         6           O1  tau(   6) = (   1.9868534   1.4903216   9.2879459  )
         7           Ti1 tau(   7) = (   3.2907910   2.8959150   9.1758416  )
         8           Ti1 tau(   8) = (   0.0015273   1.4827037   9.2680791  )
         9           O1  tau(   9) = (   3.2969863   5.9453513  11.3493076  )
        10           O1  tau(  10) = (   0.0116148   5.9584955  10.6183126  )
        11           O1  tau(  11) = (   1.3059050   1.4736943  12.6642453  )
        12           O1  tau(  12) = (   5.3003793   1.4775083  12.6459419  )
        13           Ti1 tau(  13) = (   0.0167275   2.9625105  12.5508078  )
        14           Ti1 tau(  14) = (   3.3131340   1.4712512  12.4909780  )
        15           O1  tau(  15) = (   6.5517612   5.9325698  14.7566896  )
        16           O1  tau(  16) = (   3.3302114   5.9429442  13.9823395  )
        17           O1  tau(  17) = (   4.5243935   1.5056208  16.2316672  )
        18           O1  tau(  18) = (   2.0170937   1.4633510  16.1378485  )
        19           Ti1 tau(  19) = (   3.2500237   2.9242626  15.6920970  )
        20           Ti1 tau(  20) = (   6.5441017   1.2779805  16.1516014  )
        21           O1  tau(  21) = (   3.2904802   0.0005063   4.7018136  )
        22           O1  tau(  22) = (   6.5540411   5.9581837  17.3465722  )
        23           O1  tau(  23) = (   1.3043587   1.4918075   6.0039043  )
        24           O1  tau(  24) = (   5.2767064   1.4903225   6.0039473  )
        25           Ti1 tau(  25) = (   0.0000382   5.9609847   6.0000000  )
        26           Ti1 tau(  26) = (   3.2902200   4.4714249   6.0002472  )
        27           O1  tau(  27) = (   0.0002396   2.9813036   7.9858123  )
        28           O1  tau(  28) = (   3.2902150   2.9813002   7.3038282  )
        29           O1  tau(  29) = (   4.5938453   4.4726049   9.2879030  )
        30           O1  tau(  30) = (   1.9864658   4.4711199   9.2879459  )
        31           Ti1 tau(  31) = (   3.2891106   5.8743827   9.1763621  )
        32           Ti1 tau(  32) = (   0.0006254   4.4649316   9.2693709  )
        33           O1  tau(  33) = (   3.2962403   2.9651072  11.3429128  )
        34           O1  tau(  34) = (   0.0092240   2.9805883  10.6323155  )
        35           O1  tau(  35) = (   1.3076126   4.4641214  12.6643835  )
        36           O1  tau(  36) = (   5.2981430   4.4591552  12.6429889  )
        37           Ti1 tau(  37) = (   0.0194730   5.9489450  12.5196332  )
        38           Ti1 tau(  38) = (   3.3150505   4.4522436  12.4946186  )
        39           O1  tau(  39) = (   6.5702761   2.9869041  14.8038460  )
        40           O1  tau(  40) = (   3.3119818   2.9576719  13.9204832  )
        41           O1  tau(  41) = (   4.5223198   4.3950437  16.2490866  )
        42           O1  tau(  42) = (   2.0356696   4.4339808  16.1311045  )
        43           Ti1 tau(  43) = (   3.3057863   5.9493229  15.7677403  )
        44           Ti1 tau(  44) = (   0.0958844   4.4293496  15.8701971  )
        45           O1  tau(  45) = (   3.2900926   2.9813045   4.7018136  )
        46           O1  tau(  46) = (   1.3039711   4.4726057   6.0039043  )
        47           O1  tau(  47) = (   5.2763189   4.4711207   6.0039473  )
        48           N1  tau(  48) = (   0.0620580   3.0375546  17.6897758  )
        49           C1  tau(  49) = (   1.1116374   2.9693208  18.6984743  )
        50           H1  tau(  50) = (   1.2951007   3.9532040  19.1583453  )
        51           H1  tau(  51) = (   0.8627774   2.2426413  19.4971689  )
        52           H1  tau(  52) = (   2.0263963   2.6228967  18.2308865  )
        53           N1  tau(  53) = (   5.4279256   3.3744730  18.4033390  )
        54           H1  tau(  54) = (   5.6103604   4.1199394  19.0852601  )
        55           H1  tau(  55) = (   4.7934260   3.8076565  17.6395878  )
        56           H1  tau(  56) = (   5.0090149   2.5598412  18.8678436  )

     number of k points=    10  Fermi-Dirac smearing, width (Ry)=  0.0073
                       cart. coord. in units 2pi/alat
        k(    1) = (   0.0000000   0.0000000   0.0000000), wk =   0.1250000
        k(    2) = (   0.0000000   0.0419351   0.0000000), wk =   0.2500000
        k(    3) = (   0.0000000  -0.0838702   0.0000000), wk =   0.1250000
        k(    4) = (   0.0379955   0.0000049   0.0000000), wk =   0.2500000
        k(    5) = (   0.0379955   0.0419400   0.0000000), wk =   0.2500000
        k(    6) = (   0.0379955  -0.0838652   0.0000000), wk =   0.2500000
        k(    7) = (   0.0379955  -0.0419301   0.0000000), wk =   0.2500000
        k(    8) = (  -0.0759910  -0.0000099   0.0000000), wk =   0.1250000
        k(    9) = (  -0.0759910   0.0419252   0.0000000), wk =   0.2500000
        k(   10) = (  -0.0759910  -0.0838800   0.0000000), wk =   0.1250000

     Initial potential from superposition of free atoms

     starting charge  381.99914, renormalised to  398.00000

     negative rho (up, down):  1.616E-02 0.000E+00

     %%%%%%%%%%%%%%%%%%%%%%%%%%%%%%%%%%%%%%%%%%%%%%%%%%%%%%%%%%%%%%%%%%%%%%%%
     %                                                                      %
     % You are using vdW-DF, which was implemented by the Thonhauser group. %
     % Please cite the following two papers that made this development      %
     % possible and the two reviews that describe the various versions:     %
     %                                                                      %
     %   T. Thonhauser et al., PRL 115, 136402 (2015).                      %
     %   T. Thonhauser et al., PRB 76, 125112 (2007).                       %
     %   K. Berland et al., Rep. Prog. Phys. 78, 066501 (2015).             %
     %   D.C. Langreth et al., J. Phys.: Condens. Matter 21, 084203 (2009). %
     %                                                                      %
     %                                                                      %
     % If you are calculating the stress with vdW-DF, please also cite:     %
     %                                                                      %
     %   R. Sabatini et al., J. Phys.: Condens. Matter 24, 424209 (2012).   %
     %                                                                      %
     %%%%%%%%%%%%%%%%%%%%%%%%%%%%%%%%%%%%%%%%%%%%%%%%%%%%%%%%%%%%%%%%%%%%%%%%

     Adding external electric field

     Computed dipole along edir(3) :
        Dipole              -10.5737 Ry au,        -26.8756 Debye
        Dipole field         -0.0200 Ry au,

        Potential amp.        1.8497 Ry
        Total length         46.3494 bohr

     Starting wfcs are  302 atomic wfcs
  @ DRIVER MODE: Message from server: STATUS
  @ DRIVER MODE: Message from server: POSDATA
  @ DRIVER MODE: Reading and sharing cell
  @ DRIVER MODE: Reading and sharing positions
  @ DRIVER MODE: Received positions

     Self-consistent Calculation

     iteration #  1     ecut=    29.40 Ry     beta= 0.05
     Davidson diagonalization with overlap
     c_bands:  3 eigenvalues not converged
     c_bands:  3 eigenvalues not converged
     c_bands:  1 eigenvalues not converged
     c_bands:  5 eigenvalues not converged
     c_bands:  5 eigenvalues not converged
     c_bands:  5 eigenvalues not converged
     c_bands:  1 eigenvalues not converged
     c_bands:  4 eigenvalues not converged
     c_bands:  3 eigenvalues not converged
     ethr =  1.00E-05,  avg # of iterations = 20.0

[...]

     total energy              =   -2442.76611993 Ry
     estimated scf accuracy    <    5591.53924959 Ry

     iteration #  2     ecut=    29.40 Ry     beta= 0.05
     Davidson diagonalization with overlap
     ethr =  1.00E-02,  avg # of iterations = 25.3

[...]

     iteration # 69     ecut=    29.40 Ry     beta= 0.05
     Davidson diagonalization with overlap
     c_bands:  1 eigenvalues not converged
     c_bands:  2 eigenvalues not converged
     ethr =  3.66E-11,  avg # of iterations = 16.2

[...]

     total energy              =   -2942.82503762 Ry
     estimated scf accuracy    <       0.00000022 Ry

     iteration # 70     ecut=    29.40 Ry     beta= 0.05
     Davidson diagonalization with overlap
     ethr =  3.66E-11,  avg # of iterations =  8.9

     negative rho (up, down):  1.413E-02 0.000E+00

     Adding external electric field

     Computed dipole along edir(3) :
        Dipole                1.6021 Ry au,          4.0721 Debye
        Dipole field          0.0030 Ry au,

        Potential amp.       -0.2803 Ry
        Total length         46.3494 bohr

     End of self-consistent calculation

          k = 0.0000 0.0000 0.0000 ( 18029 PWs)   bands (ev):

   -55.1439 -55.1073 -55.1051 -55.0710 -55.0263 -55.0111 -54.9882 -54.9454
   -54.9328 -54.9245 -54.9102 -54.8999 -54.8646 -54.7928 -54.1172 -54.0831
   -31.7238 -31.5948 -31.5126 -31.4807 -31.4361 -31.4352 -31.4329 -31.4027
   -31.3987 -31.3951 -31.3684 -31.3536 -31.3500 -31.3215 -31.3037 -31.2785
   -31.2619 -31.2579 -31.2478 -31.2426 -31.2163 -31.2105 -31.2035 -31.1768
   -31.1621 -31.1556 -31.1484 -31.1411 -31.1409 -31.1296 -31.1275 -31.1213
   -31.1043 -31.0955 -31.0898 -31.0633 -31.0606 -31.0485 -31.0416 -31.0356
   -31.0245 -30.9825 -30.5257 -30.4337 -30.4115 -30.3423 -30.2556 -30.1445
   -18.9355 -16.0076 -15.7526 -15.6176 -15.3830 -15.3311 -15.2746 -15.0673
   -15.0656 -14.9934 -14.9786 -14.9303 -14.9108 -14.8436 -14.7590 -14.7379
   -14.6704 -14.6689 -14.6388 -14.6276 -14.6269 -14.5642 -14.5543 -14.5250
   -14.5120 -14.4866 -14.3685 -14.2842 -14.2257 -13.9727 -13.5916 -12.6199
   -12.5028  -9.7363  -7.7175  -7.2117  -5.4560  -3.7857  -3.3451  -3.2759
    -3.1694  -3.1414  -3.0644  -3.0350  -2.8502  -2.8289  -2.4876  -2.4507
    -2.4014  -2.3834  -2.3621  -2.3447  -2.1763  -2.1506  -2.0777  -2.0441
    -2.0258  -1.9857  -1.9693  -1.9591  -1.9254  -1.9198  -1.9107  -1.7034
    -1.6469  -1.5517  -1.5296  -1.5055  -1.4704  -1.4342  -1.4258  -1.4228
    -1.4169  -1.4033  -1.3905  -1.3105  -1.2508  -1.1711  -1.1615  -1.1260
    -1.0223  -0.9758  -0.7744  -0.7608  -0.7153  -0.6731  -0.6104  -0.5889
    -0.5226  -0.4919  -0.4718  -0.3506  -0.3220  -0.2818  -0.2538  -0.1870
    -0.1556  -0.1113  -0.0261   0.0449   0.0795   0.0980   0.1576   0.2880
     0.2988   0.3278   0.3892   0.4525   0.4936   0.5136   0.5321   0.5693
     0.6184   0.7439   0.7889   0.8085   0.8127   0.8467   0.8700   0.9213
     0.9460   1.0054   1.0110   1.1301   1.1993   1.4289   1.4626   1.4854
     1.8176   1.8412   1.9053   2.0913   2.4793   2.5266   3.9606   4.0212
     4.0782   4.0949   4.1138   4.2024   4.2220   4.4234   4.4507   4.4546
     4.4575

[...]

          k = 0.0380-0.0419 0.0000 ( 17876 PWs)   bands (ev):

[...]

          k =-0.0760-0.0000 0.0000 ( 17886 PWs)   bands (ev):

[...]

          k =-0.0760-0.0839 0.0000 ( 17948 PWs)   bands (ev):

   -55.1284 -55.1226 -55.0880 -55.0879 -55.0157 -55.0075 -54.9988 -54.9292
   -54.9279 -54.9252 -54.9175 -54.9161 -54.8609 -54.7964 -54.1002 -54.1000
   -31.5275 -31.5245 -31.4475 -31.4258 -31.4100 -31.4099 -31.3805 -31.3804
   -31.3548 -31.3491 -31.3462 -31.3457 -31.3110 -31.2767 -31.2702 -31.2658
   -31.2645 -31.2605 -31.2585 -31.2522 -31.2211 -31.2174 -31.2149 -31.2122
   -31.2074 -31.2073 -31.1936 -31.1916 -31.1639 -31.1593 -31.1438 -31.1398
   -31.1374 -31.1368 -31.1351 -31.1272 -31.1024 -31.0985 -31.0957 -31.0728
   -31.0472 -31.0298 -30.4243 -30.4241 -30.3384 -30.3382 -30.2990 -30.2990
   -18.9307 -15.5145 -15.4048 -15.2964 -15.2309 -15.1888 -15.1371 -15.1199
   -15.1095 -15.0637 -15.0341 -14.9651 -14.9011 -14.8484 -14.8474 -14.8124
   -14.7343 -14.7204 -14.7134 -14.7028 -14.6463 -14.6396 -14.6080 -14.5872
   -14.5841 -14.5542 -14.4805 -14.4781 -14.3906 -14.1807 -13.6273 -12.6044
   -12.6043  -9.7055  -7.7141  -7.1573  -5.4595  -3.8078  -3.4298  -2.7634
    -2.6524  -2.4416  -2.4157  -2.3559  -2.3358  -2.2514  -2.1895  -2.1679
    -2.1446  -2.1106  -2.1078  -2.0836  -2.0619  -2.0081  -1.9794  -1.9682
    -1.9623  -1.9473  -1.9348  -1.9144  -1.8581  -1.8480  -1.8407  -1.7982
    -1.7871  -1.7555  -1.7492  -1.7104  -1.6935  -1.6177  -1.5248  -1.5003
    -1.4409  -1.3394  -1.3263  -1.3206  -1.2272  -1.2188  -1.1894  -1.1585
    -1.1031  -1.0036  -0.9486  -0.8735  -0.8702  -0.8397  -0.7524  -0.6894
    -0.6553  -0.6454  -0.6059  -0.5489  -0.5258  -0.4929  -0.4098  -0.3686
    -0.3414  -0.3074  -0.2121  -0.1511  -0.1278  -0.0967  -0.0932  -0.0039
     0.0292   0.0660   0.0867   0.1250   0.1515   0.2178   0.2390   0.3490
     0.4196   0.4496   0.5683   0.5921   0.6564   0.7884   0.8598   0.9009
     0.9547   1.0115   1.0383   1.1686   1.1758   1.2013   1.2944   1.3346
     1.3416   1.3547   2.2641   2.2651   2.3466   2.3468   4.0927   4.1794
     4.2226   4.2601   4.3678   4.4772   4.4957   4.5386   4.5392   4.6383
     4.6487

     the Fermi energy is     4.0129 ev

!    total energy              =   -2942.82506245 Ry
     estimated scf accuracy    <       0.00000004 Ry
     smearing contrib. (-TS)   =      -0.03686583 Ry
     internal energy E=F+TS    =   -2942.78819662 Ry

     The total energy is F=E-TS. E is the sum of the following terms:
     one-electron contribution =  -23971.56699024 Ry
     hartree contribution      =   12081.25621360 Ry
     xc contribution           =    -487.76589691 Ry
     ewald contribution        =    9435.28363319 Ry
     electric field correction =       0.00484374 Ry

     convergence has been achieved in  70 iterations

     Forces acting on atoms (cartesian axes, Ry/au):

     atom    1 type  1   force =     0.00014686   -0.00024001    0.09429342
     atom    2 type  1   force =    -0.00009850   -0.00033050   -0.17740357
     atom    3 type  2   force =     0.00005881   -0.00016876   -0.02134309
     atom    4 type  2   force =    -0.00001484   -0.00172290    0.05656729
     atom    5 type  2   force =    -0.01055931   -0.00127590    0.00624185
     atom    6 type  2   force =     0.01222293   -0.00074133    0.00571543
     atom    7 type  1   force =    -0.00033925    0.00172603   -0.01622557
     atom    8 type  1   force =    -0.00010730    0.00439144    0.00559800
     atom    9 type  2   force =     0.00000859   -0.00004084   -0.00003704
     atom   10 type  2   force =    -0.00074268   -0.00022293   -0.00045938
     atom   11 type  2   force =     0.00035005    0.00012481   -0.00020537
     atom   12 type  2   force =    -0.00052870    0.00000284   -0.00013843
     atom   13 type  1   force =     0.00002372   -0.00033364    0.00018794
     atom   14 type  1   force =     0.00057058    0.00011314   -0.00029417
     atom   15 type  2   force =    -0.00039193    0.00020090   -0.00024439
     atom   16 type  2   force =    -0.00033580    0.00019931   -0.00007443
     atom   17 type  2   force =    -0.00027228    0.00006246    0.00030689
     atom   18 type  2   force =     0.00020500    0.00032056   -0.00018504
     atom   19 type  1   force =     0.00018686    0.00009832    0.00013773
     atom   20 type  1   force =     0.00008997    0.00037386   -0.00010032
     atom   21 type  2   force =     0.00003627    0.00003999    0.10359671
     atom   22 type  2   force =    -0.00005075   -0.00073828   -0.00067305
     atom   23 type  2   force =    -0.07079757   -0.00010633   -0.02718510
     atom   24 type  2   force =     0.07066170    0.00033553   -0.02721712
     atom   25 type  1   force =    -0.00009033   -0.00020745    0.09376271
     atom   26 type  1   force =    -0.00013209   -0.00032201   -0.17730596
     atom   27 type  2   force =     0.00008872   -0.00035155   -0.02045645
     atom   28 type  2   force =     0.00003148   -0.00143787    0.05587664
     atom   29 type  2   force =    -0.01091809   -0.00073490    0.00609134
     atom   30 type  2   force =     0.01246888   -0.00029294    0.00556824
     atom   31 type  1   force =    -0.00016045    0.00465599   -0.01720197
     atom   32 type  1   force =    -0.00003531   -0.00482393    0.00559936
     atom   33 type  2   force =     0.00005776    0.00012486    0.00027206
     atom   34 type  2   force =     0.00005847   -0.00084537   -0.00297892
     atom   35 type  2   force =     0.00023660    0.00003246    0.00006254
     atom   36 type  2   force =    -0.00043597    0.00015459   -0.00007850
     atom   37 type  1   force =    -0.00013120   -0.00011698   -0.00008874
     atom   38 type  1   force =     0.00044942   -0.00028518    0.00039878
     atom   39 type  2   force =    -0.00045158    0.00010543    0.00065890
     atom   40 type  2   force =    -0.00012272    0.00018992   -0.00023165
     atom   41 type  2   force =     0.00000229    0.00034291    0.00001239
     atom   42 type  2   force =    -0.00000400    0.00022618   -0.00014470
     atom   43 type  1   force =    -0.00039961    0.00054661    0.00013077
     atom   44 type  1   force =    -0.00020931    0.00043423   -0.00008593
     atom   45 type  2   force =     0.00002786    0.00000647    0.10360867
     atom   46 type  2   force =    -0.07079938   -0.00003942   -0.02718862
     atom   47 type  2   force =     0.07066476    0.00038237   -0.02719553
     atom   48 type  3   force =     0.00040872   -0.00143778    0.00111733
     atom   49 type  4   force =    -0.00184695   -0.00355943    0.00517213
     atom   50 type  5   force =     0.00011539    0.00025168   -0.00029061
     atom   51 type  5   force =     0.00120366    0.00409040   -0.00657360
     atom   52 type  5   force =    -0.00048932   -0.00038574    0.00051012
     atom   53 type  3   force =     0.00019089    0.00098154    0.00099119
     atom   54 type  5   force =     0.00014011    0.00005317   -0.00016439
     atom   55 type  5   force =    -0.00000440    0.00006176   -0.00055411
     atom   56 type  5   force =    -0.00023671    0.00013219   -0.00015267

     Total force =     0.365685     Total SCF correction =     0.000403
  @ DRIVER MODE: Message from server: STATUS
  @ DRIVER MODE: Message from server: GETFORCE
  @ DRIVER MODE: Returning v,forces,stress,ensemble

     Writing output data file ./calc.save/
  @ DRIVER MODE: Message from server: EXIT
  @ DRIVE MODE: Exiting

     General routines

     Parallel routines

   This run was terminated on:  19: 2:22   2Aug2021

   JOB DONE.