     Program PWSCF v.6.7GPU starts on 16Sep2021 at  3:11:36

     R & G space division:  proc/nbgrp/npool/nimage =      10
     Reading input from /storage/home/hcoda1/3/ntian30/research/carbon/CxH_vib/H2O_calc/ads_slab/CH2N2H2O_b/out_0035/pw.inp
Warning: card &CELL ignored
Warning: card   CELL_DYNAMICS='IPI', ignored
Warning: card / ignored

     Current dimensions of program PWSCF are:
     Max number of different atomic species (ntypx) = 10
     Max number of k-points (npk) =  40000
     Max angular momentum in pseudopotentials (lmaxx) =  3
     Presently no symmetry can be used with electric field

     Message from routine cell_base_init:
     DEPRECATED: use true lattice parameter, not A to a.u. conversion factor

     IMPORTANT: XC functional enforced from input :
     Exchange-correlation= BEEF-VDW
                           (   1   4  43  14   2   0   0)
     Any further DFT definition will be discarded
     Please, verify this is what you really want

  @ DRIVER MODE: Connecting to
 qe_1139763_2852605.sched-torque.pace.gatech.edu0tmz3e4t_scratch
  using UNIX socket
  @ DRIVER MODE: Message from server: STATUS
  @ DRIVER MODE: Message from server: INIT
  @ DRIVER MODE: Receiving replica           0          -1
  @ DRIVER MODE: Receiving encoded integer          25
  @ DRIVER MODE:  SCF:  T  FORCE:  T  STRESS:  F  VC:  F  ENSEMBLE:  F
  @ DRIVER MODE:  SCF:  T  FORCE:  T  STRESS:  F  VC:  F  ENSEMBLE:  F

     Using Slab Decomposition

     bravais-lattice index     =            0
     lattice parameter (alat)  =       1.8897  a.u.
     unit-cell volume          =    6658.9804 (a.u.)^3
     number of atoms/cell      =           55
     number of atomic types    =            5
     number of electrons       =       402.00
     number of Kohn-Sham states=          211
     kinetic-energy cutoff     =      29.3995  Ry
     charge density cutoff     =     293.9946  Ry
     scf convergence threshold =      7.3E-08
     mixing beta               =       0.0500
     number of iterations used =            8  plain     mixing
     Exchange-correlation= BEEF-VDW
                           (   1   4  43  14   2   0   0)

     celldm(1)=   1.889726  celldm(2)=   0.000000  celldm(3)=   0.000000
     celldm(4)=   0.000000  celldm(5)=   0.000000  celldm(6)=   0.000000

     crystal axes: (cart. coord. in units of alat)
               a(1) = (   6.579727   0.000000   0.000000 )
               a(2) = (  -0.000775   5.961596   0.000000 )
               a(3) = (   0.000000   0.000000  25.155947 )

     reciprocal axes: (cart. coord. in units 2 pi/alat)
               b(1) = (  0.151982  0.000020  0.000000 )
               b(2) = (  0.000000  0.167740  0.000000 )
               b(3) = (  0.000000  0.000000  0.039752 )

     PseudoPot. # 1 for Ti read from file:
     /storage/coda1/p-amedford6/0/shared/rich_project_chbe-medford/medford-share/data/pseudos_module/espresso/nninc/pbe/van/Ti.UPF
     MD5 check sum: 8e4df49b7f0d34bbd5052bf3f5ea0213
     Pseudo is Ultrasoft, Zval = 12.0
     Generated by new atomic code, or converted to UPF format
     Using radial grid of  851 points,  6 beta functions with:
                l(1) =   0
                l(2) =   0
                l(3) =   1
                l(4) =   1
                l(5) =   2
                l(6) =   2
     Q(r) pseudized with  8 coefficients,  rinner =    1.000   1.000   1.000
                                                       1.000   1.000

     PseudoPot. # 2 for O  read from file:
     /storage/coda1/p-amedford6/0/shared/rich_project_chbe-medford/medford-share/data/pseudos_module/espresso/nninc/pbe/van/O.UPF
     MD5 check sum: 78c19812648e8988a0fe644b0f25305e
     Pseudo is Ultrasoft, Zval =  6.0
     Generated by new atomic code, or converted to UPF format
     Using radial grid of  737 points,  4 beta functions with:
                l(1) =   0
                l(2) =   0
                l(3) =   1
                l(4) =   1
     Q(r) pseudized with  8 coefficients,  rinner =    0.800   0.800   0.800

     PseudoPot. # 3 for N  read from file:
     /storage/coda1/p-amedford6/0/shared/rich_project_chbe-medford/medford-share/data/pseudos_module/espresso/nninc/pbe/van/N.UPF
     MD5 check sum: 90d10febe142ad51ac9d5be1deb811c4
     Pseudo is Ultrasoft, Zval =  5.0
     Generated by new atomic code, or converted to UPF format
     Using radial grid of  729 points,  4 beta functions with:
                l(1) =   0
                l(2) =   0
                l(3) =   1
                l(4) =   1
     Q(r) pseudized with  8 coefficients,  rinner =    0.800   0.800   0.800

     PseudoPot. # 4 for C  read from file:
     /storage/coda1/p-amedford6/0/shared/rich_project_chbe-medford/medford-share/data/pseudos_module/espresso/nninc/pbe/van/C.UPF
     MD5 check sum: 1a69bf6b8db32088f5b2163dbdb77a27
     Pseudo is Ultrasoft, Zval =  4.0
     Generated by new atomic code, or converted to UPF format
     Using radial grid of  721 points,  4 beta functions with:
                l(1) =   0
                l(2) =   0
                l(3) =   1
                l(4) =   1
     Q(r) pseudized with  8 coefficients,  rinner =    0.800   0.800   0.800

     PseudoPot. # 5 for H  read from file:
     /storage/coda1/p-amedford6/0/shared/rich_project_chbe-medford/medford-share/data/pseudos_module/espresso/nninc/pbe/van/H.UPF
     MD5 check sum: b5ee9d7bfd3a09ee7748110bda690ff7
     Pseudo is Ultrasoft, Zval =  1.0
     Generated by new atomic code, or converted to UPF format
     Using radial grid of  615 points,  1 beta functions with:
                l(1) =   0
     Q(r) pseudized with  8 coefficients,  rinner =    0.800

     atomic species   valence    mass     pseudopotential
        Ti1           12.00    47.86700     Ti( 1.00)
        O1             6.00    15.99900     O ( 1.00)
        N1             5.00    14.00700     N ( 1.00)
        C1             4.00    12.01100     C ( 1.00)
        H1             1.00     1.00800     H ( 1.00)

     No symmetry found

   Cartesian axes

     site n.     atom                  positions (alat units)
         1           Ti1 tau(   1) = (   0.0004258   2.9801865   6.0000000  )
         2           Ti1 tau(   2) = (   3.2906075   1.4906267   6.0002472  )
         3           O1  tau(   3) = (   0.0006271   0.0005054   7.9858123  )
         4           O1  tau(   4) = (   3.2906025   0.0005020   7.3038282  )
         5           O1  tau(   5) = (   4.5942328   1.4918067   9.2879030  )
         6           O1  tau(   6) = (   1.9868534   1.4903216   9.2879459  )
         7           Ti1 tau(   7) = (   3.2907910   2.8959150   9.1758416  )
         8           Ti1 tau(   8) = (   0.0015273   1.4827037   9.2680791  )
         9           O1  tau(   9) = (   3.2934429   5.9466490  11.3040654  )
        10           O1  tau(  10) = (   0.0116148   5.9584955  10.6183126  )
        11           O1  tau(  11) = (   1.2867109   1.4782735  12.6190062  )
        12           O1  tau(  12) = (   5.2776945   1.4764076  12.5976694  )
        13           Ti1 tau(  13) = (   0.0846880   2.9559742  12.7004455  )
        14           Ti1 tau(  14) = (   3.4192946   1.4610250  12.4797112  )
        15           O1  tau(  15) = (   0.0040618   5.9510889  14.6015872  )
        16           O1  tau(  16) = (   3.2972055   5.9566395  13.8969661  )
        17           O1  tau(  17) = (   4.5327346   1.5242580  16.0225792  )
        18           O1  tau(  18) = (   2.0474321   1.5095568  15.9818283  )
        19           Ti1 tau(  19) = (   3.2830006   2.9631064  15.6531525  )
        20           Ti1 tau(  20) = (   6.5418150   1.5417905  15.9635021  )
        21           O1  tau(  21) = (   3.2904802   0.0005063   4.7018136  )
        22           O1  tau(  22) = (   0.0063621   0.0138944  17.1794403  )
        23           O1  tau(  23) = (   1.3043587   1.4918075   6.0039043  )
        24           O1  tau(  24) = (   5.2767064   1.4903225   6.0039473  )
        25           Ti1 tau(  25) = (   0.0000382   5.9609847   6.0000000  )
        26           Ti1 tau(  26) = (   3.2902200   4.4714249   6.0002472  )
        27           O1  tau(  27) = (   0.0002396   2.9813036   7.9858123  )
        28           O1  tau(  28) = (   3.2902150   2.9813002   7.3038282  )
        29           O1  tau(  29) = (   4.5938453   4.4726049   9.2879030  )
        30           O1  tau(  30) = (   1.9864658   4.4711199   9.2879459  )
        31           Ti1 tau(  31) = (   3.2891106   5.8743827   9.1763621  )
        32           Ti1 tau(  32) = (   0.0006254   4.4649316   9.2693709  )
        33           O1  tau(  33) = (   3.2987291   2.9703105  11.3060640  )
        34           O1  tau(  34) = (   0.0092240   2.9805883  10.6323155  )
        35           O1  tau(  35) = (   1.2872851   4.4534926  12.6272766  )
        36           O1  tau(  36) = (   5.2800973   4.4624318  12.6062822  )
        37           Ti1 tau(  37) = (   0.1009857   5.9355968  12.6779778  )
        38           Ti1 tau(  38) = (   3.4194502   4.4581092  12.4739500  )
        39           O1  tau(  39) = (   6.5579784   2.9468049  14.6267102  )
        40           O1  tau(  40) = (   3.2950467   2.9662764  13.8528306  )
        41           O1  tau(  41) = (   4.5369278   4.4531499  15.9976687  )
        42           O1  tau(  42) = (   2.0426393   4.4597293  15.9709435  )
        43           Ti1 tau(  43) = (   3.2485613   5.9322867  15.7552632  )
        44           Ti1 tau(  44) = (   6.5504849   4.5932964  16.0494500  )
        45           O1  tau(  45) = (   3.2900926   2.9813045   4.7018136  )
        46           O1  tau(  46) = (   1.3039711   4.4726057   6.0039043  )
        47           O1  tau(  47) = (   5.2763189   4.4711207   6.0039473  )
        48           N1  tau(  48) = (   0.6156314   2.9572148  18.5116157  )
        49           N1  tau(  49) = (   0.0870375   2.9660652  17.3203775  )
        50           C1  tau(  50) = (   6.5561155   3.1780822  19.6039678  )
        51           H1  tau(  51) = (   5.4868456   3.3930584  19.6151425  )
        52           H1  tau(  52) = (   0.5344647   3.1546629  20.5288580  )
        53           O1  tau(  53) = (   3.2552377   5.9566958  18.1235742  )
        54           H1  tau(  54) = (   4.0211122   0.5273114  18.4085372  )
        55           H1  tau(  55) = (   2.4596908   0.4732500  18.4230009  )

     number of k points=    10  Fermi-Dirac smearing, width (Ry)=  0.0073
                       cart. coord. in units 2pi/alat
        k(    1) = (   0.0000000   0.0000000   0.0000000), wk =   0.1250000
        k(    2) = (   0.0000000   0.0419351   0.0000000), wk =   0.2500000
        k(    3) = (   0.0000000  -0.0838702   0.0000000), wk =   0.1250000
        k(    4) = (   0.0379955   0.0000049   0.0000000), wk =   0.2500000
        k(    5) = (   0.0379955   0.0419400   0.0000000), wk =   0.2500000
        k(    6) = (   0.0379955  -0.0838652   0.0000000), wk =   0.2500000
        k(    7) = (   0.0379955  -0.0419301   0.0000000), wk =   0.2500000
        k(    8) = (  -0.0759910  -0.0000099   0.0000000), wk =   0.1250000
        k(    9) = (  -0.0759910   0.0419252   0.0000000), wk =   0.2500000
        k(   10) = (  -0.0759910  -0.0838800   0.0000000), wk =   0.1250000

     Initial potential from superposition of free atoms

     starting charge  385.99915, renormalised to  402.00000

     negative rho (up, down):  1.463E-02 0.000E+00

     %%%%%%%%%%%%%%%%%%%%%%%%%%%%%%%%%%%%%%%%%%%%%%%%%%%%%%%%%%%%%%%%%%%%%%%%
     %                                                                      %
     % You are using vdW-DF, which was implemented by the Thonhauser group. %
     % Please cite the following two papers that made this development      %
     % possible and the two reviews that describe the various versions:     %
     %                                                                      %
     %   T. Thonhauser et al., PRL 115, 136402 (2015).                      %
     %   T. Thonhauser et al., PRB 76, 125112 (2007).                       %
     %   K. Berland et al., Rep. Prog. Phys. 78, 066501 (2015).             %
     %   D.C. Langreth et al., J. Phys.: Condens. Matter 21, 084203 (2009). %
     %                                                                      %
     %                                                                      %
     % If you are calculating the stress with vdW-DF, please also cite:     %
     %                                                                      %
     %   R. Sabatini et al., J. Phys.: Condens. Matter 24, 424209 (2012).   %
     %                                                                      %
     %%%%%%%%%%%%%%%%%%%%%%%%%%%%%%%%%%%%%%%%%%%%%%%%%%%%%%%%%%%%%%%%%%%%%%%%

     Adding external electric field

     Computed dipole along edir(3) :
        Dipole              -11.9561 Ry au,        -30.3894 Debye
        Dipole field         -0.0226 Ry au,

        Potential amp.        2.0915 Ry
        Total length         46.3494 bohr

     Starting wfcs are  304 atomic wfcs
  @ DRIVER MODE: Message from server: STATUS
  @ DRIVER MODE: Message from server: POSDATA
  @ DRIVER MODE: Reading and sharing cell
  @ DRIVER MODE: Reading and sharing positions
  @ DRIVER MODE: Received positions

     Self-consistent Calculation

     iteration #  1     ecut=    29.40 Ry     beta= 0.05
     Davidson diagonalization with overlap
     c_bands:  3 eigenvalues not converged
     c_bands:  1 eigenvalues not converged
     c_bands:  5 eigenvalues not converged
     c_bands:  3 eigenvalues not converged
     c_bands:  3 eigenvalues not converged
     c_bands:  2 eigenvalues not converged
     c_bands:  4 eigenvalues not converged
     c_bands:  4 eigenvalues not converged
     c_bands:  3 eigenvalues not converged
     ethr =  1.00E-05,  avg # of iterations = 21.6

[...]

     total energy              =   -2415.33785774 Ry
     estimated scf accuracy    <    6283.92487648 Ry

     iteration #  2     ecut=    29.40 Ry     beta= 0.05
     Davidson diagonalization with overlap
     ethr =  1.00E-02,  avg # of iterations = 23.8

[...]

     iteration # 35     ecut=    29.40 Ry     beta= 0.05
     Davidson diagonalization with overlap
     c_bands:  1 eigenvalues not converged
     c_bands:  1 eigenvalues not converged
     ethr =  6.85E-07,  avg # of iterations = 14.5

[...]

     total energy              =   -2972.73812513 Ry
     estimated scf accuracy    <       0.00000021 Ry

     iteration # 59     ecut=    29.40 Ry     beta= 0.05
     Davidson diagonalization with overlap
     ethr =  4.29E-11,  avg # of iterations =  5.3

     negative rho (up, down):  1.529E-02 0.000E+00

     Adding external electric field

     Computed dipole along edir(3) :
        Dipole                0.6764 Ry au,          1.7193 Debye
        Dipole field          0.0013 Ry au,

        Potential amp.       -0.1183 Ry
        Total length         46.3494 bohr

     End of self-consistent calculation

          k = 0.0000 0.0000 0.0000 ( 18029 PWs)   bands (ev):

   -56.1168 -56.0829 -55.6534 -55.6195 -55.5609 -55.5350 -55.5265 -55.4995
   -55.4126 -55.3661 -55.3256 -55.2557 -54.9328 -54.8988 -54.8574 -54.8180
   -32.5685 -32.4079 -32.3803 -32.2769 -32.1924 -32.1840 -32.1207 -32.0678
   -32.0472 -31.8965 -31.8725 -31.8694 -31.8352 -31.8343 -31.8178 -31.7838
   -31.7732 -31.7694 -31.7568 -31.7555 -31.7502 -31.7144 -31.7140 -31.7054
   -31.6724 -31.6671 -31.6554 -31.6428 -31.6239 -31.5939 -31.5363 -31.5340
   -31.5046 -31.4777 -31.4483 -31.4156 -31.3884 -31.3328 -31.2618 -31.2384
   -31.1504 -31.1037 -31.0704 -31.0651 -31.0540 -31.0307 -30.9539 -30.9439
   -18.6711 -17.4841 -16.4369 -16.2167 -15.9820 -15.7432 -15.6907 -15.5766
   -15.5632 -15.5541 -15.4425 -15.4233 -15.3681 -15.2611 -15.1918 -15.1559
   -15.1010 -15.0936 -15.0687 -14.9756 -14.9600 -14.9446 -14.9327 -14.8574
   -14.8163 -14.7956 -14.6883 -14.6215 -14.5543 -14.5272 -14.2322 -13.4330
   -13.3197 -11.6621  -6.5447  -6.4093  -4.4122  -3.9382  -3.9305  -3.7173
    -3.5557  -3.4549  -3.3261  -3.3078  -3.1864  -3.0996  -2.9455  -2.8818
    -2.8747  -2.8033  -2.7827  -2.7712  -2.6358  -2.5970  -2.5543  -2.5319
    -2.5009  -2.4233  -2.4117  -2.3562  -2.3146  -2.2808  -2.1750  -2.1368
    -2.0976  -2.0821  -2.0585  -2.0132  -1.9769  -1.9554  -1.9458  -1.9309
    -1.8918  -1.7990  -1.7499  -1.6516  -1.5958  -1.4965  -1.4527  -1.4371
    -1.3705  -1.2785  -1.1604  -1.1474  -1.0765  -1.0369  -0.9902  -0.9620
    -0.8889  -0.8798  -0.8085  -0.7700  -0.6963  -0.6453  -0.6133  -0.5903
    -0.5670  -0.4707  -0.4211  -0.3445  -0.2840  -0.2286  -0.2078  -0.1151
    -0.0858  -0.0535  -0.0291   0.0284   0.0708   0.0885   0.1098   0.1340
     0.1680   0.1910   0.3111   0.3643   0.3779   0.4116   0.4362   0.5460
     0.6069   0.6818   0.7408   0.7816   0.8843   0.9007   0.9450   1.0702
     1.0832   1.0894   1.1492   1.3073   1.6232   1.6475   1.6885   1.7795
     2.9537   3.1119   3.2286   3.4507   3.5485   3.5839   3.8501   3.9574
     3.9932   4.0206   4.0300

[...]

          k = 0.0380-0.0419 0.0000 ( 17876 PWs)   bands (ev):

[...]

          k =-0.0760-0.0000 0.0000 ( 17886 PWs)   bands (ev):

[...]

          k =-0.0760-0.0839 0.0000 ( 17948 PWs)   bands (ev):

   -56.0998 -56.0997 -55.6385 -55.6341 -55.5467 -55.5407 -55.5187 -55.5156
   -55.4106 -55.3563 -55.3354 -55.2575 -54.9158 -54.9156 -54.8475 -54.8278
   -32.3936 -32.3933 -32.3844 -32.3843 -32.2287 -32.2285 -31.9453 -31.9400
   -31.8904 -31.8881 -31.8859 -31.8643 -31.8289 -31.8241 -31.8054 -31.8041
   -31.7871 -31.7836 -31.7615 -31.7558 -31.7515 -31.7462 -31.7457 -31.7397
   -31.7044 -31.6670 -31.6596 -31.6549 -31.6275 -31.6169 -31.5825 -31.5685
   -31.5598 -31.5253 -31.5106 -31.4566 -31.2694 -31.2513 -31.2512 -31.1553
   -31.1469 -31.1466 -31.1079 -31.1078 -31.0630 -31.0503 -31.0415 -31.0235
   -18.6700 -17.4784 -15.8121 -15.8067 -15.7393 -15.7357 -15.6658 -15.6033
   -15.5043 -15.5005 -15.4566 -15.3680 -15.2909 -15.2721 -15.2020 -15.1954
   -15.1933 -15.1850 -15.1166 -15.1062 -15.0699 -15.0465 -15.0219 -15.0184
   -14.9892 -14.9659 -14.7541 -14.6974 -14.6317 -14.5561 -14.4070 -13.4224
   -13.4224 -11.6672  -6.5341  -6.4095  -4.3668  -3.9225  -3.1673  -3.0129
    -2.9326  -2.9211  -2.8998  -2.8006  -2.7808  -2.7347  -2.7063  -2.6859
    -2.6113  -2.5998  -2.5479  -2.5422  -2.5083  -2.4914  -2.4376  -2.4275
    -2.4174  -2.4122  -2.3634  -2.3278  -2.3237  -2.3130  -2.2911  -2.2223
    -2.1600  -2.1227  -2.0835  -2.0697  -2.0673  -2.0088  -1.9833  -1.9503
    -1.8984  -1.8945  -1.8604  -1.8094  -1.6795  -1.6687  -1.5365  -1.4667
    -1.4478  -1.3682  -1.3191  -1.2860  -1.2142  -1.1627  -1.1327  -1.0254
    -1.0036  -0.9724  -0.9580  -0.9237  -0.9190  -0.8780  -0.7733  -0.7497
    -0.7115  -0.7082  -0.6296  -0.5992  -0.5460  -0.5256  -0.5137  -0.4701
    -0.4518  -0.3706  -0.3457  -0.2900  -0.2358  -0.1930  -0.1425  -0.0905
    -0.0065   0.0592   0.1125   0.2029   0.2058   0.2178   0.4234   0.4290
     0.5292   0.6121   0.7384   0.7643   0.7787   0.8830   0.9226   0.9466
     0.9736   1.1373   1.1792   1.4734   1.4750   1.5048   1.5051   1.7283
     2.8944   3.6456   3.6458   3.6819   3.6833   3.9163   3.9203   3.9685
     3.9751   4.0311   4.0549

     the Fermi energy is     3.0534 ev

!    total energy              =   -2972.73818382 Ry
     estimated scf accuracy    <       0.00000005 Ry
     smearing contrib. (-TS)   =      -0.01265931 Ry
     internal energy E=F+TS    =   -2972.72552451 Ry

     The total energy is F=E-TS. E is the sum of the following terms:
     one-electron contribution =  -24074.50382268 Ry
     hartree contribution      =   12130.90131538 Ry
     xc contribution           =    -493.17357559 Ry
     ewald contribution        =    9464.04969489 Ry
     electric field correction =       0.00086349 Ry

     convergence has been achieved in  59 iterations

     Forces acting on atoms (cartesian axes, Ry/au):

     atom    1 type  1   force =     0.00013474   -0.00030938    0.10883886
     atom    2 type  1   force =    -0.00012295   -0.00041289   -0.16772297
     atom    3 type  2   force =    -0.00015538   -0.00001028   -0.04390575
     atom    4 type  2   force =     0.00004965   -0.00075217    0.03929829
     atom    5 type  2   force =    -0.01328828    0.00016693   -0.00459645
     atom    6 type  2   force =     0.01488559    0.00103972   -0.00541775
     atom    7 type  1   force =    -0.00093587   -0.00250626    0.01175187
     atom    8 type  1   force =     0.00124313    0.00154293    0.07748054
     atom    9 type  2   force =    -0.00005661   -0.00015013   -0.00031891
     atom   10 type  2   force =    -0.00114943    0.00038914   -0.05122736
     atom   11 type  2   force =    -0.00010496    0.00035965    0.00008076
     atom   12 type  2   force =     0.00003845    0.00025000    0.00004359
     atom   13 type  1   force =     0.00046009    0.00000678    0.00008470
     atom   14 type  1   force =    -0.00025264   -0.00015223    0.00023354
     atom   15 type  2   force =    -0.00020804   -0.00012071    0.00046686
     atom   16 type  2   force =     0.00015431    0.00004244   -0.00042317
     atom   17 type  2   force =    -0.00054189    0.00055322   -0.00035571
     atom   18 type  2   force =     0.00019422    0.00051528   -0.00032930
     atom   19 type  1   force =     0.00035199   -0.00025879    0.00010415
     atom   20 type  1   force =    -0.00017961    0.00047884   -0.00020532
     atom   21 type  2   force =     0.00007765    0.00005557    0.10125911
     atom   22 type  2   force =    -0.00009357   -0.00002900    0.00019993
     atom   23 type  2   force =    -0.07509774   -0.00002563   -0.03019178
     atom   24 type  2   force =     0.07507251    0.00042791   -0.03018997
     atom   25 type  1   force =     0.00021127   -0.00029087    0.10850027
     atom   26 type  1   force =    -0.00010363   -0.00045189   -0.16773689
     atom   27 type  2   force =    -0.00001963   -0.00025495   -0.04290937
     atom   28 type  2   force =     0.00011479   -0.00047300    0.03865919
     atom   29 type  2   force =    -0.01360659    0.00094543   -0.00482862
     atom   30 type  2   force =     0.01513990    0.00120765   -0.00570362
     atom   31 type  1   force =    -0.00125874    0.00051391    0.00745783
     atom   32 type  1   force =     0.00133558   -0.00410119    0.07792328
     atom   33 type  2   force =    -0.00006565    0.00012726   -0.00034210
     atom   34 type  2   force =    -0.00137811    0.00034668   -0.05728944
     atom   35 type  2   force =    -0.00003566   -0.00049712   -0.00005880
     atom   36 type  2   force =    -0.00031144   -0.00022458   -0.00015759
     atom   37 type  1   force =    -0.00006000   -0.00001764   -0.00024643
     atom   38 type  1   force =    -0.00021213    0.00027218   -0.00004216
     atom   39 type  2   force =     0.00001086   -0.00001804   -0.00047220
     atom   40 type  2   force =    -0.00001014    0.00029283    0.00016336
     atom   41 type  2   force =     0.00009229   -0.00021562   -0.00004383
     atom   42 type  2   force =    -0.00041648   -0.00005979   -0.00014157
     atom   43 type  1   force =     0.00027557    0.00094483    0.00016864
     atom   44 type  1   force =    -0.00006555    0.00001848    0.00005688
     atom   45 type  2   force =     0.00007011    0.00003736    0.10121778
     atom   46 type  2   force =    -0.07508712    0.00004065   -0.03015153
     atom   47 type  2   force =     0.07506242    0.00047407   -0.03016409
     atom   48 type  3   force =     0.00021046   -0.00003296    0.00023925
     atom   49 type  3   force =     0.00014961    0.00022780    0.00013381
     atom   50 type  4   force =    -0.00022886    0.00010109    0.00004033
     atom   51 type  5   force =     0.00018753    0.00052457   -0.00021745
     atom   52 type  5   force =    -0.00021058   -0.00017397    0.00005558
     atom   53 type  2   force =     0.00006428    0.00707346    0.00601075
     atom   54 type  5   force =    -0.00406629   -0.00435363   -0.00243908
     atom   55 type  5   force =     0.00373658   -0.00308396   -0.00263992

     Total force =     0.390742     Total SCF correction =     0.000717
  @ DRIVER MODE: Message from server: STATUS
  @ DRIVER MODE: Message from server: GETFORCE
  @ DRIVER MODE: Returning v,forces,stress,ensemble

     Writing output data file ./calc.save/
  @ DRIVER MODE: Message from server: EXIT
  @ DRIVE MODE: Exiting

     General routines

     Parallel routines

   This run was terminated on:   3:29:48  16Sep2021

   JOB DONE.