     Program PWSCF v.6.7GPU starts on 25Sep2021 at 22:16:58

     R & G space division:  proc/nbgrp/npool/nimage =       8
     Reading input from /storage/home/hcoda1/3/ntian30/research/carbon/CxH_vib/H2O_calc/ads_slab/CH3ON2H2O_a/out_0016/pw.inp
Warning: card &CELL ignored
Warning: card   CELL_DYNAMICS='IPI', ignored
Warning: card / ignored

     Current dimensions of program PWSCF are:
     Max number of different atomic species (ntypx) = 10
     Max number of k-points (npk) =  40000
     Max angular momentum in pseudopotentials (lmaxx) =  3
     Presently no symmetry can be used with electric field

     Message from routine cell_base_init:
     DEPRECATED: use true lattice parameter, not A to a.u. conversion factor

     IMPORTANT: XC functional enforced from input :
     Exchange-correlation= BEEF-VDW
                           (   1   4  43  14   2   0   0)
     Any further DFT definition will be discarded
     Please, verify this is what you really want

  @ DRIVER MODE: Connecting to
 qe_1139763_2971672.sched-torque.pace.gatech.edul55k5h0u_scratch
  using UNIX socket
  @ DRIVER MODE: Message from server: STATUS
  @ DRIVER MODE: Message from server: INIT
  @ DRIVER MODE: Receiving replica           0          -1
  @ DRIVER MODE: Receiving encoded integer          25
  @ DRIVER MODE:  SCF:  T  FORCE:  T  STRESS:  F  VC:  F  ENSEMBLE:  F
  @ DRIVER MODE:  SCF:  T  FORCE:  T  STRESS:  F  VC:  F  ENSEMBLE:  F

     Using Slab Decomposition

     bravais-lattice index     =            0
     lattice parameter (alat)  =       1.8897  a.u.
     unit-cell volume          =    6658.9804 (a.u.)^3
     number of atoms/cell      =           57
     number of atomic types    =            5
     number of electrons       =       409.00
     number of Kohn-Sham states=          214
     kinetic-energy cutoff     =      29.3995  Ry
     charge density cutoff     =     293.9946  Ry
     scf convergence threshold =      7.3E-08
     mixing beta               =       0.0500
     number of iterations used =            8  plain     mixing
     Exchange-correlation= BEEF-VDW
                           (   1   4  43  14   2   0   0)

     celldm(1)=   1.889726  celldm(2)=   0.000000  celldm(3)=   0.000000
     celldm(4)=   0.000000  celldm(5)=   0.000000  celldm(6)=   0.000000

     crystal axes: (cart. coord. in units of alat)
               a(1) = (   6.579727   0.000000   0.000000 )
               a(2) = (  -0.000775   5.961596   0.000000 )
               a(3) = (   0.000000   0.000000  25.155947 )

     reciprocal axes: (cart. coord. in units 2 pi/alat)
               b(1) = (  0.151982  0.000020  0.000000 )
               b(2) = (  0.000000  0.167740  0.000000 )
               b(3) = (  0.000000  0.000000  0.039752 )

     PseudoPot. # 1 for Ti read from file:
     /storage/coda1/p-amedford6/0/shared/rich_project_chbe-medford/medford-share/data/pseudos_module/espresso/nninc/pbe/van/Ti.UPF
     MD5 check sum: 8e4df49b7f0d34bbd5052bf3f5ea0213
     Pseudo is Ultrasoft, Zval = 12.0
     Generated by new atomic code, or converted to UPF format
     Using radial grid of  851 points,  6 beta functions with:
                l(1) =   0
                l(2) =   0
                l(3) =   1
                l(4) =   1
                l(5) =   2
                l(6) =   2
     Q(r) pseudized with  8 coefficients,  rinner =    1.000   1.000   1.000
                                                       1.000   1.000

     PseudoPot. # 2 for O  read from file:
     /storage/coda1/p-amedford6/0/shared/rich_project_chbe-medford/medford-share/data/pseudos_module/espresso/nninc/pbe/van/O.UPF
     MD5 check sum: 78c19812648e8988a0fe644b0f25305e
     Pseudo is Ultrasoft, Zval =  6.0
     Generated by new atomic code, or converted to UPF format
     Using radial grid of  737 points,  4 beta functions with:
                l(1) =   0
                l(2) =   0
                l(3) =   1
                l(4) =   1
     Q(r) pseudized with  8 coefficients,  rinner =    0.800   0.800   0.800

     PseudoPot. # 3 for C  read from file:
     /storage/coda1/p-amedford6/0/shared/rich_project_chbe-medford/medford-share/data/pseudos_module/espresso/nninc/pbe/van/C.UPF
     MD5 check sum: 1a69bf6b8db32088f5b2163dbdb77a27
     Pseudo is Ultrasoft, Zval =  4.0
     Generated by new atomic code, or converted to UPF format
     Using radial grid of  721 points,  4 beta functions with:
                l(1) =   0
                l(2) =   0
                l(3) =   1
                l(4) =   1
     Q(r) pseudized with  8 coefficients,  rinner =    0.800   0.800   0.800

     PseudoPot. # 4 for H  read from file:
     /storage/coda1/p-amedford6/0/shared/rich_project_chbe-medford/medford-share/data/pseudos_module/espresso/nninc/pbe/van/H.UPF
     MD5 check sum: b5ee9d7bfd3a09ee7748110bda690ff7
     Pseudo is Ultrasoft, Zval =  1.0
     Generated by new atomic code, or converted to UPF format
     Using radial grid of  615 points,  1 beta functions with:
                l(1) =   0
     Q(r) pseudized with  8 coefficients,  rinner =    0.800

     PseudoPot. # 5 for N  read from file:
     /storage/coda1/p-amedford6/0/shared/rich_project_chbe-medford/medford-share/data/pseudos_module/espresso/nninc/pbe/van/N.UPF
     MD5 check sum: 90d10febe142ad51ac9d5be1deb811c4
     Pseudo is Ultrasoft, Zval =  5.0
     Generated by new atomic code, or converted to UPF format
     Using radial grid of  729 points,  4 beta functions with:
                l(1) =   0
                l(2) =   0
                l(3) =   1
                l(4) =   1
     Q(r) pseudized with  8 coefficients,  rinner =    0.800   0.800   0.800

     atomic species   valence    mass     pseudopotential
        Ti1           12.00    47.86700     Ti( 1.00)
        O1             6.00    15.99900     O ( 1.00)
        C1             4.00    12.01100     C ( 1.00)
        H1             1.00     1.00800     H ( 1.00)
        N1             5.00    14.00700     N ( 1.00)

     No symmetry found

   Cartesian axes

     site n.     atom                  positions (alat units)
         1           Ti1 tau(   1) = (   0.0004258   2.9801865   6.0000000  )
         2           Ti1 tau(   2) = (   3.2906075   1.4906267   6.0002472  )
         3           O1  tau(   3) = (   0.0006271   0.0005054   7.9858123  )
         4           O1  tau(   4) = (   3.2906025   0.0005020   7.3038282  )
         5           O1  tau(   5) = (   4.5942328   1.4918067   9.2879030  )
         6           O1  tau(   6) = (   1.9868534   1.4903216   9.2879459  )
         7           Ti1 tau(   7) = (   3.3113259   3.0354369   9.1618307  )
         8           Ti1 tau(   8) = (   0.0141821   1.6139659   9.3625064  )
         9           O1  tau(   9) = (   3.2964399   0.0287090  11.3517035  )
        10           O1  tau(  10) = (   0.0046459   0.0167322  10.6079620  )
        11           O1  tau(  11) = (   1.2916403   1.5142126  12.6509924  )
        12           O1  tau(  12) = (   5.2954765   1.5212855  12.6445515  )
        13           Ti1 tau(  13) = (   0.0303381   3.0181167  12.7741416  )
        14           Ti1 tau(  14) = (   3.3376880   1.5190318  12.5019279  )
        15           O1  tau(  15) = (   6.5702980   0.0162101  14.7136675  )
        16           O1  tau(  16) = (   3.3118210   0.0215951  13.9605728  )
        17           O1  tau(  17) = (   4.5586303   1.5408398  16.0643691  )
        18           O1  tau(  18) = (   2.0376984   1.5397913  16.0346728  )
        19           Ti1 tau(  19) = (   3.2806018   3.0126274  15.6982083  )
        20           Ti1 tau(  20) = (   0.0204579   1.3876160  16.0921805  )
        21           O1  tau(  21) = (   3.2904802   0.0005063   4.7018136  )
        22           O1  tau(  22) = (   0.0362274   0.0182013  17.2505027  )
        23           O1  tau(  23) = (   1.3043587   1.4918075   6.0039043  )
        24           O1  tau(  24) = (   5.2767064   1.4903225   6.0039473  )
        25           Ti1 tau(  25) = (   0.0000382   5.9609847   6.0000000  )
        26           Ti1 tau(  26) = (   3.2902200   4.4714249   6.0002472  )
        27           O1  tau(  27) = (   0.0002396   2.9813036   7.9858123  )
        28           O1  tau(  28) = (   3.2902150   2.9813002   7.3038282  )
        29           O1  tau(  29) = (   4.5938453   4.4726049   9.2879030  )
        30           O1  tau(  30) = (   1.9864658   4.4711199   9.2879459  )
        31           Ti1 tau(  31) = (   3.2918133   0.0584897   9.1554610  )
        32           Ti1 tau(  32) = (   0.0176696   4.5429683   9.2683582  )
        33           O1  tau(  33) = (   3.2944385   3.0046939  11.3531965  )
        34           O1  tau(  34) = (   0.0071923   2.9964285  10.5824339  )
        35           O1  tau(  35) = (   1.2923070   4.5060354  12.6395470  )
        36           O1  tau(  36) = (   5.2930342   4.4972821  12.6335129  )
        37           Ti1 tau(  37) = (   0.0360028   0.0369787  12.5252624  )
        38           Ti1 tau(  38) = (   3.3378333   4.5109478  12.5016189  )
        39           O1  tau(  39) = (   0.0182598   3.0415135  14.6926035  )
        40           O1  tau(  40) = (   3.2973286   3.0139918  13.9115332  )
        41           O1  tau(  41) = (   4.5518717   4.4752506  16.0920674  )
        42           O1  tau(  42) = (   2.0385343   4.4722040  16.0556704  )
        43           Ti1 tau(  43) = (   3.3273276   0.0437280  15.7880462  )
        44           Ti1 tau(  44) = (   0.0148993   4.5306414  15.9319406  )
        45           O1  tau(  45) = (   3.2900926   2.9813045   4.7018136  )
        46           O1  tau(  46) = (   1.3039711   4.4726057   6.0039043  )
        47           O1  tau(  47) = (   5.2763189   4.4711207   6.0039473  )
        48           C1  tau(  48) = (   6.0619278   3.0088867  18.6555636  )
        49           O1  tau(  49) = (   6.5788924   2.9994598  17.3400993  )
        50           H1  tau(  50) = (   4.9713474   2.8928304  18.6515055  )
        51           H1  tau(  51) = (   6.4909130   2.1836263  19.2313859  )
        52           H1  tau(  52) = (   6.3070107   3.9563896  19.1453893  )
        53           N1  tau(  53) = (   5.9950546   3.0301018  22.7159517  )
        54           N1  tau(  54) = (   5.2276613   3.1827328  21.9368001  )
        55           O1  tau(  55) = (   3.1818816   0.0591848  18.2205797  )
        56           H1  tau(  56) = (   3.8437189   5.3938241  18.5518935  )
        57           H1  tau(  57) = (   2.3086839   5.6188137  18.3735615  )

     number of k points=    10  Fermi-Dirac smearing, width (Ry)=  0.0073
                       cart. coord. in units 2pi/alat
        k(    1) = (   0.0000000   0.0000000   0.0000000), wk =   0.1250000
        k(    2) = (   0.0000000   0.0419351   0.0000000), wk =   0.2500000
        k(    3) = (   0.0000000  -0.0838702   0.0000000), wk =   0.1250000
        k(    4) = (   0.0379955   0.0000049   0.0000000), wk =   0.2500000
        k(    5) = (   0.0379955   0.0419400   0.0000000), wk =   0.2500000
        k(    6) = (   0.0379955  -0.0838652   0.0000000), wk =   0.2500000
        k(    7) = (   0.0379955  -0.0419301   0.0000000), wk =   0.2500000
        k(    8) = (  -0.0759910  -0.0000099   0.0000000), wk =   0.1250000
        k(    9) = (  -0.0759910   0.0419252   0.0000000), wk =   0.2500000
        k(   10) = (  -0.0759910  -0.0838800   0.0000000), wk =   0.1250000

     Initial potential from superposition of free atoms

     starting charge  392.99914, renormalised to  409.00000

     negative rho (up, down):  9.746E-03 0.000E+00

     %%%%%%%%%%%%%%%%%%%%%%%%%%%%%%%%%%%%%%%%%%%%%%%%%%%%%%%%%%%%%%%%%%%%%%%%
     %                                                                      %
     % You are using vdW-DF, which was implemented by the Thonhauser group. %
     % Please cite the following two papers that made this development      %
     % possible and the two reviews that describe the various versions:     %
     %                                                                      %
     %   T. Thonhauser et al., PRL 115, 136402 (2015).                      %
     %   T. Thonhauser et al., PRB 76, 125112 (2007).                       %
     %   K. Berland et al., Rep. Prog. Phys. 78, 066501 (2015).             %
     %   D.C. Langreth et al., J. Phys.: Condens. Matter 21, 084203 (2009). %
     %                                                                      %
     %                                                                      %
     % If you are calculating the stress with vdW-DF, please also cite:     %
     %                                                                      %
     %   R. Sabatini et al., J. Phys.: Condens. Matter 24, 424209 (2012).   %
     %                                                                      %
     %%%%%%%%%%%%%%%%%%%%%%%%%%%%%%%%%%%%%%%%%%%%%%%%%%%%%%%%%%%%%%%%%%%%%%%%

     Adding external electric field

     Computed dipole along edir(3) :
        Dipole              -18.5715 Ry au,        -47.2041 Debye
        Dipole field         -0.0350 Ry au,

        Potential amp.        3.2488 Ry
        Total length         46.3494 bohr

     Starting wfcs are  309 atomic wfcs
  @ DRIVER MODE: Message from server: STATUS
  @ DRIVER MODE: Message from server: POSDATA
  @ DRIVER MODE: Reading and sharing cell
  @ DRIVER MODE: Reading and sharing positions
  @ DRIVER MODE: Received positions

     Self-consistent Calculation

     iteration #  1     ecut=    29.40 Ry     beta= 0.05
     Davidson diagonalization with overlap
     c_bands:  3 eigenvalues not converged
     c_bands:  2 eigenvalues not converged
     c_bands:  2 eigenvalues not converged
     c_bands:  5 eigenvalues not converged
     c_bands:  5 eigenvalues not converged
     c_bands:  5 eigenvalues not converged
     c_bands:  1 eigenvalues not converged
     c_bands:  3 eigenvalues not converged
     ethr =  1.00E-05,  avg # of iterations = 28.5

[...]

     total energy              =   -2113.10903715 Ry
     estimated scf accuracy    <   10297.60592854 Ry

     iteration #  2     ecut=    29.40 Ry     beta= 0.05
     Davidson diagonalization with overlap
     ethr =  1.00E-02,  avg # of iterations = 30.0

[...]

     iteration # 72     ecut=    29.40 Ry     beta= 0.05
     Davidson diagonalization with overlap
     c_bands:  1 eigenvalues not converged
     c_bands:  1 eigenvalues not converged
     c_bands:  1 eigenvalues not converged
     c_bands:  1 eigenvalues not converged
     ethr =  4.12E-07,  avg # of iterations = 17.1

[...]

     total energy              =   -3006.52133397 Ry
     estimated scf accuracy    <       0.00000011 Ry

     iteration # 97     ecut=    29.40 Ry     beta= 0.05
     Davidson diagonalization with overlap
     ethr =  2.64E-11,  avg # of iterations = 13.1

     negative rho (up, down):  1.093E-02 0.000E+00

     Adding external electric field

     Computed dipole along edir(3) :
        Dipole                0.9960 Ry au,          2.5317 Debye
        Dipole field          0.0019 Ry au,

        Potential amp.       -0.1742 Ry
        Total length         46.3494 bohr

     End of self-consistent calculation

          k = 0.0000 0.0000 0.0000 ( 18029 PWs)   bands (ev):

   -55.2855 -55.2510 -55.2495 -55.2147 -55.1920 -55.1767 -55.1689 -55.1332
   -55.0826 -55.0639 -55.0490 -55.0409 -55.0071 -54.9530 -54.2921 -54.2580
   -31.8081 -31.7547 -31.6780 -31.6459 -31.6245 -31.5774 -31.5599 -31.5565
   -31.5203 -31.5151 -31.4785 -31.4649 -31.4585 -31.4495 -31.4452 -31.4324
   -31.4263 -31.3901 -31.3849 -31.3769 -31.3729 -31.3543 -31.3501 -31.3411
   -31.3334 -31.3271 -31.3115 -31.2899 -31.2794 -31.2742 -31.2708 -31.2637
   -31.2604 -31.2450 -31.2322 -31.2222 -31.2200 -31.1855 -31.1704 -31.1501
   -31.1377 -31.1364 -30.7014 -30.6056 -30.5833 -30.5180 -30.4319 -30.3208
   -21.4244 -18.7346 -17.1982 -16.0003 -15.7297 -15.5696 -15.4384 -15.4032
   -15.2162 -15.0945 -14.9619 -14.9377 -14.8839 -14.8568 -14.8224 -14.8115
   -14.8065 -14.7945 -14.7865 -14.7397 -14.7051 -14.6875 -14.6871 -14.6637
   -14.6151 -14.5614 -14.4968 -14.4316 -14.4028 -14.3613 -14.2921 -14.2839
   -12.7930 -12.6750  -9.1262  -6.6016  -6.5279  -4.5627  -4.5518  -3.9187
    -3.7625  -3.4767  -3.3639  -3.2854  -3.2122  -3.1900  -3.1681  -3.0927
    -2.9820  -2.8457  -2.7503  -2.5109  -2.4557  -2.4129  -2.3813  -2.3523
    -2.1955  -2.1707  -2.1019  -2.0909  -2.0821  -2.0714  -2.0445  -2.0154
    -1.9897  -1.9580  -1.8991  -1.8747  -1.8041  -1.6733  -1.6648  -1.6326
    -1.5862  -1.5701  -1.5685  -1.5417  -1.4976  -1.4787  -1.4544  -1.4487
    -1.3519  -1.2597  -1.2168  -1.1224  -1.0429  -0.9698  -0.8474  -0.8090
    -0.7354  -0.7023  -0.6860  -0.6323  -0.5834  -0.5733  -0.5142  -0.4675
    -0.3598  -0.3166  -0.2752  -0.2381  -0.1869  -0.1432  -0.0721  -0.0386
    -0.0062  -0.0016   0.0194   0.2178   0.2290   0.2802   0.2932   0.3902
     0.4427   0.4773   0.4904   0.4998   0.5376   0.6132   0.6688   0.6773
     0.7093   0.7450   0.7643   0.8109   0.8509   0.9036   0.9331   0.9678
     1.0346   1.0748   1.2289   1.3231   1.3676   1.4835   1.6406   1.7318
     1.8056   1.9059   2.3186   2.3760   3.8960   3.9301   3.9569   3.9751
     4.0432   4.1422   4.2588   4.3497   4.3596   4.3897

[...]

          k = 0.0380-0.0419 0.0000 ( 17876 PWs)   bands (ev):

[...]

          k =-0.0760-0.0000 0.0000 ( 17886 PWs)   bands (ev):

[...]

          k =-0.0760-0.0839 0.0000 ( 17948 PWs)   bands (ev):

   -55.2734 -55.2615 -55.2350 -55.2304 -55.1889 -55.1745 -55.1582 -55.1440
   -55.0853 -55.0609 -55.0512 -55.0263 -55.0219 -54.9556 -54.2756 -54.2744
   -31.6199 -31.6034 -31.5776 -31.5759 -31.5655 -31.5640 -31.5466 -31.5138
   -31.5069 -31.4900 -31.4867 -31.4763 -31.4411 -31.4308 -31.4103 -31.4062
   -31.4009 -31.3992 -31.3977 -31.3914 -31.3886 -31.3852 -31.3737 -31.3653
   -31.3591 -31.3505 -31.3495 -31.3480 -31.3425 -31.3170 -31.2910 -31.2784
   -31.2756 -31.2744 -31.2714 -31.2625 -31.2542 -31.2414 -31.2319 -31.2227
   -31.1810 -31.1472 -30.5966 -30.5953 -30.5148 -30.5139 -30.4755 -30.4745
   -21.4243 -18.7336 -17.1678 -15.4684 -15.3592 -15.2301 -15.1656 -15.1428
   -15.1162 -15.0633 -15.0470 -14.9914 -14.9872 -14.9368 -14.9304 -14.8875
   -14.8805 -14.8265 -14.7984 -14.7893 -14.7604 -14.7276 -14.7116 -14.7107
   -14.6706 -14.6492 -14.6405 -14.6100 -14.6027 -14.5407 -14.5036 -14.4704
   -12.7773 -12.7755  -9.1281  -6.6023  -6.5212  -4.5631  -4.5590  -3.8300
    -3.7196  -3.5028  -3.2720  -3.0029  -2.7538  -2.5711  -2.4798  -2.4109
    -2.3577  -2.3398  -2.2302  -2.2057  -2.1758  -2.1411  -2.1186  -2.1078
    -2.0903  -2.0813  -2.0742  -2.0566  -2.0231  -2.0034  -1.9773  -1.9526
    -1.9375  -1.9137  -1.8961  -1.8888  -1.8639  -1.8361  -1.8294  -1.8265
    -1.7639  -1.7242  -1.5657  -1.5207  -1.4996  -1.4095  -1.3899  -1.3734
    -1.3479  -1.3338  -1.3172  -1.1986  -1.1473  -1.1192  -1.0109  -0.9929
    -0.9669  -0.8285  -0.8047  -0.7723  -0.7439  -0.7021  -0.6325  -0.6090
    -0.5538  -0.5405  -0.4387  -0.4025  -0.3772  -0.3639  -0.2680  -0.2457
    -0.2402  -0.2142  -0.1513  -0.1200  -0.0739  -0.0444  -0.0136   0.0110
     0.0570   0.0767   0.1707   0.1910   0.2272   0.2700   0.3640   0.5309
     0.6237   0.7339   0.7597   0.8066   0.8669   0.9091   0.9587   1.0131
     1.0602   1.0676   1.1299   1.1671   1.2521   1.2660   1.2693   1.3376
     2.0932   2.0935   2.1813   2.1904   4.1375   4.1458   4.2029   4.2225
     4.3618   4.3679   4.3815   4.3890   4.4837   4.5519

     the Fermi energy is     3.8660 ev

!    total energy              =   -3006.52133589 Ry
     estimated scf accuracy    <       0.00000005 Ry
     smearing contrib. (-TS)   =      -0.02294692 Ry
     internal energy E=F+TS    =   -3006.49838896 Ry

     The total energy is F=E-TS. E is the sum of the following terms:
     one-electron contribution =  -22563.11955631 Ry
     hartree contribution      =   11380.90160033 Ry
     xc contribution           =    -501.14664422 Ry
     ewald contribution        =    8676.86433905 Ry
     electric field correction =       0.00187218 Ry

     convergence has been achieved in  97 iterations

     Forces acting on atoms (cartesian axes, Ry/au):

     atom    1 type  1   force =    -0.00014706   -0.00167815    0.10539743
     atom    2 type  1   force =    -0.00022341    0.00113598   -0.17917419
     atom    3 type  2   force =     0.00020568   -0.00553165   -0.03235643
     atom    4 type  2   force =     0.00010315    0.00071970    0.04628867
     atom    5 type  2   force =    -0.01803409    0.00052559    0.00422729
     atom    6 type  2   force =     0.01843080   -0.00044698    0.00409632
     atom    7 type  1   force =     0.00007495    0.00020053    0.00003607
     atom    8 type  1   force =     0.00006993    0.00030028   -0.00013361
     atom    9 type  2   force =     0.00017637    0.00034913   -0.00008624
     atom   10 type  2   force =     0.00017094   -0.00000424    0.00003167
     atom   11 type  2   force =     0.00004790   -0.00034990   -0.00037625
     atom   12 type  2   force =    -0.00005657   -0.00052364   -0.00051721
     atom   13 type  1   force =     0.00047668    0.00024006    0.00006474
     atom   14 type  1   force =    -0.00026763   -0.00047917   -0.00043145
     atom   15 type  2   force =     0.00004037   -0.00054105    0.00032215
     atom   16 type  2   force =    -0.00008729    0.00030318   -0.00022113
     atom   17 type  2   force =    -0.00044560   -0.00062057    0.00006019
     atom   18 type  2   force =     0.00004441   -0.00049563    0.00020394
     atom   19 type  1   force =     0.00041369   -0.00031267   -0.00010899
     atom   20 type  1   force =    -0.00010326   -0.00076073   -0.00080785
     atom   21 type  2   force =    -0.00003578    0.00009992    0.10395828
     atom   22 type  2   force =    -0.00001491   -0.00053249    0.00053411
     atom   23 type  2   force =    -0.06943920    0.00051551   -0.02946658
     atom   24 type  2   force =     0.06919323    0.00097342   -0.02952029
     atom   25 type  1   force =    -0.00003100    0.00156520    0.11480630
     atom   26 type  1   force =    -0.00022006   -0.00047736   -0.17918032
     atom   27 type  2   force =     0.00021391    0.00414744   -0.02605421
     atom   28 type  2   force =     0.00042812    0.00092880    0.04807611
     atom   29 type  2   force =    -0.01630462    0.00162443    0.00383894
     atom   30 type  2   force =     0.01735703    0.00217525    0.00360693
     atom   31 type  1   force =    -0.00014441    0.00010950   -0.00025244
     atom   32 type  1   force =     0.00010594   -0.00008468    0.00024745
     atom   33 type  2   force =     0.00028848   -0.00051103    0.00018224
     atom   34 type  2   force =    -0.00004093   -0.00030713   -0.00026748
     atom   35 type  2   force =    -0.00046139   -0.00013369    0.00001556
     atom   36 type  2   force =     0.00054420    0.00002078    0.00000538
     atom   37 type  1   force =     0.00046737   -0.00072935   -0.00005627
     atom   38 type  1   force =    -0.00037230   -0.00002322   -0.00037012
     atom   39 type  2   force =    -0.00042025   -0.00049832   -0.00048135
     atom   40 type  2   force =     0.00035800   -0.00040886   -0.00025258
     atom   41 type  2   force =    -0.00017691   -0.00004020    0.00009684
     atom   42 type  2   force =    -0.00032613   -0.00021827    0.00006755
     atom   43 type  1   force =     0.00026179    0.00014081    0.00138759
     atom   44 type  1   force =     0.00003252   -0.00033038   -0.00078577
     atom   45 type  2   force =    -0.00003807    0.00007668    0.10399844
     atom   46 type  2   force =    -0.06904765   -0.00106652   -0.02951805
     atom   47 type  2   force =     0.06886043   -0.00062296   -0.02959554
     atom   48 type  3   force =     0.00081669    0.00196874    0.00037253
     atom   49 type  2   force =    -0.00001972    0.00015132   -0.00085421
     atom   50 type  4   force =    -0.00153002   -0.00189240   -0.00001571
     atom   51 type  4   force =    -0.00064393   -0.00039906    0.00006592
     atom   52 type  4   force =     0.00100766    0.00045585   -0.00033430
     atom   53 type  5   force =    -0.00105664   -0.00018334   -0.00108921
     atom   54 type  5   force =     0.00050517    0.00038134    0.00079812
     atom   55 type  2   force =     0.00071230   -0.00004185    0.00038673
     atom   56 type  4   force =    -0.00158170    0.00017821   -0.00065486
     atom   57 type  4   force =    -0.00013717    0.00095785   -0.00021087

     Total force =     0.374568     Total SCF correction =     0.000526
  @ DRIVER MODE: Message from server: STATUS
  @ DRIVER MODE: Message from server: GETFORCE
  @ DRIVER MODE: Returning v,forces,stress,ensemble

     Writing output data file ./calc.save/
  @ DRIVER MODE: Message from server: EXIT
  @ DRIVE MODE: Exiting

     General routines

     Parallel routines

   This run was terminated on:  22:54: 5  25Sep2021

   JOB DONE.