     Program PWSCF v.6.7GPU starts on  3Aug2021 at  0:31:51

     R & G space division:  proc/nbgrp/npool/nimage =      16
     Reading input from /storage/home/hcoda1/3/ntian30/research/carbon/02Aug_vib_paired/ads_slab/CH3NHH_a/out_0014/pw.inp
Warning: card &CELL ignored
Warning: card   CELL_DYNAMICS='IPI', ignored
Warning: card / ignored

     Current dimensions of program PWSCF are:
     Max number of different atomic species (ntypx) = 10
     Max number of k-points (npk) =  40000
     Max angular momentum in pseudopotentials (lmaxx) =  3
     Presently no symmetry can be used with electric field

     Message from routine cell_base_init:
     DEPRECATED: use true lattice parameter, not A to a.u. conversion factor

     IMPORTANT: XC functional enforced from input :
     Exchange-correlation= BEEF-VDW
                           (   1   4  43  14   2   0   0)
     Any further DFT definition will be discarded
     Please, verify this is what you really want

  @ DRIVER MODE: Connecting to
 qe_1139763_2482538.sched-torque.pace.gatech.eduvy_dl19t_scratch
  using UNIX socket
  @ DRIVER MODE: Message from server: STATUS
  @ DRIVER MODE: Message from server: INIT
  @ DRIVER MODE: Receiving replica           0          -1
  @ DRIVER MODE: Receiving encoded integer          25
  @ DRIVER MODE:  SCF:  T  FORCE:  T  STRESS:  F  VC:  F  ENSEMBLE:  F
  @ DRIVER MODE:  SCF:  T  FORCE:  T  STRESS:  F  VC:  F  ENSEMBLE:  F

     Using Slab Decomposition

     bravais-lattice index     =            0
     lattice parameter (alat)  =       1.8897  a.u.
     unit-cell volume          =    6658.9804 (a.u.)^3
     number of atoms/cell      =           54
     number of atomic types    =            5
     number of electrons       =       392.00
     number of Kohn-Sham states=          206
     kinetic-energy cutoff     =      29.3995  Ry
     charge density cutoff     =     293.9946  Ry
     scf convergence threshold =      7.3E-08
     mixing beta               =       0.0500
     number of iterations used =            8  plain     mixing
     Exchange-correlation= BEEF-VDW
                           (   1   4  43  14   2   0   0)

     celldm(1)=   1.889726  celldm(2)=   0.000000  celldm(3)=   0.000000
     celldm(4)=   0.000000  celldm(5)=   0.000000  celldm(6)=   0.000000

     crystal axes: (cart. coord. in units of alat)
               a(1) = (   6.579727   0.000000   0.000000 )
               a(2) = (  -0.000775   5.961596   0.000000 )
               a(3) = (   0.000000   0.000000  25.155947 )

     reciprocal axes: (cart. coord. in units 2 pi/alat)
               b(1) = (  0.151982  0.000020  0.000000 )
               b(2) = (  0.000000  0.167740  0.000000 )
               b(3) = (  0.000000  0.000000  0.039752 )

     PseudoPot. # 1 for Ti read from file:
     /storage/coda1/p-amedford6/0/shared/rich_project_chbe-medford/medford-share/data/pseudos_module/espresso/nninc/pbe/van/Ti.UPF
     MD5 check sum: 8e4df49b7f0d34bbd5052bf3f5ea0213
     Pseudo is Ultrasoft, Zval = 12.0
     Generated by new atomic code, or converted to UPF format
     Using radial grid of  851 points,  6 beta functions with:
                l(1) =   0
                l(2) =   0
                l(3) =   1
                l(4) =   1
                l(5) =   2
                l(6) =   2
     Q(r) pseudized with  8 coefficients,  rinner =    1.000   1.000   1.000
                                                       1.000   1.000

     PseudoPot. # 2 for O  read from file:
     /storage/coda1/p-amedford6/0/shared/rich_project_chbe-medford/medford-share/data/pseudos_module/espresso/nninc/pbe/van/O.UPF
     MD5 check sum: 78c19812648e8988a0fe644b0f25305e
     Pseudo is Ultrasoft, Zval =  6.0
     Generated by new atomic code, or converted to UPF format
     Using radial grid of  737 points,  4 beta functions with:
                l(1) =   0
                l(2) =   0
                l(3) =   1
                l(4) =   1
     Q(r) pseudized with  8 coefficients,  rinner =    0.800   0.800   0.800

     PseudoPot. # 3 for N  read from file:
     /storage/coda1/p-amedford6/0/shared/rich_project_chbe-medford/medford-share/data/pseudos_module/espresso/nninc/pbe/van/N.UPF
     MD5 check sum: 90d10febe142ad51ac9d5be1deb811c4
     Pseudo is Ultrasoft, Zval =  5.0
     Generated by new atomic code, or converted to UPF format
     Using radial grid of  729 points,  4 beta functions with:
                l(1) =   0
                l(2) =   0
                l(3) =   1
                l(4) =   1
     Q(r) pseudized with  8 coefficients,  rinner =    0.800   0.800   0.800

     PseudoPot. # 4 for C  read from file:
     /storage/coda1/p-amedford6/0/shared/rich_project_chbe-medford/medford-share/data/pseudos_module/espresso/nninc/pbe/van/C.UPF
     MD5 check sum: 1a69bf6b8db32088f5b2163dbdb77a27
     Pseudo is Ultrasoft, Zval =  4.0
     Generated by new atomic code, or converted to UPF format
     Using radial grid of  721 points,  4 beta functions with:
                l(1) =   0
                l(2) =   0
                l(3) =   1
                l(4) =   1
     Q(r) pseudized with  8 coefficients,  rinner =    0.800   0.800   0.800

     PseudoPot. # 5 for H  read from file:
     /storage/coda1/p-amedford6/0/shared/rich_project_chbe-medford/medford-share/data/pseudos_module/espresso/nninc/pbe/van/H.UPF
     MD5 check sum: b5ee9d7bfd3a09ee7748110bda690ff7
     Pseudo is Ultrasoft, Zval =  1.0
     Generated by new atomic code, or converted to UPF format
     Using radial grid of  615 points,  1 beta functions with:
                l(1) =   0
     Q(r) pseudized with  8 coefficients,  rinner =    0.800

     atomic species   valence    mass     pseudopotential
        Ti1           12.00    47.86700     Ti( 1.00)
        O1             6.00    15.99900     O ( 1.00)
        N1             5.00    14.00700     N ( 1.00)
        C1             4.00    12.01100     C ( 1.00)
        H1             1.00     1.00800     H ( 1.00)

     No symmetry found

   Cartesian axes

     site n.     atom                  positions (alat units)
         1           Ti1 tau(   1) = (   0.0004258   2.9801865   6.0000000  )
         2           Ti1 tau(   2) = (   3.2906075   1.4906267   6.0002472  )
         3           O1  tau(   3) = (   0.0006271   0.0005054   7.9858123  )
         4           O1  tau(   4) = (   3.2906025   0.0005020   7.3038282  )
         5           O1  tau(   5) = (   4.5942328   1.4918067   9.2879030  )
         6           O1  tau(   6) = (   1.9868534   1.4903216   9.2879459  )
         7           Ti1 tau(   7) = (   3.2907910   2.8959150   9.1758416  )
         8           Ti1 tau(   8) = (   0.0015273   1.4827037   9.2680791  )
         9           O1  tau(   9) = (   3.2893523   5.9576907  11.3759447  )
        10           O1  tau(  10) = (   0.0116148   5.9584955  10.6183126  )
        11           O1  tau(  11) = (   1.2892553   1.4862333  12.6941169  )
        12           O1  tau(  12) = (   5.2958346   1.4833122  12.6807028  )
        13           Ti1 tau(  13) = (   0.0095698   2.9692159  12.5083673  )
        14           Ti1 tau(  14) = (   3.3108451   1.4743585  12.5306019  )
        15           O1  tau(  15) = (   6.5736105   5.8801748  14.6991865  )
        16           O1  tau(  16) = (   3.2979610   5.9450902  14.0010558  )
        17           O1  tau(  17) = (   4.5273680   1.5185660  16.1654609  )
        18           O1  tau(  18) = (   2.0122787   1.5163527  16.1384539  )
        19           Ti1 tau(  19) = (   3.2802752   2.9921964  15.7561315  )
        20           Ti1 tau(  20) = (   0.0093588   1.3049760  15.8672178  )
        21           O1  tau(  21) = (   3.2904802   0.0005063   4.7018136  )
        22           O1  tau(  22) = (   6.5538635   0.1342075  17.2452287  )
        23           O1  tau(  23) = (   1.3043587   1.4918075   6.0039043  )
        24           O1  tau(  24) = (   5.2767064   1.4903225   6.0039473  )
        25           Ti1 tau(  25) = (   0.0000382   5.9609847   6.0000000  )
        26           Ti1 tau(  26) = (   3.2902200   4.4714249   6.0002472  )
        27           O1  tau(  27) = (   0.0002396   2.9813036   7.9858123  )
        28           O1  tau(  28) = (   3.2902150   2.9813002   7.3038282  )
        29           O1  tau(  29) = (   4.5938453   4.4726049   9.2879030  )
        30           O1  tau(  30) = (   1.9864658   4.4711199   9.2879459  )
        31           Ti1 tau(  31) = (   3.2891106   5.8743827   9.1763621  )
        32           Ti1 tau(  32) = (   0.0006254   4.4649316   9.2693709  )
        33           O1  tau(  33) = (   3.2933707   2.9638296  11.3700534  )
        34           O1  tau(  34) = (   0.0092240   2.9805883  10.6323155  )
        35           O1  tau(  35) = (   1.2923283   4.4540072  12.6594629  )
        36           O1  tau(  36) = (   5.2938616   4.4568750  12.6477176  )
        37           Ti1 tau(  37) = (   0.0202681   5.9396231  12.5027719  )
        38           Ti1 tau(  38) = (   3.3116628   4.4527548  12.5215617  )
        39           O1  tau(  39) = (   6.5466975   3.0260875  14.9671898  )
        40           O1  tau(  40) = (   3.2966604   2.9917109  13.9679302  )
        41           O1  tau(  41) = (   4.5116687   4.4737236  16.2360857  )
        42           O1  tau(  42) = (   2.0028912   4.4646324  16.2202640  )
        43           Ti1 tau(  43) = (   3.2937213   0.0113368  15.7972781  )
        44           Ti1 tau(  44) = (   0.0208052   4.5175143  16.0574476  )
        45           O1  tau(  45) = (   3.2900926   2.9813045   4.7018136  )
        46           O1  tau(  46) = (   1.3039711   4.4726057   6.0039043  )
        47           O1  tau(  47) = (   5.2763189   4.4711207   6.0039473  )
        48           N1  tau(  48) = (   6.3337458   3.3624127  18.1270434  )
        49           C1  tau(  49) = (   0.8795605   3.2639204  19.0799812  )
        50           H1  tau(  50) = (   1.4296110   4.2071110  19.0760701  )
        51           H1  tau(  51) = (   0.5395241   3.0459488  20.0957609  )
        52           H1  tau(  52) = (   1.5475163   2.4696122  18.7548312  )
        53           H1  tau(  53) = (   5.6940081   4.0973896  18.4182617  )
        54           H1  tau(  54) = (   5.7906660   2.4998151  18.1411682  )

     number of k points=    10  Fermi-Dirac smearing, width (Ry)=  0.0073
                       cart. coord. in units 2pi/alat
        k(    1) = (   0.0000000   0.0000000   0.0000000), wk =   0.1250000
        k(    2) = (   0.0000000   0.0419351   0.0000000), wk =   0.2500000
        k(    3) = (   0.0000000  -0.0838702   0.0000000), wk =   0.1250000
        k(    4) = (   0.0379955   0.0000049   0.0000000), wk =   0.2500000
        k(    5) = (   0.0379955   0.0419400   0.0000000), wk =   0.2500000
        k(    6) = (   0.0379955  -0.0838652   0.0000000), wk =   0.2500000
        k(    7) = (   0.0379955  -0.0419301   0.0000000), wk =   0.2500000
        k(    8) = (  -0.0759910  -0.0000099   0.0000000), wk =   0.1250000
        k(    9) = (  -0.0759910   0.0419252   0.0000000), wk =   0.2500000
        k(   10) = (  -0.0759910  -0.0838800   0.0000000), wk =   0.1250000

     Initial potential from superposition of free atoms

     starting charge  375.99915, renormalised to  392.00000

     negative rho (up, down):  1.622E-02 0.000E+00

     %%%%%%%%%%%%%%%%%%%%%%%%%%%%%%%%%%%%%%%%%%%%%%%%%%%%%%%%%%%%%%%%%%%%%%%%
     %                                                                      %
     % You are using vdW-DF, which was implemented by the Thonhauser group. %
     % Please cite the following two papers that made this development      %
     % possible and the two reviews that describe the various versions:     %
     %                                                                      %
     %   T. Thonhauser et al., PRL 115, 136402 (2015).                      %
     %   T. Thonhauser et al., PRB 76, 125112 (2007).                       %
     %   K. Berland et al., Rep. Prog. Phys. 78, 066501 (2015).             %
     %   D.C. Langreth et al., J. Phys.: Condens. Matter 21, 084203 (2009). %
     %                                                                      %
     %                                                                      %
     % If you are calculating the stress with vdW-DF, please also cite:     %
     %                                                                      %
     %   R. Sabatini et al., J. Phys.: Condens. Matter 24, 424209 (2012).   %
     %                                                                      %
     %%%%%%%%%%%%%%%%%%%%%%%%%%%%%%%%%%%%%%%%%%%%%%%%%%%%%%%%%%%%%%%%%%%%%%%%

     Adding external electric field

     Computed dipole along edir(3) :
        Dipole               -7.5471 Ry au,        -19.1827 Debye
        Dipole field         -0.0142 Ry au,

        Potential amp.        1.3202 Ry
        Total length         46.3494 bohr

     Starting wfcs are  297 atomic wfcs
  @ DRIVER MODE: Message from server: STATUS
  @ DRIVER MODE: Message from server: POSDATA
  @ DRIVER MODE: Reading and sharing cell
  @ DRIVER MODE: Reading and sharing positions
  @ DRIVER MODE: Received positions

     Self-consistent Calculation

     iteration #  1     ecut=    29.40 Ry     beta= 0.05
     Davidson diagonalization with overlap
     c_bands:  1 eigenvalues not converged
     c_bands:  1 eigenvalues not converged
     c_bands:  2 eigenvalues not converged
     c_bands:  1 eigenvalues not converged
     c_bands:  1 eigenvalues not converged
     c_bands:  1 eigenvalues not converged
     c_bands:  1 eigenvalues not converged
     ethr =  1.00E-05,  avg # of iterations = 19.6

[...]

     total energy              =   -2679.37690121 Ry
     estimated scf accuracy    <    2680.93154657 Ry

[...]

     iteration #  3     ecut=    29.40 Ry     beta= 0.05
     Davidson diagonalization with overlap
     ethr =  1.00E-02,  avg # of iterations = 14.5

[...]

     iteration # 75     ecut=    29.40 Ry     beta= 0.05
     Davidson diagonalization with overlap
     ethr =  3.28E-11,  avg # of iterations =  8.0

[...]

     total energy              =   -2921.63273011 Ry
     estimated scf accuracy    <       0.00000008 Ry

     iteration # 76     ecut=    29.40 Ry     beta= 0.05
     Davidson diagonalization with overlap
     c_bands:  1 eigenvalues not converged
     ethr =  2.01E-11,  avg # of iterations = 13.8

     negative rho (up, down):  1.710E-02 0.000E+00

     Adding external electric field

     Computed dipole along edir(3) :
        Dipole                1.2969 Ry au,          3.2964 Debye
        Dipole field          0.0024 Ry au,

        Potential amp.       -0.2269 Ry
        Total length         46.3494 bohr

     End of self-consistent calculation

          k = 0.0000 0.0000 0.0000 ( 18029 PWs)   bands (ev):

   -55.4340 -55.3975 -55.3843 -55.3568 -55.3501 -55.3172 -55.3124 -55.2779
   -55.2536 -55.2380 -55.2191 -55.2153 -55.1817 -55.1158 -54.4140 -54.3800
   -32.0030 -31.8886 -31.8769 -31.8009 -31.7500 -31.7436 -31.7424 -31.7213
   -31.6754 -31.6733 -31.6447 -31.6432 -31.6292 -31.6187 -31.6040 -31.5999
   -31.5897 -31.5768 -31.5719 -31.5503 -31.5369 -31.5328 -31.5075 -31.4982
   -31.4900 -31.4860 -31.4845 -31.4563 -31.4431 -31.4415 -31.4345 -31.4154
   -31.4142 -31.4129 -31.4033 -31.4005 -31.3674 -31.3593 -31.3435 -31.3267
   -31.3225 -31.2993 -30.8234 -30.7291 -30.7071 -30.6398 -30.5530 -30.4421
   -16.2942 -16.1648 -15.9776 -15.8308 -15.7503 -15.6329 -15.5177 -15.5010
   -15.3649 -15.2829 -15.1637 -15.1385 -15.1194 -15.0967 -15.0853 -15.0690
   -14.9782 -14.9727 -14.9584 -14.9274 -14.9249 -14.8801 -14.8722 -14.8308
   -14.8106 -14.8081 -14.6844 -14.5930 -14.5202 -14.2807 -12.9166 -12.7992
   -10.2245  -6.2782  -4.8380  -3.9710  -3.6086  -3.4544  -3.3646  -3.3383
    -3.3253  -3.1905  -3.0445  -2.8866  -2.8464  -2.8258  -2.7212  -2.6479
    -2.6379  -2.6185  -2.4635  -2.4321  -2.3888  -2.3421  -2.2981  -2.2435
    -2.2248  -2.2186  -2.2033  -2.1816  -2.1711  -2.0539  -2.0012  -1.9176
    -1.8601  -1.8375  -1.7873  -1.7658  -1.7437  -1.7234  -1.7139  -1.6694
    -1.6586  -1.6284  -1.5726  -1.4622  -1.3630  -1.3099  -1.1919  -1.0709
    -1.0307  -1.0179  -0.9790  -0.9360  -0.9198  -0.8547  -0.8107  -0.7805
    -0.7207  -0.6638  -0.6013  -0.5531  -0.4826  -0.4682  -0.4207  -0.3670
    -0.2537  -0.2160  -0.2012  -0.1752  -0.0822  -0.0461  -0.0012   0.0818
     0.0920   0.1076   0.2081   0.2214   0.2914   0.3376   0.3551   0.4475
     0.4857   0.4953   0.5008   0.5248   0.5513   0.6029   0.6405   0.6686
     0.7390   0.8643   1.0807   1.1545   1.1790   1.5052   1.5141   1.6087
     1.7921   2.1848   2.2331   3.6638   3.7348   3.8097   3.8154   3.8324
     3.9013   4.1384   4.1612   4.1688   4.1751   4.1970

[...]

          k = 0.0380-0.0419 0.0000 ( 17876 PWs)   bands (ev):

[...]

          k =-0.0760-0.0000 0.0000 ( 17886 PWs)   bands (ev):

[...]

          k =-0.0760-0.0839 0.0000 ( 17948 PWs)   bands (ev):

   -55.4189 -55.4124 -55.3674 -55.3668 -55.3553 -55.3134 -55.2969 -55.2934
   -55.2417 -55.2381 -55.2342 -55.1988 -55.1983 -55.1171 -54.3971 -54.3968
   -31.8093 -31.8064 -31.8044 -31.7198 -31.6948 -31.6922 -31.6917 -31.6587
   -31.6584 -31.6434 -31.6361 -31.6333 -31.6279 -31.5996 -31.5921 -31.5734
   -31.5710 -31.5668 -31.5651 -31.5628 -31.5601 -31.5561 -31.5174 -31.5140
   -31.5088 -31.5079 -31.5061 -31.4899 -31.4872 -31.4867 -31.4855 -31.4714
   -31.4675 -31.4512 -31.4473 -31.4315 -31.4311 -31.4288 -31.3809 -31.3796
   -31.3769 -31.3275 -30.7199 -30.7196 -30.6360 -30.6358 -30.5965 -30.5964
   -16.1347 -15.7794 -15.6877 -15.6403 -15.4669 -15.4377 -15.4212 -15.4061
   -15.2736 -15.2557 -15.2317 -15.2036 -15.1815 -15.1468 -15.1373 -15.1347
   -15.0551 -15.0410 -15.0340 -15.0182 -14.9521 -14.9424 -14.9400 -14.9326
   -14.8823 -14.8787 -14.8157 -14.7862 -14.7831 -14.5711 -12.9007 -12.9006
   -10.2278  -6.2489  -4.8348  -3.9341  -2.9569  -2.9173  -2.8923  -2.8889
    -2.6824  -2.6408  -2.6057  -2.5800  -2.4901  -2.4505  -2.4354  -2.4274
    -2.3558  -2.3388  -2.3211  -2.2760  -2.2701  -2.2563  -2.2343  -2.2038
    -2.1823  -2.1629  -2.1535  -2.1349  -2.0884  -2.0773  -2.0531  -2.0376
    -2.0346  -2.0171  -1.9885  -1.9420  -1.8153  -1.8071  -1.7400  -1.6406
    -1.6358  -1.5592  -1.5461  -1.5107  -1.4855  -1.4661  -1.4239  -1.2502
    -1.2069  -1.1803  -1.1707  -1.1137  -1.0485  -1.0258  -0.9556  -0.9398
    -0.9213  -0.8176  -0.7730  -0.7582  -0.6686  -0.6560  -0.5776  -0.5133
    -0.4687  -0.4423  -0.3967  -0.3899  -0.3876  -0.3401  -0.3325  -0.2513
    -0.2043  -0.1679  -0.1539  -0.1239   0.0729   0.0836   0.1102   0.2504
     0.2796   0.4026   0.4367   0.4888   0.5639   0.5964   0.6780   0.7134
     0.8435   0.8724   0.8738   0.9462   0.9575   1.0194   1.0290   1.9652
     1.9659   2.0530   2.0532   3.8203   3.8990   3.9255   3.9674   4.0793
     4.1542   4.1796   4.2003   4.2493   4.2520   4.3139

     the Fermi energy is     3.7277 ev

!    total energy              =   -2921.63274262 Ry
     estimated scf accuracy    <       0.00000006 Ry
     smearing contrib. (-TS)   =      -0.03708892 Ry
     internal energy E=F+TS    =   -2921.59565370 Ry

     The total energy is F=E-TS. E is the sum of the following terms:
     one-electron contribution =  -24028.51705147 Ry
     hartree contribution      =   12103.32915816 Ry
     xc contribution           =    -481.74532422 Ry
     ewald contribution        =    9485.33438976 Ry
     electric field correction =       0.00317407 Ry

     convergence has been achieved in  76 iterations

     Forces acting on atoms (cartesian axes, Ry/au):

     atom    1 type  1   force =     0.00003048   -0.00023170    0.09323961
     atom    2 type  1   force =    -0.00018724   -0.00034547   -0.17828816
     atom    3 type  2   force =     0.00002732   -0.00038459   -0.02022750
     atom    4 type  2   force =    -0.00002767   -0.00194677    0.05877551
     atom    5 type  2   force =    -0.01019564   -0.00112081    0.00778048
     atom    6 type  2   force =     0.01166757   -0.00040052    0.00694631
     atom    7 type  1   force =    -0.00049091    0.00211885   -0.01457736
     atom    8 type  1   force =     0.00025256   -0.00050534   -0.00478969
     atom    9 type  2   force =     0.00015135    0.00012054   -0.00005205
     atom   10 type  2   force =    -0.00113649    0.00139219    0.00054365
     atom   11 type  2   force =    -0.00010282    0.00015694    0.00005375
     atom   12 type  2   force =    -0.00003263    0.00036235    0.00022903
     atom   13 type  1   force =    -0.00005949   -0.00017849   -0.00014053
     atom   14 type  1   force =    -0.00015989    0.00010497    0.00026423
     atom   15 type  2   force =    -0.00020753   -0.00032529    0.00007866
     atom   16 type  2   force =    -0.00022367    0.00019518    0.00016489
     atom   17 type  2   force =     0.00014685   -0.00010145    0.00006503
     atom   18 type  2   force =    -0.00003400   -0.00020163    0.00014175
     atom   19 type  1   force =    -0.00030136    0.00028701    0.00039295
     atom   20 type  1   force =    -0.00000555   -0.00012230   -0.00030842
     atom   21 type  2   force =     0.00002820   -0.00006266    0.10393420
     atom   22 type  2   force =     0.00023961    0.00036909   -0.00003532
     atom   23 type  2   force =    -0.07041120   -0.00015394   -0.02691355
     atom   24 type  2   force =     0.07025640    0.00029081   -0.02696307
     atom   25 type  1   force =    -0.00002309   -0.00013339    0.09272786
     atom   26 type  1   force =    -0.00021119   -0.00048817   -0.17830585
     atom   27 type  2   force =     0.00008570   -0.00027980   -0.01930522
     atom   28 type  2   force =     0.00004370   -0.00171332    0.05811972
     atom   29 type  2   force =    -0.01073046   -0.00111500    0.00833894
     atom   30 type  2   force =     0.01207584   -0.00083981    0.00746232
     atom   31 type  1   force =    -0.00039263    0.00596466   -0.01540274
     atom   32 type  1   force =     0.00022756   -0.00000597   -0.00517591
     atom   33 type  2   force =    -0.00007919    0.00001158    0.00008932
     atom   34 type  2   force =    -0.00101373   -0.00249441   -0.00000172
     atom   35 type  2   force =    -0.00005684    0.00023909   -0.00006149
     atom   36 type  2   force =    -0.00012713    0.00009532    0.00000138
     atom   37 type  1   force =    -0.00002958    0.00007695   -0.00017845
     atom   38 type  1   force =    -0.00009067   -0.00000747    0.00009806
     atom   39 type  2   force =     0.00021125   -0.00003653    0.00014540
     atom   40 type  2   force =    -0.00030148    0.00024096   -0.00005230
     atom   41 type  2   force =     0.00019997    0.00043925    0.00008802
     atom   42 type  2   force =    -0.00006632    0.00012507    0.00031402
     atom   43 type  1   force =    -0.00032227    0.00028022    0.00012004
     atom   44 type  1   force =    -0.00002488   -0.00015427    0.00006333
     atom   45 type  2   force =     0.00001750   -0.00007635    0.10390900
     atom   46 type  2   force =    -0.07038670   -0.00010334   -0.02686037
     atom   47 type  2   force =     0.07023459    0.00032617   -0.02691172
     atom   48 type  3   force =     0.00061984   -0.00035909   -0.00022698
     atom   49 type  4   force =     0.00372051    0.00358626   -0.00024894
     atom   50 type  5   force =    -0.00387219   -0.00356697   -0.00021719
     atom   51 type  5   force =     0.00040528    0.00060789   -0.00053436
     atom   52 type  5   force =    -0.00028171   -0.00104111    0.00007230
     atom   53 type  5   force =     0.00009964    0.00080338    0.00155273
     atom   54 type  5   force =     0.00084444    0.00030122    0.00006642

     Total force =     0.366229     Total SCF correction =     0.000685
  @ DRIVER MODE: Message from server: STATUS
  @ DRIVER MODE: Message from server: GETFORCE
  @ DRIVER MODE: Returning v,forces,stress,ensemble

     Writing output data file ./calc.save/
  @ DRIVER MODE: Message from server: EXIT
  @ DRIVE MODE: Exiting

     General routines

     Parallel routines

   This run was terminated on:   1:33:49   3Aug2021

   JOB DONE.