     Program PWSCF v.6.7GPU starts on 23Aug2021 at 17:20:25

     R & G space division:  proc/nbgrp/npool/nimage =       6
     Reading input from /storage/home/hcoda1/3/ntian30/research/carbon/CH_vib/ads_slab/CHN2H_a/out_0009/pw.inp
Warning: card &CELL ignored
Warning: card   CELL_DYNAMICS='IPI', ignored
Warning: card / ignored

     Current dimensions of program PWSCF are:
     Max number of different atomic species (ntypx) = 10
     Max number of k-points (npk) =  40000
     Max angular momentum in pseudopotentials (lmaxx) =  3
     Presently no symmetry can be used with electric field

     Message from routine cell_base_init:
     DEPRECATED: use true lattice parameter, not A to a.u. conversion factor

     IMPORTANT: XC functional enforced from input :
     Exchange-correlation= BEEF-VDW
                           (   1   4  43  14   2   0   0)
     Any further DFT definition will be discarded
     Please, verify this is what you really want

  @ DRIVER MODE: Connecting to
 qe_1139763_2632792.sched-torque.pace.gatech.eduxr2l96ai_scratch
  using UNIX socket
  @ DRIVER MODE: Message from server: STATUS
  @ DRIVER MODE: Message from server: INIT
  @ DRIVER MODE: Receiving replica           0          -1
  @ DRIVER MODE: Receiving encoded integer          25
  @ DRIVER MODE:  SCF:  T  FORCE:  T  STRESS:  F  VC:  F  ENSEMBLE:  F
  @ DRIVER MODE:  SCF:  T  FORCE:  T  STRESS:  F  VC:  F  ENSEMBLE:  F

     Using Slab Decomposition

     bravais-lattice index     =            0
     lattice parameter (alat)  =       1.8897  a.u.
     unit-cell volume          =    6658.9804 (a.u.)^3
     number of atoms/cell      =           52
     number of atomic types    =            5
     number of electrons       =       394.00
     number of Kohn-Sham states=          207
     kinetic-energy cutoff     =      29.3995  Ry
     charge density cutoff     =     293.9946  Ry
     scf convergence threshold =      7.3E-08
     mixing beta               =       0.0500
     number of iterations used =            8  plain     mixing
     Exchange-correlation= BEEF-VDW
                           (   1   4  43  14   2   0   0)

     celldm(1)=   1.889726  celldm(2)=   0.000000  celldm(3)=   0.000000
     celldm(4)=   0.000000  celldm(5)=   0.000000  celldm(6)=   0.000000

     crystal axes: (cart. coord. in units of alat)
               a(1) = (   6.579727   0.000000   0.000000 )
               a(2) = (  -0.000775   5.961596   0.000000 )
               a(3) = (   0.000000   0.000000  25.155947 )

     reciprocal axes: (cart. coord. in units 2 pi/alat)
               b(1) = (  0.151982  0.000020  0.000000 )
               b(2) = (  0.000000  0.167740  0.000000 )
               b(3) = (  0.000000  0.000000  0.039752 )

     PseudoPot. # 1 for Ti read from file:
     /storage/coda1/p-amedford6/0/shared/rich_project_chbe-medford/medford-share/data/pseudos_module/espresso/nninc/pbe/van/Ti.UPF
     MD5 check sum: 8e4df49b7f0d34bbd5052bf3f5ea0213
     Pseudo is Ultrasoft, Zval = 12.0
     Generated by new atomic code, or converted to UPF format
     Using radial grid of  851 points,  6 beta functions with:
                l(1) =   0
                l(2) =   0
                l(3) =   1
                l(4) =   1
                l(5) =   2
                l(6) =   2
     Q(r) pseudized with  8 coefficients,  rinner =    1.000   1.000   1.000
                                                       1.000   1.000

     PseudoPot. # 2 for O  read from file:
     /storage/coda1/p-amedford6/0/shared/rich_project_chbe-medford/medford-share/data/pseudos_module/espresso/nninc/pbe/van/O.UPF
     MD5 check sum: 78c19812648e8988a0fe644b0f25305e
     Pseudo is Ultrasoft, Zval =  6.0
     Generated by new atomic code, or converted to UPF format
     Using radial grid of  737 points,  4 beta functions with:
                l(1) =   0
                l(2) =   0
                l(3) =   1
                l(4) =   1
     Q(r) pseudized with  8 coefficients,  rinner =    0.800   0.800   0.800

     PseudoPot. # 3 for N  read from file:
     /storage/coda1/p-amedford6/0/shared/rich_project_chbe-medford/medford-share/data/pseudos_module/espresso/nninc/pbe/van/N.UPF
     MD5 check sum: 90d10febe142ad51ac9d5be1deb811c4
     Pseudo is Ultrasoft, Zval =  5.0
     Generated by new atomic code, or converted to UPF format
     Using radial grid of  729 points,  4 beta functions with:
                l(1) =   0
                l(2) =   0
                l(3) =   1
                l(4) =   1
     Q(r) pseudized with  8 coefficients,  rinner =    0.800   0.800   0.800

     PseudoPot. # 4 for C  read from file:
     /storage/coda1/p-amedford6/0/shared/rich_project_chbe-medford/medford-share/data/pseudos_module/espresso/nninc/pbe/van/C.UPF
     MD5 check sum: 1a69bf6b8db32088f5b2163dbdb77a27
     Pseudo is Ultrasoft, Zval =  4.0
     Generated by new atomic code, or converted to UPF format
     Using radial grid of  721 points,  4 beta functions with:
                l(1) =   0
                l(2) =   0
                l(3) =   1
                l(4) =   1
     Q(r) pseudized with  8 coefficients,  rinner =    0.800   0.800   0.800

     PseudoPot. # 5 for H  read from file:
     /storage/coda1/p-amedford6/0/shared/rich_project_chbe-medford/medford-share/data/pseudos_module/espresso/nninc/pbe/van/H.UPF
     MD5 check sum: b5ee9d7bfd3a09ee7748110bda690ff7
     Pseudo is Ultrasoft, Zval =  1.0
     Generated by new atomic code, or converted to UPF format
     Using radial grid of  615 points,  1 beta functions with:
                l(1) =   0
     Q(r) pseudized with  8 coefficients,  rinner =    0.800

     atomic species   valence    mass     pseudopotential
        Ti1           12.00    47.86700     Ti( 1.00)
        O1             6.00    15.99900     O ( 1.00)
        N1             5.00    14.00700     N ( 1.00)
        C1             4.00    12.01100     C ( 1.00)
        H1             1.00     1.00800     H ( 1.00)

     No symmetry found

   Cartesian axes

     site n.     atom                  positions (alat units)
         1           Ti1 tau(   1) = (   0.0004258   2.9801865   6.0000000  )
         2           Ti1 tau(   2) = (   3.2906075   1.4906267   6.0002472  )
         3           O1  tau(   3) = (   0.0006271   0.0005054   7.9858123  )
         4           O1  tau(   4) = (   3.2906025   0.0005020   7.3038282  )
         5           O1  tau(   5) = (   4.5942328   1.4918067   9.2879030  )
         6           O1  tau(   6) = (   1.9868534   1.4903216   9.2879459  )
         7           Ti1 tau(   7) = (   3.2907910   2.8959150   9.1758416  )
         8           Ti1 tau(   8) = (   0.0015273   1.4827037   9.2680791  )
         9           O1  tau(   9) = (   3.3079035   5.9465650  11.3667630  )
        10           O1  tau(  10) = (   0.0116148   5.9584955  10.6183126  )
        11           O1  tau(  11) = (   1.3159687   1.4802111  12.6598234  )
        12           O1  tau(  12) = (   5.3141237   1.4785834  12.6569702  )
        13           Ti1 tau(  13) = (   0.0356438   2.9569522  12.5500042  )
        14           Ti1 tau(  14) = (   3.3321116   1.4682926  12.5176941  )
        15           O1  tau(  15) = (   0.0287262   5.9365737  14.6848071  )
        16           O1  tau(  16) = (   3.3260766   5.9477468  13.9918032  )
        17           O1  tau(  17) = (   4.5788076   1.5006004  16.1778977  )
        18           O1  tau(  18) = (   2.0653823   1.4932191  16.1519216  )
        19           Ti1 tau(  19) = (   3.3252840   2.9629899  15.7366588  )
        20           Ti1 tau(  20) = (   0.0567170   1.3280226  15.9864722  )
        21           O1  tau(  21) = (   3.2904802   0.0005063   4.7018136  )
        22           O1  tau(  22) = (   0.0395201   5.9563027  17.2132275  )
        23           O1  tau(  23) = (   1.3043587   1.4918075   6.0039043  )
        24           O1  tau(  24) = (   5.2767064   1.4903225   6.0039473  )
        25           Ti1 tau(  25) = (   0.0000382   5.9609847   6.0000000  )
        26           Ti1 tau(  26) = (   3.2902200   4.4714249   6.0002472  )
        27           O1  tau(  27) = (   0.0002396   2.9813036   7.9858123  )
        28           O1  tau(  28) = (   3.2902150   2.9813002   7.3038282  )
        29           O1  tau(  29) = (   4.5938453   4.4726049   9.2879030  )
        30           O1  tau(  30) = (   1.9864658   4.4711199   9.2879459  )
        31           Ti1 tau(  31) = (   3.2891106   5.8743827   9.1763621  )
        32           Ti1 tau(  32) = (   0.0006254   4.4649316   9.2693709  )
        33           O1  tau(  33) = (   3.3109971   2.9638951  11.3609806  )
        34           O1  tau(  34) = (   0.0092240   2.9805883  10.6323155  )
        35           O1  tau(  35) = (   1.3172493   4.4579999  12.6547637  )
        36           O1  tau(  36) = (   5.3123203   4.4599931  12.6537913  )
        37           Ti1 tau(  37) = (   0.0349292   5.9384232  12.5038109  )
        38           Ti1 tau(  38) = (   3.3308216   4.4462378  12.5132791  )
        39           O1  tau(  39) = (   0.0262156   2.9786664  14.8481040  )
        40           O1  tau(  40) = (   3.3240488   2.9673873  13.9486158  )
        41           O1  tau(  41) = (   4.5778164   4.4375445  16.1741249  )
        42           O1  tau(  42) = (   2.0647505   4.4412733  16.1578575  )
        43           Ti1 tau(  43) = (   3.3314326   5.9455663  15.7867969  )
        44           Ti1 tau(  44) = (   0.0345939   4.5236910  15.9072353  )
        45           O1  tau(  45) = (   3.2900926   2.9813045   4.7018136  )
        46           O1  tau(  46) = (   1.3039711   4.4726057   6.0039043  )
        47           O1  tau(  47) = (   5.2763189   4.4711207   6.0039473  )
        48           N1  tau(  48) = (   0.8843530   3.1395628  18.6524426  )
        49           C1  tau(  49) = (   1.8908588   3.1094352  19.2834450  )
        50           H1  tau(  50) = (   2.4245030   3.8971110  19.8100181  )
        51           N1  tau(  51) = (   6.5588057   2.9807634  17.7841789  )
        52           H1  tau(  52) = (   5.6432114   2.8891999  18.2270943  )

     number of k points=    10  Fermi-Dirac smearing, width (Ry)=  0.0073
                       cart. coord. in units 2pi/alat
        k(    1) = (   0.0000000   0.0000000   0.0000000), wk =   0.1250000
        k(    2) = (   0.0000000   0.0419351   0.0000000), wk =   0.2500000
        k(    3) = (   0.0000000  -0.0838702   0.0000000), wk =   0.1250000
        k(    4) = (   0.0379955   0.0000049   0.0000000), wk =   0.2500000
        k(    5) = (   0.0379955   0.0419400   0.0000000), wk =   0.2500000
        k(    6) = (   0.0379955  -0.0838652   0.0000000), wk =   0.2500000
        k(    7) = (   0.0379955  -0.0419301   0.0000000), wk =   0.2500000
        k(    8) = (  -0.0759910  -0.0000099   0.0000000), wk =   0.1250000
        k(    9) = (  -0.0759910   0.0419252   0.0000000), wk =   0.2500000
        k(   10) = (  -0.0759910  -0.0838800   0.0000000), wk =   0.1250000

     Initial potential from superposition of free atoms

     starting charge  377.99917, renormalised to  394.00000

     negative rho (up, down):  1.652E-02 0.000E+00

     %%%%%%%%%%%%%%%%%%%%%%%%%%%%%%%%%%%%%%%%%%%%%%%%%%%%%%%%%%%%%%%%%%%%%%%%
     %                                                                      %
     % You are using vdW-DF, which was implemented by the Thonhauser group. %
     % Please cite the following two papers that made this development      %
     % possible and the two reviews that describe the various versions:     %
     %                                                                      %
     %   T. Thonhauser et al., PRL 115, 136402 (2015).                      %
     %   T. Thonhauser et al., PRB 76, 125112 (2007).                       %
     %   K. Berland et al., Rep. Prog. Phys. 78, 066501 (2015).             %
     %   D.C. Langreth et al., J. Phys.: Condens. Matter 21, 084203 (2009). %
     %                                                                      %
     %                                                                      %
     % If you are calculating the stress with vdW-DF, please also cite:     %
     %                                                                      %
     %   R. Sabatini et al., J. Phys.: Condens. Matter 24, 424209 (2012).   %
     %                                                                      %
     %%%%%%%%%%%%%%%%%%%%%%%%%%%%%%%%%%%%%%%%%%%%%%%%%%%%%%%%%%%%%%%%%%%%%%%%

     Adding external electric field

     Computed dipole along edir(3) :
        Dipole               -8.4995 Ry au,        -21.6035 Debye
        Dipole field         -0.0160 Ry au,

        Potential amp.        1.4869 Ry
        Total length         46.3494 bohr

     Starting wfcs are  298 atomic wfcs
  @ DRIVER MODE: Message from server: STATUS
  @ DRIVER MODE: Message from server: POSDATA
  @ DRIVER MODE: Reading and sharing cell
  @ DRIVER MODE: Reading and sharing positions
  @ DRIVER MODE: Received positions

     Self-consistent Calculation

     iteration #  1     ecut=    29.40 Ry     beta= 0.05
     Davidson diagonalization with overlap
     c_bands:  1 eigenvalues not converged
     c_bands:  1 eigenvalues not converged
     c_bands:  2 eigenvalues not converged
     c_bands:  2 eigenvalues not converged
     c_bands:  2 eigenvalues not converged
     c_bands:  1 eigenvalues not converged
     ethr =  1.00E-05,  avg # of iterations = 19.0

[...]

     total energy              =   -2624.28347134 Ry
     estimated scf accuracy    <    3488.43422399 Ry

[...]

     iteration #  3     ecut=    29.40 Ry     beta= 0.05
     Davidson diagonalization with overlap
     ethr =  1.00E-02,  avg # of iterations = 14.7

[...]

     iteration # 73     ecut=    29.40 Ry     beta= 0.05
     Davidson diagonalization with overlap
     c_bands:  1 eigenvalues not converged
     ethr =  8.19E-11,  avg # of iterations = 10.8

[...]

     total energy              =   -2937.80851045 Ry
     estimated scf accuracy    <       0.00000012 Ry

     iteration # 75     ecut=    29.40 Ry     beta= 0.05
     Davidson diagonalization with overlap
     ethr =  3.07E-11,  avg # of iterations = 11.4

     negative rho (up, down):  1.628E-02 0.000E+00

     Adding external electric field

     Computed dipole along edir(3) :
        Dipole                1.2796 Ry au,          3.2523 Debye
        Dipole field          0.0024 Ry au,

        Potential amp.       -0.2238 Ry
        Total length         46.3494 bohr

     End of self-consistent calculation

          k = 0.0000 0.0000 0.0000 ( 18029 PWs)   bands (ev):

   -55.4436 -55.4076 -55.4076 -55.3735 -55.3370 -55.3212 -55.2782 -55.2565
   -55.2508 -55.2419 -55.2339 -55.2220 -55.2005 -55.1723 -54.4260 -54.3919
   -32.0127 -31.8984 -31.8357 -31.8069 -31.7628 -31.7554 -31.7458 -31.7367
   -31.6972 -31.6901 -31.6528 -31.6520 -31.6446 -31.6173 -31.5981 -31.5798
   -31.5752 -31.5688 -31.5609 -31.5552 -31.5199 -31.5189 -31.5099 -31.5014
   -31.4869 -31.4646 -31.4589 -31.4554 -31.4513 -31.4480 -31.4449 -31.4306
   -31.4227 -31.4162 -31.4107 -31.4057 -31.3833 -31.3711 -31.3695 -31.3632
   -31.3425 -31.2791 -30.8348 -30.7420 -30.7198 -30.6513 -30.5646 -30.4536
   -20.2232 -16.2579 -15.9854 -15.8407 -15.7179 -15.6341 -15.5070 -15.4669
   -15.3496 -15.3304 -15.2356 -15.1601 -15.0924 -15.0893 -15.0719 -15.0459
   -14.9930 -14.9790 -14.9765 -14.9341 -14.9317 -14.8898 -14.8705 -14.8365
   -14.8188 -14.7995 -14.7800 -14.6596 -14.5904 -14.5318 -14.1671 -12.9285
   -12.8113  -8.7968  -7.0836  -5.4226  -4.6994  -3.6032  -3.4434  -3.3561
    -3.3405  -3.3357  -3.1714  -3.0432  -2.8160  -2.7770  -2.7045  -2.6503
    -2.6322  -2.6102  -2.4324  -2.4081  -2.3480  -2.3204  -2.2835  -2.2541
    -2.2291  -2.2069  -2.2010  -2.1830  -2.1683  -2.0085  -1.9097  -1.8771
    -1.8423  -1.8293  -1.7697  -1.7367  -1.7309  -1.7292  -1.7201  -1.6767
    -1.6559  -1.6090  -1.5069  -1.4730  -1.4439  -1.3234  -1.3086  -1.1596
    -1.0766  -0.9914  -0.9843  -0.9175  -0.9098  -0.8776  -0.8279  -0.8013
    -0.7790  -0.6452  -0.5738  -0.5139  -0.5009  -0.4574  -0.4126  -0.3760
    -0.2819  -0.2193  -0.2114  -0.1995  -0.0338  -0.0186   0.0273   0.0764
     0.1022   0.1492   0.1763   0.2442   0.2790   0.3240   0.3543   0.4504
     0.4912   0.5104   0.5246   0.5441   0.5559   0.6179   0.6832   0.7016
     0.7501   0.8093   0.9186   1.1177   1.1772   1.1914   1.5064   1.5408
     1.5966   1.7819   2.1717   2.2194   3.6566   3.7280   3.7916   3.8067
     3.8163   3.8920   4.0641   4.1397   4.1552   4.1619   4.1735

[...]

          k = 0.0380-0.0419 0.0000 ( 17876 PWs)   bands (ev):

[...]

          k =-0.0760-0.0000 0.0000 ( 17886 PWs)   bands (ev):

[...]

          k =-0.0760-0.0839 0.0000 ( 17948 PWs)   bands (ev):

   -55.4267 -55.4243 -55.3908 -55.3903 -55.3337 -55.3127 -55.2866 -55.2464
   -55.2451 -55.2400 -55.2379 -55.2176 -55.2172 -55.1764 -54.4090 -54.4088
   -31.8176 -31.8147 -31.7543 -31.7359 -31.7137 -31.7132 -31.7012 -31.6828
   -31.6823 -31.6541 -31.6447 -31.6393 -31.6362 -31.5958 -31.5740 -31.5708
   -31.5707 -31.5628 -31.5623 -31.5517 -31.5392 -31.5295 -31.5190 -31.5155
   -31.5114 -31.5101 -31.5097 -31.5032 -31.4810 -31.4732 -31.4709 -31.4707
   -31.4537 -31.4511 -31.4502 -31.4418 -31.4405 -31.4358 -31.3977 -31.3971
   -31.3908 -31.3705 -30.7326 -30.7324 -30.6475 -30.6473 -30.6080 -30.6079
   -20.2219 -15.7125 -15.6932 -15.6343 -15.4282 -15.4248 -15.4137 -15.3992
   -15.3627 -15.2398 -15.2194 -15.2046 -15.1878 -15.1461 -15.1424 -15.1251
   -15.1152 -15.0171 -15.0149 -15.0128 -15.0114 -14.9491 -14.9412 -14.9274
   -14.8930 -14.8899 -14.8605 -14.7909 -14.7880 -14.6533 -14.4871 -12.9129
   -12.9128  -8.7825  -7.1026  -5.4209  -4.6828  -2.9687  -2.8983  -2.8548
    -2.6456  -2.6230  -2.6083  -2.5247  -2.4757  -2.4140  -2.4066  -2.3994
    -2.3409  -2.3051  -2.2919  -2.2736  -2.2658  -2.2482  -2.2269  -2.2151
    -2.1692  -2.1587  -2.1492  -2.1131  -2.1007  -2.0826  -2.0572  -2.0379
    -2.0236  -2.0186  -1.9985  -1.8381  -1.7865  -1.7388  -1.6845  -1.6776
    -1.6356  -1.6280  -1.5339  -1.4994  -1.4704  -1.4415  -1.4338  -1.2409
    -1.2265  -1.1752  -1.1704  -1.1459  -0.9896  -0.9703  -0.9522  -0.9375
    -0.8919  -0.8088  -0.8019  -0.7658  -0.6572  -0.6283  -0.6193  -0.5707
    -0.4499  -0.4274  -0.4057  -0.4000  -0.3943  -0.3005  -0.2837  -0.2722
    -0.2424  -0.2100  -0.1588  -0.1528  -0.0995   0.0826   0.1285   0.1932
     0.2719   0.4430   0.4820   0.5083   0.5487   0.6101   0.6824   0.7003
     0.7636   0.8570   0.8715   0.9041   0.9742   1.0268   1.0347   1.0593
     1.9547   1.9555   2.0393   2.0394   3.8274   3.8378   3.9011   3.9380
     3.9864   4.0768   4.1754   4.1925   4.2373   4.3144   4.3401

     the Fermi energy is     3.7104 ev

!    total energy              =   -2937.80852057 Ry
     estimated scf accuracy    <       0.00000007 Ry
     smearing contrib. (-TS)   =      -0.03813460 Ry
     internal energy E=F+TS    =   -2937.77038597 Ry

     The total energy is F=E-TS. E is the sum of the following terms:
     one-electron contribution =  -24092.08581075 Ry
     hartree contribution      =   12136.02957268 Ry
     xc contribution           =    -484.38010245 Ry
     ewald contribution        =    9502.66286478 Ry
     electric field correction =       0.00308978 Ry

     convergence has been achieved in  75 iterations

     Forces acting on atoms (cartesian axes, Ry/au):

     atom    1 type  1   force =     0.00006064   -0.00011548    0.09406071
     atom    2 type  1   force =    -0.00016870   -0.00022843   -0.17762592
     atom    3 type  2   force =     0.00011265   -0.00020819   -0.02136698
     atom    4 type  2   force =     0.00002559   -0.00183941    0.05753312
     atom    5 type  2   force =    -0.01069464   -0.00138696    0.00632851
     atom    6 type  2   force =     0.01275999   -0.00074072    0.00661214
     atom    7 type  1   force =     0.00011531    0.00196428   -0.01403549
     atom    8 type  1   force =    -0.00046803    0.00580376    0.00396139
     atom    9 type  2   force =     0.00036195    0.00022761   -0.00009751
     atom   10 type  2   force =    -0.00024109    0.00022127   -0.00514638
     atom   11 type  2   force =     0.00007143   -0.00014759   -0.00046416
     atom   12 type  2   force =    -0.00031029    0.00001243    0.00007045
     atom   13 type  1   force =    -0.00025672    0.00000876   -0.00021778
     atom   14 type  1   force =    -0.00008969    0.00013933   -0.00013709
     atom   15 type  2   force =    -0.00048843   -0.00040830   -0.00023563
     atom   16 type  2   force =    -0.00018209    0.00019155   -0.00000428
     atom   17 type  2   force =    -0.00008546   -0.00020336   -0.00025541
     atom   18 type  2   force =    -0.00037343   -0.00015337   -0.00061147
     atom   19 type  1   force =    -0.00020392    0.00013808   -0.00002460
     atom   20 type  1   force =    -0.00032634   -0.00006210    0.00086921
     atom   21 type  2   force =     0.00001931    0.00002448    0.10382445
     atom   22 type  2   force =     0.00002698    0.00016995   -0.00028319
     atom   23 type  2   force =    -0.07063408   -0.00008377   -0.02703564
     atom   24 type  2   force =     0.07053228    0.00036023   -0.02708950
     atom   25 type  1   force =     0.00000575   -0.00008219    0.09369981
     atom   26 type  1   force =    -0.00013487   -0.00015803   -0.17768645
     atom   27 type  2   force =     0.00013508   -0.00024121   -0.02034567
     atom   28 type  2   force =     0.00006791   -0.00155564    0.05700500
     atom   29 type  2   force =    -0.01103259   -0.00054061    0.00635250
     atom   30 type  2   force =     0.01295306   -0.00027820    0.00664559
     atom   31 type  1   force =     0.00030113    0.00520465   -0.01481569
     atom   32 type  1   force =    -0.00039825   -0.00656676    0.00413106
     atom   33 type  2   force =     0.00015797    0.00007951   -0.00032232
     atom   34 type  2   force =     0.00035939   -0.00102340   -0.00206994
     atom   35 type  2   force =    -0.00028929    0.00014568   -0.00022890
     atom   36 type  2   force =    -0.00006040   -0.00000389    0.00010122
     atom   37 type  1   force =    -0.00007644    0.00023236   -0.00009919
     atom   38 type  1   force =     0.00005882    0.00025266    0.00024054
     atom   39 type  2   force =    -0.00007429    0.00021294   -0.00003064
     atom   40 type  2   force =    -0.00029770    0.00009519   -0.00024760
     atom   41 type  2   force =    -0.00030298   -0.00004117   -0.00005538
     atom   42 type  2   force =    -0.00016441    0.00017736   -0.00033138
     atom   43 type  1   force =    -0.00016491    0.00012512    0.00006090
     atom   44 type  1   force =    -0.00006477   -0.00050338    0.00018073
     atom   45 type  2   force =     0.00001313   -0.00000748    0.10383545
     atom   46 type  2   force =    -0.07065035   -0.00003700   -0.02704614
     atom   47 type  2   force =     0.07052645    0.00040393   -0.02708437
     atom   48 type  3   force =    -0.00107676   -0.00132139   -0.00049493
     atom   49 type  4   force =     0.00494078    0.00760669    0.00513781
     atom   50 type  5   force =    -0.00386061   -0.00635840   -0.00412362
     atom   51 type  3   force =    -0.00025314   -0.00003205   -0.00119542
     atom   52 type  5   force =    -0.00018090    0.00053065    0.00015807

     Total force =     0.366231     Total SCF correction =     0.000655
  @ DRIVER MODE: Message from server: STATUS
  @ DRIVER MODE: Message from server: GETFORCE
  @ DRIVER MODE: Returning v,forces,stress,ensemble

     Writing output data file ./calc.save/
  @ DRIVER MODE: Message from server: EXIT
  @ DRIVE MODE: Exiting

     General routines

     Parallel routines

   This run was terminated on:  17:52:41  23Aug2021

   JOB DONE.