     Program PWSCF v.6.7GPU starts on 24Aug2021 at 12:34:48

     R & G space division:  proc/nbgrp/npool/nimage =      72
     Reading input from /storage/home/hcoda1/3/ntian30/research/carbon/CH2_vib/ads_slab/CH2NHH_a/out_0007/pw.inp
Warning: card &CELL ignored
Warning: card   CELL_DYNAMICS='IPI', ignored
Warning: card / ignored

     Current dimensions of program PWSCF are:
     Max number of different atomic species (ntypx) = 10
     Max number of k-points (npk) =  40000
     Max angular momentum in pseudopotentials (lmaxx) =  3
     Presently no symmetry can be used with electric field

     Message from routine cell_base_init:
     DEPRECATED: use true lattice parameter, not A to a.u. conversion factor

     IMPORTANT: XC functional enforced from input :
     Exchange-correlation= BEEF-VDW
                           (   1   4  43  14   2   0   0)
     Any further DFT definition will be discarded
     Please, verify this is what you really want

  @ DRIVER MODE: Connecting to
 qe_1139763_2641439.sched-torque.pace.gatech.edu74caip3o_scratch
  using UNIX socket
  @ DRIVER MODE: Message from server: STATUS
  @ DRIVER MODE: Message from server: INIT
  @ DRIVER MODE: Receiving replica           0          -1
  @ DRIVER MODE: Receiving encoded integer          25
  @ DRIVER MODE:  SCF:  T  FORCE:  T  STRESS:  F  VC:  F  ENSEMBLE:  F
  @ DRIVER MODE:  SCF:  T  FORCE:  T  STRESS:  F  VC:  F  ENSEMBLE:  F

     Using Slab Decomposition

     bravais-lattice index     =            0
     lattice parameter (alat)  =       1.8897  a.u.
     unit-cell volume          =    6658.9804 (a.u.)^3
     number of atoms/cell      =           53
     number of atomic types    =            5
     number of electrons       =       391.00
     number of Kohn-Sham states=          205
     kinetic-energy cutoff     =      29.3995  Ry
     charge density cutoff     =     293.9946  Ry
     scf convergence threshold =      7.3E-08
     mixing beta               =       0.0500
     number of iterations used =            8  plain     mixing
     Exchange-correlation= BEEF-VDW
                           (   1   4  43  14   2   0   0)

     celldm(1)=   1.889726  celldm(2)=   0.000000  celldm(3)=   0.000000
     celldm(4)=   0.000000  celldm(5)=   0.000000  celldm(6)=   0.000000

     crystal axes: (cart. coord. in units of alat)
               a(1) = (   6.579727   0.000000   0.000000 )
               a(2) = (  -0.000775   5.961596   0.000000 )
               a(3) = (   0.000000   0.000000  25.155947 )

     reciprocal axes: (cart. coord. in units 2 pi/alat)
               b(1) = (  0.151982  0.000020  0.000000 )
               b(2) = (  0.000000  0.167740  0.000000 )
               b(3) = (  0.000000  0.000000  0.039752 )

     PseudoPot. # 1 for Ti read from file:
     /storage/coda1/p-amedford6/0/shared/rich_project_chbe-medford/medford-share/data/pseudos_module/espresso/nninc/pbe/van/Ti.UPF
     MD5 check sum: 8e4df49b7f0d34bbd5052bf3f5ea0213
     Pseudo is Ultrasoft, Zval = 12.0
     Generated by new atomic code, or converted to UPF format
     Using radial grid of  851 points,  6 beta functions with:
                l(1) =   0
                l(2) =   0
                l(3) =   1
                l(4) =   1
                l(5) =   2
                l(6) =   2
     Q(r) pseudized with  8 coefficients,  rinner =    1.000   1.000   1.000
                                                       1.000   1.000

     PseudoPot. # 2 for O  read from file:
     /storage/coda1/p-amedford6/0/shared/rich_project_chbe-medford/medford-share/data/pseudos_module/espresso/nninc/pbe/van/O.UPF
     MD5 check sum: 78c19812648e8988a0fe644b0f25305e
     Pseudo is Ultrasoft, Zval =  6.0
     Generated by new atomic code, or converted to UPF format
     Using radial grid of  737 points,  4 beta functions with:
                l(1) =   0
                l(2) =   0
                l(3) =   1
                l(4) =   1
     Q(r) pseudized with  8 coefficients,  rinner =    0.800   0.800   0.800

     PseudoPot. # 3 for N  read from file:
     /storage/coda1/p-amedford6/0/shared/rich_project_chbe-medford/medford-share/data/pseudos_module/espresso/nninc/pbe/van/N.UPF
     MD5 check sum: 90d10febe142ad51ac9d5be1deb811c4
     Pseudo is Ultrasoft, Zval =  5.0
     Generated by new atomic code, or converted to UPF format
     Using radial grid of  729 points,  4 beta functions with:
                l(1) =   0
                l(2) =   0
                l(3) =   1
                l(4) =   1
     Q(r) pseudized with  8 coefficients,  rinner =    0.800   0.800   0.800

     PseudoPot. # 4 for C  read from file:
     /storage/coda1/p-amedford6/0/shared/rich_project_chbe-medford/medford-share/data/pseudos_module/espresso/nninc/pbe/van/C.UPF
     MD5 check sum: 1a69bf6b8db32088f5b2163dbdb77a27
     Pseudo is Ultrasoft, Zval =  4.0
     Generated by new atomic code, or converted to UPF format
     Using radial grid of  721 points,  4 beta functions with:
                l(1) =   0
                l(2) =   0
                l(3) =   1
                l(4) =   1
     Q(r) pseudized with  8 coefficients,  rinner =    0.800   0.800   0.800

     PseudoPot. # 5 for H  read from file:
     /storage/coda1/p-amedford6/0/shared/rich_project_chbe-medford/medford-share/data/pseudos_module/espresso/nninc/pbe/van/H.UPF
     MD5 check sum: b5ee9d7bfd3a09ee7748110bda690ff7
     Pseudo is Ultrasoft, Zval =  1.0
     Generated by new atomic code, or converted to UPF format
     Using radial grid of  615 points,  1 beta functions with:
                l(1) =   0
     Q(r) pseudized with  8 coefficients,  rinner =    0.800

     atomic species   valence    mass     pseudopotential
        Ti1           12.00    47.86700     Ti( 1.00)
        O1             6.00    15.99900     O ( 1.00)
        N1             5.00    14.00700     N ( 1.00)
        C1             4.00    12.01100     C ( 1.00)
        H1             1.00     1.00800     H ( 1.00)

     No symmetry found

   Cartesian axes

     site n.     atom                  positions (alat units)
         1           Ti1 tau(   1) = (   0.0004258   2.9801865   6.0000000  )
         2           Ti1 tau(   2) = (   3.2906075   1.4906267   6.0002472  )
         3           O1  tau(   3) = (   0.0006271   0.0005054   7.9858123  )
         4           O1  tau(   4) = (   3.2906025   0.0005020   7.3038282  )
         5           O1  tau(   5) = (   4.5942328   1.4918067   9.2879030  )
         6           O1  tau(   6) = (   1.9868534   1.4903216   9.2879459  )
         7           Ti1 tau(   7) = (   3.2907910   2.8959150   9.1758416  )
         8           Ti1 tau(   8) = (   0.0015273   1.4827037   9.2680791  )
         9           O1  tau(   9) = (   3.2941312   5.9515177  11.3840049  )
        10           O1  tau(  10) = (   0.0116148   5.9584955  10.6183126  )
        11           O1  tau(  11) = (   1.2915503   1.4777401  12.6967708  )
        12           O1  tau(  12) = (   5.3002239   1.4803738  12.6794006  )
        13           Ti1 tau(  13) = (   0.0161863   2.9610389  12.5056540  )
        14           Ti1 tau(  14) = (   3.3199580   1.4690355  12.5397617  )
        15           O1  tau(  15) = (   6.5577523   5.8663973  14.6994336  )
        16           O1  tau(  16) = (   3.3105950   5.9380289  14.0083265  )
        17           O1  tau(  17) = (   4.5355139   1.5078041  16.1868020  )
        18           O1  tau(  18) = (   2.0231344   1.4922588  16.1350940  )
        19           Ti1 tau(  19) = (   3.2781988   2.9761027  15.7713632  )
        20           Ti1 tau(  20) = (   0.0162001   1.2772015  15.8797579  )
        21           O1  tau(  21) = (   3.2904802   0.0005063   4.7018136  )
        22           O1  tau(  22) = (   6.5682446   0.1140876  17.2519115  )
        23           O1  tau(  23) = (   1.3043587   1.4918075   6.0039043  )
        24           O1  tau(  24) = (   5.2767064   1.4903225   6.0039473  )
        25           Ti1 tau(  25) = (   0.0000382   5.9609847   6.0000000  )
        26           Ti1 tau(  26) = (   3.2902200   4.4714249   6.0002472  )
        27           O1  tau(  27) = (   0.0002396   2.9813036   7.9858123  )
        28           O1  tau(  28) = (   3.2902150   2.9813002   7.3038282  )
        29           O1  tau(  29) = (   4.5938453   4.4726049   9.2879030  )
        30           O1  tau(  30) = (   1.9864658   4.4711199   9.2879459  )
        31           Ti1 tau(  31) = (   3.2891106   5.8743827   9.1763621  )
        32           Ti1 tau(  32) = (   0.0006254   4.4649316   9.2693709  )
        33           O1  tau(  33) = (   3.2958891   2.9587481  11.3780895  )
        34           O1  tau(  34) = (   0.0092240   2.9805883  10.6323155  )
        35           O1  tau(  35) = (   1.2947421   4.4484190  12.6652604  )
        36           O1  tau(  36) = (   5.2996063   4.4466420  12.6515021  )
        37           Ti1 tau(  37) = (   0.0283143   5.9336383  12.5061025  )
        38           Ti1 tau(  38) = (   3.3214233   4.4478814  12.5310514  )
        39           O1  tau(  39) = (   6.5589476   3.0029366  14.9874712  )
        40           O1  tau(  40) = (   3.3011147   2.9794859  13.9794371  )
        41           O1  tau(  41) = (   4.5155863   4.4560770  16.2359875  )
        42           O1  tau(  42) = (   2.0187475   4.4548860  16.2131175  )
        43           Ti1 tau(  43) = (   3.3138217   5.9556645  15.8088081  )
        44           Ti1 tau(  44) = (   0.0451788   4.5003401  16.0524233  )
        45           O1  tau(  45) = (   3.2900926   2.9813045   4.7018136  )
        46           O1  tau(  46) = (   1.3039711   4.4726057   6.0039043  )
        47           O1  tau(  47) = (   5.2763189   4.4711207   6.0039473  )
        48           N1  tau(  48) = (   6.2013940   3.4221407  18.2524812  )
        49           C1  tau(  49) = (   0.6761764   3.1362451  19.0985974  )
        50           H1  tau(  50) = (   1.2250757   3.9700495  19.5149693  )
        51           H1  tau(  51) = (   1.1126790   2.1486344  19.0481404  )
        52           H1  tau(  52) = (   5.7034377   4.2789310  18.4761913  )
        53           H1  tau(  53) = (   5.5430662   2.6552022  18.1284619  )

     number of k points=    10  Fermi-Dirac smearing, width (Ry)=  0.0073
                       cart. coord. in units 2pi/alat
        k(    1) = (   0.0000000   0.0000000   0.0000000), wk =   0.1250000
        k(    2) = (   0.0000000   0.0419351   0.0000000), wk =   0.2500000
        k(    3) = (   0.0000000  -0.0838702   0.0000000), wk =   0.1250000
        k(    4) = (   0.0379955   0.0000049   0.0000000), wk =   0.2500000
        k(    5) = (   0.0379955   0.0419400   0.0000000), wk =   0.2500000
        k(    6) = (   0.0379955  -0.0838652   0.0000000), wk =   0.2500000
        k(    7) = (   0.0379955  -0.0419301   0.0000000), wk =   0.2500000
        k(    8) = (  -0.0759910  -0.0000099   0.0000000), wk =   0.1250000
        k(    9) = (  -0.0759910   0.0419252   0.0000000), wk =   0.2500000
        k(   10) = (  -0.0759910  -0.0838800   0.0000000), wk =   0.1250000

     Initial potential from superposition of free atoms

     starting charge  374.99916, renormalised to  391.00000

     negative rho (up, down):  1.684E-02 0.000E+00

     %%%%%%%%%%%%%%%%%%%%%%%%%%%%%%%%%%%%%%%%%%%%%%%%%%%%%%%%%%%%%%%%%%%%%%%%
     %                                                                      %
     % You are using vdW-DF, which was implemented by the Thonhauser group. %
     % Please cite the following two papers that made this development      %
     % possible and the two reviews that describe the various versions:     %
     %                                                                      %
     %   T. Thonhauser et al., PRL 115, 136402 (2015).                      %
     %   T. Thonhauser et al., PRB 76, 125112 (2007).                       %
     %   K. Berland et al., Rep. Prog. Phys. 78, 066501 (2015).             %
     %   D.C. Langreth et al., J. Phys.: Condens. Matter 21, 084203 (2009). %
     %                                                                      %
     %                                                                      %
     % If you are calculating the stress with vdW-DF, please also cite:     %
     %                                                                      %
     %   R. Sabatini et al., J. Phys.: Condens. Matter 24, 424209 (2012).   %
     %                                                                      %
     %%%%%%%%%%%%%%%%%%%%%%%%%%%%%%%%%%%%%%%%%%%%%%%%%%%%%%%%%%%%%%%%%%%%%%%%

     Adding external electric field

     Computed dipole along edir(3) :
        Dipole               -6.9321 Ry au,        -17.6197 Debye
        Dipole field         -0.0131 Ry au,

        Potential amp.        1.2127 Ry
        Total length         46.3494 bohr

     Starting wfcs are  296 atomic wfcs
  @ DRIVER MODE: Message from server: STATUS
  @ DRIVER MODE: Message from server: POSDATA
  @ DRIVER MODE: Reading and sharing cell
  @ DRIVER MODE: Reading and sharing positions
  @ DRIVER MODE: Received positions

     Self-consistent Calculation

     iteration #  1     ecut=    29.40 Ry     beta= 0.05
     Davidson diagonalization with overlap
     c_bands:  1 eigenvalues not converged
     ethr =  1.00E-05,  avg # of iterations = 15.4

[...]

     total energy              =   -2713.43850247 Ry
     estimated scf accuracy    <    2282.74716119 Ry

     iteration #  2     ecut=    29.40 Ry     beta= 0.05
     Davidson diagonalization with overlap
     ethr =  1.00E-02,  avg # of iterations = 18.2

[...]

     iteration # 58     ecut=    29.40 Ry     beta= 0.05
     Davidson diagonalization with overlap
     ethr =  8.18E-10,  avg # of iterations = 12.2

[...]

     total energy              =   -2920.25677302 Ry
     estimated scf accuracy    <       0.00000012 Ry

     iteration # 64     ecut=    29.40 Ry     beta= 0.05
     Davidson diagonalization with overlap
     c_bands:  1 eigenvalues not converged
     ethr =  2.98E-11,  avg # of iterations = 12.5

     negative rho (up, down):  1.609E-02 0.000E+00

     Adding external electric field

     Computed dipole along edir(3) :
        Dipole                0.8969 Ry au,          2.2797 Debye
        Dipole field          0.0017 Ry au,

        Potential amp.       -0.1569 Ry
        Total length         46.3494 bohr

     End of self-consistent calculation

          k = 0.0000 0.0000 0.0000 ( 18029 PWs)   bands (ev):

   -55.7195 -55.6835 -55.6713 -55.6371 -55.6094 -55.5996 -55.5652 -55.5439
   -55.5362 -55.5094 -55.5030 -55.4693 -55.4613 -55.3025 -54.7031 -54.6691
   -32.2848 -32.1642 -32.0876 -32.0548 -32.0407 -32.0329 -32.0298 -32.0090
   -31.9602 -31.9549 -31.9313 -31.9260 -31.9162 -31.8885 -31.8731 -31.8712
   -31.8583 -31.8474 -31.8393 -31.8238 -31.8183 -31.7856 -31.7783 -31.7744
   -31.7462 -31.7420 -31.7318 -31.7283 -31.7227 -31.7185 -31.7023 -31.7005
   -31.6923 -31.6895 -31.6688 -31.6572 -31.6551 -31.6392 -31.6309 -31.6145
   -31.5233 -31.4702 -31.1126 -31.0181 -30.9960 -30.9290 -30.8422 -30.7313
   -16.7350 -16.5313 -16.2728 -16.1141 -16.0166 -15.9193 -15.7883 -15.7607
   -15.6443 -15.5675 -15.4263 -15.3969 -15.3806 -15.3585 -15.3417 -15.3302
   -15.2671 -15.2611 -15.2415 -15.2156 -15.2125 -15.1655 -15.1608 -15.1202
   -15.0962 -15.0457 -14.9660 -14.8813 -14.8083 -14.4890 -13.2060 -13.0884
    -9.5212  -6.8897  -4.9819  -3.8842  -3.7406  -3.6749  -3.6230  -3.6131
    -3.4720  -3.2985  -3.1491  -3.1407  -3.0550  -2.9914  -2.9242  -2.9106
    -2.8873  -2.7526  -2.7324  -2.6822  -2.6513  -2.5757  -2.5682  -2.5247
    -2.5055  -2.4722  -2.4681  -2.4370  -2.3069  -2.2901  -2.2563  -2.1889
    -2.1303  -2.1262  -2.0710  -2.0517  -2.0102  -2.0009  -1.9944  -1.9506
    -1.9449  -1.9108  -1.8176  -1.7455  -1.6191  -1.5826  -1.4405  -1.3607
    -1.3133  -1.2932  -1.2130  -1.2061  -1.1479  -1.1016  -1.0986  -1.0587
    -0.9475  -0.8670  -0.8140  -0.7561  -0.7231  -0.7056  -0.6210  -0.5238
    -0.4994  -0.4868  -0.4517  -0.3519  -0.3263  -0.2664  -0.2013  -0.1889
    -0.1760  -0.0922  -0.0536   0.0191   0.0683   0.0882   0.1661   0.1880
     0.2120   0.2179   0.2482   0.2646   0.3353   0.3552   0.3803   0.4675
     0.5879   0.8295   0.8897   0.8970   1.2185   1.2237   1.3194   1.5025
     1.8959   1.9443   3.3733   3.3910   3.4551   3.5233   3.5271   3.5885
     3.6140   3.8604   3.8799   3.8879   3.9055

[...]

          k = 0.0380-0.0419 0.0000 ( 17876 PWs)   bands (ev):

[...]

          k =-0.0760-0.0000 0.0000 ( 17886 PWs)   bands (ev):

[...]

          k =-0.0760-0.0839 0.0000 ( 17948 PWs)   bands (ev):

   -55.7028 -55.7000 -55.6542 -55.6540 -55.6051 -55.5833 -55.5816 -55.5403
   -55.5284 -55.5245 -55.4866 -55.4859 -55.4592 -55.3046 -54.6862 -54.6859
   -32.0905 -32.0880 -31.9979 -31.9793 -31.9792 -31.9766 -31.9665 -31.9455
   -31.9454 -31.9292 -31.9227 -31.9159 -31.9115 -31.8724 -31.8636 -31.8606
   -31.8563 -31.8514 -31.8471 -31.8421 -31.8287 -31.8098 -31.7977 -31.7968
   -31.7783 -31.7745 -31.7738 -31.7736 -31.7613 -31.7573 -31.7411 -31.7391
   -31.7370 -31.7274 -31.7195 -31.7168 -31.6829 -31.6667 -31.6663 -31.6467
   -31.5626 -31.5254 -31.0088 -31.0086 -30.9252 -30.9250 -30.8857 -30.8855
   -16.7094 -16.0366 -15.9437 -15.9056 -15.7573 -15.7196 -15.6849 -15.6727
   -15.5503 -15.5250 -15.4992 -15.4771 -15.4427 -15.4255 -15.4185 -15.3727
   -15.3394 -15.3196 -15.3141 -15.3019 -15.2388 -15.2309 -15.2269 -15.2199
   -15.1704 -15.1668 -15.0759 -15.0729 -15.0620 -14.7746 -13.1899 -13.1899
    -9.5228  -6.8722  -4.9629  -3.2118  -3.1831  -3.1587  -3.1034  -2.9767
    -2.9131  -2.8991  -2.8722  -2.8023  -2.7550  -2.7329  -2.6923  -2.6841
    -2.6287  -2.6024  -2.5755  -2.5578  -2.5537  -2.5369  -2.5163  -2.4817
    -2.4547  -2.4504  -2.4399  -2.4006  -2.3725  -2.3588  -2.3246  -2.3152
    -2.3082  -2.2781  -2.2192  -2.1170  -2.0886  -2.0607  -1.9660  -1.9287
    -1.9240  -1.8438  -1.8136  -1.7552  -1.7525  -1.7428  -1.5974  -1.5132
    -1.4695  -1.4669  -1.4452  -1.3184  -1.3085  -1.2241  -1.2014  -1.1923
    -1.1082  -1.0793  -1.0410  -1.0158  -0.9329  -0.9081  -0.8421  -0.7538
    -0.7180  -0.7096  -0.6771  -0.6744  -0.6255  -0.6140  -0.5329  -0.4904
    -0.4542  -0.4441  -0.4034  -0.2198  -0.2017  -0.1591  -0.0300   0.0145
     0.1469   0.1648   0.2294   0.3058   0.3376   0.3931   0.4290   0.5752
     0.5852   0.6159   0.6617   0.6711   0.7310   0.7402   1.6756   1.6762
     1.7641   1.7644   3.3955   3.6212   3.6282   3.6674   3.6905   3.8428
     3.8937   3.9315   3.9575   3.9626   3.9785

     the Fermi energy is     3.4411 ev

!    total energy              =   -2920.25680974 Ry
     estimated scf accuracy    <       0.00000004 Ry
     smearing contrib. (-TS)   =      -0.04303397 Ry
     internal energy E=F+TS    =   -2920.21377577 Ry

     The total energy is F=E-TS. E is the sum of the following terms:
     one-electron contribution =  -24044.17913235 Ry
     hartree contribution      =   12108.24508061 Ry
     xc contribution           =    -480.85961044 Ry
     ewald contribution        =    9496.57836833 Ry
     electric field correction =       0.00151808 Ry

     convergence has been achieved in  64 iterations

     Forces acting on atoms (cartesian axes, Ry/au):

     atom    1 type  1   force =     0.00008435   -0.00016646    0.09320749
     atom    2 type  1   force =    -0.00019973   -0.00023683   -0.17847922
     atom    3 type  2   force =     0.00003857   -0.00037007   -0.02006536
     atom    4 type  2   force =    -0.00001994   -0.00199548    0.05915885
     atom    5 type  2   force =    -0.01040632   -0.00113895    0.00789577
     atom    6 type  2   force =     0.01196474   -0.00052018    0.00731963
     atom    7 type  1   force =    -0.00041979    0.00230698   -0.01387634
     atom    8 type  1   force =     0.00003759   -0.00144507   -0.00478854
     atom    9 type  2   force =     0.00000405   -0.00028589   -0.00032825
     atom   10 type  2   force =    -0.00082755    0.00065929    0.00151238
     atom   11 type  2   force =     0.00010927   -0.00003453    0.00025585
     atom   12 type  2   force =    -0.00008668    0.00009370    0.00033874
     atom   13 type  1   force =    -0.00057952    0.00061690   -0.00014234
     atom   14 type  1   force =     0.00025894    0.00022690    0.00005756
     atom   15 type  2   force =    -0.00019943    0.00062327    0.00043042
     atom   16 type  2   force =    -0.00016472   -0.00006216   -0.00003635
     atom   17 type  2   force =    -0.00006919   -0.00001413    0.00008074
     atom   18 type  2   force =    -0.00024301   -0.00008728   -0.00034271
     atom   19 type  1   force =    -0.00006310    0.00004867   -0.00032534
     atom   20 type  1   force =    -0.00006091   -0.00025233   -0.00039498
     atom   21 type  2   force =     0.00001514   -0.00001435    0.10399101
     atom   22 type  2   force =    -0.00006370    0.00030872    0.00090313
     atom   23 type  2   force =    -0.07036260   -0.00009527   -0.02689601
     atom   24 type  2   force =     0.07018059    0.00033451   -0.02695521
     atom   25 type  1   force =    -0.00001839   -0.00012471    0.09257780
     atom   26 type  1   force =    -0.00017014   -0.00039033   -0.17851541
     atom   27 type  2   force =     0.00009656   -0.00027078   -0.01915823
     atom   28 type  2   force =     0.00002948   -0.00176185    0.05848202
     atom   29 type  2   force =    -0.01089437   -0.00132971    0.00843017
     atom   30 type  2   force =     0.01235138   -0.00099118    0.00777846
     atom   31 type  1   force =    -0.00022622    0.00599736   -0.01475418
     atom   32 type  1   force =     0.00005460    0.00099024   -0.00537138
     atom   33 type  2   force =    -0.00030633    0.00024440    0.00016673
     atom   34 type  2   force =    -0.00022273   -0.00291249    0.00010135
     atom   35 type  2   force =     0.00061167    0.00021515   -0.00003555
     atom   36 type  2   force =    -0.00065754    0.00017576   -0.00026226
     atom   37 type  1   force =    -0.00056239   -0.00046323   -0.00009422
     atom   38 type  1   force =     0.00016753   -0.00050485    0.00008127
     atom   39 type  2   force =     0.00002916   -0.00029141    0.00048329
     atom   40 type  2   force =    -0.00000867    0.00045500   -0.00051003
     atom   41 type  2   force =     0.00005234    0.00042730   -0.00002050
     atom   42 type  2   force =    -0.00000299    0.00045738    0.00008797
     atom   43 type  1   force =    -0.00011409    0.00032427   -0.00079007
     atom   44 type  1   force =    -0.00038362    0.00002155   -0.00062553
     atom   45 type  2   force =     0.00000237   -0.00002695    0.10395492
     atom   46 type  2   force =    -0.07034098   -0.00006303   -0.02686169
     atom   47 type  2   force =     0.07017462    0.00036704   -0.02691213
     atom   48 type  3   force =    -0.00855643    0.00132947   -0.00404128
     atom   49 type  4   force =     0.01737201   -0.00207874    0.00796752
     atom   50 type  5   force =    -0.00388583   -0.00419130   -0.00302281
     atom   51 type  5   force =    -0.00348162    0.00458825   -0.00022538
     atom   52 type  5   force =     0.00008813    0.00002938   -0.00044325
     atom   53 type  5   force =    -0.00012457    0.00127806   -0.00098856

     Total force =     0.367128     Total SCF correction =     0.000513
  @ DRIVER MODE: Message from server: STATUS
  @ DRIVER MODE: Message from server: GETFORCE
  @ DRIVER MODE: Returning v,forces,stress,ensemble

     Writing output data file ./calc.save/
  @ DRIVER MODE: Message from server: EXIT
  @ DRIVE MODE: Exiting

     General routines

     Parallel routines

   This run was terminated on:  12:51:48  24Aug2021

   JOB DONE.