     Program PWSCF v.6.7GPU starts on 15Sep2021 at 14:26:22

     R & G space division:  proc/nbgrp/npool/nimage =      10
     Reading input from /storage/home/hcoda1/3/ntian30/research/carbon/CxH_vib/CH_calc/ads_slab/CHOH_d/out_0018/pw.inp
Warning: card &CELL ignored
Warning: card   CELL_DYNAMICS='IPI', ignored
Warning: card / ignored

     Current dimensions of program PWSCF are:
     Max number of different atomic species (ntypx) = 10
     Max number of k-points (npk) =  40000
     Max angular momentum in pseudopotentials (lmaxx) =  3
     Presently no symmetry can be used with electric field

     Message from routine cell_base_init:
     DEPRECATED: use true lattice parameter, not A to a.u. conversion factor

     IMPORTANT: XC functional enforced from input :
     Exchange-correlation= BEEF-VDW
                           (   1   4  43  14   2   0   0)
     Any further DFT definition will be discarded
     Please, verify this is what you really want

  @ DRIVER MODE: Connecting to
 qe_1139763_2850204.sched-torque.pace.gatech.eduej4wlc_p_scratch
  using UNIX socket
  @ DRIVER MODE: Message from server: STATUS
  @ DRIVER MODE: Message from server: INIT
  @ DRIVER MODE: Receiving replica           0          -1
  @ DRIVER MODE: Receiving encoded integer          25
  @ DRIVER MODE:  SCF:  T  FORCE:  T  STRESS:  F  VC:  F  ENSEMBLE:  F
  @ DRIVER MODE:  SCF:  T  FORCE:  T  STRESS:  F  VC:  F  ENSEMBLE:  F

     Using Slab Decomposition

     bravais-lattice index     =            0
     lattice parameter (alat)  =       1.8897  a.u.
     unit-cell volume          =    6658.9804 (a.u.)^3
     number of atoms/cell      =           51
     number of atomic types    =            4
     number of electrons       =       390.00
     number of Kohn-Sham states=          205
     kinetic-energy cutoff     =      29.3995  Ry
     charge density cutoff     =     293.9946  Ry
     scf convergence threshold =      7.3E-08
     mixing beta               =       0.0500
     number of iterations used =            8  plain     mixing
     Exchange-correlation= BEEF-VDW
                           (   1   4  43  14   2   0   0)

     celldm(1)=   1.889726  celldm(2)=   0.000000  celldm(3)=   0.000000
     celldm(4)=   0.000000  celldm(5)=   0.000000  celldm(6)=   0.000000

     crystal axes: (cart. coord. in units of alat)
               a(1) = (   6.579727   0.000000   0.000000 )
               a(2) = (  -0.000775   5.961596   0.000000 )
               a(3) = (   0.000000   0.000000  25.155947 )

     reciprocal axes: (cart. coord. in units 2 pi/alat)
               b(1) = (  0.151982  0.000020  0.000000 )
               b(2) = (  0.000000  0.167740  0.000000 )
               b(3) = (  0.000000  0.000000  0.039752 )

     PseudoPot. # 1 for Ti read from file:
     /storage/coda1/p-amedford6/0/shared/rich_project_chbe-medford/medford-share/data/pseudos_module/espresso/nninc/pbe/van/Ti.UPF
     MD5 check sum: 8e4df49b7f0d34bbd5052bf3f5ea0213
     Pseudo is Ultrasoft, Zval = 12.0
     Generated by new atomic code, or converted to UPF format
     Using radial grid of  851 points,  6 beta functions with:
                l(1) =   0
                l(2) =   0
                l(3) =   1
                l(4) =   1
                l(5) =   2
                l(6) =   2
     Q(r) pseudized with  8 coefficients,  rinner =    1.000   1.000   1.000
                                                       1.000   1.000

     PseudoPot. # 2 for O  read from file:
     /storage/coda1/p-amedford6/0/shared/rich_project_chbe-medford/medford-share/data/pseudos_module/espresso/nninc/pbe/van/O.UPF
     MD5 check sum: 78c19812648e8988a0fe644b0f25305e
     Pseudo is Ultrasoft, Zval =  6.0
     Generated by new atomic code, or converted to UPF format
     Using radial grid of  737 points,  4 beta functions with:
                l(1) =   0
                l(2) =   0
                l(3) =   1
                l(4) =   1
     Q(r) pseudized with  8 coefficients,  rinner =    0.800   0.800   0.800

     PseudoPot. # 3 for C  read from file:
     /storage/coda1/p-amedford6/0/shared/rich_project_chbe-medford/medford-share/data/pseudos_module/espresso/nninc/pbe/van/C.UPF
     MD5 check sum: 1a69bf6b8db32088f5b2163dbdb77a27
     Pseudo is Ultrasoft, Zval =  4.0
     Generated by new atomic code, or converted to UPF format
     Using radial grid of  721 points,  4 beta functions with:
                l(1) =   0
                l(2) =   0
                l(3) =   1
                l(4) =   1
     Q(r) pseudized with  8 coefficients,  rinner =    0.800   0.800   0.800

     PseudoPot. # 4 for H  read from file:
     /storage/coda1/p-amedford6/0/shared/rich_project_chbe-medford/medford-share/data/pseudos_module/espresso/nninc/pbe/van/H.UPF
     MD5 check sum: b5ee9d7bfd3a09ee7748110bda690ff7
     Pseudo is Ultrasoft, Zval =  1.0
     Generated by new atomic code, or converted to UPF format
     Using radial grid of  615 points,  1 beta functions with:
                l(1) =   0
     Q(r) pseudized with  8 coefficients,  rinner =    0.800

     atomic species   valence    mass     pseudopotential
        Ti1           12.00    47.86700     Ti( 1.00)
        O1             6.00    15.99900     O ( 1.00)
        C1             4.00    12.01100     C ( 1.00)
        H1             1.00     1.00800     H ( 1.00)

     No symmetry found

   Cartesian axes

     site n.     atom                  positions (alat units)
         1           Ti1 tau(   1) = (   0.0004258   2.9801865   6.0000000  )
         2           Ti1 tau(   2) = (   3.2906075   1.4906267   6.0002472  )
         3           O1  tau(   3) = (   0.0006271   0.0005054   7.9858123  )
         4           O1  tau(   4) = (   3.2906025   0.0005020   7.3038282  )
         5           O1  tau(   5) = (   4.5942328   1.4918067   9.2879030  )
         6           O1  tau(   6) = (   1.9868534   1.4903216   9.2879459  )
         7           Ti1 tau(   7) = (   3.2907309   2.9776765   9.1658812  )
         8           Ti1 tau(   8) = (   0.0000975   1.4630848   9.2758602  )
         9           O1  tau(   9) = (   3.2992614   5.9483050  11.3479409  )
        10           O1  tau(  10) = (   0.0007063   5.9515697  10.5933799  )
        11           O1  tau(  11) = (   1.2886368   1.4758772  12.6169360  )
        12           O1  tau(  12) = (   5.2821765   1.4725572  12.6321404  )
        13           Ti1 tau(  13) = (   0.0439011   2.9969894  12.8193871  )
        14           Ti1 tau(  14) = (   3.3815342   1.4778063  12.4828959  )
        15           O1  tau(  15) = (   0.0352585   5.9375929  14.6168471  )
        16           O1  tau(  16) = (   3.2809659   0.0029960  13.9351646  )
        17           O1  tau(  17) = (   4.5639172   1.5021510  16.0678584  )
        18           O1  tau(  18) = (   2.0588050   1.5241738  16.1323679  )
        19           Ti1 tau(  19) = (   3.3289217   2.9983165  15.7225387  )
        20           Ti1 tau(  20) = (   0.0567091   1.5532474  16.1006893  )
        21           O1  tau(  21) = (   3.2904802   0.0005063   4.7018136  )
        22           O1  tau(  22) = (   0.0083150   5.8936170  17.2391820  )
        23           O1  tau(  23) = (   1.3043587   1.4918075   6.0039043  )
        24           O1  tau(  24) = (   5.2767064   1.4903225   6.0039473  )
        25           Ti1 tau(  25) = (   0.0000382   5.9609847   6.0000000  )
        26           Ti1 tau(  26) = (   3.2902200   4.4714249   6.0002472  )
        27           O1  tau(  27) = (   0.0002396   2.9813036   7.9858123  )
        28           O1  tau(  28) = (   3.2902150   2.9813002   7.3038282  )
        29           O1  tau(  29) = (   4.5938453   4.4726049   9.2879030  )
        30           O1  tau(  30) = (   1.9864658   4.4711199   9.2879459  )
        31           Ti1 tau(  31) = (   3.2906741   5.9584693   9.1623309  )
        32           Ti1 tau(  32) = (   0.0020182   4.4105903   9.4029630  )
        33           O1  tau(  33) = (   3.2963946   2.9714859  11.3431964  )
        34           O1  tau(  34) = (  -0.0003580   2.9688738  10.5596877  )
        35           O1  tau(  35) = (   1.2880207   4.4560207  12.6239755  )
        36           O1  tau(  36) = (   5.2744328   4.4398676  12.6388197  )
        37           Ti1 tau(  37) = (   0.0843456   0.0234473  12.6131129  )
        38           Ti1 tau(  38) = (   3.3736736   4.4543396  12.4891683  )
        39           O1  tau(  39) = (   0.0394168   2.9432389  14.6713939  )
        40           O1  tau(  40) = (   3.2833495   2.9670780  13.9230463  )
        41           O1  tau(  41) = (   4.5592427   4.4833083  16.0293399  )
        42           O1  tau(  42) = (   2.0780377   4.4655606  16.1075158  )
        43           Ti1 tau(  43) = (   3.3267552   0.0098278  15.7307941  )
        44           Ti1 tau(  44) = (   0.0353388   4.6693566  15.9825682  )
        45           O1  tau(  45) = (   3.2900926   2.9813045   4.7018136  )
        46           C1  tau(  46) = (   6.5364748   2.8130622  17.7364117  )
        47           O1  tau(  47) = (   1.3039711   4.4726057   6.0039043  )
        48           O1  tau(  48) = (   5.2763189   4.4711207   6.0039473  )
        49           H1  tau(  49) = (   0.8622447   3.0922372  18.2894884  )
        50           O1  tau(  50) = (   5.4077661   2.9637287  18.5168037  )
        51           H1  tau(  51) = (   5.6109787   3.4346953  19.3318178  )

     number of k points=    10  Fermi-Dirac smearing, width (Ry)=  0.0073
                       cart. coord. in units 2pi/alat
        k(    1) = (   0.0000000   0.0000000   0.0000000), wk =   0.1250000
        k(    2) = (   0.0000000   0.0419351   0.0000000), wk =   0.2500000
        k(    3) = (   0.0000000  -0.0838702   0.0000000), wk =   0.1250000
        k(    4) = (   0.0379955   0.0000049   0.0000000), wk =   0.2500000
        k(    5) = (   0.0379955   0.0419400   0.0000000), wk =   0.2500000
        k(    6) = (   0.0379955  -0.0838652   0.0000000), wk =   0.2500000
        k(    7) = (   0.0379955  -0.0419301   0.0000000), wk =   0.2500000
        k(    8) = (  -0.0759910  -0.0000099   0.0000000), wk =   0.1250000
        k(    9) = (  -0.0759910   0.0419252   0.0000000), wk =   0.2500000
        k(   10) = (  -0.0759910  -0.0838800   0.0000000), wk =   0.1250000

     Initial potential from superposition of free atoms

     starting charge  373.99919, renormalised to  390.00000

     negative rho (up, down):  1.919E-02 0.000E+00

     %%%%%%%%%%%%%%%%%%%%%%%%%%%%%%%%%%%%%%%%%%%%%%%%%%%%%%%%%%%%%%%%%%%%%%%%
     %                                                                      %
     % You are using vdW-DF, which was implemented by the Thonhauser group. %
     % Please cite the following two papers that made this development      %
     % possible and the two reviews that describe the various versions:     %
     %                                                                      %
     %   T. Thonhauser et al., PRL 115, 136402 (2015).                      %
     %   T. Thonhauser et al., PRB 76, 125112 (2007).                       %
     %   K. Berland et al., Rep. Prog. Phys. 78, 066501 (2015).             %
     %   D.C. Langreth et al., J. Phys.: Condens. Matter 21, 084203 (2009). %
     %                                                                      %
     %                                                                      %
     % If you are calculating the stress with vdW-DF, please also cite:     %
     %                                                                      %
     %   R. Sabatini et al., J. Phys.: Condens. Matter 24, 424209 (2012).   %
     %                                                                      %
     %%%%%%%%%%%%%%%%%%%%%%%%%%%%%%%%%%%%%%%%%%%%%%%%%%%%%%%%%%%%%%%%%%%%%%%%

     Adding external electric field

     Computed dipole along edir(3) :
        Dipole               -4.8543 Ry au,        -12.3383 Debye
        Dipole field         -0.0092 Ry au,

        Potential amp.        0.8492 Ry
        Total length         46.3494 bohr

     Starting wfcs are  294 atomic wfcs
  @ DRIVER MODE: Message from server: STATUS
  @ DRIVER MODE: Message from server: POSDATA
  @ DRIVER MODE: Reading and sharing cell
  @ DRIVER MODE: Reading and sharing positions
  @ DRIVER MODE: Received positions

     Self-consistent Calculation

     iteration #  1     ecut=    29.40 Ry     beta= 0.05
     Davidson diagonalization with overlap
     c_bands:  4 eigenvalues not converged
     c_bands:  3 eigenvalues not converged
     c_bands:  3 eigenvalues not converged
     c_bands:  2 eigenvalues not converged
     c_bands:  2 eigenvalues not converged
     c_bands:  3 eigenvalues not converged
     c_bands:  1 eigenvalues not converged
     ethr =  1.00E-05,  avg # of iterations = 19.3

[...]

     total energy              =   -2871.16076962 Ry
     estimated scf accuracy    <     674.61254242 Ry

     iteration #  2     ecut=    29.40 Ry     beta= 0.05
     Davidson diagonalization with overlap
     ethr =  1.00E-02,  avg # of iterations = 14.7

[...]

     iteration # 41     ecut=    29.40 Ry     beta= 0.05
     Davidson diagonalization with overlap
     c_bands:  2 eigenvalues not converged
     ethr =  1.09E-06,  avg # of iterations = 14.5

[...]

     total energy              =   -2930.03891568 Ry
     estimated scf accuracy    <       0.00000019 Ry

     iteration # 65     ecut=    29.40 Ry     beta= 0.05
     Davidson diagonalization with overlap
     ethr =  4.82E-11,  avg # of iterations =  7.7

     negative rho (up, down):  1.867E-02 0.000E+00

     Adding external electric field

     Computed dipole along edir(3) :
        Dipole                0.8164 Ry au,          2.0751 Debye
        Dipole field          0.0015 Ry au,

        Potential amp.       -0.1428 Ry
        Total length         46.3494 bohr

     End of self-consistent calculation

          k = 0.0000 0.0000 0.0000 ( 18029 PWs)   bands (ev):

   -56.0535 -56.0179 -55.9953 -55.9590 -55.9141 -55.8467 -55.8444 -55.7566
   -55.7412 -55.7151 -55.7070 -55.5780 -55.1330 -55.0571 -54.9905 -54.9565
   -32.5480 -32.5042 -32.3555 -32.3320 -32.3154 -32.3133 -32.3009 -32.2397
   -32.2230 -32.2124 -32.2110 -32.1934 -32.1773 -32.1677 -32.1451 -32.1375
   -32.1307 -32.1292 -32.1280 -32.0590 -32.0306 -32.0250 -32.0051 -31.9875
   -31.9731 -31.9647 -31.9646 -31.9590 -31.9287 -31.9245 -31.8838 -31.8784
   -31.8363 -31.7915 -31.7747 -31.7658 -31.6214 -31.5057 -31.4188 -31.3979
   -31.3967 -31.3072 -31.2843 -31.2146 -31.1900 -31.1285 -31.0896 -31.0175
   -19.4038 -16.7026 -16.3934 -16.2340 -16.0878 -16.0824 -15.9782 -15.7097
   -15.6481 -15.5346 -15.5266 -15.5200 -15.4912 -15.4796 -15.4620 -15.4420
   -15.4205 -15.4062 -15.3995 -15.3596 -15.3118 -15.2321 -15.2123 -15.1571
   -15.1161 -15.1097 -15.0763 -14.9301 -14.9156 -14.5989 -13.4911 -13.3743
    -8.8095  -5.8627  -4.0709  -3.9137  -3.8833  -3.8617  -3.7472  -3.5131
    -3.4515  -3.1651  -3.1186  -3.1123  -3.1060  -3.0261  -2.9393  -2.8727
    -2.8103  -2.7649  -2.7355  -2.7299  -2.7242  -2.7209  -2.6820  -2.6501
    -2.5726  -2.5170  -2.4387  -2.3884  -2.3745  -2.3514  -2.3399  -2.3122
    -2.2271  -2.2193  -2.1685  -2.1565  -2.0971  -2.0818  -2.0401  -1.9779
    -1.8144  -1.7796  -1.7408  -1.6939  -1.6394  -1.4203  -1.4015  -1.3902
    -1.3646  -1.3318  -1.2816  -1.2677  -1.1386  -1.1038  -1.0521  -1.0230
    -0.9545  -0.9332  -0.8417  -0.8187  -0.7642  -0.7463  -0.7088  -0.6932
    -0.6438  -0.4585  -0.4069  -0.3643  -0.3295  -0.2920  -0.2414  -0.2388
    -0.1754  -0.1330  -0.1204  -0.1122  -0.0192   0.0078   0.0224   0.0404
     0.0478   0.1460   0.1595   0.2290   0.2899   0.4619   0.4657   0.6013
     0.6358   0.6644   0.6963   0.8252   0.9514   1.0330   1.1667   1.2153
     1.6222   1.6892   2.8843   3.1706   3.2529   3.3116   3.3314   3.4119
     3.5630   3.6180   3.6551   3.6786   3.7155

[...]

          k = 0.0380-0.0419 0.0000 ( 17876 PWs)   bands (ev):

[...]

          k =-0.0760-0.0000 0.0000 ( 17886 PWs)   bands (ev):

[...]

          k =-0.0760-0.0839 0.0000 ( 17948 PWs)   bands (ev):

   -56.0412 -56.0300 -55.9790 -55.9751 -55.9095 -55.8488 -55.8435 -55.7597
   -55.7252 -55.7226 -55.7132 -55.5801 -55.1293 -55.0606 -54.9739 -54.9729
   -32.3523 -32.3495 -32.3268 -32.3219 -32.3152 -32.3068 -32.2850 -32.2534
   -32.2050 -32.2026 -32.1984 -32.1780 -32.1739 -32.1698 -32.1668 -32.1358
   -32.1279 -32.1089 -32.0787 -32.0607 -32.0532 -32.0379 -32.0374 -32.0308
   -32.0167 -31.9850 -31.9755 -31.9726 -31.9716 -31.9330 -31.9225 -31.9196
   -31.8990 -31.8898 -31.8046 -31.7810 -31.5411 -31.5041 -31.4151 -31.3989
   -31.2975 -31.2965 -31.2773 -31.2112 -31.2106 -31.1720 -31.1712 -31.0933
   -19.4032 -16.1464 -16.1317 -15.8823 -15.8748 -15.7969 -15.7609 -15.6891
   -15.6877 -15.6712 -15.6524 -15.6206 -15.5827 -15.5416 -15.5228 -15.5099
   -15.4848 -15.4792 -15.4599 -15.4163 -15.4061 -15.2734 -15.2624 -15.2562
   -15.2539 -15.2201 -15.1684 -15.1377 -15.0884 -14.6977 -13.4768 -13.4750
    -8.8159  -5.8712  -3.4400  -3.4251  -3.1087  -3.1033  -3.0219  -2.9993
    -2.9187  -2.9006  -2.8431  -2.8263  -2.8037  -2.8006  -2.7950  -2.7710
    -2.7108  -2.6985  -2.6925  -2.6571  -2.6358  -2.6056  -2.5767  -2.5677
    -2.5460  -2.5436  -2.5088  -2.4902  -2.4828  -2.4689  -2.4552  -2.4384
    -2.2794  -2.2051  -2.1824  -2.1191  -2.0605  -2.0558  -2.0417  -2.0163
    -1.9798  -1.9682  -1.9345  -1.8527  -1.6951  -1.6850  -1.6616  -1.6241
    -1.5174  -1.4739  -1.3836  -1.3109  -1.2593  -1.2279  -1.1823  -1.1686
    -1.1515  -1.1210  -1.0714  -1.0029  -0.9673  -0.9503  -0.9367  -0.9125
    -0.8247  -0.7982  -0.7754  -0.7444  -0.7151  -0.6156  -0.5844  -0.5506
    -0.5210  -0.4853  -0.4293  -0.4032  -0.3018  -0.2980   0.0392   0.0560
     0.0725   0.1285   0.2005   0.2978   0.3292   0.3739   0.4731   0.5038
     0.5596   0.5914   0.6107   0.6640   0.6816   0.6970   1.4007   1.4014
     1.4822   1.4895   3.0807   3.4250   3.4525   3.4792   3.5220   3.6471
     3.6618   3.6683   3.6867   3.8826   3.9211

     the Fermi energy is     3.1062 ev

!    total energy              =   -2930.03893924 Ry
     estimated scf accuracy    <       0.00000007 Ry
     smearing contrib. (-TS)   =      -0.02056367 Ry
     internal energy E=F+TS    =   -2930.01837557 Ry

     The total energy is F=E-TS. E is the sum of the following terms:
     one-electron contribution =  -24520.45634418 Ry
     hartree contribution      =   12345.16146768 Ry
     xc contribution           =    -481.12267993 Ry
     ewald contribution        =    9726.39792299 Ry
     electric field correction =       0.00125787 Ry

     convergence has been achieved in  65 iterations

     Forces acting on atoms (cartesian axes, Ry/au):

     atom    1 type  1   force =    -0.00006650    0.00195034    0.12137932
     atom    2 type  1   force =    -0.00014963    0.00022103   -0.17638350
     atom    3 type  2   force =    -0.00008579    0.00551025   -0.04190448
     atom    4 type  2   force =     0.00009607    0.00023667    0.04677889
     atom    5 type  2   force =    -0.02224990   -0.00182868    0.00393541
     atom    6 type  2   force =     0.02249711   -0.00138801    0.00398938
     atom    7 type  1   force =    -0.00064047    0.00238103   -0.00660344
     atom    8 type  1   force =     0.00068541   -0.00171491    0.00452351
     atom    9 type  2   force =     0.00005485    0.00034621   -0.00024442
     atom   10 type  2   force =     0.00005950    0.00102228    0.00002527
     atom   11 type  2   force =     0.00027564    0.00130730   -0.00037372
     atom   12 type  2   force =     0.00022034    0.00130896   -0.00068731
     atom   13 type  1   force =     0.00013691   -0.00014761   -0.00023960
     atom   14 type  1   force =     0.00003225    0.00011276    0.00077078
     atom   15 type  2   force =     0.00000299   -0.00052880   -0.00034219
     atom   16 type  2   force =     0.00021791   -0.00012123    0.00176300
     atom   17 type  2   force =    -0.00105070    0.00036497   -0.00036142
     atom   18 type  2   force =     0.00056061    0.00019205   -0.00035064
     atom   19 type  1   force =    -0.00006021   -0.00101479   -0.00020088
     atom   20 type  1   force =    -0.00078579   -0.00039865    0.00044170
     atom   21 type  2   force =     0.00002646    0.00004640    0.10351572
     atom   22 type  2   force =    -0.00023367    0.00072391   -0.00061652
     atom   23 type  2   force =    -0.06996385    0.00049011   -0.03151797
     atom   24 type  2   force =     0.06987753    0.00093917   -0.03152452
     atom   25 type  1   force =     0.00027109   -0.00189093    0.12785530
     atom   26 type  1   force =    -0.00018145   -0.00061867   -0.17578776
     atom   27 type  2   force =    -0.00004312   -0.00352272   -0.03806507
     atom   28 type  2   force =     0.00004984   -0.00033281    0.04763343
     atom   29 type  2   force =    -0.02394681   -0.00045957    0.00449011
     atom   30 type  2   force =     0.02413487    0.00012113    0.00467068
     atom   31 type  1   force =    -0.00083925   -0.00334720   -0.00582498
     atom   32 type  1   force =    -0.00001809   -0.00003806   -0.00077771
     atom   33 type  2   force =     0.00006090   -0.00015427    0.00028927
     atom   34 type  2   force =     0.00005800   -0.00063676   -0.00013079
     atom   35 type  2   force =    -0.00017519   -0.00021667   -0.00021374
     atom   36 type  2   force =     0.00069004    0.00019254   -0.00068768
     atom   37 type  1   force =     0.00072141   -0.00038901    0.00138531
     atom   38 type  1   force =    -0.00004981   -0.00032343    0.00047550
     atom   39 type  2   force =     0.00010570   -0.00031790   -0.00073357
     atom   40 type  2   force =     0.00018026    0.00050946    0.00135905
     atom   41 type  2   force =    -0.00033151   -0.00023385   -0.00028057
     atom   42 type  2   force =    -0.00013414   -0.00023747   -0.00018856
     atom   43 type  1   force =    -0.00054460    0.00021162   -0.00060642
     atom   44 type  1   force =    -0.00061166    0.00081743    0.00007488
     atom   45 type  2   force =     0.00005048    0.00011763    0.10356438
     atom   46 type  3   force =    -0.00400670    0.00167215    0.00610658
     atom   47 type  2   force =    -0.07046946   -0.00083391   -0.03148363
     atom   48 type  2   force =     0.07040407   -0.00036852   -0.03154259
     atom   49 type  4   force =    -0.00018653    0.00021080   -0.00109952
     atom   50 type  2   force =     0.00061234   -0.00823033   -0.01886138
     atom   51 type  4   force =     0.00474223    0.00828858    0.01260710

     Total force =     0.386049     Total SCF correction =     0.000655
  @ DRIVER MODE: Message from server: STATUS
  @ DRIVER MODE: Message from server: GETFORCE
  @ DRIVER MODE: Returning v,forces,stress,ensemble

     Writing output data file ./calc.save/
  @ DRIVER MODE: Message from server: EXIT
  @ DRIVE MODE: Exiting

     General routines

     Parallel routines

   This run was terminated on:  14:42:57  15Sep2021

   JOB DONE.