     Program PWSCF v.6.7GPU starts on 22Sep2021 at 19:41:10

     R & G space division:  proc/nbgrp/npool/nimage =      10
     Reading input from /storage/home/hcoda1/3/ntian30/research/carbon/CxH_vib/H2O_calc/ads_slab/CH2HO_a/out_0013/pw.inp
Warning: card &CELL ignored
Warning: card   CELL_DYNAMICS='IPI', ignored
Warning: card / ignored

     Current dimensions of program PWSCF are:
     Max number of different atomic species (ntypx) = 10
     Max number of k-points (npk) =  40000
     Max angular momentum in pseudopotentials (lmaxx) =  3
     Presently no symmetry can be used with electric field

     Message from routine cell_base_init:
     DEPRECATED: use true lattice parameter, not A to a.u. conversion factor

     IMPORTANT: XC functional enforced from input :
     Exchange-correlation= BEEF-VDW
                           (   1   4  43  14   2   0   0)
     Any further DFT definition will be discarded
     Please, verify this is what you really want

  @ DRIVER MODE: Connecting to
 qe_1139763_2937324.sched-torque.pace.gatech.edut_q7ixgh_scratch
  using UNIX socket
  @ DRIVER MODE: Message from server: STATUS
  @ DRIVER MODE: Message from server: INIT
  @ DRIVER MODE: Receiving replica           0          -1
  @ DRIVER MODE: Receiving encoded integer          25
  @ DRIVER MODE:  SCF:  T  FORCE:  T  STRESS:  F  VC:  F  ENSEMBLE:  F
  @ DRIVER MODE:  SCF:  T  FORCE:  T  STRESS:  F  VC:  F  ENSEMBLE:  F

     Using Slab Decomposition

     bravais-lattice index     =            0
     lattice parameter (alat)  =       1.8897  a.u.
     unit-cell volume          =    6658.9804 (a.u.)^3
     number of atoms/cell      =           52
     number of atomic types    =            4
     number of electrons       =       391.00
     number of Kohn-Sham states=          205
     kinetic-energy cutoff     =      29.3995  Ry
     charge density cutoff     =     293.9946  Ry
     scf convergence threshold =      7.3E-08
     mixing beta               =       0.0500
     number of iterations used =            8  plain     mixing
     Exchange-correlation= BEEF-VDW
                           (   1   4  43  14   2   0   0)

     celldm(1)=   1.889726  celldm(2)=   0.000000  celldm(3)=   0.000000
     celldm(4)=   0.000000  celldm(5)=   0.000000  celldm(6)=   0.000000

     crystal axes: (cart. coord. in units of alat)
               a(1) = (   6.579727   0.000000   0.000000 )
               a(2) = (  -0.000775   5.961596   0.000000 )
               a(3) = (   0.000000   0.000000  25.155947 )

     reciprocal axes: (cart. coord. in units 2 pi/alat)
               b(1) = (  0.151982  0.000020  0.000000 )
               b(2) = (  0.000000  0.167740  0.000000 )
               b(3) = (  0.000000  0.000000  0.039752 )

     PseudoPot. # 1 for Ti read from file:
     /storage/coda1/p-amedford6/0/shared/rich_project_chbe-medford/medford-share/data/pseudos_module/espresso/nninc/pbe/van/Ti.UPF
     MD5 check sum: 8e4df49b7f0d34bbd5052bf3f5ea0213
     Pseudo is Ultrasoft, Zval = 12.0
     Generated by new atomic code, or converted to UPF format
     Using radial grid of  851 points,  6 beta functions with:
                l(1) =   0
                l(2) =   0
                l(3) =   1
                l(4) =   1
                l(5) =   2
                l(6) =   2
     Q(r) pseudized with  8 coefficients,  rinner =    1.000   1.000   1.000
                                                       1.000   1.000

     PseudoPot. # 2 for O  read from file:
     /storage/coda1/p-amedford6/0/shared/rich_project_chbe-medford/medford-share/data/pseudos_module/espresso/nninc/pbe/van/O.UPF
     MD5 check sum: 78c19812648e8988a0fe644b0f25305e
     Pseudo is Ultrasoft, Zval =  6.0
     Generated by new atomic code, or converted to UPF format
     Using radial grid of  737 points,  4 beta functions with:
                l(1) =   0
                l(2) =   0
                l(3) =   1
                l(4) =   1
     Q(r) pseudized with  8 coefficients,  rinner =    0.800   0.800   0.800

     PseudoPot. # 3 for C  read from file:
     /storage/coda1/p-amedford6/0/shared/rich_project_chbe-medford/medford-share/data/pseudos_module/espresso/nninc/pbe/van/C.UPF
     MD5 check sum: 1a69bf6b8db32088f5b2163dbdb77a27
     Pseudo is Ultrasoft, Zval =  4.0
     Generated by new atomic code, or converted to UPF format
     Using radial grid of  721 points,  4 beta functions with:
                l(1) =   0
                l(2) =   0
                l(3) =   1
                l(4) =   1
     Q(r) pseudized with  8 coefficients,  rinner =    0.800   0.800   0.800

     PseudoPot. # 4 for H  read from file:
     /storage/coda1/p-amedford6/0/shared/rich_project_chbe-medford/medford-share/data/pseudos_module/espresso/nninc/pbe/van/H.UPF
     MD5 check sum: b5ee9d7bfd3a09ee7748110bda690ff7
     Pseudo is Ultrasoft, Zval =  1.0
     Generated by new atomic code, or converted to UPF format
     Using radial grid of  615 points,  1 beta functions with:
                l(1) =   0
     Q(r) pseudized with  8 coefficients,  rinner =    0.800

     atomic species   valence    mass     pseudopotential
        Ti1           12.00    47.86700     Ti( 1.00)
        O1             6.00    15.99900     O ( 1.00)
        C1             4.00    12.01100     C ( 1.00)
        H1             1.00     1.00800     H ( 1.00)

     No symmetry found

   Cartesian axes

     site n.     atom                  positions (alat units)
         1           Ti1 tau(   1) = (   0.0004258   2.9801865   6.0000000  )
         2           Ti1 tau(   2) = (   3.2906075   1.4906267   6.0002472  )
         3           O1  tau(   3) = (   0.0006271   0.0005054   7.9858123  )
         4           O1  tau(   4) = (   3.2906025   0.0005020   7.3038282  )
         5           O1  tau(   5) = (   4.5942328   1.4918067   9.2879030  )
         6           O1  tau(   6) = (   1.9868534   1.4903216   9.2879459  )
         7           Ti1 tau(   7) = (   3.2576197   2.8654215   9.2214558  )
         8           Ti1 tau(   8) = (   6.5344909   1.4429808   9.3601258  )
         9           O1  tau(   9) = (   3.2692782   5.9266415  11.3199434  )
        10           O1  tau(  10) = (   6.5685443   5.9434748  10.5851361  )
        11           O1  tau(  11) = (   1.2543606   1.4786140  12.6270584  )
        12           O1  tau(  12) = (   5.2804994   1.4734118  12.6291387  )
        13           Ti1 tau(  13) = (   6.5561640   2.8465321  12.8092297  )
        14           Ti1 tau(  14) = (   3.2590950   1.2910582  12.6820668  )
        15           O1  tau(  15) = (   6.5637791   5.9505241  14.6246090  )
        16           O1  tau(  16) = (   3.2632455   0.0300109  13.9168947  )
        17           O1  tau(  17) = (   4.5093043   1.5331652  16.1230905  )
        18           O1  tau(  18) = (   1.9844652   1.5452522  16.1286669  )
        19           Ti1 tau(  19) = (   3.2766647   3.0056044  15.6806532  )
        20           Ti1 tau(  20) = (   0.0376264   1.5104518  16.1289793  )
        21           O1  tau(  21) = (   3.2904802   0.0005063   4.7018136  )
        22           O1  tau(  22) = (   6.5370995   5.9187843  17.1758003  )
        23           O1  tau(  23) = (   1.3043587   1.4918075   6.0039043  )
        24           O1  tau(  24) = (   5.2767064   1.4903225   6.0039473  )
        25           Ti1 tau(  25) = (   0.0000382   5.9609847   6.0000000  )
        26           Ti1 tau(  26) = (   3.2902200   4.4714249   6.0002472  )
        27           O1  tau(  27) = (   0.0002396   2.9813036   7.9858123  )
        28           O1  tau(  28) = (   3.2902150   2.9813002   7.3038282  )
        29           O1  tau(  29) = (   4.5938453   4.4726049   9.2879030  )
        30           O1  tau(  30) = (   1.9864658   4.4711199   9.2879459  )
        31           Ti1 tau(  31) = (   3.2565375   5.8496818   9.1814359  )
        32           Ti1 tau(  32) = (   6.5349656   4.3900073   9.3400910  )
        33           O1  tau(  33) = (   3.2728704   3.0037829  11.2907943  )
        34           O1  tau(  34) = (   6.5689136   2.9626257  10.5472476  )
        35           O1  tau(  35) = (   1.2549189   4.4436098  12.6280720  )
        36           O1  tau(  36) = (   5.2752285   4.4450423  12.6314263  )
        37           Ti1 tau(  37) = (   6.5445616   5.8332433  12.5976854  )
        38           Ti1 tau(  38) = (   3.2543598   4.3897341  12.4334224  )
        39           O1  tau(  39) = (   6.5579435   2.9355163  14.7117218  )
        40           O1  tau(  40) = (   3.2602875   2.9656724  13.9017019  )
        41           O1  tau(  41) = (   4.5395605   4.4315404  16.0360363  )
        42           O1  tau(  42) = (   2.0063696   4.4444213  16.0824092  )
        43           Ti1 tau(  43) = (   3.2990179   0.0081159  16.3450624  )
        44           Ti1 tau(  44) = (   6.5722952   4.6241161  15.8901152  )
        45           O1  tau(  45) = (   3.2900926   2.9813045   4.7018136  )
        46           O1  tau(  46) = (   1.3039711   4.4726057   6.0039043  )
        47           O1  tau(  47) = (   5.2763189   4.4711207   6.0039473  )
        48           C1  tau(  48) = (   6.5366691   2.9215611  17.7332970  )
        49           H1  tau(  49) = (   0.8393079   3.1163452  18.3454380  )
        50           H1  tau(  50) = (   5.6139513   3.1093896  18.3013171  )
        51           O1  tau(  51) = (   3.3457726   5.9061862  18.1608053  )
        52           H1  tau(  52) = (   4.0847859   0.3069366  18.6733355  )

     number of k points=    10  Fermi-Dirac smearing, width (Ry)=  0.0073
                       cart. coord. in units 2pi/alat
        k(    1) = (   0.0000000   0.0000000   0.0000000), wk =   0.1250000
        k(    2) = (   0.0000000   0.0419351   0.0000000), wk =   0.2500000
        k(    3) = (   0.0000000  -0.0838702   0.0000000), wk =   0.1250000
        k(    4) = (   0.0379955   0.0000049   0.0000000), wk =   0.2500000
        k(    5) = (   0.0379955   0.0419400   0.0000000), wk =   0.2500000
        k(    6) = (   0.0379955  -0.0838652   0.0000000), wk =   0.2500000
        k(    7) = (   0.0379955  -0.0419301   0.0000000), wk =   0.2500000
        k(    8) = (  -0.0759910  -0.0000099   0.0000000), wk =   0.1250000
        k(    9) = (  -0.0759910   0.0419252   0.0000000), wk =   0.2500000
        k(   10) = (  -0.0759910  -0.0838800   0.0000000), wk =   0.1250000

     Initial potential from superposition of free atoms

     starting charge  374.99918, renormalised to  391.00000

     negative rho (up, down):  1.929E-02 0.000E+00

     %%%%%%%%%%%%%%%%%%%%%%%%%%%%%%%%%%%%%%%%%%%%%%%%%%%%%%%%%%%%%%%%%%%%%%%%
     %                                                                      %
     % You are using vdW-DF, which was implemented by the Thonhauser group. %
     % Please cite the following two papers that made this development      %
     % possible and the two reviews that describe the various versions:     %
     %                                                                      %
     %   T. Thonhauser et al., PRL 115, 136402 (2015).                      %
     %   T. Thonhauser et al., PRB 76, 125112 (2007).                       %
     %   K. Berland et al., Rep. Prog. Phys. 78, 066501 (2015).             %
     %   D.C. Langreth et al., J. Phys.: Condens. Matter 21, 084203 (2009). %
     %                                                                      %
     %                                                                      %
     % If you are calculating the stress with vdW-DF, please also cite:     %
     %                                                                      %
     %   R. Sabatini et al., J. Phys.: Condens. Matter 24, 424209 (2012).   %
     %                                                                      %
     %%%%%%%%%%%%%%%%%%%%%%%%%%%%%%%%%%%%%%%%%%%%%%%%%%%%%%%%%%%%%%%%%%%%%%%%

     Adding external electric field

     Computed dipole along edir(3) :
        Dipole               -4.4316 Ry au,        -11.2641 Debye
        Dipole field         -0.0084 Ry au,

        Potential amp.        0.7752 Ry
        Total length         46.3494 bohr

     Starting wfcs are  295 atomic wfcs
  @ DRIVER MODE: Message from server: STATUS
  @ DRIVER MODE: Message from server: POSDATA
  @ DRIVER MODE: Reading and sharing cell
  @ DRIVER MODE: Reading and sharing positions
  @ DRIVER MODE: Received positions

     Self-consistent Calculation

     iteration #  1     ecut=    29.40 Ry     beta= 0.05
     Davidson diagonalization with overlap
     c_bands:  5 eigenvalues not converged
     c_bands:  2 eigenvalues not converged
     c_bands:  2 eigenvalues not converged
     c_bands:  2 eigenvalues not converged
     c_bands:  2 eigenvalues not converged
     c_bands:  1 eigenvalues not converged
     c_bands:  3 eigenvalues not converged
     c_bands:  1 eigenvalues not converged
     c_bands:  3 eigenvalues not converged
     ethr =  1.00E-05,  avg # of iterations = 20.0

[...]

     total energy              =   -2883.22126515 Ry
     estimated scf accuracy    <     549.41684760 Ry

     iteration #  2     ecut=    29.40 Ry     beta= 0.05
     Davidson diagonalization with overlap
     ethr =  1.00E-02,  avg # of iterations = 14.1

[...]

     iteration # 28     ecut=    29.40 Ry     beta= 0.05
     Davidson diagonalization with overlap
     c_bands:  1 eigenvalues not converged
     ethr =  3.87E-07,  avg # of iterations =  7.7

[...]

     total energy              =   -2931.27734035 Ry
     estimated scf accuracy    <       0.00000027 Ry

     iteration # 50     ecut=    29.40 Ry     beta= 0.05
     Davidson diagonalization with overlap
     ethr =  2.19E-11,  avg # of iterations =  5.1

     negative rho (up, down):  1.858E-02 0.000E+00

     Adding external electric field

     Computed dipole along edir(3) :
        Dipole                0.4324 Ry au,          1.0990 Debye
        Dipole field          0.0008 Ry au,

        Potential amp.       -0.0756 Ry
        Total length         46.3494 bohr

     End of self-consistent calculation

          k = 0.0000 0.0000 0.0000 ( 18029 PWs)   bands (ev):

   -56.6097 -56.5597 -56.1480 -56.0382 -55.9961 -55.9392 -55.9126 -55.8972
   -55.8547 -55.8131 -55.7834 -55.7264 -55.6790 -55.6103 -55.2192 -55.1853
   -33.0215 -32.8746 -32.8203 -32.7885 -32.6928 -32.6476 -32.4991 -32.4863
   -32.4666 -32.4034 -32.3726 -32.3511 -32.3079 -32.2854 -32.2669 -32.2430
   -32.2389 -32.2241 -32.2101 -32.1445 -32.1418 -32.1284 -32.1257 -32.1122
   -32.0998 -32.0945 -32.0898 -32.0868 -32.0612 -32.0408 -32.0174 -31.9999
   -31.9943 -31.9845 -31.9833 -31.9740 -31.9269 -31.8710 -31.8445 -31.8386
   -31.8222 -31.7890 -31.6137 -31.5596 -31.5352 -31.4304 -31.3454 -31.2347
   -16.9545 -16.7674 -16.6238 -16.4003 -16.2560 -16.1517 -15.9358 -15.9255
   -15.8037 -15.7861 -15.7616 -15.6302 -15.6170 -15.6006 -15.5609 -15.5392
   -15.5314 -15.5296 -15.5182 -15.4916 -15.4595 -15.4387 -15.3987 -15.3170
   -15.2419 -15.2345 -15.1991 -15.1436 -15.0798 -14.8607 -13.7220 -13.6136
    -8.8853  -4.6509  -4.2919  -4.0790  -3.9708  -3.8929  -3.7867  -3.6332
    -3.4342  -3.2954  -3.2456  -3.2089  -3.1608  -3.1435  -3.1244  -3.0784
    -3.0331  -2.9811  -2.9518  -2.8900  -2.8654  -2.8261  -2.7892  -2.7641
    -2.7490  -2.7300  -2.7242  -2.5881  -2.5246  -2.5142  -2.4676  -2.4656
    -2.4073  -2.3902  -2.3666  -2.3174  -2.2832  -2.1881  -2.1298  -2.0969
    -2.0502  -1.8295  -1.8114  -1.7455  -1.6711  -1.6183  -1.5600  -1.5174
    -1.4634  -1.4351  -1.3735  -1.3337  -1.2865  -1.2624  -1.2225  -1.1558
    -1.1356  -1.1007  -1.0394  -0.9635  -0.9178  -0.8491  -0.7830  -0.7454
    -0.6907  -0.6821  -0.6520  -0.5597  -0.4778  -0.4575  -0.4244  -0.3824
    -0.3662  -0.2949  -0.2815  -0.2390  -0.2228  -0.1455  -0.1310  -0.1016
    -0.0686  -0.0462  -0.0249   0.0415   0.1635   0.2315   0.2746   0.3130
     0.3289   0.4143   0.4339   0.5218   0.6771   0.7972   0.8365   1.0069
     1.0593   1.3480   1.3939   1.9241   2.6918   2.8563   3.1419   3.2448
     3.2806   3.3571   3.4016   3.4330   3.6332

[...]

          k = 0.0380-0.0419 0.0000 ( 17876 PWs)   bands (ev):

[...]

          k =-0.0760-0.0000 0.0000 ( 17886 PWs)   bands (ev):

[...]

          k =-0.0760-0.0839 0.0000 ( 17948 PWs)   bands (ev):

   -56.6032 -56.5660 -56.1473 -56.0358 -55.9901 -55.9451 -55.9148 -55.8978
   -55.8459 -55.8219 -55.7818 -55.7203 -55.6851 -55.6119 -55.2025 -55.2019
   -32.8704 -32.8540 -32.8243 -32.8221 -32.7550 -32.7233 -32.4242 -32.3805
   -32.3679 -32.3517 -32.3348 -32.2916 -32.2687 -32.2616 -32.2508 -32.2310
   -32.2156 -32.2031 -32.1924 -32.1833 -32.1639 -32.1632 -32.1407 -32.1369
   -32.1359 -32.1245 -32.1099 -32.1059 -32.0730 -32.0685 -32.0553 -32.0425
   -32.0036 -31.9958 -31.9879 -31.9874 -31.9546 -31.9307 -31.9107 -31.8727
   -31.8254 -31.8123 -31.5485 -31.5481 -31.4293 -31.4274 -31.3876 -31.3867
   -16.9425 -16.1456 -16.0842 -16.0747 -16.0614 -16.0316 -15.9901 -15.9185
   -15.9165 -15.8191 -15.7921 -15.7482 -15.7102 -15.6982 -15.6522 -15.6391
   -15.6266 -15.5637 -15.5216 -15.5028 -15.4872 -15.4746 -15.4538 -15.4290
   -15.4175 -15.3973 -15.3298 -15.2477 -15.2175 -15.0028 -13.7180 -13.7168
    -8.8931  -4.6422  -3.3826  -3.3282  -3.2494  -3.2304  -3.2166  -3.1506
    -3.0943  -3.0892  -3.0315  -3.0181  -2.9747  -2.9452  -2.9155  -2.9094
    -2.9025  -2.8927  -2.8792  -2.8553  -2.8013  -2.7985  -2.7807  -2.7715
    -2.7552  -2.7393  -2.7068  -2.6658  -2.6353  -2.6110  -2.5294  -2.4261
    -2.4203  -2.3861  -2.3552  -2.3223  -2.2805  -2.2584  -2.1832  -2.1759
    -2.1598  -2.1102  -2.0118  -1.7793  -1.7711  -1.7164  -1.6834  -1.6741
    -1.6115  -1.5429  -1.5360  -1.4514  -1.4482  -1.4349  -1.3346  -1.3165
    -1.2840  -1.2650  -1.2393  -1.2102  -1.1074  -1.0857  -1.0779  -1.0461
    -1.0009  -0.9802  -0.8884  -0.8698  -0.8520  -0.8239  -0.7419  -0.6895
    -0.6503  -0.6322  -0.4943  -0.4468  -0.4357  -0.2817  -0.2299  -0.1973
    -0.1751  -0.0883   0.0155   0.0556   0.1128   0.1598   0.2191   0.3257
     0.3382   0.3609   0.4257   0.4650   0.4724   0.4877   0.5648   1.1914
     1.1921   1.2002   1.2072   2.0830   3.2331   3.2585   3.2706   3.3040
     3.5169   3.5403   3.5510   3.6090   3.6502

     the Fermi energy is     2.0039 ev

!    total energy              =   -2931.27744341 Ry
     estimated scf accuracy    <       0.00000002 Ry
     smearing contrib. (-TS)   =      -0.01004687 Ry
     internal energy E=F+TS    =   -2931.26739655 Ry

     The total energy is F=E-TS. E is the sum of the following terms:
     one-electron contribution =  -24331.99922840 Ry
     hartree contribution      =   12249.78288388 Ry
     xc contribution           =    -481.69456997 Ry
     ewald contribution        =    9632.64316512 Ry
     electric field correction =       0.00035282 Ry

     convergence has been achieved in  50 iterations

     Forces acting on atoms (cartesian axes, Ry/au):

     atom    1 type  1   force =     0.00035911   -0.00078127    0.13237152
     atom    2 type  1   force =     0.00014115    0.00690627   -0.15727171
     atom    3 type  2   force =    -0.00018705    0.00281924   -0.05348721
     atom    4 type  2   force =    -0.00072770   -0.00116894    0.04119041
     atom    5 type  2   force =    -0.01141452   -0.00238208    0.00284671
     atom    6 type  2   force =     0.00919665   -0.00643535    0.00177741
     atom    7 type  1   force =     0.00043821    0.00029800   -0.00038262
     atom    8 type  1   force =     0.00019184   -0.00002924    0.00094367
     atom    9 type  2   force =    -0.00002160    0.00043727    0.00040344
     atom   10 type  2   force =     0.00025420    0.00023477   -0.00011898
     atom   11 type  2   force =     0.00050438    0.00033812    0.00026106
     atom   12 type  2   force =    -0.00014284    0.00027537   -0.00025811
     atom   13 type  1   force =    -0.00026156   -0.00046836   -0.00090737
     atom   14 type  1   force =     0.00020658    0.00050086   -0.00024805
     atom   15 type  2   force =     0.00007751   -0.00017580    0.00147185
     atom   16 type  2   force =     0.00048016   -0.00018736    0.00006242
     atom   17 type  2   force =     0.00021511   -0.00027788   -0.00040521
     atom   18 type  2   force =    -0.00107281   -0.00025306   -0.00020847
     atom   19 type  1   force =     0.00115019   -0.00006857   -0.00024129
     atom   20 type  1   force =    -0.00031731    0.00027250   -0.00020352
     atom   21 type  2   force =     0.00021000    0.00008746    0.09899407
     atom   22 type  2   force =     0.00008073    0.00089940   -0.00110786
     atom   23 type  2   force =    -0.08051070    0.00137079   -0.03418091
     atom   24 type  2   force =     0.08058409    0.00190147   -0.03419200
     atom   25 type  1   force =     0.00030743   -0.00010878    0.14243873
     atom   26 type  1   force =     0.00016905   -0.00836737   -0.15753467
     atom   27 type  2   force =    -0.00039372   -0.00117153   -0.05198124
     atom   28 type  2   force =    -0.00064157   -0.00038211    0.04298515
     atom   29 type  2   force =    -0.01012281    0.00503605    0.00017441
     atom   30 type  2   force =     0.00779991    0.00128065   -0.00110800
     atom   31 type  1   force =     0.00010244    0.00001245   -0.00025543
     atom   32 type  1   force =     0.00009460   -0.00044615    0.00097675
     atom   33 type  2   force =     0.00003518   -0.00033527   -0.00007272
     atom   34 type  2   force =     0.00024526    0.00012768   -0.00026008
     atom   35 type  2   force =    -0.00051077    0.00035049    0.00018330
     atom   36 type  2   force =     0.00131503    0.00031108   -0.00025386
     atom   37 type  1   force =     0.00000785   -0.00020077   -0.00042062
     atom   38 type  1   force =     0.00029020   -0.00009121   -0.00018439
     atom   39 type  2   force =     0.00002426    0.00009772    0.00010341
     atom   40 type  2   force =     0.00040077    0.00010439   -0.00035852
     atom   41 type  2   force =    -0.00106349    0.00009252   -0.00011265
     atom   42 type  2   force =     0.00032164    0.00027609   -0.00019235
     atom   43 type  1   force =     0.00116868    0.00045889    0.00031667
     atom   44 type  1   force =    -0.00041238    0.00041190   -0.00020665
     atom   45 type  2   force =     0.00020089   -0.00000047    0.09856282
     atom   46 type  2   force =    -0.08049929   -0.00109989   -0.03416605
     atom   47 type  2   force =     0.08058889   -0.00056270   -0.03424920
     atom   48 type  3   force =    -0.00839330    0.00161485    0.00388940
     atom   49 type  4   force =    -0.00090733    0.00000833    0.00060895
     atom   50 type  4   force =     0.00936079   -0.00134696   -0.00466871
     atom   51 type  2   force =    -0.00003493    0.00054257   -0.00135701
     atom   52 type  4   force =     0.00111292   -0.00072604    0.00003330

     Total force =     0.383978     Total SCF correction =     0.000329
  @ DRIVER MODE: Message from server: STATUS
  @ DRIVER MODE: Message from server: GETFORCE
  @ DRIVER MODE: Returning v,forces,stress,ensemble

     Writing output data file ./calc.save/
  @ DRIVER MODE: Message from server: EXIT
  @ DRIVE MODE: Exiting

     General routines

     Parallel routines

   This run was terminated on:  19:54:23  22Sep2021

   JOB DONE.