     Program PWSCF v.6.7GPU starts on 22Sep2021 at 20:10:46

     R & G space division:  proc/nbgrp/npool/nimage =      10
     Reading input from /storage/home/hcoda1/3/ntian30/research/carbon/CxH_vib/H2O_calc/ads_slab/CH3NNH3HO_a/out_0011/pw.inp
Warning: card &CELL ignored
Warning: card   CELL_DYNAMICS='IPI', ignored
Warning: card / ignored

     Current dimensions of program PWSCF are:
     Max number of different atomic species (ntypx) = 10
     Max number of k-points (npk) =  40000
     Max angular momentum in pseudopotentials (lmaxx) =  3
     Presently no symmetry can be used with electric field

     Message from routine cell_base_init:
     DEPRECATED: use true lattice parameter, not A to a.u. conversion factor

     IMPORTANT: XC functional enforced from input :
     Exchange-correlation= BEEF-VDW
                           (   1   4  43  14   2   0   0)
     Any further DFT definition will be discarded
     Please, verify this is what you really want

  @ DRIVER MODE: Connecting to
 qe_1139763_2937318.sched-torque.pace.gatech.edu5dlhae0i_scratch
  using UNIX socket
  @ DRIVER MODE: Message from server: STATUS
  @ DRIVER MODE: Message from server: INIT
  @ DRIVER MODE: Receiving replica           0          -1
  @ DRIVER MODE: Receiving encoded integer          25
  @ DRIVER MODE:  SCF:  T  FORCE:  T  STRESS:  F  VC:  F  ENSEMBLE:  F
  @ DRIVER MODE:  SCF:  T  FORCE:  T  STRESS:  F  VC:  F  ENSEMBLE:  F

     Using Slab Decomposition

     bravais-lattice index     =            0
     lattice parameter (alat)  =       1.8897  a.u.
     unit-cell volume          =    6658.9804 (a.u.)^3
     number of atoms/cell      =           58
     number of atomic types    =            5
     number of electrons       =       405.00
     number of Kohn-Sham states=          212
     kinetic-energy cutoff     =      29.3995  Ry
     charge density cutoff     =     293.9946  Ry
     scf convergence threshold =      7.3E-08
     mixing beta               =       0.0500
     number of iterations used =            8  plain     mixing
     Exchange-correlation= BEEF-VDW
                           (   1   4  43  14   2   0   0)

     celldm(1)=   1.889726  celldm(2)=   0.000000  celldm(3)=   0.000000
     celldm(4)=   0.000000  celldm(5)=   0.000000  celldm(6)=   0.000000

     crystal axes: (cart. coord. in units of alat)
               a(1) = (   6.579727   0.000000   0.000000 )
               a(2) = (  -0.000775   5.961596   0.000000 )
               a(3) = (   0.000000   0.000000  25.155947 )

     reciprocal axes: (cart. coord. in units 2 pi/alat)
               b(1) = (  0.151982  0.000020  0.000000 )
               b(2) = (  0.000000  0.167740  0.000000 )
               b(3) = (  0.000000  0.000000  0.039752 )

     PseudoPot. # 1 for Ti read from file:
     /storage/coda1/p-amedford6/0/shared/rich_project_chbe-medford/medford-share/data/pseudos_module/espresso/nninc/pbe/van/Ti.UPF
     MD5 check sum: 8e4df49b7f0d34bbd5052bf3f5ea0213
     Pseudo is Ultrasoft, Zval = 12.0
     Generated by new atomic code, or converted to UPF format
     Using radial grid of  851 points,  6 beta functions with:
                l(1) =   0
                l(2) =   0
                l(3) =   1
                l(4) =   1
                l(5) =   2
                l(6) =   2
     Q(r) pseudized with  8 coefficients,  rinner =    1.000   1.000   1.000
                                                       1.000   1.000

     PseudoPot. # 2 for O  read from file:
     /storage/coda1/p-amedford6/0/shared/rich_project_chbe-medford/medford-share/data/pseudos_module/espresso/nninc/pbe/van/O.UPF
     MD5 check sum: 78c19812648e8988a0fe644b0f25305e
     Pseudo is Ultrasoft, Zval =  6.0
     Generated by new atomic code, or converted to UPF format
     Using radial grid of  737 points,  4 beta functions with:
                l(1) =   0
                l(2) =   0
                l(3) =   1
                l(4) =   1
     Q(r) pseudized with  8 coefficients,  rinner =    0.800   0.800   0.800

     PseudoPot. # 3 for N  read from file:
     /storage/coda1/p-amedford6/0/shared/rich_project_chbe-medford/medford-share/data/pseudos_module/espresso/nninc/pbe/van/N.UPF
     MD5 check sum: 90d10febe142ad51ac9d5be1deb811c4
     Pseudo is Ultrasoft, Zval =  5.0
     Generated by new atomic code, or converted to UPF format
     Using radial grid of  729 points,  4 beta functions with:
                l(1) =   0
                l(2) =   0
                l(3) =   1
                l(4) =   1
     Q(r) pseudized with  8 coefficients,  rinner =    0.800   0.800   0.800

     PseudoPot. # 4 for C  read from file:
     /storage/coda1/p-amedford6/0/shared/rich_project_chbe-medford/medford-share/data/pseudos_module/espresso/nninc/pbe/van/C.UPF
     MD5 check sum: 1a69bf6b8db32088f5b2163dbdb77a27
     Pseudo is Ultrasoft, Zval =  4.0
     Generated by new atomic code, or converted to UPF format
     Using radial grid of  721 points,  4 beta functions with:
                l(1) =   0
                l(2) =   0
                l(3) =   1
                l(4) =   1
     Q(r) pseudized with  8 coefficients,  rinner =    0.800   0.800   0.800

     PseudoPot. # 5 for H  read from file:
     /storage/coda1/p-amedford6/0/shared/rich_project_chbe-medford/medford-share/data/pseudos_module/espresso/nninc/pbe/van/H.UPF
     MD5 check sum: b5ee9d7bfd3a09ee7748110bda690ff7
     Pseudo is Ultrasoft, Zval =  1.0
     Generated by new atomic code, or converted to UPF format
     Using radial grid of  615 points,  1 beta functions with:
                l(1) =   0
     Q(r) pseudized with  8 coefficients,  rinner =    0.800

     atomic species   valence    mass     pseudopotential
        Ti1           12.00    47.86700     Ti( 1.00)
        O1             6.00    15.99900     O ( 1.00)
        N1             5.00    14.00700     N ( 1.00)
        C1             4.00    12.01100     C ( 1.00)
        H1             1.00     1.00800     H ( 1.00)

     No symmetry found

   Cartesian axes

     site n.     atom                  positions (alat units)
         1           Ti1 tau(   1) = (   0.0004258   2.9801865   6.0000000  )
         2           Ti1 tau(   2) = (   3.2906075   1.4906267   6.0002472  )
         3           O1  tau(   3) = (   0.0006271   0.0005054   7.9858123  )
         4           O1  tau(   4) = (   3.2906025   0.0005020   7.3038282  )
         5           O1  tau(   5) = (   4.5942328   1.4918067   9.2879030  )
         6           O1  tau(   6) = (   1.9868534   1.4903216   9.2879459  )
         7           Ti1 tau(   7) = (   3.2907910   2.8959150   9.1758416  )
         8           Ti1 tau(   8) = (   0.0015273   1.4827037   9.2680791  )
         9           O1  tau(   9) = (   3.2949357   5.9297256  11.2770696  )
        10           O1  tau(  10) = (   0.0116148   5.9584955  10.6183126  )
        11           O1  tau(  11) = (   1.2901270   1.4659759  12.6218969  )
        12           O1  tau(  12) = (   5.3029181   1.4690452  12.6271982  )
        13           Ti1 tau(  13) = (   6.5637346   3.0486055  12.7052252  )
        14           Ti1 tau(  14) = (   3.3207578   1.2909511  12.6638180  )
        15           O1  tau(  15) = (   0.0081040   5.9567798  14.6379979  )
        16           O1  tau(  16) = (   3.2944190   0.0149942  13.8863584  )
        17           O1  tau(  17) = (   4.5334936   1.5584448  16.0391558  )
        18           O1  tau(  18) = (   2.0244848   1.5379376  16.0854781  )
        19           Ti1 tau(  19) = (   3.2579824   3.0118882  15.6538344  )
        20           Ti1 tau(  20) = (   6.4918182   1.5199401  15.8876453  )
        21           O1  tau(  21) = (   3.2904802   0.0005063   4.7018136  )
        22           O1  tau(  22) = (   6.5166677   0.0216046  17.1949088  )
        23           O1  tau(  23) = (   1.3043587   1.4918075   6.0039043  )
        24           O1  tau(  24) = (   5.2767064   1.4903225   6.0039473  )
        25           Ti1 tau(  25) = (   0.0000382   5.9609847   6.0000000  )
        26           Ti1 tau(  26) = (   3.2902200   4.4714249   6.0002472  )
        27           O1  tau(  27) = (   0.0002396   2.9813036   7.9858123  )
        28           O1  tau(  28) = (   3.2902150   2.9813002   7.3038282  )
        29           O1  tau(  29) = (   4.5938453   4.4726049   9.2879030  )
        30           O1  tau(  30) = (   1.9864658   4.4711199   9.2879459  )
        31           Ti1 tau(  31) = (   3.2891106   5.8743827   9.1763621  )
        32           Ti1 tau(  32) = (   0.0006254   4.4649316   9.2693709  )
        33           O1  tau(  33) = (   3.2959121   3.0085915  11.2438341  )
        34           O1  tau(  34) = (   0.0092240   2.9805883  10.6323155  )
        35           O1  tau(  35) = (   1.2849535   4.4488585  12.6204231  )
        36           O1  tau(  36) = (   5.2878833   4.4365118  12.6243745  )
        37           Ti1 tau(  37) = (   0.0500071   0.0677371  12.6535751  )
        38           Ti1 tau(  38) = (   3.3027700   4.3871210  12.4110406  )
        39           O1  tau(  39) = (   6.5685058   2.9535060  14.6525041  )
        40           O1  tau(  40) = (   3.2696111   2.9719761  13.8704823  )
        41           O1  tau(  41) = (   4.5209813   4.4409030  16.0696701  )
        42           O1  tau(  42) = (   2.0131998   4.4599944  16.0916020  )
        43           Ti1 tau(  43) = (   3.2138439   0.0230873  16.3295100  )
        44           Ti1 tau(  44) = (   6.5234412   4.6200706  16.0754176  )
        45           O1  tau(  45) = (   3.2900926   2.9813045   4.7018136  )
        46           O1  tau(  46) = (   1.3039711   4.4726057   6.0039043  )
        47           O1  tau(  47) = (   5.2763189   4.4711207   6.0039473  )
        48           N1  tau(  48) = (   0.0251376   2.9556585  17.3246074  )
        49           N1  tau(  49) = (   6.3772498   2.5461882  22.2588425  )
        50           C1  tau(  50) = (   0.2111848   2.8484408  18.7116211  )
        51           H1  tau(  51) = (   0.3920758   3.8074029  19.2116250  )
        52           H1  tau(  52) = (   5.9044209   2.3708277  19.1722604  )
        53           H1  tau(  53) = (   1.0233575   2.1342068  18.9364007  )
        54           H1  tau(  54) = (   6.0930523   3.2289774  22.9628454  )
        55           H1  tau(  55) = (   0.2277240   1.7755739  22.7685771  )
        56           H1  tau(  56) = (   0.5282093   2.9785696  21.7129995  )
        57           O1  tau(  57) = (   3.3838229   0.0530270  18.1522483  )
        58           H1  tau(  58) = (   4.2718821   5.8932998  18.5223319  )

     number of k points=    10  Fermi-Dirac smearing, width (Ry)=  0.0073
                       cart. coord. in units 2pi/alat
        k(    1) = (   0.0000000   0.0000000   0.0000000), wk =   0.1250000
        k(    2) = (   0.0000000   0.0419351   0.0000000), wk =   0.2500000
        k(    3) = (   0.0000000  -0.0838702   0.0000000), wk =   0.1250000
        k(    4) = (   0.0379955   0.0000049   0.0000000), wk =   0.2500000
        k(    5) = (   0.0379955   0.0419400   0.0000000), wk =   0.2500000
        k(    6) = (   0.0379955  -0.0838652   0.0000000), wk =   0.2500000
        k(    7) = (   0.0379955  -0.0419301   0.0000000), wk =   0.2500000
        k(    8) = (  -0.0759910  -0.0000099   0.0000000), wk =   0.1250000
        k(    9) = (  -0.0759910   0.0419252   0.0000000), wk =   0.2500000
        k(   10) = (  -0.0759910  -0.0838800   0.0000000), wk =   0.1250000

     Initial potential from superposition of free atoms

     starting charge  388.99913, renormalised to  405.00000

     negative rho (up, down):  7.832E-03 0.000E+00

     %%%%%%%%%%%%%%%%%%%%%%%%%%%%%%%%%%%%%%%%%%%%%%%%%%%%%%%%%%%%%%%%%%%%%%%%
     %                                                                      %
     % You are using vdW-DF, which was implemented by the Thonhauser group. %
     % Please cite the following two papers that made this development      %
     % possible and the two reviews that describe the various versions:     %
     %                                                                      %
     %   T. Thonhauser et al., PRL 115, 136402 (2015).                      %
     %   T. Thonhauser et al., PRB 76, 125112 (2007).                       %
     %   K. Berland et al., Rep. Prog. Phys. 78, 066501 (2015).             %
     %   D.C. Langreth et al., J. Phys.: Condens. Matter 21, 084203 (2009). %
     %                                                                      %
     %                                                                      %
     % If you are calculating the stress with vdW-DF, please also cite:     %
     %                                                                      %
     %   R. Sabatini et al., J. Phys.: Condens. Matter 24, 424209 (2012).   %
     %                                                                      %
     %%%%%%%%%%%%%%%%%%%%%%%%%%%%%%%%%%%%%%%%%%%%%%%%%%%%%%%%%%%%%%%%%%%%%%%%

     Adding external electric field

     Computed dipole along edir(3) :
        Dipole              -15.1895 Ry au,        -38.6078 Debye
        Dipole field         -0.0287 Ry au,

        Potential amp.        2.6572 Ry
        Total length         46.3494 bohr

     Starting wfcs are  307 atomic wfcs
  @ DRIVER MODE: Message from server: STATUS
  @ DRIVER MODE: Message from server: POSDATA
  @ DRIVER MODE: Reading and sharing cell
  @ DRIVER MODE: Reading and sharing positions
  @ DRIVER MODE: Received positions

     Self-consistent Calculation

     iteration #  1     ecut=    29.40 Ry     beta= 0.05
     Davidson diagonalization with overlap
     c_bands:  4 eigenvalues not converged
     c_bands:  1 eigenvalues not converged
     c_bands:  1 eigenvalues not converged
     c_bands:  2 eigenvalues not converged
     c_bands:  1 eigenvalues not converged
     c_bands:  2 eigenvalues not converged
     ethr =  1.00E-05,  avg # of iterations = 31.5

[...]

     total energy              =   -2295.08900132 Ry
     estimated scf accuracy    <    7743.66960683 Ry

     iteration #  2     ecut=    29.40 Ry     beta= 0.05
     Davidson diagonalization with overlap
     ethr =  1.00E-02,  avg # of iterations = 23.6

[...]

     iteration # 59     ecut=    29.40 Ry     beta= 0.05
     Davidson diagonalization with overlap
     c_bands:  4 eigenvalues not converged
     ethr =  1.02E-05,  avg # of iterations =  8.0

[...]

     total energy              =   -2976.42339796 Ry
     estimated scf accuracy    <       0.00000010 Ry

     iteration # 88     ecut=    29.40 Ry     beta= 0.05
     Davidson diagonalization with overlap
     ethr =  2.59E-11,  avg # of iterations =  5.1

     negative rho (up, down):  9.592E-03 0.000E+00

     Adding external electric field

     Computed dipole along edir(3) :
        Dipole                0.6414 Ry au,          1.6304 Debye
        Dipole field          0.0012 Ry au,

        Potential amp.       -0.1122 Ry
        Total length         46.3494 bohr

     End of self-consistent calculation

          k = 0.0000 0.0000 0.0000 ( 18029 PWs)   bands (ev):

   -56.5627 -56.5292 -55.6384 -55.6033 -55.4226 -55.3560 -55.2278 -55.1138
   -55.0799 -55.0322 -55.0004 -54.9658 -54.9077 -54.8142 -54.7427 -54.6106
   -32.9814 -32.8332 -32.8051 -32.7421 -32.6519 -32.6085 -32.1201 -31.8974
   -31.8586 -31.8372 -31.7826 -31.7747 -31.7494 -31.6559 -31.6356 -31.5909
   -31.5591 -31.5434 -31.5194 -31.5071 -31.5018 -31.4915 -31.4608 -31.4597
   -31.4363 -31.4177 -31.3524 -31.3178 -31.2956 -31.2896 -31.2375 -31.2298
   -31.2130 -31.1913 -31.1786 -31.1634 -31.1562 -31.1261 -31.1205 -31.0887
   -31.0446 -30.9999 -30.9991 -30.9778 -30.9448 -30.8848 -30.8481 -30.7977
   -16.6660 -16.1079 -16.0847 -15.8791 -15.7566 -15.7514 -15.7082 -15.6395
   -15.4702 -15.4017 -15.3731 -15.3120 -15.1677 -15.0521 -14.9548 -14.7750
   -14.7014 -14.6961 -14.6772 -14.6698 -14.6528 -14.6320 -14.5730 -14.5145
   -14.4721 -14.4071 -14.3636 -14.2176 -14.0170 -13.9918 -13.9490 -13.6114
   -13.5044 -13.4994  -7.7342  -4.2414  -4.0456  -3.9564  -3.6954  -3.5747
    -3.4020  -3.2494  -3.1987  -3.1410  -3.0815  -3.0721  -2.9244  -2.9227
    -2.9109  -2.9038  -2.8260  -2.7674  -2.7024  -2.6155  -2.5999  -2.5054
    -2.4587  -2.2993  -2.2734  -2.1724  -2.1003  -2.0948  -2.0286  -2.0058
    -1.9585  -1.9134  -1.9041  -1.8694  -1.8257  -1.7789  -1.7605  -1.6493
    -1.6418  -1.5767  -1.5701  -1.5474  -1.4340  -1.4140  -1.3442  -1.1990
    -1.1776  -1.1743  -1.1272  -1.1098  -1.0282  -0.9321  -0.8649  -0.8383
    -0.7821  -0.6937  -0.6470  -0.6252  -0.5528  -0.5333  -0.4592  -0.4155
    -0.4025  -0.3821  -0.3401  -0.2256  -0.1387  -0.1059  -0.0521  -0.0268
     0.0060   0.0329   0.0521   0.1007   0.1704   0.2564   0.2774   0.4161
     0.4682   0.5049   0.5806   0.6149   0.6212   0.7105   0.7420   0.7716
     0.8181   0.8927   0.9072   0.9081   0.9671   1.0512   1.1052   1.1329
     1.1694   1.2062   1.2141   1.2652   1.3538   1.3744   1.4438   1.4988
     1.8227   1.8850   2.4872   2.7317   2.9032   3.1800   3.3720   3.6754
     3.7176   3.7356   3.7357   4.0412

[...]

          k = 0.0380-0.0419 0.0000 ( 17876 PWs)   bands (ev):

[...]

          k =-0.0760-0.0000 0.0000 ( 17886 PWs)   bands (ev):

[...]

          k =-0.0760-0.0839 0.0000 ( 17948 PWs)   bands (ev):

   -56.5466 -56.5452 -55.6259 -55.6155 -55.4179 -55.3606 -55.2269 -55.0974
   -55.0962 -55.0274 -55.0010 -54.9705 -54.9061 -54.8128 -54.7443 -54.6119
   -32.8197 -32.8181 -32.7994 -32.7980 -32.6962 -32.6951 -31.9447 -31.9355
   -31.8204 -31.8152 -31.8093 -31.8076 -31.7173 -31.6745 -31.6492 -31.6361
   -31.5864 -31.5847 -31.4987 -31.4714 -31.4617 -31.4499 -31.4490 -31.3666
   -31.3471 -31.3175 -31.3161 -31.2985 -31.2914 -31.2816 -31.2777 -31.2772
   -31.2489 -31.2299 -31.2120 -31.1972 -31.1933 -31.1553 -31.1551 -31.0991
   -31.0879 -31.0476 -31.0037 -30.9924 -30.9561 -30.9496 -30.8502 -30.8331
   -16.0726 -16.0244 -16.0225 -15.9790 -15.9775 -15.7157 -15.7112 -15.4609
   -15.4316 -15.2523 -15.1483 -15.1243 -15.0808 -15.0392 -14.9681 -14.9138
   -14.8842 -14.8522 -14.8261 -14.7640 -14.7343 -14.6297 -14.5969 -14.5495
   -14.5132 -14.4513 -14.4103 -14.3611 -14.1737 -14.1301 -13.9484 -13.6089
   -13.6085 -13.5243  -7.7334  -4.0456  -3.9677  -3.6864  -3.1553  -3.1004
    -3.0961  -3.0636  -3.0564  -2.9707  -2.8498  -2.8467  -2.7519  -2.6446
    -2.6182  -2.5952  -2.5347  -2.5252  -2.4252  -2.3754  -2.3705  -2.3563
    -2.3199  -2.2904  -2.2839  -2.2240  -2.0855  -2.0694  -2.0202  -1.9662
    -1.8917  -1.8832  -1.8739  -1.8371  -1.7954  -1.7700  -1.7591  -1.7319
    -1.7271  -1.7226  -1.6132  -1.5083  -1.4610  -1.3674  -1.3632  -1.3543
    -1.3164  -1.2892  -1.2558  -1.2494  -1.2206  -1.1405  -1.1143  -1.0445
    -0.9309  -0.9129  -0.8711  -0.8228  -0.7191  -0.7008  -0.6112  -0.5748
    -0.5634  -0.5040  -0.4750  -0.4590  -0.4008  -0.3616  -0.2299  -0.1900
    -0.1785  -0.1615  -0.1392  -0.1029  -0.0417   0.0197   0.0515   0.0534
     0.1580   0.2578   0.3456   0.4148   0.4242   0.4474   0.5338   0.6391
     0.6803   0.7049   0.7533   0.8769   0.9947   1.0244   1.1139   1.1463
     1.1624   1.2661   1.2841   1.2891   1.3091   1.3182   1.3533   1.4198
     1.4807   1.7674   2.3202   3.3242   3.3274   3.3856   3.3912   3.7019
     3.7043   3.8154   3.8205   4.1382

     the Fermi energy is     2.3972 ev

!    total energy              =   -2976.42340723 Ry
     estimated scf accuracy    <       0.00000004 Ry
     smearing contrib. (-TS)   =      -0.01083997 Ry
     internal energy E=F+TS    =   -2976.41256726 Ry

     The total energy is F=E-TS. E is the sum of the following terms:
     one-electron contribution =  -22708.33836117 Ry
     hartree contribution      =   11450.53756073 Ry
     xc contribution           =    -495.33833054 Ry
     ewald contribution        =    8776.72578726 Ry
     electric field correction =       0.00077645 Ry

     convergence has been achieved in  88 iterations

     Forces acting on atoms (cartesian axes, Ry/au):

     atom    1 type  1   force =     0.00003181   -0.00052081    0.12631639
     atom    2 type  1   force =    -0.00010363    0.00041423   -0.15468900
     atom    3 type  2   force =     0.00002592    0.00002711   -0.06829618
     atom    4 type  2   force =     0.00005907   -0.00010742    0.01705706
     atom    5 type  2   force =    -0.00487244   -0.00242934   -0.01324208
     atom    6 type  2   force =     0.00655125   -0.00180730   -0.01376027
     atom    7 type  1   force =    -0.00028676   -0.00662357    0.05922220
     atom    8 type  1   force =     0.00038709    0.00687212    0.10028923
     atom    9 type  2   force =    -0.00002460    0.00067015    0.00130403
     atom   10 type  2   force =    -0.00261533   -0.00001550   -0.06338101
     atom   11 type  2   force =     0.00044791   -0.00068528   -0.00027955
     atom   12 type  2   force =    -0.00086490   -0.00112457   -0.00109432
     atom   13 type  1   force =    -0.00030314    0.00071639   -0.00138232
     atom   14 type  1   force =    -0.00033432   -0.00038476   -0.00024919
     atom   15 type  2   force =    -0.00065740   -0.00039085   -0.00058189
     atom   16 type  2   force =     0.00019510    0.00092237   -0.00028715
     atom   17 type  2   force =     0.00078186    0.00008421   -0.00054161
     atom   18 type  2   force =    -0.00022989   -0.00016064   -0.00002817
     atom   19 type  1   force =    -0.00021161   -0.00011712   -0.00092928
     atom   20 type  1   force =     0.00068590    0.00083824   -0.00048485
     atom   21 type  2   force =     0.00006206    0.00015677    0.09780493
     atom   22 type  2   force =     0.00041297   -0.00034257    0.00141002
     atom   23 type  2   force =    -0.08276035    0.00005585   -0.03311582
     atom   24 type  2   force =     0.08269648    0.00050601   -0.03319186
     atom   25 type  1   force =     0.00007061   -0.00035636    0.12645370
     atom   26 type  1   force =    -0.00011222   -0.00149929   -0.15487608
     atom   27 type  2   force =     0.00011308   -0.00046928   -0.06667019
     atom   28 type  2   force =     0.00004662    0.00167203    0.01199723
     atom   29 type  2   force =    -0.00342740    0.00422313   -0.01621588
     atom   30 type  2   force =     0.00505254    0.00456636   -0.01661864
     atom   31 type  1   force =    -0.00015826    0.00217803    0.04255765
     atom   32 type  1   force =     0.00044469   -0.00893751    0.10086866
     atom   33 type  2   force =    -0.00048615   -0.00013613   -0.00039120
     atom   34 type  2   force =    -0.00212695   -0.00026268   -0.07624809
     atom   35 type  2   force =    -0.00009467    0.00070190    0.00086630
     atom   36 type  2   force =    -0.00050265    0.00051974    0.00039037
     atom   37 type  1   force =     0.00042672    0.00060916   -0.00018765
     atom   38 type  1   force =    -0.00041858   -0.00067475   -0.00067406
     atom   39 type  2   force =     0.00044718   -0.00031898   -0.00040575
     atom   40 type  2   force =     0.00036634   -0.00062863   -0.00000649
     atom   41 type  2   force =     0.00026164    0.00049388   -0.00002716
     atom   42 type  2   force =    -0.00020538   -0.00018140    0.00012235
     atom   43 type  1   force =     0.00052058    0.00135859   -0.00097845
     atom   44 type  1   force =    -0.00024372   -0.00104581    0.00081112
     atom   45 type  2   force =     0.00009393   -0.00001513    0.09763579
     atom   46 type  2   force =    -0.08280664    0.00003559   -0.03316799
     atom   47 type  2   force =     0.08271121    0.00045408   -0.03317580
     atom   48 type  3   force =     0.00002747    0.00039666    0.00040017
     atom   49 type  3   force =    -0.00682281   -0.00289238    0.01744380
     atom   50 type  4   force =     0.00074074    0.00037097    0.00056407
     atom   51 type  5   force =    -0.00001352   -0.00029182   -0.00056825
     atom   52 type  5   force =     0.00012272    0.00092155   -0.00056531
     atom   53 type  5   force =    -0.00018960    0.00032433    0.00040001
     atom   54 type  5   force =     0.00220650   -0.00584931   -0.00817149
     atom   55 type  5   force =    -0.00212448    0.00491731   -0.00507122
     atom   56 type  5   force =     0.00725246    0.00383756   -0.00483555
     atom   57 type  2   force =    -0.00180878   -0.00057409    0.00034772
     atom   58 type  5   force =     0.00156372   -0.00000100    0.00012700

     Total force =     0.421387     Total SCF correction =     0.000523
  @ DRIVER MODE: Message from server: STATUS
  @ DRIVER MODE: Message from server: GETFORCE
  @ DRIVER MODE: Returning v,forces,stress,ensemble

     Writing output data file ./calc.save/
  @ DRIVER MODE: Message from server: EXIT
  @ DRIVE MODE: Exiting

     General routines

     Parallel routines

   This run was terminated on:  20:34:53  22Sep2021

   JOB DONE.