     Program PWSCF v.6.7GPU starts on 12Oct2021 at  9: 4:28

     R & G space division:  proc/nbgrp/npool/nimage =       8
     Reading input from /storage/home/hcoda1/3/ntian30/research/carbon/ACS_vib/ads_slab/N2/out_0001/pw.inp
Warning: card &CELL ignored
Warning: card   CELL_DYNAMICS='IPI', ignored
Warning: card / ignored

     Current dimensions of program PWSCF are:
     Max number of different atomic species (ntypx) = 10
     Max number of k-points (npk) =  40000
     Max angular momentum in pseudopotentials (lmaxx) =  3
     Presently no symmetry can be used with electric field

     Message from routine cell_base_init:
     DEPRECATED: use true lattice parameter, not A to a.u. conversion factor

     IMPORTANT: XC functional enforced from input :
     Exchange-correlation= BEEF-VDW
                           (   1   4  43  14   2   0   0)
     Any further DFT definition will be discarded
     Please, verify this is what you really want

  @ DRIVER MODE: Connecting to
 qe_1139763_3181313.sched-torque.pace.gatech.edut4xwosio_scratch
  using UNIX socket
  @ DRIVER MODE: Message from server: STATUS
  @ DRIVER MODE: Message from server: INIT
  @ DRIVER MODE: Receiving replica           0          -1
  @ DRIVER MODE: Receiving encoded integer          25
  @ DRIVER MODE:  SCF:  T  FORCE:  T  STRESS:  F  VC:  F  ENSEMBLE:  F
  @ DRIVER MODE:  SCF:  T  FORCE:  T  STRESS:  F  VC:  F  ENSEMBLE:  F

     Using Slab Decomposition

     bravais-lattice index     =            0
     lattice parameter (alat)  =       1.8897  a.u.
     unit-cell volume          =    6658.9804 (a.u.)^3
     number of atoms/cell      =           49
     number of atomic types    =            3
     number of electrons       =       388.00
     number of Kohn-Sham states=          204
     kinetic-energy cutoff     =      29.3995  Ry
     charge density cutoff     =     293.9946  Ry
     scf convergence threshold =      7.3E-08
     mixing beta               =       0.0500
     number of iterations used =            8  plain     mixing
     Exchange-correlation= BEEF-VDW
                           (   1   4  43  14   2   0   0)

     celldm(1)=   1.889726  celldm(2)=   0.000000  celldm(3)=   0.000000
     celldm(4)=   0.000000  celldm(5)=   0.000000  celldm(6)=   0.000000

     crystal axes: (cart. coord. in units of alat)
               a(1) = (   6.579727   0.000000   0.000000 )
               a(2) = (  -0.000775   5.961596   0.000000 )
               a(3) = (   0.000000   0.000000  25.155947 )

     reciprocal axes: (cart. coord. in units 2 pi/alat)
               b(1) = (  0.151982  0.000020  0.000000 )
               b(2) = (  0.000000  0.167740  0.000000 )
               b(3) = (  0.000000  0.000000  0.039752 )

     PseudoPot. # 1 for Ti read from file:
     /storage/coda1/p-amedford6/0/shared/rich_project_chbe-medford/medford-share/data/pseudos_module/espresso/nninc/pbe/van/Ti.UPF
     MD5 check sum: 8e4df49b7f0d34bbd5052bf3f5ea0213
     Pseudo is Ultrasoft, Zval = 12.0
     Generated by new atomic code, or converted to UPF format
     Using radial grid of  851 points,  6 beta functions with:
                l(1) =   0
                l(2) =   0
                l(3) =   1
                l(4) =   1
                l(5) =   2
                l(6) =   2
     Q(r) pseudized with  8 coefficients,  rinner =    1.000   1.000   1.000
                                                       1.000   1.000

     PseudoPot. # 2 for O  read from file:
     /storage/coda1/p-amedford6/0/shared/rich_project_chbe-medford/medford-share/data/pseudos_module/espresso/nninc/pbe/van/O.UPF
     MD5 check sum: 78c19812648e8988a0fe644b0f25305e
     Pseudo is Ultrasoft, Zval =  6.0
     Generated by new atomic code, or converted to UPF format
     Using radial grid of  737 points,  4 beta functions with:
                l(1) =   0
                l(2) =   0
                l(3) =   1
                l(4) =   1
     Q(r) pseudized with  8 coefficients,  rinner =    0.800   0.800   0.800

     PseudoPot. # 3 for N  read from file:
     /storage/coda1/p-amedford6/0/shared/rich_project_chbe-medford/medford-share/data/pseudos_module/espresso/nninc/pbe/van/N.UPF
     MD5 check sum: 90d10febe142ad51ac9d5be1deb811c4
     Pseudo is Ultrasoft, Zval =  5.0
     Generated by new atomic code, or converted to UPF format
     Using radial grid of  729 points,  4 beta functions with:
                l(1) =   0
                l(2) =   0
                l(3) =   1
                l(4) =   1
     Q(r) pseudized with  8 coefficients,  rinner =    0.800   0.800   0.800

     atomic species   valence    mass     pseudopotential
        Ti1           12.00    47.86700     Ti( 1.00)
        O1             6.00    15.99900     O ( 1.00)
        N1             5.00    14.00700     N ( 1.00)

     No symmetry found

   Cartesian axes

     site n.     atom                  positions (alat units)
         1           Ti1 tau(   1) = (   0.0004258   2.9801865   6.0000000  )
         2           Ti1 tau(   2) = (   3.2906075   1.4906267   6.0002472  )
         3           O1  tau(   3) = (   0.0006271   0.0005054   7.9858123  )
         4           O1  tau(   4) = (   3.2906025   0.0005020   7.3038282  )
         5           O1  tau(   5) = (   4.5942328   1.4918067   9.2879030  )
         6           O1  tau(   6) = (   1.9868534   1.4903216   9.2879459  )
         7           Ti1 tau(   7) = (   3.2908115   2.9770768   9.1558106  )
         8           Ti1 tau(   8) = (   0.0014744   1.4899521   9.2574773  )
         9           O1  tau(   9) = (   3.2881910   5.9516080  11.3945402  )
        10           O1  tau(  10) = (  -0.0003163   5.9583821  10.6097302  )
        11           O1  tau(  11) = (   1.2852796   1.4845524  12.6702349  )
        12           O1  tau(  12) = (   5.2939406   1.4843235  12.6686536  )
        13           Ti1 tau(  13) = (   6.5787960   2.9666663  12.5005329  )
        14           Ti1 tau(  14) = (   3.2867911   1.4810929  12.5380613  )
        15           O1  tau(  15) = (   6.5784438   5.9555467  14.6881035  )
        16           O1  tau(  16) = (   3.2900815   5.9490801  14.0192640  )
        17           O1  tau(  17) = (   4.5550846   1.4910540  16.1905095  )
        18           O1  tau(  18) = (   2.0267255   1.4911840  16.1885357  )
        19           Ti1 tau(  19) = (   3.2920947   2.9632608  15.7783766  )
        20           Ti1 tau(  20) = (   0.0012713   1.3437142  15.9485351  )
        21           O1  tau(  21) = (   3.2904802   0.0005063   4.7018136  )
        22           O1  tau(  22) = (   0.0010154   5.9436293  17.2207844  )
        23           O1  tau(  23) = (   1.3043587   1.4918075   6.0039043  )
        24           O1  tau(  24) = (   5.2767064   1.4903225   6.0039473  )
        25           Ti1 tau(  25) = (   0.0000382   5.9609847   6.0000000  )
        26           Ti1 tau(  26) = (   3.2902200   4.4714249   6.0002472  )
        27           O1  tau(  27) = (   0.0002396   2.9813036   7.9858123  )
        28           O1  tau(  28) = (   3.2902150   2.9813002   7.3038282  )
        29           O1  tau(  29) = (   4.5938453   4.4726049   9.2879030  )
        30           O1  tau(  30) = (   1.9864658   4.4711199   9.2879459  )
        31           Ti1 tau(  31) = (   3.2904075   5.9576890   9.1543145  )
        32           Ti1 tau(  32) = (   0.0010733   4.4688904   9.2576998  )
        33           O1  tau(  33) = (   3.2885442   2.9721716  11.3880939  )
        34           O1  tau(  34) = (   0.0004144   2.9779705  10.6294865  )
        35           O1  tau(  35) = (   1.2846651   4.4573380  12.6727508  )
        36           O1  tau(  36) = (   5.2936233   4.4572296  12.6712295  )
        37           Ti1 tau(  37) = (   6.5756527   5.9477167  12.4782878  )
        38           Ti1 tau(  38) = (   3.2865705   4.4596354  12.5399379  )
        39           O1  tau(  39) = (   6.5788522   2.9667014  14.9890502  )
        40           O1  tau(  40) = (   3.2903707   2.9673551  13.9858356  )
        41           O1  tau(  41) = (   4.5543970   4.4428783  16.1860255  )
        42           O1  tau(  42) = (   2.0267162   4.4429101  16.1842223  )
        43           Ti1 tau(  43) = (   3.2900514   5.9435888  15.8195923  )
        44           Ti1 tau(  44) = (   0.0007397   4.6011056  15.9424949  )
        45           O1  tau(  45) = (   3.2900926   2.9813045   4.7018136  )
        46           O1  tau(  46) = (   1.3039711   4.4726057   6.0039043  )
        47           O1  tau(  47) = (   5.2763189   4.4711207   6.0039473  )
        48           N1  tau(  48) = (   0.1099037   2.9187272  19.5607373  )
        49           N1  tau(  49) = (   0.0588536   2.9354595  18.4591164  )

     number of k points=    10  Fermi-Dirac smearing, width (Ry)=  0.0073
                       cart. coord. in units 2pi/alat
        k(    1) = (   0.0000000   0.0000000   0.0000000), wk =   0.1250000
        k(    2) = (   0.0000000   0.0419351   0.0000000), wk =   0.2500000
        k(    3) = (   0.0000000  -0.0838702   0.0000000), wk =   0.1250000
        k(    4) = (   0.0379955   0.0000049   0.0000000), wk =   0.2500000
        k(    5) = (   0.0379955   0.0419400   0.0000000), wk =   0.2500000
        k(    6) = (   0.0379955  -0.0838652   0.0000000), wk =   0.2500000
        k(    7) = (   0.0379955  -0.0419301   0.0000000), wk =   0.2500000
        k(    8) = (  -0.0759910  -0.0000099   0.0000000), wk =   0.1250000
        k(    9) = (  -0.0759910   0.0419252   0.0000000), wk =   0.2500000
        k(   10) = (  -0.0759910  -0.0838800   0.0000000), wk =   0.1250000

     Initial potential from superposition of free atoms

     starting charge  371.99923, renormalised to  388.00000

     negative rho (up, down):  1.868E-02 0.000E+00

     %%%%%%%%%%%%%%%%%%%%%%%%%%%%%%%%%%%%%%%%%%%%%%%%%%%%%%%%%%%%%%%%%%%%%%%%
     %                                                                      %
     % You are using vdW-DF, which was implemented by the Thonhauser group. %
     % Please cite the following two papers that made this development      %
     % possible and the two reviews that describe the various versions:     %
     %                                                                      %
     %   T. Thonhauser et al., PRL 115, 136402 (2015).                      %
     %   T. Thonhauser et al., PRB 76, 125112 (2007).                       %
     %   K. Berland et al., Rep. Prog. Phys. 78, 066501 (2015).             %
     %   D.C. Langreth et al., J. Phys.: Condens. Matter 21, 084203 (2009). %
     %                                                                      %
     %                                                                      %
     % If you are calculating the stress with vdW-DF, please also cite:     %
     %                                                                      %
     %   R. Sabatini et al., J. Phys.: Condens. Matter 24, 424209 (2012).   %
     %                                                                      %
     %%%%%%%%%%%%%%%%%%%%%%%%%%%%%%%%%%%%%%%%%%%%%%%%%%%%%%%%%%%%%%%%%%%%%%%%

     Adding external electric field

     Computed dipole along edir(3) :
        Dipole               -5.4531 Ry au,        -13.8604 Debye
        Dipole field         -0.0103 Ry au,

        Potential amp.        0.9539 Ry
        Total length         46.3494 bohr

     Starting wfcs are  292 atomic wfcs
  @ DRIVER MODE: Message from server: STATUS
  @ DRIVER MODE: Message from server: POSDATA
  @ DRIVER MODE: Reading and sharing cell
  @ DRIVER MODE: Reading and sharing positions
  @ DRIVER MODE: Received positions

     Self-consistent Calculation

     iteration #  1     ecut=    29.40 Ry     beta= 0.05
     Davidson diagonalization with overlap
     c_bands:  3 eigenvalues not converged
     c_bands:  2 eigenvalues not converged
     c_bands:  2 eigenvalues not converged
     c_bands:  1 eigenvalues not converged
     c_bands:  3 eigenvalues not converged
     c_bands:  2 eigenvalues not converged
     c_bands:  4 eigenvalues not converged
     c_bands:  1 eigenvalues not converged
     ethr =  1.00E-05,  avg # of iterations = 21.4

[...]

     total energy              =   -2822.48107654 Ry
     estimated scf accuracy    <    1128.77290711 Ry

     iteration #  2     ecut=    29.40 Ry     beta= 0.05
     Davidson diagonalization with overlap
     ethr =  1.00E-02,  avg # of iterations = 17.2

[...]

     iteration # 81     ecut=    29.40 Ry     beta= 0.05
     Davidson diagonalization with overlap
     c_bands:  1 eigenvalues not converged
     ethr =  2.62E-11,  avg # of iterations =  7.4

[...]

     total energy              =   -2924.04892158 Ry
     estimated scf accuracy    <       0.00000008 Ry

     iteration # 82     ecut=    29.40 Ry     beta= 0.05
     Davidson diagonalization with overlap
     ethr =  1.99E-11,  avg # of iterations = 10.4

     negative rho (up, down):  1.841E-02 0.000E+00

     Adding external electric field

     Computed dipole along edir(3) :
        Dipole                0.7002 Ry au,          1.7797 Debye
        Dipole field          0.0013 Ry au,

        Potential amp.       -0.1225 Ry
        Total length         46.3494 bohr

     End of self-consistent calculation

          k = 0.0000 0.0000 0.0000 ( 18029 PWs)   bands (ev):

   -55.9036 -55.8677 -55.8577 -55.8235 -55.7868 -55.7762 -55.7418 -55.7413
   -55.7298 -55.7076 -55.7053 -55.6843 -55.6681 -55.6504 -54.9687 -54.9347
   -32.4676 -32.4143 -32.3589 -32.2617 -32.2145 -32.2114 -32.2092 -32.1973
   -32.1479 -32.1363 -32.1106 -32.1042 -32.1028 -32.0758 -32.0708 -32.0537
   -32.0397 -32.0376 -32.0319 -32.0184 -32.0096 -32.0061 -32.0029 -32.0014
   -31.9794 -31.9732 -31.9553 -31.9134 -31.9068 -31.8999 -31.8933 -31.8879
   -31.8796 -31.8780 -31.8764 -31.8707 -31.8612 -31.8390 -31.8278 -31.8169
   -31.7989 -31.7455 -31.3816 -31.2772 -31.2558 -31.1976 -31.1113 -31.0003
   -21.8322 -16.7344 -16.5014 -16.3636 -16.2355 -16.1299 -16.0210 -15.9219
   -15.8552 -15.7836 -15.6289 -15.5972 -15.5676 -15.5318 -15.5110 -15.5056
   -15.4958 -15.4607 -15.4388 -15.4145 -15.4127 -15.3964 -15.3826 -15.3499
   -15.2963 -15.2144 -15.1356 -15.0659 -15.0076 -14.6779 -13.4693 -13.3496
    -7.2569  -4.9708  -4.9638  -4.0700  -4.0214  -3.9170  -3.8392  -3.8255
    -3.7316  -3.6696  -3.4650  -3.3888  -3.3518  -3.2012  -3.1585  -3.1016
    -3.0513  -2.9625  -2.8982  -2.8911  -2.8019  -2.7784  -2.7766  -2.7670
    -2.6772  -2.6646  -2.6287  -2.6211  -2.5943  -2.4999  -2.3760  -2.3405
    -2.2856  -2.2844  -2.2624  -2.2488  -2.2238  -2.1840  -2.1611  -2.1521
    -2.1005  -2.0887  -1.9475  -1.8036  -1.7690  -1.6930  -1.6075  -1.5142
    -1.4643  -1.4233  -1.3637  -1.3591  -1.3123  -1.2843  -1.2484  -1.1641
    -1.0739  -1.0332  -0.9378  -0.9211  -0.8489  -0.8118  -0.7581  -0.6987
    -0.6966  -0.6569  -0.5616  -0.5272  -0.4095  -0.3997  -0.3858  -0.3660
    -0.3020  -0.2490  -0.1435  -0.1148  -0.1131  -0.1036   0.0043   0.0324
     0.0343   0.0476   0.0588   0.1221   0.1909   0.2311   0.2740   0.4212
     0.6455   0.6487   0.7087   0.9419   1.0197   1.0576   1.2148   1.6437
     1.6977   3.1917   3.2584   3.2892   3.3222   3.3570   3.3988   3.6876
     3.7035   3.7301   3.7465   3.7668

[...]

          k = 0.0380-0.0419 0.0000 ( 17876 PWs)   bands (ev):

[...]

          k =-0.0760-0.0000 0.0000 ( 17886 PWs)   bands (ev):

[...]

          k =-0.0760-0.0839 0.0000 ( 17948 PWs)   bands (ev):

   -55.8858 -55.8853 -55.8413 -55.8398 -55.7829 -55.7619 -55.7556 -55.7258
   -55.7233 -55.7233 -55.7089 -55.6745 -55.6674 -55.6673 -54.9517 -54.9516
   -32.3395 -32.2717 -32.2708 -32.1775 -32.1743 -32.1730 -32.1574 -32.1342
   -32.1321 -32.1038 -32.1023 -32.1000 -32.0928 -32.0504 -32.0443 -32.0431
   -32.0404 -32.0390 -32.0288 -32.0239 -32.0229 -32.0111 -32.0009 -31.9885
   -31.9836 -31.9836 -31.9811 -31.9790 -31.9594 -31.9584 -31.9554 -31.9478
   -31.9216 -31.9201 -31.9047 -31.8963 -31.8960 -31.8909 -31.8765 -31.8533
   -31.8524 -31.8471 -31.2684 -31.2683 -31.1942 -31.1941 -31.1545 -31.1544
   -21.8321 -16.4115 -16.1047 -16.0646 -15.9501 -15.9451 -15.8639 -15.8484
   -15.7423 -15.6971 -15.6869 -15.6857 -15.6249 -15.6222 -15.6024 -15.5909
   -15.5176 -15.5065 -15.4825 -15.4791 -15.4221 -15.4178 -15.4164 -15.4122
   -15.3746 -15.3741 -15.3384 -15.3352 -15.2161 -15.0488 -13.4505 -13.4505
    -7.2612  -4.9668  -4.9659  -3.9866  -3.4416  -3.3773  -3.3231  -3.1718
    -3.0943  -3.0833  -3.0378  -3.0083  -2.9348  -2.8990  -2.8986  -2.8167
    -2.8070  -2.8016  -2.8001  -2.7326  -2.7193  -2.6893  -2.6733  -2.6213
    -2.6207  -2.5988  -2.5950  -2.5798  -2.5708  -2.5517  -2.5455  -2.5162
    -2.4861  -2.4314  -2.4233  -2.2837  -2.2729  -2.2178  -2.1429  -2.1398
    -2.0576  -2.0430  -2.0066  -1.9753  -1.9102  -1.8949  -1.7257  -1.7049
    -1.7013  -1.6406  -1.5530  -1.5302  -1.4823  -1.4632  -1.4114  -1.3572
    -1.2536  -1.2273  -1.2072  -1.1004  -1.0927  -1.0283  -0.9425  -0.9013
    -0.8994  -0.8948  -0.8713  -0.8511  -0.8492  -0.7472  -0.6966  -0.6491
    -0.6381  -0.6255  -0.4250  -0.3688  -0.3413  -0.2348  -0.1918   0.0044
     0.0120   0.0391   0.1548   0.1555   0.1613   0.2212   0.3478   0.3528
     0.4230   0.4645   0.4925   0.5158   0.5181   1.4067   1.4077   1.5149
     1.5154   3.3524   3.4340   3.4512   3.5083   3.6377   3.6457   3.7001
     3.7387   3.7469   3.7474   3.8334

     the Fermi energy is     3.2561 ev

!    total energy              =   -2924.04892684 Ry
     estimated scf accuracy    <       0.00000006 Ry
     smearing contrib. (-TS)   =      -0.03676844 Ry
     internal energy E=F+TS    =   -2924.01215839 Ry

     The total energy is F=E-TS. E is the sum of the following terms:
     one-electron contribution =  -24117.13648608 Ry
     hartree contribution      =   12141.00665821 Ry
     xc contribution           =    -479.17799086 Ry
     ewald contribution        =    9531.29473517 Ry
     electric field correction =       0.00092517 Ry

     convergence has been achieved in  82 iterations

     Forces acting on atoms (cartesian axes, Ry/au):

     atom    1 type  1   force =     0.00005944    0.00004774    0.09027757
     atom    2 type  1   force =    -0.00002644    0.00038315   -0.18448330
     atom    3 type  2   force =     0.00007453   -0.00045918   -0.02389252
     atom    4 type  2   force =     0.00002152   -0.00009010    0.05159142
     atom    5 type  2   force =    -0.01359160   -0.00063438    0.00574355
     atom    6 type  2   force =     0.01346482   -0.00015803    0.00565066
     atom    7 type  1   force =     0.00011160   -0.00002859    0.00098662
     atom    8 type  1   force =     0.00001698    0.00010640    0.00022772
     atom    9 type  2   force =     0.00006271    0.00011579   -0.00046631
     atom   10 type  2   force =     0.00000240    0.00008262    0.00075208
     atom   11 type  2   force =    -0.00001115    0.00023035    0.00001461
     atom   12 type  2   force =    -0.00000384    0.00023040    0.00009825
     atom   13 type  1   force =     0.00004350    0.00028847   -0.00056087
     atom   14 type  1   force =    -0.00005605    0.00013253   -0.00111078
     atom   15 type  2   force =     0.00008479   -0.00037860   -0.00040791
     atom   16 type  2   force =    -0.00005097    0.00022145   -0.00019532
     atom   17 type  2   force =    -0.00013300   -0.00014129    0.00020988
     atom   18 type  2   force =     0.00025565   -0.00021661    0.00022087
     atom   19 type  1   force =     0.00009121    0.00004829    0.00065461
     atom   20 type  1   force =    -0.00002328    0.00013865    0.00182198
     atom   21 type  2   force =     0.00007131    0.00014664    0.10523186
     atom   22 type  2   force =     0.00000738    0.00006453   -0.00093914
     atom   23 type  2   force =    -0.06755855   -0.00012591   -0.02618390
     atom   24 type  2   force =     0.06748360    0.00031225   -0.02622617
     atom   25 type  1   force =     0.00007467    0.00005445    0.09056212
     atom   26 type  1   force =    -0.00008279   -0.00033087   -0.18442033
     atom   27 type  2   force =     0.00006427   -0.00049129   -0.02269987
     atom   28 type  2   force =     0.00002372   -0.00008539    0.05142300
     atom   29 type  2   force =    -0.01360334   -0.00058303    0.00567639
     atom   30 type  2   force =     0.01346852   -0.00006759    0.00558838
     atom   31 type  1   force =     0.00007587    0.00007808    0.00082537
     atom   32 type  1   force =     0.00001678   -0.00003101    0.00017834
     atom   33 type  2   force =     0.00006808   -0.00006091   -0.00005749
     atom   34 type  2   force =    -0.00000723   -0.00003788   -0.00003065
     atom   35 type  2   force =    -0.00009649    0.00000100   -0.00003037
     atom   36 type  2   force =     0.00011483    0.00000146    0.00003940
     atom   37 type  1   force =     0.00007799    0.00010992    0.00090639
     atom   38 type  1   force =    -0.00006972   -0.00016594   -0.00126614
     atom   39 type  2   force =     0.00009596    0.00030114   -0.00003684
     atom   40 type  2   force =     0.00004533    0.00000640    0.00014951
     atom   41 type  2   force =     0.00013147    0.00002511    0.00023370
     atom   42 type  2   force =    -0.00002419    0.00001899    0.00025656
     atom   43 type  1   force =    -0.00000317    0.00047838    0.00085237
     atom   44 type  1   force =    -0.00006393   -0.00015898    0.00159513
     atom   45 type  2   force =     0.00006604    0.00014116    0.10517974
     atom   46 type  2   force =    -0.06757005   -0.00018336   -0.02618220
     atom   47 type  2   force =     0.06749248    0.00024684   -0.02622649
     atom   48 type  3   force =     0.00007774    0.00041297    0.00314643
     atom   49 type  3   force =    -0.00076935    0.00000379   -0.00467792

     Total force =     0.367181     Total SCF correction =     0.000696
  @ DRIVER MODE: Message from server: STATUS
  @ DRIVER MODE: Message from server: GETFORCE
  @ DRIVER MODE: Returning v,forces,stress,ensemble

     Writing output data file ./calc.save/
  @ DRIVER MODE: Message from server: EXIT
  @ DRIVE MODE: Exiting

     General routines

     Parallel routines

   This run was terminated on:   9:30:28  12Oct2021

   JOB DONE.