     Program PWSCF v.6.7GPU starts on 22Sep2021 at 22:17: 4

     R & G space division:  proc/nbgrp/npool/nimage =      10
     Reading input from /storage/home/hcoda1/3/ntian30/research/carbon/CxH_vib/H2O_calc/ads_slab/CH3NHHH2O_a/out_0020/pw.inp
Warning: card &CELL ignored
Warning: card   CELL_DYNAMICS='IPI', ignored
Warning: card / ignored

     Current dimensions of program PWSCF are:
     Max number of different atomic species (ntypx) = 10
     Max number of k-points (npk) =  40000
     Max angular momentum in pseudopotentials (lmaxx) =  3
     Presently no symmetry can be used with electric field

     Message from routine cell_base_init:
     DEPRECATED: use true lattice parameter, not A to a.u. conversion factor

     IMPORTANT: XC functional enforced from input :
     Exchange-correlation= BEEF-VDW
                           (   1   4  43  14   2   0   0)
     Any further DFT definition will be discarded
     Please, verify this is what you really want

  @ DRIVER MODE: Connecting to
 qe_1139763_2937309.sched-torque.pace.gatech.edu1jahm85g_scratch
  using UNIX socket
  @ DRIVER MODE: Message from server: STATUS
  @ DRIVER MODE: Message from server: INIT
  @ DRIVER MODE: Receiving replica           0          -1
  @ DRIVER MODE: Receiving encoded integer          25
  @ DRIVER MODE:  SCF:  T  FORCE:  T  STRESS:  F  VC:  F  ENSEMBLE:  F
  @ DRIVER MODE:  SCF:  T  FORCE:  T  STRESS:  F  VC:  F  ENSEMBLE:  F

     Using Slab Decomposition

     bravais-lattice index     =            0
     lattice parameter (alat)  =       1.8897  a.u.
     unit-cell volume          =    6658.9804 (a.u.)^3
     number of atoms/cell      =           57
     number of atomic types    =            5
     number of electrons       =       400.00
     number of Kohn-Sham states=          210
     kinetic-energy cutoff     =      29.3995  Ry
     charge density cutoff     =     293.9946  Ry
     scf convergence threshold =      7.3E-08
     mixing beta               =       0.0500
     number of iterations used =            8  plain     mixing
     Exchange-correlation= BEEF-VDW
                           (   1   4  43  14   2   0   0)

     celldm(1)=   1.889726  celldm(2)=   0.000000  celldm(3)=   0.000000
     celldm(4)=   0.000000  celldm(5)=   0.000000  celldm(6)=   0.000000

     crystal axes: (cart. coord. in units of alat)
               a(1) = (   6.579727   0.000000   0.000000 )
               a(2) = (  -0.000775   5.961596   0.000000 )
               a(3) = (   0.000000   0.000000  25.155947 )

     reciprocal axes: (cart. coord. in units 2 pi/alat)
               b(1) = (  0.151982  0.000020  0.000000 )
               b(2) = (  0.000000  0.167740  0.000000 )
               b(3) = (  0.000000  0.000000  0.039752 )

     PseudoPot. # 1 for Ti read from file:
     /storage/coda1/p-amedford6/0/shared/rich_project_chbe-medford/medford-share/data/pseudos_module/espresso/nninc/pbe/van/Ti.UPF
     MD5 check sum: 8e4df49b7f0d34bbd5052bf3f5ea0213
     Pseudo is Ultrasoft, Zval = 12.0
     Generated by new atomic code, or converted to UPF format
     Using radial grid of  851 points,  6 beta functions with:
                l(1) =   0
                l(2) =   0
                l(3) =   1
                l(4) =   1
                l(5) =   2
                l(6) =   2
     Q(r) pseudized with  8 coefficients,  rinner =    1.000   1.000   1.000
                                                       1.000   1.000

     PseudoPot. # 2 for O  read from file:
     /storage/coda1/p-amedford6/0/shared/rich_project_chbe-medford/medford-share/data/pseudos_module/espresso/nninc/pbe/van/O.UPF
     MD5 check sum: 78c19812648e8988a0fe644b0f25305e
     Pseudo is Ultrasoft, Zval =  6.0
     Generated by new atomic code, or converted to UPF format
     Using radial grid of  737 points,  4 beta functions with:
                l(1) =   0
                l(2) =   0
                l(3) =   1
                l(4) =   1
     Q(r) pseudized with  8 coefficients,  rinner =    0.800   0.800   0.800

     PseudoPot. # 3 for N  read from file:
     /storage/coda1/p-amedford6/0/shared/rich_project_chbe-medford/medford-share/data/pseudos_module/espresso/nninc/pbe/van/N.UPF
     MD5 check sum: 90d10febe142ad51ac9d5be1deb811c4
     Pseudo is Ultrasoft, Zval =  5.0
     Generated by new atomic code, or converted to UPF format
     Using radial grid of  729 points,  4 beta functions with:
                l(1) =   0
                l(2) =   0
                l(3) =   1
                l(4) =   1
     Q(r) pseudized with  8 coefficients,  rinner =    0.800   0.800   0.800

     PseudoPot. # 4 for C  read from file:
     /storage/coda1/p-amedford6/0/shared/rich_project_chbe-medford/medford-share/data/pseudos_module/espresso/nninc/pbe/van/C.UPF
     MD5 check sum: 1a69bf6b8db32088f5b2163dbdb77a27
     Pseudo is Ultrasoft, Zval =  4.0
     Generated by new atomic code, or converted to UPF format
     Using radial grid of  721 points,  4 beta functions with:
                l(1) =   0
                l(2) =   0
                l(3) =   1
                l(4) =   1
     Q(r) pseudized with  8 coefficients,  rinner =    0.800   0.800   0.800

     PseudoPot. # 5 for H  read from file:
     /storage/coda1/p-amedford6/0/shared/rich_project_chbe-medford/medford-share/data/pseudos_module/espresso/nninc/pbe/van/H.UPF
     MD5 check sum: b5ee9d7bfd3a09ee7748110bda690ff7
     Pseudo is Ultrasoft, Zval =  1.0
     Generated by new atomic code, or converted to UPF format
     Using radial grid of  615 points,  1 beta functions with:
                l(1) =   0
     Q(r) pseudized with  8 coefficients,  rinner =    0.800

     atomic species   valence    mass     pseudopotential
        Ti1           12.00    47.86700     Ti( 1.00)
        O1             6.00    15.99900     O ( 1.00)
        N1             5.00    14.00700     N ( 1.00)
        C1             4.00    12.01100     C ( 1.00)
        H1             1.00     1.00800     H ( 1.00)

     No symmetry found

   Cartesian axes

     site n.     atom                  positions (alat units)
         1           Ti1 tau(   1) = (   0.0004258   2.9801865   6.0000000  )
         2           Ti1 tau(   2) = (   3.2906075   1.4906267   6.0002472  )
         3           O1  tau(   3) = (   0.0006271   0.0005054   7.9858123  )
         4           O1  tau(   4) = (   3.2906025   0.0005020   7.3038282  )
         5           O1  tau(   5) = (   4.5942328   1.4918067   9.2879030  )
         6           O1  tau(   6) = (   1.9868534   1.4903216   9.2879459  )
         7           Ti1 tau(   7) = (   3.2907910   2.8959150   9.1758416  )
         8           Ti1 tau(   8) = (   0.0015273   1.4827037   9.2680791  )
         9           O1  tau(   9) = (   3.2912042   0.0294118  11.3810798  )
        10           O1  tau(  10) = (   0.0116148   5.9584955  10.6183126  )
        11           O1  tau(  11) = (   1.2906363   1.5151137  12.6946382  )
        12           O1  tau(  12) = (   5.2977377   1.5118052  12.6897239  )
        13           Ti1 tau(  13) = (   0.0154927   3.0055723  12.5114375  )
        14           Ti1 tau(  14) = (   3.3120461   1.5076926  12.5412499  )
        15           O1  tau(  15) = (   0.0087391   5.9056098  14.6936070  )
        16           O1  tau(  16) = (   3.3000944   0.0090435  14.0218108  )
        17           O1  tau(  17) = (   4.5606481   1.5918460  16.0876707  )
        18           O1  tau(  18) = (   2.0070218   1.5857768  16.0794533  )
        19           Ti1 tau(  19) = (   3.2835068   3.0412122  15.7371975  )
        20           Ti1 tau(  20) = (   0.0166266   1.3536260  15.8406240  )
        21           O1  tau(  21) = (   3.2904802   0.0005063   4.7018136  )
        22           O1  tau(  22) = (   6.5628702   0.1917167  17.2472498  )
        23           O1  tau(  23) = (   1.3043587   1.4918075   6.0039043  )
        24           O1  tau(  24) = (   5.2767064   1.4903225   6.0039473  )
        25           Ti1 tau(  25) = (   0.0000382   5.9609847   6.0000000  )
        26           Ti1 tau(  26) = (   3.2902200   4.4714249   6.0002472  )
        27           O1  tau(  27) = (   0.0002396   2.9813036   7.9858123  )
        28           O1  tau(  28) = (   3.2902150   2.9813002   7.3038282  )
        29           O1  tau(  29) = (   4.5938453   4.4726049   9.2879030  )
        30           O1  tau(  30) = (   1.9864658   4.4711199   9.2879459  )
        31           Ti1 tau(  31) = (   3.2891106   5.8743827   9.1763621  )
        32           Ti1 tau(  32) = (   0.0006254   4.4649316   9.2693709  )
        33           O1  tau(  33) = (   3.2975917   2.9887808  11.3748511  )
        34           O1  tau(  34) = (   0.0092240   2.9805883  10.6323155  )
        35           O1  tau(  35) = (   1.2927870   4.4849180  12.6503915  )
        36           O1  tau(  36) = (   5.2959677   4.4879952  12.6460094  )
        37           Ti1 tau(  37) = (   0.0189062   0.0134437  12.4995343  )
        38           Ti1 tau(  38) = (   3.3131396   4.4925875  12.5257625  )
        39           O1  tau(  39) = (   6.5658147   3.0796170  14.9398047  )
        40           O1  tau(  40) = (   3.2912769   3.0351834  13.9531456  )
        41           O1  tau(  41) = (   4.5372935   4.5058929  16.2491503  )
        42           O1  tau(  42) = (   2.0060561   4.4992570  16.2466123  )
        43           Ti1 tau(  43) = (   3.3106529   0.0781036  15.8389635  )
        44           Ti1 tau(  44) = (   0.0259428   4.5566345  16.0434284  )
        45           O1  tau(  45) = (   3.2900926   2.9813045   4.7018136  )
        46           O1  tau(  46) = (   1.3039711   4.4726057   6.0039043  )
        47           O1  tau(  47) = (   5.2763189   4.4711207   6.0039473  )
        48           N1  tau(  48) = (   6.3514164   3.3085518  18.1544664  )
        49           C1  tau(  49) = (   0.8695967   3.1501053  19.1301808  )
        50           H1  tau(  50) = (   1.3785670   4.1052268  19.2416751  )
        51           H1  tau(  51) = (   0.5186663   2.8389580  20.1145987  )
        52           H1  tau(  52) = (   1.5779067   2.4119510  18.7640910  )
        53           H1  tau(  53) = (   5.7211048   4.0382881  18.4729098  )
        54           H1  tau(  54) = (   5.7931489   2.4557210  18.1309407  )
        55           O1  tau(  55) = (   3.2817172   0.3149129  18.3340421  )
        56           H1  tau(  56) = (   4.0380937   5.6864266  18.4726034  )
        57           H1  tau(  57) = (   2.4816286   5.7371253  18.4434621  )

     number of k points=    10  Fermi-Dirac smearing, width (Ry)=  0.0073
                       cart. coord. in units 2pi/alat
        k(    1) = (   0.0000000   0.0000000   0.0000000), wk =   0.1250000
        k(    2) = (   0.0000000   0.0419351   0.0000000), wk =   0.2500000
        k(    3) = (   0.0000000  -0.0838702   0.0000000), wk =   0.1250000
        k(    4) = (   0.0379955   0.0000049   0.0000000), wk =   0.2500000
        k(    5) = (   0.0379955   0.0419400   0.0000000), wk =   0.2500000
        k(    6) = (   0.0379955  -0.0838652   0.0000000), wk =   0.2500000
        k(    7) = (   0.0379955  -0.0419301   0.0000000), wk =   0.2500000
        k(    8) = (  -0.0759910  -0.0000099   0.0000000), wk =   0.1250000
        k(    9) = (  -0.0759910   0.0419252   0.0000000), wk =   0.2500000
        k(   10) = (  -0.0759910  -0.0838800   0.0000000), wk =   0.1250000

     Initial potential from superposition of free atoms

     starting charge  383.99913, renormalised to  400.00000

     negative rho (up, down):  1.554E-02 0.000E+00

     %%%%%%%%%%%%%%%%%%%%%%%%%%%%%%%%%%%%%%%%%%%%%%%%%%%%%%%%%%%%%%%%%%%%%%%%
     %                                                                      %
     % You are using vdW-DF, which was implemented by the Thonhauser group. %
     % Please cite the following two papers that made this development      %
     % possible and the two reviews that describe the various versions:     %
     %                                                                      %
     %   T. Thonhauser et al., PRL 115, 136402 (2015).                      %
     %   T. Thonhauser et al., PRB 76, 125112 (2007).                       %
     %   K. Berland et al., Rep. Prog. Phys. 78, 066501 (2015).             %
     %   D.C. Langreth et al., J. Phys.: Condens. Matter 21, 084203 (2009). %
     %                                                                      %
     %                                                                      %
     % If you are calculating the stress with vdW-DF, please also cite:     %
     %                                                                      %
     %   R. Sabatini et al., J. Phys.: Condens. Matter 24, 424209 (2012).   %
     %                                                                      %
     %%%%%%%%%%%%%%%%%%%%%%%%%%%%%%%%%%%%%%%%%%%%%%%%%%%%%%%%%%%%%%%%%%%%%%%%

     Adding external electric field

     Computed dipole along edir(3) :
        Dipole              -12.0858 Ry au,        -30.7189 Debye
        Dipole field         -0.0228 Ry au,

        Potential amp.        2.1142 Ry
        Total length         46.3494 bohr

     Starting wfcs are  303 atomic wfcs
  @ DRIVER MODE: Message from server: STATUS
  @ DRIVER MODE: Message from server: POSDATA
  @ DRIVER MODE: Reading and sharing cell
  @ DRIVER MODE: Reading and sharing positions
  @ DRIVER MODE: Received positions

     Self-consistent Calculation

     iteration #  1     ecut=    29.40 Ry     beta= 0.05
     Davidson diagonalization with overlap
     c_bands:  2 eigenvalues not converged
     c_bands:  2 eigenvalues not converged
     c_bands:  3 eigenvalues not converged
     c_bands:  4 eigenvalues not converged
     c_bands:  2 eigenvalues not converged
     c_bands:  1 eigenvalues not converged
     c_bands:  4 eigenvalues not converged
     c_bands:  4 eigenvalues not converged
     c_bands:  5 eigenvalues not converged
     ethr =  1.00E-05,  avg # of iterations = 22.0

[...]

     total energy              =   -2384.81250539 Ry
     estimated scf accuracy    <    6450.54812266 Ry

     iteration #  2     ecut=    29.40 Ry     beta= 0.05
     Davidson diagonalization with overlap
     ethr =  1.00E-02,  avg # of iterations = 26.3

[...]

     iteration # 64     ecut=    29.40 Ry     beta= 0.05
     Davidson diagonalization with overlap
     c_bands:  2 eigenvalues not converged
     ethr =  2.44E-10,  avg # of iterations = 10.0

[...]

     total energy              =   -2956.45483317 Ry
     estimated scf accuracy    <       0.00000021 Ry

     iteration # 69     ecut=    29.40 Ry     beta= 0.05
     Davidson diagonalization with overlap
     ethr =  3.93E-11,  avg # of iterations =  8.4

     negative rho (up, down):  1.590E-02 0.000E+00

     Adding external electric field

     Computed dipole along edir(3) :
        Dipole                1.4051 Ry au,          3.5715 Debye
        Dipole field          0.0027 Ry au,

        Potential amp.       -0.2458 Ry
        Total length         46.3494 bohr

     End of self-consistent calculation

          k = 0.0000 0.0000 0.0000 ( 18029 PWs)   bands (ev):

   -55.2157 -55.1784 -55.1728 -55.1472 -55.1386 -55.1184 -55.0970 -55.0620
   -55.0416 -55.0069 -55.0037 -54.9944 -54.9700 -54.9345 -54.2029 -54.1689
   -31.7791 -31.6894 -31.6653 -31.5857 -31.5305 -31.5253 -31.5168 -31.5092
   -31.4616 -31.4383 -31.4268 -31.4175 -31.4134 -31.4116 -31.3876 -31.3844
   -31.3621 -31.3610 -31.3536 -31.3382 -31.3253 -31.3177 -31.3023 -31.2931
   -31.2867 -31.2743 -31.2719 -31.2429 -31.2300 -31.2279 -31.2224 -31.2024
   -31.1996 -31.1918 -31.1878 -31.1708 -31.1549 -31.1405 -31.1328 -31.1318
   -31.1148 -31.1125 -30.6124 -30.5180 -30.4959 -30.4287 -30.3419 -30.2310
   -19.2333 -16.1557 -16.0245 -15.7757 -15.6341 -15.5396 -15.4194 -15.3041
   -15.2394 -15.1255 -15.0672 -14.9322 -14.9168 -14.9047 -14.8801 -14.8469
   -14.8082 -14.7603 -14.7590 -14.7356 -14.7148 -14.7062 -14.6643 -14.6570
   -14.6173 -14.5960 -14.5950 -14.4599 -14.3784 -14.3081 -14.1229 -12.7055
   -12.5881 -10.2829  -7.0276  -6.2724  -4.8449  -3.9284  -3.4018  -3.3417
    -3.2375  -3.1481  -3.1253  -3.1131  -2.9762  -2.8816  -2.7466  -2.6666
    -2.6344  -2.4979  -2.4245  -2.4132  -2.3807  -2.2655  -2.2131  -2.1865
    -2.1536  -2.0823  -2.0339  -2.0234  -2.0055  -1.9748  -1.9597  -1.9256
    -1.8719  -1.7868  -1.7556  -1.6528  -1.6151  -1.5851  -1.5753  -1.5507
    -1.5338  -1.5090  -1.5025  -1.4421  -1.4387  -1.4089  -1.3627  -1.2478
    -1.0854  -1.0221  -0.9506  -0.8577  -0.8098  -0.7964  -0.7275  -0.7170
    -0.7029  -0.5991  -0.5698  -0.5542  -0.4567  -0.4250  -0.3867  -0.3142
    -0.2431  -0.2148  -0.2017  -0.0865  -0.0216  -0.0033   0.0165   0.0234
     0.1133   0.1864   0.2340   0.2856   0.3265   0.3337   0.3990   0.4316
     0.4995   0.5513   0.5692   0.6565   0.7013   0.7141   0.7201   0.7534
     0.7654   0.8271   0.8635   0.8878   0.9743   1.0897   1.2419   1.3835
     1.3915   1.7245   1.7253   1.8199   2.0036   2.3961   2.4444   3.8775
     3.9501   4.0093   4.0225   4.0282   4.1134   4.3598   4.3819   4.3876
     4.3977   4.4263

[...]

          k = 0.0380-0.0419 0.0000 ( 17876 PWs)   bands (ev):

[...]

          k =-0.0760-0.0000 0.0000 ( 17886 PWs)   bands (ev):

[...]

          k =-0.0760-0.0839 0.0000 ( 17948 PWs)   bands (ev):

   -55.2021 -55.1918 -55.1558 -55.1555 -55.1454 -55.1161 -55.0828 -55.0762
   -55.0271 -55.0210 -54.9967 -54.9872 -54.9867 -54.9359 -54.1861 -54.1856
   -31.6080 -31.5879 -31.5791 -31.4805 -31.4802 -31.4766 -31.4691 -31.4469
   -31.4468 -31.4275 -31.4196 -31.4129 -31.4055 -31.3911 -31.3735 -31.3587
   -31.3560 -31.3536 -31.3517 -31.3496 -31.3422 -31.3397 -31.3225 -31.3165
   -31.2960 -31.2956 -31.2770 -31.2755 -31.2752 -31.2734 -31.2684 -31.2602
   -31.2526 -31.2399 -31.2341 -31.2196 -31.2166 -31.1988 -31.1721 -31.1678
   -31.1669 -31.1460 -30.5088 -30.5083 -30.4250 -30.4247 -30.3855 -30.3852
   -19.2324 -16.1097 -15.5982 -15.4842 -15.3583 -15.2484 -15.2276 -15.1811
   -15.1324 -15.0821 -15.0300 -15.0016 -14.9807 -14.9718 -14.9290 -14.9186
   -14.8995 -14.8340 -14.8186 -14.8075 -14.7837 -14.7361 -14.7278 -14.7202
   -14.7162 -14.6702 -14.6661 -14.6186 -14.5747 -14.5709 -14.3914 -12.6896
   -12.6894 -10.2846  -7.0540  -6.2055  -4.8455  -3.9444  -3.2392  -2.9795
    -2.7496  -2.6977  -2.6093  -2.4656  -2.4218  -2.3770  -2.3459  -2.2842
    -2.2336  -2.2187  -2.2068  -2.1305  -2.1037  -2.0956  -2.0626  -2.0508
    -2.0409  -2.0027  -1.9820  -1.9567  -1.9482  -1.9376  -1.9349  -1.9251
    -1.8672  -1.8546  -1.8441  -1.8402  -1.7815  -1.7700  -1.7554  -1.7412
    -1.5970  -1.5787  -1.4276  -1.4242  -1.4020  -1.3496  -1.3380  -1.2973
    -1.2538  -1.2446  -1.2180  -0.9737  -0.9647  -0.9616  -0.9302  -0.8960
    -0.8582  -0.7965  -0.7677  -0.6976  -0.6895  -0.5735  -0.5575  -0.4429
    -0.4336  -0.4211  -0.3401  -0.2891  -0.2411  -0.2024  -0.1848  -0.1741
    -0.1575  -0.1209  -0.1186  -0.0214   0.0148   0.0456   0.0589   0.0984
     0.2750   0.3037   0.3195   0.4635   0.4711   0.6306   0.6815   0.7097
     0.8001   0.8603   0.8950   0.9388   1.0747   1.0880   1.1057   1.1601
     1.1832   1.2326   1.2457   2.1760   2.1773   2.2643   2.2644   4.0225
     4.1318   4.1410   4.1987   4.3100   4.3187   4.3925   4.4236   4.4614
     4.4653   4.5292

     the Fermi energy is     3.9396 ev

!    total energy              =   -2956.45486000 Ry
     estimated scf accuracy    <       0.00000006 Ry
     smearing contrib. (-TS)   =      -0.03685412 Ry
     internal energy E=F+TS    =   -2956.41800588 Ry

     The total energy is F=E-TS. E is the sum of the following terms:
     one-electron contribution =  -23693.63273212 Ry
     hartree contribution      =   11942.31804332 Ry
     xc contribution           =    -490.61497979 Ry
     ewald contribution        =    9285.50793678 Ry
     electric field correction =       0.00372593 Ry

     convergence has been achieved in  69 iterations

     Forces acting on atoms (cartesian axes, Ry/au):

     atom    1 type  1   force =    -0.00000267   -0.00025999    0.09340513
     atom    2 type  1   force =    -0.00007325   -0.00035155   -0.17812917
     atom    3 type  2   force =     0.00004614   -0.00030807   -0.02032998
     atom    4 type  2   force =    -0.00003527   -0.00184906    0.05912994
     atom    5 type  2   force =    -0.01020716   -0.00061156    0.00751496
     atom    6 type  2   force =     0.01173416    0.00021741    0.00684378
     atom    7 type  1   force =    -0.00030757    0.00187663   -0.01239563
     atom    8 type  1   force =     0.00016684    0.00084465   -0.00450807
     atom    9 type  2   force =     0.00038450   -0.00015663   -0.00080908
     atom   10 type  2   force =    -0.00141697    0.00414870   -0.00108497
     atom   11 type  2   force =    -0.00088513   -0.00030160    0.00019526
     atom   12 type  2   force =     0.00089779   -0.00005505    0.00005718
     atom   13 type  1   force =    -0.00012774   -0.00022690    0.00010216
     atom   14 type  1   force =    -0.00004702   -0.00009894    0.00004082
     atom   15 type  2   force =    -0.00066658   -0.00005526   -0.00006029
     atom   16 type  2   force =    -0.00010621    0.00022656   -0.00041918
     atom   17 type  2   force =     0.00030689   -0.00071641   -0.00002279
     atom   18 type  2   force =     0.00079752   -0.00064950   -0.00030196
     atom   19 type  1   force =    -0.00081967    0.00015024    0.00150633
     atom   20 type  1   force =     0.00078826   -0.00078198    0.00039416
     atom   21 type  2   force =     0.00002122   -0.00010923    0.10396236
     atom   22 type  2   force =     0.00007904   -0.00064444    0.00030296
     atom   23 type  2   force =    -0.07039633   -0.00020087   -0.02691414
     atom   24 type  2   force =     0.07023132    0.00023866   -0.02697065
     atom   25 type  1   force =    -0.00005383   -0.00021887    0.09291291
     atom   26 type  1   force =    -0.00020047   -0.00052976   -0.17840262
     atom   27 type  2   force =     0.00007183   -0.00013298   -0.01931555
     atom   28 type  2   force =     0.00005403   -0.00157292    0.05814017
     atom   29 type  2   force =    -0.01091045   -0.00006740    0.00843696
     atom   30 type  2   force =     0.01231627    0.00012016    0.00771951
     atom   31 type  1   force =    -0.00029620    0.00669111   -0.01507432
     atom   32 type  1   force =     0.00011134   -0.00074407   -0.00472213
     atom   33 type  2   force =    -0.00022168    0.00035366   -0.00052450
     atom   34 type  2   force =    -0.00111265   -0.00023008   -0.00038871
     atom   35 type  2   force =    -0.00021056   -0.00012124   -0.00015541
     atom   36 type  2   force =     0.00028932   -0.00036589   -0.00025529
     atom   37 type  1   force =     0.00023557   -0.00018338    0.00021310
     atom   38 type  1   force =    -0.00011949    0.00068373    0.00064285
     atom   39 type  2   force =     0.00012753   -0.00112310    0.00101883
     atom   40 type  2   force =     0.00026293    0.00100015   -0.00061922
     atom   41 type  2   force =    -0.00017829    0.00019552   -0.00028040
     atom   42 type  2   force =     0.00117964    0.00020445   -0.00052103
     atom   43 type  1   force =    -0.00115245    0.00002546    0.00038029
     atom   44 type  1   force =     0.00039977   -0.00109712    0.00101351
     atom   45 type  2   force =     0.00001250   -0.00011276    0.10392303
     atom   46 type  2   force =    -0.07037158   -0.00012943   -0.02688244
     atom   47 type  2   force =     0.07022606    0.00028103   -0.02694848
     atom   48 type  3   force =     0.00060622   -0.00028121    0.00072726
     atom   49 type  4   force =     0.00308925    0.00087298   -0.00309953
     atom   50 type  5   force =     0.00002552   -0.00064287   -0.00034560
     atom   51 type  5   force =    -0.00330804   -0.00158787    0.00243933
     atom   52 type  5   force =     0.00020278    0.00036710   -0.00110588
     atom   53 type  5   force =    -0.00004135    0.00015424   -0.00062155
     atom   54 type  5   force =    -0.00000960   -0.00020986   -0.00067737
     atom   55 type  2   force =     0.00034127   -0.00084557    0.00060323
     atom   56 type  5   force =    -0.00076148   -0.00017406    0.00016738
     atom   57 type  5   force =    -0.00096577   -0.00090495    0.00009256

     Total force =     0.366300     Total SCF correction =     0.000609
  @ DRIVER MODE: Message from server: STATUS
  @ DRIVER MODE: Message from server: GETFORCE
  @ DRIVER MODE: Returning v,forces,stress,ensemble

     Writing output data file ./calc.save/
  @ DRIVER MODE: Message from server: EXIT
  @ DRIVE MODE: Exiting

     General routines

     Parallel routines

   This run was terminated on:  22:35: 0  22Sep2021

   JOB DONE.