     Program PWSCF v.6.7GPU starts on 23Sep2021 at  2:28:22

     R & G space division:  proc/nbgrp/npool/nimage =      10
     Reading input from /storage/home/hcoda1/3/ntian30/research/carbon/CxH_vib/H2O_calc/ads_slab/CHON2HO_d/out_0031/pw.inp
Warning: card &CELL ignored
Warning: card   CELL_DYNAMICS='IPI', ignored
Warning: card / ignored

     Current dimensions of program PWSCF are:
     Max number of different atomic species (ntypx) = 10
     Max number of k-points (npk) =  40000
     Max angular momentum in pseudopotentials (lmaxx) =  3
     Presently no symmetry can be used with electric field

     Message from routine cell_base_init:
     DEPRECATED: use true lattice parameter, not A to a.u. conversion factor

     IMPORTANT: XC functional enforced from input :
     Exchange-correlation= BEEF-VDW
                           (   1   4  43  14   2   0   0)
     Any further DFT definition will be discarded
     Please, verify this is what you really want

  @ DRIVER MODE: Connecting to
 qe_1139763_2937317.sched-torque.pace.gatech.edu09pul0qh_scratch
  using UNIX socket
  @ DRIVER MODE: Message from server: STATUS
  @ DRIVER MODE: Message from server: INIT
  @ DRIVER MODE: Receiving replica           0          -1
  @ DRIVER MODE: Receiving encoded integer          25
  @ DRIVER MODE:  SCF:  T  FORCE:  T  STRESS:  F  VC:  F  ENSEMBLE:  F
  @ DRIVER MODE:  SCF:  T  FORCE:  T  STRESS:  F  VC:  F  ENSEMBLE:  F

     Using Slab Decomposition

     bravais-lattice index     =            0
     lattice parameter (alat)  =       1.8897  a.u.
     unit-cell volume          =    6658.9804 (a.u.)^3
     number of atoms/cell      =           54
     number of atomic types    =            5
     number of electrons       =       406.00
     number of Kohn-Sham states=          213
     kinetic-energy cutoff     =      29.3995  Ry
     charge density cutoff     =     293.9946  Ry
     scf convergence threshold =      7.3E-08
     mixing beta               =       0.0500
     number of iterations used =            8  plain     mixing
     Exchange-correlation= BEEF-VDW
                           (   1   4  43  14   2   0   0)

     celldm(1)=   1.889726  celldm(2)=   0.000000  celldm(3)=   0.000000
     celldm(4)=   0.000000  celldm(5)=   0.000000  celldm(6)=   0.000000

     crystal axes: (cart. coord. in units of alat)
               a(1) = (   6.579727   0.000000   0.000000 )
               a(2) = (  -0.000775   5.961596   0.000000 )
               a(3) = (   0.000000   0.000000  25.155947 )

     reciprocal axes: (cart. coord. in units 2 pi/alat)
               b(1) = (  0.151982  0.000020  0.000000 )
               b(2) = (  0.000000  0.167740  0.000000 )
               b(3) = (  0.000000  0.000000  0.039752 )

     PseudoPot. # 1 for O  read from file:
     /storage/coda1/p-amedford6/0/shared/rich_project_chbe-medford/medford-share/data/pseudos_module/espresso/nninc/pbe/van/O.UPF
     MD5 check sum: 78c19812648e8988a0fe644b0f25305e
     Pseudo is Ultrasoft, Zval =  6.0
     Generated by new atomic code, or converted to UPF format
     Using radial grid of  737 points,  4 beta functions with:
                l(1) =   0
                l(2) =   0
                l(3) =   1
                l(4) =   1
     Q(r) pseudized with  8 coefficients,  rinner =    0.800   0.800   0.800

     PseudoPot. # 2 for Ti read from file:
     /storage/coda1/p-amedford6/0/shared/rich_project_chbe-medford/medford-share/data/pseudos_module/espresso/nninc/pbe/van/Ti.UPF
     MD5 check sum: 8e4df49b7f0d34bbd5052bf3f5ea0213
     Pseudo is Ultrasoft, Zval = 12.0
     Generated by new atomic code, or converted to UPF format
     Using radial grid of  851 points,  6 beta functions with:
                l(1) =   0
                l(2) =   0
                l(3) =   1
                l(4) =   1
                l(5) =   2
                l(6) =   2
     Q(r) pseudized with  8 coefficients,  rinner =    1.000   1.000   1.000
                                                       1.000   1.000

     PseudoPot. # 3 for C  read from file:
     /storage/coda1/p-amedford6/0/shared/rich_project_chbe-medford/medford-share/data/pseudos_module/espresso/nninc/pbe/van/C.UPF
     MD5 check sum: 1a69bf6b8db32088f5b2163dbdb77a27
     Pseudo is Ultrasoft, Zval =  4.0
     Generated by new atomic code, or converted to UPF format
     Using radial grid of  721 points,  4 beta functions with:
                l(1) =   0
                l(2) =   0
                l(3) =   1
                l(4) =   1
     Q(r) pseudized with  8 coefficients,  rinner =    0.800   0.800   0.800

     PseudoPot. # 4 for H  read from file:
     /storage/coda1/p-amedford6/0/shared/rich_project_chbe-medford/medford-share/data/pseudos_module/espresso/nninc/pbe/van/H.UPF
     MD5 check sum: b5ee9d7bfd3a09ee7748110bda690ff7
     Pseudo is Ultrasoft, Zval =  1.0
     Generated by new atomic code, or converted to UPF format
     Using radial grid of  615 points,  1 beta functions with:
                l(1) =   0
     Q(r) pseudized with  8 coefficients,  rinner =    0.800

     PseudoPot. # 5 for N  read from file:
     /storage/coda1/p-amedford6/0/shared/rich_project_chbe-medford/medford-share/data/pseudos_module/espresso/nninc/pbe/van/N.UPF
     MD5 check sum: 90d10febe142ad51ac9d5be1deb811c4
     Pseudo is Ultrasoft, Zval =  5.0
     Generated by new atomic code, or converted to UPF format
     Using radial grid of  729 points,  4 beta functions with:
                l(1) =   0
                l(2) =   0
                l(3) =   1
                l(4) =   1
     Q(r) pseudized with  8 coefficients,  rinner =    0.800   0.800   0.800

     atomic species   valence    mass     pseudopotential
        O1             6.00    15.99900     O ( 1.00)
        Ti1           12.00    47.86700     Ti( 1.00)
        C1             4.00    12.01100     C ( 1.00)
        H1             1.00     1.00800     H ( 1.00)
        N1             5.00    14.00700     N ( 1.00)

     No symmetry found

   Cartesian axes

     site n.     atom                  positions (alat units)
         1           O1  tau(   1) = (   3.2904802   0.0005063   4.7018136  )
         2           O1  tau(   2) = (   3.2900926   2.9813045   4.7018136  )
         3           Ti1 tau(   3) = (   0.0004258   2.9801865   6.0000000  )
         4           Ti1 tau(   4) = (   0.0000382   5.9609847   6.0000000  )
         5           Ti1 tau(   5) = (   3.2906075   1.4906267   6.0002472  )
         6           Ti1 tau(   6) = (   3.2902200   4.4714249   6.0002472  )
         7           O1  tau(   7) = (   1.3043587   1.4918075   6.0039043  )
         8           O1  tau(   8) = (   1.3039711   4.4726057   6.0039043  )
         9           O1  tau(   9) = (   5.2767064   1.4903225   6.0039473  )
        10           O1  tau(  10) = (   5.2763189   4.4711207   6.0039473  )
        11           O1  tau(  11) = (   3.2906025   0.0005020   7.3038282  )
        12           O1  tau(  12) = (   3.2902150   2.9813002   7.3038282  )
        13           O1  tau(  13) = (   0.0006271   0.0005054   7.9858123  )
        14           O1  tau(  14) = (   0.0002396   2.9813036   7.9858123  )
        15           Ti1 tau(  15) = (   3.2350752   0.0608747   9.1773017  )
        16           Ti1 tau(  16) = (   3.2297482   3.0449837   9.2258248  )
        17           Ti1 tau(  17) = (   6.5035314   4.4790947   9.3419400  )
        18           O1  tau(  18) = (   4.5942328   1.4918067   9.2879030  )
        19           O1  tau(  19) = (   4.5938453   4.4726049   9.2879030  )
        20           O1  tau(  20) = (   1.9868534   1.4903216   9.2879459  )
        21           O1  tau(  21) = (   1.9864658   4.4711199   9.2879459  )
        22           Ti1 tau(  22) = (   6.5047199   1.5482117   9.3251357  )
        23           O1  tau(  23) = (   6.5709586   2.9893791  10.5365161  )
        24           O1  tau(  24) = (   6.5791863   0.0068326  10.5847705  )
        25           O1  tau(  25) = (   3.2737170   2.9471243  11.2864913  )
        26           O1  tau(  26) = (   3.2757665   0.0160177  11.3056520  )
        27           Ti1 tau(  27) = (   3.3024496   1.5456137  12.4328335  )
        28           Ti1 tau(  28) = (   0.0381823   0.0558990  12.5328616  )
        29           Ti1 tau(  29) = (   3.2867454   4.6490159  12.6676011  )
        30           O1  tau(  30) = (   1.2579511   1.4933188  12.6274103  )
        31           O1  tau(  31) = (   5.2930440   1.4968169  12.6131059  )
        32           O1  tau(  32) = (   1.2503383   4.4760527  12.6363980  )
        33           O1  tau(  33) = (   5.2887019   4.4660859  12.6249461  )
        34           Ti1 tau(  34) = (   6.5320965   3.0346479  12.8073368  )
        35           O1  tau(  35) = (   3.2762579   2.9735537  13.8874883  )
        36           O1  tau(  36) = (   3.2793791   5.9387796  13.8789893  )
        37           O1  tau(  37) = (   6.5412754   2.9812497  14.6926498  )
        38           O1  tau(  38) = (   6.5531526   0.0082392  14.6823945  )
        39           Ti1 tau(  39) = (   3.2668636   2.9663550  15.6683660  )
        40           Ti1 tau(  40) = (   3.2982107   5.9440960  16.3508785  )
        41           Ti1 tau(  41) = (   0.0141158   4.5598071  15.9269461  )
        42           O1  tau(  42) = (   4.5124726   4.4172202  16.0573870  )
        43           O1  tau(  43) = (   1.9821766   4.4208814  16.0404589  )
        44           O1  tau(  44) = (   4.4954461   1.5000296  16.1066544  )
        45           O1  tau(  45) = (   1.9782815   1.5221889  16.0619205  )
        46           Ti1 tau(  46) = (   0.0269324   1.3869748  16.0447141  )
        47           O1  tau(  47) = (   6.5379229   5.9414530  17.1901000  )
        48           O1  tau(  48) = (   6.5175113   2.9840192  17.3772383  )
        49           C1  tau(  49) = (   5.9742390   3.1768082  18.5865123  )
        50           H1  tau(  50) = (   5.8341806   4.1706531  18.9840957  )
        51           N1  tau(  51) = (   5.5886240   2.1683037  19.3003467  )
        52           N1  tau(  52) = (   5.2398892   1.2394158  19.8970451  )
        53           O1  tau(  53) = (   3.2083551   5.8834210  18.1446619  )
        54           H1  tau(  54) = (   3.7026433   0.4006729  18.8445816  )

     number of k points=    10  Fermi-Dirac smearing, width (Ry)=  0.0073
                       cart. coord. in units 2pi/alat
        k(    1) = (   0.0000000   0.0000000   0.0000000), wk =   0.1250000
        k(    2) = (   0.0000000   0.0419351   0.0000000), wk =   0.2500000
        k(    3) = (   0.0000000  -0.0838702   0.0000000), wk =   0.1250000
        k(    4) = (   0.0379955   0.0000049   0.0000000), wk =   0.2500000
        k(    5) = (   0.0379955   0.0419400   0.0000000), wk =   0.2500000
        k(    6) = (   0.0379955  -0.0838652   0.0000000), wk =   0.2500000
        k(    7) = (   0.0379955  -0.0419301   0.0000000), wk =   0.2500000
        k(    8) = (  -0.0759910  -0.0000099   0.0000000), wk =   0.1250000
        k(    9) = (  -0.0759910   0.0419252   0.0000000), wk =   0.2500000
        k(   10) = (  -0.0759910  -0.0838800   0.0000000), wk =   0.1250000

     Initial potential from superposition of free atoms

     starting charge  389.99917, renormalised to  406.00000

     negative rho (up, down):  1.658E-02 0.000E+00

     %%%%%%%%%%%%%%%%%%%%%%%%%%%%%%%%%%%%%%%%%%%%%%%%%%%%%%%%%%%%%%%%%%%%%%%%
     %                                                                      %
     % You are using vdW-DF, which was implemented by the Thonhauser group. %
     % Please cite the following two papers that made this development      %
     % possible and the two reviews that describe the various versions:     %
     %                                                                      %
     %   T. Thonhauser et al., PRL 115, 136402 (2015).                      %
     %   T. Thonhauser et al., PRB 76, 125112 (2007).                       %
     %   K. Berland et al., Rep. Prog. Phys. 78, 066501 (2015).             %
     %   D.C. Langreth et al., J. Phys.: Condens. Matter 21, 084203 (2009). %
     %                                                                      %
     %                                                                      %
     % If you are calculating the stress with vdW-DF, please also cite:     %
     %                                                                      %
     %   R. Sabatini et al., J. Phys.: Condens. Matter 24, 424209 (2012).   %
     %                                                                      %
     %%%%%%%%%%%%%%%%%%%%%%%%%%%%%%%%%%%%%%%%%%%%%%%%%%%%%%%%%%%%%%%%%%%%%%%%

     Adding external electric field

     Computed dipole along edir(3) :
        Dipole              -13.7787 Ry au,        -35.0219 Debye
        Dipole field         -0.0260 Ry au,

        Potential amp.        2.4104 Ry
        Total length         46.3494 bohr

     Starting wfcs are  306 atomic wfcs
  @ DRIVER MODE: Message from server: STATUS
  @ DRIVER MODE: Message from server: POSDATA
  @ DRIVER MODE: Reading and sharing cell
  @ DRIVER MODE: Reading and sharing positions
  @ DRIVER MODE: Received positions

     Self-consistent Calculation

     iteration #  1     ecut=    29.40 Ry     beta= 0.05
     Davidson diagonalization with overlap
     c_bands:  1 eigenvalues not converged
     c_bands:  1 eigenvalues not converged
     c_bands:  5 eigenvalues not converged
     ethr =  1.00E-05,  avg # of iterations = 31.1

[...]

     total energy              =   -2306.73756163 Ry
     estimated scf accuracy    <    7907.52192941 Ry

     iteration #  2     ecut=    29.40 Ry     beta= 0.05
     Davidson diagonalization with overlap
     ethr =  1.00E-02,  avg # of iterations = 27.0

[...]

     iteration # 69     ecut=    29.40 Ry     beta= 0.05
     Davidson diagonalization with overlap
     c_bands:  1 eigenvalues not converged
     c_bands:  2 eigenvalues not converged
     c_bands:  2 eigenvalues not converged
     c_bands:  1 eigenvalues not converged
     c_bands:  1 eigenvalues not converged
     ethr =  6.98E-07,  avg # of iterations = 17.6

[...]

     total energy              =   -3002.64635454 Ry
     estimated scf accuracy    <       0.00000009 Ry

     iteration # 96     ecut=    29.40 Ry     beta= 0.05
     Davidson diagonalization with overlap
     ethr =  2.21E-11,  avg # of iterations =  7.0

     negative rho (up, down):  1.646E-02 0.000E+00

     Adding external electric field

     Computed dipole along edir(3) :
        Dipole                0.4157 Ry au,          1.0566 Debye
        Dipole field          0.0008 Ry au,

        Potential amp.       -0.0727 Ry
        Total length         46.3494 bohr

     End of self-consistent calculation

          k = 0.0000 0.0000 0.0000 ( 18029 PWs)   bands (ev):

   -56.2522 -56.1955 -55.7644 -55.7074 -55.7061 -55.6895 -55.6585 -55.6507
   -55.6216 -55.6122 -55.5714 -55.5541 -55.4895 -55.3189 -54.9026 -54.8687
   -32.6672 -32.5284 -32.4629 -32.4224 -32.3239 -32.2918 -32.2457 -32.2170
   -32.2010 -32.0990 -32.0641 -32.0055 -32.0016 -31.9946 -31.9804 -31.9613
   -31.9519 -31.9491 -31.9285 -31.9201 -31.8683 -31.8641 -31.8602 -31.8566
   -31.8543 -31.8370 -31.8344 -31.8160 -31.8139 -31.8097 -31.8024 -31.7718
   -31.7702 -31.7694 -31.7436 -31.7312 -31.7247 -31.7191 -31.6913 -31.5787
   -31.5373 -31.5290 -31.2993 -31.2406 -31.2164 -31.1158 -31.0305 -30.9193
   -20.5496 -18.6853 -16.4845 -16.4560 -16.3075 -16.1022 -15.9428 -15.8707
   -15.6793 -15.5916 -15.5324 -15.5023 -15.4701 -15.3886 -15.3540 -15.3022
   -15.2570 -15.2421 -15.2175 -15.2016 -15.1907 -15.1877 -15.1846 -15.1546
   -15.1133 -15.0155 -14.9480 -14.9108 -14.8915 -14.8817 -14.8412 -14.5324
   -13.5430 -13.4048 -13.2952  -6.9412  -5.8970  -4.9181  -4.3534  -3.9605
    -3.7856  -3.6929  -3.6315  -3.5673  -3.5289  -3.3398  -3.3069  -3.1493
    -3.0271  -2.9450  -2.8730  -2.8556  -2.8310  -2.7930  -2.7350  -2.7000
    -2.6691  -2.6389  -2.5813  -2.5414  -2.5136  -2.4818  -2.4682  -2.4313
    -2.4127  -2.4078  -2.2671  -2.2207  -2.1776  -2.1723  -2.1479  -2.1261
    -2.1037  -2.0694  -2.0566  -2.0073  -1.9287  -1.8435  -1.8273  -1.7450
    -1.7111  -1.5366  -1.4744  -1.3994  -1.3686  -1.2040  -1.1764  -1.1685
    -1.1468  -1.1265  -1.0013  -0.9705  -0.9353  -0.9226  -0.8871  -0.8662
    -0.8406  -0.7352  -0.6706  -0.6312  -0.6160  -0.5502  -0.4537  -0.3827
    -0.3538  -0.3216  -0.2897  -0.1856  -0.1536  -0.1122  -0.1045  -0.0427
    -0.0101   0.0146   0.0709   0.0979   0.1520   0.1667   0.1858   0.2262
     0.2348   0.2811   0.3493   0.4134   0.5103   0.5302   0.5560   0.5928
     0.6727   0.7475   0.8281   1.0091   1.1151   1.1552   1.3194   1.3654
     1.6658   1.7134   2.5279   3.0385   3.1905   3.4536   3.5057   3.5414
     3.5830   3.6380   3.7685   3.8789   3.9354

[...]

          k = 0.0380-0.0419 0.0000 ( 17876 PWs)   bands (ev):

[...]

          k =-0.0760-0.0000 0.0000 ( 17886 PWs)   bands (ev):

[...]

          k =-0.0760-0.0839 0.0000 ( 17948 PWs)   bands (ev):

   -56.2467 -56.2009 -55.7619 -55.7059 -55.6985 -55.6851 -55.6659 -55.6531
   -55.6260 -55.6031 -55.5805 -55.5551 -55.4879 -55.3205 -54.8858 -54.8854
   -32.5248 -32.5027 -32.4654 -32.4637 -32.3906 -32.3526 -32.1494 -32.0663
   -32.0572 -32.0200 -32.0097 -31.9784 -31.9771 -31.9739 -31.9512 -31.9456
   -31.9365 -31.9310 -31.9299 -31.9209 -31.9071 -31.9044 -31.8796 -31.8759
   -31.8732 -31.8669 -31.8665 -31.8601 -31.8424 -31.8372 -31.8222 -31.8195
   -31.8161 -31.8061 -31.7985 -31.7740 -31.7584 -31.7241 -31.6950 -31.6528
   -31.5775 -31.5317 -31.2295 -31.2293 -31.1148 -31.1126 -31.0726 -31.0715
   -20.5482 -18.6737 -16.4511 -15.8312 -15.8217 -15.7896 -15.7495 -15.7022
   -15.6884 -15.6207 -15.6116 -15.5836 -15.5034 -15.4401 -15.3862 -15.3622
   -15.3591 -15.3365 -15.3083 -15.2681 -15.2465 -15.2374 -15.2275 -15.1721
   -15.1502 -15.1480 -15.1214 -15.1006 -15.0767 -15.0333 -14.8966 -14.6905
   -13.5503 -13.3996 -13.3978  -6.9132  -5.9123  -4.9162  -4.3419  -3.6061
    -3.2932  -3.0901  -3.0603  -2.9798  -2.9232  -2.8255  -2.8062  -2.7877
    -2.7723  -2.7589  -2.7330  -2.7037  -2.6545  -2.6259  -2.5916  -2.5805
    -2.5730  -2.5529  -2.5455  -2.5139  -2.4975  -2.4797  -2.4614  -2.4435
    -2.4290  -2.4154  -2.3441  -2.3121  -2.2773  -2.1119  -2.0993  -2.0964
    -2.0706  -2.0529  -2.0434  -1.9826  -1.9205  -1.9109  -1.8599  -1.8447
    -1.7651  -1.6998  -1.5382  -1.4997  -1.4725  -1.3959  -1.3373  -1.3038
    -1.2814  -1.2476  -1.2152  -1.2060  -1.1626  -1.1116  -1.0323  -1.0100
    -0.9603  -0.9523  -0.9431  -0.8579  -0.7875  -0.7723  -0.7269  -0.7083
    -0.6840  -0.6457  -0.5919  -0.5577  -0.5443  -0.5315  -0.4350  -0.3843
    -0.3300  -0.2294  -0.1912  -0.1316  -0.0211   0.0634   0.0757   0.1722
     0.2159   0.3134   0.3508   0.4036   0.4430   0.4704   0.4999   0.6170
     0.6359   0.6820   0.7597   0.7769   0.8050   0.8553   1.5041   1.5115
     1.5219   1.5234   2.4476   3.5606   3.5884   3.6070   3.6459   3.8437
     3.8743   3.8920   3.9216   3.9386   3.9916

     the Fermi energy is     2.8402 ev

!    total energy              =   -3002.64635774 Ry
     estimated scf accuracy    <       0.00000006 Ry
     smearing contrib. (-TS)   =      -0.00425158 Ry
     internal energy E=F+TS    =   -3002.64210615 Ry

     The total energy is F=E-TS. E is the sum of the following terms:
     one-electron contribution =  -23370.14757070 Ry
     hartree contribution      =   11778.92756270 Ry
     xc contribution           =    -498.78589047 Ry
     ewald contribution        =    9087.36346621 Ry
     electric field correction =       0.00032611 Ry

     convergence has been achieved in  96 iterations

     Forces acting on atoms (cartesian axes, Ry/au):

     atom    1 type  1   force =     0.00016518    0.00010404    0.09956110
     atom    2 type  1   force =     0.00014765    0.00020850    0.09906143
     atom    3 type  2   force =     0.00018048    0.00033578    0.12391730
     atom    4 type  2   force =     0.00044348    0.00004394    0.13850146
     atom    5 type  2   force =    -0.00009876    0.00964422   -0.15998391
     atom    6 type  2   force =     0.00009348   -0.00873093   -0.15976573
     atom    7 type  1   force =    -0.07909610    0.00145996   -0.03321690
     atom    8 type  1   force =    -0.07912651   -0.00181508   -0.03325519
     atom    9 type  1   force =     0.07905307    0.00178967   -0.03329690
     atom   10 type  1   force =     0.07908101   -0.00147007   -0.03327286
     atom   11 type  1   force =    -0.00114401    0.00063038    0.04293262
     atom   12 type  1   force =    -0.00115152    0.00003634    0.04558718
     atom   13 type  1   force =    -0.00039445   -0.00173793   -0.05063843
     atom   14 type  1   force =    -0.00085916    0.00123475   -0.04784670
     atom   15 type  2   force =    -0.00034110   -0.00003601    0.00009171
     atom   16 type  2   force =    -0.00033614    0.00004834   -0.00018573
     atom   17 type  2   force =     0.00024499   -0.00038613   -0.00015510
     atom   18 type  1   force =    -0.01154811   -0.00689974   -0.00023633
     atom   19 type  1   force =    -0.01367666    0.00098328    0.00211733
     atom   20 type  1   force =     0.01284472   -0.00248688   -0.00225555
     atom   21 type  1   force =     0.01410105    0.00576468    0.00036991
     atom   22 type  2   force =     0.00031035    0.00005366    0.00025848
     atom   23 type  1   force =    -0.00010246   -0.00009134   -0.00008285
     atom   24 type  1   force =    -0.00025668    0.00000212    0.00035746
     atom   25 type  1   force =     0.00023207    0.00030691   -0.00018861
     atom   26 type  1   force =     0.00035033    0.00013332   -0.00037216
     atom   27 type  2   force =    -0.00031174   -0.00046818    0.00038227
     atom   28 type  2   force =     0.00052151   -0.00028791   -0.00001856
     atom   29 type  2   force =    -0.00014882    0.00028898    0.00024095
     atom   30 type  1   force =    -0.00033669   -0.00035416   -0.00025301
     atom   31 type  1   force =     0.00049391   -0.00004272    0.00012046
     atom   32 type  1   force =    -0.00032190    0.00039673    0.00000059
     atom   33 type  1   force =     0.00025511    0.00034233    0.00010352
     atom   34 type  2   force =     0.00041425    0.00017695   -0.00028566
     atom   35 type  1   force =     0.00006939   -0.00012834   -0.00042849
     atom   36 type  1   force =     0.00007438   -0.00006114    0.00018431
     atom   37 type  1   force =    -0.00003107   -0.00020250    0.00055549
     atom   38 type  1   force =     0.00003602    0.00043772   -0.00004936
     atom   39 type  2   force =    -0.00018353    0.00037298    0.00038546
     atom   40 type  2   force =    -0.00070272   -0.00021442   -0.00036917
     atom   41 type  2   force =    -0.00013047    0.00042823   -0.00016697
     atom   42 type  1   force =     0.00029791    0.00027732    0.00016951
     atom   43 type  1   force =    -0.00047161    0.00005015   -0.00031443
     atom   44 type  1   force =     0.00045833   -0.00019275    0.00074333
     atom   45 type  1   force =    -0.00080294    0.00020594    0.00012895
     atom   46 type  2   force =     0.00011061    0.00027789   -0.00021545
     atom   47 type  1   force =    -0.00013550    0.00021776    0.00007792
     atom   48 type  1   force =     0.00035863    0.00001834   -0.00045388
     atom   49 type  3   force =     0.00026018    0.00035201   -0.00036309
     atom   50 type  4   force =    -0.00009474    0.00029243    0.00061530
     atom   51 type  5   force =    -0.00029954   -0.00068186    0.00028542
     atom   52 type  5   force =     0.00023165   -0.00061250   -0.00002813
     atom   53 type  1   force =     0.00572118    0.00462381    0.00676315
     atom   54 type  4   force =    -0.00444802   -0.00463886   -0.00581348

     Total force =     0.380473     Total SCF correction =     0.000682
  @ DRIVER MODE: Message from server: STATUS
  @ DRIVER MODE: Message from server: GETFORCE
  @ DRIVER MODE: Returning v,forces,stress,ensemble

     Writing output data file ./calc.save/
  @ DRIVER MODE: Message from server: EXIT
  @ DRIVE MODE: Exiting

     General routines

     Parallel routines

   This run was terminated on:   2:53:20  23Sep2021

   JOB DONE.