     Program PWSCF v.6.7GPU starts on 24Aug2021 at 22:20:18

     R & G space division:  proc/nbgrp/npool/nimage =      72
     Reading input from /storage/home/hcoda1/3/ntian30/research/carbon/CH2_vib/ads_slab/CH2NHHH_a/out_0032/pw.inp
Warning: card &CELL ignored
Warning: card   CELL_DYNAMICS='IPI', ignored
Warning: card / ignored

     Current dimensions of program PWSCF are:
     Max number of different atomic species (ntypx) = 10
     Max number of k-points (npk) =  40000
     Max angular momentum in pseudopotentials (lmaxx) =  3
     Presently no symmetry can be used with electric field

     Message from routine cell_base_init:
     DEPRECATED: use true lattice parameter, not A to a.u. conversion factor

     IMPORTANT: XC functional enforced from input :
     Exchange-correlation= BEEF-VDW
                           (   1   4  43  14   2   0   0)
     Any further DFT definition will be discarded
     Please, verify this is what you really want

  @ DRIVER MODE: Connecting to
 qe_1139763_2641440.sched-torque.pace.gatech.edubonbo89u_scratch
  using UNIX socket
  @ DRIVER MODE: Message from server: STATUS
  @ DRIVER MODE: Message from server: INIT
  @ DRIVER MODE: Receiving replica           0          -1
  @ DRIVER MODE: Receiving encoded integer          25
  @ DRIVER MODE:  SCF:  T  FORCE:  T  STRESS:  F  VC:  F  ENSEMBLE:  F
  @ DRIVER MODE:  SCF:  T  FORCE:  T  STRESS:  F  VC:  F  ENSEMBLE:  F

     Using Slab Decomposition

     bravais-lattice index     =            0
     lattice parameter (alat)  =       1.8897  a.u.
     unit-cell volume          =    6658.9804 (a.u.)^3
     number of atoms/cell      =           54
     number of atomic types    =            5
     number of electrons       =       392.00
     number of Kohn-Sham states=          206
     kinetic-energy cutoff     =      29.3995  Ry
     charge density cutoff     =     293.9946  Ry
     scf convergence threshold =      7.3E-08
     mixing beta               =       0.0500
     number of iterations used =            8  plain     mixing
     Exchange-correlation= BEEF-VDW
                           (   1   4  43  14   2   0   0)

     celldm(1)=   1.889726  celldm(2)=   0.000000  celldm(3)=   0.000000
     celldm(4)=   0.000000  celldm(5)=   0.000000  celldm(6)=   0.000000

     crystal axes: (cart. coord. in units of alat)
               a(1) = (   6.579727   0.000000   0.000000 )
               a(2) = (  -0.000775   5.961596   0.000000 )
               a(3) = (   0.000000   0.000000  25.155947 )

     reciprocal axes: (cart. coord. in units 2 pi/alat)
               b(1) = (  0.151982  0.000020  0.000000 )
               b(2) = (  0.000000  0.167740  0.000000 )
               b(3) = (  0.000000  0.000000  0.039752 )

     PseudoPot. # 1 for Ti read from file:
     /storage/coda1/p-amedford6/0/shared/rich_project_chbe-medford/medford-share/data/pseudos_module/espresso/nninc/pbe/van/Ti.UPF
     MD5 check sum: 8e4df49b7f0d34bbd5052bf3f5ea0213
     Pseudo is Ultrasoft, Zval = 12.0
     Generated by new atomic code, or converted to UPF format
     Using radial grid of  851 points,  6 beta functions with:
                l(1) =   0
                l(2) =   0
                l(3) =   1
                l(4) =   1
                l(5) =   2
                l(6) =   2
     Q(r) pseudized with  8 coefficients,  rinner =    1.000   1.000   1.000
                                                       1.000   1.000

     PseudoPot. # 2 for O  read from file:
     /storage/coda1/p-amedford6/0/shared/rich_project_chbe-medford/medford-share/data/pseudos_module/espresso/nninc/pbe/van/O.UPF
     MD5 check sum: 78c19812648e8988a0fe644b0f25305e
     Pseudo is Ultrasoft, Zval =  6.0
     Generated by new atomic code, or converted to UPF format
     Using radial grid of  737 points,  4 beta functions with:
                l(1) =   0
                l(2) =   0
                l(3) =   1
                l(4) =   1
     Q(r) pseudized with  8 coefficients,  rinner =    0.800   0.800   0.800

     PseudoPot. # 3 for N  read from file:
     /storage/coda1/p-amedford6/0/shared/rich_project_chbe-medford/medford-share/data/pseudos_module/espresso/nninc/pbe/van/N.UPF
     MD5 check sum: 90d10febe142ad51ac9d5be1deb811c4
     Pseudo is Ultrasoft, Zval =  5.0
     Generated by new atomic code, or converted to UPF format
     Using radial grid of  729 points,  4 beta functions with:
                l(1) =   0
                l(2) =   0
                l(3) =   1
                l(4) =   1
     Q(r) pseudized with  8 coefficients,  rinner =    0.800   0.800   0.800

     PseudoPot. # 4 for C  read from file:
     /storage/coda1/p-amedford6/0/shared/rich_project_chbe-medford/medford-share/data/pseudos_module/espresso/nninc/pbe/van/C.UPF
     MD5 check sum: 1a69bf6b8db32088f5b2163dbdb77a27
     Pseudo is Ultrasoft, Zval =  4.0
     Generated by new atomic code, or converted to UPF format
     Using radial grid of  721 points,  4 beta functions with:
                l(1) =   0
                l(2) =   0
                l(3) =   1
                l(4) =   1
     Q(r) pseudized with  8 coefficients,  rinner =    0.800   0.800   0.800

     PseudoPot. # 5 for H  read from file:
     /storage/coda1/p-amedford6/0/shared/rich_project_chbe-medford/medford-share/data/pseudos_module/espresso/nninc/pbe/van/H.UPF
     MD5 check sum: b5ee9d7bfd3a09ee7748110bda690ff7
     Pseudo is Ultrasoft, Zval =  1.0
     Generated by new atomic code, or converted to UPF format
     Using radial grid of  615 points,  1 beta functions with:
                l(1) =   0
     Q(r) pseudized with  8 coefficients,  rinner =    0.800

     atomic species   valence    mass     pseudopotential
        Ti1           12.00    47.86700     Ti( 1.00)
        O1             6.00    15.99900     O ( 1.00)
        N1             5.00    14.00700     N ( 1.00)
        C1             4.00    12.01100     C ( 1.00)
        H1             1.00     1.00800     H ( 1.00)

     No symmetry found

   Cartesian axes

     site n.     atom                  positions (alat units)
         1           Ti1 tau(   1) = (   0.0004258   2.9801865   6.0000000  )
         2           Ti1 tau(   2) = (   3.2906075   1.4906267   6.0002472  )
         3           O1  tau(   3) = (   0.0006271   0.0005054   7.9858123  )
         4           O1  tau(   4) = (   3.2906025   0.0005020   7.3038282  )
         5           O1  tau(   5) = (   4.5942328   1.4918067   9.2879030  )
         6           O1  tau(   6) = (   1.9868534   1.4903216   9.2879459  )
         7           Ti1 tau(   7) = (   3.2907910   2.8959150   9.1758416  )
         8           Ti1 tau(   8) = (   0.0015273   1.4827037   9.2680791  )
         9           O1  tau(   9) = (   3.2947057   0.0061428  11.3716447  )
        10           O1  tau(  10) = (   0.0116148   5.9584955  10.6183126  )
        11           O1  tau(  11) = (   1.2915649   1.4936813  12.6925814  )
        12           O1  tau(  12) = (   5.2970661   1.4944705  12.6810846  )
        13           Ti1 tau(  13) = (   0.0178387   2.9746902  12.5081746  )
        14           Ti1 tau(  14) = (   3.3154821   1.4870708  12.5273966  )
        15           O1  tau(  15) = (   6.5751158   5.8850184  14.6937530  )
        16           O1  tau(  16) = (   3.3021755   5.9482827  13.9948957  )
        17           O1  tau(  17) = (   4.5403780   1.5298489  16.1548813  )
        18           O1  tau(  18) = (   2.0255877   1.5226301  16.1187562  )
        19           Ti1 tau(  19) = (   3.2919084   3.0021400  15.7465462  )
        20           Ti1 tau(  20) = (   0.0121818   1.3098915  15.8601907  )
        21           O1  tau(  21) = (   3.2904802   0.0005063   4.7018136  )
        22           O1  tau(  22) = (   6.5726150   0.1553292  17.2405045  )
        23           O1  tau(  23) = (   1.3043587   1.4918075   6.0039043  )
        24           O1  tau(  24) = (   5.2767064   1.4903225   6.0039473  )
        25           Ti1 tau(  25) = (   0.0000382   5.9609847   6.0000000  )
        26           Ti1 tau(  26) = (   3.2902200   4.4714249   6.0002472  )
        27           O1  tau(  27) = (   0.0002396   2.9813036   7.9858123  )
        28           O1  tau(  28) = (   3.2902150   2.9813002   7.3038282  )
        29           O1  tau(  29) = (   4.5938453   4.4726049   9.2879030  )
        30           O1  tau(  30) = (   1.9864658   4.4711199   9.2879459  )
        31           Ti1 tau(  31) = (   3.2891106   5.8743827   9.1763621  )
        32           Ti1 tau(  32) = (   0.0006254   4.4649316   9.2693709  )
        33           O1  tau(  33) = (   3.2927311   2.9710310  11.3658552  )
        34           O1  tau(  34) = (   0.0092240   2.9805883  10.6323155  )
        35           O1  tau(  35) = (   1.2954064   4.4636889  12.6531092  )
        36           O1  tau(  36) = (   5.2951753   4.4642890  12.6444158  )
        37           Ti1 tau(  37) = (   0.0208150   5.9452171  12.5004641  )
        38           Ti1 tau(  38) = (   3.3163264   4.4646888  12.5160798  )
        39           O1  tau(  39) = (   6.5606049   3.0383603  14.9590055  )
        40           O1  tau(  40) = (   3.3003749   3.0012653  13.9593002  )
        41           O1  tau(  41) = (   4.5325621   4.4784225  16.2386555  )
        42           O1  tau(  42) = (   2.0180351   4.4745910  16.2101397  )
        43           Ti1 tau(  43) = (   3.2993765   0.0184524  15.7908042  )
        44           Ti1 tau(  44) = (   0.0223033   4.5207704  16.0490861  )
        45           O1  tau(  45) = (   3.2900926   2.9813045   4.7018136  )
        46           O1  tau(  46) = (   1.3039711   4.4726057   6.0039043  )
        47           O1  tau(  47) = (   5.2763189   4.4711207   6.0039473  )
        48           N1  tau(  48) = (   6.4337409   3.4053151  18.1409392  )
        49           C1  tau(  49) = (   1.0285230   3.1422446  19.0018829  )
        50           H1  tau(  50) = (   0.7475518   3.0234394  20.0507379  )
        51           H1  tau(  51) = (   1.7227964   3.9744885  18.9089305  )
        52           H1  tau(  52) = (   5.9280473   4.2150708  18.4935385  )
        53           H1  tau(  53) = (   5.8000178   2.6175148  18.1880975  )
        54           H1  tau(  54) = (   1.5159085   2.2300880  18.6641165  )

     number of k points=    10  Fermi-Dirac smearing, width (Ry)=  0.0073
                       cart. coord. in units 2pi/alat
        k(    1) = (   0.0000000   0.0000000   0.0000000), wk =   0.1250000
        k(    2) = (   0.0000000   0.0419351   0.0000000), wk =   0.2500000
        k(    3) = (   0.0000000  -0.0838702   0.0000000), wk =   0.1250000
        k(    4) = (   0.0379955   0.0000049   0.0000000), wk =   0.2500000
        k(    5) = (   0.0379955   0.0419400   0.0000000), wk =   0.2500000
        k(    6) = (   0.0379955  -0.0838652   0.0000000), wk =   0.2500000
        k(    7) = (   0.0379955  -0.0419301   0.0000000), wk =   0.2500000
        k(    8) = (  -0.0759910  -0.0000099   0.0000000), wk =   0.1250000
        k(    9) = (  -0.0759910   0.0419252   0.0000000), wk =   0.2500000
        k(   10) = (  -0.0759910  -0.0838800   0.0000000), wk =   0.1250000

     Initial potential from superposition of free atoms

     starting charge  375.99915, renormalised to  392.00000

     negative rho (up, down):  1.645E-02 0.000E+00

     %%%%%%%%%%%%%%%%%%%%%%%%%%%%%%%%%%%%%%%%%%%%%%%%%%%%%%%%%%%%%%%%%%%%%%%%
     %                                                                      %
     % You are using vdW-DF, which was implemented by the Thonhauser group. %
     % Please cite the following two papers that made this development      %
     % possible and the two reviews that describe the various versions:     %
     %                                                                      %
     %   T. Thonhauser et al., PRL 115, 136402 (2015).                      %
     %   T. Thonhauser et al., PRB 76, 125112 (2007).                       %
     %   K. Berland et al., Rep. Prog. Phys. 78, 066501 (2015).             %
     %   D.C. Langreth et al., J. Phys.: Condens. Matter 21, 084203 (2009). %
     %                                                                      %
     %                                                                      %
     % If you are calculating the stress with vdW-DF, please also cite:     %
     %                                                                      %
     %   R. Sabatini et al., J. Phys.: Condens. Matter 24, 424209 (2012).   %
     %                                                                      %
     %%%%%%%%%%%%%%%%%%%%%%%%%%%%%%%%%%%%%%%%%%%%%%%%%%%%%%%%%%%%%%%%%%%%%%%%

     Adding external electric field

     Computed dipole along edir(3) :
        Dipole               -7.5123 Ry au,        -19.0944 Debye
        Dipole field         -0.0142 Ry au,

        Potential amp.        1.3142 Ry
        Total length         46.3494 bohr

     Starting wfcs are  297 atomic wfcs
  @ DRIVER MODE: Message from server: STATUS
  @ DRIVER MODE: Message from server: POSDATA
  @ DRIVER MODE: Reading and sharing cell
  @ DRIVER MODE: Reading and sharing positions
  @ DRIVER MODE: Received positions

     Self-consistent Calculation

     iteration #  1     ecut=    29.40 Ry     beta= 0.05
     Davidson diagonalization with overlap
     c_bands:  1 eigenvalues not converged
     c_bands:  1 eigenvalues not converged
     c_bands:  2 eigenvalues not converged
     c_bands:  1 eigenvalues not converged
     c_bands:  1 eigenvalues not converged
     c_bands:  1 eigenvalues not converged
     ethr =  1.00E-05,  avg # of iterations = 19.3

[...]

     total energy              =   -2681.18577876 Ry
     estimated scf accuracy    <    2661.11875063 Ry

[...]

     iteration #  3     ecut=    29.40 Ry     beta= 0.05
     Davidson diagonalization with overlap
     ethr =  1.00E-02,  avg # of iterations = 15.5

[...]

     iteration # 64     ecut=    29.40 Ry     beta= 0.05
     Davidson diagonalization with overlap
     c_bands:  1 eigenvalues not converged
     ethr =  4.02E-11,  avg # of iterations = 12.9

[...]

     total energy              =   -2921.63245227 Ry
     estimated scf accuracy    <       0.00000016 Ry

     iteration # 66     ecut=    29.40 Ry     beta= 0.05
     Davidson diagonalization with overlap
     ethr =  4.02E-11,  avg # of iterations =  3.8

     negative rho (up, down):  1.723E-02 0.000E+00

     Adding external electric field

     Computed dipole along edir(3) :
        Dipole                1.3052 Ry au,          3.3174 Debye
        Dipole field          0.0025 Ry au,

        Potential amp.       -0.2283 Ry
        Total length         46.3494 bohr

     End of self-consistent calculation

          k = 0.0000 0.0000 0.0000 ( 18029 PWs)   bands (ev):

   -55.4313 -55.3943 -55.3815 -55.3572 -55.3473 -55.3140 -55.3088 -55.2744
   -55.2479 -55.2313 -55.2135 -55.2126 -55.1790 -55.1003 -54.4098 -54.3758
   -32.0007 -31.8869 -31.8739 -31.7976 -31.7484 -31.7380 -31.7357 -31.7187
   -31.6736 -31.6704 -31.6416 -31.6394 -31.6264 -31.6198 -31.6014 -31.5946
   -31.5868 -31.5745 -31.5694 -31.5460 -31.5342 -31.5303 -31.5026 -31.4953
   -31.4866 -31.4786 -31.4753 -31.4505 -31.4394 -31.4389 -31.4312 -31.4123
   -31.4116 -31.4053 -31.3992 -31.3960 -31.3621 -31.3530 -31.3410 -31.3240
   -31.3059 -31.2962 -30.8191 -30.7251 -30.7031 -30.6355 -30.5487 -30.4378
   -16.2972 -16.1758 -15.9780 -15.8338 -15.7491 -15.6295 -15.5183 -15.5043
   -15.3638 -15.2821 -15.1665 -15.1418 -15.1124 -15.0900 -15.0815 -15.0645
   -14.9735 -14.9687 -14.9565 -14.9240 -14.9228 -14.8785 -14.8680 -14.8260
   -14.8047 -14.8023 -14.6827 -14.5890 -14.5169 -14.2890 -12.9124 -12.7950
   -10.2190  -6.3471  -4.8090  -3.9525  -3.6101  -3.4519  -3.3690  -3.3343
    -3.3221  -3.1906  -3.0539  -2.9082  -2.8542  -2.8240  -2.7235  -2.6467
    -2.6395  -2.6199  -2.4662  -2.4309  -2.3867  -2.3376  -2.2996  -2.2414
    -2.2208  -2.2123  -2.1998  -2.1827  -2.1740  -2.0575  -2.0002  -1.9165
    -1.8575  -1.8345  -1.7842  -1.7641  -1.7443  -1.7203  -1.7110  -1.6701
    -1.6450  -1.6249  -1.5717  -1.4602  -1.3564  -1.3060  -1.1873  -1.0660
    -1.0290  -1.0170  -0.9659  -0.9382  -0.9163  -0.8593  -0.8075  -0.7781
    -0.7242  -0.6632  -0.6019  -0.5521  -0.4789  -0.4761  -0.4166  -0.3676
    -0.2470  -0.2141  -0.1972  -0.1698  -0.0788  -0.0405   0.0032   0.0832
     0.0944   0.1138   0.2071   0.2180   0.2920   0.3405   0.3568   0.4507
     0.4853   0.4978   0.5024   0.5246   0.5546   0.6042   0.6463   0.6728
     0.7396   0.8661   1.0785   1.1593   1.1834   1.5094   1.5193   1.6130
     1.7967   2.1887   2.2369   3.6665   3.7371   3.8129   3.8193   3.8320
     3.9049   4.1392   4.1629   4.1706   4.1774   4.1980

[...]

          k = 0.0380-0.0419 0.0000 ( 17876 PWs)   bands (ev):

[...]

          k =-0.0760-0.0000 0.0000 ( 17886 PWs)   bands (ev):

[...]

          k =-0.0760-0.0839 0.0000 ( 17948 PWs)   bands (ev):

   -55.4172 -55.4082 -55.3644 -55.3643 -55.3557 -55.3104 -55.2929 -55.2902
   -55.2349 -55.2322 -55.2287 -55.1964 -55.1955 -55.1015 -54.3928 -54.3926
   -31.8079 -31.8044 -31.8007 -31.7182 -31.6922 -31.6890 -31.6890 -31.6557
   -31.6556 -31.6401 -31.6335 -31.6309 -31.6242 -31.6029 -31.5869 -31.5701
   -31.5658 -31.5637 -31.5617 -31.5570 -31.5567 -31.5538 -31.5112 -31.5089
   -31.5059 -31.5020 -31.4998 -31.4861 -31.4843 -31.4842 -31.4819 -31.4652
   -31.4619 -31.4458 -31.4423 -31.4286 -31.4255 -31.4231 -31.3774 -31.3772
   -31.3718 -31.3107 -30.7158 -30.7156 -30.6317 -30.6315 -30.5922 -30.5921
   -16.1528 -15.7829 -15.6959 -15.6400 -15.4645 -15.4367 -15.4225 -15.4028
   -15.2741 -15.2480 -15.2225 -15.2000 -15.1791 -15.1415 -15.1337 -15.1291
   -15.0512 -15.0382 -15.0325 -15.0178 -14.9485 -14.9395 -14.9356 -14.9294
   -14.8791 -14.8754 -14.8329 -14.7817 -14.7784 -14.5651 -12.8966 -12.8964
   -10.2222  -6.3177  -4.8057  -3.9164  -2.9660  -2.9433  -2.8968  -2.8961
    -2.6806  -2.6431  -2.6075  -2.5838  -2.4921  -2.4497  -2.4309  -2.4301
    -2.3558  -2.3357  -2.3242  -2.2724  -2.2673  -2.2556  -2.2320  -2.2001
    -2.1742  -2.1596  -2.1499  -2.1315  -2.0880  -2.0740  -2.0549  -2.0340
    -2.0280  -2.0155  -1.9864  -1.9468  -1.8158  -1.8046  -1.7440  -1.6364
    -1.6315  -1.5566  -1.5461  -1.5012  -1.4877  -1.4631  -1.4286  -1.2491
    -1.2069  -1.1760  -1.1665  -1.1126  -1.0365  -1.0196  -0.9568  -0.9354
    -0.9172  -0.8124  -0.7693  -0.7543  -0.6642  -0.6557  -0.5729  -0.5233
    -0.4626  -0.4367  -0.4022  -0.3862  -0.3841  -0.3363  -0.3306  -0.2468
    -0.2009  -0.1648  -0.1513  -0.1191   0.0796   0.0867   0.1089   0.2549
     0.2735   0.4099   0.4369   0.4882   0.5682   0.6012   0.6819   0.7147
     0.8436   0.8749   0.8775   0.9471   0.9614   1.0235   1.0340   1.9697
     1.9704   2.0569   2.0570   3.8171   3.9090   3.9290   3.9716   4.0847
     4.1585   4.1838   4.2055   4.2524   4.2558   4.3183

     the Fermi energy is     3.7304 ev

!    total energy              =   -2921.63247796 Ry
     estimated scf accuracy    <       0.00000007 Ry
     smearing contrib. (-TS)   =      -0.03702676 Ry
     internal energy E=F+TS    =   -2921.59545120 Ry

     The total energy is F=E-TS. E is the sum of the following terms:
     one-electron contribution =  -24082.25168340 Ry
     hartree contribution      =   12130.26268341 Ry
     xc contribution           =    -481.76649672 Ry
     ewald contribution        =    9512.15683090 Ry
     electric field correction =       0.00321460 Ry

     convergence has been achieved in  66 iterations

     Forces acting on atoms (cartesian axes, Ry/au):

     atom    1 type  1   force =     0.00005447   -0.00024742    0.09321051
     atom    2 type  1   force =    -0.00012587   -0.00043637   -0.17821949
     atom    3 type  2   force =     0.00002140   -0.00038949   -0.02022241
     atom    4 type  2   force =    -0.00001198   -0.00187711    0.05854098
     atom    5 type  2   force =    -0.00994834   -0.00082135    0.00750054
     atom    6 type  2   force =     0.01146905   -0.00026938    0.00680030
     atom    7 type  1   force =    -0.00038726    0.00195655   -0.01462630
     atom    8 type  1   force =     0.00010915   -0.00011616   -0.00502154
     atom    9 type  2   force =    -0.00011715   -0.00005312    0.00001309
     atom   10 type  2   force =    -0.00117893    0.00219907   -0.00032966
     atom   11 type  2   force =    -0.00003466   -0.00020082    0.00005743
     atom   12 type  2   force =     0.00060893   -0.00051951    0.00011635
     atom   13 type  1   force =    -0.00072953    0.00034131   -0.00035496
     atom   14 type  1   force =    -0.00000260   -0.00059957    0.00005055
     atom   15 type  2   force =     0.00004658   -0.00054441   -0.00036989
     atom   16 type  2   force =     0.00023264    0.00059826    0.00048673
     atom   17 type  2   force =     0.00006840   -0.00056483    0.00029715
     atom   18 type  2   force =     0.00013590   -0.00010223    0.00033945
     atom   19 type  1   force =     0.00012907   -0.00034660    0.00184343
     atom   20 type  1   force =    -0.00024685    0.00041729    0.00006335
     atom   21 type  2   force =     0.00001010   -0.00009737    0.10388159
     atom   22 type  2   force =     0.00017087   -0.00012754    0.00061427
     atom   23 type  2   force =    -0.07050216   -0.00018857   -0.02693922
     atom   24 type  2   force =     0.07032573    0.00025297   -0.02697854
     atom   25 type  1   force =    -0.00001301   -0.00015889    0.09272604
     atom   26 type  1   force =    -0.00020782   -0.00049438   -0.17824138
     atom   27 type  2   force =     0.00007553   -0.00025851   -0.01927607
     atom   28 type  2   force =     0.00001743   -0.00165914    0.05788924
     atom   29 type  2   force =    -0.01052832   -0.00098235    0.00820001
     atom   30 type  2   force =     0.01193181   -0.00053699    0.00742814
     atom   31 type  1   force =    -0.00034077    0.00605958   -0.01540784
     atom   32 type  1   force =     0.00011516   -0.00039782   -0.00544062
     atom   33 type  2   force =     0.00031014   -0.00010363   -0.00031651
     atom   34 type  2   force =    -0.00063552   -0.00205677   -0.00051044
     atom   35 type  2   force =    -0.00041661   -0.00001590    0.00023065
     atom   36 type  2   force =     0.00068577   -0.00006432   -0.00004577
     atom   37 type  1   force =    -0.00036580   -0.00022956    0.00025237
     atom   38 type  1   force =     0.00002267    0.00041977   -0.00002207
     atom   39 type  2   force =     0.00023016   -0.00009589    0.00023279
     atom   40 type  2   force =     0.00016923    0.00026218    0.00008969
     atom   41 type  2   force =    -0.00043914    0.00028537   -0.00011650
     atom   42 type  2   force =     0.00046721    0.00085909   -0.00014465
     atom   43 type  1   force =     0.00049222    0.00061752    0.00027321
     atom   44 type  1   force =     0.00053416    0.00047802    0.00020551
     atom   45 type  2   force =     0.00001954   -0.00009596    0.10388888
     atom   46 type  2   force =    -0.07047987   -0.00012415   -0.02689411
     atom   47 type  2   force =     0.07031241    0.00030583   -0.02695010
     atom   48 type  3   force =     0.00719930    0.00520483    0.00045954
     atom   49 type  4   force =     0.00145445    0.00008016   -0.00023235
     atom   50 type  5   force =    -0.00057378    0.00019291    0.00046227
     atom   51 type  5   force =    -0.00007578    0.00011590    0.00017382
     atom   52 type  5   force =    -0.00138298   -0.00102702    0.00013628
     atom   53 type  5   force =    -0.00850331   -0.00627741    0.00000028
     atom   54 type  5   force =    -0.00017144    0.00143392    0.00019601

     Total force =     0.366305     Total SCF correction =     0.000851
  @ DRIVER MODE: Message from server: STATUS
  @ DRIVER MODE: Message from server: GETFORCE
  @ DRIVER MODE: Returning v,forces,stress,ensemble

     Writing output data file ./calc.save/
  @ DRIVER MODE: Message from server: EXIT
  @ DRIVE MODE: Exiting

     General routines

     Parallel routines

   This run was terminated on:  22:38:31  24Aug2021

   JOB DONE.