     Program PWSCF v.6.7GPU starts on 22Sep2021 at 20:59: 0

     R & G space division:  proc/nbgrp/npool/nimage =      10
     Reading input from /storage/home/hcoda1/3/ntian30/research/carbon/CxH_vib/H2O_calc/ads_slab/CH3NHHH2O_a/out_0016/pw.inp
Warning: card &CELL ignored
Warning: card   CELL_DYNAMICS='IPI', ignored
Warning: card / ignored

     Current dimensions of program PWSCF are:
     Max number of different atomic species (ntypx) = 10
     Max number of k-points (npk) =  40000
     Max angular momentum in pseudopotentials (lmaxx) =  3
     Presently no symmetry can be used with electric field

     Message from routine cell_base_init:
     DEPRECATED: use true lattice parameter, not A to a.u. conversion factor

     IMPORTANT: XC functional enforced from input :
     Exchange-correlation= BEEF-VDW
                           (   1   4  43  14   2   0   0)
     Any further DFT definition will be discarded
     Please, verify this is what you really want

  @ DRIVER MODE: Connecting to
 qe_1139763_2937309.sched-torque.pace.gatech.edu958u90t__scratch
  using UNIX socket
  @ DRIVER MODE: Message from server: STATUS
  @ DRIVER MODE: Message from server: INIT
  @ DRIVER MODE: Receiving replica           0          -1
  @ DRIVER MODE: Receiving encoded integer          25
  @ DRIVER MODE:  SCF:  T  FORCE:  T  STRESS:  F  VC:  F  ENSEMBLE:  F
  @ DRIVER MODE:  SCF:  T  FORCE:  T  STRESS:  F  VC:  F  ENSEMBLE:  F

     Using Slab Decomposition

     bravais-lattice index     =            0
     lattice parameter (alat)  =       1.8897  a.u.
     unit-cell volume          =    6658.9804 (a.u.)^3
     number of atoms/cell      =           57
     number of atomic types    =            5
     number of electrons       =       400.00
     number of Kohn-Sham states=          210
     kinetic-energy cutoff     =      29.3995  Ry
     charge density cutoff     =     293.9946  Ry
     scf convergence threshold =      7.3E-08
     mixing beta               =       0.0500
     number of iterations used =            8  plain     mixing
     Exchange-correlation= BEEF-VDW
                           (   1   4  43  14   2   0   0)

     celldm(1)=   1.889726  celldm(2)=   0.000000  celldm(3)=   0.000000
     celldm(4)=   0.000000  celldm(5)=   0.000000  celldm(6)=   0.000000

     crystal axes: (cart. coord. in units of alat)
               a(1) = (   6.579727   0.000000   0.000000 )
               a(2) = (  -0.000775   5.961596   0.000000 )
               a(3) = (   0.000000   0.000000  25.155947 )

     reciprocal axes: (cart. coord. in units 2 pi/alat)
               b(1) = (  0.151982  0.000020  0.000000 )
               b(2) = (  0.000000  0.167740  0.000000 )
               b(3) = (  0.000000  0.000000  0.039752 )

     PseudoPot. # 1 for Ti read from file:
     /storage/coda1/p-amedford6/0/shared/rich_project_chbe-medford/medford-share/data/pseudos_module/espresso/nninc/pbe/van/Ti.UPF
     MD5 check sum: 8e4df49b7f0d34bbd5052bf3f5ea0213
     Pseudo is Ultrasoft, Zval = 12.0
     Generated by new atomic code, or converted to UPF format
     Using radial grid of  851 points,  6 beta functions with:
                l(1) =   0
                l(2) =   0
                l(3) =   1
                l(4) =   1
                l(5) =   2
                l(6) =   2
     Q(r) pseudized with  8 coefficients,  rinner =    1.000   1.000   1.000
                                                       1.000   1.000

     PseudoPot. # 2 for O  read from file:
     /storage/coda1/p-amedford6/0/shared/rich_project_chbe-medford/medford-share/data/pseudos_module/espresso/nninc/pbe/van/O.UPF
     MD5 check sum: 78c19812648e8988a0fe644b0f25305e
     Pseudo is Ultrasoft, Zval =  6.0
     Generated by new atomic code, or converted to UPF format
     Using radial grid of  737 points,  4 beta functions with:
                l(1) =   0
                l(2) =   0
                l(3) =   1
                l(4) =   1
     Q(r) pseudized with  8 coefficients,  rinner =    0.800   0.800   0.800

     PseudoPot. # 3 for N  read from file:
     /storage/coda1/p-amedford6/0/shared/rich_project_chbe-medford/medford-share/data/pseudos_module/espresso/nninc/pbe/van/N.UPF
     MD5 check sum: 90d10febe142ad51ac9d5be1deb811c4
     Pseudo is Ultrasoft, Zval =  5.0
     Generated by new atomic code, or converted to UPF format
     Using radial grid of  729 points,  4 beta functions with:
                l(1) =   0
                l(2) =   0
                l(3) =   1
                l(4) =   1
     Q(r) pseudized with  8 coefficients,  rinner =    0.800   0.800   0.800

     PseudoPot. # 4 for C  read from file:
     /storage/coda1/p-amedford6/0/shared/rich_project_chbe-medford/medford-share/data/pseudos_module/espresso/nninc/pbe/van/C.UPF
     MD5 check sum: 1a69bf6b8db32088f5b2163dbdb77a27
     Pseudo is Ultrasoft, Zval =  4.0
     Generated by new atomic code, or converted to UPF format
     Using radial grid of  721 points,  4 beta functions with:
                l(1) =   0
                l(2) =   0
                l(3) =   1
                l(4) =   1
     Q(r) pseudized with  8 coefficients,  rinner =    0.800   0.800   0.800

     PseudoPot. # 5 for H  read from file:
     /storage/coda1/p-amedford6/0/shared/rich_project_chbe-medford/medford-share/data/pseudos_module/espresso/nninc/pbe/van/H.UPF
     MD5 check sum: b5ee9d7bfd3a09ee7748110bda690ff7
     Pseudo is Ultrasoft, Zval =  1.0
     Generated by new atomic code, or converted to UPF format
     Using radial grid of  615 points,  1 beta functions with:
                l(1) =   0
     Q(r) pseudized with  8 coefficients,  rinner =    0.800

     atomic species   valence    mass     pseudopotential
        Ti1           12.00    47.86700     Ti( 1.00)
        O1             6.00    15.99900     O ( 1.00)
        N1             5.00    14.00700     N ( 1.00)
        C1             4.00    12.01100     C ( 1.00)
        H1             1.00     1.00800     H ( 1.00)

     No symmetry found

   Cartesian axes

     site n.     atom                  positions (alat units)
         1           Ti1 tau(   1) = (   0.0004258   2.9801865   6.0000000  )
         2           Ti1 tau(   2) = (   3.2906075   1.4906267   6.0002472  )
         3           O1  tau(   3) = (   0.0006271   0.0005054   7.9858123  )
         4           O1  tau(   4) = (   3.2906025   0.0005020   7.3038282  )
         5           O1  tau(   5) = (   4.5942328   1.4918067   9.2879030  )
         6           O1  tau(   6) = (   1.9868534   1.4903216   9.2879459  )
         7           Ti1 tau(   7) = (   3.2907910   2.8959150   9.1758416  )
         8           Ti1 tau(   8) = (   0.0015273   1.4827037   9.2680791  )
         9           O1  tau(   9) = (   3.2912042   0.0294118  11.3810798  )
        10           O1  tau(  10) = (   0.0116148   5.9584955  10.6183126  )
        11           O1  tau(  11) = (   1.2906363   1.5151137  12.6946382  )
        12           O1  tau(  12) = (   5.2977377   1.5118052  12.6897239  )
        13           Ti1 tau(  13) = (   0.0154927   3.0055723  12.5114375  )
        14           Ti1 tau(  14) = (   3.3120461   1.5076926  12.5412499  )
        15           O1  tau(  15) = (   0.0087391   5.9056098  14.6936070  )
        16           O1  tau(  16) = (   3.3000944   0.0090435  14.0218108  )
        17           O1  tau(  17) = (   4.5606481   1.5918460  16.0876707  )
        18           O1  tau(  18) = (   2.0070218   1.5857768  16.0794533  )
        19           Ti1 tau(  19) = (   3.2835068   3.0412122  15.7371975  )
        20           Ti1 tau(  20) = (   0.0166266   1.3536260  15.8406240  )
        21           O1  tau(  21) = (   3.2904802   0.0005063   4.7018136  )
        22           O1  tau(  22) = (   6.5628702   0.1917167  17.2472498  )
        23           O1  tau(  23) = (   1.3043587   1.4918075   6.0039043  )
        24           O1  tau(  24) = (   5.2767064   1.4903225   6.0039473  )
        25           Ti1 tau(  25) = (   0.0000382   5.9609847   6.0000000  )
        26           Ti1 tau(  26) = (   3.2902200   4.4714249   6.0002472  )
        27           O1  tau(  27) = (   0.0002396   2.9813036   7.9858123  )
        28           O1  tau(  28) = (   3.2902150   2.9813002   7.3038282  )
        29           O1  tau(  29) = (   4.5938453   4.4726049   9.2879030  )
        30           O1  tau(  30) = (   1.9864658   4.4711199   9.2879459  )
        31           Ti1 tau(  31) = (   3.2891106   5.8743827   9.1763621  )
        32           Ti1 tau(  32) = (   0.0006254   4.4649316   9.2693709  )
        33           O1  tau(  33) = (   3.2975917   2.9887808  11.3748511  )
        34           O1  tau(  34) = (   0.0092240   2.9805883  10.6323155  )
        35           O1  tau(  35) = (   1.2927870   4.4849180  12.6503915  )
        36           O1  tau(  36) = (   5.2959677   4.4879952  12.6460094  )
        37           Ti1 tau(  37) = (   0.0189062   0.0134437  12.4995343  )
        38           Ti1 tau(  38) = (   3.3131396   4.4925875  12.5257625  )
        39           O1  tau(  39) = (   6.5658147   3.0796170  14.9398047  )
        40           O1  tau(  40) = (   3.2912769   3.0351834  13.9531456  )
        41           O1  tau(  41) = (   4.5372935   4.5058929  16.2491503  )
        42           O1  tau(  42) = (   2.0060561   4.4992570  16.2466123  )
        43           Ti1 tau(  43) = (   3.3106529   0.0781036  15.8389635  )
        44           Ti1 tau(  44) = (   0.0259428   4.5566345  16.0434284  )
        45           O1  tau(  45) = (   3.2900926   2.9813045   4.7018136  )
        46           O1  tau(  46) = (   1.3039711   4.4726057   6.0039043  )
        47           O1  tau(  47) = (   5.2763189   4.4711207   6.0039473  )
        48           N1  tau(  48) = (   6.3514164   3.3085518  18.1544664  )
        49           C1  tau(  49) = (   0.8695967   3.1501053  19.1301808  )
        50           H1  tau(  50) = (   1.3785670   4.1152268  19.2416751  )
        51           H1  tau(  51) = (   0.5086663   2.8389580  20.1145987  )
        52           H1  tau(  52) = (   1.5779067   2.4119510  18.7640910  )
        53           H1  tau(  53) = (   5.7211048   4.0382881  18.4729098  )
        54           H1  tau(  54) = (   5.7931489   2.4557210  18.1309407  )
        55           O1  tau(  55) = (   3.2817172   0.3149129  18.3340421  )
        56           H1  tau(  56) = (   4.0380937   5.6864266  18.4726034  )
        57           H1  tau(  57) = (   2.4816286   5.7371253  18.4434621  )

     number of k points=    10  Fermi-Dirac smearing, width (Ry)=  0.0073
                       cart. coord. in units 2pi/alat
        k(    1) = (   0.0000000   0.0000000   0.0000000), wk =   0.1250000
        k(    2) = (   0.0000000   0.0419351   0.0000000), wk =   0.2500000
        k(    3) = (   0.0000000  -0.0838702   0.0000000), wk =   0.1250000
        k(    4) = (   0.0379955   0.0000049   0.0000000), wk =   0.2500000
        k(    5) = (   0.0379955   0.0419400   0.0000000), wk =   0.2500000
        k(    6) = (   0.0379955  -0.0838652   0.0000000), wk =   0.2500000
        k(    7) = (   0.0379955  -0.0419301   0.0000000), wk =   0.2500000
        k(    8) = (  -0.0759910  -0.0000099   0.0000000), wk =   0.1250000
        k(    9) = (  -0.0759910   0.0419252   0.0000000), wk =   0.2500000
        k(   10) = (  -0.0759910  -0.0838800   0.0000000), wk =   0.1250000

     Initial potential from superposition of free atoms

     starting charge  383.99913, renormalised to  400.00000

     negative rho (up, down):  1.554E-02 0.000E+00

     %%%%%%%%%%%%%%%%%%%%%%%%%%%%%%%%%%%%%%%%%%%%%%%%%%%%%%%%%%%%%%%%%%%%%%%%
     %                                                                      %
     % You are using vdW-DF, which was implemented by the Thonhauser group. %
     % Please cite the following two papers that made this development      %
     % possible and the two reviews that describe the various versions:     %
     %                                                                      %
     %   T. Thonhauser et al., PRL 115, 136402 (2015).                      %
     %   T. Thonhauser et al., PRB 76, 125112 (2007).                       %
     %   K. Berland et al., Rep. Prog. Phys. 78, 066501 (2015).             %
     %   D.C. Langreth et al., J. Phys.: Condens. Matter 21, 084203 (2009). %
     %                                                                      %
     %                                                                      %
     % If you are calculating the stress with vdW-DF, please also cite:     %
     %                                                                      %
     %   R. Sabatini et al., J. Phys.: Condens. Matter 24, 424209 (2012).   %
     %                                                                      %
     %%%%%%%%%%%%%%%%%%%%%%%%%%%%%%%%%%%%%%%%%%%%%%%%%%%%%%%%%%%%%%%%%%%%%%%%

     Adding external electric field

     Computed dipole along edir(3) :
        Dipole              -12.0858 Ry au,        -30.7189 Debye
        Dipole field         -0.0228 Ry au,

        Potential amp.        2.1142 Ry
        Total length         46.3494 bohr

     Starting wfcs are  303 atomic wfcs
  @ DRIVER MODE: Message from server: STATUS
  @ DRIVER MODE: Message from server: POSDATA
  @ DRIVER MODE: Reading and sharing cell
  @ DRIVER MODE: Reading and sharing positions
  @ DRIVER MODE: Received positions

     Self-consistent Calculation

     iteration #  1     ecut=    29.40 Ry     beta= 0.05
     Davidson diagonalization with overlap
     c_bands:  2 eigenvalues not converged
     c_bands:  2 eigenvalues not converged
     c_bands:  3 eigenvalues not converged
     c_bands:  4 eigenvalues not converged
     c_bands:  2 eigenvalues not converged
     c_bands:  1 eigenvalues not converged
     c_bands:  4 eigenvalues not converged
     c_bands:  4 eigenvalues not converged
     c_bands:  5 eigenvalues not converged
     ethr =  1.00E-05,  avg # of iterations = 22.0

[...]

     total energy              =   -2384.80053795 Ry
     estimated scf accuracy    <    6450.92738459 Ry

     iteration #  2     ecut=    29.40 Ry     beta= 0.05
     Davidson diagonalization with overlap
     ethr =  1.00E-02,  avg # of iterations = 26.2

[...]

     iteration # 69     ecut=    29.40 Ry     beta= 0.05
     Davidson diagonalization with overlap
     c_bands:  1 eigenvalues not converged
     ethr =  1.34E-10,  avg # of iterations = 12.6

[...]

     total energy              =   -2956.45475936 Ry
     estimated scf accuracy    <       0.00000019 Ry

     iteration # 71     ecut=    29.40 Ry     beta= 0.05
     Davidson diagonalization with overlap
     ethr =  4.73E-11,  avg # of iterations = 10.6

     negative rho (up, down):  1.589E-02 0.000E+00

     Adding external electric field

     Computed dipole along edir(3) :
        Dipole                1.4037 Ry au,          3.5678 Debye
        Dipole field          0.0026 Ry au,

        Potential amp.       -0.2456 Ry
        Total length         46.3494 bohr

     End of self-consistent calculation

          k = 0.0000 0.0000 0.0000 ( 18029 PWs)   bands (ev):

   -55.2162 -55.1789 -55.1735 -55.1475 -55.1394 -55.1188 -55.0973 -55.0623
   -55.0421 -55.0073 -55.0041 -54.9950 -54.9705 -54.9350 -54.2039 -54.1699
   -31.7796 -31.6897 -31.6661 -31.5860 -31.5309 -31.5258 -31.5172 -31.5097
   -31.4624 -31.4387 -31.4272 -31.4182 -31.4138 -31.4119 -31.3881 -31.3849
   -31.3626 -31.3613 -31.3541 -31.3386 -31.3261 -31.3180 -31.3027 -31.2936
   -31.2875 -31.2747 -31.2724 -31.2434 -31.2307 -31.2282 -31.2229 -31.2028
   -31.1999 -31.1923 -31.1882 -31.1714 -31.1553 -31.1410 -31.1334 -31.1322
   -31.1152 -31.1129 -30.6134 -30.5190 -30.4969 -30.4296 -30.3428 -30.2321
   -19.2336 -16.1563 -16.0250 -15.7763 -15.6345 -15.5400 -15.4200 -15.3045
   -15.2399 -15.1260 -15.0678 -14.9325 -14.9172 -14.9051 -14.8804 -14.8473
   -14.8087 -14.7610 -14.7596 -14.7360 -14.7155 -14.7068 -14.6650 -14.6577
   -14.6181 -14.5967 -14.5954 -14.4603 -14.3790 -14.3088 -14.1232 -12.7062
   -12.5887 -10.2553  -7.0281  -6.2709  -4.8299  -3.9291  -3.4027  -3.3423
    -3.2380  -3.1486  -3.1250  -3.1138  -2.9767  -2.8729  -2.7465  -2.6663
    -2.6349  -2.4984  -2.4250  -2.4139  -2.3811  -2.2659  -2.2137  -2.1871
    -2.1540  -2.0828  -2.0345  -2.0240  -2.0062  -1.9753  -1.9601  -1.9260
    -1.8723  -1.7874  -1.7560  -1.6533  -1.6155  -1.5855  -1.5758  -1.5513
    -1.5343  -1.5096  -1.5032  -1.4425  -1.4392  -1.4094  -1.3632  -1.2484
    -1.0859  -1.0224  -0.9510  -0.8586  -0.8104  -0.7968  -0.7273  -0.7168
    -0.7034  -0.5998  -0.5667  -0.5545  -0.4572  -0.4254  -0.3871  -0.3147
    -0.2432  -0.2154  -0.2023  -0.0869  -0.0220  -0.0038   0.0159   0.0229
     0.1128   0.1858   0.2336   0.2851   0.3259   0.3332   0.3988   0.4311
     0.4990   0.5508   0.5687   0.6559   0.7008   0.7134   0.7196   0.7529
     0.7648   0.8266   0.8629   0.8872   0.9739   1.0891   1.2415   1.3830
     1.3908   1.7238   1.7247   1.8191   2.0029   2.3955   2.4438   3.8769
     3.9496   4.0088   4.0221   4.0276   4.1127   4.3593   4.3813   4.3871
     4.3972   4.4258

[...]

          k = 0.0380-0.0419 0.0000 ( 17876 PWs)   bands (ev):

[...]

          k =-0.0760-0.0000 0.0000 ( 17886 PWs)   bands (ev):

[...]

          k =-0.0760-0.0839 0.0000 ( 17948 PWs)   bands (ev):

   -55.2025 -55.1923 -55.1566 -55.1562 -55.1458 -55.1165 -55.0830 -55.0765
   -55.0275 -55.0215 -54.9973 -54.9877 -54.9871 -54.9365 -54.1870 -54.1866
   -31.6083 -31.5884 -31.5796 -31.4813 -31.4810 -31.4770 -31.4696 -31.4477
   -31.4475 -31.4278 -31.4200 -31.4133 -31.4059 -31.3914 -31.3740 -31.3592
   -31.3564 -31.3540 -31.3520 -31.3500 -31.3426 -31.3401 -31.3230 -31.3169
   -31.2964 -31.2960 -31.2773 -31.2763 -31.2759 -31.2740 -31.2688 -31.2607
   -31.2531 -31.2404 -31.2346 -31.2201 -31.2170 -31.1993 -31.1727 -31.1682
   -31.1672 -31.1466 -30.5097 -30.5094 -30.4260 -30.4257 -30.3863 -30.3861
   -19.2327 -16.1103 -15.5986 -15.4846 -15.3588 -15.2490 -15.2282 -15.1817
   -15.1328 -15.0825 -15.0304 -15.0021 -14.9813 -14.9723 -14.9294 -14.9192
   -14.9000 -14.8345 -14.8190 -14.8079 -14.7841 -14.7367 -14.7284 -14.7208
   -14.7168 -14.6709 -14.6668 -14.6188 -14.5755 -14.5717 -14.3919 -12.6903
   -12.6901 -10.2569  -7.0546  -6.2039  -4.8307  -3.9451  -3.2401  -2.9695
    -2.7501  -2.6982  -2.6097  -2.4662  -2.4222  -2.3774  -2.3464  -2.2848
    -2.2342  -2.2192  -2.2072  -2.1310  -2.1041  -2.0959  -2.0632  -2.0515
    -2.0414  -2.0033  -1.9824  -1.9572  -1.9488  -1.9379  -1.9353  -1.9256
    -1.8674  -1.8550  -1.8446  -1.8408  -1.7821  -1.7706  -1.7558  -1.7417
    -1.5974  -1.5791  -1.4283  -1.4248  -1.4024  -1.3500  -1.3384  -1.2977
    -1.2545  -1.2451  -1.2183  -0.9743  -0.9652  -0.9620  -0.9299  -0.8965
    -0.8587  -0.7971  -0.7680  -0.6982  -0.6900  -0.5740  -0.5579  -0.4425
    -0.4341  -0.4216  -0.3384  -0.2894  -0.2413  -0.2022  -0.1853  -0.1748
    -0.1580  -0.1216  -0.1192  -0.0219   0.0142   0.0450   0.0583   0.0979
     0.2746   0.3034   0.3191   0.4631   0.4706   0.6302   0.6811   0.7092
     0.7996   0.8599   0.8943   0.9382   1.0741   1.0873   1.1051   1.1595
     1.1826   1.2319   1.2450   2.1752   2.1766   2.2637   2.2638   4.0220
     4.1313   4.1405   4.1982   4.3095   4.3183   4.3920   4.4232   4.4608
     4.4644   4.5284

     the Fermi energy is     3.9391 ev

!    total energy              =   -2956.45478216 Ry
     estimated scf accuracy    <       0.00000006 Ry
     smearing contrib. (-TS)   =      -0.03685249 Ry
     internal energy E=F+TS    =   -2956.41792967 Ry

     The total energy is F=E-TS. E is the sum of the following terms:
     one-electron contribution =  -23693.56080984 Ry
     hartree contribution      =   11942.28135111 Ry
     xc contribution           =    -490.60700287 Ry
     ewald contribution        =    9285.46481373 Ry
     electric field correction =       0.00371821 Ry

     convergence has been achieved in  71 iterations

     Forces acting on atoms (cartesian axes, Ry/au):

     atom    1 type  1   force =    -0.00000698   -0.00026781    0.09336468
     atom    2 type  1   force =    -0.00007235   -0.00034914   -0.17815578
     atom    3 type  2   force =     0.00004522   -0.00030440   -0.02033433
     atom    4 type  2   force =    -0.00003539   -0.00184925    0.05915322
     atom    5 type  2   force =    -0.01020915   -0.00060768    0.00751991
     atom    6 type  2   force =     0.01173742    0.00022177    0.00684942
     atom    7 type  1   force =    -0.00030744    0.00187388   -0.01237712
     atom    8 type  1   force =     0.00016436    0.00082135   -0.00450104
     atom    9 type  2   force =     0.00038465   -0.00015752   -0.00081427
     atom   10 type  2   force =    -0.00141777    0.00414909   -0.00109153
     atom   11 type  2   force =    -0.00086424   -0.00030643    0.00018971
     atom   12 type  2   force =     0.00087825   -0.00005847    0.00004973
     atom   13 type  1   force =    -0.00012641   -0.00022639    0.00011178
     atom   14 type  1   force =    -0.00004582   -0.00010475    0.00003960
     atom   15 type  2   force =    -0.00066808   -0.00002590   -0.00007141
     atom   16 type  2   force =    -0.00010795    0.00022779   -0.00042302
     atom   17 type  2   force =     0.00030215   -0.00072415   -0.00001395
     atom   18 type  2   force =     0.00078547   -0.00064265   -0.00026034
     atom   19 type  1   force =    -0.00080149    0.00016570    0.00150838
     atom   20 type  1   force =     0.00076948   -0.00074064    0.00038545
     atom   21 type  2   force =     0.00002139   -0.00010890    0.10397413
     atom   22 type  2   force =     0.00008675   -0.00062271    0.00034801
     atom   23 type  2   force =    -0.07043020   -0.00021086   -0.02691945
     atom   24 type  2   force =     0.07026566    0.00022968   -0.02697306
     atom   25 type  1   force =    -0.00005695   -0.00021778    0.09286727
     atom   26 type  1   force =    -0.00020056   -0.00053593   -0.17842098
     atom   27 type  2   force =     0.00007078   -0.00014000   -0.01930492
     atom   28 type  2   force =     0.00005452   -0.00157608    0.05816334
     atom   29 type  2   force =    -0.01091147   -0.00007015    0.00844384
     atom   30 type  2   force =     0.01231830    0.00011833    0.00772707
     atom   31 type  1   force =    -0.00029466    0.00669136   -0.01505247
     atom   32 type  1   force =     0.00011106   -0.00072053   -0.00470649
     atom   33 type  2   force =    -0.00022052    0.00035241   -0.00052766
     atom   34 type  2   force =    -0.00111233   -0.00023676   -0.00041166
     atom   35 type  2   force =    -0.00019063   -0.00011912   -0.00015869
     atom   36 type  2   force =     0.00027087   -0.00036360   -0.00025830
     atom   37 type  1   force =     0.00023719   -0.00018266    0.00022204
     atom   38 type  1   force =    -0.00011555    0.00068496    0.00064248
     atom   39 type  2   force =     0.00013116   -0.00113047    0.00100723
     atom   40 type  2   force =     0.00026294    0.00099789   -0.00063916
     atom   41 type  2   force =    -0.00019720    0.00020737   -0.00027670
     atom   42 type  2   force =     0.00117809    0.00020305   -0.00052141
     atom   43 type  1   force =    -0.00113681    0.00001244    0.00040137
     atom   44 type  1   force =     0.00037960   -0.00118389    0.00105926
     atom   45 type  2   force =     0.00001320   -0.00011329    0.10392356
     atom   46 type  2   force =    -0.07039618   -0.00012268   -0.02688714
     atom   47 type  2   force =     0.07025278    0.00028802   -0.02695373
     atom   48 type  3   force =     0.00067781   -0.00011200   -0.00053968
     atom   49 type  4   force =     0.00379186    0.00913067    0.00078907
     atom   50 type  5   force =    -0.00441821   -0.01069085   -0.00059879
     atom   51 type  5   force =     0.00007614   -0.00027929   -0.00059194
     atom   52 type  5   force =     0.00037165    0.00070875   -0.00046298
     atom   53 type  5   force =     0.00002361    0.00011806   -0.00060448
     atom   54 type  5   force =     0.00000474   -0.00024606   -0.00070714
     atom   55 type  2   force =     0.00035729   -0.00078367    0.00057421
     atom   56 type  5   force =    -0.00076780   -0.00017352    0.00016761
     atom   57 type  5   force =    -0.00091227   -0.00089657    0.00007726

     Total force =     0.366596     Total SCF correction =     0.000566
  @ DRIVER MODE: Message from server: STATUS
  @ DRIVER MODE: Message from server: GETFORCE
  @ DRIVER MODE: Returning v,forces,stress,ensemble

     Writing output data file ./calc.save/
  @ DRIVER MODE: Message from server: EXIT
  @ DRIVE MODE: Exiting

     General routines

     Parallel routines

   This run was terminated on:  21:17:44  22Sep2021

   JOB DONE.