     Program PWSCF v.6.7GPU starts on 15Sep2021 at 15:12:16

     R & G space division:  proc/nbgrp/npool/nimage =      10
     Reading input from /storage/home/hcoda1/3/ntian30/research/carbon/CxH_vib/CH_calc/ads_slab/CHOH_d/out_0021/pw.inp
Warning: card &CELL ignored
Warning: card   CELL_DYNAMICS='IPI', ignored
Warning: card / ignored

     Current dimensions of program PWSCF are:
     Max number of different atomic species (ntypx) = 10
     Max number of k-points (npk) =  40000
     Max angular momentum in pseudopotentials (lmaxx) =  3
     Presently no symmetry can be used with electric field

     Message from routine cell_base_init:
     DEPRECATED: use true lattice parameter, not A to a.u. conversion factor

     IMPORTANT: XC functional enforced from input :
     Exchange-correlation= BEEF-VDW
                           (   1   4  43  14   2   0   0)
     Any further DFT definition will be discarded
     Please, verify this is what you really want

  @ DRIVER MODE: Connecting to
 qe_1139763_2850204.sched-torque.pace.gatech.educ9louukp_scratch
  using UNIX socket
  @ DRIVER MODE: Message from server: STATUS
  @ DRIVER MODE: Message from server: INIT
  @ DRIVER MODE: Receiving replica           0          -1
  @ DRIVER MODE: Receiving encoded integer          25
  @ DRIVER MODE:  SCF:  T  FORCE:  T  STRESS:  F  VC:  F  ENSEMBLE:  F
  @ DRIVER MODE:  SCF:  T  FORCE:  T  STRESS:  F  VC:  F  ENSEMBLE:  F

     Using Slab Decomposition

     bravais-lattice index     =            0
     lattice parameter (alat)  =       1.8897  a.u.
     unit-cell volume          =    6658.9804 (a.u.)^3
     number of atoms/cell      =           51
     number of atomic types    =            4
     number of electrons       =       390.00
     number of Kohn-Sham states=          205
     kinetic-energy cutoff     =      29.3995  Ry
     charge density cutoff     =     293.9946  Ry
     scf convergence threshold =      7.3E-08
     mixing beta               =       0.0500
     number of iterations used =            8  plain     mixing
     Exchange-correlation= BEEF-VDW
                           (   1   4  43  14   2   0   0)

     celldm(1)=   1.889726  celldm(2)=   0.000000  celldm(3)=   0.000000
     celldm(4)=   0.000000  celldm(5)=   0.000000  celldm(6)=   0.000000

     crystal axes: (cart. coord. in units of alat)
               a(1) = (   6.579727   0.000000   0.000000 )
               a(2) = (  -0.000775   5.961596   0.000000 )
               a(3) = (   0.000000   0.000000  25.155947 )

     reciprocal axes: (cart. coord. in units 2 pi/alat)
               b(1) = (  0.151982  0.000020  0.000000 )
               b(2) = (  0.000000  0.167740  0.000000 )
               b(3) = (  0.000000  0.000000  0.039752 )

     PseudoPot. # 1 for Ti read from file:
     /storage/coda1/p-amedford6/0/shared/rich_project_chbe-medford/medford-share/data/pseudos_module/espresso/nninc/pbe/van/Ti.UPF
     MD5 check sum: 8e4df49b7f0d34bbd5052bf3f5ea0213
     Pseudo is Ultrasoft, Zval = 12.0
     Generated by new atomic code, or converted to UPF format
     Using radial grid of  851 points,  6 beta functions with:
                l(1) =   0
                l(2) =   0
                l(3) =   1
                l(4) =   1
                l(5) =   2
                l(6) =   2
     Q(r) pseudized with  8 coefficients,  rinner =    1.000   1.000   1.000
                                                       1.000   1.000

     PseudoPot. # 2 for O  read from file:
     /storage/coda1/p-amedford6/0/shared/rich_project_chbe-medford/medford-share/data/pseudos_module/espresso/nninc/pbe/van/O.UPF
     MD5 check sum: 78c19812648e8988a0fe644b0f25305e
     Pseudo is Ultrasoft, Zval =  6.0
     Generated by new atomic code, or converted to UPF format
     Using radial grid of  737 points,  4 beta functions with:
                l(1) =   0
                l(2) =   0
                l(3) =   1
                l(4) =   1
     Q(r) pseudized with  8 coefficients,  rinner =    0.800   0.800   0.800

     PseudoPot. # 3 for C  read from file:
     /storage/coda1/p-amedford6/0/shared/rich_project_chbe-medford/medford-share/data/pseudos_module/espresso/nninc/pbe/van/C.UPF
     MD5 check sum: 1a69bf6b8db32088f5b2163dbdb77a27
     Pseudo is Ultrasoft, Zval =  4.0
     Generated by new atomic code, or converted to UPF format
     Using radial grid of  721 points,  4 beta functions with:
                l(1) =   0
                l(2) =   0
                l(3) =   1
                l(4) =   1
     Q(r) pseudized with  8 coefficients,  rinner =    0.800   0.800   0.800

     PseudoPot. # 4 for H  read from file:
     /storage/coda1/p-amedford6/0/shared/rich_project_chbe-medford/medford-share/data/pseudos_module/espresso/nninc/pbe/van/H.UPF
     MD5 check sum: b5ee9d7bfd3a09ee7748110bda690ff7
     Pseudo is Ultrasoft, Zval =  1.0
     Generated by new atomic code, or converted to UPF format
     Using radial grid of  615 points,  1 beta functions with:
                l(1) =   0
     Q(r) pseudized with  8 coefficients,  rinner =    0.800

     atomic species   valence    mass     pseudopotential
        Ti1           12.00    47.86700     Ti( 1.00)
        O1             6.00    15.99900     O ( 1.00)
        C1             4.00    12.01100     C ( 1.00)
        H1             1.00     1.00800     H ( 1.00)

     No symmetry found

   Cartesian axes

     site n.     atom                  positions (alat units)
         1           Ti1 tau(   1) = (   0.0004258   2.9801865   6.0000000  )
         2           Ti1 tau(   2) = (   3.2906075   1.4906267   6.0002472  )
         3           O1  tau(   3) = (   0.0006271   0.0005054   7.9858123  )
         4           O1  tau(   4) = (   3.2906025   0.0005020   7.3038282  )
         5           O1  tau(   5) = (   4.5942328   1.4918067   9.2879030  )
         6           O1  tau(   6) = (   1.9868534   1.4903216   9.2879459  )
         7           Ti1 tau(   7) = (   3.2907309   2.9776765   9.1658812  )
         8           Ti1 tau(   8) = (   0.0000975   1.4630848   9.2758602  )
         9           O1  tau(   9) = (   3.2992614   5.9483050  11.3479409  )
        10           O1  tau(  10) = (   0.0007063   5.9515697  10.5933799  )
        11           O1  tau(  11) = (   1.2886368   1.4758772  12.6169360  )
        12           O1  tau(  12) = (   5.2821765   1.4725572  12.6321404  )
        13           Ti1 tau(  13) = (   0.0439011   2.9969894  12.8193871  )
        14           Ti1 tau(  14) = (   3.3815342   1.4778063  12.4828959  )
        15           O1  tau(  15) = (   0.0352585   5.9375929  14.6168471  )
        16           O1  tau(  16) = (   3.2809659   0.0029960  13.9351646  )
        17           O1  tau(  17) = (   4.5639172   1.5021510  16.0678584  )
        18           O1  tau(  18) = (   2.0588050   1.5241738  16.1323679  )
        19           Ti1 tau(  19) = (   3.3289217   2.9983165  15.7225387  )
        20           Ti1 tau(  20) = (   0.0567091   1.5532474  16.1006893  )
        21           O1  tau(  21) = (   3.2904802   0.0005063   4.7018136  )
        22           O1  tau(  22) = (   0.0083150   5.8936170  17.2391820  )
        23           O1  tau(  23) = (   1.3043587   1.4918075   6.0039043  )
        24           O1  tau(  24) = (   5.2767064   1.4903225   6.0039473  )
        25           Ti1 tau(  25) = (   0.0000382   5.9609847   6.0000000  )
        26           Ti1 tau(  26) = (   3.2902200   4.4714249   6.0002472  )
        27           O1  tau(  27) = (   0.0002396   2.9813036   7.9858123  )
        28           O1  tau(  28) = (   3.2902150   2.9813002   7.3038282  )
        29           O1  tau(  29) = (   4.5938453   4.4726049   9.2879030  )
        30           O1  tau(  30) = (   1.9864658   4.4711199   9.2879459  )
        31           Ti1 tau(  31) = (   3.2906741   5.9584693   9.1623309  )
        32           Ti1 tau(  32) = (   0.0020182   4.4105903   9.4029630  )
        33           O1  tau(  33) = (   3.2963946   2.9714859  11.3431964  )
        34           O1  tau(  34) = (  -0.0003580   2.9688738  10.5596877  )
        35           O1  tau(  35) = (   1.2880207   4.4560207  12.6239755  )
        36           O1  tau(  36) = (   5.2744328   4.4398676  12.6388197  )
        37           Ti1 tau(  37) = (   0.0843456   0.0234473  12.6131129  )
        38           Ti1 tau(  38) = (   3.3736736   4.4543396  12.4891683  )
        39           O1  tau(  39) = (   0.0394168   2.9432389  14.6713939  )
        40           O1  tau(  40) = (   3.2833495   2.9670780  13.9230463  )
        41           O1  tau(  41) = (   4.5592427   4.4833083  16.0293399  )
        42           O1  tau(  42) = (   2.0780377   4.4655606  16.1075158  )
        43           Ti1 tau(  43) = (   3.3267552   0.0098278  15.7307941  )
        44           Ti1 tau(  44) = (   0.0353388   4.6693566  15.9825682  )
        45           O1  tau(  45) = (   3.2900926   2.9813045   4.7018136  )
        46           C1  tau(  46) = (   6.5364748   2.8130622  17.7364117  )
        47           O1  tau(  47) = (   1.3039711   4.4726057   6.0039043  )
        48           O1  tau(  48) = (   5.2763189   4.4711207   6.0039473  )
        49           H1  tau(  49) = (   0.8622447   3.0922372  18.2894884  )
        50           O1  tau(  50) = (   5.4077661   2.9637287  18.5068037  )
        51           H1  tau(  51) = (   5.6109787   3.4246953  19.3318178  )

     number of k points=    10  Fermi-Dirac smearing, width (Ry)=  0.0073
                       cart. coord. in units 2pi/alat
        k(    1) = (   0.0000000   0.0000000   0.0000000), wk =   0.1250000
        k(    2) = (   0.0000000   0.0419351   0.0000000), wk =   0.2500000
        k(    3) = (   0.0000000  -0.0838702   0.0000000), wk =   0.1250000
        k(    4) = (   0.0379955   0.0000049   0.0000000), wk =   0.2500000
        k(    5) = (   0.0379955   0.0419400   0.0000000), wk =   0.2500000
        k(    6) = (   0.0379955  -0.0838652   0.0000000), wk =   0.2500000
        k(    7) = (   0.0379955  -0.0419301   0.0000000), wk =   0.2500000
        k(    8) = (  -0.0759910  -0.0000099   0.0000000), wk =   0.1250000
        k(    9) = (  -0.0759910   0.0419252   0.0000000), wk =   0.2500000
        k(   10) = (  -0.0759910  -0.0838800   0.0000000), wk =   0.1250000

     Initial potential from superposition of free atoms

     starting charge  373.99919, renormalised to  390.00000

     negative rho (up, down):  1.919E-02 0.000E+00

     %%%%%%%%%%%%%%%%%%%%%%%%%%%%%%%%%%%%%%%%%%%%%%%%%%%%%%%%%%%%%%%%%%%%%%%%
     %                                                                      %
     % You are using vdW-DF, which was implemented by the Thonhauser group. %
     % Please cite the following two papers that made this development      %
     % possible and the two reviews that describe the various versions:     %
     %                                                                      %
     %   T. Thonhauser et al., PRL 115, 136402 (2015).                      %
     %   T. Thonhauser et al., PRB 76, 125112 (2007).                       %
     %   K. Berland et al., Rep. Prog. Phys. 78, 066501 (2015).             %
     %   D.C. Langreth et al., J. Phys.: Condens. Matter 21, 084203 (2009). %
     %                                                                      %
     %                                                                      %
     % If you are calculating the stress with vdW-DF, please also cite:     %
     %                                                                      %
     %   R. Sabatini et al., J. Phys.: Condens. Matter 24, 424209 (2012).   %
     %                                                                      %
     %%%%%%%%%%%%%%%%%%%%%%%%%%%%%%%%%%%%%%%%%%%%%%%%%%%%%%%%%%%%%%%%%%%%%%%%

     Adding external electric field

     Computed dipole along edir(3) :
        Dipole               -4.8494 Ry au,        -12.3260 Debye
        Dipole field         -0.0092 Ry au,

        Potential amp.        0.8483 Ry
        Total length         46.3494 bohr

     Starting wfcs are  294 atomic wfcs
  @ DRIVER MODE: Message from server: STATUS
  @ DRIVER MODE: Message from server: POSDATA
  @ DRIVER MODE: Reading and sharing cell
  @ DRIVER MODE: Reading and sharing positions
  @ DRIVER MODE: Received positions

     Self-consistent Calculation

     iteration #  1     ecut=    29.40 Ry     beta= 0.05
     Davidson diagonalization with overlap
     c_bands:  4 eigenvalues not converged
     c_bands:  3 eigenvalues not converged
     c_bands:  3 eigenvalues not converged
     c_bands:  2 eigenvalues not converged
     c_bands:  2 eigenvalues not converged
     c_bands:  3 eigenvalues not converged
     c_bands:  1 eigenvalues not converged
     ethr =  1.00E-05,  avg # of iterations = 19.3

[...]

     total energy              =   -2871.32455667 Ry
     estimated scf accuracy    <     672.84322955 Ry

     iteration #  2     ecut=    29.40 Ry     beta= 0.05
     Davidson diagonalization with overlap
     ethr =  1.00E-02,  avg # of iterations = 15.5

[...]

     iteration # 33     ecut=    29.40 Ry     beta= 0.05
     Davidson diagonalization with overlap
     c_bands:  2 eigenvalues not converged
     c_bands:  1 eigenvalues not converged
     c_bands:  2 eigenvalues not converged
     c_bands:  2 eigenvalues not converged
     ethr =  2.56E-06,  avg # of iterations = 18.2

[...]

     total energy              =   -2930.03902883 Ry
     estimated scf accuracy    <       0.00000009 Ry

     iteration # 65     ecut=    29.40 Ry     beta= 0.05
     Davidson diagonalization with overlap
     ethr =  2.28E-11,  avg # of iterations =  6.0

     negative rho (up, down):  1.868E-02 0.000E+00

     Adding external electric field

     Computed dipole along edir(3) :
        Dipole                0.8330 Ry au,          2.1173 Debye
        Dipole field          0.0016 Ry au,

        Potential amp.       -0.1457 Ry
        Total length         46.3494 bohr

     End of self-consistent calculation

          k = 0.0000 0.0000 0.0000 ( 18029 PWs)   bands (ev):

   -56.0424 -56.0067 -55.9844 -55.9482 -55.9052 -55.8361 -55.8355 -55.7462
   -55.7301 -55.7040 -55.6959 -55.5667 -55.1262 -55.0483 -54.9795 -54.9455
   -32.5372 -32.4931 -32.3467 -32.3210 -32.3055 -32.3028 -32.2898 -32.2302
   -32.2119 -32.2013 -32.2003 -32.1844 -32.1665 -32.1565 -32.1342 -32.1287
   -32.1200 -32.1181 -32.1168 -32.0484 -32.0218 -32.0145 -31.9940 -31.9765
   -31.9629 -31.9558 -31.9543 -31.9479 -31.9177 -31.9139 -31.8726 -31.8673
   -31.8252 -31.7803 -31.7634 -31.7546 -31.6140 -31.4974 -31.4124 -31.3901
   -31.3869 -31.2962 -31.2733 -31.2036 -31.1817 -31.1175 -31.0808 -31.0065
   -19.4586 -16.6925 -16.3826 -16.2260 -16.0771 -16.0721 -15.9683 -15.6990
   -15.6379 -15.5243 -15.5165 -15.5088 -15.4801 -15.4721 -15.4533 -15.4343
   -15.4100 -15.3962 -15.3885 -15.3486 -15.3005 -15.2228 -15.2010 -15.1473
   -15.1054 -15.1017 -15.0657 -14.9189 -14.9045 -14.5938 -13.4798 -13.3631
    -8.8234  -5.8981  -4.0605  -3.9029  -3.8726  -3.8559  -3.7362  -3.5035
    -3.4407  -3.1551  -3.1086  -3.1022  -3.0961  -3.0155  -2.9470  -2.8657
    -2.7994  -2.7542  -2.7257  -2.7198  -2.7138  -2.7104  -2.6712  -2.6414
    -2.5661  -2.5171  -2.4373  -2.3912  -2.3691  -2.3412  -2.3397  -2.3010
    -2.2170  -2.2116  -2.1616  -2.1534  -2.0868  -2.0705  -2.0373  -1.9757
    -1.8052  -1.7690  -1.7317  -1.6885  -1.6283  -1.4121  -1.3905  -1.3817
    -1.3544  -1.3232  -1.2707  -1.2565  -1.1288  -1.0938  -1.0431  -1.0171
    -0.9466  -0.9229  -0.8315  -0.8094  -0.7549  -0.7403  -0.6979  -0.6828
    -0.6343  -0.4479  -0.3977  -0.3552  -0.3221  -0.2819  -0.2309  -0.2282
    -0.1675  -0.1222  -0.1121  -0.1024  -0.0099   0.0181   0.0327   0.0511
     0.0580   0.1569   0.1687   0.2386   0.2989   0.4724   0.4766   0.6090
     0.6434   0.6729   0.7074   0.8346   0.9625   1.0441   1.1774   1.2265
     1.6334   1.7004   2.8960   3.1817   3.2637   3.3222   3.3423   3.4202
     3.5727   3.6288   3.6657   3.6891   3.7259

[...]

          k = 0.0380-0.0419 0.0000 ( 17876 PWs)   bands (ev):

[...]

          k =-0.0760-0.0000 0.0000 ( 17886 PWs)   bands (ev):

[...]

          k =-0.0760-0.0839 0.0000 ( 17948 PWs)   bands (ev):

   -56.0302 -56.0188 -55.9681 -55.9643 -55.9006 -55.8400 -55.8329 -55.7494
   -55.7141 -55.7115 -55.7020 -55.5688 -55.1227 -55.0517 -54.9629 -54.9620
   -32.3415 -32.3389 -32.3158 -32.3109 -32.3040 -32.2957 -32.2756 -32.2434
   -32.1952 -32.1919 -32.1887 -32.1670 -32.1632 -32.1587 -32.1575 -32.1269
   -32.1172 -32.1000 -32.0681 -32.0502 -32.0444 -32.0268 -32.0263 -32.0197
   -32.0060 -31.9747 -31.9652 -31.9615 -31.9605 -31.9219 -31.9114 -31.9085
   -31.8878 -31.8786 -31.7934 -31.7697 -31.5338 -31.4959 -31.4087 -31.3923
   -31.2865 -31.2855 -31.2688 -31.2002 -31.1996 -31.1610 -31.1602 -31.0844
   -19.4581 -16.1364 -16.1217 -15.8722 -15.8647 -15.7865 -15.7504 -15.6783
   -15.6770 -15.6608 -15.6421 -15.6124 -15.5750 -15.5337 -15.5144 -15.4998
   -15.4744 -15.4687 -15.4493 -15.4052 -15.3949 -15.2622 -15.2523 -15.2467
   -15.2427 -15.2090 -15.1593 -15.1267 -15.0774 -14.6932 -13.4655 -13.4638
    -8.8299  -5.9067  -3.4301  -3.4151  -3.0980  -3.0928  -3.0268  -2.9895
    -2.9114  -2.8918  -2.8326  -2.8164  -2.7931  -2.7921  -2.7843  -2.7603
    -2.7036  -2.6887  -2.6850  -2.6491  -2.6288  -2.5952  -2.5666  -2.5569
    -2.5358  -2.5339  -2.4978  -2.4809  -2.4722  -2.4595  -2.4461  -2.4388
    -2.3017  -2.1975  -2.1720  -2.1284  -2.0497  -2.0447  -2.0307  -2.0062
    -1.9719  -1.9582  -1.9244  -1.8450  -1.6880  -1.6741  -1.6510  -1.6140
    -1.5086  -1.4662  -1.3738  -1.3011  -1.2517  -1.2183  -1.1727  -1.1585
    -1.1449  -1.1117  -1.0654  -0.9930  -0.9565  -0.9393  -0.9278  -0.9036
    -0.8155  -0.7879  -0.7670  -0.7350  -0.7060  -0.6050  -0.5744  -0.5399
    -0.5103  -0.4749  -0.4193  -0.3927  -0.2915  -0.2902   0.0490   0.0669
     0.0823   0.1371   0.2070   0.3069   0.3381   0.3840   0.4804   0.5146
     0.5693   0.6019   0.6215   0.6748   0.6891   0.7079   1.4119   1.4126
     1.4934   1.5007   3.0924   3.4340   3.4619   3.4892   3.5322   3.6581
     3.6728   3.6794   3.6977   3.8919   3.9334

     the Fermi energy is     3.1172 ev

!    total energy              =   -2930.03906451 Ry
     estimated scf accuracy    <       0.00000004 Ry
     smearing contrib. (-TS)   =      -0.02064832 Ry
     internal energy E=F+TS    =   -2930.01841618 Ry

     The total energy is F=E-TS. E is the sum of the following terms:
     one-electron contribution =  -24523.70385488 Ry
     hartree contribution      =   12346.88493787 Ry
     xc contribution           =    -481.12599535 Ry
     ewald contribution        =    9727.92518674 Ry
     electric field correction =       0.00130944 Ry

     convergence has been achieved in  65 iterations

     Forces acting on atoms (cartesian axes, Ry/au):

     atom    1 type  1   force =    -0.00006210    0.00194555    0.12137196
     atom    2 type  1   force =    -0.00015012    0.00021515   -0.17638046
     atom    3 type  2   force =    -0.00008553    0.00551231   -0.04188477
     atom    4 type  2   force =     0.00009701    0.00023715    0.04679060
     atom    5 type  2   force =    -0.02224059   -0.00182833    0.00394046
     atom    6 type  2   force =     0.02248999   -0.00138791    0.00399484
     atom    7 type  1   force =    -0.00063640    0.00238256   -0.00662550
     atom    8 type  1   force =     0.00068439   -0.00171351    0.00449850
     atom    9 type  2   force =     0.00005865    0.00035049   -0.00021604
     atom   10 type  2   force =     0.00006291    0.00101606    0.00004503
     atom   11 type  2   force =     0.00027012    0.00131050   -0.00034179
     atom   12 type  2   force =     0.00023639    0.00130591   -0.00065396
     atom   13 type  1   force =     0.00013129   -0.00014136   -0.00038807
     atom   14 type  1   force =     0.00001807    0.00011221    0.00065417
     atom   15 type  2   force =     0.00004022   -0.00064679   -0.00014160
     atom   16 type  2   force =     0.00022396   -0.00012383    0.00192501
     atom   17 type  2   force =    -0.00093875    0.00038815   -0.00026580
     atom   18 type  2   force =     0.00055103    0.00019623   -0.00021377
     atom   19 type  1   force =    -0.00014867   -0.00102464   -0.00056162
     atom   20 type  1   force =    -0.00046210   -0.00045464   -0.00040923
     atom   21 type  2   force =     0.00002625    0.00004666    0.10350955
     atom   22 type  2   force =    -0.00025906    0.00074350   -0.00026425
     atom   23 type  2   force =    -0.06996858    0.00048802   -0.03151897
     atom   24 type  2   force =     0.06988349    0.00093491   -0.03152688
     atom   25 type  1   force =     0.00027031   -0.00189233    0.12784472
     atom   26 type  1   force =    -0.00018211   -0.00060109   -0.17577353
     atom   27 type  2   force =    -0.00004196   -0.00352256   -0.03804059
     atom   28 type  2   force =     0.00005026   -0.00033237    0.04765302
     atom   29 type  2   force =    -0.02393251   -0.00045844    0.00449541
     atom   30 type  2   force =     0.02412182    0.00012167    0.00467684
     atom   31 type  1   force =    -0.00083965   -0.00334794   -0.00585955
     atom   32 type  1   force =    -0.00001514   -0.00003974   -0.00080999
     atom   33 type  2   force =     0.00006634   -0.00015928    0.00032055
     atom   34 type  2   force =     0.00005877   -0.00062665   -0.00013156
     atom   35 type  2   force =    -0.00018615   -0.00021582   -0.00018565
     atom   36 type  2   force =     0.00070911    0.00018856   -0.00065730
     atom   37 type  1   force =     0.00070962   -0.00039987    0.00122661
     atom   38 type  1   force =    -0.00006799   -0.00031621    0.00037781
     atom   39 type  2   force =     0.00007986   -0.00031864   -0.00055767
     atom   40 type  2   force =     0.00018801    0.00051061    0.00152836
     atom   41 type  2   force =    -0.00021274   -0.00025527   -0.00019513
     atom   42 type  2   force =    -0.00016825   -0.00024682   -0.00005915
     atom   43 type  1   force =    -0.00058543    0.00022923   -0.00089994
     atom   44 type  1   force =    -0.00054030    0.00086301   -0.00055298
     atom   45 type  2   force =     0.00005194    0.00011594    0.10355921
     atom   46 type  3   force =     0.00055679    0.00071407    0.00126803
     atom   47 type  2   force =    -0.07047621   -0.00082996   -0.03148498
     atom   48 type  2   force =     0.07041343   -0.00036557   -0.03154485
     atom   49 type  4   force =    -0.00041561    0.00008785   -0.00073381
     atom   50 type  2   force =    -0.00169982   -0.00367788   -0.00753712
     atom   51 type  4   force =     0.00226576    0.00491116    0.00673585

     Total force =     0.385283     Total SCF correction =     0.000384
  @ DRIVER MODE: Message from server: STATUS
  @ DRIVER MODE: Message from server: GETFORCE
  @ DRIVER MODE: Returning v,forces,stress,ensemble

     Writing output data file ./calc.save/
  @ DRIVER MODE: Message from server: EXIT
  @ DRIVE MODE: Exiting

     General routines

     Parallel routines

   This run was terminated on:  15:28:13  15Sep2021

   JOB DONE.