     Program PWSCF v.6.7GPU starts on  9Sep2021 at  4: 9:25

     R & G space division:  proc/nbgrp/npool/nimage =      10
     Reading input from /storage/home/hcoda1/3/ntian30/research/carbon/CxH_vib/CH2_calc/ads_slab/CH2N2_b/out_0018/pw.inp
Warning: card &CELL ignored
Warning: card   CELL_DYNAMICS='IPI', ignored
Warning: card / ignored

     Current dimensions of program PWSCF are:
     Max number of different atomic species (ntypx) = 10
     Max number of k-points (npk) =  40000
     Max angular momentum in pseudopotentials (lmaxx) =  3
     Presently no symmetry can be used with electric field

     Message from routine cell_base_init:
     DEPRECATED: use true lattice parameter, not A to a.u. conversion factor

     IMPORTANT: XC functional enforced from input :
     Exchange-correlation= BEEF-VDW
                           (   1   4  43  14   2   0   0)
     Any further DFT definition will be discarded
     Please, verify this is what you really want

  @ DRIVER MODE: Connecting to
 qe_1139763_2767386.sched-torque.pace.gatech.edu2j68f30t_scratch
  using UNIX socket
  @ DRIVER MODE: Message from server: STATUS
  @ DRIVER MODE: Message from server: INIT
  @ DRIVER MODE: Receiving replica           0          -1
  @ DRIVER MODE: Receiving encoded integer          25
  @ DRIVER MODE:  SCF:  T  FORCE:  T  STRESS:  F  VC:  F  ENSEMBLE:  F
  @ DRIVER MODE:  SCF:  T  FORCE:  T  STRESS:  F  VC:  F  ENSEMBLE:  F

     Using Slab Decomposition

     bravais-lattice index     =            0
     lattice parameter (alat)  =       1.8897  a.u.
     unit-cell volume          =    6658.9804 (a.u.)^3
     number of atoms/cell      =           52
     number of atomic types    =            5
     number of electrons       =       394.00
     number of Kohn-Sham states=          207
     kinetic-energy cutoff     =      29.3995  Ry
     charge density cutoff     =     293.9946  Ry
     scf convergence threshold =      7.3E-08
     mixing beta               =       0.0500
     number of iterations used =            8  plain     mixing
     Exchange-correlation= BEEF-VDW
                           (   1   4  43  14   2   0   0)

     celldm(1)=   1.889726  celldm(2)=   0.000000  celldm(3)=   0.000000
     celldm(4)=   0.000000  celldm(5)=   0.000000  celldm(6)=   0.000000

     crystal axes: (cart. coord. in units of alat)
               a(1) = (   6.579727   0.000000   0.000000 )
               a(2) = (  -0.000775   5.961596   0.000000 )
               a(3) = (   0.000000   0.000000  25.155947 )

     reciprocal axes: (cart. coord. in units 2 pi/alat)
               b(1) = (  0.151982  0.000020  0.000000 )
               b(2) = (  0.000000  0.167740  0.000000 )
               b(3) = (  0.000000  0.000000  0.039752 )

     PseudoPot. # 1 for Ti read from file:
     /storage/coda1/p-amedford6/0/shared/rich_project_chbe-medford/medford-share/data/pseudos_module/espresso/nninc/pbe/van/Ti.UPF
     MD5 check sum: 8e4df49b7f0d34bbd5052bf3f5ea0213
     Pseudo is Ultrasoft, Zval = 12.0
     Generated by new atomic code, or converted to UPF format
     Using radial grid of  851 points,  6 beta functions with:
                l(1) =   0
                l(2) =   0
                l(3) =   1
                l(4) =   1
                l(5) =   2
                l(6) =   2
     Q(r) pseudized with  8 coefficients,  rinner =    1.000   1.000   1.000
                                                       1.000   1.000

     PseudoPot. # 2 for O  read from file:
     /storage/coda1/p-amedford6/0/shared/rich_project_chbe-medford/medford-share/data/pseudos_module/espresso/nninc/pbe/van/O.UPF
     MD5 check sum: 78c19812648e8988a0fe644b0f25305e
     Pseudo is Ultrasoft, Zval =  6.0
     Generated by new atomic code, or converted to UPF format
     Using radial grid of  737 points,  4 beta functions with:
                l(1) =   0
                l(2) =   0
                l(3) =   1
                l(4) =   1
     Q(r) pseudized with  8 coefficients,  rinner =    0.800   0.800   0.800

     PseudoPot. # 3 for N  read from file:
     /storage/coda1/p-amedford6/0/shared/rich_project_chbe-medford/medford-share/data/pseudos_module/espresso/nninc/pbe/van/N.UPF
     MD5 check sum: 90d10febe142ad51ac9d5be1deb811c4
     Pseudo is Ultrasoft, Zval =  5.0
     Generated by new atomic code, or converted to UPF format
     Using radial grid of  729 points,  4 beta functions with:
                l(1) =   0
                l(2) =   0
                l(3) =   1
                l(4) =   1
     Q(r) pseudized with  8 coefficients,  rinner =    0.800   0.800   0.800

     PseudoPot. # 4 for C  read from file:
     /storage/coda1/p-amedford6/0/shared/rich_project_chbe-medford/medford-share/data/pseudos_module/espresso/nninc/pbe/van/C.UPF
     MD5 check sum: 1a69bf6b8db32088f5b2163dbdb77a27
     Pseudo is Ultrasoft, Zval =  4.0
     Generated by new atomic code, or converted to UPF format
     Using radial grid of  721 points,  4 beta functions with:
                l(1) =   0
                l(2) =   0
                l(3) =   1
                l(4) =   1
     Q(r) pseudized with  8 coefficients,  rinner =    0.800   0.800   0.800

     PseudoPot. # 5 for H  read from file:
     /storage/coda1/p-amedford6/0/shared/rich_project_chbe-medford/medford-share/data/pseudos_module/espresso/nninc/pbe/van/H.UPF
     MD5 check sum: b5ee9d7bfd3a09ee7748110bda690ff7
     Pseudo is Ultrasoft, Zval =  1.0
     Generated by new atomic code, or converted to UPF format
     Using radial grid of  615 points,  1 beta functions with:
                l(1) =   0
     Q(r) pseudized with  8 coefficients,  rinner =    0.800

     atomic species   valence    mass     pseudopotential
        Ti1           12.00    47.86700     Ti( 1.00)
        O1             6.00    15.99900     O ( 1.00)
        N1             5.00    14.00700     N ( 1.00)
        C1             4.00    12.01100     C ( 1.00)
        H1             1.00     1.00800     H ( 1.00)

     No symmetry found

   Cartesian axes

     site n.     atom                  positions (alat units)
         1           Ti1 tau(   1) = (   0.0004258   2.9801865   6.0000000  )
         2           Ti1 tau(   2) = (   3.2906075   1.4906267   6.0002472  )
         3           O1  tau(   3) = (   0.0006271   0.0005054   7.9858123  )
         4           O1  tau(   4) = (   3.2906025   0.0005020   7.3038282  )
         5           O1  tau(   5) = (   4.5942328   1.4918067   9.2879030  )
         6           O1  tau(   6) = (   1.9868534   1.4903216   9.2879459  )
         7           Ti1 tau(   7) = (   3.2907910   2.8959150   9.1758416  )
         8           Ti1 tau(   8) = (   0.0015273   1.4827037   9.2680791  )
         9           O1  tau(   9) = (   3.2944872   5.9444814  11.3088555  )
        10           O1  tau(  10) = (   0.0116148   5.9584955  10.6183126  )
        11           O1  tau(  11) = (   1.2913257   1.4757505  12.6225222  )
        12           O1  tau(  12) = (   5.2743172   1.4729811  12.6021195  )
        13           Ti1 tau(  13) = (   0.0890023   2.9564894  12.7220187  )
        14           Ti1 tau(  14) = (   3.4221593   1.4702301  12.4648352  )
        15           O1  tau(  15) = (   0.0068176   5.9411714  14.5947238  )
        16           O1  tau(  16) = (   3.2944910   5.9492763  13.8828731  )
        17           O1  tau(  17) = (   4.5250581   1.4982466  16.0456249  )
        18           O1  tau(  18) = (   2.0665045   1.4881935  16.0281199  )
        19           Ti1 tau(  19) = (   3.2778778   2.9684174  15.6871799  )
        20           Ti1 tau(  20) = (   6.5490154   1.5309925  16.0314916  )
        21           O1  tau(  21) = (   3.2904802   0.0005063   4.7018136  )
        22           O1  tau(  22) = (   0.0123181   0.0076990  17.1679072  )
        23           O1  tau(  23) = (   1.3043587   1.4918075   6.0039043  )
        24           O1  tau(  24) = (   5.2767064   1.4903225   6.0039473  )
        25           Ti1 tau(  25) = (   0.0000382   5.9609847   6.0000000  )
        26           Ti1 tau(  26) = (   3.2902200   4.4714249   6.0002472  )
        27           O1  tau(  27) = (   0.0002396   2.9813036   7.9858123  )
        28           O1  tau(  28) = (   3.2902150   2.9813002   7.3038282  )
        29           O1  tau(  29) = (   4.5938453   4.4726049   9.2879030  )
        30           O1  tau(  30) = (   1.9864658   4.4711199   9.2879459  )
        31           Ti1 tau(  31) = (   3.2891106   5.8743827   9.1763621  )
        32           Ti1 tau(  32) = (   0.0006254   4.4649316   9.2693709  )
        33           O1  tau(  33) = (   3.2980042   2.9668427  11.3079272  )
        34           O1  tau(  34) = (   0.0092240   2.9805883  10.6323155  )
        35           O1  tau(  35) = (   1.2899229   4.4488879  12.6271902  )
        36           O1  tau(  36) = (   5.2743549   4.4545148  12.6090941  )
        37           Ti1 tau(  37) = (   0.1039690   5.9375691  12.6739196  )
        38           Ti1 tau(  38) = (   3.4213609   4.4493060  12.4702176  )
        39           O1  tau(  39) = (   6.5648181   2.9459624  14.6378081  )
        40           O1  tau(  40) = (   3.2943236   2.9658899  13.8785053  )
        41           O1  tau(  41) = (   4.5287159   4.4634493  16.0515226  )
        42           O1  tau(  42) = (   2.0597896   4.4749507  16.0164256  )
        43           Ti1 tau(  43) = (   3.2714021   5.9517381  15.6902239  )
        44           Ti1 tau(  44) = (   6.5616293   4.5902425  16.0297769  )
        45           O1  tau(  45) = (   3.2900926   2.9813045   4.7018136  )
        46           O1  tau(  46) = (   1.3039711   4.4726057   6.0039043  )
        47           O1  tau(  47) = (   5.2763189   4.4711207   6.0039473  )
        48           N1  tau(  48) = (   0.6459789   3.0609845  18.5091170  )
        49           N1  tau(  49) = (   0.0956274   2.9759187  17.3381616  )
        50           C1  tau(  50) = (   0.0579326   3.2697647  19.6366723  )
        51           H1  tau(  51) = (   5.5568954   3.3836083  19.7010695  )
        52           H1  tau(  52) = (   0.6727643   3.3288843  20.5134281  )

     number of k points=    10  Fermi-Dirac smearing, width (Ry)=  0.0073
                       cart. coord. in units 2pi/alat
        k(    1) = (   0.0000000   0.0000000   0.0000000), wk =   0.1250000
        k(    2) = (   0.0000000   0.0419351   0.0000000), wk =   0.2500000
        k(    3) = (   0.0000000  -0.0838702   0.0000000), wk =   0.1250000
        k(    4) = (   0.0379955   0.0000049   0.0000000), wk =   0.2500000
        k(    5) = (   0.0379955   0.0419400   0.0000000), wk =   0.2500000
        k(    6) = (   0.0379955  -0.0838652   0.0000000), wk =   0.2500000
        k(    7) = (   0.0379955  -0.0419301   0.0000000), wk =   0.2500000
        k(    8) = (  -0.0759910  -0.0000099   0.0000000), wk =   0.1250000
        k(    9) = (  -0.0759910   0.0419252   0.0000000), wk =   0.2500000
        k(   10) = (  -0.0759910  -0.0838800   0.0000000), wk =   0.1250000

     Initial potential from superposition of free atoms

     starting charge  377.99917, renormalised to  394.00000

     negative rho (up, down):  1.508E-02 0.000E+00

     %%%%%%%%%%%%%%%%%%%%%%%%%%%%%%%%%%%%%%%%%%%%%%%%%%%%%%%%%%%%%%%%%%%%%%%%
     %                                                                      %
     % You are using vdW-DF, which was implemented by the Thonhauser group. %
     % Please cite the following two papers that made this development      %
     % possible and the two reviews that describe the various versions:     %
     %                                                                      %
     %   T. Thonhauser et al., PRL 115, 136402 (2015).                      %
     %   T. Thonhauser et al., PRB 76, 125112 (2007).                       %
     %   K. Berland et al., Rep. Prog. Phys. 78, 066501 (2015).             %
     %   D.C. Langreth et al., J. Phys.: Condens. Matter 21, 084203 (2009). %
     %                                                                      %
     %                                                                      %
     % If you are calculating the stress with vdW-DF, please also cite:     %
     %                                                                      %
     %   R. Sabatini et al., J. Phys.: Condens. Matter 24, 424209 (2012).   %
     %                                                                      %
     %%%%%%%%%%%%%%%%%%%%%%%%%%%%%%%%%%%%%%%%%%%%%%%%%%%%%%%%%%%%%%%%%%%%%%%%

     Adding external electric field

     Computed dipole along edir(3) :
        Dipole               -7.6469 Ry au,        -19.4366 Debye
        Dipole field         -0.0144 Ry au,

        Potential amp.        1.3377 Ry
        Total length         46.3494 bohr

     Starting wfcs are  298 atomic wfcs
  @ DRIVER MODE: Message from server: STATUS
  @ DRIVER MODE: Message from server: POSDATA
  @ DRIVER MODE: Reading and sharing cell
  @ DRIVER MODE: Reading and sharing positions
  @ DRIVER MODE: Received positions

     Self-consistent Calculation

     iteration #  1     ecut=    29.40 Ry     beta= 0.05
     Davidson diagonalization with overlap
     c_bands:  1 eigenvalues not converged
     c_bands:  1 eigenvalues not converged
     c_bands:  1 eigenvalues not converged
     c_bands:  1 eigenvalues not converged
     c_bands:  1 eigenvalues not converged
     c_bands:  1 eigenvalues not converged
     ethr =  1.00E-05,  avg # of iterations = 18.6

[...]

     total energy              =   -2699.57803721 Ry
     estimated scf accuracy    <    2638.71008455 Ry

[...]

     iteration #  3     ecut=    29.40 Ry     beta= 0.05
     Davidson diagonalization with overlap
     ethr =  1.00E-02,  avg # of iterations = 15.8

[...]

     iteration # 35     ecut=    29.40 Ry     beta= 0.05
     Davidson diagonalization with overlap
     c_bands:  1 eigenvalues not converged
     c_bands:  2 eigenvalues not converged
     ethr =  8.40E-07,  avg # of iterations =  9.6

[...]

     total energy              =   -2937.89127555 Ry
     estimated scf accuracy    <       0.00000014 Ry

     iteration # 59     ecut=    29.40 Ry     beta= 0.05
     Davidson diagonalization with overlap
     ethr =  3.49E-11,  avg # of iterations =  5.0

     negative rho (up, down):  1.605E-02 0.000E+00

     Adding external electric field

     Computed dipole along edir(3) :
        Dipole                0.5220 Ry au,          1.3267 Debye
        Dipole field          0.0010 Ry au,

        Potential amp.       -0.0913 Ry
        Total length         46.3494 bohr

     End of self-consistent calculation

          k = 0.0000 0.0000 0.0000 ( 18029 PWs)   bands (ev):

   -56.3127 -56.2789 -55.8952 -55.8912 -55.8592 -55.8572 -55.8286 -55.7949
   -55.6785 -55.6691 -55.6389 -55.6325 -55.1616 -55.1390 -55.1276 -55.0617
   -32.7688 -32.6048 -32.5776 -32.4716 -32.4365 -32.3922 -32.3784 -32.3561
   -32.3150 -32.1932 -32.1803 -32.1486 -32.1418 -32.1180 -32.1063 -32.0772
   -32.0613 -32.0601 -32.0570 -32.0298 -32.0267 -32.0218 -32.0215 -32.0070
   -31.9965 -31.9911 -31.9805 -31.9388 -31.9129 -31.9079 -31.8438 -31.8300
   -31.8150 -31.8025 -31.7878 -31.7428 -31.6647 -31.5633 -31.4883 -31.4651
   -31.3924 -31.3805 -31.3493 -31.3161 -31.2949 -31.2636 -31.1894 -31.1839
   -17.6947 -16.6860 -16.5301 -16.2512 -16.0266 -15.9993 -15.8626 -15.8289
   -15.8037 -15.7755 -15.6550 -15.6154 -15.5787 -15.4612 -15.4195 -15.4065
   -15.3898 -15.3685 -15.3633 -15.2759 -15.2535 -15.2368 -15.1850 -15.0881
   -15.0587 -15.0165 -14.8745 -14.8593 -14.7609 -14.5022 -13.6624 -13.5484
   -11.8967  -6.6521  -4.6066  -4.1535  -4.1043  -4.0180  -3.8653  -3.7822
    -3.5967  -3.5604  -3.4673  -3.2391  -3.1520  -3.1448  -3.0694  -3.0406
    -3.0262  -2.9426  -2.8746  -2.8432  -2.8213  -2.7985  -2.7429  -2.6635
    -2.6165  -2.5858  -2.5651  -2.5350  -2.4274  -2.3741  -2.3580  -2.3319
    -2.2751  -2.2592  -2.2355  -2.2301  -2.1940  -2.1820  -2.1026  -2.0699
    -1.9459  -1.8725  -1.7483  -1.7399  -1.6699  -1.6487  -1.6262  -1.4260
    -1.4044  -1.3281  -1.2922  -1.2370  -1.2110  -1.1683  -1.0962  -1.0620
    -0.9648  -0.9355  -0.9072  -0.8728  -0.8487  -0.8184  -0.7992  -0.7404
    -0.6925  -0.5166  -0.4763  -0.4440  -0.3447  -0.3301  -0.3007  -0.2628
    -0.2540  -0.1967  -0.1896  -0.1759  -0.1179  -0.1047  -0.0191   0.0479
     0.0540   0.1051   0.1765   0.2393   0.2753   0.3942   0.4425   0.5105
     0.6065   0.6142   0.6748   0.8257   0.8382   0.8603   0.8627   1.0725
     1.3190   1.4223   1.4642   1.5749   2.7708   2.9077   3.0166   3.2121
     3.3286   3.3483   3.5226   3.6620   3.7005   3.7588   3.7659

[...]

          k = 0.0380-0.0419 0.0000 ( 17876 PWs)   bands (ev):

[...]

          k =-0.0760-0.0000 0.0000 ( 17886 PWs)   bands (ev):

[...]

          k =-0.0760-0.0839 0.0000 ( 17948 PWs)   bands (ev):

   -56.2959 -56.2955 -55.8795 -55.8766 -55.8748 -55.8715 -55.8127 -55.8109
   -55.6680 -55.6567 -55.6493 -55.6448 -55.1445 -55.1445 -55.1349 -55.0657
   -32.5906 -32.5901 -32.5846 -32.5843 -32.4232 -32.4228 -32.2433 -32.2395
   -32.1816 -32.1760 -32.1535 -32.1514 -32.1358 -32.1329 -32.0930 -32.0892
   -32.0662 -32.0604 -32.0539 -32.0516 -32.0408 -32.0393 -32.0257 -32.0247
   -32.0158 -32.0026 -31.9817 -31.9728 -31.9475 -31.9366 -31.8872 -31.8808
   -31.8739 -31.8485 -31.8162 -31.8125 -31.5538 -31.4779 -31.4779 -31.4085
   -31.3769 -31.3768 -31.3615 -31.3445 -31.3378 -31.3378 -31.2713 -31.2466
   -17.6884 -16.0467 -16.0444 -16.0390 -16.0326 -15.9151 -15.9129 -15.7568
   -15.7547 -15.7277 -15.7223 -15.5785 -15.5550 -15.5131 -15.5122 -15.4721
   -15.4622 -15.3949 -15.3920 -15.3817 -15.3756 -15.3620 -15.3575 -15.3137
   -15.2723 -15.0336 -14.9611 -14.9005 -14.7850 -14.6927 -13.6510 -13.6509
   -11.9008  -6.6463  -4.5477  -4.0975  -3.3371  -3.3325  -3.1675  -3.1500
    -3.0965  -3.0954  -3.0001  -2.9706  -2.9690  -2.8535  -2.8322  -2.7914
    -2.7877  -2.7736  -2.7710  -2.7375  -2.7319  -2.7098  -2.7038  -2.6477
    -2.6329  -2.6263  -2.6211  -2.5500  -2.5047  -2.4778  -2.4455  -2.4104
    -2.3837  -2.2885  -2.2846  -2.2495  -2.2290  -2.1673  -2.1637  -2.1108
    -2.0753  -2.0087  -1.9992  -1.7881  -1.7402  -1.7308  -1.6831  -1.5943
    -1.5721  -1.4267  -1.3959  -1.3375  -1.3288  -1.2722  -1.2540  -1.2441
    -1.1572  -1.1487  -1.1413  -1.0679  -1.0574  -0.9967  -0.9597  -0.9305
    -0.8424  -0.8282  -0.7902  -0.7872  -0.7766  -0.7099  -0.6632  -0.5909
    -0.5423  -0.5292  -0.4098  -0.3617  -0.3030  -0.2307  -0.1895  -0.0842
    -0.0413  -0.0317   0.1779   0.1887   0.2326   0.3226   0.4426   0.4452
     0.4832   0.5740   0.5968   0.6214   0.6380   0.8363   0.9099   1.2399
     1.2410   1.2809   1.2813   1.5378   2.7302   3.4321   3.4330   3.4579
     3.4584   3.5932   3.6170   3.6535   3.6629   3.7472   3.7508

     the Fermi energy is     2.8572 ev

!    total energy              =   -2937.89131934 Ry
     estimated scf accuracy    <       0.00000005 Ry
     smearing contrib. (-TS)   =      -0.01398144 Ry
     internal energy E=F+TS    =   -2937.87733789 Ry

     The total energy is F=E-TS. E is the sum of the following terms:
     one-electron contribution =  -24292.18607327 Ry
     hartree contribution      =   12232.43473347 Ry
     xc contribution           =    -484.30784688 Ry
     ewald contribution        =    9606.18133466 Ry
     electric field correction =       0.00051413 Ry

     convergence has been achieved in  59 iterations

     Forces acting on atoms (cartesian axes, Ry/au):

     atom    1 type  1   force =     0.00011364   -0.00021104    0.10742366
     atom    2 type  1   force =    -0.00012895   -0.00062793   -0.16928751
     atom    3 type  2   force =    -0.00015967    0.00000679   -0.04187326
     atom    4 type  2   force =     0.00005511   -0.00093592    0.04206084
     atom    5 type  2   force =    -0.01491825    0.00022137   -0.00300153
     atom    6 type  2   force =     0.01655358    0.00103804   -0.00397745
     atom    7 type  1   force =    -0.00113688   -0.00211974    0.00234645
     atom    8 type  1   force =     0.00131503    0.00453147    0.07552296
     atom    9 type  2   force =     0.00004475    0.00011072    0.00049239
     atom   10 type  2   force =    -0.00131946    0.00009870   -0.04714288
     atom   11 type  2   force =    -0.00049078    0.00031381    0.00025971
     atom   12 type  2   force =    -0.00005733    0.00050090    0.00016741
     atom   13 type  1   force =     0.00044431   -0.00041586    0.00054439
     atom   14 type  1   force =    -0.00014373   -0.00011853   -0.00012912
     atom   15 type  2   force =    -0.00026163   -0.00020137    0.00040584
     atom   16 type  2   force =     0.00019640    0.00024397   -0.00011049
     atom   17 type  2   force =     0.00015066    0.00050267    0.00033270
     atom   18 type  2   force =    -0.00042384   -0.00005033   -0.00030703
     atom   19 type  1   force =     0.00016699    0.00076600   -0.00027353
     atom   20 type  1   force =     0.00017792   -0.00034819   -0.00030465
     atom   21 type  2   force =     0.00006804    0.00003812    0.10165480
     atom   22 type  2   force =    -0.00044952    0.00044556    0.00001702
     atom   23 type  2   force =    -0.07421601   -0.00003580   -0.02982466
     atom   24 type  2   force =     0.07417237    0.00041950   -0.02982639
     atom   25 type  1   force =     0.00025490   -0.00035719    0.10689667
     atom   26 type  1   force =    -0.00003140   -0.00037912   -0.16938554
     atom   27 type  2   force =    -0.00004022   -0.00029197   -0.04081660
     atom   28 type  2   force =     0.00011097   -0.00074040    0.04203239
     atom   29 type  2   force =    -0.01522328    0.00063825   -0.00329098
     atom   30 type  2   force =     0.01678841    0.00101205   -0.00426000
     atom   31 type  1   force =    -0.00133675    0.00039242    0.00210150
     atom   32 type  1   force =     0.00130679   -0.00712204    0.07614419
     atom   33 type  2   force =    -0.00004547    0.00016878    0.00021666
     atom   34 type  2   force =    -0.00146087   -0.00008078   -0.05545698
     atom   35 type  2   force =    -0.00000991    0.00006587    0.00014049
     atom   36 type  2   force =    -0.00001577    0.00022223   -0.00012509
     atom   37 type  1   force =     0.00022158    0.00028894    0.00021302
     atom   38 type  1   force =     0.00011719    0.00022633   -0.00037560
     atom   39 type  2   force =    -0.00021186   -0.00005796   -0.00048133
     atom   40 type  2   force =     0.00007824    0.00026763    0.00020277
     atom   41 type  2   force =    -0.00039077    0.00023257   -0.00039494
     atom   42 type  2   force =     0.00015337    0.00021272    0.00022597
     atom   43 type  1   force =    -0.00014882    0.00062758    0.00022457
     atom   44 type  1   force =    -0.00019076    0.00056773   -0.00034919
     atom   45 type  2   force =     0.00006085    0.00000067    0.10166469
     atom   46 type  2   force =    -0.07420861    0.00001194   -0.02979636
     atom   47 type  2   force =     0.07416348    0.00044458   -0.02981725
     atom   48 type  3   force =    -0.00577843    0.00311481    0.01386967
     atom   49 type  3   force =     0.00039768    0.00028657    0.00334214
     atom   50 type  4   force =     0.00112759   -0.00463602   -0.02772696
     atom   51 type  5   force =     0.00006072    0.00038540    0.00154246
     atom   52 type  5   force =     0.00449841    0.00032548    0.00828994

     Total force =     0.390660     Total SCF correction =     0.000555
  @ DRIVER MODE: Message from server: STATUS
  @ DRIVER MODE: Message from server: GETFORCE
  @ DRIVER MODE: Returning v,forces,stress,ensemble

     Writing output data file ./calc.save/
  @ DRIVER MODE: Message from server: EXIT
  @ DRIVE MODE: Exiting

     General routines

     Parallel routines

   This run was terminated on:   4:26:46   9Sep2021

   JOB DONE.