     Program PWSCF v.6.7GPU starts on 23Aug2021 at 12:41:50

     R & G space division:  proc/nbgrp/npool/nimage =       6
     Reading input from /storage/home/hcoda1/3/ntian30/research/carbon/CH_vib/ads_slab/CH_a/out_0000/pw.inp
Warning: card &CELL ignored
Warning: card   CELL_DYNAMICS='IPI', ignored
Warning: card / ignored

     Current dimensions of program PWSCF are:
     Max number of different atomic species (ntypx) = 10
     Max number of k-points (npk) =  40000
     Max angular momentum in pseudopotentials (lmaxx) =  3
     Presently no symmetry can be used with electric field

     Message from routine cell_base_init:
     DEPRECATED: use true lattice parameter, not A to a.u. conversion factor

     IMPORTANT: XC functional enforced from input :
     Exchange-correlation= BEEF-VDW
                           (   1   4  43  14   2   0   0)
     Any further DFT definition will be discarded
     Please, verify this is what you really want

  @ DRIVER MODE: Connecting to
 qe_1139763_2632798.sched-torque.pace.gatech.edumn2p1qvz_scratch
  using UNIX socket
  @ DRIVER MODE: Message from server: STATUS
  @ DRIVER MODE: Message from server: INIT
  @ DRIVER MODE: Receiving replica           0          -1
  @ DRIVER MODE: Receiving encoded integer          25
  @ DRIVER MODE:  SCF:  T  FORCE:  T  STRESS:  F  VC:  F  ENSEMBLE:  F
  @ DRIVER MODE:  SCF:  T  FORCE:  T  STRESS:  F  VC:  F  ENSEMBLE:  F

     Using Slab Decomposition

     bravais-lattice index     =            0
     lattice parameter (alat)  =       1.8897  a.u.
     unit-cell volume          =    6658.9804 (a.u.)^3
     number of atoms/cell      =           49
     number of atomic types    =            4
     number of electrons       =       383.00
     number of Kohn-Sham states=          201
     kinetic-energy cutoff     =      29.3995  Ry
     charge density cutoff     =     293.9946  Ry
     scf convergence threshold =      7.3E-08
     mixing beta               =       0.0500
     number of iterations used =            8  plain     mixing
     Exchange-correlation= BEEF-VDW
                           (   1   4  43  14   2   0   0)

     celldm(1)=   1.889726  celldm(2)=   0.000000  celldm(3)=   0.000000
     celldm(4)=   0.000000  celldm(5)=   0.000000  celldm(6)=   0.000000

     crystal axes: (cart. coord. in units of alat)
               a(1) = (   6.579727   0.000000   0.000000 )
               a(2) = (  -0.000775   5.961596   0.000000 )
               a(3) = (   0.000000   0.000000  25.155947 )

     reciprocal axes: (cart. coord. in units 2 pi/alat)
               b(1) = (  0.151982  0.000020  0.000000 )
               b(2) = (  0.000000  0.167740  0.000000 )
               b(3) = (  0.000000  0.000000  0.039752 )

     PseudoPot. # 1 for Ti read from file:
     /storage/coda1/p-amedford6/0/shared/rich_project_chbe-medford/medford-share/data/pseudos_module/espresso/nninc/pbe/van/Ti.UPF
     MD5 check sum: 8e4df49b7f0d34bbd5052bf3f5ea0213
     Pseudo is Ultrasoft, Zval = 12.0
     Generated by new atomic code, or converted to UPF format
     Using radial grid of  851 points,  6 beta functions with:
                l(1) =   0
                l(2) =   0
                l(3) =   1
                l(4) =   1
                l(5) =   2
                l(6) =   2
     Q(r) pseudized with  8 coefficients,  rinner =    1.000   1.000   1.000
                                                       1.000   1.000

     PseudoPot. # 2 for O  read from file:
     /storage/coda1/p-amedford6/0/shared/rich_project_chbe-medford/medford-share/data/pseudos_module/espresso/nninc/pbe/van/O.UPF
     MD5 check sum: 78c19812648e8988a0fe644b0f25305e
     Pseudo is Ultrasoft, Zval =  6.0
     Generated by new atomic code, or converted to UPF format
     Using radial grid of  737 points,  4 beta functions with:
                l(1) =   0
                l(2) =   0
                l(3) =   1
                l(4) =   1
     Q(r) pseudized with  8 coefficients,  rinner =    0.800   0.800   0.800

     PseudoPot. # 3 for C  read from file:
     /storage/coda1/p-amedford6/0/shared/rich_project_chbe-medford/medford-share/data/pseudos_module/espresso/nninc/pbe/van/C.UPF
     MD5 check sum: 1a69bf6b8db32088f5b2163dbdb77a27
     Pseudo is Ultrasoft, Zval =  4.0
     Generated by new atomic code, or converted to UPF format
     Using radial grid of  721 points,  4 beta functions with:
                l(1) =   0
                l(2) =   0
                l(3) =   1
                l(4) =   1
     Q(r) pseudized with  8 coefficients,  rinner =    0.800   0.800   0.800

     PseudoPot. # 4 for H  read from file:
     /storage/coda1/p-amedford6/0/shared/rich_project_chbe-medford/medford-share/data/pseudos_module/espresso/nninc/pbe/van/H.UPF
     MD5 check sum: b5ee9d7bfd3a09ee7748110bda690ff7
     Pseudo is Ultrasoft, Zval =  1.0
     Generated by new atomic code, or converted to UPF format
     Using radial grid of  615 points,  1 beta functions with:
                l(1) =   0
     Q(r) pseudized with  8 coefficients,  rinner =    0.800

     atomic species   valence    mass     pseudopotential
        Ti1           12.00    47.86700     Ti( 1.00)
        O1             6.00    15.99900     O ( 1.00)
        C1             4.00    12.01100     C ( 1.00)
        H1             1.00     1.00800     H ( 1.00)

     No symmetry found

   Cartesian axes

     site n.     atom                  positions (alat units)
         1           Ti1 tau(   1) = (   0.0004258   2.9801865   6.0000000  )
         2           Ti1 tau(   2) = (   3.2906075   1.4906267   6.0002472  )
         3           O1  tau(   3) = (   0.0006271   0.0005054   7.9858123  )
         4           O1  tau(   4) = (   3.2906025   0.0005020   7.3038282  )
         5           O1  tau(   5) = (   4.5942328   1.4918067   9.2879030  )
         6           O1  tau(   6) = (   1.9868534   1.4903216   9.2879459  )
         7           Ti1 tau(   7) = (   3.2921849   2.8658251   9.1648892  )
         8           Ti1 tau(   8) = (   0.0073351   1.4983988   9.3831490  )
         9           O1  tau(   9) = (   3.2842540   0.0070318  11.3521760  )
        10           O1  tau(  10) = (   0.0010487   0.0043113  10.5580200  )
        11           O1  tau(  11) = (   1.2736759   1.5124129  12.6486185  )
        12           O1  tau(  12) = (   5.2630300   1.5084811  12.6300625  )
        13           Ti1 tau(  13) = (   0.0799159   2.9885021  12.8537609  )
        14           Ti1 tau(  14) = (   3.3962166   1.4899997  12.4930974  )
        15           O1  tau(  15) = (   6.5670857   5.9608082  14.6055349  )
        16           O1  tau(  16) = (   3.2779887   0.0262294  13.9455360  )
        17           O1  tau(  17) = (   4.5047259   1.5524619  16.1062024  )
        18           O1  tau(  18) = (   2.0328015   1.5482461  16.0993997  )
        19           Ti1 tau(  19) = (   3.2588990   3.0258902  15.7259251  )
        20           Ti1 tau(  20) = (   6.5443225   1.5921241  16.1654916  )
        21           O1  tau(  21) = (   3.2904802   0.0005063   4.7018136  )
        22           O1  tau(  22) = (   6.5577444   0.0567680  17.2452940  )
        23           O1  tau(  23) = (   1.3043587   1.4918075   6.0039043  )
        24           O1  tau(  24) = (   5.2767064   1.4903225   6.0039473  )
        25           Ti1 tau(  25) = (   0.0000382   5.9609847   6.0000000  )
        26           Ti1 tau(  26) = (   3.2902200   4.4714249   6.0002472  )
        27           O1  tau(  27) = (   0.0002396   2.9813036   7.9858123  )
        28           O1  tau(  28) = (   3.2902150   2.9813002   7.3038282  )
        29           O1  tau(  29) = (   4.5938453   4.4726049   9.2879030  )
        30           O1  tau(  30) = (   1.9864658   4.4711199   9.2879459  )
        31           Ti1 tau(  31) = (   3.2960881   5.8478476   9.1648656  )
        32           Ti1 tau(  32) = (   0.0086818   4.4758218   9.3788328  )
        33           O1  tau(  33) = (   3.2854246   2.9850844  11.3450670  )
        34           O1  tau(  34) = (   0.0004502   2.9836692  10.5560002  )
        35           O1  tau(  35) = (   1.2751814   4.4662498  12.6462591  )
        36           O1  tau(  36) = (   5.2612828   4.4711168  12.6263095  )
        37           Ti1 tau(  37) = (   0.0650160   0.0072273  12.8037121  )
        38           Ti1 tau(  38) = (   3.3952379   4.4681493  12.4860303  )
        39           O1  tau(  39) = (   6.5700874   2.9943110  14.6990684  )
        40           O1  tau(  40) = (   3.2774739   3.0059374  13.9302241  )
        41           O1  tau(  41) = (   4.5038310   4.5165569  16.1051355  )
        42           O1  tau(  42) = (   2.0336826   4.5180826  16.0999700  )
        43           Ti1 tau(  43) = (   3.2582433   0.0441072  15.7465997  )
        44           Ti1 tau(  44) = (   6.5393581   4.6163053  16.1595090  )
        45           O1  tau(  45) = (   3.2900926   2.9813045   4.7018136  )
        46           O1  tau(  46) = (   1.3039711   4.4726057   6.0039043  )
        47           O1  tau(  47) = (   5.2763189   4.4711207   6.0039473  )
        48           C1  tau(  48) = (   6.5669965   3.0274956  17.5143990  )
        49           H1  tau(  49) = (   0.0036594   3.1884539  18.5931066  )

     number of k points=    10  Fermi-Dirac smearing, width (Ry)=  0.0073
                       cart. coord. in units 2pi/alat
        k(    1) = (   0.0000000   0.0000000   0.0000000), wk =   0.1250000
        k(    2) = (   0.0000000   0.0419351   0.0000000), wk =   0.2500000
        k(    3) = (   0.0000000  -0.0838702   0.0000000), wk =   0.1250000
        k(    4) = (   0.0379955   0.0000049   0.0000000), wk =   0.2500000
        k(    5) = (   0.0379955   0.0419400   0.0000000), wk =   0.2500000
        k(    6) = (   0.0379955  -0.0838652   0.0000000), wk =   0.2500000
        k(    7) = (   0.0379955  -0.0419301   0.0000000), wk =   0.2500000
        k(    8) = (  -0.0759910  -0.0000099   0.0000000), wk =   0.1250000
        k(    9) = (  -0.0759910   0.0419252   0.0000000), wk =   0.2500000
        k(   10) = (  -0.0759910  -0.0838800   0.0000000), wk =   0.1250000

     Initial potential from superposition of free atoms

     starting charge  366.99920, renormalised to  383.00000

     negative rho (up, down):  2.156E-02 0.000E+00

     %%%%%%%%%%%%%%%%%%%%%%%%%%%%%%%%%%%%%%%%%%%%%%%%%%%%%%%%%%%%%%%%%%%%%%%%
     %                                                                      %
     % You are using vdW-DF, which was implemented by the Thonhauser group. %
     % Please cite the following two papers that made this development      %
     % possible and the two reviews that describe the various versions:     %
     %                                                                      %
     %   T. Thonhauser et al., PRL 115, 136402 (2015).                      %
     %   T. Thonhauser et al., PRB 76, 125112 (2007).                       %
     %   K. Berland et al., Rep. Prog. Phys. 78, 066501 (2015).             %
     %   D.C. Langreth et al., J. Phys.: Condens. Matter 21, 084203 (2009). %
     %                                                                      %
     %                                                                      %
     % If you are calculating the stress with vdW-DF, please also cite:     %
     %                                                                      %
     %   R. Sabatini et al., J. Phys.: Condens. Matter 24, 424209 (2012).   %
     %                                                                      %
     %%%%%%%%%%%%%%%%%%%%%%%%%%%%%%%%%%%%%%%%%%%%%%%%%%%%%%%%%%%%%%%%%%%%%%%%

     Adding external electric field

     Computed dipole along edir(3) :
        Dipole                0.0501 Ry au,          0.1273 Debye
        Dipole field          0.0001 Ry au,

        Potential amp.       -0.0088 Ry
        Total length         46.3494 bohr

     Starting wfcs are  289 atomic wfcs
  @ DRIVER MODE: Message from server: STATUS
  @ DRIVER MODE: Message from server: POSDATA
  @ DRIVER MODE: Reading and sharing cell
  @ DRIVER MODE: Reading and sharing positions
  @ DRIVER MODE: Received positions

     Self-consistent Calculation

     iteration #  1     ecut=    29.40 Ry     beta= 0.05
     Davidson diagonalization with overlap
     ethr =  1.00E-02,  avg # of iterations =  2.0

[...]

     total energy              =   -2897.34812896 Ry
     estimated scf accuracy    <      13.19697791 Ry

[...]

     iteration # 14     ecut=    29.40 Ry     beta= 0.05
     Davidson diagonalization with overlap
     c_bands:  2 eigenvalues not converged
     c_bands:  1 eigenvalues not converged
     c_bands:  2 eigenvalues not converged
     c_bands:  1 eigenvalues not converged
     c_bands:  2 eigenvalues not converged
     c_bands:  2 eigenvalues not converged
     ethr =  1.38E-04,  avg # of iterations = 18.6

[...]

     iteration # 54     ecut=    29.40 Ry     beta= 0.05
     Davidson diagonalization with overlap
     c_bands:  3 eigenvalues not converged
     ethr =  5.48E-10,  avg # of iterations =  7.4

[...]

     total energy              =   -2896.37510360 Ry
     estimated scf accuracy    <       0.00000024 Ry

     iteration # 59     ecut=    29.40 Ry     beta= 0.05
     Davidson diagonalization with overlap
     ethr =  5.28E-11,  avg # of iterations =  4.6

     negative rho (up, down):  2.069E-02 0.000E+00

     Adding external electric field

     Computed dipole along edir(3) :
        Dipole                0.3684 Ry au,          0.9364 Debye
        Dipole field          0.0007 Ry au,

        Potential amp.       -0.0644 Ry
        Total length         46.3494 bohr

     End of self-consistent calculation

          k = 0.0000 0.0000 0.0000 ( 18029 PWs)   bands (ev):

   -56.6404 -56.6066 -56.3427 -56.3059 -56.2272 -56.1662 -56.0429 -56.0399
   -56.0056 -55.9452 -55.9357 -55.9089 -55.4378 -55.4038 -55.3539 -55.2683
   -33.0688 -32.8867 -32.8860 -32.8583 -32.8324 -32.7411 -32.6956 -32.6800
   -32.6495 -32.5574 -32.5447 -32.5375 -32.5232 -32.5198 -32.5126 -32.4958
   -32.4728 -32.4552 -32.4447 -32.3493 -32.3117 -32.2886 -32.2865 -32.2763
   -32.2625 -32.2591 -32.1971 -32.1937 -32.1678 -32.1617 -32.1542 -32.1302
   -32.1222 -32.1125 -32.0990 -32.0413 -31.8963 -31.8382 -31.7630 -31.7393
   -31.6567 -31.6258 -31.5873 -31.5717 -31.5608 -31.4853 -31.4596 -31.3417
   -16.9973 -16.8092 -16.5770 -16.4418 -16.3519 -16.2789 -16.0121 -16.0099
   -15.9637 -15.8915 -15.8636 -15.8008 -15.7976 -15.7714 -15.7606 -15.7509
   -15.7326 -15.6844 -15.6679 -15.6402 -15.6070 -15.5657 -15.4438 -15.4243
   -15.4079 -15.2937 -15.2441 -15.2059 -15.0227 -13.9307 -13.8166  -7.7773
    -4.3998  -4.3413  -4.1870  -4.1626  -4.0705  -3.8265  -3.6993  -3.4769
    -3.4357  -3.4050  -3.3901  -3.3239  -3.2648  -3.1575  -3.1413  -3.1198
    -3.0796  -3.0711  -3.0491  -3.0352  -3.0104  -2.9699  -2.8871  -2.8484
    -2.8291  -2.7499  -2.7225  -2.6453  -2.6189  -2.5746  -2.5493  -2.4901
    -2.4834  -2.4198  -2.3489  -2.2908  -2.1393  -2.0989  -2.0904  -2.0834
    -2.0129  -1.9038  -1.7624  -1.7280  -1.6616  -1.6600  -1.6422  -1.6055
    -1.5135  -1.4952  -1.4106  -1.3043  -1.2948  -1.2434  -1.1908  -1.1500
    -1.1331  -1.1327  -1.0755  -1.0433  -1.0071  -0.8802  -0.8528  -0.7335
    -0.7163  -0.6812  -0.6440  -0.6390  -0.5885  -0.5303  -0.4771  -0.4465
    -0.4252  -0.3782  -0.3679  -0.3327  -0.3100  -0.2553  -0.1404  -0.1166
    -0.1060  -0.0414   0.1439   0.1693   0.2122   0.3014   0.3499   0.5117
     0.5323   0.5909   0.7990   0.8357   1.1815   1.2615   1.5398   2.2807
     2.6272   2.8221   3.0827   3.1190   3.1363   3.1679   3.3427   3.3772
     3.3961

[...]

          k = 0.0380-0.0419 0.0000 ( 17876 PWs)   bands (ev):

[...]

          k =-0.0760-0.0000 0.0000 ( 17886 PWs)   bands (ev):

[...]

          k =-0.0760-0.0839 0.0000 ( 17948 PWs)   bands (ev):

   -56.6256 -56.6213 -56.3287 -56.3198 -56.2218 -56.1715 -56.0400 -56.0251
   -56.0201 -55.9385 -55.9315 -55.9225 -55.4208 -55.4208 -55.3502 -55.2719
   -32.8879 -32.8844 -32.8748 -32.8695 -32.7869 -32.7832 -32.6937 -32.6869
   -32.6050 -32.5941 -32.5370 -32.5269 -32.5248 -32.5167 -32.4913 -32.4642
   -32.4277 -32.3734 -32.3604 -32.3527 -32.3489 -32.2846 -32.2756 -32.2697
   -32.2675 -32.2588 -32.2516 -32.2431 -32.2313 -32.2258 -32.1834 -32.1748
   -32.1427 -32.1415 -32.1344 -32.1334 -31.7941 -31.7521 -31.7521 -31.6523
   -31.6523 -31.6351 -31.6241 -31.6143 -31.6142 -31.5641 -31.5058 -31.3818
   -16.4531 -16.4343 -16.2206 -16.2113 -16.1127 -16.1123 -16.1114 -16.1090
   -16.0088 -16.0060 -15.9339 -15.9197 -15.8637 -15.8559 -15.8206 -15.8188
   -15.7975 -15.7942 -15.7524 -15.7457 -15.6170 -15.6149 -15.5091 -15.5055
   -15.4663 -15.4258 -15.3861 -15.3757 -15.1591 -13.9190 -13.9186  -7.7796
    -3.7510  -3.7202  -3.4357  -3.4320  -3.2496  -3.2471  -3.2457  -3.2263
    -3.1824  -3.1525  -3.1428  -3.1173  -3.0859  -3.0433  -3.0325  -3.0127
    -3.0081  -3.0023  -2.9896  -2.9883  -2.9653  -2.9562  -2.9039  -2.8826
    -2.8721  -2.8624  -2.8132  -2.8119  -2.7088  -2.5860  -2.5379  -2.5338
    -2.4846  -2.4506  -2.3667  -2.3641  -2.3354  -2.3192  -2.2727  -2.1693
    -2.0375  -2.0350  -1.9893  -1.9593  -1.8933  -1.8181  -1.7161  -1.6501
    -1.6186  -1.5890  -1.5228  -1.4651  -1.4573  -1.4382  -1.4276  -1.4195
    -1.4055  -1.3092  -1.2969  -1.2256  -1.1884  -1.1782  -1.1682  -1.1358
    -1.1099  -1.0462  -0.9508  -0.9481  -0.9359  -0.9081  -0.8033  -0.7594
    -0.7026  -0.6515  -0.6054  -0.3578  -0.3553  -0.2012  -0.0924  -0.0302
     0.0348   0.0589   0.1017   0.1670   0.2288   0.2341   0.2611   0.2635
     0.3593   0.3618   0.9771   0.9775   1.0361   1.0372   1.7715   2.2235
     3.1076   3.1506   3.1680   3.1733   3.1984   3.2263   3.2446   3.2550
     3.5839

     the Fermi energy is     2.1458 ev

!    total energy              =   -2896.37515166 Ry
     estimated scf accuracy    <       0.00000005 Ry
     smearing contrib. (-TS)   =      -0.01052718 Ry
     internal energy E=F+TS    =   -2896.36462448 Ry

     The total energy is F=E-TS. E is the sum of the following terms:
     one-electron contribution =  -24783.62399072 Ry
     hartree contribution      =   12469.84472645 Ry
     xc contribution           =    -472.98153797 Ry
     ewald contribution        =    9890.39592162 Ry
     electric field correction =       0.00025614 Ry

     convergence has been achieved in  59 iterations

     Forces acting on atoms (cartesian axes, Ry/au):

     atom    1 type  1   force =     0.00019671   -0.00055207    0.14920260
     atom    2 type  1   force =    -0.00001731   -0.00030235   -0.17021537
     atom    3 type  2   force =     0.00005911    0.00011740   -0.06124075
     atom    4 type  2   force =     0.00010798   -0.00167471    0.04074662
     atom    5 type  2   force =    -0.02328449    0.00031781    0.00411053
     atom    6 type  2   force =     0.02300031    0.00152588    0.00331531
     atom    7 type  1   force =    -0.00054667    0.00073808    0.00018559
     atom    8 type  1   force =     0.00020841    0.00084411   -0.00022505
     atom    9 type  2   force =    -0.00005574    0.00009518   -0.00046771
     atom   10 type  2   force =    -0.00003289   -0.00051081    0.00030723
     atom   11 type  2   force =    -0.00025368    0.00047203    0.00029406
     atom   12 type  2   force =     0.00033109    0.00011752    0.00023744
     atom   13 type  1   force =     0.00033145    0.00065383   -0.00098036
     atom   14 type  1   force =    -0.00044818    0.00096597   -0.00030512
     atom   15 type  2   force =     0.00013000   -0.00006069   -0.00020939
     atom   16 type  2   force =     0.00013929   -0.00026229   -0.00005926
     atom   17 type  2   force =     0.00072677    0.00017212    0.00010359
     atom   18 type  2   force =    -0.00065124    0.00027181    0.00008707
     atom   19 type  1   force =     0.00000786   -0.00106791    0.00059706
     atom   20 type  1   force =     0.00007589   -0.00057020    0.00075557
     atom   21 type  2   force =     0.00008517   -0.00018424    0.10246550
     atom   22 type  2   force =    -0.00005494    0.00042044   -0.00037945
     atom   23 type  2   force =    -0.07446292    0.00019722   -0.03478763
     atom   24 type  2   force =     0.07441722    0.00062426   -0.03483793
     atom   25 type  1   force =    -0.00003313   -0.00050688    0.15025031
     atom   26 type  1   force =    -0.00001887   -0.00070058   -0.17017299
     atom   27 type  2   force =     0.00007224    0.00063738   -0.06045280
     atom   28 type  2   force =     0.00002789   -0.00161932    0.04019315
     atom   29 type  2   force =    -0.02286144    0.00145377    0.00428545
     atom   30 type  2   force =     0.02312837    0.00224709    0.00348541
     atom   31 type  1   force =    -0.00054605    0.00012192   -0.00079034
     atom   32 type  1   force =     0.00023310   -0.00110474    0.00049708
     atom   33 type  2   force =     0.00026253   -0.00007992    0.00122161
     atom   34 type  2   force =    -0.00004542    0.00059074   -0.00025940
     atom   35 type  2   force =    -0.00099121   -0.00042727    0.00003988
     atom   36 type  2   force =     0.00099567   -0.00022847    0.00010909
     atom   37 type  1   force =    -0.00005164   -0.00007122   -0.00025461
     atom   38 type  1   force =    -0.00069777   -0.00076853    0.00031871
     atom   39 type  2   force =    -0.00004376   -0.00019183   -0.00012828
     atom   40 type  2   force =     0.00009888   -0.00016130   -0.00076777
     atom   41 type  2   force =     0.00072391   -0.00036386    0.00047809
     atom   42 type  2   force =    -0.00071849   -0.00044917    0.00049999
     atom   43 type  1   force =    -0.00000703    0.00081686   -0.00089137
     atom   44 type  1   force =     0.00016943   -0.00036396    0.00065285
     atom   45 type  2   force =     0.00007449   -0.00018580    0.10245578
     atom   46 type  2   force =    -0.07445336   -0.00013646   -0.03479496
     atom   47 type  2   force =     0.07440464    0.00030827   -0.03484460
     atom   48 type  3   force =     0.00000606   -0.00084983    0.00099628
     atom   49 type  4   force =     0.00026178   -0.00031529   -0.00082670

     Total force =     0.404581     Total SCF correction =     0.000553
  @ DRIVER MODE: Message from server: STATUS
  @ DRIVER MODE: Message from server: GETFORCE
  @ DRIVER MODE: Returning v,forces,stress,ensemble

     Writing output data file ./calc.save/
  @ DRIVER MODE: Message from server: EXIT
  @ DRIVE MODE: Exiting

     General routines

     Parallel routines

   This run was terminated on:  13: 4:37  23Aug2021

   JOB DONE.