     Program PWSCF v.6.7GPU starts on 27Sep2021 at  6:39:41

     R & G space division:  proc/nbgrp/npool/nimage =       8
     Reading input from /storage/home/hcoda1/3/ntian30/research/carbon/CxH_vib/H2O_calc/ads_slab/CH2NHNHHO_b/out_0046/pw.inp
Warning: card &CELL ignored
Warning: card   CELL_DYNAMICS='IPI', ignored
Warning: card / ignored

     Current dimensions of program PWSCF are:
     Max number of different atomic species (ntypx) = 10
     Max number of k-points (npk) =  40000
     Max angular momentum in pseudopotentials (lmaxx) =  3
     Presently no symmetry can be used with electric field

     Message from routine cell_base_init:
     DEPRECATED: use true lattice parameter, not A to a.u. conversion factor

     IMPORTANT: XC functional enforced from input :
     Exchange-correlation= BEEF-VDW
                           (   1   4  43  14   2   0   0)
     Any further DFT definition will be discarded
     Please, verify this is what you really want

  @ DRIVER MODE: Connecting to
 qe_1139763_2971671.sched-torque.pace.gatech.edu75wd1sfi_scratch
  using UNIX socket
  @ DRIVER MODE: Message from server: STATUS
  @ DRIVER MODE: Message from server: INIT
  @ DRIVER MODE: Receiving replica           0          -1
  @ DRIVER MODE: Receiving encoded integer          25
  @ DRIVER MODE:  SCF:  T  FORCE:  T  STRESS:  F  VC:  F  ENSEMBLE:  F
  @ DRIVER MODE:  SCF:  T  FORCE:  T  STRESS:  F  VC:  F  ENSEMBLE:  F

     Using Slab Decomposition

     bravais-lattice index     =            0
     lattice parameter (alat)  =       1.8897  a.u.
     unit-cell volume          =    6658.9804 (a.u.)^3
     number of atoms/cell      =           56
     number of atomic types    =            5
     number of electrons       =       403.00
     number of Kohn-Sham states=          211
     kinetic-energy cutoff     =      29.3995  Ry
     charge density cutoff     =     293.9946  Ry
     scf convergence threshold =      7.3E-08
     mixing beta               =       0.0500
     number of iterations used =            8  plain     mixing
     Exchange-correlation= BEEF-VDW
                           (   1   4  43  14   2   0   0)

     celldm(1)=   1.889726  celldm(2)=   0.000000  celldm(3)=   0.000000
     celldm(4)=   0.000000  celldm(5)=   0.000000  celldm(6)=   0.000000

     crystal axes: (cart. coord. in units of alat)
               a(1) = (   6.579727   0.000000   0.000000 )
               a(2) = (  -0.000775   5.961596   0.000000 )
               a(3) = (   0.000000   0.000000  25.155947 )

     reciprocal axes: (cart. coord. in units 2 pi/alat)
               b(1) = (  0.151982  0.000020  0.000000 )
               b(2) = (  0.000000  0.167740  0.000000 )
               b(3) = (  0.000000  0.000000  0.039752 )

     PseudoPot. # 1 for Ti read from file:
     /storage/coda1/p-amedford6/0/shared/rich_project_chbe-medford/medford-share/data/pseudos_module/espresso/nninc/pbe/van/Ti.UPF
     MD5 check sum: 8e4df49b7f0d34bbd5052bf3f5ea0213
     Pseudo is Ultrasoft, Zval = 12.0
     Generated by new atomic code, or converted to UPF format
     Using radial grid of  851 points,  6 beta functions with:
                l(1) =   0
                l(2) =   0
                l(3) =   1
                l(4) =   1
                l(5) =   2
                l(6) =   2
     Q(r) pseudized with  8 coefficients,  rinner =    1.000   1.000   1.000
                                                       1.000   1.000

     PseudoPot. # 2 for O  read from file:
     /storage/coda1/p-amedford6/0/shared/rich_project_chbe-medford/medford-share/data/pseudos_module/espresso/nninc/pbe/van/O.UPF
     MD5 check sum: 78c19812648e8988a0fe644b0f25305e
     Pseudo is Ultrasoft, Zval =  6.0
     Generated by new atomic code, or converted to UPF format
     Using radial grid of  737 points,  4 beta functions with:
                l(1) =   0
                l(2) =   0
                l(3) =   1
                l(4) =   1
     Q(r) pseudized with  8 coefficients,  rinner =    0.800   0.800   0.800

     PseudoPot. # 3 for N  read from file:
     /storage/coda1/p-amedford6/0/shared/rich_project_chbe-medford/medford-share/data/pseudos_module/espresso/nninc/pbe/van/N.UPF
     MD5 check sum: 90d10febe142ad51ac9d5be1deb811c4
     Pseudo is Ultrasoft, Zval =  5.0
     Generated by new atomic code, or converted to UPF format
     Using radial grid of  729 points,  4 beta functions with:
                l(1) =   0
                l(2) =   0
                l(3) =   1
                l(4) =   1
     Q(r) pseudized with  8 coefficients,  rinner =    0.800   0.800   0.800

     PseudoPot. # 4 for C  read from file:
     /storage/coda1/p-amedford6/0/shared/rich_project_chbe-medford/medford-share/data/pseudos_module/espresso/nninc/pbe/van/C.UPF
     MD5 check sum: 1a69bf6b8db32088f5b2163dbdb77a27
     Pseudo is Ultrasoft, Zval =  4.0
     Generated by new atomic code, or converted to UPF format
     Using radial grid of  721 points,  4 beta functions with:
                l(1) =   0
                l(2) =   0
                l(3) =   1
                l(4) =   1
     Q(r) pseudized with  8 coefficients,  rinner =    0.800   0.800   0.800

     PseudoPot. # 5 for H  read from file:
     /storage/coda1/p-amedford6/0/shared/rich_project_chbe-medford/medford-share/data/pseudos_module/espresso/nninc/pbe/van/H.UPF
     MD5 check sum: b5ee9d7bfd3a09ee7748110bda690ff7
     Pseudo is Ultrasoft, Zval =  1.0
     Generated by new atomic code, or converted to UPF format
     Using radial grid of  615 points,  1 beta functions with:
                l(1) =   0
     Q(r) pseudized with  8 coefficients,  rinner =    0.800

     atomic species   valence    mass     pseudopotential
        Ti1           12.00    47.86700     Ti( 1.00)
        O1             6.00    15.99900     O ( 1.00)
        N1             5.00    14.00700     N ( 1.00)
        C1             4.00    12.01100     C ( 1.00)
        H1             1.00     1.00800     H ( 1.00)

     No symmetry found

   Cartesian axes

     site n.     atom                  positions (alat units)
         1           Ti1 tau(   1) = (   0.0004258   2.9801865   6.0000000  )
         2           Ti1 tau(   2) = (   3.2906075   1.4906267   6.0002472  )
         3           O1  tau(   3) = (   0.0006271   0.0005054   7.9858123  )
         4           O1  tau(   4) = (   3.2906025   0.0005020   7.3038282  )
         5           O1  tau(   5) = (   4.5942328   1.4918067   9.2879030  )
         6           O1  tau(   6) = (   1.9868534   1.4903216   9.2879459  )
         7           Ti1 tau(   7) = (   3.2907910   2.8959150   9.1758416  )
         8           Ti1 tau(   8) = (   0.0015273   1.4827037   9.2680791  )
         9           O1  tau(   9) = (   3.2987294   5.9443783  11.3578989  )
        10           O1  tau(  10) = (   0.0116148   5.9584955  10.6183126  )
        11           O1  tau(  11) = (   1.2795512   1.4821507  12.6386044  )
        12           O1  tau(  12) = (   5.2980455   1.5005163  12.6536529  )
        13           Ti1 tau(  13) = (   6.5652885   2.9238251  12.5528928  )
        14           Ti1 tau(  14) = (   3.2988635   1.2998061  12.7048432  )
        15           O1  tau(  15) = (   0.0127057   0.0339484  14.6761273  )
        16           O1  tau(  16) = (   3.2875936   0.0940603  14.0290633  )
        17           O1  tau(  17) = (   4.5650748   1.6033894  16.0357995  )
        18           O1  tau(  18) = (   2.0190796   1.5896112  16.2175902  )
        19           Ti1 tau(  19) = (   3.3013862   3.0422678  15.6649453  )
        20           Ti1 tau(  20) = (   6.4815444   1.5191555  15.8288377  )
        21           O1  tau(  21) = (   3.2904802   0.0005063   4.7018136  )
        22           O1  tau(  22) = (   6.5172723   5.9480513  17.2191950  )
        23           O1  tau(  23) = (   1.3043587   1.4918075   6.0039043  )
        24           O1  tau(  24) = (   5.2767064   1.4903225   6.0039473  )
        25           Ti1 tau(  25) = (   0.0000382   5.9609847   6.0000000  )
        26           Ti1 tau(  26) = (   3.2902200   4.4714249   6.0002472  )
        27           O1  tau(  27) = (   0.0002396   2.9813036   7.9858123  )
        28           O1  tau(  28) = (   3.2902150   2.9813002   7.3038282  )
        29           O1  tau(  29) = (   4.5938453   4.4726049   9.2879030  )
        30           O1  tau(  30) = (   1.9864658   4.4711199   9.2879459  )
        31           Ti1 tau(  31) = (   3.2891106   5.8743827   9.1763621  )
        32           Ti1 tau(  32) = (   0.0006254   4.4649316   9.2693709  )
        33           O1  tau(  33) = (   3.2945946   2.9940555  11.3077331  )
        34           O1  tau(  34) = (   0.0092240   2.9805883  10.6323155  )
        35           O1  tau(  35) = (   1.2876619   4.4781899  12.6403949  )
        36           O1  tau(  36) = (   5.3010724   4.4646845  12.6541769  )
        37           Ti1 tau(  37) = (   0.0424196   5.9023569  12.5123361  )
        38           Ti1 tau(  38) = (   3.3119368   4.3729351  12.4217702  )
        39           O1  tau(  39) = (   0.0401333   2.9740317  14.7512036  )
        40           O1  tau(  40) = (   3.2576645   3.0028392  13.8982547  )
        41           O1  tau(  41) = (   4.5666544   4.4234537  16.0705803  )
        42           O1  tau(  42) = (   2.0215446   4.4756893  16.1430302  )
        43           Ti1 tau(  43) = (   3.2259990   0.0392177  16.2341362  )
        44           Ti1 tau(  44) = (   6.5723990   4.6710500  15.9980081  )
        45           O1  tau(  45) = (   3.2900926   2.9813045   4.7018136  )
        46           O1  tau(  46) = (   1.3039711   4.4726057   6.0039043  )
        47           O1  tau(  47) = (   5.2763189   4.4711207   6.0039473  )
        48           N1  tau(  48) = (   0.9334729   2.5913682  18.4753943  )
        49           N1  tau(  49) = (   6.5156687   2.9055835  17.6419879  )
        50           C1  tau(  50) = (   1.0224037   2.6952286  19.7617917  )
        51           H1  tau(  51) = (   1.9166829   2.3177709  20.2270220  )
        52           H1  tau(  52) = (   0.2162702   3.1370440  20.3260263  )
        53           H1  tau(  53) = (   1.6995924   2.1399843  17.9426691  )
        54           H1  tau(  54) = (   5.6785098   3.1284051  18.1783837  )
        55           O1  tau(  55) = (   3.5318048   0.1010060  18.0897867  )
        56           H1  tau(  56) = (   4.4897960   0.0680733  18.2655997  )

     number of k points=    10  Fermi-Dirac smearing, width (Ry)=  0.0073
                       cart. coord. in units 2pi/alat
        k(    1) = (   0.0000000   0.0000000   0.0000000), wk =   0.1250000
        k(    2) = (   0.0000000   0.0419351   0.0000000), wk =   0.2500000
        k(    3) = (   0.0000000  -0.0838702   0.0000000), wk =   0.1250000
        k(    4) = (   0.0379955   0.0000049   0.0000000), wk =   0.2500000
        k(    5) = (   0.0379955   0.0419400   0.0000000), wk =   0.2500000
        k(    6) = (   0.0379955  -0.0838652   0.0000000), wk =   0.2500000
        k(    7) = (   0.0379955  -0.0419301   0.0000000), wk =   0.2500000
        k(    8) = (  -0.0759910  -0.0000099   0.0000000), wk =   0.1250000
        k(    9) = (  -0.0759910   0.0419252   0.0000000), wk =   0.2500000
        k(   10) = (  -0.0759910  -0.0838800   0.0000000), wk =   0.1250000

     Initial potential from superposition of free atoms

     starting charge  386.99914, renormalised to  403.00000

     negative rho (up, down):  1.426E-02 0.000E+00

     %%%%%%%%%%%%%%%%%%%%%%%%%%%%%%%%%%%%%%%%%%%%%%%%%%%%%%%%%%%%%%%%%%%%%%%%
     %                                                                      %
     % You are using vdW-DF, which was implemented by the Thonhauser group. %
     % Please cite the following two papers that made this development      %
     % possible and the two reviews that describe the various versions:     %
     %                                                                      %
     %   T. Thonhauser et al., PRL 115, 136402 (2015).                      %
     %   T. Thonhauser et al., PRB 76, 125112 (2007).                       %
     %   K. Berland et al., Rep. Prog. Phys. 78, 066501 (2015).             %
     %   D.C. Langreth et al., J. Phys.: Condens. Matter 21, 084203 (2009). %
     %                                                                      %
     %                                                                      %
     % If you are calculating the stress with vdW-DF, please also cite:     %
     %                                                                      %
     %   R. Sabatini et al., J. Phys.: Condens. Matter 24, 424209 (2012).   %
     %                                                                      %
     %%%%%%%%%%%%%%%%%%%%%%%%%%%%%%%%%%%%%%%%%%%%%%%%%%%%%%%%%%%%%%%%%%%%%%%%

     Adding external electric field

     Computed dipole along edir(3) :
        Dipole              -12.9683 Ry au,        -32.9621 Debye
        Dipole field         -0.0245 Ry au,

        Potential amp.        2.2686 Ry
        Total length         46.3494 bohr

     Starting wfcs are  305 atomic wfcs
  @ DRIVER MODE: Message from server: STATUS
  @ DRIVER MODE: Message from server: POSDATA
  @ DRIVER MODE: Reading and sharing cell
  @ DRIVER MODE: Reading and sharing positions
  @ DRIVER MODE: Received positions

     Self-consistent Calculation

     iteration #  1     ecut=    29.40 Ry     beta= 0.05
     Davidson diagonalization with overlap
     c_bands:  4 eigenvalues not converged
     c_bands:  4 eigenvalues not converged
     c_bands:  3 eigenvalues not converged
     c_bands:  1 eigenvalues not converged
     c_bands:  5 eigenvalues not converged
     c_bands:  3 eigenvalues not converged
     c_bands:  2 eigenvalues not converged
     ethr =  1.00E-05,  avg # of iterations = 24.0

[...]

     total energy              =   -2352.68116863 Ry
     estimated scf accuracy    <    7059.66491005 Ry

     iteration #  2     ecut=    29.40 Ry     beta= 0.05
     Davidson diagonalization with overlap
     ethr =  1.00E-02,  avg # of iterations = 23.3

[...]

     iteration # 60     ecut=    29.40 Ry     beta= 0.05
     Davidson diagonalization with overlap
     c_bands:  2 eigenvalues not converged
     c_bands:  2 eigenvalues not converged
     ethr =  1.13E-10,  avg # of iterations = 16.2

[...]

     total energy              =   -2973.99837602 Ry
     estimated scf accuracy    <       0.00000017 Ry

     iteration # 62     ecut=    29.40 Ry     beta= 0.05
     Davidson diagonalization with overlap
     ethr =  4.13E-11,  avg # of iterations =  9.7

     negative rho (up, down):  1.506E-02 0.000E+00

     Adding external electric field

     Computed dipole along edir(3) :
        Dipole                1.3488 Ry au,          3.4283 Debye
        Dipole field          0.0025 Ry au,

        Potential amp.       -0.2360 Ry
        Total length         46.3494 bohr

     End of self-consistent calculation

          k = 0.0000 0.0000 0.0000 ( 18029 PWs)   bands (ev):

   -55.4235 -55.3278 -55.2937 -55.1485 -55.1449 -55.1335 -55.1130 -55.1109
   -55.0843 -55.0552 -55.0342 -54.9572 -54.9551 -54.9105 -54.2913 -54.2573
   -31.8109 -31.7455 -31.6800 -31.6485 -31.6370 -31.6268 -31.6195 -31.5976
   -31.5727 -31.5715 -31.5675 -31.4828 -31.4801 -31.4329 -31.4190 -31.4047
   -31.3984 -31.3851 -31.3615 -31.3474 -31.3391 -31.3380 -31.3292 -31.3154
   -31.3029 -31.2910 -31.2781 -31.2757 -31.2746 -31.2633 -31.2597 -31.2493
   -31.2337 -31.2297 -31.2268 -31.1901 -31.1795 -31.1508 -31.1386 -31.1285
   -31.1164 -31.1120 -30.6969 -30.6117 -30.5891 -30.5144 -30.4281 -30.3163
   -19.6143 -16.1776 -15.9490 -15.7968 -15.6145 -15.4913 -15.4332 -15.2202
   -15.1523 -15.0814 -15.0006 -14.9354 -14.8585 -14.8443 -14.8190 -14.8037
   -14.7793 -14.7414 -14.7398 -14.7354 -14.6927 -14.6870 -14.6558 -14.6059
   -14.6006 -14.5786 -14.4565 -14.3828 -14.3367 -14.2029 -14.0823 -13.9495
   -12.7900 -12.6738 -10.1655  -7.0146  -6.6888  -4.2766  -4.0190  -3.6404
    -3.3297  -3.2530  -3.2226  -3.1815  -3.0574  -2.8765  -2.7588  -2.6854
    -2.5823  -2.4583  -2.4409  -2.3399  -2.3153  -2.2479  -2.2120  -2.1723
    -2.1516  -2.1283  -2.1056  -2.1019  -1.9900  -1.9855  -1.8604  -1.8427
    -1.7940  -1.7344  -1.6866  -1.6398  -1.6281  -1.6095  -1.5937  -1.5853
    -1.5546  -1.5407  -1.5170  -1.4646  -1.4044  -1.3566  -1.3197  -1.2065
    -1.0174  -0.9199  -0.8677  -0.8258  -0.7932  -0.7442  -0.7181  -0.7099
    -0.6794  -0.6413  -0.5076  -0.5010  -0.4547  -0.3787  -0.3388  -0.3178
    -0.1920  -0.1795  -0.1068  -0.0501  -0.0471  -0.0361   0.0585   0.1157
     0.1444   0.1737   0.2237   0.2814   0.3544   0.3830   0.4165   0.4759
     0.5369   0.5651   0.6246   0.6438   0.6555   0.7376   0.7584   0.7822
     0.8063   0.8765   0.9238   0.9596   0.9996   1.0878   1.1181   1.1676
     1.2057   1.3598   1.4146   1.6836   1.7349   1.7996   1.9288   2.3013
     2.3462   3.7743   3.9100   3.9293   3.9335   4.0310   4.1340   4.2471
     4.2952   4.3311   4.3763

[...]

          k = 0.0380-0.0419 0.0000 ( 17876 PWs)   bands (ev):

[...]

          k =-0.0760-0.0000 0.0000 ( 17886 PWs)   bands (ev):

[...]

          k =-0.0760-0.0839 0.0000 ( 17948 PWs)   bands (ev):

   -55.4228 -55.3110 -55.3104 -55.1340 -55.1337 -55.1306 -55.1289 -55.1236
   -55.0778 -55.0522 -55.0408 -54.9580 -54.9506 -54.9170 -54.2747 -54.2737
   -31.6792 -31.6719 -31.6285 -31.6264 -31.6260 -31.6052 -31.6046 -31.5452
   -31.5055 -31.4593 -31.4517 -31.4511 -31.4446 -31.4435 -31.4308 -31.4299
   -31.4203 -31.3983 -31.3774 -31.3683 -31.3574 -31.3425 -31.3416 -31.3302
   -31.3287 -31.3191 -31.3086 -31.3015 -31.2983 -31.2967 -31.2947 -31.2847
   -31.2732 -31.2628 -31.2576 -31.2494 -31.2203 -31.2097 -31.1833 -31.1594
   -31.1433 -31.1167 -30.6022 -30.6015 -30.5104 -30.5092 -30.4716 -30.4709
   -19.6124 -16.1398 -15.4851 -15.4163 -15.2677 -15.2585 -15.1870 -15.1458
   -15.1391 -15.0884 -15.0821 -15.0145 -14.9892 -14.9811 -14.9420 -14.8899
   -14.8397 -14.8097 -14.8042 -14.7561 -14.7461 -14.7346 -14.6982 -14.6784
   -14.6296 -14.6263 -14.6109 -14.5313 -14.4759 -14.3176 -14.3026 -13.9623
   -12.7760 -12.7754 -10.1688  -7.0105  -6.6860  -4.2670  -4.0073  -3.5934
    -2.6917  -2.6866  -2.6253  -2.4707  -2.4266  -2.3265  -2.3155  -2.2564
    -2.2426  -2.1939  -2.1743  -2.1626  -2.1262  -2.1063  -2.1032  -2.0764
    -2.0568  -2.0463  -2.0204  -1.9845  -1.9822  -1.9523  -1.9437  -1.9267
    -1.9064  -1.8851  -1.8654  -1.8601  -1.8085  -1.7744  -1.6175  -1.5982
    -1.4602  -1.4574  -1.4434  -1.4220  -1.3884  -1.3769  -1.3378  -1.3035
    -1.2338  -1.1895  -1.0955  -1.0606  -0.9538  -0.9257  -0.8551  -0.8070
    -0.7680  -0.7451  -0.7342  -0.7043  -0.6315  -0.5565  -0.5104  -0.4697
    -0.3696  -0.2946  -0.2696  -0.2654  -0.2581  -0.2252  -0.1549  -0.1533
    -0.1122  -0.0958  -0.0140  -0.0036   0.0103   0.0298   0.1656   0.1954
     0.2926   0.3566   0.4068   0.4606   0.4936   0.5438   0.6579   0.7890
     0.8418   0.8668   0.8809   0.9427   0.9906   1.0059   1.0525   1.1255
     1.1967   1.2453   1.2649   1.2884   1.3398   2.0979   2.1066   2.1662
     2.1666   4.0369   4.1383   4.2527   4.2872   4.3029   4.3222   4.3395
     4.3642   4.4084   4.4556

     the Fermi energy is     3.7997 ev

!    total energy              =   -2973.99844888 Ry
     estimated scf accuracy    <       0.00000006 Ry
     smearing contrib. (-TS)   =      -0.02052506 Ry
     internal energy E=F+TS    =   -2973.97792383 Ry

     The total energy is F=E-TS. E is the sum of the following terms:
     one-electron contribution =  -23635.47909992 Ry
     hartree contribution      =   11914.64632911 Ry
     xc contribution           =    -494.11809142 Ry
     ewald contribution        =    9240.96950517 Ry
     electric field correction =       0.00343322 Ry

     convergence has been achieved in  62 iterations

     Forces acting on atoms (cartesian axes, Ry/au):

     atom    1 type  1   force =    -0.00006611   -0.00028870    0.09525367
     atom    2 type  1   force =    -0.00011135    0.00043084   -0.17493672
     atom    3 type  2   force =     0.00000975   -0.00028215   -0.02255884
     atom    4 type  2   force =     0.00005198   -0.00195680    0.05325943
     atom    5 type  2   force =    -0.00764387   -0.00251019    0.00194612
     atom    6 type  2   force =     0.00923792   -0.00207106    0.00146825
     atom    7 type  1   force =    -0.00022846   -0.00467240    0.00733200
     atom    8 type  1   force =     0.00014092    0.00535071    0.01281908
     atom    9 type  2   force =    -0.00010716   -0.00003019    0.00021924
     atom   10 type  2   force =    -0.00275398    0.00061286   -0.01379981
     atom   11 type  2   force =    -0.00014990    0.00022497   -0.00001473
     atom   12 type  2   force =     0.00014416   -0.00003118    0.00023443
     atom   13 type  1   force =     0.00025714    0.00018315    0.00030125
     atom   14 type  1   force =     0.00002360   -0.00000737    0.00018828
     atom   15 type  2   force =     0.00036956   -0.00010667    0.00009080
     atom   16 type  2   force =    -0.00038015   -0.00005967    0.00008412
     atom   17 type  2   force =     0.00056815    0.00004031   -0.00052045
     atom   18 type  2   force =    -0.00003764    0.00002669    0.00005357
     atom   19 type  1   force =     0.00023895   -0.00040074   -0.00003648
     atom   20 type  1   force =    -0.00006217   -0.00011634   -0.00005647
     atom   21 type  2   force =     0.00005658    0.00003204    0.10302121
     atom   22 type  2   force =     0.00005715    0.00005094   -0.00010564
     atom   23 type  2   force =    -0.07224593   -0.00019592   -0.02750867
     atom   24 type  2   force =     0.07215144    0.00021625   -0.02757864
     atom   25 type  1   force =     0.00011102   -0.00025101    0.09498509
     atom   26 type  1   force =    -0.00023169   -0.00137086   -0.17515272
     atom   27 type  2   force =     0.00015883   -0.00013752   -0.02139881
     atom   28 type  2   force =     0.00004994   -0.00025491    0.04860100
     atom   29 type  2   force =    -0.00690657    0.00262096    0.00144030
     atom   30 type  2   force =     0.00849164    0.00314512    0.00086649
     atom   31 type  1   force =    -0.00009587    0.00788178   -0.00300731
     atom   32 type  1   force =     0.00038821   -0.00771891    0.01220425
     atom   33 type  2   force =     0.00008372   -0.00003538   -0.00014151
     atom   34 type  2   force =    -0.00195921    0.00048937   -0.01637418
     atom   35 type  2   force =    -0.00012494    0.00002690   -0.00000796
     atom   36 type  2   force =    -0.00005870    0.00031718   -0.00001188
     atom   37 type  1   force =    -0.00013934    0.00017941    0.00003460
     atom   38 type  1   force =    -0.00009380    0.00003370    0.00013380
     atom   39 type  2   force =    -0.00005008   -0.00022242   -0.00000193
     atom   40 type  2   force =     0.00012269    0.00001150    0.00019518
     atom   41 type  2   force =    -0.00013771    0.00021931    0.00042432
     atom   42 type  2   force =     0.00029941   -0.00016033    0.00010120
     atom   43 type  1   force =    -0.00020036    0.00061797   -0.00027879
     atom   44 type  1   force =     0.00038450   -0.00001364   -0.00011674
     atom   45 type  2   force =     0.00009059   -0.00014127    0.10281305
     atom   46 type  2   force =    -0.07223251   -0.00010103   -0.02756393
     atom   47 type  2   force =     0.07216556    0.00035734   -0.02759066
     atom   48 type  3   force =    -0.00009048    0.00020989    0.00002217
     atom   49 type  3   force =     0.00048125    0.00003847   -0.00001799
     atom   50 type  4   force =    -0.00016170    0.00024581   -0.00009454
     atom   51 type  5   force =     0.00025446    0.00022545    0.00035746
     atom   52 type  5   force =    -0.00057711   -0.00017537    0.00017947
     atom   53 type  5   force =     0.00061217    0.00000171   -0.00012127
     atom   54 type  5   force =     0.00005239    0.00005174   -0.00002093
     atom   55 type  2   force =    -0.00010757   -0.00112369    0.00030117
     atom   56 type  5   force =    -0.00009932    0.00059335    0.00008663

     Total force =     0.363245     Total SCF correction =     0.000556
  @ DRIVER MODE: Message from server: STATUS
  @ DRIVER MODE: Message from server: GETFORCE
  @ DRIVER MODE: Returning v,forces,stress,ensemble

     Writing output data file ./calc.save/
  @ DRIVER MODE: Message from server: EXIT
  @ DRIVE MODE: Exiting

     General routines

     Parallel routines

   This run was terminated on:   7: 2:50  27Sep2021

   JOB DONE.