     Program PWSCF v.6.7GPU starts on 22Sep2021 at  5:31:23

     R & G space division:  proc/nbgrp/npool/nimage =      10
     Reading input from /storage/home/hcoda1/3/ntian30/research/carbon/CxH_vib/CH_calc/ads_slab/CHNHNH2H2O_b/out_0021/pw.inp
Warning: card &CELL ignored
Warning: card   CELL_DYNAMICS='IPI', ignored
Warning: card / ignored

     Current dimensions of program PWSCF are:
     Max number of different atomic species (ntypx) = 10
     Max number of k-points (npk) =  40000
     Max angular momentum in pseudopotentials (lmaxx) =  3
     Presently no symmetry can be used with electric field

     Message from routine cell_base_init:
     DEPRECATED: use true lattice parameter, not A to a.u. conversion factor

     IMPORTANT: XC functional enforced from input :
     Exchange-correlation= BEEF-VDW
                           (   1   4  43  14   2   0   0)
     Any further DFT definition will be discarded
     Please, verify this is what you really want

  @ DRIVER MODE: Connecting to
 qe_1139763_2927425.sched-torque.pace.gatech.edurgysanxx_scratch
  using UNIX socket
  @ DRIVER MODE: Message from server: STATUS
  @ DRIVER MODE: Message from server: INIT
  @ DRIVER MODE: Receiving replica           0          -1
  @ DRIVER MODE: Receiving encoded integer          25
  @ DRIVER MODE:  SCF:  T  FORCE:  T  STRESS:  F  VC:  F  ENSEMBLE:  F
  @ DRIVER MODE:  SCF:  T  FORCE:  T  STRESS:  F  VC:  F  ENSEMBLE:  F

     Using Slab Decomposition

     bravais-lattice index     =            0
     lattice parameter (alat)  =       1.8897  a.u.
     unit-cell volume          =    6658.9804 (a.u.)^3
     number of atoms/cell      =           57
     number of atomic types    =            5
     number of electrons       =       404.00
     number of Kohn-Sham states=          212
     kinetic-energy cutoff     =      29.3995  Ry
     charge density cutoff     =     293.9946  Ry
     scf convergence threshold =      7.3E-08
     mixing beta               =       0.0500
     number of iterations used =            8  plain     mixing
     Exchange-correlation= BEEF-VDW
                           (   1   4  43  14   2   0   0)

     celldm(1)=   1.889726  celldm(2)=   0.000000  celldm(3)=   0.000000
     celldm(4)=   0.000000  celldm(5)=   0.000000  celldm(6)=   0.000000

     crystal axes: (cart. coord. in units of alat)
               a(1) = (   6.579727   0.000000   0.000000 )
               a(2) = (  -0.000775   5.961596   0.000000 )
               a(3) = (   0.000000   0.000000  25.155947 )

     reciprocal axes: (cart. coord. in units 2 pi/alat)
               b(1) = (  0.151982  0.000020  0.000000 )
               b(2) = (  0.000000  0.167740  0.000000 )
               b(3) = (  0.000000  0.000000  0.039752 )

     PseudoPot. # 1 for Ti read from file:
     /storage/coda1/p-amedford6/0/shared/rich_project_chbe-medford/medford-share/data/pseudos_module/espresso/nninc/pbe/van/Ti.UPF
     MD5 check sum: 8e4df49b7f0d34bbd5052bf3f5ea0213
     Pseudo is Ultrasoft, Zval = 12.0
     Generated by new atomic code, or converted to UPF format
     Using radial grid of  851 points,  6 beta functions with:
                l(1) =   0
                l(2) =   0
                l(3) =   1
                l(4) =   1
                l(5) =   2
                l(6) =   2
     Q(r) pseudized with  8 coefficients,  rinner =    1.000   1.000   1.000
                                                       1.000   1.000

     PseudoPot. # 2 for O  read from file:
     /storage/coda1/p-amedford6/0/shared/rich_project_chbe-medford/medford-share/data/pseudos_module/espresso/nninc/pbe/van/O.UPF
     MD5 check sum: 78c19812648e8988a0fe644b0f25305e
     Pseudo is Ultrasoft, Zval =  6.0
     Generated by new atomic code, or converted to UPF format
     Using radial grid of  737 points,  4 beta functions with:
                l(1) =   0
                l(2) =   0
                l(3) =   1
                l(4) =   1
     Q(r) pseudized with  8 coefficients,  rinner =    0.800   0.800   0.800

     PseudoPot. # 3 for N  read from file:
     /storage/coda1/p-amedford6/0/shared/rich_project_chbe-medford/medford-share/data/pseudos_module/espresso/nninc/pbe/van/N.UPF
     MD5 check sum: 90d10febe142ad51ac9d5be1deb811c4
     Pseudo is Ultrasoft, Zval =  5.0
     Generated by new atomic code, or converted to UPF format
     Using radial grid of  729 points,  4 beta functions with:
                l(1) =   0
                l(2) =   0
                l(3) =   1
                l(4) =   1
     Q(r) pseudized with  8 coefficients,  rinner =    0.800   0.800   0.800

     PseudoPot. # 4 for C  read from file:
     /storage/coda1/p-amedford6/0/shared/rich_project_chbe-medford/medford-share/data/pseudos_module/espresso/nninc/pbe/van/C.UPF
     MD5 check sum: 1a69bf6b8db32088f5b2163dbdb77a27
     Pseudo is Ultrasoft, Zval =  4.0
     Generated by new atomic code, or converted to UPF format
     Using radial grid of  721 points,  4 beta functions with:
                l(1) =   0
                l(2) =   0
                l(3) =   1
                l(4) =   1
     Q(r) pseudized with  8 coefficients,  rinner =    0.800   0.800   0.800

     PseudoPot. # 5 for H  read from file:
     /storage/coda1/p-amedford6/0/shared/rich_project_chbe-medford/medford-share/data/pseudos_module/espresso/nninc/pbe/van/H.UPF
     MD5 check sum: b5ee9d7bfd3a09ee7748110bda690ff7
     Pseudo is Ultrasoft, Zval =  1.0
     Generated by new atomic code, or converted to UPF format
     Using radial grid of  615 points,  1 beta functions with:
                l(1) =   0
     Q(r) pseudized with  8 coefficients,  rinner =    0.800

     atomic species   valence    mass     pseudopotential
        Ti1           12.00    47.86700     Ti( 1.00)
        O1             6.00    15.99900     O ( 1.00)
        N1             5.00    14.00700     N ( 1.00)
        C1             4.00    12.01100     C ( 1.00)
        H1             1.00     1.00800     H ( 1.00)

     No symmetry found

   Cartesian axes

     site n.     atom                  positions (alat units)
         1           Ti1 tau(   1) = (   0.0004258   2.9801865   6.0000000  )
         2           Ti1 tau(   2) = (   3.2906075   1.4906267   6.0002472  )
         3           O1  tau(   3) = (   0.0006271   0.0005054   7.9858123  )
         4           O1  tau(   4) = (   3.2906025   0.0005020   7.3038282  )
         5           O1  tau(   5) = (   4.5942328   1.4918067   9.2879030  )
         6           O1  tau(   6) = (   1.9868534   1.4903216   9.2879459  )
         7           Ti1 tau(   7) = (   3.2907910   2.8959150   9.1758416  )
         8           Ti1 tau(   8) = (   0.0015273   1.4827037   9.2680791  )
         9           O1  tau(   9) = (   3.3066417   5.9496923  11.3845403  )
        10           O1  tau(  10) = (   0.0116148   5.9584955  10.6183126  )
        11           O1  tau(  11) = (   1.3010148   1.4986442  12.6442229  )
        12           O1  tau(  12) = (   5.3085967   1.5001388  12.6592367  )
        13           Ti1 tau(  13) = (   0.0282779   2.9853959  12.5065338  )
        14           Ti1 tau(  14) = (   3.3279724   1.4707331  12.5413945  )
        15           O1  tau(  15) = (   0.0378505   0.0859181  14.6860672  )
        16           O1  tau(  16) = (   3.3018867   0.0259462  14.0338077  )
        17           O1  tau(  17) = (   4.5998927   1.5484098  16.1661054  )
        18           O1  tau(  18) = (   2.0454451   1.5021798  16.2221046  )
        19           Ti1 tau(  19) = (   3.3206312   2.9825829  15.7321521  )
        20           Ti1 tau(  20) = (   0.0140791   1.4435866  15.9983415  )
        21           O1  tau(  21) = (   3.2904802   0.0005063   4.7018136  )
        22           O1  tau(  22) = (   6.5273045   5.8164216  17.2577718  )
        23           O1  tau(  23) = (   1.3043587   1.4918075   6.0039043  )
        24           O1  tau(  24) = (   5.2767064   1.4903225   6.0039473  )
        25           Ti1 tau(  25) = (   0.0000382   5.9609847   6.0000000  )
        26           Ti1 tau(  26) = (   3.2902200   4.4714249   6.0002472  )
        27           O1  tau(  27) = (   0.0002396   2.9813036   7.9858123  )
        28           O1  tau(  28) = (   3.2902150   2.9813002   7.3038282  )
        29           O1  tau(  29) = (   4.5938453   4.4726049   9.2879030  )
        30           O1  tau(  30) = (   1.9864658   4.4711199   9.2879459  )
        31           Ti1 tau(  31) = (   3.2891106   5.8743827   9.1763621  )
        32           Ti1 tau(  32) = (   0.0006254   4.4649316   9.2693709  )
        33           O1  tau(  33) = (   3.3068470   2.9864458  11.3814114  )
        34           O1  tau(  34) = (   0.0092240   2.9805883  10.6323155  )
        35           O1  tau(  35) = (   1.2982948   4.4740332  12.6840172  )
        36           O1  tau(  36) = (   5.3097620   4.4704985  12.6972095  )
        37           Ti1 tau(  37) = (   0.0348817   0.0130325  12.4954113  )
        38           Ti1 tau(  38) = (   3.3270268   4.4633798  12.5435021  )
        39           O1  tau(  39) = (   0.0563025   2.9439880  14.9425960  )
        40           O1  tau(  40) = (   3.2900316   2.9661073  13.9503945  )
        41           O1  tau(  41) = (   4.5967999   4.4093095  16.0633277  )
        42           O1  tau(  42) = (   2.0412097   4.4536800  16.1303113  )
        43           Ti1 tau(  43) = (   3.2964201   5.9600488  15.8742613  )
        44           Ti1 tau(  44) = (   0.0241369   4.6516137  15.8518307  )
        45           O1  tau(  45) = (   3.2900926   2.9813045   4.7018136  )
        46           O1  tau(  46) = (   1.3039711   4.4726057   6.0039043  )
        47           O1  tau(  47) = (   5.2763189   4.4711207   6.0039473  )
        48           N1  tau(  48) = (   1.4509408   2.7109095  18.7602185  )
        49           N1  tau(  49) = (   0.0917387   2.5303350  18.2207845  )
        50           C1  tau(  50) = (   1.9503960   3.7723240  19.2784661  )
        51           H1  tau(  51) = (   1.1612915   4.5173475  19.4152495  )
        52           H1  tau(  52) = (   2.0208952   1.9183395  18.4664618  )
        53           H1  tau(  53) = (   6.1377449   3.3539424  18.4987646  )
        54           H1  tau(  54) = (   6.2616785   1.7135167  18.6767212  )
        55           O1  tau(  55) = (   3.7012217   5.9496235  18.2853534  )
        56           H1  tau(  56) = (   4.6684668   5.8470116  18.1670174  )
        57           H1  tau(  57) = (   3.3852657   5.1278045  18.7338684  )

     number of k points=    10  Fermi-Dirac smearing, width (Ry)=  0.0073
                       cart. coord. in units 2pi/alat
        k(    1) = (   0.0000000   0.0000000   0.0000000), wk =   0.1250000
        k(    2) = (   0.0000000   0.0419351   0.0000000), wk =   0.2500000
        k(    3) = (   0.0000000  -0.0838702   0.0000000), wk =   0.1250000
        k(    4) = (   0.0379955   0.0000049   0.0000000), wk =   0.2500000
        k(    5) = (   0.0379955   0.0419400   0.0000000), wk =   0.2500000
        k(    6) = (   0.0379955  -0.0838652   0.0000000), wk =   0.2500000
        k(    7) = (   0.0379955  -0.0419301   0.0000000), wk =   0.2500000
        k(    8) = (  -0.0759910  -0.0000099   0.0000000), wk =   0.1250000
        k(    9) = (  -0.0759910   0.0419252   0.0000000), wk =   0.2500000
        k(   10) = (  -0.0759910  -0.0838800   0.0000000), wk =   0.1250000

     Initial potential from superposition of free atoms

     starting charge  387.99913, renormalised to  404.00000

     negative rho (up, down):  1.598E-02 0.000E+00

     %%%%%%%%%%%%%%%%%%%%%%%%%%%%%%%%%%%%%%%%%%%%%%%%%%%%%%%%%%%%%%%%%%%%%%%%
     %                                                                      %
     % You are using vdW-DF, which was implemented by the Thonhauser group. %
     % Please cite the following two papers that made this development      %
     % possible and the two reviews that describe the various versions:     %
     %                                                                      %
     %   T. Thonhauser et al., PRL 115, 136402 (2015).                      %
     %   T. Thonhauser et al., PRB 76, 125112 (2007).                       %
     %   K. Berland et al., Rep. Prog. Phys. 78, 066501 (2015).             %
     %   D.C. Langreth et al., J. Phys.: Condens. Matter 21, 084203 (2009). %
     %                                                                      %
     %                                                                      %
     % If you are calculating the stress with vdW-DF, please also cite:     %
     %                                                                      %
     %   R. Sabatini et al., J. Phys.: Condens. Matter 24, 424209 (2012).   %
     %                                                                      %
     %%%%%%%%%%%%%%%%%%%%%%%%%%%%%%%%%%%%%%%%%%%%%%%%%%%%%%%%%%%%%%%%%%%%%%%%

     Adding external electric field

     Computed dipole along edir(3) :
        Dipole              -14.3585 Ry au,        -36.4957 Debye
        Dipole field         -0.0271 Ry au,

        Potential amp.        2.5118 Ry
        Total length         46.3494 bohr

     Starting wfcs are  306 atomic wfcs
  @ DRIVER MODE: Message from server: STATUS
  @ DRIVER MODE: Message from server: POSDATA
  @ DRIVER MODE: Reading and sharing cell
  @ DRIVER MODE: Reading and sharing positions
  @ DRIVER MODE: Received positions

     Self-consistent Calculation

     iteration #  1     ecut=    29.40 Ry     beta= 0.05
     Davidson diagonalization with overlap
     c_bands:  3 eigenvalues not converged
     c_bands:  4 eigenvalues not converged
     c_bands:  4 eigenvalues not converged
     c_bands:  4 eigenvalues not converged
     c_bands:  5 eigenvalues not converged
     c_bands:  3 eigenvalues not converged
     c_bands:  2 eigenvalues not converged
     c_bands:  4 eigenvalues not converged
     ethr =  1.00E-05,  avg # of iterations = 21.9

[...]

     total energy              =   -2220.92316761 Ry
     estimated scf accuracy    <    8587.38660718 Ry

     iteration #  2     ecut=    29.40 Ry     beta= 0.05
     Davidson diagonalization with overlap
     ethr =  1.00E-02,  avg # of iterations = 28.7

[...]

     iteration # 64     ecut=    29.40 Ry     beta= 0.05
     Davidson diagonalization with overlap
     c_bands:  2 eigenvalues not converged
     ethr =  1.14E-10,  avg # of iterations = 13.9

[...]

     total energy              =   -2975.10523371 Ry
     estimated scf accuracy    <       0.00000008 Ry

     iteration # 69     ecut=    29.40 Ry     beta= 0.05
     Davidson diagonalization with overlap
     ethr =  1.90E-11,  avg # of iterations = 11.0

     negative rho (up, down):  1.579E-02 0.000E+00

     Adding external electric field

     Computed dipole along edir(3) :
        Dipole                1.0251 Ry au,          2.6055 Debye
        Dipole field          0.0019 Ry au,

        Potential amp.       -0.1793 Ry
        Total length         46.3494 bohr

     End of self-consistent calculation

          k = 0.0000 0.0000 0.0000 ( 18029 PWs)   bands (ev):

   -55.3850 -55.3492 -55.3450 -55.3109 -55.3078 -55.3023 -55.2669 -55.2315
   -55.2165 -55.1817 -55.1749 -55.1595 -55.1412 -55.1119 -54.3763 -54.3422
   -31.9439 -31.8800 -31.8377 -31.7565 -31.7077 -31.7051 -31.6808 -31.6779
   -31.6338 -31.5980 -31.5909 -31.5896 -31.5827 -31.5790 -31.5611 -31.5590
   -31.5343 -31.5263 -31.5233 -31.5120 -31.4977 -31.4911 -31.4724 -31.4675
   -31.4590 -31.4462 -31.4454 -31.4167 -31.4023 -31.3985 -31.3955 -31.3733
   -31.3694 -31.3654 -31.3618 -31.3405 -31.3296 -31.3174 -31.3026 -31.3025
   -31.2923 -31.2860 -30.7857 -30.6913 -30.6692 -30.6021 -30.5153 -30.4044
   -18.8819 -18.4546 -16.2197 -15.9724 -15.8364 -15.7318 -15.5945 -15.4964
   -15.3872 -15.2739 -15.2509 -15.1571 -15.0828 -15.0787 -15.0416 -15.0160
   -14.9534 -14.9320 -14.9082 -14.9023 -14.8877 -14.8775 -14.8410 -14.8301
   -14.7973 -14.7862 -14.7688 -14.6500 -14.6264 -14.5516 -14.4810 -14.3440
   -12.8788 -12.7613  -9.8483  -7.0002  -6.3769  -6.0924  -4.4344  -3.7334
    -3.5434  -3.4100  -3.3315  -3.3027  -3.2852  -3.1538  -3.0602  -2.9017
    -2.8628  -2.8065  -2.6733  -2.5975  -2.5911  -2.5031  -2.4307  -2.4074
    -2.3744  -2.2652  -2.2589  -2.2092  -2.1918  -2.1686  -2.1594  -2.1127
    -2.0668  -2.0396  -1.9545  -1.8530  -1.8091  -1.7894  -1.7531  -1.7304
    -1.7257  -1.6820  -1.6758  -1.6520  -1.6133  -1.5890  -1.5436  -1.4316
    -1.3900  -1.2313  -1.1939  -1.0396  -1.0192  -0.9799  -0.9596  -0.9231
    -0.8932  -0.8769  -0.8616  -0.7718  -0.7136  -0.6473  -0.5833  -0.4923
    -0.4819  -0.4079  -0.3823  -0.3171  -0.2294  -0.1850  -0.1754  -0.1506
    -0.1472  -0.0335   0.0113   0.0716   0.0902   0.1476   0.1635   0.1856
     0.2557   0.3092   0.3787   0.4094   0.4885   0.5067   0.5418   0.5510
     0.5833   0.5938   0.6700   0.6848   0.7130   0.8157   0.9132   1.0061
     1.2159   1.2187   1.2457   1.5512   1.5534   1.6466   1.8300   2.2229
     2.2713   3.7049   3.7833   3.8329   3.8505   3.8550   3.9398   4.1944
     4.2087   4.2213   4.2276   4.2683

[...]

          k = 0.0380-0.0419 0.0000 ( 17876 PWs)   bands (ev):

[...]

          k =-0.0760-0.0000 0.0000 ( 17886 PWs)   bands (ev):

[...]

          k =-0.0760-0.0839 0.0000 ( 17948 PWs)   bands (ev):

   -55.3681 -55.3658 -55.3280 -55.3277 -55.3049 -55.3014 -55.2531 -55.2452
   -55.2023 -55.1955 -55.1613 -55.1589 -55.1573 -55.1137 -54.3592 -54.3592
   -31.7947 -31.7564 -31.7423 -31.6529 -31.6526 -31.6382 -31.6263 -31.6192
   -31.6189 -31.5981 -31.5931 -31.5899 -31.5670 -31.5594 -31.5474 -31.5336
   -31.5303 -31.5277 -31.5238 -31.5157 -31.5111 -31.5090 -31.5080 -31.5002
   -31.4683 -31.4669 -31.4478 -31.4476 -31.4472 -31.4422 -31.4395 -31.4351
   -31.4257 -31.4144 -31.4086 -31.3918 -31.3901 -31.3801 -31.3388 -31.3378
   -31.3372 -31.3183 -30.6819 -30.6818 -30.5983 -30.5981 -30.5588 -30.5587
   -18.8761 -18.4569 -15.8393 -15.6526 -15.5013 -15.4294 -15.4092 -15.3259
   -15.2705 -15.2672 -15.1941 -15.1761 -15.1637 -15.1421 -15.1325 -15.0851
   -15.0480 -15.0114 -14.9926 -14.9700 -14.9268 -14.9042 -14.9025 -14.8958
   -14.8880 -14.8477 -14.8425 -14.8392 -14.7475 -14.7456 -14.7089 -14.5601
   -12.8628 -12.8627  -9.8575  -6.9890  -6.3518  -6.0687  -4.4478  -3.6615
    -3.0223  -2.9107  -2.9001  -2.6711  -2.6529  -2.5918  -2.5793  -2.4913
    -2.4756  -2.4151  -2.3915  -2.3413  -2.3184  -2.2805  -2.2667  -2.2450
    -2.2239  -2.2102  -2.1836  -2.1676  -2.1506  -2.1310  -2.1200  -2.1086
    -2.0532  -2.0478  -2.0388  -2.0135  -1.9904  -1.9543  -1.9443  -1.9280
    -1.7726  -1.7569  -1.7354  -1.6001  -1.5957  -1.5617  -1.5215  -1.4940
    -1.4360  -1.4274  -1.3992  -1.3405  -1.1467  -1.1363  -1.1241  -1.1062
    -1.0352  -0.9795  -0.9657  -0.9477  -0.8940  -0.8159  -0.7822  -0.7297
    -0.6407  -0.5887  -0.5791  -0.5533  -0.4321  -0.4091  -0.3666  -0.3486
    -0.3324  -0.2980  -0.2964  -0.2388  -0.1863  -0.1509  -0.1279  -0.1137
    -0.0767   0.0780   0.1301   0.1464   0.2608   0.2900   0.4681   0.5110
     0.5327   0.6377   0.7210   0.7489   0.7635   0.8891   0.9111   0.9135
     0.9818   1.0040   1.0641   1.0698   1.2019   2.0027   2.0040   2.0912
     2.0914   3.8300   3.9527   3.9971   4.0329   4.1088   4.1616   4.2187
     4.2778   4.2897   4.2930   4.3592

     the Fermi energy is     3.7670 ev

!    total energy              =   -2975.10526076 Ry
     estimated scf accuracy    <       0.00000003 Ry
     smearing contrib. (-TS)   =      -0.03672036 Ry
     internal energy E=F+TS    =   -2975.06854040 Ry

     The total energy is F=E-TS. E is the sum of the following terms:
     one-electron contribution =  -23505.49944606 Ry
     hartree contribution      =   11848.76983154 Ry
     xc contribution           =    -494.92317804 Ry
     ewald contribution        =    9176.58226918 Ry
     electric field correction =       0.00198298 Ry

     convergence has been achieved in  69 iterations

     Forces acting on atoms (cartesian axes, Ry/au):

     atom    1 type  1   force =     0.00002898   -0.00025073    0.09307924
     atom    2 type  1   force =    -0.00018340   -0.00032003   -0.17839250
     atom    3 type  2   force =     0.00006071   -0.00016980   -0.02024801
     atom    4 type  2   force =     0.00001721   -0.00203651    0.05924914
     atom    5 type  2   force =    -0.01034213   -0.00110215    0.00809014
     atom    6 type  2   force =     0.01218383   -0.00054696    0.00817060
     atom    7 type  1   force =     0.00015118    0.00329805   -0.01111933
     atom    8 type  1   force =    -0.00030480    0.00052964   -0.00561761
     atom    9 type  2   force =     0.00004083    0.00017986   -0.00013452
     atom   10 type  2   force =    -0.00146461   -0.00003442   -0.00170518
     atom   11 type  2   force =     0.00036741   -0.00003471   -0.00005697
     atom   12 type  2   force =    -0.00008904    0.00010657   -0.00008637
     atom   13 type  1   force =    -0.00009895   -0.00016970   -0.00024110
     atom   14 type  1   force =    -0.00021349   -0.00036182    0.00034910
     atom   15 type  2   force =     0.00006614   -0.00048158    0.00010774
     atom   16 type  2   force =     0.00022123    0.00009155    0.00026600
     atom   17 type  2   force =     0.00035373   -0.00015577    0.00018901
     atom   18 type  2   force =    -0.00003809   -0.00014044   -0.00017480
     atom   19 type  1   force =    -0.00030883   -0.00045940    0.00001009
     atom   20 type  1   force =     0.00015854    0.00025703    0.00052563
     atom   21 type  2   force =    -0.00000320   -0.00007446    0.10400893
     atom   22 type  2   force =    -0.00008948   -0.00008338   -0.00007651
     atom   23 type  2   force =    -0.07034020   -0.00015948   -0.02685480
     atom   24 type  2   force =     0.07021024    0.00028890   -0.02693088
     atom   25 type  1   force =     0.00001912   -0.00015573    0.09273431
     atom   26 type  1   force =    -0.00015632   -0.00039554   -0.17834038
     atom   27 type  2   force =     0.00011160   -0.00030823   -0.01919078
     atom   28 type  2   force =     0.00004652   -0.00163418    0.05839924
     atom   29 type  2   force =    -0.01029397   -0.00063865    0.00729885
     atom   30 type  2   force =     0.01202916   -0.00030673    0.00743359
     atom   31 type  1   force =     0.00007635    0.00515241   -0.01466014
     atom   32 type  1   force =    -0.00013967   -0.00051262   -0.00596221
     atom   33 type  2   force =     0.00012774   -0.00039293   -0.00022171
     atom   34 type  2   force =    -0.00078732    0.00260721   -0.00102705
     atom   35 type  2   force =    -0.00008284   -0.00011510   -0.00011957
     atom   36 type  2   force =     0.00024524    0.00000198   -0.00014692
     atom   37 type  1   force =    -0.00044542    0.00007804    0.00002480
     atom   38 type  1   force =    -0.00002808   -0.00024312   -0.00023307
     atom   39 type  2   force =    -0.00030664   -0.00020322   -0.00013485
     atom   40 type  2   force =    -0.00013327   -0.00005746   -0.00001889
     atom   41 type  2   force =    -0.00015095   -0.00016579    0.00037702
     atom   42 type  2   force =    -0.00005488   -0.00025496    0.00012543
     atom   43 type  1   force =    -0.00001280   -0.00029647    0.00014617
     atom   44 type  1   force =     0.00001165   -0.00001843    0.00016283
     atom   45 type  2   force =     0.00000993   -0.00011013    0.10398057
     atom   46 type  2   force =    -0.07036543   -0.00011999   -0.02687723
     atom   47 type  2   force =     0.07020925    0.00031645   -0.02693705
     atom   48 type  3   force =     0.00115746   -0.00054879   -0.00014296
     atom   49 type  3   force =    -0.00062731   -0.00067759    0.00053230
     atom   50 type  4   force =     0.00427226   -0.00427784   -0.00020482
     atom   51 type  5   force =    -0.00490670    0.00619834    0.00086653
     atom   52 type  5   force =    -0.00019437   -0.00103325   -0.00046661
     atom   53 type  5   force =    -0.00015155    0.00004507   -0.00002468
     atom   54 type  5   force =     0.00021888    0.00052968   -0.00005851
     atom   55 type  2   force =     0.00020159   -0.00014399    0.00056735
     atom   56 type  5   force =     0.00023254   -0.00035848   -0.00043227
     atom   57 type  5   force =    -0.00051556   -0.00013025    0.00014370

     Total force =     0.366328     Total SCF correction =     0.000569
  @ DRIVER MODE: Message from server: STATUS
  @ DRIVER MODE: Message from server: GETFORCE
  @ DRIVER MODE: Returning v,forces,stress,ensemble

     Writing output data file ./calc.save/
  @ DRIVER MODE: Message from server: EXIT
  @ DRIVE MODE: Exiting

     General routines

     Parallel routines

   This run was terminated on:   5:50:50  22Sep2021

   JOB DONE.