     Program PWSCF v.6.7GPU starts on 16Jul2021 at 18: 4:15

     R & G space division:  proc/nbgrp/npool/nimage =      16
     Reading input from /storage/home/hcoda1/3/ntian30/research/carbon/15Jul_vib/ads_slab/CH3N2H_a/out_0035/pw.inp
Warning: card &CELL ignored
Warning: card   CELL_DYNAMICS='IPI', ignored
Warning: card / ignored

     Current dimensions of program PWSCF are:
     Max number of different atomic species (ntypx) = 10
     Max number of k-points (npk) =  40000
     Max angular momentum in pseudopotentials (lmaxx) =  3
     Presently no symmetry can be used with electric field

     Message from routine cell_base_init:
     DEPRECATED: use true lattice parameter, not A to a.u. conversion factor

     IMPORTANT: XC functional enforced from input :
     Exchange-correlation= BEEF-VDW
                           (   1   4  43  14   2   0   0)
     Any further DFT definition will be discarded
     Please, verify this is what you really want

  @ DRIVER MODE: Connecting to
 qe_1139763_2351646.sched-torque.pace.gatech.edu_9rc4644_scratch
  using UNIX socket
  @ DRIVER MODE: Message from server: STATUS
  @ DRIVER MODE: Message from server: INIT
  @ DRIVER MODE: Receiving replica           0          -1
  @ DRIVER MODE: Receiving encoded integer          25
  @ DRIVER MODE:  SCF:  T  FORCE:  T  STRESS:  F  VC:  F  ENSEMBLE:  F
  @ DRIVER MODE:  SCF:  T  FORCE:  T  STRESS:  F  VC:  F  ENSEMBLE:  F

     Using Slab Decomposition

     bravais-lattice index     =            0
     lattice parameter (alat)  =       1.8897  a.u.
     unit-cell volume          =    6658.9804 (a.u.)^3
     number of atoms/cell      =           54
     number of atomic types    =            5
     number of electrons       =       396.00
     number of Kohn-Sham states=          208
     kinetic-energy cutoff     =      29.3995  Ry
     charge density cutoff     =     293.9946  Ry
     scf convergence threshold =      7.3E-08
     mixing beta               =       0.0500
     number of iterations used =            8  plain     mixing
     Exchange-correlation= BEEF-VDW
                           (   1   4  43  14   2   0   0)

     celldm(1)=   1.889726  celldm(2)=   0.000000  celldm(3)=   0.000000
     celldm(4)=   0.000000  celldm(5)=   0.000000  celldm(6)=   0.000000

     crystal axes: (cart. coord. in units of alat)
               a(1) = (   6.579727   0.000000   0.000000 )
               a(2) = (  -0.000775   5.961596   0.000000 )
               a(3) = (   0.000000   0.000000  25.155947 )

     reciprocal axes: (cart. coord. in units 2 pi/alat)
               b(1) = (  0.151982  0.000020  0.000000 )
               b(2) = (  0.000000  0.167740  0.000000 )
               b(3) = (  0.000000  0.000000  0.039752 )

     PseudoPot. # 1 for Ti read from file:
     /storage/coda1/p-amedford6/0/shared/rich_project_chbe-medford/medford-share/data/pseudos_module/espresso/nninc/pbe/van/Ti.UPF
     MD5 check sum: 8e4df49b7f0d34bbd5052bf3f5ea0213
     Pseudo is Ultrasoft, Zval = 12.0
     Generated by new atomic code, or converted to UPF format
     Using radial grid of  851 points,  6 beta functions with:
                l(1) =   0
                l(2) =   0
                l(3) =   1
                l(4) =   1
                l(5) =   2
                l(6) =   2
     Q(r) pseudized with  8 coefficients,  rinner =    1.000   1.000   1.000
                                                       1.000   1.000

     PseudoPot. # 2 for O  read from file:
     /storage/coda1/p-amedford6/0/shared/rich_project_chbe-medford/medford-share/data/pseudos_module/espresso/nninc/pbe/van/O.UPF
     MD5 check sum: 78c19812648e8988a0fe644b0f25305e
     Pseudo is Ultrasoft, Zval =  6.0
     Generated by new atomic code, or converted to UPF format
     Using radial grid of  737 points,  4 beta functions with:
                l(1) =   0
                l(2) =   0
                l(3) =   1
                l(4) =   1
     Q(r) pseudized with  8 coefficients,  rinner =    0.800   0.800   0.800

     PseudoPot. # 3 for N  read from file:
     /storage/coda1/p-amedford6/0/shared/rich_project_chbe-medford/medford-share/data/pseudos_module/espresso/nninc/pbe/van/N.UPF
     MD5 check sum: 90d10febe142ad51ac9d5be1deb811c4
     Pseudo is Ultrasoft, Zval =  5.0
     Generated by new atomic code, or converted to UPF format
     Using radial grid of  729 points,  4 beta functions with:
                l(1) =   0
                l(2) =   0
                l(3) =   1
                l(4) =   1
     Q(r) pseudized with  8 coefficients,  rinner =    0.800   0.800   0.800

     PseudoPot. # 4 for C  read from file:
     /storage/coda1/p-amedford6/0/shared/rich_project_chbe-medford/medford-share/data/pseudos_module/espresso/nninc/pbe/van/C.UPF
     MD5 check sum: 1a69bf6b8db32088f5b2163dbdb77a27
     Pseudo is Ultrasoft, Zval =  4.0
     Generated by new atomic code, or converted to UPF format
     Using radial grid of  721 points,  4 beta functions with:
                l(1) =   0
                l(2) =   0
                l(3) =   1
                l(4) =   1
     Q(r) pseudized with  8 coefficients,  rinner =    0.800   0.800   0.800

     PseudoPot. # 5 for H  read from file:
     /storage/coda1/p-amedford6/0/shared/rich_project_chbe-medford/medford-share/data/pseudos_module/espresso/nninc/pbe/van/H.UPF
     MD5 check sum: b5ee9d7bfd3a09ee7748110bda690ff7
     Pseudo is Ultrasoft, Zval =  1.0
     Generated by new atomic code, or converted to UPF format
     Using radial grid of  615 points,  1 beta functions with:
                l(1) =   0
     Q(r) pseudized with  8 coefficients,  rinner =    0.800

     atomic species   valence    mass     pseudopotential
        Ti1           12.00    47.86700     Ti( 1.00)
        O1             6.00    15.99900     O ( 1.00)
        N1             5.00    14.00700     N ( 1.00)
        C1             4.00    12.01100     C ( 1.00)
        H1             1.00     1.00800     H ( 1.00)

     Starting magnetic structure
     atomic species   magnetization
        Ti1          0.000
        O1           0.000
        N1           0.000
        C1           0.025
        H1           0.000

     No symmetry found

   Cartesian axes

     site n.     atom                  positions (alat units)
         1           Ti1 tau(   1) = (   0.0004258   2.9801865   6.0000000  )
         2           Ti1 tau(   2) = (   3.2906075   1.4906267   6.0002472  )
         3           O1  tau(   3) = (   0.0006271   0.0005054   7.9858123  )
         4           O1  tau(   4) = (   3.2906025   0.0005020   7.3038282  )
         5           O1  tau(   5) = (   4.5942328   1.4918067   9.2879030  )
         6           O1  tau(   6) = (   1.9868534   1.4903216   9.2879459  )
         7           Ti1 tau(   7) = (   3.2907910   2.8959150   9.1758416  )
         8           Ti1 tau(   8) = (   0.0015273   1.4827037   9.2680791  )
         9           O1  tau(   9) = (   3.3106937   0.0084137  11.2927479  )
        10           O1  tau(  10) = (   0.0116148   5.9584955  10.6183126  )
        11           O1  tau(  11) = (   1.3255326   1.5151957  12.5859258  )
        12           O1  tau(  12) = (   5.3246634   1.4871208  12.6441624  )
        13           Ti1 tau(  13) = (   6.5358624   2.9940264  12.7507449  )
        14           Ti1 tau(  14) = (   3.1828407   1.5032771  12.4528579  )
        15           O1  tau(  15) = (   0.1336207   0.0073438  14.6266748  )
        16           O1  tau(  16) = (   3.2550344   0.0288700  13.8306396  )
        17           O1  tau(  17) = (   4.6334483   1.5013943  15.9792279  )
        18           O1  tau(  18) = (   2.1409664   1.5470880  15.9954950  )
        19           Ti1 tau(  19) = (   3.4798582   3.0305884  15.6593850  )
        20           Ti1 tau(  20) = (   0.1386493   1.3724552  15.8613965  )
        21           O1  tau(  21) = (   3.2904802   0.0005063   4.7018136  )
        22           O1  tau(  22) = (   0.1429122   0.0333940  17.1908172  )
        23           O1  tau(  23) = (   1.3043587   1.4918075   6.0039043  )
        24           O1  tau(  24) = (   5.2767064   1.4903225   6.0039473  )
        25           Ti1 tau(  25) = (   0.0000382   5.9609847   6.0000000  )
        26           Ti1 tau(  26) = (   3.2902200   4.4714249   6.0002472  )
        27           O1  tau(  27) = (   0.0002396   2.9813036   7.9858123  )
        28           O1  tau(  28) = (   3.2902150   2.9813002   7.3038282  )
        29           O1  tau(  29) = (   4.5938453   4.4726049   9.2879030  )
        30           O1  tau(  30) = (   1.9864658   4.4711199   9.2879459  )
        31           Ti1 tau(  31) = (   3.2891106   5.8743827   9.1763621  )
        32           Ti1 tau(  32) = (   0.0006254   4.4649316   9.2693709  )
        33           O1  tau(  33) = (   3.3137399   2.9960163  11.2943833  )
        34           O1  tau(  34) = (   0.0092240   2.9805883  10.6323155  )
        35           O1  tau(  35) = (   1.3234708   4.4688006  12.5930975  )
        36           O1  tau(  36) = (   5.3222282   4.4932535  12.6449723  )
        37           Ti1 tau(  37) = (   6.5041614   0.0053836  12.5833808  )
        38           Ti1 tau(  38) = (   3.1843229   4.4812189  12.4522442  )
        39           O1  tau(  39) = (   0.0584892   2.9792810  14.6723703  )
        40           O1  tau(  40) = (   3.3232524   2.9928384  13.8523860  )
        41           O1  tau(  41) = (   4.6237859   4.5837569  15.7472905  )
        42           O1  tau(  42) = (   2.1882403   4.4693611  16.1038286  )
        43           Ti1 tau(  43) = (   3.3015484   0.0242660  15.6383815  )
        44           Ti1 tau(  44) = (   0.0181797   4.4930750  16.1931172  )
        45           O1  tau(  45) = (   3.2900926   2.9813045   4.7018136  )
        46           O1  tau(  46) = (   1.3039711   4.4726057   6.0039043  )
        47           O1  tau(  47) = (   5.2763189   4.4711207   6.0039473  )
        48           N1  tau(  48) = (   0.2677213   2.8760844  17.5655548  )
        49           C1  tau(  49) = (   1.2271684   2.7639891  18.6598760  )
        50           H1  tau(  50) = (   1.2930054   3.7106696  19.2072709  )
        51           H1  tau(  51) = (   0.8976878   1.9730418  19.3402421  )
        52           H1  tau(  52) = (   2.2102292   2.4972526  18.2850250  )
        53           N1  tau(  53) = (   5.6732178   3.4927010  17.8352151  )
        54           H1  tau(  54) = (   5.7345573   4.0058295  18.7343860  )

     number of k points=    10  Fermi-Dirac smearing, width (Ry)=  0.0073
                       cart. coord. in units 2pi/alat
        k(    1) = (   0.0000000   0.0000000   0.0000000), wk =   0.0625000
        k(    2) = (   0.0000000   0.0419351   0.0000000), wk =   0.1250000
        k(    3) = (   0.0000000  -0.0838702   0.0000000), wk =   0.0625000
        k(    4) = (   0.0379955   0.0000049   0.0000000), wk =   0.1250000
        k(    5) = (   0.0379955   0.0419400   0.0000000), wk =   0.1250000
        k(    6) = (   0.0379955  -0.0838652   0.0000000), wk =   0.1250000
        k(    7) = (   0.0379955  -0.0419301   0.0000000), wk =   0.1250000
[...]
     %                                                                      %
     % You are using vdW-DF, which was implemented by the Thonhauser group. %
     % Please cite the following two papers that made this development      %
     % possible and the two reviews that describe the various versions:     %
     %                                                                      %
     %   T. Thonhauser et al., PRL 115, 136402 (2015).                      %
     %   T. Thonhauser et al., PRB 76, 125112 (2007).                       %
     %   K. Berland et al., Rep. Prog. Phys. 78, 066501 (2015).             %
     %   D.C. Langreth et al., J. Phys.: Condens. Matter 21, 084203 (2009). %
     %                                                                      %
     %                                                                      %
     % If you are calculating the stress with vdW-DF, please also cite:     %
     %                                                                      %
     %   R. Sabatini et al., J. Phys.: Condens. Matter 24, 424209 (2012).   %
     %                                                                      %
     %%%%%%%%%%%%%%%%%%%%%%%%%%%%%%%%%%%%%%%%%%%%%%%%%%%%%%%%%%%%%%%%%%%%%%%%

     Adding external electric field

     Computed dipole along edir(3) :
        Dipole               -8.2182 Ry au,        -20.8887 Debye
        Dipole field         -0.0155 Ry au,

        Potential amp.        1.4377 Ry
        Total length         46.3494 bohr

[...]

     Starting wfcs are  300 atomic wfcs
  @ DRIVER MODE: Message from server: STATUS
  @ DRIVER MODE: Message from server: POSDATA
  @ DRIVER MODE: Reading and sharing cell
  @ DRIVER MODE: Reading and sharing positions
  @ DRIVER MODE: Received positions

     Self-consistent Calculation

     iteration #  1     ecut=    29.40 Ry     beta= 0.05
     Davidson diagonalization with overlap
     c_bands:  1 eigenvalues not converged
     c_bands:  1 eigenvalues not converged
     c_bands:  1 eigenvalues not converged
     c_bands:  1 eigenvalues not converged
     c_bands:  4 eigenvalues not converged
     c_bands:  1 eigenvalues not converged
     c_bands:  4 eigenvalues not converged
     c_bands:  2 eigenvalues not converged
     c_bands:  1 eigenvalues not converged
     c_bands:  1 eigenvalues not converged
     c_bands:  1 eigenvalues not converged
     c_bands:  1 eigenvalues not converged
     c_bands:  1 eigenvalues not converged
     c_bands:  1 eigenvalues not converged
     c_bands:  4 eigenvalues not converged
     c_bands:  1 eigenvalues not converged
     c_bands:  4 eigenvalues not converged
     c_bands:  2 eigenvalues not converged
     c_bands:  1 eigenvalues not converged
     c_bands:  1 eigenvalues not converged
     ethr =  1.00E-05,  avg # of iterations = 20.0

[...]

     total energy              =   -2607.55708042 Ry
     estimated scf accuracy    <    3675.55470487 Ry

     total magnetization       =     0.00 Bohr mag/cell
     absolute magnetization    =     0.02 Bohr mag/cell

[...]

     iteration #  3     ecut=    29.40 Ry     beta= 0.05
     Davidson diagonalization with overlap
     ethr =  1.00E-02,  avg # of iterations = 13.8

[...]

     iteration # 81     ecut=    29.40 Ry     beta= 0.05
     Davidson diagonalization with overlap
     c_bands:  1 eigenvalues not converged
     ethr =  4.90E-09,  avg # of iterations = 11.8

[...]

     total energy              =   -2940.35356742 Ry
     estimated scf accuracy    <       0.00000007 Ry

[...]

     iteration # 95     ecut=    29.40 Ry     beta= 0.05
     Davidson diagonalization with overlap
     ethr =  1.88E-11,  avg # of iterations =  6.1

     negative rho (up, down):  8.764E-03 8.751E-03

[...]

     Adding external electric field

     Computed dipole along edir(3) :
        Dipole                0.7840 Ry au,          1.9928 Debye
        Dipole field          0.0015 Ry au,

        Potential amp.       -0.1372 Ry
        Total length         46.3494 bohr

     Magnetic moment per site  (integrated on atomic sphere of radius R)
     atom   1 (R=0.746)  charge=  8.1025  magn= -0.0073
     atom   2 (R=0.746)  charge=  8.0882  magn= -0.0003
     atom   3 (R=0.746)  charge=  5.0689  magn=  0.0005
     atom   4 (R=0.746)  charge=  5.1050  magn=  0.0001
     atom   5 (R=0.746)  charge=  5.0706  magn=  0.0001
     atom   6 (R=0.746)  charge=  5.0718  magn=  0.0001
     atom   7 (R=0.746)  charge=  8.0837  magn= -0.0002
     atom   8 (R=0.746)  charge=  8.0703  magn= -0.0014
     atom   9 (R=0.746)  charge=  5.0891  magn=  0.0001
     atom  10 (R=0.746)  charge=  5.0576  magn=  0.0002
     atom  11 (R=0.746)  charge=  5.0764  magn=  0.0002
     atom  12 (R=0.746)  charge=  5.0718  magn=  0.0001
     atom  13 (R=0.746)  charge=  8.0706  magn= -0.0007
     atom  14 (R=0.746)  charge=  8.0894  magn= -0.0006
     atom  15 (R=0.746)  charge=  5.0552  magn=  0.0036
     atom  16 (R=0.746)  charge=  5.0985  magn=  0.0002
     atom  17 (R=0.746)  charge=  5.0497  magn=  0.0010
     atom  18 (R=0.746)  charge=  5.0674  magn=  0.0005
     atom  19 (R=0.746)  charge=  8.1080  magn=  0.0000
     atom  20 (R=0.746)  charge=  8.0958  magn=  0.0017
     atom  21 (R=0.746)  charge=  4.9489  magn=  0.0003
     atom  22 (R=0.746)  charge=  5.0412  magn=  0.0052
     atom  23 (R=0.746)  charge=  5.0611  magn=  0.0009
     atom  24 (R=0.746)  charge=  5.0612  magn=  0.0009
     atom  25 (R=0.746)  charge=  8.1024  magn= -0.0073
     atom  26 (R=0.746)  charge=  8.0883  magn= -0.0003
     atom  27 (R=0.746)  charge=  5.0670  magn=  0.0005
     atom  28 (R=0.746)  charge=  5.1051  magn=  0.0001
     atom  29 (R=0.746)  charge=  5.0715  magn=  0.0001
     atom  30 (R=0.746)  charge=  5.0726  magn=  0.0001
     atom  31 (R=0.746)  charge=  8.0846  magn= -0.0002
     atom  32 (R=0.746)  charge=  8.0707  magn= -0.0013
     atom  33 (R=0.746)  charge=  5.0887  magn=  0.0001
     atom  34 (R=0.746)  charge=  5.0201  magn=  0.0003
     atom  35 (R=0.746)  charge=  5.0760  magn=  0.0002
     atom  36 (R=0.746)  charge=  5.0724  magn=  0.0002
     atom  37 (R=0.746)  charge=  8.0778  magn= -0.0015
     atom  38 (R=0.746)  charge=  8.0895  magn= -0.0005
     atom  39 (R=0.746)  charge=  5.0529  magn=  0.0008
     atom  40 (R=0.746)  charge=  5.0890  magn=  0.0006
     atom  41 (R=0.746)  charge=  5.0854  magn= -0.0002
     atom  42 (R=0.746)  charge=  5.0441  magn=  0.0041
     atom  43 (R=0.746)  charge=  8.1146  magn=  0.0001
     atom  44 (R=0.746)  charge=  8.1340  magn=  0.0576
     atom  45 (R=0.746)  charge=  4.9490  magn=  0.0003
     atom  46 (R=0.746)  charge=  5.0611  magn=  0.0009
     atom  47 (R=0.746)  charge=  5.0612  magn=  0.0009
     atom  48 (R=0.428)  charge=  1.3783  magn=  0.0473
     atom  49 (R=0.448)  charge=  0.8421  magn= -0.0017
     atom  50 (R=0.428)  charge=  0.4583  magn=  0.0023
     atom  51 (R=0.428)  charge=  0.4569  magn=  0.0034
     atom  52 (R=0.428)  charge=  0.4636  magn=  0.0002
     atom  53 (R=0.428)  charge=  1.3776  magn=  0.0562
     atom  54 (R=0.428)  charge=  0.4605  magn=  0.0012

     End of self-consistent calculation

 ------ SPIN UP ------------

          k = 0.0000 0.0000 0.0000 ( 18029 PWs)   bands (ev):

   -55.9622 -55.9282 -55.7845 -55.7460 -55.6769 -55.6488 -55.6425 -55.6148
   -55.5960 -55.5944 -55.5613 -55.5121 -55.2748 -54.8946 -54.8706 -54.8365
   -32.4336 -32.3275 -32.2551 -32.2329 -32.1520 -32.1426 -32.1153 -32.0858
   -32.0822 -32.0563 -32.0381 -32.0269 -32.0211 -31.9643 -31.9541 -31.9348
   -31.9298 -31.9118 -31.8959 -31.8761 -31.8704 -31.8491 -31.8243 -31.8222
   -31.8200 -31.8159 -31.8074 -31.7967 -31.7855 -31.7844 -31.7714 -31.7619
   -31.7499 -31.7105 -31.7087 -31.7012 -31.6349 -31.5025 -31.4976 -31.2741
   -31.2661 -31.1940 -31.1712 -31.1108 -31.0913 -31.0330 -31.0053 -30.8941
   -17.4693 -16.5392 -16.3310 -16.0438 -15.9208 -15.9083 -15.7787 -15.6586
   -15.5675 -15.4638 -15.4450 -15.3625 -15.3547 -15.3442 -15.2958 -15.2479
   -15.2344 -15.1996 -15.1889 -15.1515 -15.1422 -15.0792 -15.0685 -15.0578
   -14.9713 -14.9180 -14.8648 -14.7728 -14.5901 -14.4729 -13.3720 -13.2570
   -11.6628  -8.4269  -5.1096  -4.0954  -3.9740  -3.9203  -3.8294  -3.7530
    -3.6624  -3.4502  -3.3956  -3.3499  -3.0309  -3.0000  -2.9792  -2.9683
    -2.8820  -2.7136  -2.6914  -2.6461  -2.6314  -2.6080  -2.5986  -2.5751
    -2.5300  -2.5042  -2.4798  -2.4061  -2.2830  -2.2458  -2.2418  -2.2313
    -2.1729  -2.1465  -2.0852  -2.0534  -2.0334  -2.0035  -1.9903  -1.8788
    -1.8344  -1.7822  -1.7118  -1.5877  -1.5308  -1.4735  -1.4368  -1.4031
    -1.3353  -1.2594  -1.2185  -1.1765  -1.1140  -1.0936  -1.0614  -0.9777
    -0.8799  -0.8684  -0.8183  -0.7547  -0.6964  -0.6768  -0.6367  -0.6189
    -0.6057  -0.5920  -0.5811  -0.4302  -0.3502  -0.2151  -0.1714  -0.1544
    -0.1077  -0.0818  -0.0318   0.0052   0.0115   0.0655   0.0833   0.1161
     0.1447   0.1687   0.2059   0.2734   0.3072   0.3718   0.5020   0.5243
     0.5997   0.6826   0.7379   0.8189   0.8436   0.9442   1.0574   1.1083
     1.1517   1.3561   1.4328   1.7159   1.7589   2.7577   3.2261   3.3232
     3.4207   3.5360   3.5873   3.6640   3.7970   3.8037   3.8689   3.9674

[...]

          k =-0.0760-0.0000 0.0000 ( 17886 PWs)   bands (ev):

[...]

 ------ SPIN DOWN ----------

[...]

          k = 0.0380-0.0419 0.0000 ( 17876 PWs)   bands (ev):

[...]

          k =-0.0760-0.0839 0.0000 ( 17948 PWs)   bands (ev):

   -55.9598 -55.9579 -55.7729 -55.7593 -55.6658 -55.6584 -55.6343 -55.6331
   -55.5904 -55.5831 -55.5751 -55.5156 -55.2712 -54.8541 -54.8539 -54.7976
   -32.2572 -32.2562 -32.2545 -32.2539 -32.1351 -32.1241 -32.0837 -32.0816
   -32.0343 -32.0220 -32.0106 -31.9990 -31.9787 -31.9708 -31.9404 -31.9295
   -31.9275 -31.9266 -31.9204 -31.8918 -31.8666 -31.8606 -31.8594 -31.8589
   -31.8457 -31.8415 -31.8364 -31.8157 -31.8129 -31.8064 -31.8005 -31.7976
   -31.7925 -31.7858 -31.7811 -31.7225 -31.6358 -31.4991 -31.4955 -31.2902
   -31.1847 -31.1845 -31.0878 -31.0875 -31.0490 -31.0488 -31.0069 -30.9127
   -17.2843 -15.9643 -15.9348 -15.7944 -15.7734 -15.7073 -15.6923 -15.5714
   -15.5654 -15.5570 -15.4981 -15.4307 -15.4196 -15.3821 -15.3379 -15.3264
   -15.2920 -15.2752 -15.2690 -15.2648 -15.2571 -15.2066 -15.1530 -15.1477
   -15.1287 -15.0649 -14.9179 -14.8723 -14.6970 -14.5867 -13.3590 -13.3585
   -11.5610  -8.2763  -5.0510  -3.9318  -3.8288  -3.2665  -3.2307  -2.9884
    -2.9780  -2.9564  -2.9059  -2.7368  -2.7303  -2.7098  -2.6909  -2.6865
    -2.6560  -2.6394  -2.6270  -2.5667  -2.5558  -2.5185  -2.5031  -2.4982
    -2.4915  -2.4750  -2.4705  -2.4478  -2.4405  -2.4102  -2.3574  -2.3268
    -2.2958  -2.2028  -2.0904  -2.0186  -1.9835  -1.9754  -1.9630  -1.9525
    -1.9292  -1.9181  -1.8281  -1.6839  -1.6308  -1.5446  -1.5194  -1.5167
    -1.4628  -1.4105  -1.3667  -1.2724  -1.2384  -1.1580  -1.1490  -1.1140
    -1.0741  -1.0124  -0.9632  -0.9440  -0.9264  -0.8838  -0.8608  -0.8557
    -0.7997  -0.7232  -0.6774  -0.6333  -0.6134  -0.5848  -0.5730  -0.5523
    -0.4647  -0.3760  -0.3306  -0.2900  -0.2627  -0.2081  -0.0950  -0.0736
     0.1050   0.2017   0.2337   0.2824   0.3844   0.4276   0.4488   0.4710
     0.5501   0.6090   0.6361   0.6978   0.7405   0.7581   0.8181   1.0063
     1.0981   1.5253   1.5268   1.5773   1.5783   3.1546   3.6943   3.7114
     3.7172   3.7326   3.7481   3.7608   3.8038   3.8381   3.9667   3.9848

     the Fermi energy is     3.1876 ev

!    total energy              =   -2940.35356985 Ry
     estimated scf accuracy    <       0.00000006 Ry
     smearing contrib. (-TS)   =      -0.01696830 Ry
     internal energy E=F+TS    =   -2940.33660155 Ry

     The total energy is F=E-TS. E is the sum of the following terms:
     one-electron contribution =  -24664.67334400 Ry
     hartree contribution      =   12421.63586697 Ry
     xc contribution           =    -486.05638020 Ry
     ewald contribution        =    9788.75609571 Ry
     electric field correction =       0.00115997 Ry

     total magnetization       =     0.44 Bohr mag/cell
     absolute magnetization    =     0.55 Bohr mag/cell

     convergence has been achieved in  95 iterations

     Forces acting on atoms (cartesian axes, Ry/au):

     atom    1 type  1   force =     0.00023725   -0.00036220    0.10121328
     atom    2 type  1   force =     0.00002123   -0.00085852   -0.17162091
     atom    3 type  2   force =     0.00029526    0.00021254   -0.03274562
     atom    4 type  2   force =     0.00003132   -0.00081277    0.04526571
     atom    5 type  2   force =    -0.01202642   -0.00024158   -0.00206390
     atom    6 type  2   force =     0.01444325    0.00034432   -0.00085721
     atom    7 type  1   force =     0.00140717   -0.00124921   -0.00542400
     atom    8 type  1   force =    -0.00075782    0.02225856    0.05496456
     atom    9 type  2   force =    -0.00002935   -0.00028406    0.00147801
     atom   10 type  2   force =    -0.00272352    0.00206357   -0.02398766
     atom   11 type  2   force =    -0.00015865    0.00025034    0.00053602
     atom   12 type  2   force =    -0.00000312    0.00081317    0.00056366
     atom   13 type  1   force =     0.00001452    0.00022377   -0.00317100
     atom   14 type  1   force =     0.00045699    0.00027911   -0.00182131
     atom   15 type  2   force =     0.00027129    0.00036764    0.00254379
     atom   16 type  2   force =     0.00001305   -0.00014308    0.00289027
     atom   17 type  2   force =     0.00009625   -0.00084098    0.00052706
     atom   18 type  2   force =     0.00019289   -0.00064999    0.00076959
     atom   19 type  1   force =    -0.00046107   -0.00077850   -0.00242308
     atom   20 type  1   force =     0.00011663   -0.00066292   -0.00333562
     atom   21 type  2   force =     0.00006413   -0.00001334    0.10217190
     atom   22 type  2   force =    -0.00036281   -0.00092218    0.00074767
     atom   23 type  2   force =    -0.07317107   -0.00016401   -0.02880925
     atom   24 type  2   force =     0.07312318    0.00033577   -0.02885657
     atom   25 type  1   force =    -0.00026959   -0.00029748    0.10164942
     atom   26 type  1   force =     0.00003378   -0.00019217   -0.17162581
     atom   27 type  2   force =     0.00035584   -0.00023025   -0.03147139
     atom   28 type  2   force =     0.00009236   -0.00059695    0.04588714
     atom   29 type  2   force =    -0.01217042    0.00210713   -0.00261646
     atom   30 type  2   force =     0.01446911    0.00227184   -0.00135291
     atom   31 type  1   force =     0.00159173    0.00099432   -0.00673010
     atom   32 type  1   force =    -0.00058578   -0.02478134    0.05598651
     atom   33 type  2   force =     0.00011292    0.00033397    0.00165801
     atom   34 type  2   force =    -0.00424977    0.00210211   -0.04661795
     atom   35 type  2   force =     0.00039817   -0.00061316    0.00056707
     atom   36 type  2   force =    -0.00048389   -0.00083123    0.00068993
     atom   37 type  1   force =     0.00015983    0.00058726   -0.00343978
     atom   38 type  1   force =     0.00022636   -0.00003718   -0.00185055
     atom   39 type  2   force =     0.00030282   -0.00018587    0.00228603
     atom   40 type  2   force =     0.00005598   -0.00003062    0.00198723
     atom   41 type  2   force =     0.00020326    0.00091691   -0.00012768
     atom   42 type  2   force =    -0.00048692    0.00032572    0.00124072
     atom   43 type  1   force =    -0.00022306    0.00013934   -0.00192039
     atom   44 type  1   force =     0.00083028    0.00110894   -0.00313441
     atom   45 type  2   force =     0.00004682   -0.00004994    0.10223197
     atom   46 type  2   force =    -0.07317604   -0.00009344   -0.02877999
     atom   47 type  2   force =     0.07312842    0.00027494   -0.02881563
     atom   48 type  3   force =     0.00203585   -0.00079818   -0.00211265
     atom   49 type  4   force =    -0.00141912   -0.00052981    0.00101113
     atom   50 type  5   force =    -0.00007824   -0.00015819   -0.00019727
     atom   51 type  5   force =    -0.00039480   -0.00043174    0.00051302
     atom   52 type  5   force =    -0.00041013   -0.00040144   -0.00003027
     atom   53 type  3   force =     0.00164738    0.00557097    0.01741765
     atom   54 type  5   force =    -0.00283376   -0.00563990   -0.01085799

     Total force =     0.377885     Total SCF correction =     0.000336
  @ DRIVER MODE: Message from server: STATUS
  @ DRIVER MODE: Message from server: GETFORCE
  @ DRIVER MODE: Returning v,forces,stress,ensemble

     Writing output data file ./calc.save/
  @ DRIVER MODE: Message from server: EXIT
  @ DRIVE MODE: Exiting

     General routines

     Parallel routines

   This run was terminated on:  18:40:50  16Jul2021

   JOB DONE.