     Program PWSCF v.6.7GPU starts on 16Sep2021 at  2:38:54

     R & G space division:  proc/nbgrp/npool/nimage =      10
     Reading input from /storage/home/hcoda1/3/ntian30/research/carbon/CxH_vib/H2O_calc/ads_slab/CH2OHH2O_a/out_0035/pw.inp
Warning: card &CELL ignored
Warning: card   CELL_DYNAMICS='IPI', ignored
Warning: card / ignored

     Current dimensions of program PWSCF are:
     Max number of different atomic species (ntypx) = 10
     Max number of k-points (npk) =  40000
     Max angular momentum in pseudopotentials (lmaxx) =  3
     Presently no symmetry can be used with electric field

     Message from routine cell_base_init:
     DEPRECATED: use true lattice parameter, not A to a.u. conversion factor

     IMPORTANT: XC functional enforced from input :
     Exchange-correlation= BEEF-VDW
                           (   1   4  43  14   2   0   0)
     Any further DFT definition will be discarded
     Please, verify this is what you really want

  @ DRIVER MODE: Connecting to
 qe_1139763_2852615.sched-torque.pace.gatech.edujs19koh8_scratch
  using UNIX socket
  @ DRIVER MODE: Message from server: STATUS
  @ DRIVER MODE: Message from server: INIT
  @ DRIVER MODE: Receiving replica           0          -1
  @ DRIVER MODE: Receiving encoded integer          25
  @ DRIVER MODE:  SCF:  T  FORCE:  T  STRESS:  F  VC:  F  ENSEMBLE:  F
  @ DRIVER MODE:  SCF:  T  FORCE:  T  STRESS:  F  VC:  F  ENSEMBLE:  F

     Using Slab Decomposition

     bravais-lattice index     =            0
     lattice parameter (alat)  =       1.8897  a.u.
     unit-cell volume          =    6658.9804 (a.u.)^3
     number of atoms/cell      =           55
     number of atomic types    =            4
     number of electrons       =       399.00
     number of Kohn-Sham states=          209
     kinetic-energy cutoff     =      29.3995  Ry
     charge density cutoff     =     293.9946  Ry
     scf convergence threshold =      7.3E-08
     mixing beta               =       0.0500
     number of iterations used =            8  plain     mixing
     Exchange-correlation= BEEF-VDW
                           (   1   4  43  14   2   0   0)

     celldm(1)=   1.889726  celldm(2)=   0.000000  celldm(3)=   0.000000
     celldm(4)=   0.000000  celldm(5)=   0.000000  celldm(6)=   0.000000

     crystal axes: (cart. coord. in units of alat)
               a(1) = (   6.579727   0.000000   0.000000 )
               a(2) = (  -0.000775   5.961596   0.000000 )
               a(3) = (   0.000000   0.000000  25.155947 )

     reciprocal axes: (cart. coord. in units 2 pi/alat)
               b(1) = (  0.151982  0.000020  0.000000 )
               b(2) = (  0.000000  0.167740  0.000000 )
               b(3) = (  0.000000  0.000000  0.039752 )

     PseudoPot. # 1 for Ti read from file:
     /storage/coda1/p-amedford6/0/shared/rich_project_chbe-medford/medford-share/data/pseudos_module/espresso/nninc/pbe/van/Ti.UPF
     MD5 check sum: 8e4df49b7f0d34bbd5052bf3f5ea0213
     Pseudo is Ultrasoft, Zval = 12.0
     Generated by new atomic code, or converted to UPF format
     Using radial grid of  851 points,  6 beta functions with:
                l(1) =   0
                l(2) =   0
                l(3) =   1
                l(4) =   1
                l(5) =   2
                l(6) =   2
     Q(r) pseudized with  8 coefficients,  rinner =    1.000   1.000   1.000
                                                       1.000   1.000

     PseudoPot. # 2 for O  read from file:
     /storage/coda1/p-amedford6/0/shared/rich_project_chbe-medford/medford-share/data/pseudos_module/espresso/nninc/pbe/van/O.UPF
     MD5 check sum: 78c19812648e8988a0fe644b0f25305e
     Pseudo is Ultrasoft, Zval =  6.0
     Generated by new atomic code, or converted to UPF format
     Using radial grid of  737 points,  4 beta functions with:
                l(1) =   0
                l(2) =   0
                l(3) =   1
                l(4) =   1
     Q(r) pseudized with  8 coefficients,  rinner =    0.800   0.800   0.800

     PseudoPot. # 3 for C  read from file:
     /storage/coda1/p-amedford6/0/shared/rich_project_chbe-medford/medford-share/data/pseudos_module/espresso/nninc/pbe/van/C.UPF
     MD5 check sum: 1a69bf6b8db32088f5b2163dbdb77a27
     Pseudo is Ultrasoft, Zval =  4.0
     Generated by new atomic code, or converted to UPF format
     Using radial grid of  721 points,  4 beta functions with:
                l(1) =   0
                l(2) =   0
                l(3) =   1
                l(4) =   1
     Q(r) pseudized with  8 coefficients,  rinner =    0.800   0.800   0.800

     PseudoPot. # 4 for H  read from file:
     /storage/coda1/p-amedford6/0/shared/rich_project_chbe-medford/medford-share/data/pseudos_module/espresso/nninc/pbe/van/H.UPF
     MD5 check sum: b5ee9d7bfd3a09ee7748110bda690ff7
     Pseudo is Ultrasoft, Zval =  1.0
     Generated by new atomic code, or converted to UPF format
     Using radial grid of  615 points,  1 beta functions with:
                l(1) =   0
     Q(r) pseudized with  8 coefficients,  rinner =    0.800

     atomic species   valence    mass     pseudopotential
        Ti1           12.00    47.86700     Ti( 1.00)
        O1             6.00    15.99900     O ( 1.00)
        C1             4.00    12.01100     C ( 1.00)
        H1             1.00     1.00800     H ( 1.00)

     No symmetry found

   Cartesian axes

     site n.     atom                  positions (alat units)
         1           Ti1 tau(   1) = (   0.0004258   2.9801865   6.0000000  )
         2           Ti1 tau(   2) = (   3.2906075   1.4906267   6.0002472  )
         3           O1  tau(   3) = (   0.0006271   0.0005054   7.9858123  )
         4           O1  tau(   4) = (   3.2906025   0.0005020   7.3038282  )
         5           O1  tau(   5) = (   4.5942328   1.4918067   9.2879030  )
         6           O1  tau(   6) = (   1.9868534   1.4903216   9.2879459  )
         7           Ti1 tau(   7) = (   3.2434587   3.0186650   9.1693953  )
         8           Ti1 tau(   8) = (   6.5248695   1.5265067   9.2859949  )
         9           O1  tau(   9) = (   3.3238096   0.0077392  11.3399147  )
        10           O1  tau(  10) = (   0.0083103   0.0007143  10.5763085  )
        11           O1  tau(  11) = (   1.3076427   1.5153157  12.5877682  )
        12           O1  tau(  12) = (   5.3324098   1.4751673  12.6362968  )
        13           Ti1 tau(  13) = (   0.0822926   2.9518924  12.6100891  )
        14           Ti1 tau(  14) = (   3.3652580   1.6116561  12.6031695  )
        15           O1  tau(  15) = (   0.1623142   0.0003102  14.6136642  )
        16           O1  tau(  16) = (   3.2083997   0.0016335  13.9229753  )
        17           O1  tau(  17) = (   4.6427586   1.3635169  15.8692112  )
        18           O1  tau(  18) = (   2.0707938   1.5934636  16.1317492  )
        19           Ti1 tau(  19) = (   3.4055461   2.9583945  15.9219660  )
        20           Ti1 tau(  20) = (   0.0529163   1.3399360  15.9091509  )
        21           O1  tau(  21) = (   3.2904802   0.0005063   4.7018136  )
        22           O1  tau(  22) = (   0.1143047   5.9459637  17.1421970  )
        23           O1  tau(  23) = (   1.3043587   1.4918075   6.0039043  )
        24           O1  tau(  24) = (   5.2767064   1.4903225   6.0039473  )
        25           Ti1 tau(  25) = (   0.0000382   5.9609847   6.0000000  )
        26           Ti1 tau(  26) = (   3.2902200   4.4714249   6.0002472  )
        27           O1  tau(  27) = (   0.0002396   2.9813036   7.9858123  )
        28           O1  tau(  28) = (   3.2902150   2.9813002   7.3038282  )
        29           O1  tau(  29) = (   4.5938453   4.4726049   9.2879030  )
        30           O1  tau(  30) = (   1.9864658   4.4711199   9.2879459  )
        31           Ti1 tau(  31) = (   3.2519499   0.0415563   9.1803751  )
        32           Ti1 tau(  32) = (   6.5223785   4.4699269   9.2708698  )
        33           O1  tau(  33) = (   3.3249262   3.0006027  11.3427062  )
        34           O1  tau(  34) = (   6.5728067   2.9803724  10.5910131  )
        35           O1  tau(  35) = (   1.3048910   4.4590737  12.5876729  )
        36           O1  tau(  36) = (   5.3248012   4.5079456  12.6396186  )
        37           Ti1 tau(  37) = (   0.0305998   5.9348532  12.4502240  )
        38           Ti1 tau(  38) = (   3.3518916   4.5407868  12.4757475  )
        39           O1  tau(  39) = (   0.0741357   2.9755951  14.7167286  )
        40           O1  tau(  40) = (   3.3703583   2.9475192  13.9294239  )
        41           O1  tau(  41) = (   4.6408928   4.5782690  15.8216857  )
        42           O1  tau(  42) = (   2.0743197   4.3710070  16.0958311  )
        43           Ti1 tau(  43) = (   3.3271525   5.9323444  15.7323421  )
        44           Ti1 tau(  44) = (   0.0603002   4.5335970  15.7939964  )
        45           O1  tau(  45) = (   3.2900926   2.9813045   4.7018136  )
        46           O1  tau(  46) = (   1.3039711   4.4726057   6.0039043  )
        47           O1  tau(  47) = (   5.2763189   4.4711207   6.0039473  )
        48           C1  tau(  48) = (   4.5917920   3.0228413  17.9030398  )
        49           O1  tau(  49) = (   6.0625861   3.0006587  17.4562122  )
        50           H1  tau(  50) = (   0.0503952   3.1075262  18.2373115  )
        51           H1  tau(  51) = (   4.5265887   2.1706275  18.5876854  )
        52           H1  tau(  52) = (   4.4781653   3.9549082  18.4551422  )
        53           O1  tau(  53) = (   2.8659371   5.8926936  18.1931264  )
        54           H1  tau(  54) = (   3.0528466   0.8172038  18.5446680  )
        55           H1  tau(  55) = (   1.8959954   5.8777970  18.0521013  )

     number of k points=    10  Fermi-Dirac smearing, width (Ry)=  0.0073
                       cart. coord. in units 2pi/alat
        k(    1) = (   0.0000000   0.0000000   0.0000000), wk =   0.1250000
        k(    2) = (   0.0000000   0.0419351   0.0000000), wk =   0.2500000
        k(    3) = (   0.0000000  -0.0838702   0.0000000), wk =   0.1250000
        k(    4) = (   0.0379955   0.0000049   0.0000000), wk =   0.2500000
        k(    5) = (   0.0379955   0.0419400   0.0000000), wk =   0.2500000
        k(    6) = (   0.0379955  -0.0838652   0.0000000), wk =   0.2500000
        k(    7) = (   0.0379955  -0.0419301   0.0000000), wk =   0.2500000
        k(    8) = (  -0.0759910  -0.0000099   0.0000000), wk =   0.1250000
        k(    9) = (  -0.0759910   0.0419252   0.0000000), wk =   0.2500000
        k(   10) = (  -0.0759910  -0.0838800   0.0000000), wk =   0.1250000

     Initial potential from superposition of free atoms

     starting charge  382.99916, renormalised to  399.00000

     negative rho (up, down):  1.858E-02 0.000E+00

     %%%%%%%%%%%%%%%%%%%%%%%%%%%%%%%%%%%%%%%%%%%%%%%%%%%%%%%%%%%%%%%%%%%%%%%%
     %                                                                      %
     % You are using vdW-DF, which was implemented by the Thonhauser group. %
     % Please cite the following two papers that made this development      %
     % possible and the two reviews that describe the various versions:     %
     %                                                                      %
     %   T. Thonhauser et al., PRL 115, 136402 (2015).                      %
     %   T. Thonhauser et al., PRB 76, 125112 (2007).                       %
     %   K. Berland et al., Rep. Prog. Phys. 78, 066501 (2015).             %
     %   D.C. Langreth et al., J. Phys.: Condens. Matter 21, 084203 (2009). %
     %                                                                      %
     %                                                                      %
     % If you are calculating the stress with vdW-DF, please also cite:     %
     %                                                                      %
     %   R. Sabatini et al., J. Phys.: Condens. Matter 24, 424209 (2012).   %
     %                                                                      %
     %%%%%%%%%%%%%%%%%%%%%%%%%%%%%%%%%%%%%%%%%%%%%%%%%%%%%%%%%%%%%%%%%%%%%%%%

     Adding external electric field

     Computed dipole along edir(3) :
        Dipole               -9.7256 Ry au,        -24.7201 Debye
        Dipole field         -0.0184 Ry au,

        Potential amp.        1.7014 Ry
        Total length         46.3494 bohr

     Starting wfcs are  301 atomic wfcs
  @ DRIVER MODE: Message from server: STATUS
  @ DRIVER MODE: Message from server: POSDATA
  @ DRIVER MODE: Reading and sharing cell
  @ DRIVER MODE: Reading and sharing positions
  @ DRIVER MODE: Received positions

     Self-consistent Calculation

     iteration #  1     ecut=    29.40 Ry     beta= 0.05
     Davidson diagonalization with overlap
     c_bands:  1 eigenvalues not converged
     c_bands:  2 eigenvalues not converged
     c_bands:  3 eigenvalues not converged
     c_bands:  5 eigenvalues not converged
     c_bands:  3 eigenvalues not converged
     c_bands:  2 eigenvalues not converged
     c_bands:  3 eigenvalues not converged
     c_bands:  2 eigenvalues not converged
     ethr =  1.00E-05,  avg # of iterations = 19.8

[...]

     total energy              =   -2478.51229108 Ry
     estimated scf accuracy    <    5415.82284716 Ry

     iteration #  2     ecut=    29.40 Ry     beta= 0.05
     Davidson diagonalization with overlap
     ethr =  1.00E-02,  avg # of iterations = 23.8

[...]

     iteration # 63     ecut=    29.40 Ry     beta= 0.05
     Davidson diagonalization with overlap
     c_bands:  1 eigenvalues not converged
     ethr =  5.35E-10,  avg # of iterations = 13.6

[...]

     total energy              =   -2966.15818551 Ry
     estimated scf accuracy    <       0.00000017 Ry

     iteration # 70     ecut=    29.40 Ry     beta= 0.05
     Davidson diagonalization with overlap
     ethr =  1.88E-11,  avg # of iterations =  8.7

     negative rho (up, down):  1.798E-02 0.000E+00

     Adding external electric field

     Computed dipole along edir(3) :
        Dipole                1.0131 Ry au,          2.5751 Debye
        Dipole field          0.0019 Ry au,

        Potential amp.       -0.1772 Ry
        Total length         46.3494 bohr

     End of self-consistent calculation

          k = 0.0000 0.0000 0.0000 ( 18029 PWs)   bands (ev):

   -55.6843 -55.6478 -55.5770 -55.5684 -55.5119 -55.5090 -55.5038 -55.5010
   -55.4731 -55.4557 -55.4487 -55.4377 -55.4221 -55.3331 -54.6537 -54.6196
   -32.1748 -32.1603 -32.0501 -32.0204 -31.9981 -31.9715 -31.9501 -31.9388
   -31.9254 -31.8662 -31.8386 -31.8313 -31.8280 -31.8189 -31.7921 -31.7824
   -31.7788 -31.7594 -31.7541 -31.7434 -31.7322 -31.7269 -31.6931 -31.6874
   -31.6852 -31.6784 -31.6731 -31.6651 -31.6601 -31.6552 -31.6475 -31.6307
   -31.6269 -31.6250 -31.6190 -31.6161 -31.6077 -31.6070 -31.5817 -31.5588
   -31.5473 -31.4200 -31.0607 -30.9722 -30.9497 -30.8775 -30.7911 -30.6798
   -19.3887 -18.7485 -16.3694 -16.1727 -15.9679 -15.8544 -15.8347 -15.6536
   -15.5294 -15.3834 -15.3315 -15.3021 -15.2813 -15.2120 -15.2052 -15.1901
   -15.1549 -15.1494 -15.1133 -15.0940 -15.0879 -15.0601 -15.0085 -14.9871
   -14.9368 -14.8772 -14.8087 -14.7886 -14.7795 -14.7042 -14.6132 -13.1543
   -13.0377  -9.4337  -6.5018  -6.2785  -4.0767  -3.8391  -3.6821  -3.6400
    -3.6067  -3.5705  -3.4108  -3.3001  -3.1248  -3.0295  -2.9481  -2.8997
    -2.8613  -2.7856  -2.7430  -2.6176  -2.5943  -2.5451  -2.5123  -2.4768
    -2.4695  -2.4488  -2.4022  -2.3845  -2.3693  -2.2124  -2.2028  -2.1691
    -2.1035  -2.0722  -2.0447  -2.0080  -1.9863  -1.9591  -1.9409  -1.8945
    -1.8758  -1.8058  -1.7966  -1.7520  -1.6856  -1.6529  -1.3899  -1.3142
    -1.2903  -1.2523  -1.1890  -1.0913  -1.0876  -1.0810  -1.0805  -1.0237
    -1.0076  -0.8583  -0.8436  -0.8287  -0.7489  -0.6699  -0.5910  -0.5545
    -0.4905  -0.4393  -0.4063  -0.3789  -0.3529  -0.2971  -0.2287  -0.2059
    -0.1346  -0.0607  -0.0274   0.0247   0.0506   0.0951   0.1255   0.2020
     0.2409   0.2747   0.3027   0.3207   0.3306   0.3746   0.3941   0.4834
     0.5610   0.5888   0.5954   0.6699   0.7962   0.8787   0.9905   1.0821
     1.3043   1.3705   1.4219   1.5519   1.5609   1.9423   1.9928   3.4571
     3.5263   3.5857   3.5863   3.6211   3.7016   3.9045   3.9522   4.0093
     4.0509

[...]

          k = 0.0380-0.0419 0.0000 ( 17876 PWs)   bands (ev):

[...]

          k =-0.0760-0.0000 0.0000 ( 17886 PWs)   bands (ev):

[...]

          k =-0.0760-0.0839 0.0000 ( 17948 PWs)   bands (ev):

   -55.6726 -55.6593 -55.5716 -55.5637 -55.5165 -55.5074 -55.5061 -55.4976
   -55.4580 -55.4548 -55.4521 -55.4409 -55.4373 -55.3347 -54.6366 -54.6366
   -32.0937 -31.9818 -31.9709 -31.9690 -31.9468 -31.8963 -31.8695 -31.8488
   -31.8409 -31.8367 -31.8325 -31.8105 -31.8095 -31.7948 -31.7934 -31.7840
   -31.7829 -31.7747 -31.7732 -31.7699 -31.7671 -31.7577 -31.7359 -31.7300
   -31.7246 -31.7127 -31.7058 -31.6993 -31.6966 -31.6825 -31.6681 -31.6609
   -31.6600 -31.6574 -31.6556 -31.6491 -31.6476 -31.6456 -31.6437 -31.6411
   -31.6236 -31.4222 -30.9625 -30.9624 -30.8739 -30.8732 -30.8344 -30.8340
   -19.3821 -18.7474 -15.9879 -15.6479 -15.6357 -15.6306 -15.5997 -15.4784
   -15.4544 -15.4319 -15.3864 -15.3563 -15.3505 -15.3273 -15.2824 -15.2262
   -15.2074 -15.1997 -15.1900 -15.1373 -15.1233 -15.1124 -15.0666 -15.0261
   -15.0236 -14.9998 -14.9736 -14.9682 -14.9678 -14.9401 -14.8740 -13.1411
   -13.1380  -9.4398  -6.5015  -6.2593  -4.0326  -3.7287  -3.1593  -3.0549
    -2.8663  -2.8479  -2.7942  -2.7713  -2.7180  -2.6494  -2.6211  -2.6097
    -2.6074  -2.5734  -2.5110  -2.4770  -2.4733  -2.4341  -2.4155  -2.4078
    -2.3872  -2.3626  -2.3374  -2.3186  -2.3124  -2.2768  -2.2655  -2.2503
    -2.2443  -2.2320  -2.2132  -2.1730  -2.0658  -1.9445  -1.9094  -1.8731
    -1.8343  -1.7748  -1.7689  -1.7543  -1.7205  -1.7197  -1.7034  -1.6257
    -1.4657  -1.4026  -1.3379  -1.3162  -1.2428  -1.2302  -1.2144  -1.1722
    -1.1301  -1.0839  -1.0399  -1.0160  -0.9598  -0.9156  -0.7873  -0.7331
    -0.6486  -0.6433  -0.6208  -0.6058  -0.5517  -0.5270  -0.5030  -0.4576
    -0.4229  -0.3780  -0.3467  -0.3382  -0.3158  -0.2544  -0.1547  -0.1052
    -0.0433  -0.0373   0.0441   0.1749   0.3606   0.3905   0.4491   0.4998
     0.5895   0.6118   0.6606   0.6802   0.7376   0.7649   0.8062   0.8664
     0.9270   0.9552   1.5160   1.7338   1.7403   1.8035   1.8129   3.7485
     3.8364   3.9287   3.9426   3.9768   3.9891   3.9947   4.0242   4.0810
     4.1180

     the Fermi energy is     3.4546 ev

!    total energy              =   -2966.15820721 Ry
     estimated scf accuracy    <       0.00000004 Ry
     smearing contrib. (-TS)   =      -0.02139594 Ry
     internal energy E=F+TS    =   -2966.13681127 Ry

     The total energy is F=E-TS. E is the sum of the following terms:
     one-electron contribution =  -24758.90850138 Ry
     hartree contribution      =   12472.02967040 Ry
     xc contribution           =    -490.95832442 Ry
     ewald contribution        =    9811.69840712 Ry
     electric field correction =       0.00193702 Ry

     convergence has been achieved in  70 iterations

     Forces acting on atoms (cartesian axes, Ry/au):

     atom    1 type  1   force =     0.00075624   -0.00017977    0.09533050
     atom    2 type  1   force =     0.00024360   -0.00220765   -0.17570838
     atom    3 type  2   force =    -0.00066058   -0.00040783   -0.03009141
     atom    4 type  2   force =    -0.00084888    0.00063479    0.05233911
     atom    5 type  2   force =    -0.01386514   -0.00099725    0.00146297
     atom    6 type  2   force =     0.01581442    0.00241201    0.00318800
     atom    7 type  1   force =     0.00034165    0.00039083   -0.00027865
     atom    8 type  1   force =    -0.00036312    0.00140024    0.00065246
     atom    9 type  2   force =     0.00011646   -0.00002094    0.00021750
     atom   10 type  2   force =     0.00017420    0.00017064   -0.00057652
     atom   11 type  2   force =    -0.00024330    0.00025402    0.00018131
     atom   12 type  2   force =    -0.00037580    0.00009001    0.00008008
     atom   13 type  1   force =     0.00023229   -0.00018177   -0.00061733
     atom   14 type  1   force =    -0.00102093   -0.00004633    0.00030591
     atom   15 type  2   force =     0.00006667   -0.00110608   -0.00011625
     atom   16 type  2   force =    -0.00003855   -0.00006072   -0.00042805
     atom   17 type  2   force =    -0.00029782   -0.00024766   -0.00013463
     atom   18 type  2   force =     0.00017756    0.00010034   -0.00024194
     atom   19 type  1   force =    -0.00007578    0.00025921    0.00000724
     atom   20 type  1   force =     0.00031687    0.00090906    0.00012755
     atom   21 type  2   force =     0.00014630    0.00019879    0.10302095
     atom   22 type  2   force =     0.00007066   -0.00114333    0.00037646
     atom   23 type  2   force =    -0.07129207    0.00094166   -0.02829627
     atom   24 type  2   force =     0.07134592    0.00133614   -0.02833239
     atom   25 type  1   force =     0.00022075    0.00038210    0.10640502
     atom   26 type  1   force =     0.00000425    0.00252667   -0.17559054
     atom   27 type  2   force =    -0.00037718    0.00013360   -0.02787338
     atom   28 type  2   force =    -0.00096169    0.00076098    0.05164873
     atom   29 type  2   force =    -0.01301578   -0.00123256    0.00107021
     atom   30 type  2   force =     0.01545941    0.00037098    0.00295323
     atom   31 type  1   force =     0.00051827    0.00002578   -0.00001429
     atom   32 type  1   force =    -0.00040993   -0.00140556    0.00018212
     atom   33 type  2   force =    -0.00017191   -0.00031929    0.00018845
     atom   34 type  2   force =     0.00000711    0.00010671   -0.00014156
     atom   35 type  2   force =    -0.00062920   -0.00019960    0.00066011
     atom   36 type  2   force =     0.00003537   -0.00037427    0.00024069
     atom   37 type  1   force =     0.00059970    0.00026795    0.00051817
     atom   38 type  1   force =    -0.00092721    0.00020713    0.00049151
     atom   39 type  2   force =    -0.00019703    0.00065598    0.00027013
     atom   40 type  2   force =    -0.00003207   -0.00051870   -0.00064442
     atom   41 type  2   force =     0.00124838   -0.00012417   -0.00006254
     atom   42 type  2   force =    -0.00102279   -0.00043554   -0.00005163
     atom   43 type  1   force =     0.00009716   -0.00092142    0.00033802
     atom   44 type  1   force =    -0.00031274    0.00030083   -0.00028494
     atom   45 type  2   force =     0.00012146    0.00015525    0.10329214
     atom   46 type  2   force =    -0.07121770   -0.00125956   -0.02829023
     atom   47 type  2   force =     0.07128642   -0.00086276   -0.02832913
     atom   48 type  3   force =    -0.00073584   -0.00007977   -0.00010455
     atom   49 type  2   force =     0.00047960   -0.00007033    0.00005708
     atom   50 type  4   force =    -0.00000797   -0.00040156   -0.00020939
     atom   51 type  4   force =    -0.00068108   -0.00017220    0.00019066
     atom   52 type  4   force =    -0.00034141    0.00000591   -0.00033283
     atom   53 type  2   force =     0.00540559    0.00611402    0.00504181
     atom   54 type  4   force =    -0.00106526   -0.00583156   -0.00263507
     atom   55 type  4   force =    -0.00409754   -0.00030346   -0.00145180

     Total force =     0.367556     Total SCF correction =     0.000458
  @ DRIVER MODE: Message from server: STATUS
  @ DRIVER MODE: Message from server: GETFORCE
  @ DRIVER MODE: Returning v,forces,stress,ensemble

     Writing output data file ./calc.save/
  @ DRIVER MODE: Message from server: EXIT
  @ DRIVE MODE: Exiting

     General routines

     Parallel routines

   This run was terminated on:   2:58:40  16Sep2021

   JOB DONE.