     Program PWSCF v.6.7GPU starts on  9Sep2021 at  1:58:16

     R & G space division:  proc/nbgrp/npool/nimage =      10
     Reading input from /storage/home/hcoda1/3/ntian30/research/carbon/CxH_vib/CH3_calc/ads_slab/CH3NHNH_a/out_0013/pw.inp
Warning: card &CELL ignored
Warning: card   CELL_DYNAMICS='IPI', ignored
Warning: card / ignored

     Current dimensions of program PWSCF are:
     Max number of different atomic species (ntypx) = 10
     Max number of k-points (npk) =  40000
     Max angular momentum in pseudopotentials (lmaxx) =  3
     Presently no symmetry can be used with electric field

     Message from routine cell_base_init:
     DEPRECATED: use true lattice parameter, not A to a.u. conversion factor

     IMPORTANT: XC functional enforced from input :
     Exchange-correlation= BEEF-VDW
                           (   1   4  43  14   2   0   0)
     Any further DFT definition will be discarded
     Please, verify this is what you really want

  @ DRIVER MODE: Connecting to
 qe_1139763_2767401.sched-torque.pace.gatech.edujwoi2uro_scratch
  using UNIX socket
  @ DRIVER MODE: Message from server: STATUS
  @ DRIVER MODE: Message from server: INIT
  @ DRIVER MODE: Receiving replica           0          -1
  @ DRIVER MODE: Receiving encoded integer          25
  @ DRIVER MODE:  SCF:  T  FORCE:  T  STRESS:  F  VC:  F  ENSEMBLE:  F
  @ DRIVER MODE:  SCF:  T  FORCE:  T  STRESS:  F  VC:  F  ENSEMBLE:  F

     Using Slab Decomposition

     bravais-lattice index     =            0
     lattice parameter (alat)  =       1.8897  a.u.
     unit-cell volume          =    6658.9804 (a.u.)^3
     number of atoms/cell      =           55
     number of atomic types    =            5
     number of electrons       =       397.00
     number of Kohn-Sham states=          208
     kinetic-energy cutoff     =      29.3995  Ry
     charge density cutoff     =     293.9946  Ry
     scf convergence threshold =      7.3E-08
     mixing beta               =       0.0500
     number of iterations used =            8  plain     mixing
     Exchange-correlation= BEEF-VDW
                           (   1   4  43  14   2   0   0)

     celldm(1)=   1.889726  celldm(2)=   0.000000  celldm(3)=   0.000000
     celldm(4)=   0.000000  celldm(5)=   0.000000  celldm(6)=   0.000000

     crystal axes: (cart. coord. in units of alat)
               a(1) = (   6.579727   0.000000   0.000000 )
               a(2) = (  -0.000775   5.961596   0.000000 )
               a(3) = (   0.000000   0.000000  25.155947 )

     reciprocal axes: (cart. coord. in units 2 pi/alat)
               b(1) = (  0.151982  0.000020  0.000000 )
               b(2) = (  0.000000  0.167740  0.000000 )
               b(3) = (  0.000000  0.000000  0.039752 )

     PseudoPot. # 1 for Ti read from file:
     /storage/coda1/p-amedford6/0/shared/rich_project_chbe-medford/medford-share/data/pseudos_module/espresso/nninc/pbe/van/Ti.UPF
     MD5 check sum: 8e4df49b7f0d34bbd5052bf3f5ea0213
     Pseudo is Ultrasoft, Zval = 12.0
     Generated by new atomic code, or converted to UPF format
     Using radial grid of  851 points,  6 beta functions with:
                l(1) =   0
                l(2) =   0
                l(3) =   1
                l(4) =   1
                l(5) =   2
                l(6) =   2
     Q(r) pseudized with  8 coefficients,  rinner =    1.000   1.000   1.000
                                                       1.000   1.000

     PseudoPot. # 2 for O  read from file:
     /storage/coda1/p-amedford6/0/shared/rich_project_chbe-medford/medford-share/data/pseudos_module/espresso/nninc/pbe/van/O.UPF
     MD5 check sum: 78c19812648e8988a0fe644b0f25305e
     Pseudo is Ultrasoft, Zval =  6.0
     Generated by new atomic code, or converted to UPF format
     Using radial grid of  737 points,  4 beta functions with:
                l(1) =   0
                l(2) =   0
                l(3) =   1
                l(4) =   1
     Q(r) pseudized with  8 coefficients,  rinner =    0.800   0.800   0.800

     PseudoPot. # 3 for N  read from file:
     /storage/coda1/p-amedford6/0/shared/rich_project_chbe-medford/medford-share/data/pseudos_module/espresso/nninc/pbe/van/N.UPF
     MD5 check sum: 90d10febe142ad51ac9d5be1deb811c4
     Pseudo is Ultrasoft, Zval =  5.0
     Generated by new atomic code, or converted to UPF format
     Using radial grid of  729 points,  4 beta functions with:
                l(1) =   0
                l(2) =   0
                l(3) =   1
                l(4) =   1
     Q(r) pseudized with  8 coefficients,  rinner =    0.800   0.800   0.800

     PseudoPot. # 4 for C  read from file:
     /storage/coda1/p-amedford6/0/shared/rich_project_chbe-medford/medford-share/data/pseudos_module/espresso/nninc/pbe/van/C.UPF
     MD5 check sum: 1a69bf6b8db32088f5b2163dbdb77a27
     Pseudo is Ultrasoft, Zval =  4.0
     Generated by new atomic code, or converted to UPF format
     Using radial grid of  721 points,  4 beta functions with:
                l(1) =   0
                l(2) =   0
                l(3) =   1
                l(4) =   1
     Q(r) pseudized with  8 coefficients,  rinner =    0.800   0.800   0.800

     PseudoPot. # 5 for H  read from file:
     /storage/coda1/p-amedford6/0/shared/rich_project_chbe-medford/medford-share/data/pseudos_module/espresso/nninc/pbe/van/H.UPF
     MD5 check sum: b5ee9d7bfd3a09ee7748110bda690ff7
     Pseudo is Ultrasoft, Zval =  1.0
     Generated by new atomic code, or converted to UPF format
     Using radial grid of  615 points,  1 beta functions with:
                l(1) =   0
     Q(r) pseudized with  8 coefficients,  rinner =    0.800

     atomic species   valence    mass     pseudopotential
        Ti1           12.00    47.86700     Ti( 1.00)
        O1             6.00    15.99900     O ( 1.00)
        N1             5.00    14.00700     N ( 1.00)
        C1             4.00    12.01100     C ( 1.00)
        H1             1.00     1.00800     H ( 1.00)

     No symmetry found

   Cartesian axes

     site n.     atom                  positions (alat units)
         1           Ti1 tau(   1) = (   0.0004258   2.9801865   6.0000000  )
         2           Ti1 tau(   2) = (   3.2906075   1.4906267   6.0002472  )
         3           O1  tau(   3) = (   0.0006271   0.0005054   7.9858123  )
         4           O1  tau(   4) = (   3.2906025   0.0005020   7.3038282  )
         5           O1  tau(   5) = (   4.5942328   1.4918067   9.2879030  )
         6           O1  tau(   6) = (   1.9868534   1.4903216   9.2879459  )
         7           Ti1 tau(   7) = (   3.2907910   2.8959150   9.1758416  )
         8           Ti1 tau(   8) = (   0.0015273   1.4827037   9.2680791  )
         9           O1  tau(   9) = (   3.2830128   5.9597860  11.3344455  )
        10           O1  tau(  10) = (   0.0116148   5.9584955  10.6183126  )
        11           O1  tau(  11) = (   1.2885291   1.4855062  12.6376555  )
        12           O1  tau(  12) = (   5.2724004   1.4911608  12.5936499  )
        13           Ti1 tau(  13) = (   0.0410009   3.0319447  12.6084003  )
        14           Ti1 tau(  14) = (   3.3739341   1.4916561  12.4823474  )
        15           O1  tau(  15) = (   6.4862162   0.0153916  14.6455093  )
        16           O1  tau(  16) = (   3.3439542   5.9611638  13.9051029  )
        17           O1  tau(  17) = (   4.4933269   1.5483200  16.1231154  )
        18           O1  tau(  18) = (   1.9964937   1.4536654  15.9127221  )
        19           Ti1 tau(  19) = (   3.1412959   3.0017366  15.7441667  )
        20           Ti1 tau(  20) = (   6.4823597   1.5369342  15.8006069  )
        21           O1  tau(  21) = (   3.2904802   0.0005063   4.7018136  )
        22           O1  tau(  22) = (   6.5709111   0.0522475  17.2082838  )
        23           O1  tau(  23) = (   1.3043587   1.4918075   6.0039043  )
        24           O1  tau(  24) = (   5.2767064   1.4903225   6.0039473  )
        25           Ti1 tau(  25) = (   0.0000382   5.9609847   6.0000000  )
        26           Ti1 tau(  26) = (   3.2902200   4.4714249   6.0002472  )
        27           O1  tau(  27) = (   0.0002396   2.9813036   7.9858123  )
        28           O1  tau(  28) = (   3.2902150   2.9813002   7.3038282  )
        29           O1  tau(  29) = (   4.5938453   4.4726049   9.2879030  )
        30           O1  tau(  30) = (   1.9864658   4.4711199   9.2879459  )
        31           Ti1 tau(  31) = (   3.2891106   5.8743827   9.1763621  )
        32           Ti1 tau(  32) = (   0.0006254   4.4649316   9.2693709  )
        33           O1  tau(  33) = (   3.2833609   2.9822938  11.3349093  )
        34           O1  tau(  34) = (   0.0092240   2.9805883  10.6323155  )
        35           O1  tau(  35) = (   1.2838611   4.4860338  12.6468719  )
        36           O1  tau(  36) = (   5.2760156   4.4607002  12.6015494  )
        37           Ti1 tau(  37) = (   0.0673138   0.0440259  12.5461749  )
        38           Ti1 tau(  38) = (   3.3712377   4.4654930  12.4933830  )
        39           O1  tau(  39) = (   6.5217465   2.9589972  14.6412948  )
        40           O1  tau(  40) = (   3.2809526   2.9956502  13.9333893  )
        41           O1  tau(  41) = (   4.4911989   4.4583117  16.1637052  )
        42           O1  tau(  42) = (   1.9937212   4.5427850  15.9740970  )
        43           Ti1 tau(  43) = (   3.2955853   0.0167752  15.6963065  )
        44           Ti1 tau(  44) = (   6.5082246   4.6715011  16.1069148  )
        45           O1  tau(  45) = (   3.2900926   2.9813045   4.7018136  )
        46           O1  tau(  46) = (   1.3039711   4.4726057   6.0039043  )
        47           O1  tau(  47) = (   5.2763189   4.4711207   6.0039473  )
        48           N1  tau(  48) = (   1.3945086   2.8365607  18.1849301  )
        49           N1  tau(  49) = (   0.1777896   2.9650562  17.4211889  )
        50           C1  tau(  50) = (   1.4018813   3.7128676  19.3556819  )
        51           H1  tau(  51) = (   0.5171711   3.5996102  19.9880000  )
        52           H1  tau(  52) = (   2.2935099   3.4681107  19.9517681  )
        53           H1  tau(  53) = (   1.4703795   4.7520035  19.0319817  )
        54           H1  tau(  54) = (   1.4579882   1.8621926  18.4823179  )
        55           H1  tau(  55) = (   5.9558665   2.8747675  18.0551794  )

     number of k points=    10  Fermi-Dirac smearing, width (Ry)=  0.0073
                       cart. coord. in units 2pi/alat
        k(    1) = (   0.0000000   0.0000000   0.0000000), wk =   0.1250000
        k(    2) = (   0.0000000   0.0419351   0.0000000), wk =   0.2500000
        k(    3) = (   0.0000000  -0.0838702   0.0000000), wk =   0.1250000
        k(    4) = (   0.0379955   0.0000049   0.0000000), wk =   0.2500000
        k(    5) = (   0.0379955   0.0419400   0.0000000), wk =   0.2500000
        k(    6) = (   0.0379955  -0.0838652   0.0000000), wk =   0.2500000
        k(    7) = (   0.0379955  -0.0419301   0.0000000), wk =   0.2500000
        k(    8) = (  -0.0759910  -0.0000099   0.0000000), wk =   0.1250000
        k(    9) = (  -0.0759910   0.0419252   0.0000000), wk =   0.2500000
        k(   10) = (  -0.0759910  -0.0838800   0.0000000), wk =   0.1250000

     Initial potential from superposition of free atoms

     starting charge  380.99914, renormalised to  397.00000

     negative rho (up, down):  1.540E-02 0.000E+00

     %%%%%%%%%%%%%%%%%%%%%%%%%%%%%%%%%%%%%%%%%%%%%%%%%%%%%%%%%%%%%%%%%%%%%%%%
     %                                                                      %
     % You are using vdW-DF, which was implemented by the Thonhauser group. %
     % Please cite the following two papers that made this development      %
     % possible and the two reviews that describe the various versions:     %
     %                                                                      %
     %   T. Thonhauser et al., PRL 115, 136402 (2015).                      %
     %   T. Thonhauser et al., PRB 76, 125112 (2007).                       %
     %   K. Berland et al., Rep. Prog. Phys. 78, 066501 (2015).             %
     %   D.C. Langreth et al., J. Phys.: Condens. Matter 21, 084203 (2009). %
     %                                                                      %
     %                                                                      %
     % If you are calculating the stress with vdW-DF, please also cite:     %
     %                                                                      %
     %   R. Sabatini et al., J. Phys.: Condens. Matter 24, 424209 (2012).   %
     %                                                                      %
     %%%%%%%%%%%%%%%%%%%%%%%%%%%%%%%%%%%%%%%%%%%%%%%%%%%%%%%%%%%%%%%%%%%%%%%%

     Adding external electric field

     Computed dipole along edir(3) :
        Dipole               -9.6180 Ry au,        -24.4465 Debye
        Dipole field         -0.0182 Ry au,

        Potential amp.        1.6825 Ry
        Total length         46.3494 bohr

     Starting wfcs are  301 atomic wfcs
  @ DRIVER MODE: Message from server: STATUS
  @ DRIVER MODE: Message from server: POSDATA
  @ DRIVER MODE: Reading and sharing cell
  @ DRIVER MODE: Reading and sharing positions
  @ DRIVER MODE: Received positions

     Self-consistent Calculation

     iteration #  1     ecut=    29.40 Ry     beta= 0.05
     Davidson diagonalization with overlap
     c_bands:  1 eigenvalues not converged
     c_bands:  1 eigenvalues not converged
     c_bands:  1 eigenvalues not converged
     c_bands:  1 eigenvalues not converged
     c_bands:  1 eigenvalues not converged
     c_bands:  1 eigenvalues not converged
     c_bands:  2 eigenvalues not converged
     ethr =  1.00E-05,  avg # of iterations = 18.9

[...]

     total energy              =   -2533.40068564 Ry
     estimated scf accuracy    <    4541.20742544 Ry

     iteration #  2     ecut=    29.40 Ry     beta= 0.05
     Davidson diagonalization with overlap
     ethr =  1.00E-02,  avg # of iterations = 24.5

[...]

     iteration # 51     ecut=    29.40 Ry     beta= 0.05
     Davidson diagonalization with overlap
     c_bands:  1 eigenvalues not converged
     c_bands:  1 eigenvalues not converged
     ethr =  1.09E-06,  avg # of iterations = 15.4

[...]

     total energy              =   -2941.66138169 Ry
     estimated scf accuracy    <       0.00000010 Ry

     iteration # 74     ecut=    29.40 Ry     beta= 0.05
     Davidson diagonalization with overlap
     ethr =  2.58E-11,  avg # of iterations =  7.5

     negative rho (up, down):  1.607E-02 0.000E+00

     Adding external electric field

     Computed dipole along edir(3) :
        Dipole                0.9422 Ry au,          2.3947 Debye
        Dipole field          0.0018 Ry au,

        Potential amp.       -0.1648 Ry
        Total length         46.3494 bohr

     End of self-consistent calculation

          k = 0.0000 0.0000 0.0000 ( 18029 PWs)   bands (ev):

   -55.6865 -55.6696 -55.6525 -55.6330 -55.5928 -55.5384 -55.5309 -55.5011
   -55.4949 -55.4671 -55.4649 -55.4307 -55.2575 -55.0337 -54.6671 -54.6330
   -32.2206 -32.1696 -32.0430 -32.0325 -31.9994 -31.9849 -31.9793 -31.9552
   -31.9306 -31.8989 -31.8967 -31.8903 -31.8471 -31.8388 -31.8253 -31.8233
   -31.8067 -31.7915 -31.7826 -31.7474 -31.7437 -31.7366 -31.7214 -31.7170
   -31.6946 -31.6902 -31.6874 -31.6798 -31.6655 -31.6631 -31.6562 -31.6465
   -31.6410 -31.6316 -31.6179 -31.6086 -31.5770 -31.5079 -31.4639 -31.2999
   -31.2907 -31.2362 -31.0743 -30.9857 -30.9633 -30.8910 -30.8045 -30.6934
   -16.7780 -16.4172 -16.1624 -15.9332 -15.8420 -15.8114 -15.6592 -15.5275
   -15.4181 -15.3364 -15.2514 -15.2324 -15.2252 -15.2145 -15.1883 -15.1821
   -15.1354 -15.1307 -15.1113 -15.0984 -15.0483 -15.0315 -15.0282 -14.9333
   -14.8696 -14.8344 -14.8196 -14.7847 -14.7475 -14.3328 -13.1692 -13.0527
   -11.7991  -8.9838  -5.4281  -4.3645  -3.8557  -3.7892  -3.6446  -3.5941
    -3.5340  -3.4968  -3.3177  -3.2148  -2.9421  -2.8853  -2.8555  -2.8463
    -2.7933  -2.7619  -2.6015  -2.5751  -2.5031  -2.4932  -2.4802  -2.4510
    -2.4405  -2.4333  -2.3833  -2.3705  -2.3475  -2.2431  -2.1008  -2.0905
    -2.0706  -2.0379  -2.0005  -1.9518  -1.9354  -1.9149  -1.8966  -1.8842
    -1.8715  -1.7366  -1.7016  -1.5848  -1.4958  -1.4495  -1.3661  -1.2987
    -1.2684  -1.1578  -1.1181  -1.1055  -1.0910  -1.0807  -0.9810  -0.8751
    -0.8577  -0.8194  -0.7637  -0.7093  -0.6387  -0.5936  -0.5426  -0.4904
    -0.4663  -0.4511  -0.4483  -0.4131  -0.3218  -0.1803  -0.1284  -0.0940
    -0.0718   0.0049   0.0399   0.0962   0.1205   0.1441   0.1799   0.2328
     0.2765   0.2829   0.2963   0.3109   0.3156   0.4898   0.5396   0.5811
     0.6145   0.6608   0.8218   0.8440   0.9655   1.0390   1.1988   1.2809
     1.3554   1.4335   1.5472   1.6151   1.9267   1.9724   3.4442   3.5316
     3.5764   3.5903   3.6856   3.7273   3.8970   3.9275   3.9421   4.0020

[...]

          k = 0.0380-0.0419 0.0000 ( 17876 PWs)   bands (ev):

[...]

          k =-0.0760-0.0000 0.0000 ( 17886 PWs)   bands (ev):

[...]

          k =-0.0760-0.0839 0.0000 ( 17948 PWs)   bands (ev):

   -55.6698 -55.6691 -55.6549 -55.6475 -55.5868 -55.5443 -55.5183 -55.5075
   -55.4845 -55.4831 -55.4508 -55.4450 -55.2563 -55.0348 -54.6500 -54.6499
   -32.0297 -32.0200 -31.9852 -31.9846 -31.9651 -31.9643 -31.9445 -31.9382
   -31.8852 -31.8843 -31.8740 -31.8691 -31.8522 -31.8342 -31.8093 -31.8047
   -31.8002 -31.7967 -31.7904 -31.7899 -31.7887 -31.7883 -31.7844 -31.7451
   -31.7364 -31.7249 -31.7167 -31.7054 -31.6849 -31.6840 -31.6818 -31.6751
   -31.6651 -31.6611 -31.6580 -31.6554 -31.6136 -31.5104 -31.4606 -31.3621
   -31.2928 -31.2622 -30.9761 -30.9760 -30.8871 -30.8870 -30.8478 -30.8478
   -16.7521 -15.8644 -15.8033 -15.6454 -15.6102 -15.5906 -15.5558 -15.4947
   -15.4116 -15.3846 -15.3800 -15.3331 -15.3072 -15.2744 -15.2362 -15.2218
   -15.2147 -15.1958 -15.1835 -15.1496 -15.1401 -15.1286 -15.1213 -15.0457
   -15.0082 -15.0038 -14.9981 -14.8945 -14.7678 -14.5007 -13.1545 -13.1545
   -11.8055  -8.9981  -5.4421  -4.3515  -3.7838  -3.1572  -3.0702  -2.8950
    -2.8397  -2.8110  -2.7951  -2.6276  -2.6199  -2.6028  -2.5583  -2.5354
    -2.5226  -2.5163  -2.5084  -2.4873  -2.4747  -2.4378  -2.4295  -2.3941
    -2.3797  -2.3625  -2.3458  -2.3281  -2.3091  -2.2935  -2.2728  -2.2374
    -2.2157  -2.2058  -2.1865  -2.1423  -1.9322  -1.8815  -1.8348  -1.8269
    -1.8217  -1.8000  -1.7469  -1.7423  -1.7080  -1.6559  -1.5785  -1.4337
    -1.3884  -1.3720  -1.2789  -1.2572  -1.2046  -1.1324  -1.0867  -1.0698
    -1.0347  -0.9709  -0.9342  -0.8971  -0.8305  -0.8059  -0.8000  -0.7067
    -0.6856  -0.6496  -0.6429  -0.5642  -0.5134  -0.4507  -0.4354  -0.4190
    -0.3876  -0.3538  -0.3357  -0.2673  -0.1758  -0.1747  -0.1507  -0.0425
     0.0480   0.2765   0.3392   0.3762   0.4210   0.5148   0.5832   0.6078
     0.6236   0.6454   0.6648   0.7130   0.8398   0.8499   0.8842   0.9970
     1.0968   1.6305   1.7189   1.7197   1.7922   1.7923   3.7457   3.7640
     3.7846   3.8310   3.9502   3.9572   3.9793   3.9814   4.1043   4.1171

     the Fermi energy is     3.4458 ev

!    total energy              =   -2941.66139491 Ry
     estimated scf accuracy    <       0.00000003 Ry
     smearing contrib. (-TS)   =      -0.02151473 Ry
     internal energy E=F+TS    =   -2941.63988018 Ry

     The total energy is F=E-TS. E is the sum of the following terms:
     one-electron contribution =  -24276.10064899 Ry
     hartree contribution      =   12228.51323620 Ry
     xc contribution           =    -486.87329393 Ry
     ewald contribution        =    9592.81915140 Ry
     electric field correction =       0.00167514 Ry

     convergence has been achieved in  74 iterations

     Forces acting on atoms (cartesian axes, Ry/au):

     atom    1 type  1   force =     0.00018154   -0.00011975    0.09635318
     atom    2 type  1   force =    -0.00021780   -0.00063309   -0.17552647
     atom    3 type  2   force =    -0.00004252   -0.00003642   -0.02419394
     atom    4 type  2   force =     0.00004914   -0.00144006    0.05291742
     atom    5 type  2   force =    -0.01181276   -0.00049233    0.00396371
     atom    6 type  2   force =     0.01312376    0.00023561    0.00230084
     atom    7 type  1   force =    -0.00139804    0.00080500   -0.01148498
     atom    8 type  1   force =     0.00053559    0.00921235    0.02522552
     atom    9 type  2   force =    -0.00010987    0.00017307    0.00038999
     atom   10 type  2   force =    -0.00086611    0.00148113   -0.01580587
     atom   11 type  2   force =    -0.00018448   -0.00049815    0.00038936
     atom   12 type  2   force =    -0.00014296   -0.00026117    0.00002237
     atom   13 type  1   force =     0.00054941   -0.00092179    0.00010912
     atom   14 type  1   force =    -0.00008118   -0.00040602    0.00023889
     atom   15 type  2   force =     0.00018371   -0.00000849   -0.00034973
     atom   16 type  2   force =     0.00006403    0.00024787    0.00005492
     atom   17 type  2   force =    -0.00056646    0.00033876    0.00048617
     atom   18 type  2   force =     0.00011424    0.00018857    0.00039363
     atom   19 type  1   force =     0.00017057   -0.00051338    0.00016393
     atom   20 type  1   force =     0.00010679    0.00044577    0.00061715
     atom   21 type  2   force =     0.00007432   -0.00008202    0.10321888
     atom   22 type  2   force =    -0.00044786   -0.00023040    0.00020477
     atom   23 type  2   force =    -0.07149603   -0.00018147   -0.02771782
     atom   24 type  2   force =     0.07141562    0.00025149   -0.02771720
     atom   25 type  1   force =     0.00003268   -0.00027017    0.09581504
     atom   26 type  1   force =    -0.00014946   -0.00023256   -0.17569330
     atom   27 type  2   force =     0.00009127   -0.00012526   -0.02329786
     atom   28 type  2   force =     0.00007875   -0.00129494    0.05334204
     atom   29 type  2   force =    -0.01194129   -0.00005839    0.00376044
     atom   30 type  2   force =     0.01319051    0.00042829    0.00213651
     atom   31 type  1   force =    -0.00141749    0.00345072   -0.01081213
     atom   32 type  1   force =     0.00064156   -0.01009922    0.02563438
     atom   33 type  2   force =    -0.00039160    0.00005113    0.00005162
     atom   34 type  2   force =     0.00074845    0.00090182   -0.02307895
     atom   35 type  2   force =    -0.00010175    0.00029756   -0.00003024
     atom   36 type  2   force =    -0.00023570    0.00059862   -0.00029468
     atom   37 type  1   force =    -0.00082185   -0.00102750   -0.00010946
     atom   38 type  1   force =    -0.00002785   -0.00009824   -0.00004412
     atom   39 type  2   force =    -0.00034758    0.00005243    0.00051677
     atom   40 type  2   force =     0.00048877    0.00024644    0.00030232
     atom   41 type  2   force =     0.00002226    0.00051084    0.00027117
     atom   42 type  2   force =     0.00009216    0.00026729   -0.00017362
     atom   43 type  1   force =     0.00023630    0.00007224   -0.00021407
     atom   44 type  1   force =    -0.00025382   -0.00066155    0.00001857
     atom   45 type  2   force =     0.00006938   -0.00008739    0.10324119
     atom   46 type  2   force =    -0.07150190   -0.00017131   -0.02771086
     atom   47 type  2   force =     0.07142404    0.00030578   -0.02772749
     atom   48 type  3   force =    -0.00308861    0.00075533    0.00049572
     atom   49 type  3   force =    -0.00028065   -0.00087527   -0.00101593
     atom   50 type  4   force =     0.02128293   -0.00039549    0.00146226
     atom   51 type  5   force =    -0.00659265   -0.00066816    0.00324274
     atom   52 type  5   force =    -0.00812442    0.00261990   -0.00442624
     atom   53 type  5   force =    -0.00208306   -0.00227639    0.00073194
     atom   54 type  5   force =    -0.00003631    0.00056141   -0.00030984
     atom   55 type  5   force =    -0.00020574   -0.00033301   -0.00033779

     Total force =     0.368196     Total SCF correction =     0.000498
  @ DRIVER MODE: Message from server: STATUS
  @ DRIVER MODE: Message from server: GETFORCE
  @ DRIVER MODE: Returning v,forces,stress,ensemble

     Writing output data file ./calc.save/
  @ DRIVER MODE: Message from server: EXIT
  @ DRIVE MODE: Exiting

     General routines

     Parallel routines

   This run was terminated on:   2:18:27   9Sep2021

   JOB DONE.