     Program PWSCF v.6.7GPU starts on 28Sep2021 at  0:19: 6

     R & G space division:  proc/nbgrp/npool/nimage =       8
     Reading input from /storage/home/hcoda1/3/ntian30/research/carbon/CxH_vib/H2O_calc/ads_slab/CHOHO_b/out_0022/pw.inp
Warning: card &CELL ignored
Warning: card   CELL_DYNAMICS='IPI', ignored
Warning: card / ignored

     Current dimensions of program PWSCF are:
     Max number of different atomic species (ntypx) = 10
     Max number of k-points (npk) =  40000
     Max angular momentum in pseudopotentials (lmaxx) =  3
     Presently no symmetry can be used with electric field

     Message from routine cell_base_init:
     DEPRECATED: use true lattice parameter, not A to a.u. conversion factor

     IMPORTANT: XC functional enforced from input :
     Exchange-correlation= BEEF-VDW
                           (   1   4  43  14   2   0   0)
     Any further DFT definition will be discarded
     Please, verify this is what you really want

  @ DRIVER MODE: Connecting to
 qe_1139763_3000314.sched-torque.pace.gatech.edunm9f_n4d_scratch
  using UNIX socket
  @ DRIVER MODE: Message from server: STATUS
  @ DRIVER MODE: Message from server: INIT
  @ DRIVER MODE: Receiving replica           0          -1
  @ DRIVER MODE: Receiving encoded integer          25
  @ DRIVER MODE:  SCF:  T  FORCE:  T  STRESS:  F  VC:  F  ENSEMBLE:  F
  @ DRIVER MODE:  SCF:  T  FORCE:  T  STRESS:  F  VC:  F  ENSEMBLE:  F

     Using Slab Decomposition

     bravais-lattice index     =            0
     lattice parameter (alat)  =       1.8897  a.u.
     unit-cell volume          =    6658.9804 (a.u.)^3
     number of atoms/cell      =           52
     number of atomic types    =            4
     number of electrons       =       396.00
     number of Kohn-Sham states=          208
     kinetic-energy cutoff     =      29.3995  Ry
     charge density cutoff     =     293.9946  Ry
     scf convergence threshold =      7.3E-08
     mixing beta               =       0.0500
     number of iterations used =            8  plain     mixing
     Exchange-correlation= BEEF-VDW
                           (   1   4  43  14   2   0   0)

     celldm(1)=   1.889726  celldm(2)=   0.000000  celldm(3)=   0.000000
     celldm(4)=   0.000000  celldm(5)=   0.000000  celldm(6)=   0.000000

     crystal axes: (cart. coord. in units of alat)
               a(1) = (   6.579727   0.000000   0.000000 )
               a(2) = (  -0.000775   5.961596   0.000000 )
               a(3) = (   0.000000   0.000000  25.155947 )

     reciprocal axes: (cart. coord. in units 2 pi/alat)
               b(1) = (  0.151982  0.000020  0.000000 )
               b(2) = (  0.000000  0.167740  0.000000 )
               b(3) = (  0.000000  0.000000  0.039752 )

     PseudoPot. # 1 for C  read from file:
     /storage/coda1/p-amedford6/0/shared/rich_project_chbe-medford/medford-share/data/pseudos_module/espresso/nninc/pbe/van/C.UPF
     MD5 check sum: 1a69bf6b8db32088f5b2163dbdb77a27
     Pseudo is Ultrasoft, Zval =  4.0
     Generated by new atomic code, or converted to UPF format
     Using radial grid of  721 points,  4 beta functions with:
                l(1) =   0
                l(2) =   0
                l(3) =   1
                l(4) =   1
     Q(r) pseudized with  8 coefficients,  rinner =    0.800   0.800   0.800

     PseudoPot. # 2 for H  read from file:
     /storage/coda1/p-amedford6/0/shared/rich_project_chbe-medford/medford-share/data/pseudos_module/espresso/nninc/pbe/van/H.UPF
     MD5 check sum: b5ee9d7bfd3a09ee7748110bda690ff7
     Pseudo is Ultrasoft, Zval =  1.0
     Generated by new atomic code, or converted to UPF format
     Using radial grid of  615 points,  1 beta functions with:
                l(1) =   0
     Q(r) pseudized with  8 coefficients,  rinner =    0.800

     PseudoPot. # 3 for O  read from file:
     /storage/coda1/p-amedford6/0/shared/rich_project_chbe-medford/medford-share/data/pseudos_module/espresso/nninc/pbe/van/O.UPF
     MD5 check sum: 78c19812648e8988a0fe644b0f25305e
     Pseudo is Ultrasoft, Zval =  6.0
     Generated by new atomic code, or converted to UPF format
     Using radial grid of  737 points,  4 beta functions with:
                l(1) =   0
                l(2) =   0
                l(3) =   1
                l(4) =   1
     Q(r) pseudized with  8 coefficients,  rinner =    0.800   0.800   0.800

     PseudoPot. # 4 for Ti read from file:
     /storage/coda1/p-amedford6/0/shared/rich_project_chbe-medford/medford-share/data/pseudos_module/espresso/nninc/pbe/van/Ti.UPF
     MD5 check sum: 8e4df49b7f0d34bbd5052bf3f5ea0213
     Pseudo is Ultrasoft, Zval = 12.0
     Generated by new atomic code, or converted to UPF format
     Using radial grid of  851 points,  6 beta functions with:
                l(1) =   0
                l(2) =   0
                l(3) =   1
                l(4) =   1
                l(5) =   2
                l(6) =   2
     Q(r) pseudized with  8 coefficients,  rinner =    1.000   1.000   1.000
                                                       1.000   1.000

     atomic species   valence    mass     pseudopotential
        C1             4.00    12.01100     C ( 1.00)
        H1             1.00     1.00800     H ( 1.00)
        O1             6.00    15.99900     O ( 1.00)
        Ti1           12.00    47.86700     Ti( 1.00)

     No symmetry found

   Cartesian axes

     site n.     atom                  positions (alat units)
         1           C1  tau(   1) = (   6.4174581   3.0630250  18.7433229  )
         2           H1  tau(   2) = (   6.4111689   4.1212957  19.1161716  )
         3           O1  tau(   3) = (   3.2904802   0.0005063   4.7018136  )
         4           O1  tau(   4) = (   3.2900926   2.9813045   4.7018136  )
         5           O1  tau(   5) = (   1.3043587   1.4918075   6.0039043  )
         6           O1  tau(   6) = (   1.3039711   4.4726057   6.0039043  )
         7           O1  tau(   7) = (   5.2767064   1.4903225   6.0039473  )
         8           O1  tau(   8) = (   5.2763189   4.4711207   6.0039473  )
         9           O1  tau(   9) = (   3.2906025   0.0005020   7.3038282  )
        10           O1  tau(  10) = (   3.2902150   2.9813002   7.3038282  )
        11           O1  tau(  11) = (   0.0006271   0.0005054   7.9858123  )
        12           O1  tau(  12) = (   0.0002396   2.9813036   7.9858123  )
        13           O1  tau(  13) = (   4.5942328   1.4918067   9.2879030  )
        14           O1  tau(  14) = (   4.5938453   4.4726049   9.2879030  )
        15           O1  tau(  15) = (   1.9868534   1.4903216   9.2879459  )
        16           O1  tau(  16) = (   1.9864658   4.4711199   9.2879459  )
        17           O1  tau(  17) = (   0.0063547   0.0038039  10.5886533  )
        18           O1  tau(  18) = (   0.0036009   2.9935247  10.5534957  )
        19           O1  tau(  19) = (   3.2887833   2.9558164  11.3026950  )
        20           O1  tau(  20) = (   3.2889155   0.0180965  11.3284547  )
        21           O1  tau(  21) = (   1.2693144   4.4854729  12.6486175  )
        22           O1  tau(  22) = (   1.2682469   1.5082983  12.6349555  )
        23           O1  tau(  23) = (   5.3117200   4.4832310  12.6447022  )
        24           O1  tau(  24) = (   5.3022439   1.5078309  12.6340177  )
        25           O1  tau(  25) = (   3.2906411   2.9682164  13.9081918  )
        26           O1  tau(  26) = (   3.2897682   5.9313675  13.9192633  )
        27           O1  tau(  27) = (   0.0102991   0.0146890  14.6966064  )
        28           O1  tau(  28) = (   6.5585574   2.9631049  14.7216645  )
        29           O1  tau(  29) = (   4.5396285   4.4015509  16.0671556  )
        30           O1  tau(  30) = (   4.5390945   1.4941059  16.1279003  )
        31           O1  tau(  31) = (   2.0082845   1.5156796  16.1272261  )
        32           O1  tau(  32) = (   2.0064512   4.3952525  16.0627866  )
        33           O1  tau(  33) = (   6.5747792   5.9015977  17.1979186  )
        34           O1  tau(  34) = (   6.5364340   3.0300823  17.4955599  )
        35           Ti1 tau(  35) = (   0.0004258   2.9801865   6.0000000  )
        36           Ti1 tau(  36) = (   0.0000382   5.9609847   6.0000000  )
        37           Ti1 tau(  37) = (   3.2906075   1.4906267   6.0002472  )
        38           Ti1 tau(  38) = (   3.2902200   4.4714249   6.0002472  )
        39           Ti1 tau(  39) = (   3.3327010   0.0642822   9.1729847  )
        40           Ti1 tau(  40) = (   3.3370945   3.0443960   9.2119432  )
        41           Ti1 tau(  41) = (   0.0627859   4.5109727   9.2698030  )
        42           Ti1 tau(  42) = (   0.0576648   1.5917673   9.3593984  )
        43           Ti1 tau(  43) = (   0.0253163   5.9063241  12.4905130  )
        44           Ti1 tau(  44) = (   3.2927504   4.6587819  12.6908054  )
        45           Ti1 tau(  45) = (   3.2752962   1.5585801  12.4345831  )
        46           Ti1 tau(  46) = (   6.5429176   2.9239390  12.8034251  )
        47           Ti1 tau(  47) = (   3.2945171   2.9475426  15.6852994  )
        48           Ti1 tau(  48) = (   3.3539256   5.9263172  16.3551506  )
        49           Ti1 tau(  49) = (   0.0620310   4.5244698  15.8688857  )
        50           Ti1 tau(  50) = (   0.0504038   1.3137671  16.0740927  )
        51           O1  tau(  51) = (   3.3002437   5.8705330  18.1582223  )
        52           H1  tau(  52) = (   3.3828385   0.6075072  18.8126307  )

     number of k points=    10  Fermi-Dirac smearing, width (Ry)=  0.0073
                       cart. coord. in units 2pi/alat
        k(    1) = (   0.0000000   0.0000000   0.0000000), wk =   0.1250000
        k(    2) = (   0.0000000   0.0419351   0.0000000), wk =   0.2500000
        k(    3) = (   0.0000000  -0.0838702   0.0000000), wk =   0.1250000
        k(    4) = (   0.0379955   0.0000049   0.0000000), wk =   0.2500000
        k(    5) = (   0.0379955   0.0419400   0.0000000), wk =   0.2500000
        k(    6) = (   0.0379955  -0.0838652   0.0000000), wk =   0.2500000
        k(    7) = (   0.0379955  -0.0419301   0.0000000), wk =   0.2500000
        k(    8) = (  -0.0759910  -0.0000099   0.0000000), wk =   0.1250000
        k(    9) = (  -0.0759910   0.0419252   0.0000000), wk =   0.2500000
        k(   10) = (  -0.0759910  -0.0838800   0.0000000), wk =   0.1250000

     Initial potential from superposition of free atoms

     starting charge  379.99919, renormalised to  396.00000

     negative rho (up, down):  1.746E-02 0.000E+00

     %%%%%%%%%%%%%%%%%%%%%%%%%%%%%%%%%%%%%%%%%%%%%%%%%%%%%%%%%%%%%%%%%%%%%%%%
     %                                                                      %
     % You are using vdW-DF, which was implemented by the Thonhauser group. %
     % Please cite the following two papers that made this development      %
     % possible and the two reviews that describe the various versions:     %
     %                                                                      %
     %   T. Thonhauser et al., PRL 115, 136402 (2015).                      %
     %   T. Thonhauser et al., PRB 76, 125112 (2007).                       %
     %   K. Berland et al., Rep. Prog. Phys. 78, 066501 (2015).             %
     %   D.C. Langreth et al., J. Phys.: Condens. Matter 21, 084203 (2009). %
     %                                                                      %
     %                                                                      %
     % If you are calculating the stress with vdW-DF, please also cite:     %
     %                                                                      %
     %   R. Sabatini et al., J. Phys.: Condens. Matter 24, 424209 (2012).   %
     %                                                                      %
     %%%%%%%%%%%%%%%%%%%%%%%%%%%%%%%%%%%%%%%%%%%%%%%%%%%%%%%%%%%%%%%%%%%%%%%%

     Adding external electric field

     Computed dipole along edir(3) :
        Dipole               -7.6492 Ry au,        -19.4423 Debye
        Dipole field         -0.0144 Ry au,

        Potential amp.        1.3381 Ry
        Total length         46.3494 bohr

     Starting wfcs are  298 atomic wfcs
  @ DRIVER MODE: Message from server: STATUS
  @ DRIVER MODE: Message from server: POSDATA
  @ DRIVER MODE: Reading and sharing cell
  @ DRIVER MODE: Reading and sharing positions
  @ DRIVER MODE: Received positions

     Self-consistent Calculation

     iteration #  1     ecut=    29.40 Ry     beta= 0.05
     Davidson diagonalization with overlap
     c_bands:  1 eigenvalues not converged
     c_bands:  2 eigenvalues not converged
     c_bands:  1 eigenvalues not converged
     c_bands:  1 eigenvalues not converged
     c_bands:  3 eigenvalues not converged
     c_bands:  1 eigenvalues not converged
     c_bands:  3 eigenvalues not converged
     c_bands:  1 eigenvalues not converged
     c_bands:  2 eigenvalues not converged
     c_bands:  1 eigenvalues not converged
     ethr =  1.00E-05,  avg # of iterations = 20.0

[...]

     total energy              =   -2670.39616458 Ry
     estimated scf accuracy    <    3232.65439461 Ry

[...]

     iteration #  3     ecut=    29.40 Ry     beta= 0.05
     Davidson diagonalization with overlap
     ethr =  1.00E-02,  avg # of iterations = 14.7

[...]

     iteration # 52     ecut=    29.40 Ry     beta= 0.05
     Davidson diagonalization with overlap
     c_bands:  1 eigenvalues not converged
     c_bands:  1 eigenvalues not converged
     ethr =  2.26E-07,  avg # of iterations = 14.4

[...]

     total energy              =   -2962.43518146 Ry
     estimated scf accuracy    <       0.00000008 Ry

     iteration # 78     ecut=    29.40 Ry     beta= 0.05
     Davidson diagonalization with overlap
     ethr =  2.03E-11,  avg # of iterations =  7.0

     negative rho (up, down):  1.661E-02 0.000E+00

     Adding external electric field

     Computed dipole along edir(3) :
        Dipole                0.3243 Ry au,          0.8242 Debye
        Dipole field          0.0006 Ry au,

        Potential amp.       -0.0567 Ry
        Total length         46.3494 bohr

     End of self-consistent calculation

          k = 0.0000 0.0000 0.0000 ( 18029 PWs)   bands (ev):

   -56.3715 -56.3259 -56.1756 -56.0687 -56.0378 -56.0256 -55.9685 -55.9437
   -55.9139 -55.9080 -55.8888 -55.8764 -55.7931 -55.6656 -55.1521 -55.1181
   -32.8108 -32.6613 -32.6118 -32.5589 -32.5343 -32.5328 -32.5279 -32.5134
   -32.4376 -32.4345 -32.4241 -32.3992 -32.3900 -32.3476 -32.3201 -32.3187
   -32.2740 -32.2597 -32.2560 -32.2483 -32.2179 -32.2035 -32.1982 -32.1619
   -32.1533 -32.1486 -32.1384 -32.1366 -32.1351 -32.1100 -32.1010 -32.0968
   -32.0813 -32.0738 -32.0701 -32.0492 -32.0443 -32.0213 -31.9947 -31.9204
   -31.8776 -31.8754 -31.5528 -31.4824 -31.4588 -31.3695 -31.2837 -31.1725
   -19.9953 -17.0221 -16.7680 -16.6065 -16.4149 -16.2992 -16.2187 -16.0261
   -15.9174 -15.8636 -15.7878 -15.7473 -15.6674 -15.6623 -15.6497 -15.6109
   -15.5976 -15.5949 -15.5419 -15.5404 -15.5041 -15.4915 -15.4305 -15.3816
   -15.3392 -15.3086 -15.2383 -15.2261 -15.1563 -15.1482 -14.8709 -13.6542
   -13.5418  -8.1637  -5.0476  -4.8592  -4.1673  -4.1032  -4.0116  -3.9304
    -3.8524  -3.6598  -3.5645  -3.4907  -3.4056  -3.3061  -3.2542  -3.2175
    -3.1189  -3.1068  -3.0532  -3.0111  -2.9770  -2.9472  -2.8994  -2.8651
    -2.8175  -2.7884  -2.7739  -2.7309  -2.6896  -2.6747  -2.5871  -2.5672
    -2.5597  -2.5154  -2.4851  -2.4393  -2.4200  -2.3773  -2.3523  -2.3404
    -2.2235  -2.1527  -2.1391  -2.0667  -1.9421  -1.7380  -1.7003  -1.6717
    -1.6650  -1.5467  -1.5086  -1.4927  -1.4634  -1.4311  -1.3927  -1.2885
    -1.2835  -1.2210  -1.1806  -1.1671  -1.0201  -1.0016  -0.9719  -0.9002
    -0.8759  -0.8156  -0.8020  -0.6863  -0.6383  -0.6081  -0.5070  -0.4617
    -0.4431  -0.4311  -0.3857  -0.3616  -0.3521  -0.3055  -0.2290  -0.2203
    -0.1839  -0.1604  -0.1434  -0.1085  -0.0319   0.0070   0.0741   0.1543
     0.1815   0.1980   0.2634   0.3265   0.4396   0.5377   0.6665   0.8673
     0.8676   0.9894   1.0945   1.4250   1.4703   2.6452   2.8744   2.9799
     3.1342   3.1907   3.2100   3.2954   3.3321   3.4161   3.6258   3.6624

[...]

          k = 0.0380-0.0419 0.0000 ( 17876 PWs)   bands (ev):

[...]

          k =-0.0760-0.0000 0.0000 ( 17886 PWs)   bands (ev):

[...]

          k =-0.0760-0.0839 0.0000 ( 17948 PWs)   bands (ev):

   -56.3640 -56.3333 -56.1747 -56.0612 -56.0354 -56.0330 -55.9646 -55.9445
   -55.9110 -55.9018 -55.8924 -55.8877 -55.7909 -55.6677 -55.1356 -55.1344
   -32.6566 -32.6399 -32.6132 -32.6127 -32.4949 -32.4793 -32.4758 -32.4718
   -32.4192 -32.3839 -32.3713 -32.3702 -32.3531 -32.3170 -32.3095 -32.2764
   -32.2581 -32.2563 -32.2501 -32.2426 -32.2408 -32.2327 -32.2268 -32.2101
   -32.1854 -32.1806 -32.1731 -32.1600 -32.1400 -32.1393 -32.1235 -32.1158
   -32.1109 -32.1042 -32.0987 -32.0904 -32.0864 -32.0417 -31.9988 -31.9928
   -31.9219 -31.8802 -31.4723 -31.4711 -31.3677 -31.3655 -31.3266 -31.3251
   -19.9890 -17.0118 -16.2110 -16.1793 -16.0842 -16.0264 -16.0131 -15.9506
   -15.9252 -15.8779 -15.8724 -15.7807 -15.7769 -15.7545 -15.7168 -15.6932
   -15.6837 -15.6519 -15.6262 -15.5920 -15.5804 -15.5604 -15.5301 -15.4982
   -15.4483 -15.4424 -15.3788 -15.3528 -15.3269 -15.2158 -15.0274 -13.6456
   -13.6436  -8.1646  -5.0263  -4.8674  -3.6197  -3.4801  -3.3991  -3.2985
    -3.2107  -3.1603  -3.1364  -3.0969  -3.0765  -3.0263  -3.0241  -2.9803
    -2.9692  -2.9276  -2.9109  -2.8738  -2.8407  -2.8257  -2.8203  -2.8123
    -2.8098  -2.7944  -2.7628  -2.7514  -2.7342  -2.7306  -2.6821  -2.6482
    -2.6301  -2.5320  -2.4795  -2.4448  -2.3910  -2.3406  -2.3085  -2.2913
    -2.2757  -2.2282  -2.2110  -2.1821  -2.0724  -2.0315  -1.8661  -1.8093
    -1.7694  -1.7223  -1.6899  -1.6464  -1.5954  -1.5770  -1.5542  -1.5028
    -1.4901  -1.3567  -1.3535  -1.2985  -1.2174  -1.1877  -1.1799  -1.1690
    -1.1029  -1.0459  -1.0305  -1.0259  -0.9868  -0.8916  -0.8855  -0.8389
    -0.8272  -0.7922  -0.7206  -0.6524  -0.5554  -0.5206  -0.4642  -0.4389
    -0.3084  -0.2715  -0.1297  -0.1133  -0.0243   0.0123   0.0394   0.1216
     0.1435   0.1781   0.2577   0.2840   0.3654   0.4145   0.4584   0.4685
     0.5316   1.2444   1.2601   1.2771   1.2889   2.5480   3.2709   3.3739
     3.3790   3.4068   3.4196   3.5207   3.5344   3.6046   3.6391   3.6840

     the Fermi energy is     2.7864 ev

!    total energy              =   -2962.43518884 Ry
     estimated scf accuracy    <       0.00000002 Ry
     smearing contrib. (-TS)   =      -0.01289704 Ry
     internal energy E=F+TS    =   -2962.42229181 Ry

     The total energy is F=E-TS. E is the sum of the following terms:
     one-electron contribution =  -24149.99200805 Ry
     hartree contribution      =   12160.93248200 Ry
     xc contribution           =    -488.28159401 Ry
     ewald contribution        =    9514.91862982 Ry
     electric field correction =       0.00019843 Ry

     convergence has been achieved in  78 iterations

     Forces acting on atoms (cartesian axes, Ry/au):

     atom    1 type  1   force =    -0.00023835   -0.00014017    0.00020342
     atom    2 type  2   force =     0.00011199   -0.00041141   -0.00031454
     atom    3 type  3   force =    -0.00000408    0.00008053    0.10095289
     atom    4 type  3   force =    -0.00000047    0.00014090    0.10054724
     atom    5 type  3   force =    -0.07611273    0.00087649   -0.03116287
     atom    6 type  3   force =    -0.07555937   -0.00155024   -0.03116910
     atom    7 type  3   force =     0.07594444    0.00141636   -0.03122907
     atom    8 type  3   force =     0.07555338   -0.00105217   -0.03118912
     atom    9 type  3   force =     0.00102224    0.00071343    0.04689925
     atom   10 type  3   force =     0.00093754    0.00023127    0.04950319
     atom   11 type  3   force =     0.00038068   -0.00605470   -0.04131130
     atom   12 type  3   force =     0.00101378    0.00274858   -0.03528351
     atom   13 type  3   force =    -0.01264813   -0.00287318    0.00044260
     atom   14 type  3   force =    -0.01412144    0.00448055    0.00144105
     atom   15 type  3   force =     0.01210426   -0.00536610    0.00103500
     atom   16 type  3   force =     0.01170841    0.00182117    0.00133828
     atom   17 type  3   force =     0.00007779    0.00034644    0.00075061
     atom   18 type  3   force =     0.00013111   -0.00027538    0.00017409
     atom   19 type  3   force =    -0.00012417   -0.00000963    0.00023688
     atom   20 type  3   force =    -0.00006400    0.00051784   -0.00040705
     atom   21 type  3   force =     0.00032076    0.00007112   -0.00006669
     atom   22 type  3   force =    -0.00003041    0.00000453    0.00000450
     atom   23 type  3   force =    -0.00014359    0.00005010    0.00000984
     atom   24 type  3   force =    -0.00001593    0.00000488   -0.00019665
     atom   25 type  3   force =    -0.00011244    0.00022705   -0.00039153
     atom   26 type  3   force =    -0.00004999    0.00063003    0.00052947
     atom   27 type  3   force =    -0.00007123   -0.00016994   -0.00056054
     atom   28 type  3   force =    -0.00004214    0.00010554   -0.00015755
     atom   29 type  3   force =    -0.00018661   -0.00014119    0.00003073
     atom   30 type  3   force =    -0.00031115    0.00058544   -0.00082604
     atom   31 type  3   force =    -0.00008372    0.00045284   -0.00061500
     atom   32 type  3   force =    -0.00017480    0.00006762    0.00011379
     atom   33 type  3   force =    -0.00001349   -0.00018162    0.00081976
     atom   34 type  3   force =     0.00008413    0.00017223   -0.00016134
     atom   35 type  4   force =    -0.00008899   -0.00132441    0.10983523
     atom   36 type  4   force =    -0.00019550    0.00142519    0.12390127
     atom   37 type  4   force =    -0.00029240    0.00759885   -0.16583106
     atom   38 type  4   force =     0.00000125   -0.00694261   -0.16567626
     atom   39 type  4   force =     0.00075583   -0.00133044   -0.00023841
     atom   40 type  4   force =     0.00083250    0.00161978   -0.00033651
     atom   41 type  4   force =    -0.00062678    0.00000662   -0.00006980
     atom   42 type  4   force =    -0.00070571    0.00002568   -0.00030860
     atom   43 type  4   force =     0.00011348   -0.00016644    0.00006190
     atom   44 type  4   force =     0.00033193    0.00005829   -0.00032128
     atom   45 type  4   force =     0.00012909    0.00101719   -0.00018944
     atom   46 type  4   force =    -0.00000989   -0.00005928   -0.00041453
     atom   47 type  4   force =     0.00036332   -0.00010100    0.00026565
     atom   48 type  4   force =     0.00019968    0.00049178    0.00052095
     atom   49 type  4   force =    -0.00043528    0.00081638    0.00002872
     atom   50 type  4   force =    -0.00044082   -0.00006022   -0.00050002
     atom   51 type  3   force =    -0.00115762   -0.01120812   -0.00997090
     atom   52 type  2   force =     0.00194367    0.01061354    0.00925241

     Total force =     0.372093     Total SCF correction =     0.000412
  @ DRIVER MODE: Message from server: STATUS
  @ DRIVER MODE: Message from server: GETFORCE
  @ DRIVER MODE: Returning v,forces,stress,ensemble

     Writing output data file ./calc.save/
  @ DRIVER MODE: Message from server: EXIT
  @ DRIVE MODE: Exiting

     General routines

     Parallel routines

   This run was terminated on:   0:44:28  28Sep2021

   JOB DONE.