     Program PWSCF v.6.7GPU starts on 23Sep2021 at 16:53:51

     R & G space division:  proc/nbgrp/npool/nimage =       8
     Reading input from /storage/home/hcoda1/3/ntian30/research/carbon/CxH_vib/H2O_calc/ads_slab/CH3N2HO_c/out_0046/pw.inp
Warning: card &CELL ignored
Warning: card   CELL_DYNAMICS='IPI', ignored
Warning: card / ignored

     Current dimensions of program PWSCF are:
     Max number of different atomic species (ntypx) = 10
     Max number of k-points (npk) =  40000
     Max angular momentum in pseudopotentials (lmaxx) =  3
     Presently no symmetry can be used with electric field

     Message from routine cell_base_init:
     DEPRECATED: use true lattice parameter, not A to a.u. conversion factor

     IMPORTANT: XC functional enforced from input :
     Exchange-correlation= BEEF-VDW
                           (   1   4  43  14   2   0   0)
     Any further DFT definition will be discarded
     Please, verify this is what you really want

  @ DRIVER MODE: Connecting to
 qe_1139763_2941007.sched-torque.pace.gatech.eduplkg_ajw_scratch
  using UNIX socket
  @ DRIVER MODE: Message from server: STATUS
  @ DRIVER MODE: Message from server: INIT
  @ DRIVER MODE: Receiving replica           0          -1
  @ DRIVER MODE: Receiving encoded integer          25
  @ DRIVER MODE:  SCF:  T  FORCE:  T  STRESS:  F  VC:  F  ENSEMBLE:  F
  @ DRIVER MODE:  SCF:  T  FORCE:  T  STRESS:  F  VC:  F  ENSEMBLE:  F

     Using Slab Decomposition

     bravais-lattice index     =            0
     lattice parameter (alat)  =       1.8897  a.u.
     unit-cell volume          =    6658.9804 (a.u.)^3
     number of atoms/cell      =           55
     number of atomic types    =            5
     number of electrons       =       402.00
     number of Kohn-Sham states=          211
     kinetic-energy cutoff     =      29.3995  Ry
     charge density cutoff     =     293.9946  Ry
     scf convergence threshold =      7.3E-08
     mixing beta               =       0.0500
     number of iterations used =            8  plain     mixing
     Exchange-correlation= BEEF-VDW
                           (   1   4  43  14   2   0   0)

     celldm(1)=   1.889726  celldm(2)=   0.000000  celldm(3)=   0.000000
     celldm(4)=   0.000000  celldm(5)=   0.000000  celldm(6)=   0.000000

     crystal axes: (cart. coord. in units of alat)
               a(1) = (   6.579727   0.000000   0.000000 )
               a(2) = (  -0.000775   5.961596   0.000000 )
               a(3) = (   0.000000   0.000000  25.155947 )

     reciprocal axes: (cart. coord. in units 2 pi/alat)
               b(1) = (  0.151982  0.000020  0.000000 )
               b(2) = (  0.000000  0.167740  0.000000 )
               b(3) = (  0.000000  0.000000  0.039752 )

     PseudoPot. # 1 for Ti read from file:
     /storage/coda1/p-amedford6/0/shared/rich_project_chbe-medford/medford-share/data/pseudos_module/espresso/nninc/pbe/van/Ti.UPF
     MD5 check sum: 8e4df49b7f0d34bbd5052bf3f5ea0213
     Pseudo is Ultrasoft, Zval = 12.0
     Generated by new atomic code, or converted to UPF format
     Using radial grid of  851 points,  6 beta functions with:
                l(1) =   0
                l(2) =   0
                l(3) =   1
                l(4) =   1
                l(5) =   2
                l(6) =   2
     Q(r) pseudized with  8 coefficients,  rinner =    1.000   1.000   1.000
                                                       1.000   1.000

     PseudoPot. # 2 for O  read from file:
     /storage/coda1/p-amedford6/0/shared/rich_project_chbe-medford/medford-share/data/pseudos_module/espresso/nninc/pbe/van/O.UPF
     MD5 check sum: 78c19812648e8988a0fe644b0f25305e
     Pseudo is Ultrasoft, Zval =  6.0
     Generated by new atomic code, or converted to UPF format
     Using radial grid of  737 points,  4 beta functions with:
                l(1) =   0
                l(2) =   0
                l(3) =   1
                l(4) =   1
     Q(r) pseudized with  8 coefficients,  rinner =    0.800   0.800   0.800

     PseudoPot. # 3 for N  read from file:
     /storage/coda1/p-amedford6/0/shared/rich_project_chbe-medford/medford-share/data/pseudos_module/espresso/nninc/pbe/van/N.UPF
     MD5 check sum: 90d10febe142ad51ac9d5be1deb811c4
     Pseudo is Ultrasoft, Zval =  5.0
     Generated by new atomic code, or converted to UPF format
     Using radial grid of  729 points,  4 beta functions with:
                l(1) =   0
                l(2) =   0
                l(3) =   1
                l(4) =   1
     Q(r) pseudized with  8 coefficients,  rinner =    0.800   0.800   0.800

     PseudoPot. # 4 for C  read from file:
     /storage/coda1/p-amedford6/0/shared/rich_project_chbe-medford/medford-share/data/pseudos_module/espresso/nninc/pbe/van/C.UPF
     MD5 check sum: 1a69bf6b8db32088f5b2163dbdb77a27
     Pseudo is Ultrasoft, Zval =  4.0
     Generated by new atomic code, or converted to UPF format
     Using radial grid of  721 points,  4 beta functions with:
                l(1) =   0
                l(2) =   0
                l(3) =   1
                l(4) =   1
     Q(r) pseudized with  8 coefficients,  rinner =    0.800   0.800   0.800

     PseudoPot. # 5 for H  read from file:
     /storage/coda1/p-amedford6/0/shared/rich_project_chbe-medford/medford-share/data/pseudos_module/espresso/nninc/pbe/van/H.UPF
     MD5 check sum: b5ee9d7bfd3a09ee7748110bda690ff7
     Pseudo is Ultrasoft, Zval =  1.0
     Generated by new atomic code, or converted to UPF format
     Using radial grid of  615 points,  1 beta functions with:
                l(1) =   0
     Q(r) pseudized with  8 coefficients,  rinner =    0.800

     atomic species   valence    mass     pseudopotential
        Ti1           12.00    47.86700     Ti( 1.00)
        O1             6.00    15.99900     O ( 1.00)
        N1             5.00    14.00700     N ( 1.00)
        C1             4.00    12.01100     C ( 1.00)
        H1             1.00     1.00800     H ( 1.00)

     No symmetry found

   Cartesian axes

     site n.     atom                  positions (alat units)
         1           Ti1 tau(   1) = (   0.0004258   2.9801865   6.0000000  )
         2           Ti1 tau(   2) = (   3.2906075   1.4906267   6.0002472  )
         3           O1  tau(   3) = (   0.0006271   0.0005054   7.9858123  )
         4           O1  tau(   4) = (   3.2906025   0.0005020   7.3038282  )
         5           O1  tau(   5) = (   4.5942328   1.4918067   9.2879030  )
         6           O1  tau(   6) = (   1.9868534   1.4903216   9.2879459  )
         7           Ti1 tau(   7) = (   3.2907910   2.8959150   9.1758416  )
         8           Ti1 tau(   8) = (   0.0015273   1.4827037   9.2680791  )
         9           O1  tau(   9) = (   3.2989311   0.0219330  11.3020621  )
        10           O1  tau(  10) = (   0.0116148   5.9584955  10.6183126  )
        11           O1  tau(  11) = (   1.3029919   1.4976758  12.6257209  )
        12           O1  tau(  12) = (   5.3026591   1.4951023  12.6306759  )
        13           Ti1 tau(  13) = (   0.0286689   2.8598525  12.6759356  )
        14           Ti1 tau(  14) = (   3.3054201   1.5706400  12.4108957  )
        15           O1  tau(  15) = (   0.0066217   5.9386728  14.6456674  )
        16           O1  tau(  16) = (   3.2936494   5.9217248  13.9190535  )
        17           O1  tau(  17) = (   4.5783085   1.5227378  16.0725395  )
        18           O1  tau(  18) = (   2.0661487   1.5008106  16.0935948  )
        19           Ti1 tau(  19) = (   3.3004316   2.9577776  15.6622982  )
        20           Ti1 tau(  20) = (   6.5114840   1.4532315  15.8500040  )
        21           O1  tau(  21) = (   3.2904802   0.0005063   4.7018136  )
        22           O1  tau(  22) = (   0.0101108   5.9483577  17.1703567  )
        23           O1  tau(  23) = (   1.3043587   1.4918075   6.0039043  )
        24           O1  tau(  24) = (   5.2767064   1.4903225   6.0039473  )
        25           Ti1 tau(  25) = (   0.0000382   5.9609847   6.0000000  )
        26           Ti1 tau(  26) = (   3.2902200   4.4714249   6.0002472  )
        27           O1  tau(  27) = (   0.0002396   2.9813036   7.9858123  )
        28           O1  tau(  28) = (   3.2902150   2.9813002   7.3038282  )
        29           O1  tau(  29) = (   4.5938453   4.4726049   9.2879030  )
        30           O1  tau(  30) = (   1.9864658   4.4711199   9.2879459  )
        31           Ti1 tau(  31) = (   3.2891106   5.8743827   9.1763621  )
        32           Ti1 tau(  32) = (   0.0006254   4.4649316   9.2693709  )
        33           O1  tau(  33) = (   3.2985377   2.9527140  11.2683515  )
        34           O1  tau(  34) = (   0.0092240   2.9805883  10.6323155  )
        35           O1  tau(  35) = (   1.2869011   4.4751273  12.6337776  )
        36           O1  tau(  36) = (   5.3033013   4.4751711  12.6363117  )
        37           Ti1 tau(  37) = (   6.5677423   5.8343599  12.5653580  )
        38           Ti1 tau(  38) = (   3.2861748   4.6640272  12.6826305  )
        39           O1  tau(  39) = (   0.0268303   2.9326313  14.6927244  )
        40           O1  tau(  40) = (   3.2973518   2.9805258  13.8830516  )
        41           O1  tau(  41) = (   4.5656241   4.3944478  16.1024780  )
        42           O1  tau(  42) = (   2.0389263   4.3990843  16.1000718  )
        43           Ti1 tau(  43) = (   3.2183859   5.9292641  16.3327267  )
        44           Ti1 tau(  44) = (   6.5399727   4.6159235  16.0325440  )
        45           O1  tau(  45) = (   3.2900926   2.9813045   4.7018136  )
        46           O1  tau(  46) = (   1.3039711   4.4726057   6.0039043  )
        47           O1  tau(  47) = (   5.2763189   4.4711207   6.0039473  )
        48           N1  tau(  48) = (   0.1383159   2.7169024  18.7005470  )
        49           N1  tau(  49) = (   0.0454196   2.8879789  17.5111406  )
        50           C1  tau(  50) = (   0.1807782   3.8735959  19.6428767  )
        51           H1  tau(  51) = (   6.4938760   4.8136915  19.1652781  )
        52           H1  tau(  52) = (   6.0945921   3.6282151  20.4682347  )
        53           H1  tau(  53) = (   1.2016282   3.9139503  20.0277151  )
        54           O1  tau(  54) = (   3.2907091   5.9158944  18.1602194  )
        55           H1  tau(  55) = (   3.1351319   0.7510148  18.7017648  )

     number of k points=    10  Fermi-Dirac smearing, width (Ry)=  0.0073
                       cart. coord. in units 2pi/alat
        k(    1) = (   0.0000000   0.0000000   0.0000000), wk =   0.1250000
        k(    2) = (   0.0000000   0.0419351   0.0000000), wk =   0.2500000
        k(    3) = (   0.0000000  -0.0838702   0.0000000), wk =   0.1250000
        k(    4) = (   0.0379955   0.0000049   0.0000000), wk =   0.2500000
        k(    5) = (   0.0379955   0.0419400   0.0000000), wk =   0.2500000
        k(    6) = (   0.0379955  -0.0838652   0.0000000), wk =   0.2500000
        k(    7) = (   0.0379955  -0.0419301   0.0000000), wk =   0.2500000
        k(    8) = (  -0.0759910  -0.0000099   0.0000000), wk =   0.1250000
        k(    9) = (  -0.0759910   0.0419252   0.0000000), wk =   0.2500000
        k(   10) = (  -0.0759910  -0.0838800   0.0000000), wk =   0.1250000

     Initial potential from superposition of free atoms

     starting charge  385.99915, renormalised to  402.00000

     negative rho (up, down):  1.430E-02 0.000E+00

     %%%%%%%%%%%%%%%%%%%%%%%%%%%%%%%%%%%%%%%%%%%%%%%%%%%%%%%%%%%%%%%%%%%%%%%%
     %                                                                      %
     % You are using vdW-DF, which was implemented by the Thonhauser group. %
     % Please cite the following two papers that made this development      %
     % possible and the two reviews that describe the various versions:     %
     %                                                                      %
     %   T. Thonhauser et al., PRL 115, 136402 (2015).                      %
     %   T. Thonhauser et al., PRB 76, 125112 (2007).                       %
     %   K. Berland et al., Rep. Prog. Phys. 78, 066501 (2015).             %
     %   D.C. Langreth et al., J. Phys.: Condens. Matter 21, 084203 (2009). %
     %                                                                      %
     %                                                                      %
     % If you are calculating the stress with vdW-DF, please also cite:     %
     %                                                                      %
     %   R. Sabatini et al., J. Phys.: Condens. Matter 24, 424209 (2012).   %
     %                                                                      %
     %%%%%%%%%%%%%%%%%%%%%%%%%%%%%%%%%%%%%%%%%%%%%%%%%%%%%%%%%%%%%%%%%%%%%%%%

     Adding external electric field

     Computed dipole along edir(3) :
        Dipole              -12.0462 Ry au,        -30.6184 Debye
        Dipole field         -0.0227 Ry au,

        Potential amp.        2.1073 Ry
        Total length         46.3494 bohr

     Starting wfcs are  304 atomic wfcs
  @ DRIVER MODE: Message from server: STATUS
  @ DRIVER MODE: Message from server: POSDATA
  @ DRIVER MODE: Reading and sharing cell
  @ DRIVER MODE: Reading and sharing positions
  @ DRIVER MODE: Received positions

     Self-consistent Calculation

     iteration #  1     ecut=    29.40 Ry     beta= 0.05
     Davidson diagonalization with overlap
     c_bands:  5 eigenvalues not converged
     c_bands:  3 eigenvalues not converged
     c_bands:  5 eigenvalues not converged
     c_bands:  3 eigenvalues not converged
     c_bands:  3 eigenvalues not converged
     c_bands:  2 eigenvalues not converged
     c_bands:  5 eigenvalues not converged
     c_bands:  5 eigenvalues not converged
     ethr =  1.00E-05,  avg # of iterations = 21.5

[...]

     total energy              =   -2397.71314591 Ry
     estimated scf accuracy    <    6480.75454237 Ry

     iteration #  2     ecut=    29.40 Ry     beta= 0.05
     Davidson diagonalization with overlap
     ethr =  1.00E-02,  avg # of iterations = 23.3

[...]

     iteration # 61     ecut=    29.40 Ry     beta= 0.05
     Davidson diagonalization with overlap
     c_bands:  2 eigenvalues not converged
     c_bands:  1 eigenvalues not converged
     ethr =  2.25E-06,  avg # of iterations =  5.0

[...]

     total energy              =   -2972.75294250 Ry
     estimated scf accuracy    <       0.00000009 Ry

     iteration # 87     ecut=    29.40 Ry     beta= 0.05
     Davidson diagonalization with overlap
     ethr =  2.30E-11,  avg # of iterations =  5.2

     negative rho (up, down):  1.493E-02 0.000E+00

     Adding external electric field

     Computed dipole along edir(3) :
        Dipole                0.6523 Ry au,          1.6581 Debye
        Dipole field          0.0012 Ry au,

        Potential amp.       -0.1141 Ry
        Total length         46.3494 bohr

     End of self-consistent calculation

          k = 0.0000 0.0000 0.0000 ( 18029 PWs)   bands (ev):

   -56.2021 -56.1683 -55.7877 -55.7542 -55.5807 -55.5474 -55.4975 -55.3484
   -55.3143 -55.3127 -55.1686 -55.1549 -55.0280 -55.0047 -54.9732 -54.9392
   -32.6524 -32.4944 -32.4675 -32.3606 -32.2766 -32.2680 -32.2673 -32.0315
   -32.0065 -31.9869 -31.9349 -31.9296 -31.9247 -31.8948 -31.8460 -31.8178
   -31.7901 -31.7698 -31.7681 -31.7256 -31.7104 -31.6977 -31.6848 -31.6554
   -31.6377 -31.6246 -31.5542 -31.5329 -31.5244 -31.5208 -31.4987 -31.4650
   -31.4349 -31.4021 -31.3698 -31.3633 -31.3579 -31.3064 -31.2848 -31.2828
   -31.2572 -31.2405 -31.2400 -31.2367 -31.2158 -31.1885 -31.1039 -30.9920
   -18.8074 -16.4954 -16.3947 -16.1605 -15.9530 -15.7790 -15.6943 -15.6828
   -15.6334 -15.5124 -15.5005 -15.3886 -15.3010 -15.2255 -15.1981 -15.1952
   -15.1014 -15.0573 -15.0144 -14.9898 -14.9780 -14.9704 -14.9388 -14.8313
   -14.8235 -14.7951 -14.6969 -14.6856 -14.5819 -14.2859 -14.2697 -13.4711
   -13.3589 -11.4398  -6.8922  -4.3523  -4.1315  -4.0050  -3.9795  -3.9349
    -3.7088  -3.4963  -3.4108  -3.2483  -3.1945  -3.1152  -2.9178  -2.9081
    -2.8536  -2.7828  -2.7075  -2.6487  -2.6021  -2.5855  -2.4904  -2.4523
    -2.4316  -2.4287  -2.3950  -2.3794  -2.2548  -2.2525  -2.2213  -2.1715
    -2.1124  -2.0978  -2.0309  -2.0218  -2.0050  -1.9571  -1.9216  -1.8749
    -1.8029  -1.7880  -1.6539  -1.6290  -1.6219  -1.5414  -1.5157  -1.5071
    -1.4571  -1.2958  -1.2251  -1.1779  -1.1743  -1.0362  -1.0222  -0.9850
    -0.9042  -0.8689  -0.7800  -0.7686  -0.7587  -0.7500  -0.6669  -0.6310
    -0.6150  -0.5891  -0.4067  -0.3780  -0.3167  -0.2640  -0.1646  -0.1206
    -0.1139  -0.1053  -0.0659  -0.0096   0.0119   0.0267   0.1254   0.1501
     0.2051   0.2727   0.3080   0.3802   0.4002   0.4025   0.4141   0.4692
     0.5617   0.6533   0.6963   0.7117   0.7802   0.7943   0.9312   0.9447
     1.0510   1.0926   1.1013   1.1623   1.2820   1.5651   1.5993   1.6385
     2.7573   3.0244   3.1518   3.3088   3.4562   3.5528   3.8455   3.8930
     3.9290   3.9920   4.0100

[...]

          k = 0.0380-0.0419 0.0000 ( 17876 PWs)   bands (ev):

[...]

          k =-0.0760-0.0000 0.0000 ( 17886 PWs)   bands (ev):

[...]

          k =-0.0760-0.0839 0.0000 ( 17948 PWs)   bands (ev):

   -56.1852 -56.1850 -55.7716 -55.7701 -55.5800 -55.5408 -55.5041 -55.3357
   -55.3253 -55.3148 -55.1666 -55.1530 -55.0298 -55.0065 -54.9562 -54.9560
   -32.4800 -32.4798 -32.4685 -32.4683 -32.3128 -32.3122 -32.0920 -32.0883
   -31.9657 -31.9630 -31.9604 -31.9595 -31.8683 -31.8467 -31.8203 -31.8190
   -31.7805 -31.7628 -31.7623 -31.7289 -31.7207 -31.6910 -31.6695 -31.6579
   -31.6046 -31.5981 -31.5745 -31.5580 -31.5422 -31.5419 -31.5261 -31.5057
   -31.4271 -31.4067 -31.3727 -31.3691 -31.3559 -31.3010 -31.2957 -31.2956
   -31.2895 -31.2496 -31.2455 -31.2409 -31.1847 -31.1843 -31.1465 -31.1462
   -18.8046 -16.3842 -15.9042 -15.8950 -15.7686 -15.7636 -15.5892 -15.5754
   -15.5753 -15.4915 -15.4521 -15.4290 -15.2863 -15.2729 -15.2125 -15.1874
   -15.1704 -15.1474 -15.1380 -15.1051 -15.0948 -15.0424 -14.9856 -14.9785
   -14.9196 -14.9120 -14.7545 -14.6923 -14.6465 -14.4990 -14.4046 -13.4621
   -13.4616 -11.4376  -6.9060  -4.2927  -4.1552  -3.9638  -3.9305  -3.0693
    -3.0208  -2.9182  -2.8811  -2.8000  -2.7876  -2.6768  -2.6601  -2.6138
    -2.5975  -2.5890  -2.5438  -2.4975  -2.4876  -2.4652  -2.4389  -2.4234
    -2.4115  -2.3733  -2.3239  -2.3075  -2.3021  -2.2768  -2.1745  -2.1444
    -2.1326  -2.1242  -2.0967  -2.0726  -2.0296  -1.9586  -1.9256  -1.8874
    -1.8755  -1.8051  -1.7431  -1.6947  -1.6792  -1.6115  -1.5544  -1.5296
    -1.4518  -1.4051  -1.2913  -1.2786  -1.2605  -1.1978  -1.1749  -1.1200
    -1.1007  -1.0390  -0.9897  -0.9665  -0.9620  -0.9481  -0.8805  -0.8194
    -0.7102  -0.6630  -0.6474  -0.6134  -0.6083  -0.5799  -0.5454  -0.5083
    -0.4084  -0.3944  -0.3824  -0.3306  -0.3210  -0.2462  -0.1711  -0.0562
     0.0649   0.1421   0.1521   0.1720   0.2116   0.2941   0.3718   0.4125
     0.4582   0.5179   0.5604   0.6015   0.6656   0.8077   0.8591   0.8811
     0.9658   1.0028   1.0737   1.1608   1.4393   1.4501   1.4545   1.4554
     2.8092   3.5734   3.5760   3.6053   3.6163   3.7307   3.8113   3.8289
     3.9537   4.0114   4.0691

     the Fermi energy is     2.9606 ev

!    total energy              =   -2972.75294689 Ry
     estimated scf accuracy    <       0.00000005 Ry
     smearing contrib. (-TS)   =      -0.01283682 Ry
     internal energy E=F+TS    =   -2972.74011007 Ry

     The total energy is F=E-TS. E is the sum of the following terms:
     one-electron contribution =  -23538.50106878 Ry
     hartree contribution      =   11862.86662635 Ry
     xc contribution           =    -493.06299426 Ry
     ewald contribution        =    9195.95652355 Ry
     electric field correction =       0.00080308 Ry

     convergence has been achieved in  87 iterations

     Forces acting on atoms (cartesian axes, Ry/au):

     atom    1 type  1   force =     0.00008161   -0.00036125    0.10679154
     atom    2 type  1   force =    -0.00012862    0.00016659   -0.16546461
     atom    3 type  2   force =     0.00006791   -0.00044841   -0.03890711
     atom    4 type  2   force =     0.00000197    0.00016132    0.03536645
     atom    5 type  2   force =    -0.00262386   -0.00318007   -0.00913639
     atom    6 type  2   force =     0.00444463   -0.00251491   -0.00942156
     atom    7 type  1   force =    -0.00000974    0.00132640    0.03450369
     atom    8 type  1   force =     0.00023752    0.01556137    0.06082648
     atom    9 type  2   force =    -0.00018052   -0.00045233    0.00004248
     atom   10 type  2   force =    -0.00255754    0.00088003   -0.04255314
     atom   11 type  2   force =    -0.00100325    0.00035933    0.00039292
     atom   12 type  2   force =     0.00049677    0.00025626    0.00028941
     atom   13 type  1   force =     0.00045283    0.00067614   -0.00043214
     atom   14 type  1   force =     0.00026320   -0.00017804    0.00040932
     atom   15 type  2   force =     0.00022609    0.00064109    0.00008938
     atom   16 type  2   force =    -0.00009190   -0.00040065   -0.00083399
     atom   17 type  2   force =    -0.00013978    0.00025016    0.00008396
     atom   18 type  2   force =     0.00014674    0.00007114   -0.00017780
     atom   19 type  1   force =     0.00018563   -0.00097858    0.00004625
     atom   20 type  1   force =     0.00018804    0.00019557   -0.00038516
     atom   21 type  2   force =     0.00003191    0.00013294    0.10041738
     atom   22 type  2   force =     0.00014639    0.00068837    0.00000154
     atom   23 type  2   force =    -0.07679905   -0.00000481   -0.03008842
     atom   24 type  2   force =     0.07666819    0.00046571   -0.03013472
     atom   25 type  1   force =    -0.00008622   -0.00045464    0.10717978
     atom   26 type  1   force =    -0.00020922   -0.00131087   -0.16551398
     atom   27 type  2   force =     0.00010026   -0.00031803   -0.03720054
     atom   28 type  2   force =     0.00004543   -0.00000239    0.03053493
     atom   29 type  2   force =    -0.00566066    0.00365715   -0.00700647
     atom   30 type  2   force =     0.00729589    0.00400517   -0.00727833
     atom   31 type  1   force =    -0.00011067   -0.00228939    0.02269871
     atom   32 type  1   force =     0.00033049   -0.01776666    0.06129577
     atom   33 type  2   force =    -0.00017120    0.00020539   -0.00018391
     atom   34 type  2   force =    -0.00143584    0.00001397   -0.05427253
     atom   35 type  2   force =    -0.00002917   -0.00017421   -0.00020349
     atom   36 type  2   force =    -0.00029192    0.00005409   -0.00005161
     atom   37 type  1   force =     0.00012895   -0.00006868    0.00055144
     atom   38 type  1   force =     0.00033974    0.00004037    0.00012880
     atom   39 type  2   force =    -0.00012238    0.00029166   -0.00034099
     atom   40 type  2   force =     0.00001056    0.00030447    0.00048072
     atom   41 type  2   force =    -0.00025006    0.00019764   -0.00006738
     atom   42 type  2   force =     0.00022604   -0.00004098    0.00002063
     atom   43 type  1   force =     0.00019227    0.00053303    0.00017669
     atom   44 type  1   force =     0.00033187    0.00016702   -0.00040283
     atom   45 type  2   force =     0.00003427    0.00013588    0.10024636
     atom   46 type  2   force =    -0.07677466    0.00003496   -0.03007730
     atom   47 type  2   force =     0.07663396    0.00047172   -0.03009583
     atom   48 type  3   force =     0.00034702    0.00073476   -0.00117800
     atom   49 type  3   force =     0.00032122   -0.00044246   -0.00040152
     atom   50 type  4   force =     0.00010684   -0.00002288   -0.00019255
     atom   51 type  5   force =    -0.00018998   -0.00054365   -0.00060721
     atom   52 type  5   force =    -0.00019950   -0.00043124   -0.00018267
     atom   53 type  5   force =     0.00019610    0.00010109   -0.00048612
     atom   54 type  2   force =    -0.00226812    0.01240449    0.01047774
     atom   55 type  5   force =     0.00105355   -0.01280016   -0.00977406

     Total force =     0.381466     Total SCF correction =     0.000537
  @ DRIVER MODE: Message from server: STATUS
  @ DRIVER MODE: Message from server: GETFORCE
  @ DRIVER MODE: Returning v,forces,stress,ensemble

     Writing output data file ./calc.save/
  @ DRIVER MODE: Message from server: EXIT
  @ DRIVE MODE: Exiting

     General routines

     Parallel routines

   This run was terminated on:  17:22: 9  23Sep2021

   JOB DONE.