     Program PWSCF v.6.7GPU starts on 24Aug2021 at 23: 2: 9

     R & G space division:  proc/nbgrp/npool/nimage =       6
     Reading input from /storage/home/hcoda1/3/ntian30/research/carbon/CH3_vib_end_on/ads_slab/CH3N_a/out_0016/pw.inp
Warning: card &CELL ignored
Warning: card   CELL_DYNAMICS='IPI', ignored
Warning: card / ignored

     Current dimensions of program PWSCF are:
     Max number of different atomic species (ntypx) = 10
     Max number of k-points (npk) =  40000
     Max angular momentum in pseudopotentials (lmaxx) =  3
     Presently no symmetry can be used with electric field

     Message from routine cell_base_init:
     DEPRECATED: use true lattice parameter, not A to a.u. conversion factor

     IMPORTANT: XC functional enforced from input :
     Exchange-correlation= BEEF-VDW
                           (   1   4  43  14   2   0   0)
     Any further DFT definition will be discarded
     Please, verify this is what you really want

  @ DRIVER MODE: Connecting to
 qe_1139763_2643872.sched-torque.pace.gatech.edu7uopyghq_scratch
  using UNIX socket
  @ DRIVER MODE: Message from server: STATUS
  @ DRIVER MODE: Message from server: INIT
  @ DRIVER MODE: Receiving replica           0          -1
  @ DRIVER MODE: Receiving encoded integer          25
  @ DRIVER MODE:  SCF:  T  FORCE:  T  STRESS:  F  VC:  F  ENSEMBLE:  F
  @ DRIVER MODE:  SCF:  T  FORCE:  T  STRESS:  F  VC:  F  ENSEMBLE:  F

     Using Slab Decomposition

     bravais-lattice index     =            0
     lattice parameter (alat)  =       1.8897  a.u.
     unit-cell volume          =    6658.9804 (a.u.)^3
     number of atoms/cell      =           52
     number of atomic types    =            5
     number of electrons       =       390.00
     number of Kohn-Sham states=          205
     kinetic-energy cutoff     =      29.3995  Ry
     charge density cutoff     =     293.9946  Ry
     scf convergence threshold =      7.3E-08
     mixing beta               =       0.0500
     number of iterations used =            8  plain     mixing
     Exchange-correlation= BEEF-VDW
                           (   1   4  43  14   2   0   0)

     celldm(1)=   1.889726  celldm(2)=   0.000000  celldm(3)=   0.000000
     celldm(4)=   0.000000  celldm(5)=   0.000000  celldm(6)=   0.000000

     crystal axes: (cart. coord. in units of alat)
               a(1) = (   6.579727   0.000000   0.000000 )
               a(2) = (  -0.000775   5.961596   0.000000 )
               a(3) = (   0.000000   0.000000  25.155947 )

     reciprocal axes: (cart. coord. in units 2 pi/alat)
               b(1) = (  0.151982  0.000020  0.000000 )
               b(2) = (  0.000000  0.167740  0.000000 )
               b(3) = (  0.000000  0.000000  0.039752 )

     PseudoPot. # 1 for Ti read from file:
     /storage/coda1/p-amedford6/0/shared/rich_project_chbe-medford/medford-share/data/pseudos_module/espresso/nninc/pbe/van/Ti.UPF
     MD5 check sum: 8e4df49b7f0d34bbd5052bf3f5ea0213
     Pseudo is Ultrasoft, Zval = 12.0
     Generated by new atomic code, or converted to UPF format
     Using radial grid of  851 points,  6 beta functions with:
                l(1) =   0
                l(2) =   0
                l(3) =   1
                l(4) =   1
                l(5) =   2
                l(6) =   2
     Q(r) pseudized with  8 coefficients,  rinner =    1.000   1.000   1.000
                                                       1.000   1.000

     PseudoPot. # 2 for O  read from file:
     /storage/coda1/p-amedford6/0/shared/rich_project_chbe-medford/medford-share/data/pseudos_module/espresso/nninc/pbe/van/O.UPF
     MD5 check sum: 78c19812648e8988a0fe644b0f25305e
     Pseudo is Ultrasoft, Zval =  6.0
     Generated by new atomic code, or converted to UPF format
     Using radial grid of  737 points,  4 beta functions with:
                l(1) =   0
                l(2) =   0
                l(3) =   1
                l(4) =   1
     Q(r) pseudized with  8 coefficients,  rinner =    0.800   0.800   0.800

     PseudoPot. # 3 for N  read from file:
     /storage/coda1/p-amedford6/0/shared/rich_project_chbe-medford/medford-share/data/pseudos_module/espresso/nninc/pbe/van/N.UPF
     MD5 check sum: 90d10febe142ad51ac9d5be1deb811c4
     Pseudo is Ultrasoft, Zval =  5.0
     Generated by new atomic code, or converted to UPF format
     Using radial grid of  729 points,  4 beta functions with:
                l(1) =   0
                l(2) =   0
                l(3) =   1
                l(4) =   1
     Q(r) pseudized with  8 coefficients,  rinner =    0.800   0.800   0.800

     PseudoPot. # 4 for C  read from file:
     /storage/coda1/p-amedford6/0/shared/rich_project_chbe-medford/medford-share/data/pseudos_module/espresso/nninc/pbe/van/C.UPF
     MD5 check sum: 1a69bf6b8db32088f5b2163dbdb77a27
     Pseudo is Ultrasoft, Zval =  4.0
     Generated by new atomic code, or converted to UPF format
     Using radial grid of  721 points,  4 beta functions with:
                l(1) =   0
                l(2) =   0
                l(3) =   1
                l(4) =   1
     Q(r) pseudized with  8 coefficients,  rinner =    0.800   0.800   0.800

     PseudoPot. # 5 for H  read from file:
     /storage/coda1/p-amedford6/0/shared/rich_project_chbe-medford/medford-share/data/pseudos_module/espresso/nninc/pbe/van/H.UPF
     MD5 check sum: b5ee9d7bfd3a09ee7748110bda690ff7
     Pseudo is Ultrasoft, Zval =  1.0
     Generated by new atomic code, or converted to UPF format
     Using radial grid of  615 points,  1 beta functions with:
                l(1) =   0
     Q(r) pseudized with  8 coefficients,  rinner =    0.800

     atomic species   valence    mass     pseudopotential
        Ti1           12.00    47.86700     Ti( 1.00)
        O1             6.00    15.99900     O ( 1.00)
        N1             5.00    14.00700     N ( 1.00)
        C1             4.00    12.01100     C ( 1.00)
        H1             1.00     1.00800     H ( 1.00)

     No symmetry found

   Cartesian axes

     site n.     atom                  positions (alat units)
         1           Ti1 tau(   1) = (   0.0004258   2.9801865   6.0000000  )
         2           Ti1 tau(   2) = (   3.2906075   1.4906267   6.0002472  )
         3           O1  tau(   3) = (   0.0006271   0.0005054   7.9858123  )
         4           O1  tau(   4) = (   3.2906025   0.0005020   7.3038282  )
         5           O1  tau(   5) = (   4.5942328   1.4918067   9.2879030  )
         6           O1  tau(   6) = (   1.9868534   1.4903216   9.2879459  )
         7           Ti1 tau(   7) = (   3.2907910   2.8959150   9.1758416  )
         8           Ti1 tau(   8) = (   0.0015273   1.4827037   9.2680791  )
         9           O1  tau(   9) = (   3.3018735   5.9614316  11.2970789  )
        10           O1  tau(  10) = (   0.0116148   5.9584955  10.6183126  )
        11           O1  tau(  11) = (   1.3353665   1.4968727  12.6140821  )
        12           O1  tau(  12) = (   5.3123320   1.5002621  12.6324210  )
        13           Ti1 tau(  13) = (   6.4913169   2.9877414  12.7576577  )
        14           Ti1 tau(  14) = (   3.1819880   1.4874128  12.4666476  )
        15           O1  tau(  15) = (   0.0325390   5.9514364  14.5942808  )
        16           O1  tau(  16) = (   3.3157460   0.0104736  13.8786857  )
        17           O1  tau(  17) = (   4.5538541   1.5308062  16.0536203  )
        18           O1  tau(  18) = (   2.1012647   1.5271178  16.0466835  )
        19           Ti1 tau(  19) = (   3.3239613   3.0121693  15.6870930  )
        20           Ti1 tau(  20) = (   0.0188375   1.6096557  16.0875739  )
        21           O1  tau(  21) = (   3.2904802   0.0005063   4.7018136  )
        22           O1  tau(  22) = (   0.0443345   0.0604659  17.2041813  )
        23           O1  tau(  23) = (   1.3043587   1.4918075   6.0039043  )
        24           O1  tau(  24) = (   5.2767064   1.4903225   6.0039473  )
        25           Ti1 tau(  25) = (   0.0000382   5.9609847   6.0000000  )
        26           Ti1 tau(  26) = (   3.2902200   4.4714249   6.0002472  )
        27           O1  tau(  27) = (   0.0002396   2.9813036   7.9858123  )
        28           O1  tau(  28) = (   3.2902150   2.9813002   7.3038282  )
        29           O1  tau(  29) = (   4.5938453   4.4726049   9.2879030  )
        30           O1  tau(  30) = (   1.9864658   4.4711199   9.2879459  )
        31           Ti1 tau(  31) = (   3.2891106   5.8743827   9.1763621  )
        32           Ti1 tau(  32) = (   0.0006254   4.4649316   9.2693709  )
        33           O1  tau(  33) = (   3.3028429   2.9834257  11.2952420  )
        34           O1  tau(  34) = (   0.0092240   2.9805883  10.6323155  )
        35           O1  tau(  35) = (   1.3370139   4.4664586  12.6123119  )
        36           O1  tau(  36) = (   5.3107101   4.4655690  12.6333123  )
        37           Ti1 tau(  37) = (   6.5188704   0.0058144  12.7695920  )
        38           Ti1 tau(  38) = (   3.1805296   4.4670443  12.4671176  )
        39           O1  tau(  39) = (   0.0099197   2.9765079  14.6559069  )
        40           O1  tau(  40) = (   3.3143426   2.9928857  13.8797190  )
        41           O1  tau(  41) = (   4.5573730   4.5089470  16.0521860  )
        42           O1  tau(  42) = (   2.1018054   4.5121927  16.0508938  )
        43           Ti1 tau(  43) = (   3.3145791   0.0316975  15.6896801  )
        44           Ti1 tau(  44) = (   0.0207397   4.5876961  16.1385408  )
        45           O1  tau(  45) = (   3.2900926   2.9813045   4.7018136  )
        46           O1  tau(  46) = (   1.3039711   4.4726057   6.0039043  )
        47           O1  tau(  47) = (   5.2763189   4.4711207   6.0039473  )
        48           N1  tau(  48) = (   0.0936308   3.0233000  17.3257847  )
        49           C1  tau(  49) = (   0.4281149   3.0137428  18.7308649  )
        50           H1  tau(  50) = (   0.7292188   4.0133843  19.0862330  )
        51           H1  tau(  51) = (   6.1445545   2.6862439  19.3232575  )
        52           H1  tau(  52) = (   1.2401080   2.3040860  18.9332505  )

     number of k points=    10  Fermi-Dirac smearing, width (Ry)=  0.0073
                       cart. coord. in units 2pi/alat
        k(    1) = (   0.0000000   0.0000000   0.0000000), wk =   0.1250000
        k(    2) = (   0.0000000   0.0419351   0.0000000), wk =   0.2500000
        k(    3) = (   0.0000000  -0.0838702   0.0000000), wk =   0.1250000
        k(    4) = (   0.0379955   0.0000049   0.0000000), wk =   0.2500000
        k(    5) = (   0.0379955   0.0419400   0.0000000), wk =   0.2500000
        k(    6) = (   0.0379955  -0.0838652   0.0000000), wk =   0.2500000
        k(    7) = (   0.0379955  -0.0419301   0.0000000), wk =   0.2500000
        k(    8) = (  -0.0759910  -0.0000099   0.0000000), wk =   0.1250000
        k(    9) = (  -0.0759910   0.0419252   0.0000000), wk =   0.2500000
        k(   10) = (  -0.0759910  -0.0838800   0.0000000), wk =   0.1250000

     Initial potential from superposition of free atoms

     starting charge  373.99917, renormalised to  390.00000

     negative rho (up, down):  1.729E-02 0.000E+00

     %%%%%%%%%%%%%%%%%%%%%%%%%%%%%%%%%%%%%%%%%%%%%%%%%%%%%%%%%%%%%%%%%%%%%%%%
     %                                                                      %
     % You are using vdW-DF, which was implemented by the Thonhauser group. %
     % Please cite the following two papers that made this development      %
     % possible and the two reviews that describe the various versions:     %
     %                                                                      %
     %   T. Thonhauser et al., PRL 115, 136402 (2015).                      %
     %   T. Thonhauser et al., PRB 76, 125112 (2007).                       %
     %   K. Berland et al., Rep. Prog. Phys. 78, 066501 (2015).             %
     %   D.C. Langreth et al., J. Phys.: Condens. Matter 21, 084203 (2009). %
     %                                                                      %
     %                                                                      %
     % If you are calculating the stress with vdW-DF, please also cite:     %
     %                                                                      %
     %   R. Sabatini et al., J. Phys.: Condens. Matter 24, 424209 (2012).   %
     %                                                                      %
     %%%%%%%%%%%%%%%%%%%%%%%%%%%%%%%%%%%%%%%%%%%%%%%%%%%%%%%%%%%%%%%%%%%%%%%%

     Adding external electric field

     Computed dipole along edir(3) :
        Dipole               -4.6272 Ry au,        -11.7612 Debye
        Dipole field         -0.0087 Ry au,

        Potential amp.        0.8095 Ry
        Total length         46.3494 bohr

     Starting wfcs are  295 atomic wfcs
  @ DRIVER MODE: Message from server: STATUS
  @ DRIVER MODE: Message from server: POSDATA
  @ DRIVER MODE: Reading and sharing cell
  @ DRIVER MODE: Reading and sharing positions
  @ DRIVER MODE: Received positions

     Self-consistent Calculation

     iteration #  1     ecut=    29.40 Ry     beta= 0.05
     Davidson diagonalization with overlap
     c_bands:  4 eigenvalues not converged
     c_bands:  2 eigenvalues not converged
     c_bands:  2 eigenvalues not converged
     c_bands:  4 eigenvalues not converged
     c_bands:  4 eigenvalues not converged
     c_bands:  2 eigenvalues not converged
     c_bands:  2 eigenvalues not converged
     c_bands:  2 eigenvalues not converged
     ethr =  1.00E-05,  avg # of iterations = 19.7

[...]

     total energy              =   -2877.15049736 Ry
     estimated scf accuracy    <     484.07643057 Ry

     iteration #  2     ecut=    29.40 Ry     beta= 0.05
     Davidson diagonalization with overlap
     ethr =  1.00E-02,  avg # of iterations = 13.5

[...]

     iteration # 32     ecut=    29.40 Ry     beta= 0.05
     Davidson diagonalization with overlap
     c_bands:  2 eigenvalues not converged
     c_bands:  3 eigenvalues not converged
     c_bands:  1 eigenvalues not converged
     c_bands:  1 eigenvalues not converged
     ethr =  7.00E-07,  avg # of iterations = 14.6

[...]

     total energy              =   -2919.13175133 Ry
     estimated scf accuracy    <       0.00000045 Ry

     iteration # 57     ecut=    29.40 Ry     beta= 0.05
     Davidson diagonalization with overlap
     ethr =  3.97E-11,  avg # of iterations =  5.0

     negative rho (up, down):  1.786E-02 0.000E+00

     Adding external electric field

     Computed dipole along edir(3) :
        Dipole                0.2575 Ry au,          0.6546 Debye
        Dipole field          0.0005 Ry au,

        Potential amp.       -0.0451 Ry
        Total length         46.3494 bohr

     End of self-consistent calculation

          k = 0.0000 0.0000 0.0000 ( 18029 PWs)   bands (ev):

   -56.8886 -56.8550 -56.0106 -55.9989 -55.9757 -55.9661 -55.8636 -55.8249
   -55.6472 -55.6119 -55.5529 -55.5498 -55.5190 -55.4404 -54.9690 -54.9219
   -33.3165 -33.1634 -33.1352 -33.0646 -32.9735 -32.9425 -32.4816 -32.4752
   -32.4043 -32.2949 -32.2484 -32.2244 -32.2061 -32.1847 -32.1511 -32.1468
   -32.1427 -32.1398 -32.1142 -32.1115 -32.1002 -32.0707 -32.0444 -32.0307
   -32.0176 -31.9978 -31.9907 -31.9673 -31.9452 -31.8914 -31.8785 -31.8673
   -31.7912 -31.7859 -31.7639 -31.7248 -31.7137 -31.6804 -31.6697 -31.6448
   -31.6261 -31.5695 -31.4990 -31.2198 -31.1941 -31.1732 -31.1428 -31.0278
   -17.0528 -16.6175 -16.3870 -16.2511 -16.1839 -16.1292 -16.0854 -15.9611
   -15.8882 -15.8835 -15.8430 -15.8108 -15.7401 -15.6019 -15.5033 -15.4459
   -15.4022 -15.2832 -15.2246 -15.1908 -15.1848 -15.1462 -15.1309 -14.9341
   -14.9077 -14.8197 -14.7997 -14.6730 -14.4410 -14.0513 -13.9412 -13.0793
    -7.7925  -4.6183  -4.1139  -3.8726  -3.7898  -3.6815  -3.6688  -3.5878
    -3.4694  -3.4225  -3.3761  -3.2600  -3.2564  -3.1102  -3.0901  -3.0642
    -3.0616  -3.0222  -2.9620  -2.9427  -2.9068  -2.8939  -2.8864  -2.7338
    -2.6336  -2.5659  -2.5397  -2.5266  -2.4963  -2.4237  -2.3942  -2.3852
    -2.3814  -2.2758  -2.1309  -2.1289  -2.0974  -2.0554  -2.0530  -2.0132
    -2.0017  -1.8775  -1.7863  -1.6774  -1.6677  -1.6297  -1.5688  -1.5621
    -1.4651  -1.3899  -1.3195  -1.3020  -1.1925  -1.1484  -1.1253  -1.0354
    -0.9740  -0.9367  -0.9135  -0.8973  -0.7938  -0.7780  -0.7705  -0.6771
    -0.6650  -0.6216  -0.5283  -0.5052  -0.4997  -0.4176  -0.4106  -0.3045
    -0.2772  -0.2324  -0.1997  -0.0947  -0.0742   0.0242   0.0609   0.0804
     0.2011   0.2184   0.2793   0.3513   0.4166   0.4333   0.4689   0.4994
     0.5157   0.5937   0.7059   0.7132   0.8169   0.8499   1.0214   1.0603
     1.3464   1.3545   2.0450   2.3860   2.5456   2.8440   3.0331   3.1464
     3.3609   3.3764   3.3819   3.5535   3.6055

[...]

          k = 0.0380-0.0419 0.0000 ( 17876 PWs)   bands (ev):

[...]

          k =-0.0760-0.0000 0.0000 ( 17886 PWs)   bands (ev):

[...]

          k =-0.0760-0.0839 0.0000 ( 17948 PWs)   bands (ev):

   -56.8719 -56.8716 -55.9955 -55.9897 -55.9833 -55.9827 -55.8521 -55.8363
   -55.6324 -55.6265 -55.5469 -55.5359 -55.5358 -55.4432 -54.9611 -54.9298
   -33.1492 -33.1489 -33.1334 -33.1332 -33.0177 -33.0174 -32.3115 -32.3091
   -32.2997 -32.2932 -32.2401 -32.2368 -32.1982 -32.1942 -32.1931 -32.1889
   -32.1850 -32.1821 -32.1800 -32.1783 -32.1025 -32.0899 -32.0513 -32.0390
   -31.9828 -31.9744 -31.9146 -31.9088 -31.8803 -31.8802 -31.8749 -31.8310
   -31.8293 -31.7998 -31.7630 -31.7614 -31.7613 -31.7224 -31.7223 -31.7205
   -31.6860 -31.6465 -31.3638 -31.2862 -31.1908 -31.1637 -31.1514 -31.1100
   -16.4015 -16.3994 -16.3667 -16.3664 -16.0975 -16.0940 -16.0477 -16.0443
   -15.8728 -15.8656 -15.6609 -15.6520 -15.6448 -15.6420 -15.5143 -15.5086
   -15.4453 -15.4311 -15.3430 -15.3405 -15.2777 -15.2717 -15.2331 -15.2132
   -14.9033 -14.8857 -14.7737 -14.7483 -14.5845 -14.0447 -14.0447 -13.0958
    -7.7831  -3.4999  -3.4992  -3.4357  -3.4347  -3.3102  -3.3043  -3.2312
    -3.2304  -3.1288  -3.1251  -3.0642  -2.9967  -2.9860  -2.9828  -2.9717
    -2.9574  -2.8314  -2.8288  -2.8177  -2.8017  -2.7456  -2.7434  -2.7300
    -2.6537  -2.6393  -2.6053  -2.5670  -2.4582  -2.4447  -2.4315  -2.3999
    -2.3440  -2.3300  -2.3172  -2.2756  -2.2510  -2.1642  -2.1075  -2.0558
    -1.9402  -1.9371  -1.9286  -1.9131  -1.7618  -1.7201  -1.6924  -1.6853
    -1.6772  -1.6335  -1.5352  -1.5285  -1.3939  -1.3933  -1.3134  -1.2344
    -1.2168  -1.1869  -1.0568  -1.0164  -0.9799  -0.9717  -0.9442  -0.9247
    -0.9009  -0.8636  -0.7223  -0.7089  -0.6722  -0.6371  -0.6321  -0.5764
    -0.5186  -0.4389  -0.3623  -0.3613  -0.3063  -0.2338  -0.1742  -0.0922
    -0.0790  -0.0744   0.2056   0.2851   0.3776   0.4539   0.5223   0.5758
     0.6109   0.6755   0.7140   0.8472   0.8518   0.8696   0.8699   0.9320
     0.9335   1.3371   1.9344   2.9590   2.9593   3.0262   3.0266   3.3501
     3.3560   3.4642   3.4737   3.5848   3.5871

     the Fermi energy is     2.2249 ev

!    total energy              =   -2919.13180191 Ry
     estimated scf accuracy    <       0.00000003 Ry
     smearing contrib. (-TS)   =      -0.00481488 Ry
     internal energy E=F+TS    =   -2919.12698702 Ry

     The total energy is F=E-TS. E is the sum of the following terms:
     one-electron contribution =  -24569.30867986 Ry
     hartree contribution      =   12368.87252842 Ry
     xc contribution           =    -479.89417291 Ry
     ewald contribution        =    9761.20321215 Ry
     electric field correction =       0.00012518 Ry

     convergence has been achieved in  57 iterations

     Forces acting on atoms (cartesian axes, Ry/au):

     atom    1 type  1   force =     0.00005997   -0.00050976    0.12427714
     atom    2 type  1   force =    -0.00008886   -0.00054997   -0.16065205
     atom    3 type  2   force =     0.00022129   -0.00024137   -0.06809216
     atom    4 type  2   force =    -0.00000223   -0.00032253    0.02758524
     atom    5 type  2   force =    -0.01621069    0.00174610   -0.00936943
     atom    6 type  2   force =     0.01826485    0.00228416   -0.00892262
     atom    7 type  1   force =     0.00112251   -0.00381929    0.02203623
     atom    8 type  1   force =    -0.00061691   -0.00325276    0.11124089
     atom    9 type  2   force =    -0.00010713    0.00138850   -0.00035494
     atom   10 type  2   force =    -0.00190880    0.00178520   -0.07347903
     atom   11 type  2   force =     0.00081151    0.00006120    0.00005514
     atom   12 type  2   force =    -0.00064976    0.00020152    0.00015634
     atom   13 type  1   force =     0.00005246    0.00022425   -0.00040158
     atom   14 type  1   force =    -0.00101602   -0.00024559   -0.00047114
     atom   15 type  2   force =    -0.00000318   -0.00029914    0.00011155
     atom   16 type  2   force =    -0.00006131    0.00106767    0.00074897
     atom   17 type  2   force =     0.00009797    0.00013716   -0.00047669
     atom   18 type  2   force =     0.00004399    0.00020229   -0.00007743
     atom   19 type  1   force =     0.00013330    0.00003672   -0.00070847
     atom   20 type  1   force =     0.00033453   -0.00100387    0.00009587
     atom   21 type  2   force =     0.00003964   -0.00006729    0.09976136
     atom   22 type  2   force =     0.00016236   -0.00050811   -0.00009916
     atom   23 type  2   force =    -0.07920550   -0.00005306   -0.03244891
     atom   24 type  2   force =     0.07907213    0.00038315   -0.03247199
     atom   25 type  1   force =     0.00004636   -0.00050273    0.12372490
     atom   26 type  1   force =    -0.00009645   -0.00050851   -0.16067056
     atom   27 type  2   force =     0.00032632   -0.00048111   -0.06714727
     atom   28 type  2   force =     0.00002653   -0.00014381    0.02727437
     atom   29 type  2   force =    -0.01660984    0.00134771   -0.00957166
     atom   30 type  2   force =     0.01855181    0.00165457   -0.00914099
     atom   31 type  1   force =     0.00110261   -0.00129384    0.02159319
     atom   32 type  1   force =    -0.00051988    0.00069371    0.11188932
     atom   33 type  2   force =    -0.00034035   -0.00115340    0.00014681
     atom   34 type  2   force =    -0.00156584    0.00135638   -0.07241868
     atom   35 type  2   force =    -0.00179032   -0.00019905    0.00027133
     atom   36 type  2   force =     0.00069393   -0.00042121   -0.00004617
     atom   37 type  1   force =     0.00072028   -0.00033202    0.00070740
     atom   38 type  1   force =    -0.00016540    0.00052269    0.00021242
     atom   39 type  2   force =     0.00018175   -0.00030647   -0.00034603
     atom   40 type  2   force =     0.00010547   -0.00017390    0.00033749
     atom   41 type  2   force =     0.00003380    0.00045378   -0.00015787
     atom   42 type  2   force =     0.00024798    0.00053790   -0.00005939
     atom   43 type  1   force =     0.00037475    0.00015651   -0.00034760
     atom   44 type  1   force =    -0.00023097    0.00007399    0.00000140
     atom   45 type  2   force =     0.00002410   -0.00007171    0.09977291
     atom   46 type  2   force =    -0.07921425   -0.00000641   -0.03244813
     atom   47 type  2   force =     0.07908265    0.00042247   -0.03247112
     atom   48 type  3   force =    -0.00009917   -0.00113531   -0.00041312
     atom   49 type  4   force =     0.00163496    0.00920578    0.00310728
     atom   50 type  5   force =    -0.00313664   -0.00997017   -0.00247572
     atom   51 type  5   force =     0.00024712    0.00048411    0.00029217
     atom   52 type  5   force =    -0.00017744    0.00114485    0.00034020

     Total force =     0.424901     Total SCF correction =     0.000393
  @ DRIVER MODE: Message from server: STATUS
  @ DRIVER MODE: Message from server: GETFORCE
  @ DRIVER MODE: Returning v,forces,stress,ensemble

     Writing output data file ./calc.save/
  @ DRIVER MODE: Message from server: EXIT
  @ DRIVE MODE: Exiting

     General routines

     Parallel routines

   This run was terminated on:  23:25: 3  24Aug2021

   JOB DONE.