     Program PWSCF v.6.7GPU starts on 15Sep2021 at 23:57:33

     R & G space division:  proc/nbgrp/npool/nimage =      10
     Reading input from /storage/home/hcoda1/3/ntian30/research/carbon/CxH_vib/H2O_calc/ads_slab/CH3OHH2O_e/out_0026/pw.inp
Warning: card &CELL ignored
Warning: card   CELL_DYNAMICS='IPI', ignored
Warning: card / ignored

     Current dimensions of program PWSCF are:
     Max number of different atomic species (ntypx) = 10
     Max number of k-points (npk) =  40000
     Max angular momentum in pseudopotentials (lmaxx) =  3
     Presently no symmetry can be used with electric field

     Message from routine cell_base_init:
     DEPRECATED: use true lattice parameter, not A to a.u. conversion factor

     IMPORTANT: XC functional enforced from input :
     Exchange-correlation= BEEF-VDW
                           (   1   4  43  14   2   0   0)
     Any further DFT definition will be discarded
     Please, verify this is what you really want

  @ DRIVER MODE: Connecting to
 qe_1139763_2852623.sched-torque.pace.gatech.edu08nhw2wu_scratch
  using UNIX socket
  @ DRIVER MODE: Message from server: STATUS
  @ DRIVER MODE: Message from server: INIT
  @ DRIVER MODE: Receiving replica           0          -1
  @ DRIVER MODE: Receiving encoded integer          25
  @ DRIVER MODE:  SCF:  T  FORCE:  T  STRESS:  F  VC:  F  ENSEMBLE:  F
  @ DRIVER MODE:  SCF:  T  FORCE:  T  STRESS:  F  VC:  F  ENSEMBLE:  F

     Using Slab Decomposition

     bravais-lattice index     =            0
     lattice parameter (alat)  =       1.8897  a.u.
     unit-cell volume          =    6658.9804 (a.u.)^3
     number of atoms/cell      =           56
     number of atomic types    =            4
     number of electrons       =       400.00
     number of Kohn-Sham states=          210
     kinetic-energy cutoff     =      29.3995  Ry
     charge density cutoff     =     293.9946  Ry
     scf convergence threshold =      7.3E-08
     mixing beta               =       0.0500
     number of iterations used =            8  plain     mixing
     Exchange-correlation= BEEF-VDW
                           (   1   4  43  14   2   0   0)

     celldm(1)=   1.889726  celldm(2)=   0.000000  celldm(3)=   0.000000
     celldm(4)=   0.000000  celldm(5)=   0.000000  celldm(6)=   0.000000

     crystal axes: (cart. coord. in units of alat)
               a(1) = (   6.579727   0.000000   0.000000 )
               a(2) = (  -0.000775   5.961596   0.000000 )
               a(3) = (   0.000000   0.000000  25.155947 )

     reciprocal axes: (cart. coord. in units 2 pi/alat)
               b(1) = (  0.151982  0.000020  0.000000 )
               b(2) = (  0.000000  0.167740  0.000000 )
               b(3) = (  0.000000  0.000000  0.039752 )

     PseudoPot. # 1 for Ti read from file:
     /storage/coda1/p-amedford6/0/shared/rich_project_chbe-medford/medford-share/data/pseudos_module/espresso/nninc/pbe/van/Ti.UPF
     MD5 check sum: 8e4df49b7f0d34bbd5052bf3f5ea0213
     Pseudo is Ultrasoft, Zval = 12.0
     Generated by new atomic code, or converted to UPF format
     Using radial grid of  851 points,  6 beta functions with:
                l(1) =   0
                l(2) =   0
                l(3) =   1
                l(4) =   1
                l(5) =   2
                l(6) =   2
     Q(r) pseudized with  8 coefficients,  rinner =    1.000   1.000   1.000
                                                       1.000   1.000

     PseudoPot. # 2 for O  read from file:
     /storage/coda1/p-amedford6/0/shared/rich_project_chbe-medford/medford-share/data/pseudos_module/espresso/nninc/pbe/van/O.UPF
     MD5 check sum: 78c19812648e8988a0fe644b0f25305e
     Pseudo is Ultrasoft, Zval =  6.0
     Generated by new atomic code, or converted to UPF format
     Using radial grid of  737 points,  4 beta functions with:
                l(1) =   0
                l(2) =   0
                l(3) =   1
                l(4) =   1
     Q(r) pseudized with  8 coefficients,  rinner =    0.800   0.800   0.800

     PseudoPot. # 3 for C  read from file:
     /storage/coda1/p-amedford6/0/shared/rich_project_chbe-medford/medford-share/data/pseudos_module/espresso/nninc/pbe/van/C.UPF
     MD5 check sum: 1a69bf6b8db32088f5b2163dbdb77a27
     Pseudo is Ultrasoft, Zval =  4.0
     Generated by new atomic code, or converted to UPF format
     Using radial grid of  721 points,  4 beta functions with:
                l(1) =   0
                l(2) =   0
                l(3) =   1
                l(4) =   1
     Q(r) pseudized with  8 coefficients,  rinner =    0.800   0.800   0.800

     PseudoPot. # 4 for H  read from file:
     /storage/coda1/p-amedford6/0/shared/rich_project_chbe-medford/medford-share/data/pseudos_module/espresso/nninc/pbe/van/H.UPF
     MD5 check sum: b5ee9d7bfd3a09ee7748110bda690ff7
     Pseudo is Ultrasoft, Zval =  1.0
     Generated by new atomic code, or converted to UPF format
     Using radial grid of  615 points,  1 beta functions with:
                l(1) =   0
     Q(r) pseudized with  8 coefficients,  rinner =    0.800

     atomic species   valence    mass     pseudopotential
        Ti1           12.00    47.86700     Ti( 1.00)
        O1             6.00    15.99900     O ( 1.00)
        C1             4.00    12.01100     C ( 1.00)
        H1             1.00     1.00800     H ( 1.00)

     No symmetry found

   Cartesian axes

     site n.     atom                  positions (alat units)
         1           Ti1 tau(   1) = (   0.0004258   2.9801865   6.0000000  )
         2           Ti1 tau(   2) = (   3.2906075   1.4906267   6.0002472  )
         3           O1  tau(   3) = (   0.0006271   0.0005054   7.9858123  )
         4           O1  tau(   4) = (   3.2906025   0.0005020   7.3038282  )
         5           O1  tau(   5) = (   4.5942328   1.4918067   9.2879030  )
         6           O1  tau(   6) = (   1.9868534   1.4903216   9.2879459  )
         7           Ti1 tau(   7) = (   3.3179988   2.9667087   9.1587561  )
         8           Ti1 tau(   8) = (   0.0368451   1.4888401   9.2646154  )
         9           O1  tau(   9) = (   3.2981896   5.9413050  11.3756853  )
        10           O1  tau(  10) = (   0.0022081   5.9550161  10.6068466  )
        11           O1  tau(  11) = (   1.2930414   1.4711740  12.6526869  )
        12           O1  tau(  12) = (   5.2963464   1.4745835  12.6500758  )
        13           Ti1 tau(  13) = (   0.0229324   2.9590759  12.5385950  )
        14           Ti1 tau(  14) = (   3.3157970   1.4644123  12.5194148  )
        15           O1  tau(  15) = (   6.5691168   5.9481840  14.6869282  )
        16           O1  tau(  16) = (   3.2964787   5.9455965  14.0277316  )
        17           O1  tau(  17) = (   4.5665908   1.5027878  16.2081754  )
        18           O1  tau(  18) = (   2.0283028   1.5092035  16.1774433  )
        19           Ti1 tau(  19) = (   3.2999954   2.9453206  15.7178785  )
        20           Ti1 tau(  20) = (   6.5724188   1.3235339  15.9896992  )
        21           O1  tau(  21) = (   3.2904802   0.0005063   4.7018136  )
        22           O1  tau(  22) = (   0.0286320   5.9425150  17.2304330  )
        23           O1  tau(  23) = (   1.3043587   1.4918075   6.0039043  )
        24           O1  tau(  24) = (   5.2767064   1.4903225   6.0039473  )
        25           Ti1 tau(  25) = (   0.0000382   5.9609847   6.0000000  )
        26           Ti1 tau(  26) = (   3.2902200   4.4714249   6.0002472  )
        27           O1  tau(  27) = (   0.0002396   2.9813036   7.9858123  )
        28           O1  tau(  28) = (   3.2902150   2.9813002   7.3038282  )
        29           O1  tau(  29) = (   4.5938453   4.4726049   9.2879030  )
        30           O1  tau(  30) = (   1.9864658   4.4711199   9.2879459  )
        31           Ti1 tau(  31) = (   3.3176359   5.9492212   9.1540102  )
        32           Ti1 tau(  32) = (   0.0367062   4.4560090   9.2708352  )
        33           O1  tau(  33) = (   3.2951800   2.9650663  11.3684769  )
        34           O1  tau(  34) = (   0.0080098   2.9764013  10.6279654  )
        35           O1  tau(  35) = (   1.2931912   4.4560454  12.6592269  )
        36           O1  tau(  36) = (   5.2946864   4.4524020  12.6579832  )
        37           Ti1 tau(  37) = (   0.0159028   5.9413441  12.4831893  )
        38           Ti1 tau(  38) = (   3.3151975   4.4500431  12.5204281  )
        39           O1  tau(  39) = (   0.0034497   2.9621527  14.8596962  )
        40           O1  tau(  40) = (   3.2989893   2.9535984  13.9376031  )
        41           O1  tau(  41) = (   4.5724332   4.4114593  16.1445292  )
        42           O1  tau(  42) = (   2.0255208   4.3883007  16.1585022  )
        43           Ti1 tau(  43) = (   3.2821299   5.9114753  15.8432964  )
        44           Ti1 tau(  44) = (   6.5414858   4.5242847  15.8739915  )
        45           O1  tau(  45) = (   3.2900926   2.9813045   4.7018136  )
        46           O1  tau(  46) = (   1.3039711   4.4726057   6.0039043  )
        47           O1  tau(  47) = (   5.2763189   4.4711207   6.0039473  )
        48           C1  tau(  48) = (   5.9754720   3.1749164  18.9278073  )
        49           O1  tau(  49) = (   0.1533887   3.0270296  17.7012840  )
        50           H1  tau(  50) = (   4.9293134   3.0706859  18.6584277  )
        51           H1  tau(  51) = (   1.0910173   3.2466920  17.8500278  )
        52           H1  tau(  52) = (   6.2790755   2.3937635  19.6305738  )
        53           H1  tau(  53) = (   6.1431946   4.1694627  19.3379575  )
        54           O1  tau(  54) = (   3.1723115   5.9428592  18.3689464  )
        55           H1  tau(  55) = (   3.8852673   0.6353712  18.4582360  )
        56           H1  tau(  56) = (   2.3406934   0.4831942  18.3201771  )

     number of k points=    10  Fermi-Dirac smearing, width (Ry)=  0.0073
                       cart. coord. in units 2pi/alat
        k(    1) = (   0.0000000   0.0000000   0.0000000), wk =   0.1250000
        k(    2) = (   0.0000000   0.0419351   0.0000000), wk =   0.2500000
        k(    3) = (   0.0000000  -0.0838702   0.0000000), wk =   0.1250000
        k(    4) = (   0.0379955   0.0000049   0.0000000), wk =   0.2500000
        k(    5) = (   0.0379955   0.0419400   0.0000000), wk =   0.2500000
        k(    6) = (   0.0379955  -0.0838652   0.0000000), wk =   0.2500000
        k(    7) = (   0.0379955  -0.0419301   0.0000000), wk =   0.2500000
        k(    8) = (  -0.0759910  -0.0000099   0.0000000), wk =   0.1250000
        k(    9) = (  -0.0759910   0.0419252   0.0000000), wk =   0.2500000
        k(   10) = (  -0.0759910  -0.0838800   0.0000000), wk =   0.1250000

     Initial potential from superposition of free atoms

     starting charge  383.99915, renormalised to  400.00000

     negative rho (up, down):  1.599E-02 0.000E+00

     %%%%%%%%%%%%%%%%%%%%%%%%%%%%%%%%%%%%%%%%%%%%%%%%%%%%%%%%%%%%%%%%%%%%%%%%
     %                                                                      %
     % You are using vdW-DF, which was implemented by the Thonhauser group. %
     % Please cite the following two papers that made this development      %
     % possible and the two reviews that describe the various versions:     %
     %                                                                      %
     %   T. Thonhauser et al., PRL 115, 136402 (2015).                      %
     %   T. Thonhauser et al., PRB 76, 125112 (2007).                       %
     %   K. Berland et al., Rep. Prog. Phys. 78, 066501 (2015).             %
     %   D.C. Langreth et al., J. Phys.: Condens. Matter 21, 084203 (2009). %
     %                                                                      %
     %                                                                      %
     % If you are calculating the stress with vdW-DF, please also cite:     %
     %                                                                      %
     %   R. Sabatini et al., J. Phys.: Condens. Matter 24, 424209 (2012).   %
     %                                                                      %
     %%%%%%%%%%%%%%%%%%%%%%%%%%%%%%%%%%%%%%%%%%%%%%%%%%%%%%%%%%%%%%%%%%%%%%%%

     Adding external electric field

     Computed dipole along edir(3) :
        Dipole              -11.7400 Ry au,        -29.8402 Debye
        Dipole field         -0.0222 Ry au,

        Potential amp.        2.0537 Ry
        Total length         46.3494 bohr

     Starting wfcs are  302 atomic wfcs
  @ DRIVER MODE: Message from server: STATUS
  @ DRIVER MODE: Message from server: POSDATA
  @ DRIVER MODE: Reading and sharing cell
  @ DRIVER MODE: Reading and sharing positions
  @ DRIVER MODE: Received positions

     Self-consistent Calculation

     iteration #  1     ecut=    29.40 Ry     beta= 0.05
     Davidson diagonalization with overlap
     c_bands:  2 eigenvalues not converged
     c_bands:  2 eigenvalues not converged
     c_bands:  4 eigenvalues not converged
     c_bands:  3 eigenvalues not converged
     c_bands:  4 eigenvalues not converged
     c_bands:  4 eigenvalues not converged
     c_bands:  3 eigenvalues not converged
     c_bands:  2 eigenvalues not converged
     ethr =  1.00E-05,  avg # of iterations = 21.3

[...]

     total energy              =   -2420.23199322 Ry
     estimated scf accuracy    <    6189.12686309 Ry

     iteration #  2     ecut=    29.40 Ry     beta= 0.05
     Davidson diagonalization with overlap
     ethr =  1.00E-02,  avg # of iterations = 28.7

[...]

     iteration # 63     ecut=    29.40 Ry     beta= 0.05
     Davidson diagonalization with overlap
     c_bands:  3 eigenvalues not converged
     c_bands:  1 eigenvalues not converged
     c_bands:  1 eigenvalues not converged
     c_bands:  1 eigenvalues not converged
     ethr =  2.18E-11,  avg # of iterations = 17.1

[...]

     total energy              =   -2967.47594283 Ry
     estimated scf accuracy    <       0.00000008 Ry

     iteration # 65     ecut=    29.40 Ry     beta= 0.05
     Davidson diagonalization with overlap
     ethr =  1.98E-11,  avg # of iterations =  3.5

     negative rho (up, down):  1.587E-02 0.000E+00

     Adding external electric field

     Computed dipole along edir(3) :
        Dipole                1.3783 Ry au,          3.5034 Debye
        Dipole field          0.0026 Ry au,

        Potential amp.       -0.2411 Ry
        Total length         46.3494 bohr

     End of self-consistent calculation

          k = 0.0000 0.0000 0.0000 ( 18029 PWs)   bands (ev):

   -55.2503 -55.2227 -55.2142 -55.1883 -55.1567 -55.1487 -55.1433 -55.0964
   -55.0960 -55.0896 -55.0553 -55.0378 -55.0079 -55.0038 -54.3117 -54.2776
   -31.8169 -31.7664 -31.7178 -31.6277 -31.5651 -31.5551 -31.5504 -31.5479
   -31.5113 -31.4822 -31.4657 -31.4637 -31.4525 -31.4425 -31.4284 -31.4140
   -31.3967 -31.3906 -31.3873 -31.3830 -31.3768 -31.3678 -31.3450 -31.3406
   -31.3386 -31.3189 -31.3158 -31.3142 -31.2935 -31.2799 -31.2643 -31.2436
   -31.2422 -31.2414 -31.2300 -31.2209 -31.2027 -31.1890 -31.1771 -31.1726
   -31.1595 -31.1489 -30.7237 -30.6212 -30.5996 -30.5400 -30.4536 -30.3426
   -20.1690 -19.0861 -16.0798 -15.8326 -15.6929 -15.5944 -15.4733 -15.3400
   -15.2798 -15.1650 -15.0739 -14.9841 -14.9690 -14.9505 -14.9212 -14.8983
   -14.8738 -14.8355 -14.8091 -14.7655 -14.7568 -14.7402 -14.7334 -14.6966
   -14.6938 -14.6486 -14.6402 -14.4834 -14.4129 -14.3528 -14.1309 -12.8125
   -12.6931 -11.1819  -6.9250  -6.8524  -5.1424  -5.0043  -3.4197  -3.2628
    -3.2287  -3.2023  -3.1831  -3.1435  -3.0609  -2.9624  -2.7892  -2.6791
    -2.5423  -2.5346  -2.4882  -2.4613  -2.4043  -2.3217  -2.2340  -2.2074
    -2.1723  -2.1391  -2.1357  -2.1199  -2.1096  -2.0535  -2.0181  -1.9603
    -1.8631  -1.8136  -1.7724  -1.7548  -1.6951  -1.6515  -1.6171  -1.5890
    -1.5823  -1.5757  -1.5171  -1.5150  -1.5072  -1.4959  -1.4783  -1.2895
    -1.2492  -1.1174  -1.0261  -0.9848  -0.9720  -0.8177  -0.8111  -0.7667
    -0.7335  -0.6991  -0.6585  -0.6010  -0.5037  -0.4731  -0.4216  -0.3833
    -0.2753  -0.2432  -0.2121  -0.1576  -0.0501  -0.0417  -0.0160   0.0033
     0.0773   0.1731   0.2023   0.2236   0.3005   0.3057   0.3669   0.4076
     0.4412   0.5161   0.5615   0.5728   0.6644   0.6812   0.6949   0.7213
     0.7248   0.8234   0.8595   0.9041   0.9225   1.0741   1.1685   1.3081
     1.3367   1.6035   1.6986   1.7142   1.8745   2.3000   2.3548   3.8408
     3.9092   3.9477   3.9553   3.9686   4.0483   4.3319   4.3472   4.3591
     4.3688   4.3868

[...]

          k = 0.0380-0.0419 0.0000 ( 17876 PWs)   bands (ev):

[...]

          k =-0.0760-0.0000 0.0000 ( 17886 PWs)   bands (ev):

[...]

          k =-0.0760-0.0839 0.0000 ( 17948 PWs)   bands (ev):

   -55.2332 -55.2311 -55.2075 -55.2034 -55.1537 -55.1429 -55.1360 -55.1038
   -55.1027 -55.0737 -55.0708 -55.0227 -55.0189 -55.0098 -54.2946 -54.2945
   -31.6834 -31.6240 -31.6170 -31.5347 -31.5307 -31.5172 -31.5056 -31.5005
   -31.4928 -31.4725 -31.4542 -31.4487 -31.4446 -31.4310 -31.4053 -31.4029
   -31.3911 -31.3886 -31.3817 -31.3808 -31.3773 -31.3740 -31.3613 -31.3474
   -31.3394 -31.3342 -31.3337 -31.3272 -31.3240 -31.3238 -31.3234 -31.3053
   -31.2980 -31.2954 -31.2768 -31.2721 -31.2715 -31.2477 -31.2438 -31.2089
   -31.2045 -31.1915 -30.6122 -30.6121 -30.5365 -30.5362 -30.4969 -30.4967
   -20.1657 -19.0854 -15.6381 -15.5394 -15.3891 -15.2658 -15.2535 -15.2409
   -15.1890 -15.1246 -15.1107 -15.0605 -15.0478 -15.0169 -15.0009 -14.9950
   -14.9590 -14.8506 -14.8465 -14.8362 -14.8156 -14.7704 -14.7593 -14.7523
   -14.7400 -14.7040 -14.6955 -14.6812 -14.6708 -14.5791 -14.4403 -12.7944
   -12.7938 -11.1838  -6.9210  -6.8530  -5.1441  -4.9822  -3.1834  -2.9912
    -2.8075  -2.7286  -2.6311  -2.4837  -2.4691  -2.3880  -2.3761  -2.3255
    -2.2548  -2.2518  -2.2481  -2.1668  -2.1545  -2.1544  -2.1334  -2.1139
    -2.0734  -2.0647  -2.0413  -2.0309  -1.9895  -1.9587  -1.9456  -1.9286
    -1.9181  -1.9142  -1.8832  -1.8686  -1.8532  -1.8115  -1.7883  -1.7279
    -1.6394  -1.6032  -1.4804  -1.4778  -1.4396  -1.4131  -1.3874  -1.3466
    -1.3269  -1.2793  -1.2587  -1.2334  -1.0499  -1.0339  -0.9795  -0.9396
    -0.9199  -0.9064  -0.8444  -0.7726  -0.7457  -0.7143  -0.6485  -0.5754
    -0.4795  -0.4552  -0.4468  -0.3410  -0.2885  -0.2489  -0.2445  -0.2352
    -0.2114  -0.1628  -0.1430  -0.0812  -0.0421   0.0016   0.0270   0.0438
     0.2249   0.2634   0.3218   0.4131   0.4419   0.5869   0.6355   0.6874
     0.7479   0.8244   0.8353   0.9014   1.0157   1.0278   1.0576   1.1347
     1.1781   1.1838   1.2089   2.0654   2.0675   2.1690   2.1720   3.9707
     4.0781   4.0967   4.1756   4.2418   4.3501   4.3631   4.3924   4.4029
     4.4478   4.4798

     the Fermi energy is     3.8973 ev

!    total energy              =   -2967.47598188 Ry
     estimated scf accuracy    <       0.00000005 Ry
     smearing contrib. (-TS)   =      -0.03654002 Ry
     internal energy E=F+TS    =   -2967.43944185 Ry

     The total energy is F=E-TS. E is the sum of the following terms:
     one-electron contribution =  -23962.78310875 Ry
     hartree contribution      =   12076.98679559 Ry
     xc contribution           =    -491.85798259 Ry
     ewald contribution        =    9410.21126875 Ry
     electric field correction =       0.00358515 Ry

     convergence has been achieved in  65 iterations

     Forces acting on atoms (cartesian axes, Ry/au):

     atom    1 type  1   force =    -0.00026718    0.00019139    0.09244933
     atom    2 type  1   force =    -0.00035381    0.00104781   -0.18340874
     atom    3 type  2   force =     0.00050695   -0.00072849   -0.02346721
     atom    4 type  2   force =     0.00072409   -0.00018720    0.05071305
     atom    5 type  2   force =    -0.01406166   -0.00131860    0.00495228
     atom    6 type  2   force =     0.01522607   -0.00065261    0.00509216
     atom    7 type  1   force =    -0.00048872    0.00106411   -0.00014403
     atom    8 type  1   force =     0.00016545   -0.00053200    0.00039245
     atom    9 type  2   force =    -0.00044067    0.00017241    0.00041415
     atom   10 type  2   force =     0.00040744    0.00015675    0.00047550
     atom   11 type  2   force =     0.00035419    0.00043808    0.00033740
     atom   12 type  2   force =     0.00005949    0.00013932    0.00026625
     atom   13 type  1   force =    -0.00088507   -0.00118838   -0.00010929
     atom   14 type  1   force =     0.00059295   -0.00004850    0.00020614
     atom   15 type  2   force =     0.00051213    0.00077098    0.00006979
     atom   16 type  2   force =    -0.00061380   -0.00036912    0.00005064
     atom   17 type  2   force =     0.00004746    0.00022645   -0.00037977
     atom   18 type  2   force =    -0.00014464    0.00029639   -0.00014168
     atom   19 type  1   force =     0.00062547   -0.00004966   -0.00032763
     atom   20 type  1   force =    -0.00003825    0.00020074   -0.00013954
     atom   21 type  2   force =    -0.00004351    0.00015688    0.10496377
     atom   22 type  2   force =    -0.00034409    0.00057933   -0.00089431
     atom   23 type  2   force =    -0.06800211    0.00012880   -0.02680074
     atom   24 type  2   force =     0.06771855    0.00052786   -0.02686552
     atom   25 type  1   force =    -0.00038855   -0.00008407    0.09625044
     atom   26 type  1   force =    -0.00035140   -0.00099660   -0.18318833
     atom   27 type  2   force =     0.00041822   -0.00124648   -0.02223645
     atom   28 type  2   force =     0.00070096   -0.00033398    0.05103514
     atom   29 type  2   force =    -0.01424597   -0.00106165    0.00466196
     atom   30 type  2   force =     0.01519133    0.00021426    0.00484569
     atom   31 type  1   force =    -0.00050472   -0.00146557    0.00016945
     atom   32 type  1   force =     0.00014144    0.00071066   -0.00027924
     atom   33 type  2   force =     0.00002108   -0.00020297    0.00008009
     atom   34 type  2   force =     0.00002362   -0.00006074   -0.00008246
     atom   35 type  2   force =     0.00020962    0.00008751    0.00030356
     atom   36 type  2   force =     0.00040045    0.00045525    0.00004957
     atom   37 type  1   force =    -0.00106957    0.00125449   -0.00005963
     atom   38 type  1   force =     0.00037912    0.00010156   -0.00044461
     atom   39 type  2   force =     0.00038791    0.00022944   -0.00033594
     atom   40 type  2   force =    -0.00008244    0.00019755    0.00006106
     atom   41 type  2   force =    -0.00021825    0.00017401   -0.00047369
     atom   42 type  2   force =     0.00014497   -0.00001983    0.00019782
     atom   43 type  1   force =    -0.00060020    0.00013166    0.00020011
     atom   44 type  1   force =    -0.00001797   -0.00002190   -0.00083710
     atom   45 type  2   force =    -0.00005938    0.00015217    0.10489225
     atom   46 type  2   force =    -0.06804860   -0.00038669   -0.02679070
     atom   47 type  2   force =     0.06776815    0.00005682   -0.02687552
     atom   48 type  3   force =     0.00277807   -0.00154946    0.00170511
     atom   49 type  2   force =    -0.00121735    0.00083380    0.00004459
     atom   50 type  4   force =     0.00067355   -0.00027744    0.00073946
     atom   51 type  4   force =     0.00068609    0.00089449   -0.00005072
     atom   52 type  4   force =    -0.00320208    0.00280977   -0.00190442
     atom   53 type  4   force =    -0.00028823   -0.00005024   -0.00002151
     atom   54 type  2   force =     0.00086231   -0.00020519    0.00107367
     atom   55 type  4   force =    -0.00083299   -0.00037580   -0.00057969
     atom   56 type  4   force =    -0.00091589   -0.00098758    0.00014560

     Total force =     0.368230     Total SCF correction =     0.000766
  @ DRIVER MODE: Message from server: STATUS
  @ DRIVER MODE: Message from server: GETFORCE
  @ DRIVER MODE: Returning v,forces,stress,ensemble

     Writing output data file ./calc.save/
  @ DRIVER MODE: Message from server: EXIT
  @ DRIVE MODE: Exiting

     General routines

     Parallel routines

   This run was terminated on:   0:15:20  16Sep2021

   JOB DONE.