     Program PWSCF v.6.7GPU starts on 16Sep2021 at  0:32: 2

     R & G space division:  proc/nbgrp/npool/nimage =      10
     Reading input from /storage/home/hcoda1/3/ntian30/research/carbon/CxH_vib/H2O_calc/ads_slab/CHNNHHH2O_a/out_0028/pw.inp
Warning: card &CELL ignored
Warning: card   CELL_DYNAMICS='IPI', ignored
Warning: card / ignored

     Current dimensions of program PWSCF are:
     Max number of different atomic species (ntypx) = 10
     Max number of k-points (npk) =  40000
     Max angular momentum in pseudopotentials (lmaxx) =  3
     Presently no symmetry can be used with electric field

     Message from routine cell_base_init:
     DEPRECATED: use true lattice parameter, not A to a.u. conversion factor

     IMPORTANT: XC functional enforced from input :
     Exchange-correlation= BEEF-VDW
                           (   1   4  43  14   2   0   0)
     Any further DFT definition will be discarded
     Please, verify this is what you really want

  @ DRIVER MODE: Connecting to
 qe_1139763_2852630.sched-torque.pace.gatech.eduhzpyrh8n_scratch
  using UNIX socket
  @ DRIVER MODE: Message from server: STATUS
  @ DRIVER MODE: Message from server: INIT
  @ DRIVER MODE: Receiving replica           0          -1
  @ DRIVER MODE: Receiving encoded integer          25
  @ DRIVER MODE:  SCF:  T  FORCE:  T  STRESS:  F  VC:  F  ENSEMBLE:  F
  @ DRIVER MODE:  SCF:  T  FORCE:  T  STRESS:  F  VC:  F  ENSEMBLE:  F

     Using Slab Decomposition

     bravais-lattice index     =            0
     lattice parameter (alat)  =       1.8897  a.u.
     unit-cell volume          =    6658.9804 (a.u.)^3
     number of atoms/cell      =           56
     number of atomic types    =            5
     number of electrons       =       403.00
     number of Kohn-Sham states=          211
     kinetic-energy cutoff     =      29.3995  Ry
     charge density cutoff     =     293.9946  Ry
     scf convergence threshold =      7.3E-08
     mixing beta               =       0.0500
     number of iterations used =            8  plain     mixing
     Exchange-correlation= BEEF-VDW
                           (   1   4  43  14   2   0   0)

     celldm(1)=   1.889726  celldm(2)=   0.000000  celldm(3)=   0.000000
     celldm(4)=   0.000000  celldm(5)=   0.000000  celldm(6)=   0.000000

     crystal axes: (cart. coord. in units of alat)
               a(1) = (   6.579727   0.000000   0.000000 )
               a(2) = (  -0.000775   5.961596   0.000000 )
               a(3) = (   0.000000   0.000000  25.155947 )

     reciprocal axes: (cart. coord. in units 2 pi/alat)
               b(1) = (  0.151982  0.000020  0.000000 )
               b(2) = (  0.000000  0.167740  0.000000 )
               b(3) = (  0.000000  0.000000  0.039752 )

     PseudoPot. # 1 for Ti read from file:
     /storage/coda1/p-amedford6/0/shared/rich_project_chbe-medford/medford-share/data/pseudos_module/espresso/nninc/pbe/van/Ti.UPF
     MD5 check sum: 8e4df49b7f0d34bbd5052bf3f5ea0213
     Pseudo is Ultrasoft, Zval = 12.0
     Generated by new atomic code, or converted to UPF format
     Using radial grid of  851 points,  6 beta functions with:
                l(1) =   0
                l(2) =   0
                l(3) =   1
                l(4) =   1
                l(5) =   2
                l(6) =   2
     Q(r) pseudized with  8 coefficients,  rinner =    1.000   1.000   1.000
                                                       1.000   1.000

     PseudoPot. # 2 for O  read from file:
     /storage/coda1/p-amedford6/0/shared/rich_project_chbe-medford/medford-share/data/pseudos_module/espresso/nninc/pbe/van/O.UPF
     MD5 check sum: 78c19812648e8988a0fe644b0f25305e
     Pseudo is Ultrasoft, Zval =  6.0
     Generated by new atomic code, or converted to UPF format
     Using radial grid of  737 points,  4 beta functions with:
                l(1) =   0
                l(2) =   0
                l(3) =   1
                l(4) =   1
     Q(r) pseudized with  8 coefficients,  rinner =    0.800   0.800   0.800

     PseudoPot. # 3 for N  read from file:
     /storage/coda1/p-amedford6/0/shared/rich_project_chbe-medford/medford-share/data/pseudos_module/espresso/nninc/pbe/van/N.UPF
     MD5 check sum: 90d10febe142ad51ac9d5be1deb811c4
     Pseudo is Ultrasoft, Zval =  5.0
     Generated by new atomic code, or converted to UPF format
     Using radial grid of  729 points,  4 beta functions with:
                l(1) =   0
                l(2) =   0
                l(3) =   1
                l(4) =   1
     Q(r) pseudized with  8 coefficients,  rinner =    0.800   0.800   0.800

     PseudoPot. # 4 for C  read from file:
     /storage/coda1/p-amedford6/0/shared/rich_project_chbe-medford/medford-share/data/pseudos_module/espresso/nninc/pbe/van/C.UPF
     MD5 check sum: 1a69bf6b8db32088f5b2163dbdb77a27
     Pseudo is Ultrasoft, Zval =  4.0
     Generated by new atomic code, or converted to UPF format
     Using radial grid of  721 points,  4 beta functions with:
                l(1) =   0
                l(2) =   0
                l(3) =   1
                l(4) =   1
     Q(r) pseudized with  8 coefficients,  rinner =    0.800   0.800   0.800

     PseudoPot. # 5 for H  read from file:
     /storage/coda1/p-amedford6/0/shared/rich_project_chbe-medford/medford-share/data/pseudos_module/espresso/nninc/pbe/van/H.UPF
     MD5 check sum: b5ee9d7bfd3a09ee7748110bda690ff7
     Pseudo is Ultrasoft, Zval =  1.0
     Generated by new atomic code, or converted to UPF format
     Using radial grid of  615 points,  1 beta functions with:
                l(1) =   0
     Q(r) pseudized with  8 coefficients,  rinner =    0.800

     atomic species   valence    mass     pseudopotential
        Ti1           12.00    47.86700     Ti( 1.00)
        O1             6.00    15.99900     O ( 1.00)
        N1             5.00    14.00700     N ( 1.00)
        C1             4.00    12.01100     C ( 1.00)
        H1             1.00     1.00800     H ( 1.00)

     No symmetry found

   Cartesian axes

     site n.     atom                  positions (alat units)
         1           Ti1 tau(   1) = (   0.0004258   2.9801865   6.0000000  )
         2           Ti1 tau(   2) = (   3.2906075   1.4906267   6.0002472  )
         3           O1  tau(   3) = (   0.0006271   0.0005054   7.9858123  )
         4           O1  tau(   4) = (   3.2906025   0.0005020   7.3038282  )
         5           O1  tau(   5) = (   4.5942328   1.4918067   9.2879030  )
         6           O1  tau(   6) = (   1.9868534   1.4903216   9.2879459  )
         7           Ti1 tau(   7) = (   3.2907910   2.8959150   9.1758416  )
         8           Ti1 tau(   8) = (   0.0015273   1.4827037   9.2680791  )
         9           O1  tau(   9) = (   3.3295752   5.9394884  11.3365386  )
        10           O1  tau(  10) = (   0.0116148   5.9584955  10.6183126  )
        11           O1  tau(  11) = (   1.3416459   1.4853116  12.6004455  )
        12           O1  tau(  12) = (   5.3426426   1.4786053  12.6369034  )
        13           Ti1 tau(  13) = (   0.0116414   2.9353973  12.6160321  )
        14           Ti1 tau(  14) = (   3.2634613   1.4579052  12.5012998  )
        15           O1  tau(  15) = (   0.1064876   0.0498873  14.6156690  )
        16           O1  tau(  16) = (   3.3207907   0.0021492  13.9347054  )
        17           O1  tau(  17) = (   4.6463059   1.4619937  15.9920056  )
        18           O1  tau(  18) = (   2.1466462   1.4989335  16.1123926  )
        19           Ti1 tau(  19) = (   3.4306617   2.9592634  15.6863987  )
        20           Ti1 tau(  20) = (   0.1411245   1.4409179  16.1562347  )
        21           O1  tau(  21) = (   3.2904802   0.0005063   4.7018136  )
        22           O1  tau(  22) = (   0.1093408   5.8617090  17.1288626  )
        23           O1  tau(  23) = (   1.3043587   1.4918075   6.0039043  )
        24           O1  tau(  24) = (   5.2767064   1.4903225   6.0039473  )
        25           Ti1 tau(  25) = (   0.0000382   5.9609847   6.0000000  )
        26           Ti1 tau(  26) = (   3.2902200   4.4714249   6.0002472  )
        27           O1  tau(  27) = (   0.0002396   2.9813036   7.9858123  )
        28           O1  tau(  28) = (   3.2902150   2.9813002   7.3038282  )
        29           O1  tau(  29) = (   4.5938453   4.4726049   9.2879030  )
        30           O1  tau(  30) = (   1.9864658   4.4711199   9.2879459  )
        31           Ti1 tau(  31) = (   3.2891106   5.8743827   9.1763621  )
        32           Ti1 tau(  32) = (   0.0006254   4.4649316   9.2693709  )
        33           O1  tau(  33) = (   3.3252478   2.9725824  11.3426849  )
        34           O1  tau(  34) = (   0.0092240   2.9805883  10.6323155  )
        35           O1  tau(  35) = (   1.3395427   4.4601989  12.6346899  )
        36           O1  tau(  36) = (   5.3460148   4.4586474  12.6692756  )
        37           Ti1 tau(  37) = (   6.5637397   5.9322234  12.5160321  )
        38           Ti1 tau(  38) = (   3.2635149   4.4558096  12.5102435  )
        39           O1  tau(  39) = (   0.1109093   2.9345503  14.7784033  )
        40           O1  tau(  40) = (   3.3425673   2.9461413  13.8942005  )
        41           O1  tau(  41) = (   4.6672108   4.4449251  15.9191901  )
        42           O1  tau(  42) = (   2.1284166   4.4082335  15.9970045  )
        43           Ti1 tau(  43) = (   3.3925976   5.9399099  15.7906296  )
        44           Ti1 tau(  44) = (   0.1175887   4.6074924  15.7225956  )
        45           O1  tau(  45) = (   3.2900926   2.9813045   4.7018136  )
        46           O1  tau(  46) = (   1.3039711   4.4726057   6.0039043  )
        47           O1  tau(  47) = (   5.2763189   4.4711207   6.0039473  )
        48           N1  tau(  48) = (   6.3322197   2.6896666  17.8857888  )
        49           C1  tau(  49) = (   0.7408832   3.1023054  18.6049742  )
        50           H1  tau(  50) = (   1.6825283   2.9574642  18.0630083  )
        51           N1  tau(  51) = (   5.0062801   2.8267163  18.4728511  )
        52           H1  tau(  52) = (   5.1803530   3.0594745  19.4549233  )
        53           H1  tau(  53) = (   4.5789568   1.9025856  18.4370215  )
        54           O1  tau(  54) = (   3.4803961   5.7297960  18.1507158  )
        55           H1  tau(  55) = (   4.0125945   4.9267423  18.3304466  )
        56           H1  tau(  56) = (   2.5980622   5.5532332  18.5227279  )

     number of k points=    10  Fermi-Dirac smearing, width (Ry)=  0.0073
                       cart. coord. in units 2pi/alat
        k(    1) = (   0.0000000   0.0000000   0.0000000), wk =   0.1250000
        k(    2) = (   0.0000000   0.0419351   0.0000000), wk =   0.2500000
        k(    3) = (   0.0000000  -0.0838702   0.0000000), wk =   0.1250000
        k(    4) = (   0.0379955   0.0000049   0.0000000), wk =   0.2500000
        k(    5) = (   0.0379955   0.0419400   0.0000000), wk =   0.2500000
        k(    6) = (   0.0379955  -0.0838652   0.0000000), wk =   0.2500000
        k(    7) = (   0.0379955  -0.0419301   0.0000000), wk =   0.2500000
        k(    8) = (  -0.0759910  -0.0000099   0.0000000), wk =   0.1250000
        k(    9) = (  -0.0759910   0.0419252   0.0000000), wk =   0.2500000
        k(   10) = (  -0.0759910  -0.0838800   0.0000000), wk =   0.1250000

     Initial potential from superposition of free atoms

     starting charge  386.99914, renormalised to  403.00000

     negative rho (up, down):  1.683E-02 0.000E+00

     %%%%%%%%%%%%%%%%%%%%%%%%%%%%%%%%%%%%%%%%%%%%%%%%%%%%%%%%%%%%%%%%%%%%%%%%
     %                                                                      %
     % You are using vdW-DF, which was implemented by the Thonhauser group. %
     % Please cite the following two papers that made this development      %
     % possible and the two reviews that describe the various versions:     %
     %                                                                      %
     %   T. Thonhauser et al., PRL 115, 136402 (2015).                      %
     %   T. Thonhauser et al., PRB 76, 125112 (2007).                       %
     %   K. Berland et al., Rep. Prog. Phys. 78, 066501 (2015).             %
     %   D.C. Langreth et al., J. Phys.: Condens. Matter 21, 084203 (2009). %
     %                                                                      %
     %                                                                      %
     % If you are calculating the stress with vdW-DF, please also cite:     %
     %                                                                      %
     %   R. Sabatini et al., J. Phys.: Condens. Matter 24, 424209 (2012).   %
     %                                                                      %
     %%%%%%%%%%%%%%%%%%%%%%%%%%%%%%%%%%%%%%%%%%%%%%%%%%%%%%%%%%%%%%%%%%%%%%%%

     Adding external electric field

     Computed dipole along edir(3) :
        Dipole              -12.6658 Ry au,        -32.1932 Debye
        Dipole field         -0.0239 Ry au,

        Potential amp.        2.2157 Ry
        Total length         46.3494 bohr

     Starting wfcs are  305 atomic wfcs
  @ DRIVER MODE: Message from server: STATUS
  @ DRIVER MODE: Message from server: POSDATA
  @ DRIVER MODE: Reading and sharing cell
  @ DRIVER MODE: Reading and sharing positions
  @ DRIVER MODE: Received positions

     Self-consistent Calculation

     iteration #  1     ecut=    29.40 Ry     beta= 0.05
     Davidson diagonalization with overlap
     c_bands:  3 eigenvalues not converged
     c_bands:  2 eigenvalues not converged
     c_bands:  5 eigenvalues not converged
     c_bands:  1 eigenvalues not converged
     c_bands:  4 eigenvalues not converged
     c_bands:  1 eigenvalues not converged
     c_bands:  2 eigenvalues not converged
     ethr =  1.00E-05,  avg # of iterations = 26.9

[...]

     total energy              =   -2339.09985209 Ry
     estimated scf accuracy    <    7194.96750707 Ry

     iteration #  2     ecut=    29.40 Ry     beta= 0.05
     Davidson diagonalization with overlap
     ethr =  1.00E-02,  avg # of iterations = 24.0

[...]

     iteration # 70     ecut=    29.40 Ry     beta= 0.05
     Davidson diagonalization with overlap
     c_bands:  1 eigenvalues not converged
     c_bands:  1 eigenvalues not converged
     ethr =  1.21E-08,  avg # of iterations = 13.7

[...]

     total energy              =   -2973.87567592 Ry
     estimated scf accuracy    <       0.00000013 Ry

     iteration # 84     ecut=    29.40 Ry     beta= 0.05
     Davidson diagonalization with overlap
     ethr =  2.91E-11,  avg # of iterations =  5.6

     negative rho (up, down):  1.573E-02 0.000E+00

     Adding external electric field

     Computed dipole along edir(3) :
        Dipole                0.4415 Ry au,          1.1223 Debye
        Dipole field          0.0008 Ry au,

        Potential amp.       -0.0772 Ry
        Total length         46.3494 bohr

     End of self-consistent calculation

          k = 0.0000 0.0000 0.0000 ( 18029 PWs)   bands (ev):

   -55.9069 -55.8728 -55.8707 -55.8332 -55.7914 -55.7904 -55.7347 -55.7238
   -55.6967 -55.6899 -55.6895 -55.6561 -55.4667 -55.3785 -54.8894 -54.8554
   -32.4116 -32.3911 -32.2781 -32.2334 -32.2238 -32.1989 -32.1803 -32.1609
   -32.1514 -32.1089 -32.0605 -32.0592 -32.0451 -32.0347 -32.0246 -32.0236
   -32.0129 -32.0085 -32.0047 -31.9940 -31.9869 -31.9726 -31.9641 -31.9306
   -31.9214 -31.9181 -31.9162 -31.9110 -31.8879 -31.8871 -31.8792 -31.8667
   -31.8568 -31.8438 -31.8358 -31.8295 -31.8023 -31.7586 -31.6965 -31.6347
   -31.5923 -31.5205 -31.2966 -31.2080 -31.1857 -31.1135 -31.0269 -30.9158
   -18.8491 -17.1759 -16.6210 -16.3847 -16.1479 -16.0689 -16.0437 -15.8142
   -15.7190 -15.6635 -15.5668 -15.5050 -15.4763 -15.4465 -15.4235 -15.4020
   -15.3614 -15.3492 -15.3295 -15.3284 -15.3017 -15.2926 -15.2554 -15.2497
   -15.2022 -15.0791 -15.0454 -15.0397 -15.0099 -14.9721 -14.5299 -13.3911
   -13.2746 -12.8207  -7.1145  -6.5659  -5.5046  -4.0015  -3.8673  -3.8601
    -3.8156  -3.7504  -3.6016  -3.5729  -3.3741  -3.2422  -3.1750  -3.0944
    -3.0780  -3.0396  -3.0138  -2.9097  -2.8239  -2.7889  -2.7206  -2.7051
    -2.6800  -2.6721  -2.6428  -2.6188  -2.5335  -2.5148  -2.4748  -2.4416
    -2.3257  -2.3070  -2.2505  -2.2222  -2.2151  -2.1966  -2.1723  -2.1626
    -2.1483  -2.1364  -2.0776  -2.0503  -1.9669  -1.9004  -1.8368  -1.7020
    -1.5620  -1.5206  -1.5069  -1.4083  -1.3820  -1.3471  -1.3280  -1.3038
    -1.2889  -1.1650  -1.0863  -1.0229  -1.0161  -0.9455  -0.8526  -0.7927
    -0.7354  -0.6778  -0.6717  -0.6510  -0.6462  -0.6114  -0.5383  -0.4023
    -0.3641  -0.3241  -0.2906  -0.2029  -0.1940  -0.1488  -0.1174  -0.0968
    -0.0637   0.0147   0.0266   0.0574   0.0790   0.1000   0.1229   0.1811
     0.3096   0.3315   0.3501   0.4074   0.4440   0.6032   0.7438   0.7869
     0.8893   1.0623   1.1335   1.1649   1.2254   1.3251   1.7046   1.7504
     2.7630   3.2091   3.3129   3.3468   3.3542   3.4551   3.4803   3.6708
     3.7152   3.7518   3.7829

[...]

          k = 0.0380-0.0419 0.0000 ( 17876 PWs)   bands (ev):

[...]

          k =-0.0760-0.0000 0.0000 ( 17886 PWs)   bands (ev):

[...]

          k =-0.0760-0.0839 0.0000 ( 17948 PWs)   bands (ev):

   -55.8902 -55.8893 -55.8575 -55.8462 -55.7881 -55.7845 -55.7405 -55.7086
   -55.7044 -55.6998 -55.6733 -55.6728 -55.4639 -55.3811 -54.8724 -54.8723
   -32.2281 -32.2065 -32.2061 -32.2061 -32.1846 -32.1840 -32.1266 -32.1187
   -32.0983 -32.0912 -32.0880 -32.0360 -32.0352 -32.0271 -32.0233 -32.0224
   -32.0169 -32.0132 -32.0111 -32.0096 -32.0084 -32.0058 -31.9936 -31.9907
   -31.9739 -31.9522 -31.9508 -31.9112 -31.9091 -31.9021 -31.9013 -31.8989
   -31.8922 -31.8892 -31.8885 -31.8826 -31.8797 -31.7748 -31.6947 -31.6411
   -31.5961 -31.5871 -31.1984 -31.1983 -31.1095 -31.1093 -31.0703 -31.0702
   -18.8468 -17.1672 -16.0478 -15.9626 -15.9245 -15.8353 -15.7894 -15.7558
   -15.6962 -15.6233 -15.5848 -15.5798 -15.5539 -15.4956 -15.4809 -15.4528
   -15.4352 -15.4236 -15.4192 -15.3669 -15.3607 -15.3516 -15.3471 -15.3338
   -15.3313 -15.3058 -15.2310 -15.2281 -15.1055 -14.8953 -14.8708 -13.3764
   -13.3762 -12.8367  -7.0743  -6.5559  -5.4428  -3.6748  -3.3915  -3.3278
    -3.2247  -3.1146  -3.0133  -3.0058  -2.9696  -2.9260  -2.8550  -2.8299
    -2.7742  -2.7549  -2.7399  -2.7234  -2.7189  -2.7082  -2.6750  -2.6519
    -2.5959  -2.5909  -2.5838  -2.5754  -2.5633  -2.5555  -2.5339  -2.5275
    -2.5011  -2.4750  -2.4365  -2.4040  -2.3222  -2.2463  -2.1693  -2.1204
    -2.0899  -2.0576  -2.0511  -2.0067  -1.9877  -1.9759  -1.9588  -1.8942
    -1.7945  -1.6744  -1.6184  -1.5950  -1.5466  -1.5105  -1.4872  -1.3804
    -1.3302  -1.3158  -1.2145  -1.1927  -1.1674  -1.1147  -1.0492  -1.0347
    -0.9918  -0.9482  -0.9057  -0.8655  -0.8602  -0.8100  -0.7648  -0.7380
    -0.6561  -0.6463  -0.6021  -0.5919  -0.5797  -0.5416  -0.4947  -0.4140
    -0.3178  -0.2726  -0.2210  -0.0674   0.0059   0.1413   0.1939   0.2592
     0.2757   0.3754   0.4035   0.4057   0.4875   0.5311   0.5877   0.6196
     0.6244   0.6370   0.8020   1.1133   1.4971   1.4981   1.5701   1.5706
     2.7199   3.5423   3.5998   3.6134   3.6394   3.7255   3.7492   3.7594
     3.7612   3.8820   3.8969

     the Fermi energy is     3.2219 ev

!    total energy              =   -2973.87568287 Ry
     estimated scf accuracy    <       0.00000007 Ry
     smearing contrib. (-TS)   =      -0.02178368 Ry
     internal energy E=F+TS    =   -2973.85389919 Ry

     The total energy is F=E-TS. E is the sum of the following terms:
     one-electron contribution =  -24185.12320878 Ry
     hartree contribution      =   12184.11009563 Ry
     xc contribution           =    -493.99748175 Ry
     ewald contribution        =    9521.15632781 Ry
     electric field correction =       0.00036790 Ry

     convergence has been achieved in  84 iterations

     Forces acting on atoms (cartesian axes, Ry/au):

     atom    1 type  1   force =     0.00016418   -0.00030362    0.09556993
     atom    2 type  1   force =     0.00004409   -0.00045428   -0.17580031
     atom    3 type  2   force =     0.00023124    0.00001934   -0.02352340
     atom    4 type  2   force =     0.00008579   -0.00152649    0.05312733
     atom    5 type  2   force =    -0.01024908   -0.00137228    0.00262092
     atom    6 type  2   force =     0.01291853   -0.00102022    0.00440466
     atom    7 type  1   force =     0.00139785    0.00128384   -0.00564562
     atom    8 type  1   force =    -0.00059458    0.01375095    0.01967996
     atom    9 type  2   force =     0.00024359   -0.00056179    0.00101981
     atom   10 type  2   force =    -0.00153621   -0.00072130   -0.01579235
     atom   11 type  2   force =    -0.00105120    0.00026074   -0.00020822
     atom   12 type  2   force =     0.00040135    0.00000413    0.00014812
     atom   13 type  1   force =     0.00055398    0.00083790    0.00028994
     atom   14 type  1   force =    -0.00022234   -0.00006704    0.00044832
     atom   15 type  2   force =    -0.00035647    0.00000622   -0.00037756
     atom   16 type  2   force =     0.00000259   -0.00085501   -0.00041237
     atom   17 type  2   force =    -0.00061258   -0.00023732   -0.00025357
     atom   18 type  2   force =     0.00015648   -0.00028778   -0.00045454
     atom   19 type  1   force =     0.00074597   -0.00058773   -0.00090583
     atom   20 type  1   force =    -0.00069113   -0.00078572   -0.00044865
     atom   21 type  2   force =     0.00007332    0.00001573    0.10321952
     atom   22 type  2   force =    -0.00008198    0.00119219    0.00045823
     atom   23 type  2   force =    -0.07147742   -0.00007747   -0.02757715
     atom   24 type  2   force =     0.07144370    0.00038108   -0.02763004
     atom   25 type  1   force =     0.00009563   -0.00026476    0.09537275
     atom   26 type  1   force =     0.00004366   -0.00022758   -0.17587583
     atom   27 type  2   force =     0.00024806   -0.00036313   -0.02228001
     atom   28 type  2   force =     0.00008135   -0.00121981    0.05317937
     atom   29 type  2   force =    -0.01028969    0.00029600    0.00173355
     atom   30 type  2   force =     0.01288025    0.00085598    0.00359296
     atom   31 type  1   force =     0.00161934    0.00305259   -0.01049584
     atom   32 type  1   force =    -0.00067191   -0.01565164    0.01965994
     atom   33 type  2   force =     0.00053765    0.00064729    0.00017175
     atom   34 type  2   force =    -0.00085205    0.00099649   -0.01347152
     atom   35 type  2   force =     0.00110203    0.00005275   -0.00043390
     atom   36 type  2   force =    -0.00120245    0.00013305   -0.00019849
     atom   37 type  1   force =    -0.00031525   -0.00045390    0.00007286
     atom   38 type  1   force =    -0.00091394    0.00036287   -0.00038988
     atom   39 type  2   force =    -0.00046377   -0.00052057    0.00016791
     atom   40 type  2   force =     0.00009766    0.00096272    0.00012409
     atom   41 type  2   force =    -0.00115668    0.00049154    0.00052848
     atom   42 type  2   force =     0.00105991   -0.00024511    0.00049102
     atom   43 type  1   force =    -0.00017921    0.00090744   -0.00043671
     atom   44 type  1   force =    -0.00046005    0.00054550   -0.00163077
     atom   45 type  2   force =     0.00007299    0.00001366    0.10322102
     atom   46 type  2   force =    -0.07147664   -0.00003985   -0.02757450
     atom   47 type  2   force =     0.07144347    0.00038468   -0.02761281
     atom   48 type  3   force =    -0.00023267    0.00032938    0.00064114
     atom   49 type  4   force =     0.00005272   -0.00005048   -0.00059979
     atom   50 type  5   force =    -0.00108508   -0.00044381    0.00042311
     atom   51 type  3   force =     0.00142642    0.00208105    0.00009504
     atom   52 type  5   force =    -0.00110327   -0.00234522   -0.00226975
     atom   53 type  5   force =    -0.00052543   -0.00077778    0.00271060
     atom   54 type  2   force =    -0.00095508   -0.00033695    0.00110438
     atom   55 type  5   force =    -0.00084262    0.00151377   -0.00083841
     atom   56 type  5   force =     0.00037495    0.00041977   -0.00113888

     Total force =     0.366070     Total SCF correction =     0.000678
  @ DRIVER MODE: Message from server: STATUS
  @ DRIVER MODE: Message from server: GETFORCE
  @ DRIVER MODE: Returning v,forces,stress,ensemble

     Writing output data file ./calc.save/
  @ DRIVER MODE: Message from server: EXIT
  @ DRIVE MODE: Exiting

     General routines

     Parallel routines

   This run was terminated on:   0:54: 8  16Sep2021

   JOB DONE.