     Program PWSCF v.6.7GPU starts on 24Sep2021 at  3:29:14

     R & G space division:  proc/nbgrp/npool/nimage =       8
     Reading input from /storage/home/hcoda1/3/ntian30/research/carbon/CxH_vib/H2O_calc/ads_slab/CH3NNHHHHO_a/out_0041/pw.inp
Warning: card &CELL ignored
Warning: card   CELL_DYNAMICS='IPI', ignored
Warning: card / ignored

     Current dimensions of program PWSCF are:
     Max number of different atomic species (ntypx) = 10
     Max number of k-points (npk) =  40000
     Max angular momentum in pseudopotentials (lmaxx) =  3
     Presently no symmetry can be used with electric field

     Message from routine cell_base_init:
     DEPRECATED: use true lattice parameter, not A to a.u. conversion factor

     IMPORTANT: XC functional enforced from input :
     Exchange-correlation= BEEF-VDW
                           (   1   4  43  14   2   0   0)
     Any further DFT definition will be discarded
     Please, verify this is what you really want

  @ DRIVER MODE: Connecting to
 qe_1139763_2947308.sched-torque.pace.gatech.eduf6fb6_vq_scratch
  using UNIX socket
  @ DRIVER MODE: Message from server: STATUS
  @ DRIVER MODE: Message from server: INIT
  @ DRIVER MODE: Receiving replica           0          -1
  @ DRIVER MODE: Receiving encoded integer          25
  @ DRIVER MODE:  SCF:  T  FORCE:  T  STRESS:  F  VC:  F  ENSEMBLE:  F
  @ DRIVER MODE:  SCF:  T  FORCE:  T  STRESS:  F  VC:  F  ENSEMBLE:  F

     Using Slab Decomposition

     bravais-lattice index     =            0
     lattice parameter (alat)  =       1.8897  a.u.
     unit-cell volume          =    6658.9804 (a.u.)^3
     number of atoms/cell      =           58
     number of atomic types    =            5
     number of electrons       =       405.00
     number of Kohn-Sham states=          212
     kinetic-energy cutoff     =      29.3995  Ry
     charge density cutoff     =     293.9946  Ry
     scf convergence threshold =      7.3E-08
     mixing beta               =       0.0500
     number of iterations used =            8  plain     mixing
     Exchange-correlation= BEEF-VDW
                           (   1   4  43  14   2   0   0)

     celldm(1)=   1.889726  celldm(2)=   0.000000  celldm(3)=   0.000000
     celldm(4)=   0.000000  celldm(5)=   0.000000  celldm(6)=   0.000000

     crystal axes: (cart. coord. in units of alat)
               a(1) = (   6.579727   0.000000   0.000000 )
               a(2) = (  -0.000775   5.961596   0.000000 )
               a(3) = (   0.000000   0.000000  25.155947 )

     reciprocal axes: (cart. coord. in units 2 pi/alat)
               b(1) = (  0.151982  0.000020  0.000000 )
               b(2) = (  0.000000  0.167740  0.000000 )
               b(3) = (  0.000000  0.000000  0.039752 )

     PseudoPot. # 1 for Ti read from file:
     /storage/coda1/p-amedford6/0/shared/rich_project_chbe-medford/medford-share/data/pseudos_module/espresso/nninc/pbe/van/Ti.UPF
     MD5 check sum: 8e4df49b7f0d34bbd5052bf3f5ea0213
     Pseudo is Ultrasoft, Zval = 12.0
     Generated by new atomic code, or converted to UPF format
     Using radial grid of  851 points,  6 beta functions with:
                l(1) =   0
                l(2) =   0
                l(3) =   1
                l(4) =   1
                l(5) =   2
                l(6) =   2
     Q(r) pseudized with  8 coefficients,  rinner =    1.000   1.000   1.000
                                                       1.000   1.000

     PseudoPot. # 2 for O  read from file:
     /storage/coda1/p-amedford6/0/shared/rich_project_chbe-medford/medford-share/data/pseudos_module/espresso/nninc/pbe/van/O.UPF
     MD5 check sum: 78c19812648e8988a0fe644b0f25305e
     Pseudo is Ultrasoft, Zval =  6.0
     Generated by new atomic code, or converted to UPF format
     Using radial grid of  737 points,  4 beta functions with:
                l(1) =   0
                l(2) =   0
                l(3) =   1
                l(4) =   1
     Q(r) pseudized with  8 coefficients,  rinner =    0.800   0.800   0.800

     PseudoPot. # 3 for N  read from file:
     /storage/coda1/p-amedford6/0/shared/rich_project_chbe-medford/medford-share/data/pseudos_module/espresso/nninc/pbe/van/N.UPF
     MD5 check sum: 90d10febe142ad51ac9d5be1deb811c4
     Pseudo is Ultrasoft, Zval =  5.0
     Generated by new atomic code, or converted to UPF format
     Using radial grid of  729 points,  4 beta functions with:
                l(1) =   0
                l(2) =   0
                l(3) =   1
                l(4) =   1
     Q(r) pseudized with  8 coefficients,  rinner =    0.800   0.800   0.800

     PseudoPot. # 4 for C  read from file:
     /storage/coda1/p-amedford6/0/shared/rich_project_chbe-medford/medford-share/data/pseudos_module/espresso/nninc/pbe/van/C.UPF
     MD5 check sum: 1a69bf6b8db32088f5b2163dbdb77a27
     Pseudo is Ultrasoft, Zval =  4.0
     Generated by new atomic code, or converted to UPF format
     Using radial grid of  721 points,  4 beta functions with:
                l(1) =   0
                l(2) =   0
                l(3) =   1
                l(4) =   1
     Q(r) pseudized with  8 coefficients,  rinner =    0.800   0.800   0.800

     PseudoPot. # 5 for H  read from file:
     /storage/coda1/p-amedford6/0/shared/rich_project_chbe-medford/medford-share/data/pseudos_module/espresso/nninc/pbe/van/H.UPF
     MD5 check sum: b5ee9d7bfd3a09ee7748110bda690ff7
     Pseudo is Ultrasoft, Zval =  1.0
     Generated by new atomic code, or converted to UPF format
     Using radial grid of  615 points,  1 beta functions with:
                l(1) =   0
     Q(r) pseudized with  8 coefficients,  rinner =    0.800

     atomic species   valence    mass     pseudopotential
        Ti1           12.00    47.86700     Ti( 1.00)
        O1             6.00    15.99900     O ( 1.00)
        N1             5.00    14.00700     N ( 1.00)
        C1             4.00    12.01100     C ( 1.00)
        H1             1.00     1.00800     H ( 1.00)

     No symmetry found

   Cartesian axes

     site n.     atom                  positions (alat units)
         1           Ti1 tau(   1) = (   0.0004258   2.9801865   6.0000000  )
         2           Ti1 tau(   2) = (   3.2906075   1.4906267   6.0002472  )
         3           O1  tau(   3) = (   0.0006271   0.0005054   7.9858123  )
         4           O1  tau(   4) = (   3.2906025   0.0005020   7.3038282  )
         5           O1  tau(   5) = (   4.5942328   1.4918067   9.2879030  )
         6           O1  tau(   6) = (   1.9868534   1.4903216   9.2879459  )
         7           Ti1 tau(   7) = (   3.2907910   2.8959150   9.1758416  )
         8           Ti1 tau(   8) = (   0.0015273   1.4827037   9.2680791  )
         9           O1  tau(   9) = (   3.3066316   0.0080679  11.3583267  )
        10           O1  tau(  10) = (   0.0116148   5.9584955  10.6183126  )
        11           O1  tau(  11) = (   1.3000076   1.5005770  12.6434233  )
        12           O1  tau(  12) = (   5.3281586   1.4930334  12.6431679  )
        13           Ti1 tau(  13) = (   0.0126194   3.0144704  12.5166071  )
        14           Ti1 tau(  14) = (   3.3185830   1.5708444  12.4374219  )
        15           O1  tau(  15) = (   0.0449490   0.0685618  14.6579901  )
        16           O1  tau(  16) = (   3.3164028   5.8986079  13.9921319  )
        17           O1  tau(  17) = (   4.5763498   1.4919541  16.1892649  )
        18           O1  tau(  18) = (   2.0390356   1.5007807  16.1677599  )
        19           Ti1 tau(  19) = (   3.3152479   2.9236451  15.6986563  )
        20           Ti1 tau(  20) = (   0.0808212   1.4292116  16.0039943  )
        21           O1  tau(  21) = (   3.2904802   0.0005063   4.7018136  )
        22           O1  tau(  22) = (   0.0303022   5.8046116  17.1736243  )
        23           O1  tau(  23) = (   1.3043587   1.4918075   6.0039043  )
        24           O1  tau(  24) = (   5.2767064   1.4903225   6.0039473  )
        25           Ti1 tau(  25) = (   0.0000382   5.9609847   6.0000000  )
        26           Ti1 tau(  26) = (   3.2902200   4.4714249   6.0002472  )
        27           O1  tau(  27) = (   0.0002396   2.9813036   7.9858123  )
        28           O1  tau(  28) = (   3.2902150   2.9813002   7.3038282  )
        29           O1  tau(  29) = (   4.5938453   4.4726049   9.2879030  )
        30           O1  tau(  30) = (   1.9864658   4.4711199   9.2879459  )
        31           Ti1 tau(  31) = (   3.2891106   5.8743827   9.1763621  )
        32           Ti1 tau(  32) = (   0.0006254   4.4649316   9.2693709  )
        33           O1  tau(  33) = (   3.3101163   2.9547251  11.3177968  )
        34           O1  tau(  34) = (   0.0092240   2.9805883  10.6323155  )
        35           O1  tau(  35) = (   1.2917786   4.4638488  12.6831265  )
        36           O1  tau(  36) = (   5.3332004   4.4701953  12.6833355  )
        37           Ti1 tau(  37) = (   0.0360484   0.0435164  12.5022323  )
        38           Ti1 tau(  38) = (   3.3166134   4.6596848  12.7231989  )
        39           O1  tau(  39) = (   6.5734590   2.9070644  14.8960501  )
        40           O1  tau(  40) = (   3.3256711   2.9499323  13.9293234  )
        41           O1  tau(  41) = (   4.5718193   4.3849529  16.1598725  )
        42           O1  tau(  42) = (   2.0293811   4.3548050  16.0908550  )
        43           Ti1 tau(  43) = (   3.3839698   5.9011270  16.3477160  )
        44           Ti1 tau(  44) = (   0.0762916   4.6312412  15.8077656  )
        45           O1  tau(  45) = (   3.2900926   2.9813045   4.7018136  )
        46           O1  tau(  46) = (   1.3039711   4.4726057   6.0039043  )
        47           O1  tau(  47) = (   5.2763189   4.4711207   6.0039473  )
        48           N1  tau(  48) = (   1.0338470   3.0145746  18.8549854  )
        49           N1  tau(  49) = (   6.4614719   2.5758313  18.0922931  )
        50           C1  tau(  50) = (   0.6385090   3.7489381  20.0602371  )
        51           H1  tau(  51) = (   6.5128770   4.5633600  19.8465500  )
        52           H1  tau(  52) = (   0.1876125   3.0656416  20.7809517  )
        53           H1  tau(  53) = (   1.5398112   4.1767214  20.4987412  )
        54           H1  tau(  54) = (   5.7034478   3.2665398  18.1348723  )
        55           H1  tau(  55) = (   6.1095767   1.7263867  18.5341855  )
        56           H1  tau(  56) = (   1.5400177   3.6533120  18.2466354  )
        57           O1  tau(  57) = (   3.2295176   5.8880611  18.1942677  )
        58           H1  tau(  58) = (   2.6769533   0.6239085  18.5854980  )

     number of k points=    10  Fermi-Dirac smearing, width (Ry)=  0.0073
                       cart. coord. in units 2pi/alat
        k(    1) = (   0.0000000   0.0000000   0.0000000), wk =   0.1250000
        k(    2) = (   0.0000000   0.0419351   0.0000000), wk =   0.2500000
        k(    3) = (   0.0000000  -0.0838702   0.0000000), wk =   0.1250000
        k(    4) = (   0.0379955   0.0000049   0.0000000), wk =   0.2500000
        k(    5) = (   0.0379955   0.0419400   0.0000000), wk =   0.2500000
        k(    6) = (   0.0379955  -0.0838652   0.0000000), wk =   0.2500000
        k(    7) = (   0.0379955  -0.0419301   0.0000000), wk =   0.2500000
        k(    8) = (  -0.0759910  -0.0000099   0.0000000), wk =   0.1250000
        k(    9) = (  -0.0759910   0.0419252   0.0000000), wk =   0.2500000
        k(   10) = (  -0.0759910  -0.0838800   0.0000000), wk =   0.1250000

     Initial potential from superposition of free atoms

     starting charge  388.99913, renormalised to  405.00000

     negative rho (up, down):  1.325E-02 0.000E+00

     %%%%%%%%%%%%%%%%%%%%%%%%%%%%%%%%%%%%%%%%%%%%%%%%%%%%%%%%%%%%%%%%%%%%%%%%
     %                                                                      %
     % You are using vdW-DF, which was implemented by the Thonhauser group. %
     % Please cite the following two papers that made this development      %
     % possible and the two reviews that describe the various versions:     %
     %                                                                      %
     %   T. Thonhauser et al., PRL 115, 136402 (2015).                      %
     %   T. Thonhauser et al., PRB 76, 125112 (2007).                       %
     %   K. Berland et al., Rep. Prog. Phys. 78, 066501 (2015).             %
     %   D.C. Langreth et al., J. Phys.: Condens. Matter 21, 084203 (2009). %
     %                                                                      %
     %                                                                      %
     % If you are calculating the stress with vdW-DF, please also cite:     %
     %                                                                      %
     %   R. Sabatini et al., J. Phys.: Condens. Matter 24, 424209 (2012).   %
     %                                                                      %
     %%%%%%%%%%%%%%%%%%%%%%%%%%%%%%%%%%%%%%%%%%%%%%%%%%%%%%%%%%%%%%%%%%%%%%%%

     Adding external electric field

     Computed dipole along edir(3) :
        Dipole              -14.7644 Ry au,        -37.5273 Debye
        Dipole field         -0.0279 Ry au,

        Potential amp.        2.5828 Ry
        Total length         46.3494 bohr

     Starting wfcs are  307 atomic wfcs
  @ DRIVER MODE: Message from server: STATUS
  @ DRIVER MODE: Message from server: POSDATA
  @ DRIVER MODE: Reading and sharing cell
  @ DRIVER MODE: Reading and sharing positions
  @ DRIVER MODE: Received positions

     Self-consistent Calculation

     iteration #  1     ecut=    29.40 Ry     beta= 0.05
     Davidson diagonalization with overlap
     c_bands:  3 eigenvalues not converged
     c_bands:  4 eigenvalues not converged
     c_bands:  2 eigenvalues not converged
     c_bands:  3 eigenvalues not converged
     c_bands:  3 eigenvalues not converged
     c_bands:  3 eigenvalues not converged
     ethr =  1.00E-05,  avg # of iterations = 23.2

[...]

     total energy              =   -2204.23614574 Ry
     estimated scf accuracy    <    8785.80757876 Ry

     iteration #  2     ecut=    29.40 Ry     beta= 0.05
     Davidson diagonalization with overlap
     ethr =  1.00E-02,  avg # of iterations = 29.6

[...]

     iteration # 41     ecut=    29.40 Ry     beta= 0.05
     Davidson diagonalization with overlap
     c_bands:  1 eigenvalues not converged
     ethr =  9.71E-07,  avg # of iterations = 10.9

[...]

     total energy              =   -2976.49822477 Ry
     estimated scf accuracy    <       0.00000009 Ry

     iteration # 65     ecut=    29.40 Ry     beta= 0.05
     Davidson diagonalization with overlap
     ethr =  2.26E-11,  avg # of iterations =  6.6

     negative rho (up, down):  1.443E-02 0.000E+00

     Adding external electric field

     Computed dipole along edir(3) :
        Dipole                0.9901 Ry au,          2.5166 Debye
        Dipole field          0.0019 Ry au,

        Potential amp.       -0.1732 Ry
        Total length         46.3494 bohr

     End of self-consistent calculation

          k = 0.0000 0.0000 0.0000 ( 18029 PWs)   bands (ev):

   -55.5834 -55.4997 -55.4656 -55.3642 -55.3436 -55.3278 -55.3140 -55.3072
   -55.2940 -55.2645 -55.2208 -55.0984 -55.0873 -55.0107 -54.4688 -54.4348
   -31.9842 -31.9199 -31.8782 -31.8313 -31.8296 -31.8106 -31.8002 -31.7906
   -31.7510 -31.7456 -31.7278 -31.6523 -31.6281 -31.6082 -31.6062 -31.6045
   -31.5981 -31.5864 -31.5839 -31.5573 -31.5511 -31.5261 -31.5253 -31.5135
   -31.4984 -31.4873 -31.4794 -31.4622 -31.4581 -31.4550 -31.4454 -31.4396
   -31.4356 -31.4165 -31.3746 -31.3726 -31.3019 -31.2950 -31.2805 -31.2603
   -31.2234 -31.2161 -30.8745 -30.7890 -30.7665 -30.6922 -30.6058 -30.4939
   -17.5770 -16.4010 -16.1407 -15.9782 -15.7625 -15.6768 -15.6485 -15.4559
   -15.3505 -15.2976 -15.1113 -15.0661 -15.0346 -15.0235 -15.0082 -14.9855
   -14.9656 -14.9275 -14.9190 -14.9087 -14.9031 -14.8646 -14.8422 -14.7916
   -14.7693 -14.7063 -14.6341 -14.5665 -14.5190 -14.2577 -14.2403 -12.9678
   -12.9673 -12.8510  -9.4584  -6.1683  -5.1996  -4.6307  -3.9626  -3.5053
    -3.4044  -3.3886  -3.3334  -3.2700  -3.1690  -2.9970  -2.8882  -2.8339
    -2.7338  -2.6263  -2.5714  -2.5077  -2.4780  -2.4315  -2.3985  -2.3865
    -2.3800  -2.2838  -2.2752  -2.2481  -2.2128  -2.1568  -2.1411  -2.0628
    -2.0268  -2.0184  -1.8941  -1.8811  -1.8155  -1.8112  -1.8049  -1.7712
    -1.7503  -1.7354  -1.7063  -1.6226  -1.5695  -1.4991  -1.4762  -1.4465
    -1.1870  -1.0954  -1.0577  -1.0304  -0.9322  -0.9137  -0.9007  -0.8986
    -0.8849  -0.8351  -0.7879  -0.7048  -0.5946  -0.5710  -0.5661  -0.5213
    -0.4559  -0.3740  -0.3009  -0.2713  -0.2340  -0.2208  -0.1547  -0.0770
    -0.0611  -0.0487   0.0602   0.0747   0.1565   0.2158   0.2292   0.2738
     0.3152   0.3482   0.4042   0.4406   0.4711   0.4770   0.5104   0.5547
     0.6105   0.6412   0.6689   0.7512   0.8067   0.8520   0.8798   1.0512
     1.0811   1.1377   1.1774   1.2646   1.5074   1.5577   1.5969   1.7520
     2.1240   2.1691   3.5849   3.7360   3.7511   3.8204   3.8456   3.9367
     4.0743   4.1419   4.2784   4.3359

[...]

          k = 0.0380-0.0419 0.0000 ( 17876 PWs)   bands (ev):

[...]

          k =-0.0760-0.0000 0.0000 ( 17886 PWs)   bands (ev):

[...]

          k =-0.0760-0.0839 0.0000 ( 17948 PWs)   bands (ev):

   -55.5826 -55.4827 -55.4824 -55.3629 -55.3305 -55.3202 -55.3146 -55.3109
   -55.3105 -55.2565 -55.2288 -55.0953 -55.0884 -55.0137 -54.4519 -54.4516
   -31.8671 -31.8092 -31.8037 -31.7996 -31.7994 -31.7849 -31.7762 -31.7759
   -31.7073 -31.6510 -31.6431 -31.6357 -31.6308 -31.6175 -31.6028 -31.6026
   -31.6006 -31.5995 -31.5861 -31.5753 -31.5678 -31.5589 -31.5383 -31.5201
   -31.5175 -31.5136 -31.5064 -31.5033 -31.4908 -31.4835 -31.4810 -31.4754
   -31.4702 -31.4517 -31.4459 -31.3686 -31.3564 -31.3426 -31.3038 -31.2990
   -31.2655 -31.2194 -30.7793 -30.7791 -30.6876 -30.6872 -30.6492 -30.6488
   -17.5709 -16.3868 -15.7486 -15.5709 -15.4746 -15.4681 -15.3374 -15.2720
   -15.2628 -15.2290 -15.2095 -15.1945 -15.1618 -15.1444 -15.1047 -15.0519
   -15.0186 -14.9958 -14.9843 -14.9472 -14.9347 -14.9127 -14.9055 -14.8969
   -14.8385 -14.8065 -14.7974 -14.7666 -14.5711 -14.5486 -14.3729 -12.9694
   -12.9530 -12.9528  -9.4560  -6.1534  -5.2013  -4.6407  -3.9586  -3.1699
    -2.9229  -2.7798  -2.7036  -2.5692  -2.5596  -2.5017  -2.4897  -2.4488
    -2.4404  -2.3994  -2.3455  -2.3298  -2.2863  -2.2813  -2.2506  -2.2380
    -2.2275  -2.2184  -2.1932  -2.1737  -2.1649  -2.1240  -2.1194  -2.1037
    -2.0837  -2.0675  -2.0399  -2.0290  -1.9887  -1.9490  -1.8837  -1.8103
    -1.7245  -1.6418  -1.6313  -1.6206  -1.5740  -1.5676  -1.5208  -1.5088
    -1.4619  -1.4095  -1.2965  -1.1726  -1.1341  -1.1074  -1.0754  -1.0429
    -0.9885  -0.9657  -0.9308  -0.8824  -0.8505  -0.7267  -0.7157  -0.6503
    -0.5635  -0.5314  -0.4568  -0.4435  -0.4287  -0.4126  -0.3910  -0.3742
    -0.3443  -0.3272  -0.2244  -0.2003  -0.1972  -0.1742  -0.1225  -0.0211
     0.0536   0.1360   0.2387   0.2887   0.3162   0.3500   0.4500   0.5682
     0.5934   0.6565   0.6883   0.7311   0.7983   0.8190   0.8669   0.9519
     1.0053   1.0377   1.0639   1.0689   1.1237   1.1536   1.9207   1.9292
     1.9894   1.9896   3.7987   4.0746   4.1003   4.1163   4.1536   4.1578
     4.1799   4.1944   4.2593   4.2748

     the Fermi energy is     3.6219 ev

!    total energy              =   -2976.49828206 Ry
     estimated scf accuracy    <       0.00000003 Ry
     smearing contrib. (-TS)   =      -0.01952587 Ry
     internal energy E=F+TS    =   -2976.47875619 Ry

     The total energy is F=E-TS. E is the sum of the following terms:
     one-electron contribution =  -23034.94428680 Ry
     hartree contribution      =   11613.81775626 Ry
     xc contribution           =    -495.70974889 Ry
     ewald contribution        =    8940.35567319 Ry
     electric field correction =       0.00185004 Ry

     convergence has been achieved in  65 iterations

     Forces acting on atoms (cartesian axes, Ry/au):

     atom    1 type  1   force =     0.00001196   -0.00022595    0.09406632
     atom    2 type  1   force =    -0.00016142    0.00025408   -0.17515204
     atom    3 type  2   force =     0.00007388   -0.00016375   -0.02115517
     atom    4 type  2   force =     0.00000365   -0.00104302    0.05355327
     atom    5 type  2   force =    -0.00455462   -0.00322667    0.00114228
     atom    6 type  2   force =     0.00661291   -0.00242631    0.00160672
     atom    7 type  1   force =     0.00037543    0.00457839    0.01037123
     atom    8 type  1   force =    -0.00056182    0.00198629    0.00311545
     atom    9 type  2   force =     0.00010374   -0.00049943   -0.00048767
     atom   10 type  2   force =    -0.00030948   -0.00004631   -0.01131698
     atom   11 type  2   force =    -0.00023121    0.00046153    0.00003873
     atom   12 type  2   force =    -0.00027125    0.00067676    0.00007713
     atom   13 type  1   force =     0.00061519   -0.00065404    0.00023816
     atom   14 type  1   force =    -0.00035834    0.00017651    0.00020139
     atom   15 type  2   force =    -0.00017466    0.00002001    0.00048540
     atom   16 type  2   force =     0.00005250   -0.00002531    0.00042266
     atom   17 type  2   force =    -0.00033205    0.00029001    0.00010324
     atom   18 type  2   force =     0.00009475    0.00007955    0.00020154
     atom   19 type  1   force =    -0.00021863    0.00047917   -0.00030937
     atom   20 type  1   force =     0.00015912   -0.00013876    0.00006363
     atom   21 type  2   force =     0.00002903   -0.00001439    0.10313108
     atom   22 type  2   force =    -0.00009292   -0.00029308   -0.00036854
     atom   23 type  2   force =    -0.07214620   -0.00020972   -0.02726522
     atom   24 type  2   force =     0.07205053    0.00023416   -0.02734401
     atom   25 type  1   force =     0.00006885   -0.00034544    0.09404358
     atom   26 type  1   force =    -0.00000349   -0.00128713   -0.17517951
     atom   27 type  2   force =     0.00015472   -0.00021450   -0.01993380
     atom   28 type  2   force =     0.00008674   -0.00111226    0.04907529
     atom   29 type  2   force =    -0.00669217    0.00152483    0.00211880
     atom   30 type  2   force =     0.00856089    0.00170404    0.00249086
     atom   31 type  1   force =     0.00049530   -0.00019580    0.00052875
     atom   32 type  1   force =    -0.00020382   -0.00144791    0.00351550
     atom   33 type  2   force =    -0.00007807   -0.00000147   -0.00002655
     atom   34 type  2   force =    -0.00088781    0.00246335   -0.01152243
     atom   35 type  2   force =     0.00004052   -0.00043831    0.00048000
     atom   36 type  2   force =    -0.00053910   -0.00041522    0.00033708
     atom   37 type  1   force =     0.00036379    0.00027723    0.00004413
     atom   38 type  1   force =    -0.00038119    0.00020059    0.00029958
     atom   39 type  2   force =    -0.00052799    0.00044304    0.00049790
     atom   40 type  2   force =    -0.00001975   -0.00007035   -0.00005553
     atom   41 type  2   force =    -0.00026182   -0.00037034    0.00033575
     atom   42 type  2   force =    -0.00020752   -0.00025632   -0.00025900
     atom   43 type  1   force =    -0.00014584   -0.00029071    0.00081671
     atom   44 type  1   force =    -0.00006120    0.00040648   -0.00006451
     atom   45 type  2   force =     0.00001976   -0.00001457    0.10298659
     atom   46 type  2   force =    -0.07215409   -0.00008841   -0.02726146
     atom   47 type  2   force =     0.07200803    0.00034974   -0.02730358
     atom   48 type  3   force =    -0.00031543   -0.00023876   -0.00053347
     atom   49 type  3   force =     0.00057837   -0.00129003   -0.00123981
     atom   50 type  4   force =     0.00019158   -0.00007161    0.00028761
     atom   51 type  5   force =    -0.00025547    0.00019265    0.00006559
     atom   52 type  5   force =    -0.00009800   -0.00079687   -0.00001352
     atom   53 type  5   force =     0.00022954   -0.00053992    0.00002733
     atom   54 type  5   force =    -0.00002850    0.00067891    0.00097084
     atom   55 type  5   force =    -0.00062845    0.00085714    0.00038873
     atom   56 type  5   force =     0.00036934    0.00021454   -0.00038403
     atom   57 type  2   force =    -0.00020316    0.00051959   -0.00077687
     atom   58 type  5   force =    -0.00024467   -0.00061590   -0.00017578

     Total force =     0.361739     Total SCF correction =     0.000448
  @ DRIVER MODE: Message from server: STATUS
  @ DRIVER MODE: Message from server: GETFORCE
  @ DRIVER MODE: Returning v,forces,stress,ensemble

     Writing output data file ./calc.save/
  @ DRIVER MODE: Message from server: EXIT
  @ DRIVE MODE: Exiting

     General routines

     Parallel routines

   This run was terminated on:   3:54:23  24Sep2021

   JOB DONE.