     Program PWSCF v.6.7GPU starts on  9Sep2021 at  4:54:54

     R & G space division:  proc/nbgrp/npool/nimage =      10
     Reading input from /storage/home/hcoda1/3/ntian30/research/carbon/CxH_vib/CH3_calc/ads_slab/CH3NNHHH_a/out_0021/pw.inp
Warning: card &CELL ignored
Warning: card   CELL_DYNAMICS='IPI', ignored
Warning: card / ignored

     Current dimensions of program PWSCF are:
     Max number of different atomic species (ntypx) = 10
     Max number of k-points (npk) =  40000
     Max angular momentum in pseudopotentials (lmaxx) =  3
     Presently no symmetry can be used with electric field

     Message from routine cell_base_init:
     DEPRECATED: use true lattice parameter, not A to a.u. conversion factor

     IMPORTANT: XC functional enforced from input :
     Exchange-correlation= BEEF-VDW
                           (   1   4  43  14   2   0   0)
     Any further DFT definition will be discarded
     Please, verify this is what you really want

  @ DRIVER MODE: Connecting to
 qe_1139763_2767399.sched-torque.pace.gatech.edugj4kruwq_scratch
  using UNIX socket
  @ DRIVER MODE: Message from server: STATUS
  @ DRIVER MODE: Message from server: INIT
  @ DRIVER MODE: Receiving replica           0          -1
  @ DRIVER MODE: Receiving encoded integer          25
  @ DRIVER MODE:  SCF:  T  FORCE:  T  STRESS:  F  VC:  F  ENSEMBLE:  F
  @ DRIVER MODE:  SCF:  T  FORCE:  T  STRESS:  F  VC:  F  ENSEMBLE:  F

     Using Slab Decomposition

     bravais-lattice index     =            0
     lattice parameter (alat)  =       1.8897  a.u.
     unit-cell volume          =    6658.9804 (a.u.)^3
     number of atoms/cell      =           56
     number of atomic types    =            5
     number of electrons       =       398.00
     number of Kohn-Sham states=          209
     kinetic-energy cutoff     =      29.3995  Ry
     charge density cutoff     =     293.9946  Ry
     scf convergence threshold =      7.3E-08
     mixing beta               =       0.0500
     number of iterations used =            8  plain     mixing
     Exchange-correlation= BEEF-VDW
                           (   1   4  43  14   2   0   0)

     celldm(1)=   1.889726  celldm(2)=   0.000000  celldm(3)=   0.000000
     celldm(4)=   0.000000  celldm(5)=   0.000000  celldm(6)=   0.000000

     crystal axes: (cart. coord. in units of alat)
               a(1) = (   6.579727   0.000000   0.000000 )
               a(2) = (  -0.000775   5.961596   0.000000 )
               a(3) = (   0.000000   0.000000  25.155947 )

     reciprocal axes: (cart. coord. in units 2 pi/alat)
               b(1) = (  0.151982  0.000020  0.000000 )
               b(2) = (  0.000000  0.167740  0.000000 )
               b(3) = (  0.000000  0.000000  0.039752 )

     PseudoPot. # 1 for Ti read from file:
     /storage/coda1/p-amedford6/0/shared/rich_project_chbe-medford/medford-share/data/pseudos_module/espresso/nninc/pbe/van/Ti.UPF
     MD5 check sum: 8e4df49b7f0d34bbd5052bf3f5ea0213
     Pseudo is Ultrasoft, Zval = 12.0
     Generated by new atomic code, or converted to UPF format
     Using radial grid of  851 points,  6 beta functions with:
                l(1) =   0
                l(2) =   0
                l(3) =   1
                l(4) =   1
                l(5) =   2
                l(6) =   2
     Q(r) pseudized with  8 coefficients,  rinner =    1.000   1.000   1.000
                                                       1.000   1.000

     PseudoPot. # 2 for O  read from file:
     /storage/coda1/p-amedford6/0/shared/rich_project_chbe-medford/medford-share/data/pseudos_module/espresso/nninc/pbe/van/O.UPF
     MD5 check sum: 78c19812648e8988a0fe644b0f25305e
     Pseudo is Ultrasoft, Zval =  6.0
     Generated by new atomic code, or converted to UPF format
     Using radial grid of  737 points,  4 beta functions with:
                l(1) =   0
                l(2) =   0
                l(3) =   1
                l(4) =   1
     Q(r) pseudized with  8 coefficients,  rinner =    0.800   0.800   0.800

     PseudoPot. # 3 for N  read from file:
     /storage/coda1/p-amedford6/0/shared/rich_project_chbe-medford/medford-share/data/pseudos_module/espresso/nninc/pbe/van/N.UPF
     MD5 check sum: 90d10febe142ad51ac9d5be1deb811c4
     Pseudo is Ultrasoft, Zval =  5.0
     Generated by new atomic code, or converted to UPF format
     Using radial grid of  729 points,  4 beta functions with:
                l(1) =   0
                l(2) =   0
                l(3) =   1
                l(4) =   1
     Q(r) pseudized with  8 coefficients,  rinner =    0.800   0.800   0.800

     PseudoPot. # 4 for C  read from file:
     /storage/coda1/p-amedford6/0/shared/rich_project_chbe-medford/medford-share/data/pseudos_module/espresso/nninc/pbe/van/C.UPF
     MD5 check sum: 1a69bf6b8db32088f5b2163dbdb77a27
     Pseudo is Ultrasoft, Zval =  4.0
     Generated by new atomic code, or converted to UPF format
     Using radial grid of  721 points,  4 beta functions with:
                l(1) =   0
                l(2) =   0
                l(3) =   1
                l(4) =   1
     Q(r) pseudized with  8 coefficients,  rinner =    0.800   0.800   0.800

     PseudoPot. # 5 for H  read from file:
     /storage/coda1/p-amedford6/0/shared/rich_project_chbe-medford/medford-share/data/pseudos_module/espresso/nninc/pbe/van/H.UPF
     MD5 check sum: b5ee9d7bfd3a09ee7748110bda690ff7
     Pseudo is Ultrasoft, Zval =  1.0
     Generated by new atomic code, or converted to UPF format
     Using radial grid of  615 points,  1 beta functions with:
                l(1) =   0
     Q(r) pseudized with  8 coefficients,  rinner =    0.800

     atomic species   valence    mass     pseudopotential
        Ti1           12.00    47.86700     Ti( 1.00)
        O1             6.00    15.99900     O ( 1.00)
        N1             5.00    14.00700     N ( 1.00)
        C1             4.00    12.01100     C ( 1.00)
        H1             1.00     1.00800     H ( 1.00)

     No symmetry found

   Cartesian axes

     site n.     atom                  positions (alat units)
         1           Ti1 tau(   1) = (   0.0004258   2.9801865   6.0000000  )
         2           Ti1 tau(   2) = (   3.2906075   1.4906267   6.0002472  )
         3           O1  tau(   3) = (   0.0006271   0.0005054   7.9858123  )
         4           O1  tau(   4) = (   3.2906025   0.0005020   7.3038282  )
         5           O1  tau(   5) = (   4.5942328   1.4918067   9.2879030  )
         6           O1  tau(   6) = (   1.9868534   1.4903216   9.2879459  )
         7           Ti1 tau(   7) = (   3.2907910   2.8959150   9.1758416  )
         8           Ti1 tau(   8) = (   0.0015273   1.4827037   9.2680791  )
         9           O1  tau(   9) = (   3.3120675   0.0079458  11.3762204  )
        10           O1  tau(  10) = (   0.0116148   5.9584955  10.6183126  )
        11           O1  tau(  11) = (   1.3148726   1.5133626  12.6447579  )
        12           O1  tau(  12) = (   5.3140862   1.5122126  12.6508301  )
        13           Ti1 tau(  13) = (   0.0289753   2.9995974  12.5105963  )
        14           Ti1 tau(  14) = (   3.3300932   1.5144954  12.5190352  )
        15           O1  tau(  15) = (   0.0303621   0.0967028  14.6836000  )
        16           O1  tau(  16) = (   3.3188409   0.0235386  14.0025835  )
        17           O1  tau(  17) = (   4.5661268   1.5053193  16.2317874  )
        18           O1  tau(  18) = (   2.0488868   1.5039614  16.2002260  )
        19           Ti1 tau(  19) = (   3.3211226   2.9745325  15.7560014  )
        20           Ti1 tau(  20) = (   0.0641794   1.4487855  16.0607878  )
        21           O1  tau(  21) = (   3.2904802   0.0005063   4.7018136  )
        22           O1  tau(  22) = (   0.0207051   5.8381987  17.2232637  )
        23           O1  tau(  23) = (   1.3043587   1.4918075   6.0039043  )
        24           O1  tau(  24) = (   5.2767064   1.4903225   6.0039473  )
        25           Ti1 tau(  25) = (   0.0000382   5.9609847   6.0000000  )
        26           Ti1 tau(  26) = (   3.2902200   4.4714249   6.0002472  )
        27           O1  tau(  27) = (   0.0002396   2.9813036   7.9858123  )
        28           O1  tau(  28) = (   3.2902150   2.9813002   7.3038282  )
        29           O1  tau(  29) = (   4.5938453   4.4726049   9.2879030  )
        30           O1  tau(  30) = (   1.9864658   4.4711199   9.2879459  )
        31           Ti1 tau(  31) = (   3.2891106   5.8743827   9.1763621  )
        32           Ti1 tau(  32) = (   0.0006254   4.4649316   9.2693709  )
        33           O1  tau(  33) = (   3.3137607   3.0039157  11.3695003  )
        34           O1  tau(  34) = (   0.0092240   2.9805883  10.6323155  )
        35           O1  tau(  35) = (   1.3103219   4.4840529  12.6837359  )
        36           O1  tau(  36) = (   5.3166572   4.4842854  12.6901167  )
        37           Ti1 tau(  37) = (   0.0376818   0.0300362  12.4998423  )
        38           Ti1 tau(  38) = (   3.3279277   4.4933691  12.5326681  )
        39           O1  tau(  39) = (   0.0236785   2.9473731  14.9547601  )
        40           O1  tau(  40) = (   3.3158584   2.9778716  13.9675922  )
        41           O1  tau(  41) = (   4.5769684   4.4551829  16.1482216  )
        42           O1  tau(  42) = (   2.0574928   4.4544973  16.1629196  )
        43           Ti1 tau(  43) = (   3.3270828   0.0048838  15.7999907  )
        44           Ti1 tau(  44) = (   0.0216784   4.6657176  15.8371636  )
        45           O1  tau(  45) = (   3.2900926   2.9813045   4.7018136  )
        46           O1  tau(  46) = (   1.3039711   4.4726057   6.0039043  )
        47           O1  tau(  47) = (   5.2763189   4.4711207   6.0039473  )
        48           N1  tau(  48) = (   1.0300599   3.1028741  18.8625222  )
        49           N1  tau(  49) = (   6.4529598   2.6395754  18.1308714  )
        50           C1  tau(  50) = (   0.6566364   3.8075245  20.0867497  )
        51           H1  tau(  51) = (   6.5334193   4.6237433  19.9095685  )
        52           H1  tau(  52) = (   0.2127083   3.1054723  20.7945791  )
        53           H1  tau(  53) = (   1.5644534   4.2160081  20.5287796  )
        54           H1  tau(  54) = (   5.6912064   3.3271340  18.1715891  )
        55           H1  tau(  55) = (   6.1153184   1.7991689  18.5966666  )
        56           H1  tau(  56) = (   1.4989484   3.7555826  18.2384742  )

     number of k points=    10  Fermi-Dirac smearing, width (Ry)=  0.0073
                       cart. coord. in units 2pi/alat
        k(    1) = (   0.0000000   0.0000000   0.0000000), wk =   0.1250000
        k(    2) = (   0.0000000   0.0419351   0.0000000), wk =   0.2500000
        k(    3) = (   0.0000000  -0.0838702   0.0000000), wk =   0.1250000
        k(    4) = (   0.0379955   0.0000049   0.0000000), wk =   0.2500000
        k(    5) = (   0.0379955   0.0419400   0.0000000), wk =   0.2500000
        k(    6) = (   0.0379955  -0.0838652   0.0000000), wk =   0.2500000
        k(    7) = (   0.0379955  -0.0419301   0.0000000), wk =   0.2500000
        k(    8) = (  -0.0759910  -0.0000099   0.0000000), wk =   0.1250000
        k(    9) = (  -0.0759910   0.0419252   0.0000000), wk =   0.2500000
        k(   10) = (  -0.0759910  -0.0838800   0.0000000), wk =   0.1250000

     Initial potential from superposition of free atoms

     starting charge  381.99914, renormalised to  398.00000

     negative rho (up, down):  1.340E-02 0.000E+00

     %%%%%%%%%%%%%%%%%%%%%%%%%%%%%%%%%%%%%%%%%%%%%%%%%%%%%%%%%%%%%%%%%%%%%%%%
     %                                                                      %
     % You are using vdW-DF, which was implemented by the Thonhauser group. %
     % Please cite the following two papers that made this development      %
     % possible and the two reviews that describe the various versions:     %
     %                                                                      %
     %   T. Thonhauser et al., PRL 115, 136402 (2015).                      %
     %   T. Thonhauser et al., PRB 76, 125112 (2007).                       %
     %   K. Berland et al., Rep. Prog. Phys. 78, 066501 (2015).             %
     %   D.C. Langreth et al., J. Phys.: Condens. Matter 21, 084203 (2009). %
     %                                                                      %
     %                                                                      %
     % If you are calculating the stress with vdW-DF, please also cite:     %
     %                                                                      %
     %   R. Sabatini et al., J. Phys.: Condens. Matter 24, 424209 (2012).   %
     %                                                                      %
     %%%%%%%%%%%%%%%%%%%%%%%%%%%%%%%%%%%%%%%%%%%%%%%%%%%%%%%%%%%%%%%%%%%%%%%%

     Adding external electric field

     Computed dipole along edir(3) :
        Dipole              -11.7464 Ry au,        -29.8564 Debye
        Dipole field         -0.0222 Ry au,

        Potential amp.        2.0549 Ry
        Total length         46.3494 bohr

     Starting wfcs are  302 atomic wfcs
  @ DRIVER MODE: Message from server: STATUS
  @ DRIVER MODE: Message from server: POSDATA
  @ DRIVER MODE: Reading and sharing cell
  @ DRIVER MODE: Reading and sharing positions
  @ DRIVER MODE: Received positions

     Self-consistent Calculation

     iteration #  1     ecut=    29.40 Ry     beta= 0.05
     Davidson diagonalization with overlap
     c_bands:  1 eigenvalues not converged
     c_bands:  1 eigenvalues not converged
     c_bands:  1 eigenvalues not converged
     c_bands:  3 eigenvalues not converged
     c_bands:  3 eigenvalues not converged
     c_bands:  3 eigenvalues not converged
     c_bands:  4 eigenvalues not converged
     c_bands:  2 eigenvalues not converged
     ethr =  1.00E-05,  avg # of iterations = 21.6

[...]

     total energy              =   -2428.07219325 Ry
     estimated scf accuracy    <    5789.77129405 Ry

     iteration #  2     ecut=    29.40 Ry     beta= 0.05
     Davidson diagonalization with overlap
     ethr =  1.00E-02,  avg # of iterations = 22.2

[...]

     iteration # 76     ecut=    29.40 Ry     beta= 0.05
     Davidson diagonalization with overlap
     c_bands:  1 eigenvalues not converged
     ethr =  3.23E-11,  avg # of iterations = 15.3

[...]

     total energy              =   -2942.85970352 Ry
     estimated scf accuracy    <       0.00000011 Ry

     iteration # 77     ecut=    29.40 Ry     beta= 0.05
     Davidson diagonalization with overlap
     ethr =  2.70E-11,  avg # of iterations =  1.3

     negative rho (up, down):  1.465E-02 0.000E+00

     Adding external electric field

     Computed dipole along edir(3) :
        Dipole                1.2236 Ry au,          3.1101 Debye
        Dipole field          0.0023 Ry au,

        Potential amp.       -0.2141 Ry
        Total length         46.3494 bohr

     End of self-consistent calculation

          k = 0.0000 0.0000 0.0000 ( 18029 PWs)   bands (ev):

   -55.3484 -55.3114 -55.3005 -55.2698 -55.2664 -55.2322 -55.2251 -55.1897
   -55.1687 -55.1448 -55.1342 -55.1322 -55.0985 -55.0266 -54.3300 -54.2960
   -31.9168 -31.8014 -31.7930 -31.7136 -31.6640 -31.6581 -31.6513 -31.6378
   -31.5897 -31.5891 -31.5578 -31.5525 -31.5455 -31.5298 -31.5183 -31.5109
   -31.5036 -31.4884 -31.4857 -31.4659 -31.4530 -31.4452 -31.4184 -31.4144
   -31.4032 -31.4010 -31.3996 -31.3714 -31.3577 -31.3556 -31.3506 -31.3311
   -31.3280 -31.3197 -31.3186 -31.3165 -31.2824 -31.2683 -31.2605 -31.2435
   -31.2329 -31.2085 -30.7394 -30.6452 -30.6231 -30.5558 -30.4690 -30.3581
   -17.7980 -16.1846 -15.9169 -15.7769 -15.6672 -15.5481 -15.4297 -15.4101
   -15.2780 -15.1952 -15.0752 -15.0523 -15.0257 -15.0067 -14.9943 -14.9794
   -14.8937 -14.8878 -14.8704 -14.8430 -14.8367 -14.7940 -14.7866 -14.7469
   -14.7254 -14.7240 -14.5956 -14.5079 -14.4361 -14.2002 -13.1799 -12.8327
   -12.7153  -9.7428  -6.3720  -5.3938  -4.8883  -3.5467  -3.5054  -3.3684
    -3.2804  -3.2639  -3.2413  -3.1052  -2.9518  -2.7818  -2.7686  -2.7572
    -2.6384  -2.5606  -2.5544  -2.5297  -2.3782  -2.3567  -2.3057  -2.2401
    -2.2125  -2.1645  -2.1535  -2.1322  -2.1130  -2.0930  -2.0847  -1.9712
    -1.9199  -1.8273  -1.7715  -1.7441  -1.7085  -1.6806  -1.6655  -1.6381
    -1.6300  -1.5876  -1.5606  -1.5388  -1.4876  -1.3755  -1.2665  -1.2364
    -1.1390  -0.9867  -0.9540  -0.9409  -0.9295  -0.8529  -0.8357  -0.7878
    -0.7354  -0.7267  -0.6958  -0.5851  -0.5266  -0.4616  -0.3950  -0.3836
    -0.3365  -0.2749  -0.1625  -0.1382  -0.1157  -0.0908   0.0031   0.0426
     0.0875   0.1624   0.1816   0.1952   0.3021   0.3095   0.3899   0.4020
     0.4474   0.5341   0.5683   0.5906   0.5945   0.6080   0.6381   0.7051
     0.7293   0.7556   0.8308   0.9546   1.0276   1.1865   1.2496   1.2634
     1.5930   1.5974   1.6926   1.8764   2.2688   2.3170   3.7491   3.8186
     3.8934   3.9001   3.9121   3.9857   4.2230   4.2392   4.2517   4.2579
     4.2925

[...]

          k = 0.0380-0.0419 0.0000 ( 17876 PWs)   bands (ev):

[...]

          k =-0.0760-0.0000 0.0000 ( 17886 PWs)   bands (ev):

[...]

          k =-0.0760-0.0839 0.0000 ( 17948 PWs)   bands (ev):

   -55.3342 -55.3254 -55.2835 -55.2832 -55.2683 -55.2288 -55.2116 -55.2032
   -55.1531 -55.1493 -55.1481 -55.1156 -55.1153 -55.0279 -54.3130 -54.3129
   -31.7240 -31.7215 -31.7175 -31.6338 -31.6082 -31.6080 -31.6053 -31.5749
   -31.5748 -31.5567 -31.5493 -31.5469 -31.5409 -31.5112 -31.5042 -31.4860
   -31.4857 -31.4818 -31.4784 -31.4731 -31.4702 -31.4692 -31.4323 -31.4271
   -31.4249 -31.4203 -31.4162 -31.4048 -31.4032 -31.4029 -31.3961 -31.3866
   -31.3824 -31.3662 -31.3627 -31.3467 -31.3460 -31.3366 -31.2966 -31.2963
   -31.2863 -31.2376 -30.6358 -30.6357 -30.5520 -30.5519 -30.5125 -30.5124
   -17.7933 -15.7081 -15.5960 -15.5497 -15.3766 -15.3543 -15.3318 -15.3170
   -15.1890 -15.1706 -15.1426 -15.1162 -15.0912 -15.0636 -15.0523 -15.0474
   -14.9650 -14.9531 -14.9456 -14.9295 -14.8616 -14.8586 -14.8544 -14.8485
   -14.7977 -14.7952 -14.7146 -14.7013 -14.6998 -14.5026 -13.1809 -12.8167
   -12.8167  -9.7393  -6.3595  -5.3937  -4.8940  -3.4910  -2.8645  -2.8293
    -2.8056  -2.7861  -2.5921  -2.5541  -2.5171  -2.5047  -2.4056  -2.3634
    -2.3457  -2.3384  -2.2680  -2.2648  -2.2338  -2.2038  -2.1827  -2.1657
    -2.1518  -2.1300  -2.1052  -2.0758  -2.0698  -2.0546  -2.0006  -1.9979
    -1.9822  -1.9601  -1.9427  -1.9216  -1.9050  -1.8486  -1.7263  -1.7159
    -1.6619  -1.5555  -1.5509  -1.4708  -1.4657  -1.4217  -1.3937  -1.3815
    -1.3544  -1.1744  -1.1208  -1.0944  -1.0869  -1.0752  -0.9667  -0.9325
    -0.8745  -0.8587  -0.8326  -0.7347  -0.6843  -0.6798  -0.5986  -0.5667
    -0.5278  -0.4860  -0.3849  -0.3552  -0.3354  -0.3062  -0.3028  -0.2493
    -0.2439  -0.1672  -0.1194  -0.0834  -0.0689  -0.0379   0.1615   0.1712
     0.1895   0.3364   0.3590   0.4994   0.5433   0.5851   0.6459   0.6977
     0.7637   0.8044   0.9312   0.9590   0.9598   1.0301   1.0507   1.0576
     1.1081   1.1100   2.0490   2.0497   2.1369   2.1372   3.8920   3.9966
     4.0114   4.0568   4.1666   4.2401   4.2637   4.2905   4.3334   4.3365
     4.4001

     the Fermi energy is     3.8118 ev

!    total energy              =   -2942.85971705 Ry
     estimated scf accuracy    <       0.00000006 Ry
     smearing contrib. (-TS)   =      -0.03701754 Ry
     internal energy E=F+TS    =   -2942.82269951 Ry

     The total energy is F=E-TS. E is the sum of the following terms:
     one-electron contribution =  -23389.54214609 Ry
     hartree contribution      =   11787.31352738 Ry
     xc contribution           =    -487.76163339 Ry
     ewald contribution        =    9147.16472712 Ry
     electric field correction =       0.00282547 Ry

     convergence has been achieved in  77 iterations

     Forces acting on atoms (cartesian axes, Ry/au):

     atom    1 type  1   force =     0.00000069   -0.00025872    0.09308531
     atom    2 type  1   force =    -0.00014748   -0.00043265   -0.17828126
     atom    3 type  2   force =     0.00007494   -0.00009032   -0.02022830
     atom    4 type  2   force =     0.00001670   -0.00186740    0.05881482
     atom    5 type  2   force =    -0.01019024   -0.00054604    0.00774691
     atom    6 type  2   force =     0.01224199    0.00007176    0.00820636
     atom    7 type  1   force =     0.00038809    0.00328155   -0.01427107
     atom    8 type  1   force =    -0.00045617    0.00045584   -0.00456301
     atom    9 type  2   force =    -0.00002607   -0.00061500   -0.00036545
     atom   10 type  2   force =    -0.00059675    0.00091096   -0.00142025
     atom   11 type  2   force =    -0.00038543   -0.00012474    0.00023579
     atom   12 type  2   force =     0.00007558   -0.00006956    0.00004333
     atom   13 type  1   force =     0.00005192   -0.00032177    0.00017763
     atom   14 type  1   force =    -0.00036342    0.00013166    0.00041083
     atom   15 type  2   force =    -0.00015844    0.00080180    0.00023710
     atom   16 type  2   force =    -0.00008602   -0.00018455    0.00032428
     atom   17 type  2   force =    -0.00046285    0.00005049    0.00041234
     atom   18 type  2   force =     0.00015176   -0.00021174   -0.00010649
     atom   19 type  1   force =     0.00033271    0.00027485    0.00090759
     atom   20 type  1   force =    -0.00061736   -0.00067090    0.00029714
     atom   21 type  2   force =     0.00000252   -0.00010534    0.10394524
     atom   22 type  2   force =    -0.00020348    0.00001253   -0.00056889
     atom   23 type  2   force =    -0.07033018   -0.00023388   -0.02685831
     atom   24 type  2   force =     0.07022725    0.00019294   -0.02693916
     atom   25 type  1   force =     0.00002024   -0.00026557    0.09275069
     atom   26 type  1   force =    -0.00012092   -0.00044892   -0.17831276
     atom   27 type  2   force =     0.00013889   -0.00032739   -0.01924962
     atom   28 type  2   force =     0.00008203   -0.00154970    0.05821154
     atom   29 type  2   force =    -0.01019507   -0.00033109    0.00696540
     atom   30 type  2   force =     0.01214545   -0.00008921    0.00749957
     atom   31 type  1   force =     0.00040134    0.00495851   -0.01540681
     atom   32 type  1   force =    -0.00037831   -0.00033195   -0.00467110
     atom   33 type  2   force =    -0.00021860   -0.00047937    0.00016066
     atom   34 type  2   force =    -0.00014126    0.00364231   -0.00061145
     atom   35 type  2   force =     0.00002385   -0.00056054    0.00032155
     atom   36 type  2   force =    -0.00018111   -0.00052897   -0.00002844
     atom   37 type  1   force =    -0.00025909   -0.00049317    0.00048356
     atom   38 type  1   force =    -0.00019315   -0.00089924    0.00044838
     atom   39 type  2   force =    -0.00047872   -0.00053303    0.00053549
     atom   40 type  2   force =     0.00001584   -0.00048930   -0.00040587
     atom   41 type  2   force =    -0.00080602   -0.00011866   -0.00011823
     atom   42 type  2   force =     0.00032147   -0.00025327   -0.00032423
     atom   43 type  1   force =     0.00004211   -0.00031079   -0.00006483
     atom   44 type  1   force =    -0.00006561   -0.00066222    0.00067963
     atom   45 type  2   force =     0.00000940   -0.00014380    0.10391487
     atom   46 type  2   force =    -0.07038080   -0.00017544   -0.02687828
     atom   47 type  2   force =     0.07024411    0.00026542   -0.02694944
     atom   48 type  3   force =     0.00120288    0.00108270   -0.00082028
     atom   49 type  3   force =     0.00025370    0.00111298   -0.00012690
     atom   50 type  4   force =     0.00227538   -0.00667267    0.00143560
     atom   51 type  5   force =    -0.00534104    0.00743871   -0.00116671
     atom   52 type  5   force =     0.00079588   -0.00067786    0.00053659
     atom   53 type  5   force =     0.00072279    0.00060819    0.00085304
     atom   54 type  5   force =    -0.00003429   -0.00056107   -0.00046309
     atom   55 type  5   force =     0.00052607   -0.00176687   -0.00033006
     atom   56 type  5   force =     0.00003231   -0.00089050   -0.00011092

     Total force =     0.366307     Total SCF correction =     0.000663
  @ DRIVER MODE: Message from server: STATUS
  @ DRIVER MODE: Message from server: GETFORCE
  @ DRIVER MODE: Returning v,forces,stress,ensemble

     Writing output data file ./calc.save/
  @ DRIVER MODE: Message from server: EXIT
  @ DRIVE MODE: Exiting

     General routines

     Parallel routines

   This run was terminated on:   5:15:17   9Sep2021

   JOB DONE.