     Program PWSCF v.6.7GPU starts on 19Oct2021 at  8: 9:41

     R & G space division:  proc/nbgrp/npool/nimage =       8
     Reading input from /storage/home/hcoda1/3/ntian30/research/carbon/CxH_vib/Thiel_calc/ads_slab/NH3NH3_perslab/out_0043/pw.inp
Warning: card &CELL ignored
Warning: card   CELL_DYNAMICS='IPI', ignored
Warning: card / ignored

     Current dimensions of program PWSCF are:
     Max number of different atomic species (ntypx) = 10
     Max number of k-points (npk) =  40000
     Max angular momentum in pseudopotentials (lmaxx) =  3
     Presently no symmetry can be used with electric field

     Message from routine cell_base_init:
     DEPRECATED: use true lattice parameter, not A to a.u. conversion factor

     IMPORTANT: XC functional enforced from input :
     Exchange-correlation= BEEF-VDW
                           (   1   4  43  14   2   0   0)
     Any further DFT definition will be discarded
     Please, verify this is what you really want

  @ DRIVER MODE: Connecting to
 qe_1139763_3255140.sched-torque.pace.gatech.edu8jd19udo_scratch
  using UNIX socket
  @ DRIVER MODE: Message from server: STATUS
  @ DRIVER MODE: Message from server: INIT
  @ DRIVER MODE: Receiving replica           0          -1
  @ DRIVER MODE: Receiving encoded integer          25
  @ DRIVER MODE:  SCF:  T  FORCE:  T  STRESS:  F  VC:  F  ENSEMBLE:  F
  @ DRIVER MODE:  SCF:  T  FORCE:  T  STRESS:  F  VC:  F  ENSEMBLE:  F

     Using Slab Decomposition

     bravais-lattice index     =            0
     lattice parameter (alat)  =       1.8897  a.u.
     unit-cell volume          =    9988.4706 (a.u.)^3
     number of atoms/cell      =           61
     number of atomic types    =            4
     number of electrons       =       442.00
     number of Kohn-Sham states=          231
     kinetic-energy cutoff     =      29.3995  Ry
     charge density cutoff     =     293.9946  Ry
     scf convergence threshold =      7.3E-08
     mixing beta               =       0.0500
     number of iterations used =            8  plain     mixing
     Exchange-correlation= BEEF-VDW
                           (   1   4  43  14   2   0   0)

     celldm(1)=   1.889726  celldm(2)=   0.000000  celldm(3)=   0.000000
     celldm(4)=   0.000000  celldm(5)=   0.000000  celldm(6)=   0.000000

     crystal axes: (cart. coord. in units of alat)
               a(1) = (   6.579727   0.000000   0.000000 )
               a(2) = (  -0.001163   8.942395   0.000000 )
               a(3) = (   0.000000   0.000000  25.155947 )

     reciprocal axes: (cart. coord. in units 2 pi/alat)
               b(1) = (  0.151982  0.000020  0.000000 )
               b(2) = (  0.000000  0.111827  0.000000 )
               b(3) = (  0.000000  0.000000  0.039752 )

     PseudoPot. # 1 for O  read from file:
     /storage/coda1/p-amedford6/0/shared/rich_project_chbe-medford/medford-share/data/pseudos_module/espresso/nninc/pbe/van/O.UPF
     MD5 check sum: 78c19812648e8988a0fe644b0f25305e
     Pseudo is Ultrasoft, Zval =  6.0
     Generated by new atomic code, or converted to UPF format
     Using radial grid of  737 points,  4 beta functions with:
                l(1) =   0
                l(2) =   0
                l(3) =   1
                l(4) =   1
     Q(r) pseudized with  8 coefficients,  rinner =    0.800   0.800   0.800

     PseudoPot. # 2 for Ti read from file:
     /storage/coda1/p-amedford6/0/shared/rich_project_chbe-medford/medford-share/data/pseudos_module/espresso/nninc/pbe/van/Ti.UPF
     MD5 check sum: 8e4df49b7f0d34bbd5052bf3f5ea0213
     Pseudo is Ultrasoft, Zval = 12.0
     Generated by new atomic code, or converted to UPF format
     Using radial grid of  851 points,  6 beta functions with:
                l(1) =   0
                l(2) =   0
                l(3) =   1
                l(4) =   1
                l(5) =   2
                l(6) =   2
     Q(r) pseudized with  8 coefficients,  rinner =    1.000   1.000   1.000
                                                       1.000   1.000

     PseudoPot. # 3 for N  read from file:
     /storage/coda1/p-amedford6/0/shared/rich_project_chbe-medford/medford-share/data/pseudos_module/espresso/nninc/pbe/van/N.UPF
     MD5 check sum: 90d10febe142ad51ac9d5be1deb811c4
     Pseudo is Ultrasoft, Zval =  5.0
     Generated by new atomic code, or converted to UPF format
     Using radial grid of  729 points,  4 beta functions with:
                l(1) =   0
                l(2) =   0
                l(3) =   1
                l(4) =   1
     Q(r) pseudized with  8 coefficients,  rinner =    0.800   0.800   0.800

     PseudoPot. # 4 for H  read from file:
     /storage/coda1/p-amedford6/0/shared/rich_project_chbe-medford/medford-share/data/pseudos_module/espresso/nninc/pbe/van/H.UPF
     MD5 check sum: b5ee9d7bfd3a09ee7748110bda690ff7
     Pseudo is Ultrasoft, Zval =  1.0
     Generated by new atomic code, or converted to UPF format
     Using radial grid of  615 points,  1 beta functions with:
                l(1) =   0
     Q(r) pseudized with  8 coefficients,  rinner =    0.800

     atomic species   valence    mass     pseudopotential
        O1             6.00    15.99900     O ( 1.00)
        Ti1           12.00    47.86700     Ti( 1.00)
        N1             5.00    14.00700     N ( 1.00)
        H1             1.00     1.00800     H ( 1.00)

     No symmetry found

   Cartesian axes

     site n.     atom                  positions (alat units)
         1           O1  tau(   1) = (   0.0007354   0.0005023  10.5931620  )
         2           O1  tau(   2) = (   3.2905679   0.0262843  13.8966672  )
         3           O1  tau(   3) = (   0.0007290   0.0579300  17.2579193  )
         4           O1  tau(   4) = (   0.0006271   0.0005054   7.9858123  )
         5           O1  tau(   5) = (   3.2893100   8.9214726  11.1892856  )
         6           O1  tau(   6) = (   0.0005199   0.0455907  14.6396817  )
         7           O1  tau(   7) = (   1.9868534   1.4903216   9.2879459  )
         8           O1  tau(   8) = (   5.2380180   1.6024468  12.5713634  )
         9           O1  tau(   9) = (   2.0277759   1.4975965  16.1012153  )
        10           Ti1 tau(  10) = (   0.0007404   1.4906270   9.2895810  )
        11           Ti1 tau(  11) = (   3.2903786   1.3551844  12.4711573  )
        12           Ti1 tau(  12) = (   0.0003174   1.4440192  15.7330511  )
        13           O1  tau(  13) = (   4.5942328   1.4918067   9.2879030  )
        14           O1  tau(  14) = (   1.3426987   1.6023923  12.5713351  )
        15           O1  tau(  15) = (   4.5529958   1.4977110  16.1013444  )
        16           Ti1 tau(  16) = (   3.2902859   2.9801868   9.2893338  )
        17           Ti1 tau(  17) = (   0.0005333   2.8255407  12.4640987  )
        18           Ti1 tau(  18) = (   3.2895849   3.0341113  15.6952405  )
        19           O1  tau(  19) = (   0.0003479   2.9813005  10.5931620  )
        20           O1  tau(  20) = (   3.2900438   2.9627632  13.8881152  )
        21           O1  tau(  21) = (   0.0002396   2.9813036   7.9858123  )
        22           O1  tau(  22) = (   3.2902621   2.9759438  11.1922459  )
        23           O1  tau(  23) = (   0.0002943   2.9805036  14.7119039  )
        24           O1  tau(  24) = (   1.9864658   4.4711199   9.2879459  )
        25           O1  tau(  25) = (   5.2407125   4.5787950  12.5855407  )
        26           O1  tau(  26) = (   1.9842138   4.3634165  16.0604883  )
        27           Ti1 tau(  27) = (   0.0003529   4.4714252   9.2895810  )
        28           Ti1 tau(  28) = (   3.2904166   4.3402611  12.5252975  )
        29           Ti1 tau(  29) = (  -0.0003584   4.7219071  15.7914592  )
        30           O1  tau(  30) = (   4.5938453   4.4726049   9.2879030  )
        31           O1  tau(  31) = (   1.3394863   4.5787101  12.5854501  )
        32           O1  tau(  32) = (   4.5953883   4.3633133  16.0606172  )
        33           Ti1 tau(  33) = (   3.2898983   5.9609850   9.2893338  )
        34           Ti1 tau(  34) = (   0.0004309   5.8055675  12.4642027  )
        35           Ti1 tau(  35) = (   3.2895961   6.0676247  15.8182862  )
        36           O1  tau(  36) = (  -0.0000397   5.9620987  10.5931620  )
        37           O1  tau(  37) = (   3.2897974   5.9491097  13.9522666  )
        38           O1  tau(  38) = (  -0.0001005   5.9419674  17.2168411  )
        39           O1  tau(  39) = (  -0.0001480   5.9621018   7.9858123  )
        40           O1  tau(  40) = (   3.2898294   5.9516608  11.2068290  )
        41           O1  tau(  41) = (  -0.0002620   6.0093330  14.6024556  )
        42           O1  tau(  42) = (   1.9860782   7.4519181   9.2879459  )
        43           O1  tau(  43) = (   5.2335766   7.5615516  12.5803788  )
        44           O1  tau(  44) = (   2.0229086   7.4656171  16.0362607  )
        45           Ti1 tau(  45) = (  -0.0000347   7.4522234   9.2895810  )
        46           Ti1 tau(  46) = (   3.2895523   7.2794780  12.5477951  )
        47           Ti1 tau(  47) = (  -0.0001499   7.5569733  16.2601047  )
        48           O1  tau(  48) = (   4.5934577   7.4534031   9.2879030  )
        49           O1  tau(  49) = (   1.3453152   7.5613653  12.5804751  )
        50           O1  tau(  50) = (   4.5562564   7.4656138  16.0364310  )
        51           Ti1 tau(  51) = (   3.2895107   8.9417832   9.2893338  )
        52           Ti1 tau(  52) = (  -0.0004710   8.7769229  12.4586551  )
        53           Ti1 tau(  53) = (   3.2909234   0.0582169  15.6986445  )
        54           N1  tau(  54) = (   3.2892347   5.9685454  18.1810142  )
        55           H1  tau(  55) = (   3.2893406   5.0219839  18.5418895  )
        56           H1  tau(  56) = (   2.4590131   6.4368771  18.5304692  )
        57           H1  tau(  57) = (   4.1190552   6.4372901  18.5310312  )
        58           N1  tau(  58) = (  -0.0003436   2.9015831  17.9177722  )
        59           H1  tau(  59) = (   6.5794260   1.9611702  18.3102355  )
        60           H1  tau(  60) = (   5.7593157   3.3919262  18.2600543  )
        61           H1  tau(  61) = (   0.8092290   3.3923488  18.2608005  )

     number of k points=    10  Fermi-Dirac smearing, width (Ry)=  0.0073
                       cart. coord. in units 2pi/alat
        k(    1) = (   0.0000000   0.0000000   0.0000000), wk =   0.1250000
        k(    2) = (   0.0000000   0.0279567   0.0000000), wk =   0.2500000
        k(    3) = (   0.0000000  -0.0559134   0.0000000), wk =   0.1250000
        k(    4) = (   0.0379955   0.0000049   0.0000000), wk =   0.2500000
        k(    5) = (   0.0379955   0.0279617   0.0000000), wk =   0.2500000
        k(    6) = (   0.0379955  -0.0559085   0.0000000), wk =   0.2500000
        k(    7) = (   0.0379955  -0.0279518   0.0000000), wk =   0.2500000
        k(    8) = (  -0.0759910  -0.0000099   0.0000000), wk =   0.1250000
        k(    9) = (  -0.0759910   0.0279468   0.0000000), wk =   0.2500000
        k(   10) = (  -0.0759910  -0.0559233   0.0000000), wk =   0.1250000

     Initial potential from superposition of free atoms

     starting charge  423.99908, renormalised to  442.00000

     negative rho (up, down):  3.646E-02 0.000E+00

     %%%%%%%%%%%%%%%%%%%%%%%%%%%%%%%%%%%%%%%%%%%%%%%%%%%%%%%%%%%%%%%%%%%%%%%%
     %                                                                      %
     % You are using vdW-DF, which was implemented by the Thonhauser group. %
     % Please cite the following two papers that made this development      %
     % possible and the two reviews that describe the various versions:     %
     %                                                                      %
     %   T. Thonhauser et al., PRL 115, 136402 (2015).                      %
     %   T. Thonhauser et al., PRB 76, 125112 (2007).                       %
     %   K. Berland et al., Rep. Prog. Phys. 78, 066501 (2015).             %
     %   D.C. Langreth et al., J. Phys.: Condens. Matter 21, 084203 (2009). %
     %                                                                      %
     %                                                                      %
     % If you are calculating the stress with vdW-DF, please also cite:     %
     %                                                                      %
     %   R. Sabatini et al., J. Phys.: Condens. Matter 24, 424209 (2012).   %
     %                                                                      %
     %%%%%%%%%%%%%%%%%%%%%%%%%%%%%%%%%%%%%%%%%%%%%%%%%%%%%%%%%%%%%%%%%%%%%%%%

     Adding external electric field

     Computed dipole along edir(3) :
        Dipole               -6.4271 Ry au,        -16.3360 Debye
        Dipole field         -0.0081 Ry au,

        Potential amp.        0.7495 Ry
        Total length         46.3494 bohr

     Starting wfcs are  334 atomic wfcs
  @ DRIVER MODE: Message from server: STATUS
  @ DRIVER MODE: Message from server: POSDATA
  @ DRIVER MODE: Reading and sharing cell
  @ DRIVER MODE: Reading and sharing positions
  @ DRIVER MODE: Received positions

     Self-consistent Calculation

     iteration #  1     ecut=    29.40 Ry     beta= 0.05
     Davidson diagonalization with overlap
     c_bands:  1 eigenvalues not converged
     c_bands:  2 eigenvalues not converged
     c_bands:  2 eigenvalues not converged
     c_bands:  2 eigenvalues not converged
     c_bands:  3 eigenvalues not converged
     c_bands:  5 eigenvalues not converged
     c_bands:  3 eigenvalues not converged
     c_bands:  2 eigenvalues not converged
     c_bands:  3 eigenvalues not converged
     ethr =  1.00E-05,  avg # of iterations = 19.8

[...]

     total energy              =   -3273.09790755 Ry
     estimated scf accuracy    <     292.45191291 Ry

[...]

     iteration #  4     ecut=    29.40 Ry     beta= 0.05
     Davidson diagonalization with overlap
     ethr =  2.66E-03,  avg # of iterations =  3.3

[...]

     iteration # 34     ecut=    29.40 Ry     beta= 0.05
     Davidson diagonalization with overlap
     c_bands:  1 eigenvalues not converged
     c_bands:  1 eigenvalues not converged
     ethr =  2.67E-07,  avg # of iterations = 11.9

[...]

     total energy              =   -3295.91272878 Ry
     estimated scf accuracy    <       0.00000016 Ry

     iteration # 58     ecut=    29.40 Ry     beta= 0.05
     Davidson diagonalization with overlap
     ethr =  3.58E-11,  avg # of iterations =  6.6

     negative rho (up, down):  3.470E-02 0.000E+00

     Adding external electric field

     Computed dipole along edir(3) :
        Dipole                1.8696 Ry au,          4.7520 Debye
        Dipole field          0.0024 Ry au,

        Potential amp.       -0.2180 Ry
        Total length         46.3494 bohr

     End of self-consistent calculation

          k = 0.0000 0.0000 0.0000 ( 26871 PWs)   bands (ev):

   -57.5937 -57.5535 -57.5299 -57.5239 -57.4938 -57.3944 -57.3867 -57.3660
   -57.3513 -57.3263 -57.3000 -57.2810 -57.2179 -57.1582 -57.0615 -56.5653
   -56.5402 -56.5391 -33.9746 -33.9350 -33.9305 -33.9044 -33.8863 -33.8677
   -33.8656 -33.8562 -33.8295 -33.8192 -33.8083 -33.7932 -33.7767 -33.7587
   -33.7485 -33.7348 -33.7206 -33.6878 -33.6800 -33.6770 -33.6668 -33.6521
   -33.6469 -33.6440 -33.6382 -33.6067 -33.5879 -33.5846 -33.5745 -33.5602
   -33.5572 -33.5513 -33.5376 -33.5359 -33.5325 -33.5185 -33.5144 -33.5006
   -33.4989 -33.4705 -33.4118 -33.3661 -33.3382 -33.3325 -33.2388 -32.8806
   -32.8784 -32.8768 -32.8640 -32.8629 -32.7911 -32.7271 -32.7261 -32.5910
   -18.3892 -18.0514 -17.8384 -17.7842 -17.7611 -17.6886 -17.6387 -17.6216
   -17.5540 -17.4965 -17.3689 -17.3268 -17.3225 -17.3120 -17.3061 -17.2373
   -17.2225 -17.2105 -17.2029 -17.1861 -17.1822 -17.1394 -17.0656 -17.0569
   -17.0159 -17.0018 -16.9811 -16.9785 -16.9307 -16.8777 -16.8682 -16.6739
   -16.6354 -16.4821 -15.0324 -14.9752 -14.9730  -7.7454  -7.7259  -7.5405
    -7.4600  -5.7129  -5.5305  -5.4654  -5.3709  -4.9986  -4.9410  -4.9267
    -4.9006  -4.8588  -4.8178  -4.8029  -4.7777  -4.7767  -4.7331  -4.6893
    -4.6640  -4.6445  -4.5449  -4.5078  -4.4696  -4.4394  -4.4330  -4.3817
    -4.3661  -4.3262  -4.3258  -4.2775  -4.2373  -4.2264  -4.2056  -4.1382
    -4.1202  -4.0160  -3.9276  -3.8698  -3.8626  -3.8221  -3.8086  -3.7629
    -3.7402  -3.7029  -3.6809  -3.6345  -3.6106  -3.5424  -3.4904  -3.3902
    -3.2939  -3.2672  -3.2408  -3.2188  -3.1741  -3.1211  -3.0013  -2.9609
    -2.9284  -2.9072  -2.8175  -2.8169  -2.7264  -2.7118  -2.6958  -2.6518
    -2.6005  -2.5859  -2.5518  -2.4354  -2.4143  -2.3227  -2.3125  -2.3105
    -2.2811  -2.2194  -2.2078  -2.1838  -2.1621  -2.1344  -2.1200  -2.0813
    -2.0780  -1.9792  -1.9578  -1.9014  -1.8788  -1.8788  -1.7802  -1.7627
    -1.7371  -1.7248  -1.6570  -1.5732  -1.4633  -1.4122  -1.3870  -1.3840
    -1.2847  -1.2564  -1.2133  -1.1331  -0.7972  -0.6005  -0.3134  -0.2692
    -0.2688  -0.0063  -0.0047   0.1239   1.4466   1.6618   1.6832   1.8752
     1.8975   1.9414   2.0280   2.0358   2.0979   2.1975   2.2130

[...]

          k = 0.0380-0.0280 0.0000 ( 26873 PWs)   bands (ev):

[...]

          k =-0.0760-0.0000 0.0000 ( 26902 PWs)   bands (ev):

[...]

          k =-0.0760-0.0559 0.0000 ( 26868 PWs)   bands (ev):

   -57.5936 -57.5473 -57.5419 -57.5180 -57.4940 -57.3921 -57.3866 -57.3708
   -57.3485 -57.3242 -57.3045 -57.2789 -57.2177 -57.1585 -57.0613 -56.5572
   -56.5562 -56.5312 -34.0260 -34.0140 -33.9175 -33.8923 -33.8824 -33.8776
   -33.8760 -33.8546 -33.8259 -33.8129 -33.7777 -33.7435 -33.7381 -33.7351
   -33.7241 -33.6963 -33.6927 -33.6879 -33.6825 -33.6795 -33.6419 -33.6358
   -33.6329 -33.6259 -33.6076 -33.6071 -33.6046 -33.6024 -33.5986 -33.5860
   -33.5784 -33.5705 -33.5690 -33.5600 -33.5392 -33.5273 -33.5227 -33.5152
   -33.4992 -33.4248 -33.4182 -33.3716 -33.3387 -33.3342 -33.2718 -32.9692
   -32.8798 -32.8787 -32.8549 -32.7702 -32.7692 -32.7050 -32.6886 -32.6872
   -18.0790 -18.0157 -17.7599 -17.7055 -17.6892 -17.6537 -17.6379 -17.5607
   -17.5407 -17.5252 -17.5039 -17.4598 -17.3854 -17.3367 -17.3347 -17.3280
   -17.2578 -17.2534 -17.2452 -17.2406 -17.1946 -17.1803 -17.1679 -17.1149
   -17.0367 -16.9670 -16.9538 -16.9474 -16.9083 -16.8934 -16.8424 -16.7077
   -16.6999 -16.4094 -15.0309 -15.0284 -14.9118  -7.7547  -7.7103  -7.5485
    -7.4600  -5.3357  -5.3056  -5.2760  -5.2116  -5.0209  -4.8613  -4.8304
    -4.8239  -4.7863  -4.7368  -4.7095  -4.7030  -4.6939  -4.6766  -4.6618
    -4.6137  -4.6098  -4.5840  -4.5113  -4.4702  -4.4655  -4.4465  -4.4324
    -4.4265  -4.3583  -4.2837  -4.2166  -4.1705  -4.1556  -4.1394  -4.0915
    -4.0549  -4.0251  -3.9824  -3.9717  -3.9034  -3.7963  -3.7116  -3.6716
    -3.6713  -3.6306  -3.5815  -3.5804  -3.4799  -3.4177  -3.3436  -3.2112
    -3.2050  -3.1924  -3.1677  -3.1536  -3.1148  -3.1039  -3.0795  -3.0282
    -3.0182  -2.9966  -2.9360  -2.8698  -2.7844  -2.7567  -2.7233  -2.7169
    -2.6925  -2.6812  -2.6535  -2.6506  -2.6165  -2.6077  -2.5537  -2.5264
    -2.4753  -2.4478  -2.4043  -2.3188  -2.3030  -2.2808  -2.1905  -2.1270
    -2.1102  -2.1050  -2.0759  -2.0294  -1.9319  -1.8381  -1.8021  -1.7578
    -1.6460  -1.6458  -1.6420  -1.6261  -1.5522  -1.5380  -1.3344  -1.3223
    -1.2632  -1.1877  -1.1481  -1.1123  -1.1099  -0.8926  -0.4821  -0.1987
    -0.1856  -0.1620  -0.0093  -0.0042   1.5928   1.6747   1.7096   1.7592
     1.7949   1.7982   1.8042   1.8679   1.9316   1.9415   2.1615

     the Fermi energy is     1.5309 ev

!    total energy              =   -3295.91277831 Ry
     estimated scf accuracy    <       0.00000007 Ry
     smearing contrib. (-TS)   =      -0.03397527 Ry
     internal energy E=F+TS    =   -3295.87880304 Ry

     The total energy is F=E-TS. E is the sum of the following terms:
     one-electron contribution =  -34427.56954374 Ry
     hartree contribution      =   17282.30355926 Ry
     xc contribution           =    -543.76401497 Ry
     ewald contribution        =   14393.14679905 Ry
     electric field correction =       0.00439736 Ry

     convergence has been achieved in  58 iterations

     Forces acting on atoms (cartesian axes, Ry/au):

     atom    1 type  1   force =     0.00001595    0.00450393    0.05616706
     atom    2 type  1   force =     0.00000005   -0.00095469   -0.00072871
     atom    3 type  1   force =    -0.00001522    0.00151942   -0.00016222
     atom    4 type  1   force =     0.00005834    0.00030909    0.10698215
     atom    5 type  1   force =     0.00000234    0.00080635    0.00981231
     atom    6 type  1   force =     0.00000598   -0.00262582    0.00107123
     atom    7 type  1   force =     0.06727392   -0.00023093   -0.02911345
     atom    8 type  1   force =     0.00475288   -0.02827611    0.00257875
     atom    9 type  1   force =     0.00732824   -0.00160925   -0.00303636
     atom   10 type  2   force =    -0.00005365   -0.00148153   -0.18422993
     atom   11 type  2   force =     0.00003812    0.02164744   -0.00780672
     atom   12 type  2   force =     0.00004485   -0.00246080    0.01221617
     atom   13 type  1   force =    -0.06737667   -0.00069312   -0.02907786
     atom   14 type  1   force =    -0.00477875   -0.02827730    0.00257860
     atom   15 type  1   force =    -0.00734707   -0.00160500   -0.00304719
     atom   16 type  2   force =     0.00009468    0.00013169    0.06632068
     atom   17 type  2   force =    -0.00001199    0.03587275    0.00369088
     atom   18 type  2   force =    -0.00001094   -0.01053159   -0.00429354
     atom   19 type  1   force =     0.00001960    0.00444206    0.05988601
     atom   20 type  1   force =    -0.00000182    0.00083068   -0.00596548
     atom   21 type  1   force =     0.00005822    0.00018796    0.10722124
     atom   22 type  1   force =    -0.00000139   -0.00066580    0.00886528
     atom   23 type  1   force =    -0.00000910    0.00497679    0.00314668
     atom   24 type  1   force =     0.06802878    0.00051319   -0.02901150
     atom   25 type  1   force =     0.00342053   -0.02996755    0.00209211
     atom   26 type  1   force =     0.01008649    0.02030754    0.00202936
     atom   27 type  2   force =    -0.00005902    0.00002796   -0.18364765
     atom   28 type  2   force =     0.00003554    0.02157799   -0.00597013
     atom   29 type  2   force =     0.00002697   -0.02175733   -0.00602990
     atom   30 type  1   force =    -0.06812779    0.00006528   -0.02897945
     atom   31 type  1   force =    -0.00345339   -0.02995367    0.00209953
     atom   32 type  1   force =    -0.01013321    0.02032350    0.00202672
     atom   33 type  2   force =     0.00010363   -0.00026167    0.06933807
     atom   34 type  2   force =    -0.00001412    0.03686972    0.00368773
     atom   35 type  2   force =    -0.00000653   -0.02933152    0.01039068
     atom   36 type  1   force =     0.00002524    0.00482170    0.05629775
     atom   37 type  1   force =    -0.00000978    0.00205819   -0.00519480
     atom   38 type  1   force =    -0.00000145    0.00419437   -0.00000134
     atom   39 type  1   force =     0.00005654    0.00002648    0.10681103
     atom   40 type  1   force =    -0.00000505   -0.00060962    0.00813223
     atom   41 type  1   force =     0.00000149    0.00071141    0.00248873
     atom   42 type  1   force =     0.06804991   -0.00121066   -0.02960842
     atom   43 type  1   force =     0.00353248   -0.02804924    0.00206071
     atom   44 type  1   force =     0.01051494    0.01133210    0.00282394
     atom   45 type  2   force =    -0.00006049   -0.00196535   -0.18352199
     atom   46 type  2   force =     0.00003388    0.01958655   -0.00655981
     atom   47 type  2   force =    -0.00000732   -0.01030283   -0.01270682
     atom   48 type  1   force =    -0.06814530   -0.00165138   -0.02957134
     atom   49 type  1   force =    -0.00354842   -0.02805004    0.00205827
     atom   50 type  1   force =    -0.01053363    0.01133577    0.00281134
     atom   51 type  2   force =     0.00009691   -0.00308100    0.06761105
     atom   52 type  2   force =    -0.00002112    0.03494690    0.00624495
     atom   53 type  2   force =     0.00000046    0.00513952    0.00129813
     atom   54 type  3   force =     0.00008481    0.00064481   -0.00246257
     atom   55 type  4   force =    -0.00002629   -0.00143927   -0.00040825
     atom   56 type  4   force =    -0.00129057    0.00056544    0.00021805
     atom   57 type  4   force =     0.00119058    0.00053283    0.00018167
     atom   58 type  3   force =    -0.01095279   -0.00709702   -0.00226245
     atom   59 type  4   force =     0.00005871    0.00002398    0.00011693
     atom   60 type  4   force =    -0.00018564   -0.00161892   -0.00130303
     atom   61 type  4   force =     0.01114745    0.00492562    0.00334486

     Total force =     0.455130     Total SCF correction =     0.000602
  @ DRIVER MODE: Message from server: STATUS
  @ DRIVER MODE: Message from server: GETFORCE
  @ DRIVER MODE: Returning v,forces,stress,ensemble

     Writing output data file ./calc.save/
  @ DRIVER MODE: Message from server: EXIT
  @ DRIVE MODE: Exiting

     General routines

     Parallel routines

   This run was terminated on:   8:39:24  19Oct2021

   JOB DONE.