     Program PWSCF v.6.7GPU starts on 23Aug2021 at 23:43:50

     R & G space division:  proc/nbgrp/npool/nimage =       6
     Reading input from /storage/home/hcoda1/3/ntian30/research/carbon/CH_vib/ads_slab/CHNH_a/out_0024/pw.inp
Warning: card &CELL ignored
Warning: card   CELL_DYNAMICS='IPI', ignored
Warning: card / ignored

     Current dimensions of program PWSCF are:
     Max number of different atomic species (ntypx) = 10
     Max number of k-points (npk) =  40000
     Max angular momentum in pseudopotentials (lmaxx) =  3
     Presently no symmetry can be used with electric field

     Message from routine cell_base_init:
     DEPRECATED: use true lattice parameter, not A to a.u. conversion factor

     IMPORTANT: XC functional enforced from input :
     Exchange-correlation= BEEF-VDW
                           (   1   4  43  14   2   0   0)
     Any further DFT definition will be discarded
     Please, verify this is what you really want

  @ DRIVER MODE: Connecting to
 qe_1139763_2632799.sched-torque.pace.gatech.edur6_j69jx_scratch
  using UNIX socket
  @ DRIVER MODE: Message from server: STATUS
  @ DRIVER MODE: Message from server: INIT
  @ DRIVER MODE: Receiving replica           0          -1
  @ DRIVER MODE: Receiving encoded integer          25
  @ DRIVER MODE:  SCF:  T  FORCE:  T  STRESS:  F  VC:  F  ENSEMBLE:  F
  @ DRIVER MODE:  SCF:  T  FORCE:  T  STRESS:  F  VC:  F  ENSEMBLE:  F

     Using Slab Decomposition

     bravais-lattice index     =            0
     lattice parameter (alat)  =       1.8897  a.u.
     unit-cell volume          =    6658.9804 (a.u.)^3
     number of atoms/cell      =           51
     number of atomic types    =            5
     number of electrons       =       389.00
     number of Kohn-Sham states=          204
     kinetic-energy cutoff     =      29.3995  Ry
     charge density cutoff     =     293.9946  Ry
     scf convergence threshold =      7.3E-08
     mixing beta               =       0.0500
     number of iterations used =            8  plain     mixing
     Exchange-correlation= BEEF-VDW
                           (   1   4  43  14   2   0   0)

     celldm(1)=   1.889726  celldm(2)=   0.000000  celldm(3)=   0.000000
     celldm(4)=   0.000000  celldm(5)=   0.000000  celldm(6)=   0.000000

     crystal axes: (cart. coord. in units of alat)
               a(1) = (   6.579727   0.000000   0.000000 )
               a(2) = (  -0.000775   5.961596   0.000000 )
               a(3) = (   0.000000   0.000000  25.155947 )

     reciprocal axes: (cart. coord. in units 2 pi/alat)
               b(1) = (  0.151982  0.000020  0.000000 )
               b(2) = (  0.000000  0.167740  0.000000 )
               b(3) = (  0.000000  0.000000  0.039752 )

     PseudoPot. # 1 for Ti read from file:
     /storage/coda1/p-amedford6/0/shared/rich_project_chbe-medford/medford-share/data/pseudos_module/espresso/nninc/pbe/van/Ti.UPF
     MD5 check sum: 8e4df49b7f0d34bbd5052bf3f5ea0213
     Pseudo is Ultrasoft, Zval = 12.0
     Generated by new atomic code, or converted to UPF format
     Using radial grid of  851 points,  6 beta functions with:
                l(1) =   0
                l(2) =   0
                l(3) =   1
                l(4) =   1
                l(5) =   2
                l(6) =   2
     Q(r) pseudized with  8 coefficients,  rinner =    1.000   1.000   1.000
                                                       1.000   1.000

     PseudoPot. # 2 for O  read from file:
     /storage/coda1/p-amedford6/0/shared/rich_project_chbe-medford/medford-share/data/pseudos_module/espresso/nninc/pbe/van/O.UPF
     MD5 check sum: 78c19812648e8988a0fe644b0f25305e
     Pseudo is Ultrasoft, Zval =  6.0
     Generated by new atomic code, or converted to UPF format
     Using radial grid of  737 points,  4 beta functions with:
                l(1) =   0
                l(2) =   0
                l(3) =   1
                l(4) =   1
     Q(r) pseudized with  8 coefficients,  rinner =    0.800   0.800   0.800

     PseudoPot. # 3 for N  read from file:
     /storage/coda1/p-amedford6/0/shared/rich_project_chbe-medford/medford-share/data/pseudos_module/espresso/nninc/pbe/van/N.UPF
     MD5 check sum: 90d10febe142ad51ac9d5be1deb811c4
     Pseudo is Ultrasoft, Zval =  5.0
     Generated by new atomic code, or converted to UPF format
     Using radial grid of  729 points,  4 beta functions with:
                l(1) =   0
                l(2) =   0
                l(3) =   1
                l(4) =   1
     Q(r) pseudized with  8 coefficients,  rinner =    0.800   0.800   0.800

     PseudoPot. # 4 for C  read from file:
     /storage/coda1/p-amedford6/0/shared/rich_project_chbe-medford/medford-share/data/pseudos_module/espresso/nninc/pbe/van/C.UPF
     MD5 check sum: 1a69bf6b8db32088f5b2163dbdb77a27
     Pseudo is Ultrasoft, Zval =  4.0
     Generated by new atomic code, or converted to UPF format
     Using radial grid of  721 points,  4 beta functions with:
                l(1) =   0
                l(2) =   0
                l(3) =   1
                l(4) =   1
     Q(r) pseudized with  8 coefficients,  rinner =    0.800   0.800   0.800

     PseudoPot. # 5 for H  read from file:
     /storage/coda1/p-amedford6/0/shared/rich_project_chbe-medford/medford-share/data/pseudos_module/espresso/nninc/pbe/van/H.UPF
     MD5 check sum: b5ee9d7bfd3a09ee7748110bda690ff7
     Pseudo is Ultrasoft, Zval =  1.0
     Generated by new atomic code, or converted to UPF format
     Using radial grid of  615 points,  1 beta functions with:
                l(1) =   0
     Q(r) pseudized with  8 coefficients,  rinner =    0.800

     atomic species   valence    mass     pseudopotential
        Ti1           12.00    47.86700     Ti( 1.00)
        O1             6.00    15.99900     O ( 1.00)
        N1             5.00    14.00700     N ( 1.00)
        C1             4.00    12.01100     C ( 1.00)
        H1             1.00     1.00800     H ( 1.00)

     No symmetry found

   Cartesian axes

     site n.     atom                  positions (alat units)
         1           Ti1 tau(   1) = (   0.0004258   2.9801865   6.0000000  )
         2           Ti1 tau(   2) = (   3.2906075   1.4906267   6.0002472  )
         3           O1  tau(   3) = (   0.0006271   0.0005054   7.9858123  )
         4           O1  tau(   4) = (   3.2906025   0.0005020   7.3038282  )
         5           O1  tau(   5) = (   4.5942328   1.4918067   9.2879030  )
         6           O1  tau(   6) = (   1.9868534   1.4903216   9.2879459  )
         7           Ti1 tau(   7) = (   3.2907910   2.8959150   9.1758416  )
         8           Ti1 tau(   8) = (   0.0015273   1.4827037   9.2680791  )
         9           O1  tau(   9) = (   3.3107583   5.9394213  11.3440837  )
        10           O1  tau(  10) = (   0.0116148   5.9584955  10.6183126  )
        11           O1  tau(  11) = (   1.3209705   1.4681434  12.6387851  )
        12           O1  tau(  12) = (   5.3117763   1.4689694  12.6372993  )
        13           Ti1 tau(  13) = (   6.5586693   2.9297660  12.6634068  )
        14           Ti1 tau(  14) = (   3.2703198   1.4638114  12.4955107  )
        15           O1  tau(  15) = (   0.0083729   5.9498784  14.6531507  )
        16           O1  tau(  16) = (   3.3267446   5.9373244  13.9471573  )
        17           O1  tau(  17) = (   4.5400383   1.4607670  16.1300196  )
        18           O1  tau(  18) = (   2.0562451   1.4605895  16.0859588  )
        19           Ti1 tau(  19) = (   3.3219294   2.9366742  15.7081325  )
        20           Ti1 tau(  20) = (   0.0794022   1.3719971  16.1804440  )
        21           O1  tau(  21) = (   3.2904802   0.0005063   4.7018136  )
        22           O1  tau(  22) = (   0.0048811   5.8540159  17.1722642  )
        23           O1  tau(  23) = (   1.3043587   1.4918075   6.0039043  )
        24           O1  tau(  24) = (   5.2767064   1.4903225   6.0039473  )
        25           Ti1 tau(  25) = (   0.0000382   5.9609847   6.0000000  )
        26           Ti1 tau(  26) = (   3.2902200   4.4714249   6.0002472  )
        27           O1  tau(  27) = (   0.0002396   2.9813036   7.9858123  )
        28           O1  tau(  28) = (   3.2902150   2.9813002   7.3038282  )
        29           O1  tau(  29) = (   4.5938453   4.4726049   9.2879030  )
        30           O1  tau(  30) = (   1.9864658   4.4711199   9.2879459  )
        31           Ti1 tau(  31) = (   3.2891106   5.8743827   9.1763621  )
        32           Ti1 tau(  32) = (   0.0006254   4.4649316   9.2693709  )
        33           O1  tau(  33) = (   3.3036409   2.9595551  11.3414423  )
        34           O1  tau(  34) = (   0.0092240   2.9805883  10.6323155  )
        35           O1  tau(  35) = (   1.3251634   4.4629088  12.6456700  )
        36           O1  tau(  36) = (   5.3099897   4.4533368  12.6426351  )
        37           Ti1 tau(  37) = (   0.0071655   5.9203210  12.5194715  )
        38           Ti1 tau(  38) = (   3.2774562   4.4456010  12.4944480  )
        39           O1  tau(  39) = (   0.0172281   2.9510719  14.7337574  )
        40           O1  tau(  40) = (   3.3230371   2.9488945  13.9167408  )
        41           O1  tau(  41) = (   4.5572773   4.4147185  16.0816828  )
        42           O1  tau(  42) = (   2.0601761   4.4202290  16.0727324  )
        43           Ti1 tau(  43) = (   3.3574729   5.9210026  15.7440268  )
        44           Ti1 tau(  44) = (   0.0706454   4.5402764  15.7844247  )
        45           O1  tau(  45) = (   3.2900926   2.9813045   4.7018136  )
        46           O1  tau(  46) = (   1.3039711   4.4726057   6.0039043  )
        47           O1  tau(  47) = (   5.2763189   4.4711207   6.0039473  )
        48           N1  tau(  48) = (   6.3928749   2.8496863  17.7411295  )
        49           C1  tau(  49) = (   0.6235525   2.6789418  18.7295412  )
        50           H1  tau(  50) = (   1.5351458   2.1120716  18.4733693  )
        51           H1  tau(  51) = (   5.5197072   3.3230476  17.9921812  )

     number of k points=    10  Fermi-Dirac smearing, width (Ry)=  0.0073
                       cart. coord. in units 2pi/alat
        k(    1) = (   0.0000000   0.0000000   0.0000000), wk =   0.1250000
        k(    2) = (   0.0000000   0.0419351   0.0000000), wk =   0.2500000
        k(    3) = (   0.0000000  -0.0838702   0.0000000), wk =   0.1250000
        k(    4) = (   0.0379955   0.0000049   0.0000000), wk =   0.2500000
        k(    5) = (   0.0379955   0.0419400   0.0000000), wk =   0.2500000
        k(    6) = (   0.0379955  -0.0838652   0.0000000), wk =   0.2500000
        k(    7) = (   0.0379955  -0.0419301   0.0000000), wk =   0.2500000
        k(    8) = (  -0.0759910  -0.0000099   0.0000000), wk =   0.1250000
        k(    9) = (  -0.0759910   0.0419252   0.0000000), wk =   0.2500000
        k(   10) = (  -0.0759910  -0.0838800   0.0000000), wk =   0.1250000

     Initial potential from superposition of free atoms

     starting charge  372.99918, renormalised to  389.00000

     negative rho (up, down):  1.909E-02 0.000E+00

     %%%%%%%%%%%%%%%%%%%%%%%%%%%%%%%%%%%%%%%%%%%%%%%%%%%%%%%%%%%%%%%%%%%%%%%%
     %                                                                      %
     % You are using vdW-DF, which was implemented by the Thonhauser group. %
     % Please cite the following two papers that made this development      %
     % possible and the two reviews that describe the various versions:     %
     %                                                                      %
     %   T. Thonhauser et al., PRL 115, 136402 (2015).                      %
     %   T. Thonhauser et al., PRB 76, 125112 (2007).                       %
     %   K. Berland et al., Rep. Prog. Phys. 78, 066501 (2015).             %
     %   D.C. Langreth et al., J. Phys.: Condens. Matter 21, 084203 (2009). %
     %                                                                      %
     %                                                                      %
     % If you are calculating the stress with vdW-DF, please also cite:     %
     %                                                                      %
     %   R. Sabatini et al., J. Phys.: Condens. Matter 24, 424209 (2012).   %
     %                                                                      %
     %%%%%%%%%%%%%%%%%%%%%%%%%%%%%%%%%%%%%%%%%%%%%%%%%%%%%%%%%%%%%%%%%%%%%%%%

     Adding external electric field

     Computed dipole along edir(3) :
        Dipole               -4.7389 Ry au,        -12.0450 Debye
        Dipole field         -0.0089 Ry au,

        Potential amp.        0.8290 Ry
        Total length         46.3494 bohr

     Starting wfcs are  294 atomic wfcs
  @ DRIVER MODE: Message from server: STATUS
  @ DRIVER MODE: Message from server: POSDATA
  @ DRIVER MODE: Reading and sharing cell
  @ DRIVER MODE: Reading and sharing positions
  @ DRIVER MODE: Received positions

     Self-consistent Calculation

     iteration #  1     ecut=    29.40 Ry     beta= 0.05
     Davidson diagonalization with overlap
     c_bands:  4 eigenvalues not converged
     c_bands:  2 eigenvalues not converged
     c_bands:  1 eigenvalues not converged
     c_bands:  3 eigenvalues not converged
     c_bands:  2 eigenvalues not converged
     c_bands:  1 eigenvalues not converged
     c_bands:  2 eigenvalues not converged
     c_bands:  2 eigenvalues not converged
     c_bands:  1 eigenvalues not converged
     c_bands:  1 eigenvalues not converged
     ethr =  1.00E-05,  avg # of iterations = 20.0

[...]

     total energy              =   -2847.39984044 Ry
     estimated scf accuracy    <     789.16904853 Ry

     iteration #  2     ecut=    29.40 Ry     beta= 0.05
     Davidson diagonalization with overlap
     ethr =  1.00E-02,  avg # of iterations = 15.1

[...]

     iteration # 50     ecut=    29.40 Ry     beta= 0.05
     Davidson diagonalization with overlap
     c_bands:  2 eigenvalues not converged
     ethr =  3.06E-11,  avg # of iterations = 13.5

[...]

     total energy              =   -2917.76272629 Ry
     estimated scf accuracy    <       0.00000013 Ry

     iteration # 51     ecut=    29.40 Ry     beta= 0.05
     Davidson diagonalization with overlap
     ethr =  3.06E-11,  avg # of iterations =  8.3

     negative rho (up, down):  1.797E-02 0.000E+00

     Adding external electric field

     Computed dipole along edir(3) :
        Dipole                0.1195 Ry au,          0.3037 Debye
        Dipole field          0.0002 Ry au,

        Potential amp.       -0.0209 Ry
        Total length         46.3494 bohr

     End of self-consistent calculation

          k = 0.0000 0.0000 0.0000 ( 18029 PWs)   bands (ev):

   -56.3249 -56.3192 -56.2885 -56.2850 -56.2190 -56.1855 -56.1592 -56.1447
   -56.1269 -56.1073 -56.0925 -56.0738 -55.9223 -55.7650 -55.3042 -55.2702
   -32.8868 -32.8026 -32.6714 -32.6668 -32.6391 -32.6273 -32.6114 -32.5975
   -32.5616 -32.5545 -32.5332 -32.5299 -32.5033 -32.4716 -32.4706 -32.4603
   -32.4555 -32.4244 -32.4240 -32.4174 -32.3920 -32.3809 -32.3764 -32.3445
   -32.3387 -32.3258 -32.3252 -32.3185 -32.3141 -32.3100 -32.2913 -32.2759
   -32.2757 -32.2636 -32.2593 -32.2294 -32.2226 -32.2163 -32.1353 -32.0488
   -31.9990 -31.8962 -31.7118 -31.6224 -31.6000 -31.5284 -31.4419 -31.3309
   -17.0844 -16.8176 -16.6506 -16.4984 -16.4636 -16.3523 -16.1867 -16.0626
   -16.0192 -16.0003 -15.9184 -15.8954 -15.8667 -15.8586 -15.8577 -15.8338
   -15.8303 -15.7759 -15.7535 -15.7368 -15.7106 -15.6914 -15.6681 -15.6332
   -15.5343 -15.4795 -15.4553 -15.3875 -15.3188 -14.9875 -13.8071 -13.6905
    -8.2537  -4.4503  -4.3600  -4.2739  -4.2293  -4.1866  -3.9712  -3.8954
    -3.8887  -3.7007  -3.5647  -3.5163  -3.5010  -3.4597  -3.4584  -3.2452
    -3.2062  -3.1428  -3.1381  -3.1207  -3.1161  -3.0890  -3.0805  -3.0593
    -3.0111  -2.9321  -2.8700  -2.7670  -2.7347  -2.6831  -2.6594  -2.6344
    -2.5977  -2.5873  -2.5792  -2.5605  -2.5456  -2.5315  -2.4430  -2.3975
    -2.2928  -2.1594  -2.1438  -2.1222  -1.9386  -1.8838  -1.8074  -1.7881
    -1.7581  -1.7434  -1.7168  -1.6318  -1.5548  -1.5208  -1.4511  -1.4474
    -1.3593  -1.3167  -1.2280  -1.1998  -1.1651  -1.0876  -1.0783  -1.0716
    -1.0203  -0.8259  -0.8015  -0.7943  -0.7730  -0.7094  -0.6538  -0.6170
    -0.5584  -0.5304  -0.4896  -0.4049  -0.3978  -0.3622  -0.3409  -0.3264
    -0.2976  -0.2926  -0.1031  -0.0985  -0.0543  -0.0418   0.0450   0.1986
     0.2916   0.3287   0.4024   0.6391   0.7175   0.7948   0.9083   1.2899
     1.3360   2.5444   2.8123   2.8846   2.9004   2.9417   3.0371   3.0479
     3.2639   3.2739   3.3003   3.3202

[...]

          k = 0.0380-0.0419 0.0000 ( 17876 PWs)   bands (ev):

[...]

          k =-0.0760-0.0000 0.0000 ( 17886 PWs)   bands (ev):

[...]

          k =-0.0760-0.0839 0.0000 ( 17948 PWs)   bands (ev):

   -56.3094 -56.3039 -56.3030 -56.3011 -56.2134 -56.1765 -56.1645 -56.1535
   -56.1111 -56.1076 -56.0923 -56.0892 -55.9207 -55.7664 -55.2872 -55.2870
   -32.6932 -32.6864 -32.6184 -32.6172 -32.5998 -32.5976 -32.5961 -32.5864
   -32.5277 -32.5229 -32.5221 -32.5107 -32.4846 -32.4555 -32.4500 -32.4400
   -32.4335 -32.4287 -32.4251 -32.4236 -32.4226 -32.4214 -32.4204 -32.3906
   -32.3861 -32.3685 -32.3565 -32.3441 -32.3335 -32.3241 -32.3225 -32.3147
   -32.3129 -32.3055 -32.3041 -32.2866 -32.2825 -32.2117 -32.1378 -32.0701
   -32.0027 -31.9477 -31.6128 -31.6126 -31.5246 -31.5244 -31.4852 -31.4851
   -16.5307 -16.4902 -16.3205 -16.2576 -16.2463 -16.2347 -16.1916 -16.0780
   -16.0473 -16.0291 -16.0080 -15.9953 -15.9719 -15.9621 -15.8695 -15.8574
   -15.8542 -15.8318 -15.7927 -15.7883 -15.7860 -15.7753 -15.7594 -15.7575
   -15.7226 -15.6484 -15.6442 -15.4243 -15.3325 -15.2653 -13.7925 -13.7921
    -8.2570  -4.0594  -3.8200  -3.7694  -3.6493  -3.5583  -3.4932  -3.4725
    -3.3974  -3.2778  -3.2189  -3.2116  -3.2018  -3.1704  -3.1645  -3.1436
    -3.1335  -3.1203  -3.0776  -3.0567  -3.0410  -3.0310  -3.0051  -2.9914
    -2.9695  -2.9596  -2.9469  -2.9221  -2.8868  -2.8850  -2.8562  -2.8483
    -2.6228  -2.6100  -2.5466  -2.4970  -2.4742  -2.4628  -2.4598  -2.4016
    -2.3814  -2.3594  -2.2624  -2.1960  -2.0432  -2.0263  -2.0183  -1.9797
    -1.9468  -1.8148  -1.7558  -1.7368  -1.7051  -1.6542  -1.6452  -1.5833
    -1.5660  -1.5284  -1.4596  -1.4227  -1.3762  -1.3573  -1.2830  -1.2765
    -1.2435  -1.1898  -1.1106  -1.0899  -1.0724  -1.0604  -1.0058  -0.9658
    -0.9215  -0.8680  -0.7970  -0.7018  -0.6218  -0.4716  -0.4090  -0.3091
    -0.2483  -0.2102  -0.1568  -0.1273  -0.0410  -0.0100  -0.0076   0.0540
     0.0900   0.1896   0.1947   0.2124   0.4404   1.0799   1.0810   1.1553
     1.1560   2.5490   3.0784   3.0928   3.1041   3.1518   3.3099   3.3159
     3.3430   3.3453   3.4351   3.4693

     the Fermi energy is     2.8135 ev

!    total energy              =   -2917.76281780 Ry
     estimated scf accuracy    <       0.00000005 Ry
     smearing contrib. (-TS)   =      -0.02760318 Ry
     internal energy E=F+TS    =   -2917.73521462 Ry

     The total energy is F=E-TS. E is the sum of the following terms:
     one-electron contribution =  -24683.38831697 Ry
     hartree contribution      =   12421.49643946 Ry
     xc contribution           =    -479.08229021 Ry
     ewald contribution        =    9823.23892617 Ry
     electric field correction =       0.00002693 Ry

     convergence has been achieved in  51 iterations

     Forces acting on atoms (cartesian axes, Ry/au):

     atom    1 type  1   force =     0.00012722   -0.00025854    0.09638038
     atom    2 type  1   force =    -0.00005506   -0.00048150   -0.17575793
     atom    3 type  2   force =     0.00009084   -0.00008519   -0.02479089
     atom    4 type  2   force =     0.00006435   -0.00166013    0.05385209
     atom    5 type  2   force =    -0.01232742   -0.00181316    0.00351460
     atom    6 type  2   force =     0.01430512   -0.00152854    0.00391627
     atom    7 type  1   force =     0.00060926    0.00063223   -0.01170102
     atom    8 type  1   force =    -0.00020837    0.02054880    0.02640857
     atom    9 type  2   force =    -0.00055066    0.00047343   -0.00019021
     atom   10 type  2   force =    -0.00145526   -0.00067380   -0.01374744
     atom   11 type  2   force =     0.00038611    0.00026195   -0.00019441
     atom   12 type  2   force =    -0.00051102    0.00054187   -0.00042719
     atom   13 type  1   force =     0.00051956   -0.00033844   -0.00082156
     atom   14 type  1   force =    -0.00116622    0.00108187   -0.00112409
     atom   15 type  2   force =     0.00002518   -0.00006421    0.00081059
     atom   16 type  2   force =     0.00021818    0.00068480   -0.00040198
     atom   17 type  2   force =    -0.00076356    0.00036518   -0.00092632
     atom   18 type  2   force =     0.00113377    0.00075240    0.00039999
     atom   19 type  1   force =    -0.00012738    0.00074966   -0.00093007
     atom   20 type  1   force =    -0.00044166    0.00038341   -0.00028999
     atom   21 type  2   force =     0.00005095    0.00002015    0.10337622
     atom   22 type  2   force =     0.00044637   -0.00060758    0.00056442
     atom   23 type  2   force =    -0.07128633   -0.00005214   -0.02762674
     atom   24 type  2   force =     0.07125126    0.00034007   -0.02773348
     atom   25 type  1   force =     0.00018935   -0.00035975    0.09608693
     atom   26 type  1   force =     0.00000954   -0.00026196   -0.17592411
     atom   27 type  2   force =     0.00021825   -0.00036879   -0.02358513
     atom   28 type  2   force =     0.00006589   -0.00138424    0.05391189
     atom   29 type  2   force =    -0.01264908    0.00048337    0.00327792
     atom   30 type  2   force =     0.01459773    0.00113652    0.00365963
     atom   31 type  1   force =     0.00072042    0.00352329   -0.01313211
     atom   32 type  1   force =     0.00000028   -0.02244327    0.02630515
     atom   33 type  2   force =     0.00005694   -0.00001873    0.00100587
     atom   34 type  2   force =    -0.00088591   -0.00053997   -0.01873249
     atom   35 type  2   force =    -0.00027054   -0.00022325    0.00016889
     atom   36 type  2   force =     0.00013784   -0.00032636   -0.00004932
     atom   37 type  1   force =     0.00038213    0.00061104   -0.00049280
     atom   38 type  1   force =    -0.00131615   -0.00094532   -0.00049035
     atom   39 type  2   force =     0.00004578    0.00109934   -0.00050956
     atom   40 type  2   force =    -0.00014233   -0.00011848   -0.00034372
     atom   41 type  2   force =     0.00036926    0.00037788   -0.00000342
     atom   42 type  2   force =    -0.00079069    0.00003180   -0.00031261
     atom   43 type  1   force =    -0.00030496   -0.00027858   -0.00060265
     atom   44 type  1   force =    -0.00036819    0.00042982   -0.00052205
     atom   45 type  2   force =     0.00006562   -0.00001162    0.10334579
     atom   46 type  2   force =    -0.07127424   -0.00006314   -0.02763201
     atom   47 type  2   force =     0.07124705    0.00042749   -0.02769666
     atom   48 type  3   force =    -0.00541965    0.00281868    0.00210306
     atom   49 type  4   force =     0.00169395   -0.00075325    0.00039131
     atom   50 type  5   force =    -0.00025768    0.00011044   -0.00026183
     atom   51 type  5   force =     0.00354415   -0.00222556   -0.00252544

     Total force =     0.368989     Total SCF correction =     0.000556
  @ DRIVER MODE: Message from server: STATUS
  @ DRIVER MODE: Message from server: GETFORCE
  @ DRIVER MODE: Returning v,forces,stress,ensemble

     Writing output data file ./calc.save/
  @ DRIVER MODE: Message from server: EXIT
  @ DRIVE MODE: Exiting

     General routines

     Parallel routines

   This run was terminated on:   0: 6:44  24Aug2021

   JOB DONE.