     Program PWSCF v.6.7GPU starts on 15Sep2021 at 18: 8:43

     R & G space division:  proc/nbgrp/npool/nimage =      10
     Reading input from /storage/home/hcoda1/3/ntian30/research/carbon/CxH_vib/H2O_calc/ads_slab/CH3OHH2O_e/out_0008/pw.inp
Warning: card &CELL ignored
Warning: card   CELL_DYNAMICS='IPI', ignored
Warning: card / ignored

     Current dimensions of program PWSCF are:
     Max number of different atomic species (ntypx) = 10
     Max number of k-points (npk) =  40000
     Max angular momentum in pseudopotentials (lmaxx) =  3
     Presently no symmetry can be used with electric field

     Message from routine cell_base_init:
     DEPRECATED: use true lattice parameter, not A to a.u. conversion factor

     IMPORTANT: XC functional enforced from input :
     Exchange-correlation= BEEF-VDW
                           (   1   4  43  14   2   0   0)
     Any further DFT definition will be discarded
     Please, verify this is what you really want

  @ DRIVER MODE: Connecting to
 qe_1139763_2852623.sched-torque.pace.gatech.eduk3_bz3z4_scratch
  using UNIX socket
  @ DRIVER MODE: Message from server: STATUS
  @ DRIVER MODE: Message from server: INIT
  @ DRIVER MODE: Receiving replica           0          -1
  @ DRIVER MODE: Receiving encoded integer          25
  @ DRIVER MODE:  SCF:  T  FORCE:  T  STRESS:  F  VC:  F  ENSEMBLE:  F
  @ DRIVER MODE:  SCF:  T  FORCE:  T  STRESS:  F  VC:  F  ENSEMBLE:  F

     Using Slab Decomposition

     bravais-lattice index     =            0
     lattice parameter (alat)  =       1.8897  a.u.
     unit-cell volume          =    6658.9804 (a.u.)^3
     number of atoms/cell      =           56
     number of atomic types    =            4
     number of electrons       =       400.00
     number of Kohn-Sham states=          210
     kinetic-energy cutoff     =      29.3995  Ry
     charge density cutoff     =     293.9946  Ry
     scf convergence threshold =      7.3E-08
     mixing beta               =       0.0500
     number of iterations used =            8  plain     mixing
     Exchange-correlation= BEEF-VDW
                           (   1   4  43  14   2   0   0)

     celldm(1)=   1.889726  celldm(2)=   0.000000  celldm(3)=   0.000000
     celldm(4)=   0.000000  celldm(5)=   0.000000  celldm(6)=   0.000000

     crystal axes: (cart. coord. in units of alat)
               a(1) = (   6.579727   0.000000   0.000000 )
               a(2) = (  -0.000775   5.961596   0.000000 )
               a(3) = (   0.000000   0.000000  25.155947 )

     reciprocal axes: (cart. coord. in units 2 pi/alat)
               b(1) = (  0.151982  0.000020  0.000000 )
               b(2) = (  0.000000  0.167740  0.000000 )
               b(3) = (  0.000000  0.000000  0.039752 )

     PseudoPot. # 1 for Ti read from file:
     /storage/coda1/p-amedford6/0/shared/rich_project_chbe-medford/medford-share/data/pseudos_module/espresso/nninc/pbe/van/Ti.UPF
     MD5 check sum: 8e4df49b7f0d34bbd5052bf3f5ea0213
     Pseudo is Ultrasoft, Zval = 12.0
     Generated by new atomic code, or converted to UPF format
     Using radial grid of  851 points,  6 beta functions with:
                l(1) =   0
                l(2) =   0
                l(3) =   1
                l(4) =   1
                l(5) =   2
                l(6) =   2
     Q(r) pseudized with  8 coefficients,  rinner =    1.000   1.000   1.000
                                                       1.000   1.000

     PseudoPot. # 2 for O  read from file:
     /storage/coda1/p-amedford6/0/shared/rich_project_chbe-medford/medford-share/data/pseudos_module/espresso/nninc/pbe/van/O.UPF
     MD5 check sum: 78c19812648e8988a0fe644b0f25305e
     Pseudo is Ultrasoft, Zval =  6.0
     Generated by new atomic code, or converted to UPF format
     Using radial grid of  737 points,  4 beta functions with:
                l(1) =   0
                l(2) =   0
                l(3) =   1
                l(4) =   1
     Q(r) pseudized with  8 coefficients,  rinner =    0.800   0.800   0.800

     PseudoPot. # 3 for C  read from file:
     /storage/coda1/p-amedford6/0/shared/rich_project_chbe-medford/medford-share/data/pseudos_module/espresso/nninc/pbe/van/C.UPF
     MD5 check sum: 1a69bf6b8db32088f5b2163dbdb77a27
     Pseudo is Ultrasoft, Zval =  4.0
     Generated by new atomic code, or converted to UPF format
     Using radial grid of  721 points,  4 beta functions with:
                l(1) =   0
                l(2) =   0
                l(3) =   1
                l(4) =   1
     Q(r) pseudized with  8 coefficients,  rinner =    0.800   0.800   0.800

     PseudoPot. # 4 for H  read from file:
     /storage/coda1/p-amedford6/0/shared/rich_project_chbe-medford/medford-share/data/pseudos_module/espresso/nninc/pbe/van/H.UPF
     MD5 check sum: b5ee9d7bfd3a09ee7748110bda690ff7
     Pseudo is Ultrasoft, Zval =  1.0
     Generated by new atomic code, or converted to UPF format
     Using radial grid of  615 points,  1 beta functions with:
                l(1) =   0
     Q(r) pseudized with  8 coefficients,  rinner =    0.800

     atomic species   valence    mass     pseudopotential
        Ti1           12.00    47.86700     Ti( 1.00)
        O1             6.00    15.99900     O ( 1.00)
        C1             4.00    12.01100     C ( 1.00)
        H1             1.00     1.00800     H ( 1.00)

     No symmetry found

   Cartesian axes

     site n.     atom                  positions (alat units)
         1           Ti1 tau(   1) = (   0.0004258   2.9801865   6.0000000  )
         2           Ti1 tau(   2) = (   3.2906075   1.4906267   6.0002472  )
         3           O1  tau(   3) = (   0.0006271   0.0005054   7.9858123  )
         4           O1  tau(   4) = (   3.2906025   0.0005020   7.3038282  )
         5           O1  tau(   5) = (   4.5942328   1.4918067   9.2879030  )
         6           O1  tau(   6) = (   1.9868534   1.4903216   9.2879459  )
         7           Ti1 tau(   7) = (   3.3179988   2.9667087   9.1587561  )
         8           Ti1 tau(   8) = (   0.0368451   1.4888401   9.2646154  )
         9           O1  tau(   9) = (   3.2981896   5.9413050  11.3756853  )
        10           O1  tau(  10) = (   0.0022081   5.9550161  10.6068466  )
        11           O1  tau(  11) = (   1.2930414   1.4711740  12.6526869  )
        12           O1  tau(  12) = (   5.2963464   1.4745835  12.6500758  )
        13           Ti1 tau(  13) = (   0.0229324   2.9590759  12.5385950  )
        14           Ti1 tau(  14) = (   3.3157970   1.4644123  12.5194148  )
        15           O1  tau(  15) = (   6.5691168   5.9481840  14.6869282  )
        16           O1  tau(  16) = (   3.2964787   5.9455965  14.0277316  )
        17           O1  tau(  17) = (   4.5665908   1.5027878  16.2081754  )
        18           O1  tau(  18) = (   2.0283028   1.5092035  16.1774433  )
        19           Ti1 tau(  19) = (   3.2999954   2.9453206  15.7178785  )
        20           Ti1 tau(  20) = (   6.5724188   1.3235339  15.9896992  )
        21           O1  tau(  21) = (   3.2904802   0.0005063   4.7018136  )
        22           O1  tau(  22) = (   0.0286320   5.9425150  17.2304330  )
        23           O1  tau(  23) = (   1.3043587   1.4918075   6.0039043  )
        24           O1  tau(  24) = (   5.2767064   1.4903225   6.0039473  )
        25           Ti1 tau(  25) = (   0.0000382   5.9609847   6.0000000  )
        26           Ti1 tau(  26) = (   3.2902200   4.4714249   6.0002472  )
        27           O1  tau(  27) = (   0.0002396   2.9813036   7.9858123  )
        28           O1  tau(  28) = (   3.2902150   2.9813002   7.3038282  )
        29           O1  tau(  29) = (   4.5938453   4.4726049   9.2879030  )
        30           O1  tau(  30) = (   1.9864658   4.4711199   9.2879459  )
        31           Ti1 tau(  31) = (   3.3176359   5.9492212   9.1540102  )
        32           Ti1 tau(  32) = (   0.0367062   4.4560090   9.2708352  )
        33           O1  tau(  33) = (   3.2951800   2.9650663  11.3684769  )
        34           O1  tau(  34) = (   0.0080098   2.9764013  10.6279654  )
        35           O1  tau(  35) = (   1.2931912   4.4560454  12.6592269  )
        36           O1  tau(  36) = (   5.2946864   4.4524020  12.6579832  )
        37           Ti1 tau(  37) = (   0.0159028   5.9413441  12.4831893  )
        38           Ti1 tau(  38) = (   3.3151975   4.4500431  12.5204281  )
        39           O1  tau(  39) = (   0.0034497   2.9621527  14.8596962  )
        40           O1  tau(  40) = (   3.2989893   2.9535984  13.9376031  )
        41           O1  tau(  41) = (   4.5724332   4.4114593  16.1445292  )
        42           O1  tau(  42) = (   2.0255208   4.3883007  16.1585022  )
        43           Ti1 tau(  43) = (   3.2821299   5.9114753  15.8432964  )
        44           Ti1 tau(  44) = (   6.5414858   4.5242847  15.8739915  )
        45           O1  tau(  45) = (   3.2900926   2.9813045   4.7018136  )
        46           O1  tau(  46) = (   1.3039711   4.4726057   6.0039043  )
        47           O1  tau(  47) = (   5.2763189   4.4711207   6.0039473  )
        48           C1  tau(  48) = (   5.9754720   3.1749164  18.9278073  )
        49           O1  tau(  49) = (   0.1633887   3.0270296  17.7012840  )
        50           H1  tau(  50) = (   4.9293134   3.0706859  18.6584277  )
        51           H1  tau(  51) = (   1.0910173   3.2466920  17.8500278  )
        52           H1  tau(  52) = (   6.2690755   2.3937635  19.6305738  )
        53           H1  tau(  53) = (   6.1431946   4.1694627  19.3379575  )
        54           O1  tau(  54) = (   3.1723115   5.9428592  18.3689464  )
        55           H1  tau(  55) = (   3.8852673   0.6353712  18.4582360  )
        56           H1  tau(  56) = (   2.3406934   0.4831942  18.3201771  )

     number of k points=    10  Fermi-Dirac smearing, width (Ry)=  0.0073
                       cart. coord. in units 2pi/alat
        k(    1) = (   0.0000000   0.0000000   0.0000000), wk =   0.1250000
        k(    2) = (   0.0000000   0.0419351   0.0000000), wk =   0.2500000
        k(    3) = (   0.0000000  -0.0838702   0.0000000), wk =   0.1250000
        k(    4) = (   0.0379955   0.0000049   0.0000000), wk =   0.2500000
        k(    5) = (   0.0379955   0.0419400   0.0000000), wk =   0.2500000
        k(    6) = (   0.0379955  -0.0838652   0.0000000), wk =   0.2500000
        k(    7) = (   0.0379955  -0.0419301   0.0000000), wk =   0.2500000
        k(    8) = (  -0.0759910  -0.0000099   0.0000000), wk =   0.1250000
        k(    9) = (  -0.0759910   0.0419252   0.0000000), wk =   0.2500000
        k(   10) = (  -0.0759910  -0.0838800   0.0000000), wk =   0.1250000

     Initial potential from superposition of free atoms

     starting charge  383.99915, renormalised to  400.00000

     negative rho (up, down):  1.599E-02 0.000E+00

     %%%%%%%%%%%%%%%%%%%%%%%%%%%%%%%%%%%%%%%%%%%%%%%%%%%%%%%%%%%%%%%%%%%%%%%%
     %                                                                      %
     % You are using vdW-DF, which was implemented by the Thonhauser group. %
     % Please cite the following two papers that made this development      %
     % possible and the two reviews that describe the various versions:     %
     %                                                                      %
     %   T. Thonhauser et al., PRL 115, 136402 (2015).                      %
     %   T. Thonhauser et al., PRB 76, 125112 (2007).                       %
     %   K. Berland et al., Rep. Prog. Phys. 78, 066501 (2015).             %
     %   D.C. Langreth et al., J. Phys.: Condens. Matter 21, 084203 (2009). %
     %                                                                      %
     %                                                                      %
     % If you are calculating the stress with vdW-DF, please also cite:     %
     %                                                                      %
     %   R. Sabatini et al., J. Phys.: Condens. Matter 24, 424209 (2012).   %
     %                                                                      %
     %%%%%%%%%%%%%%%%%%%%%%%%%%%%%%%%%%%%%%%%%%%%%%%%%%%%%%%%%%%%%%%%%%%%%%%%

     Adding external electric field

     Computed dipole along edir(3) :
        Dipole              -11.7400 Ry au,        -29.8402 Debye
        Dipole field         -0.0222 Ry au,

        Potential amp.        2.0537 Ry
        Total length         46.3494 bohr

     Starting wfcs are  302 atomic wfcs
  @ DRIVER MODE: Message from server: STATUS
  @ DRIVER MODE: Message from server: POSDATA
  @ DRIVER MODE: Reading and sharing cell
  @ DRIVER MODE: Reading and sharing positions
  @ DRIVER MODE: Received positions

     Self-consistent Calculation

     iteration #  1     ecut=    29.40 Ry     beta= 0.05
     Davidson diagonalization with overlap
     c_bands:  2 eigenvalues not converged
     c_bands:  2 eigenvalues not converged
     c_bands:  4 eigenvalues not converged
     c_bands:  3 eigenvalues not converged
     c_bands:  4 eigenvalues not converged
     c_bands:  4 eigenvalues not converged
     c_bands:  3 eigenvalues not converged
     c_bands:  2 eigenvalues not converged
     ethr =  1.00E-05,  avg # of iterations = 21.3

[...]

     total energy              =   -2420.21015580 Ry
     estimated scf accuracy    <    6189.16043636 Ry

     iteration #  2     ecut=    29.40 Ry     beta= 0.05
     Davidson diagonalization with overlap
     ethr =  1.00E-02,  avg # of iterations = 28.8

[...]

     iteration # 50     ecut=    29.40 Ry     beta= 0.05
     Davidson diagonalization with overlap
     c_bands:  1 eigenvalues not converged
     ethr =  4.15E-10,  avg # of iterations = 10.1

[...]

     total energy              =   -2967.47570900 Ry
     estimated scf accuracy    <       0.00000010 Ry

     iteration # 56     ecut=    29.40 Ry     beta= 0.05
     Davidson diagonalization with overlap
     ethr =  2.39E-11,  avg # of iterations =  6.5

     negative rho (up, down):  1.587E-02 0.000E+00

     Adding external electric field

     Computed dipole along edir(3) :
        Dipole                1.3832 Ry au,          3.5157 Debye
        Dipole field          0.0026 Ry au,

        Potential amp.       -0.2420 Ry
        Total length         46.3494 bohr

     End of self-consistent calculation

          k = 0.0000 0.0000 0.0000 ( 18029 PWs)   bands (ev):

   -55.2474 -55.2199 -55.2114 -55.1856 -55.1538 -55.1458 -55.1405 -55.0937
   -55.0931 -55.0871 -55.0528 -55.0350 -55.0050 -55.0010 -54.3093 -54.2752
   -31.8140 -31.7634 -31.7151 -31.6249 -31.5625 -31.5522 -31.5474 -31.5451
   -31.5086 -31.4793 -31.4630 -31.4608 -31.4496 -31.4396 -31.4254 -31.4110
   -31.3938 -31.3876 -31.3844 -31.3802 -31.3740 -31.3652 -31.3424 -31.3378
   -31.3359 -31.3160 -31.3133 -31.3112 -31.2906 -31.2771 -31.2615 -31.2408
   -31.2394 -31.2386 -31.2274 -31.2182 -31.1998 -31.1864 -31.1741 -31.1698
   -31.1565 -31.1461 -30.7214 -30.6189 -30.5973 -30.5377 -30.4513 -30.3402
   -20.1816 -19.0873 -16.0768 -15.8298 -15.6899 -15.5915 -15.4707 -15.3371
   -15.2769 -15.1621 -15.0711 -14.9819 -14.9663 -14.9460 -14.9184 -14.8958
   -14.8708 -14.8326 -14.8066 -14.7627 -14.7539 -14.7375 -14.7306 -14.6941
   -14.6904 -14.6458 -14.6375 -14.4805 -14.4104 -14.3502 -14.1284 -12.8101
   -12.6907 -11.2152  -6.9370  -6.8553  -5.1316  -5.0082  -3.4174  -3.2604
    -3.2314  -3.2006  -3.1807  -3.1425  -3.0620  -2.9629  -2.7868  -2.6767
    -2.5415  -2.5315  -2.4857  -2.4584  -2.4015  -2.3205  -2.2323  -2.2040
    -2.1698  -2.1365  -2.1332  -2.1171  -2.1064  -2.0515  -2.0151  -1.9572
    -1.8632  -1.8123  -1.7738  -1.7545  -1.6926  -1.6486  -1.6150  -1.5864
    -1.5796  -1.5732  -1.5156  -1.5131  -1.5050  -1.4931  -1.4750  -1.2870
    -1.2496  -1.1160  -1.0237  -0.9825  -0.9693  -0.8149  -0.8080  -0.7641
    -0.7307  -0.6965  -0.6559  -0.5982  -0.5011  -0.4709  -0.4191  -0.3805
    -0.2725  -0.2406  -0.2098  -0.1549  -0.0474  -0.0391  -0.0132   0.0057
     0.0803   0.1759   0.2051   0.2268   0.3033   0.3084   0.3695   0.4104
     0.4444   0.5190   0.5640   0.5754   0.6671   0.6840   0.6976   0.7242
     0.7276   0.8262   0.8622   0.9069   0.9254   1.0770   1.1712   1.3107
     1.3395   1.6059   1.7014   1.7166   1.8769   2.3024   2.3572   3.8436
     3.9120   3.9503   3.9582   3.9715   4.0510   4.3347   4.3501   4.3619
     4.3716   4.3897

[...]

          k = 0.0380-0.0419 0.0000 ( 17876 PWs)   bands (ev):

[...]

          k =-0.0760-0.0000 0.0000 ( 17886 PWs)   bands (ev):

[...]

          k =-0.0760-0.0839 0.0000 ( 17948 PWs)   bands (ev):

   -55.2303 -55.2282 -55.2046 -55.2008 -55.1507 -55.1399 -55.1331 -55.1011
   -55.0999 -55.0712 -55.0684 -55.0198 -55.0163 -55.0068 -54.2923 -54.2921
   -31.6804 -31.6211 -31.6141 -31.5318 -31.5282 -31.5143 -31.5027 -31.4977
   -31.4903 -31.4696 -31.4514 -31.4458 -31.4417 -31.4279 -31.4024 -31.4001
   -31.3885 -31.3860 -31.3788 -31.3780 -31.3745 -31.3711 -31.3583 -31.3445
   -31.3366 -31.3316 -31.3308 -31.3244 -31.3213 -31.3213 -31.3206 -31.3023
   -31.2951 -31.2926 -31.2739 -31.2696 -31.2689 -31.2449 -31.2411 -31.2060
   -31.2018 -31.1886 -30.6099 -30.6099 -30.5342 -30.5339 -30.4946 -30.4944
   -20.1782 -19.0866 -15.6352 -15.5364 -15.3862 -15.2630 -15.2507 -15.2380
   -15.1861 -15.1221 -15.1068 -15.0580 -15.0442 -15.0140 -14.9982 -14.9922
   -14.9561 -14.8478 -14.8437 -14.8334 -14.8126 -14.7677 -14.7567 -14.7496
   -14.7374 -14.7012 -14.6928 -14.6786 -14.6682 -14.5760 -14.4380 -12.7921
   -12.7914 -11.2170  -6.9338  -6.8548  -5.1329  -4.9871  -3.1869  -3.0019
    -2.8045  -2.7258  -2.6283  -2.4808  -2.4661  -2.3851  -2.3734  -2.3230
    -2.2520  -2.2489  -2.2454  -2.1641  -2.1520  -2.1519  -2.1305  -2.1124
    -2.0719  -2.0630  -2.0386  -2.0281  -1.9869  -1.9560  -1.9430  -1.9261
    -1.9156  -1.9117  -1.8807  -1.8660  -1.8510  -1.8083  -1.7869  -1.7253
    -1.6415  -1.6005  -1.4783  -1.4754  -1.4424  -1.4111  -1.3847  -1.3447
    -1.3243  -1.2768  -1.2587  -1.2299  -1.0472  -1.0312  -0.9768  -0.9371
    -0.9174  -0.9036  -0.8417  -0.7694  -0.7431  -0.7114  -0.6458  -0.5725
    -0.4767  -0.4522  -0.4438  -0.3383  -0.2856  -0.2463  -0.2419  -0.2325
    -0.2087  -0.1600  -0.1402  -0.0784  -0.0394   0.0042   0.0297   0.0467
     0.2279   0.2662   0.3248   0.4155   0.4446   0.5901   0.6385   0.6901
     0.7507   0.8270   0.8383   0.9041   1.0183   1.0304   1.0602   1.1375
     1.1808   1.1865   1.2117   2.0679   2.0699   2.1714   2.1745   3.9733
     4.0809   4.0997   4.1784   4.2451   4.3527   4.3660   4.3951   4.4056
     4.4500   4.4824

     the Fermi energy is     3.9001 ev

!    total energy              =   -2967.47577899 Ry
     estimated scf accuracy    <       0.00000007 Ry
     smearing contrib. (-TS)   =      -0.03654031 Ry
     internal energy E=F+TS    =   -2967.43923867 Ry

     The total energy is F=E-TS. E is the sum of the following terms:
     one-electron contribution =  -23962.81061965 Ry
     hartree contribution      =   12077.02649763 Ry
     xc contribution           =    -491.86360277 Ry
     ewald contribution        =    9410.20487561 Ry
     electric field correction =       0.00361051 Ry

     convergence has been achieved in  56 iterations

     Forces acting on atoms (cartesian axes, Ry/au):

     atom    1 type  1   force =    -0.00027694    0.00019021    0.09245046
     atom    2 type  1   force =    -0.00035102    0.00104843   -0.18340073
     atom    3 type  2   force =     0.00050927   -0.00072905   -0.02347138
     atom    4 type  2   force =     0.00072501   -0.00018476    0.05070892
     atom    5 type  2   force =    -0.01404937   -0.00131224    0.00496139
     atom    6 type  2   force =     0.01521662   -0.00065224    0.00510480
     atom    7 type  1   force =    -0.00048456    0.00107000   -0.00009586
     atom    8 type  1   force =     0.00016564   -0.00053463    0.00041537
     atom    9 type  2   force =    -0.00043831    0.00017554    0.00040818
     atom   10 type  2   force =     0.00041074    0.00016247    0.00046276
     atom   11 type  2   force =     0.00036927    0.00044002    0.00034475
     atom   12 type  2   force =     0.00004814    0.00013624    0.00027339
     atom   13 type  1   force =    -0.00089923   -0.00117846   -0.00010309
     atom   14 type  1   force =     0.00060033   -0.00005192    0.00022003
     atom   15 type  2   force =     0.00052296    0.00076312    0.00011085
     atom   16 type  2   force =    -0.00059403   -0.00036521    0.00006760
     atom   17 type  2   force =     0.00020603    0.00029752   -0.00027178
     atom   18 type  2   force =     0.00011069    0.00011982   -0.00036665
     atom   19 type  1   force =     0.00043576   -0.00001215   -0.00038878
     atom   20 type  1   force =     0.00026040    0.00029482   -0.00020641
     atom   21 type  2   force =    -0.00004126    0.00015759    0.10493704
     atom   22 type  2   force =    -0.00042053    0.00056882   -0.00084302
     atom   23 type  2   force =    -0.06797334    0.00012916   -0.02680588
     atom   24 type  2   force =     0.06769725    0.00052230   -0.02687163
     atom   25 type  1   force =    -0.00039103   -0.00008717    0.09626534
     atom   26 type  1   force =    -0.00036176   -0.00100146   -0.18318822
     atom   27 type  2   force =     0.00042211   -0.00125209   -0.02223583
     atom   28 type  2   force =     0.00070191   -0.00033660    0.05102694
     atom   29 type  2   force =    -0.01423601   -0.00106107    0.00467540
     atom   30 type  2   force =     0.01518855    0.00020816    0.00486252
     atom   31 type  1   force =    -0.00050831   -0.00146589    0.00021290
     atom   32 type  1   force =     0.00014277    0.00070037   -0.00025818
     atom   33 type  2   force =     0.00002198   -0.00020495    0.00007830
     atom   34 type  2   force =     0.00002382   -0.00006663   -0.00009640
     atom   35 type  2   force =     0.00022151    0.00008576    0.00031200
     atom   36 type  2   force =     0.00039051    0.00045534    0.00005956
     atom   37 type  1   force =    -0.00106856    0.00125414   -0.00006591
     atom   38 type  1   force =     0.00038612    0.00011158   -0.00043994
     atom   39 type  2   force =     0.00032077    0.00023095   -0.00032897
     atom   40 type  2   force =    -0.00007238    0.00019410    0.00006965
     atom   41 type  2   force =    -0.00003273    0.00009836   -0.00038032
     atom   42 type  2   force =     0.00044445    0.00019523   -0.00011397
     atom   43 type  1   force =    -0.00078951    0.00009179    0.00011547
     atom   44 type  1   force =     0.00026467   -0.00009117   -0.00089385
     atom   45 type  2   force =    -0.00005584    0.00015020    0.10487356
     atom   46 type  2   force =    -0.06802278   -0.00037606   -0.02679204
     atom   47 type  2   force =     0.06774859    0.00004424   -0.02687924
     atom   48 type  3   force =     0.00408271    0.00034448   -0.00235073
     atom   49 type  2   force =    -0.02415505   -0.00362134    0.00131891
     atom   50 type  4   force =     0.00130147    0.00042426   -0.00139897
     atom   51 type  4   force =     0.01787385    0.00509360    0.00372051
     atom   52 type  4   force =    -0.00052824    0.00073036   -0.00035859
     atom   53 type  4   force =    -0.00016628   -0.00036779   -0.00007168
     atom   54 type  2   force =     0.00089886   -0.00018244    0.00114613
     atom   55 type  4   force =    -0.00085074   -0.00038918   -0.00063820
     atom   56 type  4   force =    -0.00094490   -0.00096447    0.00011352

     Total force =     0.369482     Total SCF correction =     0.000730
  @ DRIVER MODE: Message from server: STATUS
  @ DRIVER MODE: Message from server: GETFORCE
  @ DRIVER MODE: Returning v,forces,stress,ensemble

     Writing output data file ./calc.save/
  @ DRIVER MODE: Message from server: EXIT
  @ DRIVE MODE: Exiting

     General routines

     Parallel routines

   This run was terminated on:  18:24:13  15Sep2021

   JOB DONE.