     Program PWSCF v.6.7GPU starts on 19Oct2021 at  0:25:14

     R & G space division:  proc/nbgrp/npool/nimage =       8
     Reading input from /storage/home/hcoda1/3/ntian30/research/carbon/CxH_vib/Thiel_calc/ads_slab/NH2NH3H_perslab/out_0027/pw.inp
Warning: card &CELL ignored
Warning: card   CELL_DYNAMICS='IPI', ignored
Warning: card / ignored

     Current dimensions of program PWSCF are:
     Max number of different atomic species (ntypx) = 10
     Max number of k-points (npk) =  40000
     Max angular momentum in pseudopotentials (lmaxx) =  3
     Presently no symmetry can be used with electric field

     Message from routine cell_base_init:
     DEPRECATED: use true lattice parameter, not A to a.u. conversion factor

     IMPORTANT: XC functional enforced from input :
     Exchange-correlation= BEEF-VDW
                           (   1   4  43  14   2   0   0)
     Any further DFT definition will be discarded
     Please, verify this is what you really want

  @ DRIVER MODE: Connecting to
 qe_1139763_3255138.sched-torque.pace.gatech.edue0ad7l5c_scratch
  using UNIX socket
  @ DRIVER MODE: Message from server: STATUS
  @ DRIVER MODE: Message from server: INIT
  @ DRIVER MODE: Receiving replica           0          -1
  @ DRIVER MODE: Receiving encoded integer          25
  @ DRIVER MODE:  SCF:  T  FORCE:  T  STRESS:  F  VC:  F  ENSEMBLE:  F
  @ DRIVER MODE:  SCF:  T  FORCE:  T  STRESS:  F  VC:  F  ENSEMBLE:  F

     Using Slab Decomposition

     bravais-lattice index     =            0
     lattice parameter (alat)  =       1.8897  a.u.
     unit-cell volume          =    9988.4706 (a.u.)^3
     number of atoms/cell      =           61
     number of atomic types    =            4
     number of electrons       =       442.00
     number of Kohn-Sham states=          231
     kinetic-energy cutoff     =      29.3995  Ry
     charge density cutoff     =     293.9946  Ry
     scf convergence threshold =      7.3E-08
     mixing beta               =       0.0500
     number of iterations used =            8  plain     mixing
     Exchange-correlation= BEEF-VDW
                           (   1   4  43  14   2   0   0)

     celldm(1)=   1.889726  celldm(2)=   0.000000  celldm(3)=   0.000000
     celldm(4)=   0.000000  celldm(5)=   0.000000  celldm(6)=   0.000000

     crystal axes: (cart. coord. in units of alat)
               a(1) = (   6.579727   0.000000   0.000000 )
               a(2) = (  -0.001163   8.942395   0.000000 )
               a(3) = (   0.000000   0.000000  25.155947 )

     reciprocal axes: (cart. coord. in units 2 pi/alat)
               b(1) = (  0.151982  0.000020  0.000000 )
               b(2) = (  0.000000  0.111827  0.000000 )
               b(3) = (  0.000000  0.000000  0.039752 )

     PseudoPot. # 1 for O  read from file:
     /storage/coda1/p-amedford6/0/shared/rich_project_chbe-medford/medford-share/data/pseudos_module/espresso/nninc/pbe/van/O.UPF
     MD5 check sum: 78c19812648e8988a0fe644b0f25305e
     Pseudo is Ultrasoft, Zval =  6.0
     Generated by new atomic code, or converted to UPF format
     Using radial grid of  737 points,  4 beta functions with:
                l(1) =   0
                l(2) =   0
                l(3) =   1
                l(4) =   1
     Q(r) pseudized with  8 coefficients,  rinner =    0.800   0.800   0.800

     PseudoPot. # 2 for Ti read from file:
     /storage/coda1/p-amedford6/0/shared/rich_project_chbe-medford/medford-share/data/pseudos_module/espresso/nninc/pbe/van/Ti.UPF
     MD5 check sum: 8e4df49b7f0d34bbd5052bf3f5ea0213
     Pseudo is Ultrasoft, Zval = 12.0
     Generated by new atomic code, or converted to UPF format
     Using radial grid of  851 points,  6 beta functions with:
                l(1) =   0
                l(2) =   0
                l(3) =   1
                l(4) =   1
                l(5) =   2
                l(6) =   2
     Q(r) pseudized with  8 coefficients,  rinner =    1.000   1.000   1.000
                                                       1.000   1.000

     PseudoPot. # 3 for N  read from file:
     /storage/coda1/p-amedford6/0/shared/rich_project_chbe-medford/medford-share/data/pseudos_module/espresso/nninc/pbe/van/N.UPF
     MD5 check sum: 90d10febe142ad51ac9d5be1deb811c4
     Pseudo is Ultrasoft, Zval =  5.0
     Generated by new atomic code, or converted to UPF format
     Using radial grid of  729 points,  4 beta functions with:
                l(1) =   0
                l(2) =   0
                l(3) =   1
                l(4) =   1
     Q(r) pseudized with  8 coefficients,  rinner =    0.800   0.800   0.800

     PseudoPot. # 4 for H  read from file:
     /storage/coda1/p-amedford6/0/shared/rich_project_chbe-medford/medford-share/data/pseudos_module/espresso/nninc/pbe/van/H.UPF
     MD5 check sum: b5ee9d7bfd3a09ee7748110bda690ff7
     Pseudo is Ultrasoft, Zval =  1.0
     Generated by new atomic code, or converted to UPF format
     Using radial grid of  615 points,  1 beta functions with:
                l(1) =   0
     Q(r) pseudized with  8 coefficients,  rinner =    0.800

     atomic species   valence    mass     pseudopotential
        O1             6.00    15.99900     O ( 1.00)
        Ti1           12.00    47.86700     Ti( 1.00)
        N1             5.00    14.00700     N ( 1.00)
        H1             1.00     1.00800     H ( 1.00)

     No symmetry found

   Cartesian axes

     site n.     atom                  positions (alat units)
         1           O1  tau(   1) = (   0.0007354   0.0005023  10.5931620  )
         2           O1  tau(   2) = (   3.2893251   8.9324977  13.8850595  )
         3           O1  tau(   3) = (   0.0000810   0.0519898  17.3357851  )
         4           O1  tau(   4) = (   0.0006271   0.0005054   7.9858123  )
         5           O1  tau(   5) = (   3.2891750   8.9291278  11.1853435  )
         6           O1  tau(   6) = (   0.0004222   0.0485762  14.6167438  )
         7           O1  tau(   7) = (   1.9868534   1.4903216   9.2879459  )
         8           O1  tau(   8) = (   5.2393499   1.5905449  12.5682489  )
         9           O1  tau(   9) = (   1.9991366   1.5492019  16.1124644  )
        10           Ti1 tau(  10) = (   0.0007404   1.4906270   9.2895810  )
        11           Ti1 tau(  11) = (   3.2902999   1.3249318  12.4520864  )
        12           Ti1 tau(  12) = (   0.0005939   1.3452645  15.7597600  )
        13           O1  tau(  13) = (   4.5942328   1.4918067   9.2879030  )
        14           O1  tau(  14) = (   1.3411764   1.5910169  12.5684512  )
        15           O1  tau(  15) = (   4.5798538   1.5480364  16.1129854  )
        16           Ti1 tau(  16) = (   3.2902859   2.9801868   9.2893338  )
        17           Ti1 tau(  17) = (   0.0006295   2.8174385  12.4372122  )
        18           Ti1 tau(  18) = (   3.2897038   2.9127836  15.6935398  )
        19           O1  tau(  19) = (   0.0003479   2.9813005  10.5931620  )
        20           O1  tau(  20) = (   3.2904107   2.9319293  13.8952334  )
        21           O1  tau(  21) = (   0.0002396   2.9813036   7.9858123  )
        22           O1  tau(  22) = (   3.2903884   2.9732875  11.2024877  )
        23           O1  tau(  23) = (   6.5791771   2.9400465  14.7470945  )
        24           O1  tau(  24) = (   1.9864658   4.4711199   9.2879459  )
        25           O1  tau(  25) = (   5.2507180   4.5586503  12.6053682  )
        26           O1  tau(  26) = (   1.9989508   4.4013585  16.0758979  )
        27           Ti1 tau(  27) = (   0.0003529   4.4714252   9.2895810  )
        28           Ti1 tau(  28) = (   3.2908498   4.3294621  12.5515864  )
        29           Ti1 tau(  29) = (   0.0012874   4.5361023  15.7587160  )
        30           O1  tau(  30) = (   4.5938453   4.4726049   9.2879030  )
        31           O1  tau(  31) = (   1.3295807   4.5581274  12.6051842  )
        32           O1  tau(  32) = (   4.5807093   4.4011557  16.0767203  )
        33           Ti1 tau(  33) = (   3.2898983   5.9609850   9.2893338  )
        34           Ti1 tau(  34) = (   0.0011720   5.8030845  12.4395124  )
        35           Ti1 tau(  35) = (   3.2913837   5.8399099  16.1904745  )
        36           O1  tau(  36) = (  -0.0000397   5.9620987  10.5931620  )
        37           O1  tau(  37) = (   3.2897076   5.9457256  13.9643012  )
        38           O1  tau(  38) = (   0.0001823   5.8979554  17.1998916  )
        39           O1  tau(  39) = (  -0.0001480   5.9621018   7.9858123  )
        40           O1  tau(  40) = (   3.2897623   5.9362706  11.2341171  )
        41           O1  tau(  41) = (   0.0004469   5.9800359  14.6665197  )
        42           O1  tau(  42) = (   1.9860782   7.4519181   9.2879459  )
        43           O1  tau(  43) = (   5.2507221   7.5245448  12.5933772  )
        44           O1  tau(  44) = (   1.9799843   7.5745874  16.0532815  )
        45           Ti1 tau(  45) = (  -0.0000347   7.4522234   9.2895810  )
        46           Ti1 tau(  46) = (   3.2894177   7.1911746  12.6495270  )
        47           Ti1 tau(  47) = (   0.0007314   7.2822180  16.1322395  )
        48           O1  tau(  48) = (   4.5934577   7.4534031   9.2879030  )
        49           O1  tau(  49) = (   1.3275845   7.5244469  12.5935105  )
        50           O1  tau(  50) = (   4.5990354   7.5728923  16.0522427  )
        51           Ti1 tau(  51) = (   3.2895107   8.9417832   9.2893338  )
        52           Ti1 tau(  52) = (  -0.0007012   8.7603021  12.4499776  )
        53           Ti1 tau(  53) = (   3.2901857   8.8509785  15.6953962  )
        54           N1  tau(  54) = (   3.2899770   5.9827455  18.1265562  )
        55           H1  tau(  55) = (   3.2886311   5.2071789  18.7771882  )
        56           H1  tau(  56) = (   3.2869209   6.8541504  18.6418389  )
        57           H1  tau(  57) = (   6.5771076   8.8877891  18.2917622  )
        58           N1  tau(  58) = (   6.5788838   3.1921548  17.9140464  )
        59           H1  tau(  59) = (   6.5785461   2.2502248  18.2648563  )
        60           H1  tau(  60) = (   5.7591345   3.6762813  18.2792932  )
        61           H1  tau(  61) = (   0.8178175   3.6764091  18.2810048  )

     number of k points=    10  Fermi-Dirac smearing, width (Ry)=  0.0073
                       cart. coord. in units 2pi/alat
        k(    1) = (   0.0000000   0.0000000   0.0000000), wk =   0.1250000
        k(    2) = (   0.0000000   0.0279567   0.0000000), wk =   0.2500000
        k(    3) = (   0.0000000  -0.0559134   0.0000000), wk =   0.1250000
        k(    4) = (   0.0379955   0.0000049   0.0000000), wk =   0.2500000
        k(    5) = (   0.0379955   0.0279617   0.0000000), wk =   0.2500000
        k(    6) = (   0.0379955  -0.0559085   0.0000000), wk =   0.2500000
        k(    7) = (   0.0379955  -0.0279518   0.0000000), wk =   0.2500000
        k(    8) = (  -0.0759910  -0.0000099   0.0000000), wk =   0.1250000
        k(    9) = (  -0.0759910   0.0279468   0.0000000), wk =   0.2500000
        k(   10) = (  -0.0759910  -0.0559233   0.0000000), wk =   0.1250000

     Initial potential from superposition of free atoms

     starting charge  423.99908, renormalised to  442.00000

     negative rho (up, down):  3.661E-02 0.000E+00

     %%%%%%%%%%%%%%%%%%%%%%%%%%%%%%%%%%%%%%%%%%%%%%%%%%%%%%%%%%%%%%%%%%%%%%%%
     %                                                                      %
     % You are using vdW-DF, which was implemented by the Thonhauser group. %
     % Please cite the following two papers that made this development      %
     % possible and the two reviews that describe the various versions:     %
     %                                                                      %
     %   T. Thonhauser et al., PRL 115, 136402 (2015).                      %
     %   T. Thonhauser et al., PRB 76, 125112 (2007).                       %
     %   K. Berland et al., Rep. Prog. Phys. 78, 066501 (2015).             %
     %   D.C. Langreth et al., J. Phys.: Condens. Matter 21, 084203 (2009). %
     %                                                                      %
     %                                                                      %
     % If you are calculating the stress with vdW-DF, please also cite:     %
     %                                                                      %
     %   R. Sabatini et al., J. Phys.: Condens. Matter 24, 424209 (2012).   %
     %                                                                      %
     %%%%%%%%%%%%%%%%%%%%%%%%%%%%%%%%%%%%%%%%%%%%%%%%%%%%%%%%%%%%%%%%%%%%%%%%

     Adding external electric field

     Computed dipole along edir(3) :
        Dipole               -6.2843 Ry au,        -15.9732 Debye
        Dipole field         -0.0079 Ry au,

        Potential amp.        0.7329 Ry
        Total length         46.3494 bohr

     Starting wfcs are  334 atomic wfcs
  @ DRIVER MODE: Message from server: STATUS
  @ DRIVER MODE: Message from server: POSDATA
  @ DRIVER MODE: Reading and sharing cell
  @ DRIVER MODE: Reading and sharing positions
  @ DRIVER MODE: Received positions

     Self-consistent Calculation

     iteration #  1     ecut=    29.40 Ry     beta= 0.05
     Davidson diagonalization with overlap
     c_bands:  2 eigenvalues not converged
     c_bands:  4 eigenvalues not converged
     c_bands:  3 eigenvalues not converged
     c_bands:  4 eigenvalues not converged
     c_bands:  5 eigenvalues not converged
     c_bands:  4 eigenvalues not converged
     c_bands:  2 eigenvalues not converged
     c_bands:  2 eigenvalues not converged
     ethr =  1.00E-05,  avg # of iterations = 21.5

[...]

     total energy              =   -3276.14278343 Ry
     estimated scf accuracy    <     259.88641065 Ry

     iteration #  2     ecut=    29.40 Ry     beta= 0.05
     Davidson diagonalization with overlap
     ethr =  1.00E-02,  avg # of iterations = 15.5

[...]

     iteration # 40     ecut=    29.40 Ry     beta= 0.05
     Davidson diagonalization with overlap
     ethr =  6.17E-11,  avg # of iterations = 13.5

[...]

     total energy              =   -3295.82402512 Ry
     estimated scf accuracy    <       0.00000011 Ry

     iteration # 41     ecut=    29.40 Ry     beta= 0.05
     Davidson diagonalization with overlap
     c_bands:  1 eigenvalues not converged
     ethr =  2.58E-11,  avg # of iterations = 12.6

     negative rho (up, down):  3.547E-02 0.000E+00

     Adding external electric field

     Computed dipole along edir(3) :
        Dipole                1.9310 Ry au,          4.9082 Debye
        Dipole field          0.0024 Ry au,

        Potential amp.       -0.2252 Ry
        Total length         46.3494 bohr

     End of self-consistent calculation

          k = 0.0000 0.0000 0.0000 ( 26871 PWs)   bands (ev):

   -57.4694 -57.4341 -57.4214 -57.3824 -57.3726 -57.3637 -57.3539 -57.3426
   -57.3222 -57.2843 -57.2772 -57.2404 -57.2189 -57.2022 -57.1828 -56.5429
   -56.5186 -56.5125 -33.9408 -33.8534 -33.8513 -33.8304 -33.8101 -33.7928
   -33.7749 -33.7710 -33.7673 -33.7539 -33.7286 -33.7078 -33.7019 -33.6883
   -33.6863 -33.6823 -33.6611 -33.6523 -33.6307 -33.6252 -33.5937 -33.5791
   -33.5616 -33.5572 -33.5492 -33.5488 -33.5451 -33.5382 -33.5259 -33.5224
   -33.5156 -33.5014 -33.4922 -33.4921 -33.4852 -33.4835 -33.4751 -33.4730
   -33.4648 -33.4539 -33.4420 -33.4252 -33.4096 -33.4031 -33.3886 -32.8615
   -32.8534 -32.8523 -32.8357 -32.8303 -32.7708 -32.7096 -32.7023 -32.5707
   -19.3421 -18.2734 -17.9735 -17.7765 -17.7268 -17.6929 -17.5770 -17.5489
   -17.4964 -17.4434 -17.4061 -17.3630 -17.2885 -17.2477 -17.2464 -17.2216
   -17.1683 -17.1444 -17.1363 -17.1262 -17.1243 -17.0995 -17.0496 -17.0459
   -16.9899 -16.9483 -16.9169 -16.9066 -16.8974 -16.8646 -16.8586 -16.8048
   -16.6062 -15.0259 -15.0088 -14.9499 -14.9464  -7.9264  -7.5601  -7.3897
    -6.4616  -5.5819  -5.4299  -5.3992  -5.2352  -4.9639  -4.9120  -4.8685
    -4.8222  -4.7850  -4.7464  -4.7236  -4.6945  -4.6631  -4.6111  -4.5807
    -4.5641  -4.5309  -4.5108  -4.4796  -4.4498  -4.4438  -4.4150  -4.3262
    -4.3166  -4.2931  -4.2754  -4.2395  -4.2217  -4.2188  -4.1701  -4.1584
    -4.0693  -3.9832  -3.8970  -3.8443  -3.8180  -3.7951  -3.7474  -3.7100
    -3.6808  -3.6365  -3.6164  -3.5472  -3.5199  -3.5093  -3.4332  -3.3984
    -3.3027  -3.2648  -3.2534  -3.2326  -3.1901  -3.1786  -3.0908  -3.0828
    -2.9735  -2.9550  -2.8679  -2.7915  -2.7419  -2.7147  -2.6764  -2.6146
    -2.5951  -2.5522  -2.5214  -2.4609  -2.4467  -2.3219  -2.2539  -2.2504
    -2.2301  -2.1917  -2.1623  -2.1481  -2.1257  -2.1227  -2.0439  -2.0352
    -1.9855  -1.9106  -1.8846  -1.8479  -1.8353  -1.7999  -1.7577  -1.6931
    -1.6877  -1.6519  -1.5642  -1.5030  -1.5025  -1.3560  -1.3500  -1.3159
    -1.2680  -1.2144  -1.1840  -0.7816  -0.6056  -0.4362  -0.3102  -0.2494
    -0.2481   0.0265   0.0315   0.1639   1.6129   1.7638   1.8244   1.9582
     1.9767   2.0360   2.1176   2.1397   2.2063   2.2341   2.2435

[...]

          k = 0.0380-0.0280 0.0000 ( 26873 PWs)   bands (ev):

[...]

          k =-0.0760-0.0000 0.0000 ( 26902 PWs)   bands (ev):

[...]

          k =-0.0760-0.0559 0.0000 ( 26868 PWs)   bands (ev):

   -57.4677 -57.4388 -57.4183 -57.3802 -57.3683 -57.3654 -57.3624 -57.3392
   -57.3218 -57.2840 -57.2776 -57.2367 -57.2256 -57.1993 -57.1828 -56.5376
   -56.5295 -56.5068 -33.9852 -33.9361 -33.8639 -33.8197 -33.8028 -33.7912
   -33.7848 -33.7768 -33.7662 -33.7448 -33.7160 -33.6983 -33.6603 -33.6576
   -33.6385 -33.6250 -33.6104 -33.5965 -33.5955 -33.5911 -33.5867 -33.5770
   -33.5734 -33.5662 -33.5646 -33.5516 -33.5442 -33.5289 -33.5220 -33.5215
   -33.5165 -33.5159 -33.5119 -33.5090 -33.5069 -33.4956 -33.4891 -33.4857
   -33.4824 -33.4754 -33.4477 -33.4416 -33.4364 -33.4243 -33.4004 -32.9489
   -32.8541 -32.8460 -32.8244 -32.7536 -32.7450 -32.6845 -32.6714 -32.6638
   -19.3355 -17.9706 -17.8320 -17.8255 -17.6487 -17.6032 -17.6009 -17.5312
   -17.4856 -17.4407 -17.4355 -17.4042 -17.3551 -17.3313 -17.3009 -17.2760
   -17.2605 -17.2251 -17.1838 -17.1827 -17.1491 -17.1154 -17.0894 -17.0471
   -17.0405 -16.9850 -16.9215 -16.8850 -16.8602 -16.8582 -16.8223 -16.7963
   -16.6394 -15.0264 -15.0067 -15.0024 -14.8865  -7.9336  -7.5791  -7.3794
    -6.4522  -5.2164  -5.1787  -5.1329  -5.0401  -5.0026  -4.9705  -4.8344
    -4.7746  -4.7326  -4.6863  -4.6449  -4.6371  -4.6230  -4.5672  -4.5498
    -4.5342  -4.4881  -4.4474  -4.4270  -4.4045  -4.4028  -4.3992  -4.3963
    -4.2640  -4.2507  -4.1998  -4.1793  -4.1570  -4.1342  -4.1316  -4.0775
    -4.0353  -3.9942  -3.9823  -3.9563  -3.8936  -3.8385  -3.7553  -3.6587
    -3.6478  -3.5905  -3.5806  -3.4878  -3.4826  -3.3881  -3.3260  -3.2814
    -3.2527  -3.2280  -3.1513  -3.1466  -3.1375  -3.0872  -3.0526  -3.0243
    -2.9766  -2.9663  -2.9214  -2.8183  -2.7832  -2.7251  -2.6983  -2.6949
    -2.6370  -2.6334  -2.5961  -2.5948  -2.5880  -2.5427  -2.4877  -2.4543
    -2.4371  -2.4055  -2.3169  -2.2925  -2.2402  -2.2319  -2.1663  -2.1508
    -2.1374  -2.0738  -2.0218  -1.9908  -1.9829  -1.9090  -1.8052  -1.7474
    -1.7247  -1.7035  -1.5976  -1.5495  -1.4937  -1.4512  -1.2689  -1.2567
    -1.1842  -1.1444  -1.0916  -1.0429  -0.8560  -0.4572  -0.4059  -0.1878
    -0.1725  -0.1352   0.0312   0.0369   1.7053   1.7170   1.8146   1.8559
     1.9179   1.9288   1.9729   1.9901   1.9999   2.0463   2.0508

     the Fermi energy is     1.6444 ev

!    total energy              =   -3295.82429961 Ry
     estimated scf accuracy    <       0.00000006 Ry
     smearing contrib. (-TS)   =      -0.03670739 Ry
     internal energy E=F+TS    =   -3295.78759222 Ry

     The total energy is F=E-TS. E is the sum of the following terms:
     one-electron contribution =  -34289.82746185 Ry
     hartree contribution      =   17213.89873002 Ry
     xc contribution           =    -543.77338213 Ry
     ewald contribution        =   14323.90983054 Ry
     electric field correction =       0.00469121 Ry

     convergence has been achieved in  41 iterations

     Forces acting on atoms (cartesian axes, Ry/au):

     atom    1 type  1   force =     0.00001396    0.00239677    0.05210811
     atom    2 type  1   force =    -0.00004302   -0.00061335   -0.00562157
     atom    3 type  1   force =     0.00002646   -0.00307275   -0.00298033
     atom    4 type  1   force =     0.00005404   -0.00037821    0.10761253
     atom    5 type  1   force =    -0.00002139    0.00171981    0.00528299
     atom    6 type  1   force =     0.00000909   -0.00066111    0.00047789
     atom    7 type  1   force =     0.06436141    0.00077075   -0.03003372
     atom    8 type  1   force =     0.00531537   -0.02658337    0.00244253
     atom    9 type  1   force =     0.00858792   -0.01294113   -0.00085083
     atom   10 type  2   force =    -0.00005436   -0.00537454   -0.18725283
     atom   11 type  2   force =     0.00012570    0.02015526   -0.00476747
     atom   12 type  2   force =    -0.00010647    0.01872296   -0.00027083
     atom   13 type  1   force =    -0.06446777    0.00029331   -0.02999310
     atom   14 type  1   force =    -0.00513298   -0.02679350    0.00246855
     atom   15 type  1   force =    -0.00853171   -0.01284646   -0.00083757
     atom   16 type  2   force =     0.00008694   -0.00107328    0.07214609
     atom   17 type  2   force =    -0.00026581    0.03301188    0.00620160
     atom   18 type  2   force =     0.00002178    0.00443562   -0.00746874
     atom   19 type  1   force =     0.00001407    0.00395393    0.05307462
     atom   20 type  1   force =    -0.00004030   -0.00053555   -0.00175739
     atom   21 type  1   force =     0.00005306    0.00130711    0.10846660
     atom   22 type  1   force =    -0.00002685   -0.00117961    0.00630827
     atom   23 type  1   force =     0.00002929   -0.00509238    0.00184897
     atom   24 type  1   force =     0.06587859    0.00140692   -0.02849561
     atom   25 type  1   force =     0.00546531   -0.02923426    0.00261812
     atom   26 type  1   force =     0.00963450   -0.00192950   -0.00017185
     atom   27 type  2   force =    -0.00006283   -0.00074522   -0.19123316
     atom   28 type  2   force =     0.00014919    0.02480216   -0.00469152
     atom   29 type  2   force =    -0.00010056   -0.00409052    0.00896263
     atom   30 type  1   force =    -0.06598494    0.00096957   -0.02846821
     atom   31 type  1   force =    -0.00531750   -0.02935649    0.00265732
     atom   32 type  1   force =    -0.00954867   -0.00192979   -0.00016975
     atom   33 type  2   force =     0.00013828    0.00069822    0.08055476
     atom   34 type  2   force =    -0.00028950    0.03539083    0.00617454
     atom   35 type  2   force =     0.00005633    0.01549761    0.00199607
     atom   36 type  1   force =     0.00006501    0.00027274    0.05320461
     atom   37 type  1   force =    -0.00003256    0.00176134   -0.00893341
     atom   38 type  1   force =     0.00001018    0.00078155    0.00005644
     atom   39 type  1   force =     0.00005309   -0.00116878    0.10818533
     atom   40 type  1   force =    -0.00003586   -0.00138428    0.00603510
     atom   41 type  1   force =     0.00001726    0.00369084    0.00148257
     atom   42 type  1   force =     0.06613930   -0.00349086   -0.02908783
     atom   43 type  1   force =     0.00365284   -0.02411462    0.00084760
     atom   44 type  1   force =     0.01420196   -0.01863438    0.00311167
     atom   45 type  2   force =    -0.00009416    0.00311986   -0.18716384
     atom   46 type  2   force =     0.00013543    0.01624622    0.00221772
     atom   47 type  2   force =    -0.00007418    0.01889402   -0.00293626
     atom   48 type  1   force =    -0.06624164   -0.00392581   -0.02904278
     atom   49 type  1   force =    -0.00340349   -0.02430512    0.00086310
     atom   50 type  1   force =    -0.01419657   -0.01858090    0.00311224
     atom   51 type  2   force =     0.00013448   -0.00295539    0.07345185
     atom   52 type  2   force =    -0.00027786    0.03102928    0.00791879
     atom   53 type  2   force =     0.00001173    0.02034743    0.00053918
     atom   54 type  3   force =     0.00000270   -0.00078101   -0.00278813
     atom   55 type  4   force =     0.00000144   -0.00040110    0.00066289
     atom   56 type  4   force =    -0.00003724    0.00036164   -0.00028904
     atom   57 type  4   force =    -0.00005493   -0.00016517   -0.00006450
     atom   58 type  3   force =    -0.00025190    0.02505772   -0.00001245
     atom   59 type  4   force =     0.00000193   -0.01389234    0.00657222
     atom   60 type  4   force =     0.00495719   -0.00449490   -0.00219979
     atom   61 type  4   force =    -0.00471080   -0.00436970   -0.00208095

     Total force =     0.460428     Total SCF correction =     0.000630
  @ DRIVER MODE: Message from server: STATUS
  @ DRIVER MODE: Message from server: GETFORCE
  @ DRIVER MODE: Returning v,forces,stress,ensemble

     Writing output data file ./calc.save/
  @ DRIVER MODE: Message from server: EXIT
  @ DRIVE MODE: Exiting

     General routines

     Parallel routines

   This run was terminated on:   0:47:22  19Oct2021

   JOB DONE.