     Program PWSCF v.6.7GPU starts on  9Sep2021 at  4:16:55

     R & G space division:  proc/nbgrp/npool/nimage =      10
     Reading input from /storage/home/hcoda1/3/ntian30/research/carbon/CxH_vib/CH3_calc/ads_slab/CH3NNHHH_a/out_0019/pw.inp
Warning: card &CELL ignored
Warning: card   CELL_DYNAMICS='IPI', ignored
Warning: card / ignored

     Current dimensions of program PWSCF are:
     Max number of different atomic species (ntypx) = 10
     Max number of k-points (npk) =  40000
     Max angular momentum in pseudopotentials (lmaxx) =  3
     Presently no symmetry can be used with electric field

     Message from routine cell_base_init:
     DEPRECATED: use true lattice parameter, not A to a.u. conversion factor

     IMPORTANT: XC functional enforced from input :
     Exchange-correlation= BEEF-VDW
                           (   1   4  43  14   2   0   0)
     Any further DFT definition will be discarded
     Please, verify this is what you really want

  @ DRIVER MODE: Connecting to
 qe_1139763_2767399.sched-torque.pace.gatech.edu5x9kasd4_scratch
  using UNIX socket
  @ DRIVER MODE: Message from server: STATUS
  @ DRIVER MODE: Message from server: INIT
  @ DRIVER MODE: Receiving replica           0          -1
  @ DRIVER MODE: Receiving encoded integer          25
  @ DRIVER MODE:  SCF:  T  FORCE:  T  STRESS:  F  VC:  F  ENSEMBLE:  F
  @ DRIVER MODE:  SCF:  T  FORCE:  T  STRESS:  F  VC:  F  ENSEMBLE:  F

     Using Slab Decomposition

     bravais-lattice index     =            0
     lattice parameter (alat)  =       1.8897  a.u.
     unit-cell volume          =    6658.9804 (a.u.)^3
     number of atoms/cell      =           56
     number of atomic types    =            5
     number of electrons       =       398.00
     number of Kohn-Sham states=          209
     kinetic-energy cutoff     =      29.3995  Ry
     charge density cutoff     =     293.9946  Ry
     scf convergence threshold =      7.3E-08
     mixing beta               =       0.0500
     number of iterations used =            8  plain     mixing
     Exchange-correlation= BEEF-VDW
                           (   1   4  43  14   2   0   0)

     celldm(1)=   1.889726  celldm(2)=   0.000000  celldm(3)=   0.000000
     celldm(4)=   0.000000  celldm(5)=   0.000000  celldm(6)=   0.000000

     crystal axes: (cart. coord. in units of alat)
               a(1) = (   6.579727   0.000000   0.000000 )
               a(2) = (  -0.000775   5.961596   0.000000 )
               a(3) = (   0.000000   0.000000  25.155947 )

     reciprocal axes: (cart. coord. in units 2 pi/alat)
               b(1) = (  0.151982  0.000020  0.000000 )
               b(2) = (  0.000000  0.167740  0.000000 )
               b(3) = (  0.000000  0.000000  0.039752 )

     PseudoPot. # 1 for Ti read from file:
     /storage/coda1/p-amedford6/0/shared/rich_project_chbe-medford/medford-share/data/pseudos_module/espresso/nninc/pbe/van/Ti.UPF
     MD5 check sum: 8e4df49b7f0d34bbd5052bf3f5ea0213
     Pseudo is Ultrasoft, Zval = 12.0
     Generated by new atomic code, or converted to UPF format
     Using radial grid of  851 points,  6 beta functions with:
                l(1) =   0
                l(2) =   0
                l(3) =   1
                l(4) =   1
                l(5) =   2
                l(6) =   2
     Q(r) pseudized with  8 coefficients,  rinner =    1.000   1.000   1.000
                                                       1.000   1.000

     PseudoPot. # 2 for O  read from file:
     /storage/coda1/p-amedford6/0/shared/rich_project_chbe-medford/medford-share/data/pseudos_module/espresso/nninc/pbe/van/O.UPF
     MD5 check sum: 78c19812648e8988a0fe644b0f25305e
     Pseudo is Ultrasoft, Zval =  6.0
     Generated by new atomic code, or converted to UPF format
     Using radial grid of  737 points,  4 beta functions with:
                l(1) =   0
                l(2) =   0
                l(3) =   1
                l(4) =   1
     Q(r) pseudized with  8 coefficients,  rinner =    0.800   0.800   0.800

     PseudoPot. # 3 for N  read from file:
     /storage/coda1/p-amedford6/0/shared/rich_project_chbe-medford/medford-share/data/pseudos_module/espresso/nninc/pbe/van/N.UPF
     MD5 check sum: 90d10febe142ad51ac9d5be1deb811c4
     Pseudo is Ultrasoft, Zval =  5.0
     Generated by new atomic code, or converted to UPF format
     Using radial grid of  729 points,  4 beta functions with:
                l(1) =   0
                l(2) =   0
                l(3) =   1
                l(4) =   1
     Q(r) pseudized with  8 coefficients,  rinner =    0.800   0.800   0.800

     PseudoPot. # 4 for C  read from file:
     /storage/coda1/p-amedford6/0/shared/rich_project_chbe-medford/medford-share/data/pseudos_module/espresso/nninc/pbe/van/C.UPF
     MD5 check sum: 1a69bf6b8db32088f5b2163dbdb77a27
     Pseudo is Ultrasoft, Zval =  4.0
     Generated by new atomic code, or converted to UPF format
     Using radial grid of  721 points,  4 beta functions with:
                l(1) =   0
                l(2) =   0
                l(3) =   1
                l(4) =   1
     Q(r) pseudized with  8 coefficients,  rinner =    0.800   0.800   0.800

     PseudoPot. # 5 for H  read from file:
     /storage/coda1/p-amedford6/0/shared/rich_project_chbe-medford/medford-share/data/pseudos_module/espresso/nninc/pbe/van/H.UPF
     MD5 check sum: b5ee9d7bfd3a09ee7748110bda690ff7
     Pseudo is Ultrasoft, Zval =  1.0
     Generated by new atomic code, or converted to UPF format
     Using radial grid of  615 points,  1 beta functions with:
                l(1) =   0
     Q(r) pseudized with  8 coefficients,  rinner =    0.800

     atomic species   valence    mass     pseudopotential
        Ti1           12.00    47.86700     Ti( 1.00)
        O1             6.00    15.99900     O ( 1.00)
        N1             5.00    14.00700     N ( 1.00)
        C1             4.00    12.01100     C ( 1.00)
        H1             1.00     1.00800     H ( 1.00)

     No symmetry found

   Cartesian axes

     site n.     atom                  positions (alat units)
         1           Ti1 tau(   1) = (   0.0004258   2.9801865   6.0000000  )
         2           Ti1 tau(   2) = (   3.2906075   1.4906267   6.0002472  )
         3           O1  tau(   3) = (   0.0006271   0.0005054   7.9858123  )
         4           O1  tau(   4) = (   3.2906025   0.0005020   7.3038282  )
         5           O1  tau(   5) = (   4.5942328   1.4918067   9.2879030  )
         6           O1  tau(   6) = (   1.9868534   1.4903216   9.2879459  )
         7           Ti1 tau(   7) = (   3.2907910   2.8959150   9.1758416  )
         8           Ti1 tau(   8) = (   0.0015273   1.4827037   9.2680791  )
         9           O1  tau(   9) = (   3.3120675   0.0079458  11.3762204  )
        10           O1  tau(  10) = (   0.0116148   5.9584955  10.6183126  )
        11           O1  tau(  11) = (   1.3148726   1.5133626  12.6447579  )
        12           O1  tau(  12) = (   5.3140862   1.5122126  12.6508301  )
        13           Ti1 tau(  13) = (   0.0289753   2.9995974  12.5105963  )
        14           Ti1 tau(  14) = (   3.3300932   1.5144954  12.5190352  )
        15           O1  tau(  15) = (   0.0303621   0.0967028  14.6836000  )
        16           O1  tau(  16) = (   3.3188409   0.0235386  14.0025835  )
        17           O1  tau(  17) = (   4.5661268   1.5053193  16.2317874  )
        18           O1  tau(  18) = (   2.0488868   1.5039614  16.2002260  )
        19           Ti1 tau(  19) = (   3.3211226   2.9745325  15.7560014  )
        20           Ti1 tau(  20) = (   0.0641794   1.4487855  16.0607878  )
        21           O1  tau(  21) = (   3.2904802   0.0005063   4.7018136  )
        22           O1  tau(  22) = (   0.0207051   5.8381987  17.2232637  )
        23           O1  tau(  23) = (   1.3043587   1.4918075   6.0039043  )
        24           O1  tau(  24) = (   5.2767064   1.4903225   6.0039473  )
        25           Ti1 tau(  25) = (   0.0000382   5.9609847   6.0000000  )
        26           Ti1 tau(  26) = (   3.2902200   4.4714249   6.0002472  )
        27           O1  tau(  27) = (   0.0002396   2.9813036   7.9858123  )
        28           O1  tau(  28) = (   3.2902150   2.9813002   7.3038282  )
        29           O1  tau(  29) = (   4.5938453   4.4726049   9.2879030  )
        30           O1  tau(  30) = (   1.9864658   4.4711199   9.2879459  )
        31           Ti1 tau(  31) = (   3.2891106   5.8743827   9.1763621  )
        32           Ti1 tau(  32) = (   0.0006254   4.4649316   9.2693709  )
        33           O1  tau(  33) = (   3.3137607   3.0039157  11.3695003  )
        34           O1  tau(  34) = (   0.0092240   2.9805883  10.6323155  )
        35           O1  tau(  35) = (   1.3103219   4.4840529  12.6837359  )
        36           O1  tau(  36) = (   5.3166572   4.4842854  12.6901167  )
        37           Ti1 tau(  37) = (   0.0376818   0.0300362  12.4998423  )
        38           Ti1 tau(  38) = (   3.3279277   4.4933691  12.5326681  )
        39           O1  tau(  39) = (   0.0236785   2.9473731  14.9547601  )
        40           O1  tau(  40) = (   3.3158584   2.9778716  13.9675922  )
        41           O1  tau(  41) = (   4.5769684   4.4551829  16.1482216  )
        42           O1  tau(  42) = (   2.0574928   4.4544973  16.1629196  )
        43           Ti1 tau(  43) = (   3.3270828   0.0048838  15.7999907  )
        44           Ti1 tau(  44) = (   0.0216784   4.6657176  15.8371636  )
        45           O1  tau(  45) = (   3.2900926   2.9813045   4.7018136  )
        46           O1  tau(  46) = (   1.3039711   4.4726057   6.0039043  )
        47           O1  tau(  47) = (   5.2763189   4.4711207   6.0039473  )
        48           N1  tau(  48) = (   1.0300599   3.1028741  18.8625222  )
        49           N1  tau(  49) = (   6.4529598   2.6395754  18.1308714  )
        50           C1  tau(  50) = (   0.6566364   3.8075245  20.0867497  )
        51           H1  tau(  51) = (   6.5234193   4.6337433  19.9095685  )
        52           H1  tau(  52) = (   0.2127083   3.1054723  20.7945791  )
        53           H1  tau(  53) = (   1.5644534   4.2160081  20.5287796  )
        54           H1  tau(  54) = (   5.6912064   3.3271340  18.1715891  )
        55           H1  tau(  55) = (   6.1153184   1.7991689  18.5966666  )
        56           H1  tau(  56) = (   1.4989484   3.7555826  18.2384742  )

     number of k points=    10  Fermi-Dirac smearing, width (Ry)=  0.0073
                       cart. coord. in units 2pi/alat
        k(    1) = (   0.0000000   0.0000000   0.0000000), wk =   0.1250000
        k(    2) = (   0.0000000   0.0419351   0.0000000), wk =   0.2500000
        k(    3) = (   0.0000000  -0.0838702   0.0000000), wk =   0.1250000
        k(    4) = (   0.0379955   0.0000049   0.0000000), wk =   0.2500000
        k(    5) = (   0.0379955   0.0419400   0.0000000), wk =   0.2500000
        k(    6) = (   0.0379955  -0.0838652   0.0000000), wk =   0.2500000
        k(    7) = (   0.0379955  -0.0419301   0.0000000), wk =   0.2500000
        k(    8) = (  -0.0759910  -0.0000099   0.0000000), wk =   0.1250000
        k(    9) = (  -0.0759910   0.0419252   0.0000000), wk =   0.2500000
        k(   10) = (  -0.0759910  -0.0838800   0.0000000), wk =   0.1250000

     Initial potential from superposition of free atoms

     starting charge  381.99914, renormalised to  398.00000

     negative rho (up, down):  1.340E-02 0.000E+00

     %%%%%%%%%%%%%%%%%%%%%%%%%%%%%%%%%%%%%%%%%%%%%%%%%%%%%%%%%%%%%%%%%%%%%%%%
     %                                                                      %
     % You are using vdW-DF, which was implemented by the Thonhauser group. %
     % Please cite the following two papers that made this development      %
     % possible and the two reviews that describe the various versions:     %
     %                                                                      %
     %   T. Thonhauser et al., PRL 115, 136402 (2015).                      %
     %   T. Thonhauser et al., PRB 76, 125112 (2007).                       %
     %   K. Berland et al., Rep. Prog. Phys. 78, 066501 (2015).             %
     %   D.C. Langreth et al., J. Phys.: Condens. Matter 21, 084203 (2009). %
     %                                                                      %
     %                                                                      %
     % If you are calculating the stress with vdW-DF, please also cite:     %
     %                                                                      %
     %   R. Sabatini et al., J. Phys.: Condens. Matter 24, 424209 (2012).   %
     %                                                                      %
     %%%%%%%%%%%%%%%%%%%%%%%%%%%%%%%%%%%%%%%%%%%%%%%%%%%%%%%%%%%%%%%%%%%%%%%%

     Adding external electric field

     Computed dipole along edir(3) :
        Dipole              -11.7464 Ry au,        -29.8564 Debye
        Dipole field         -0.0222 Ry au,

        Potential amp.        2.0549 Ry
        Total length         46.3494 bohr

     Starting wfcs are  302 atomic wfcs
  @ DRIVER MODE: Message from server: STATUS
  @ DRIVER MODE: Message from server: POSDATA
  @ DRIVER MODE: Reading and sharing cell
  @ DRIVER MODE: Reading and sharing positions
  @ DRIVER MODE: Received positions

     Self-consistent Calculation

     iteration #  1     ecut=    29.40 Ry     beta= 0.05
     Davidson diagonalization with overlap
     c_bands:  1 eigenvalues not converged
     c_bands:  1 eigenvalues not converged
     c_bands:  1 eigenvalues not converged
     c_bands:  3 eigenvalues not converged
     c_bands:  3 eigenvalues not converged
     c_bands:  3 eigenvalues not converged
     c_bands:  4 eigenvalues not converged
     c_bands:  2 eigenvalues not converged
     ethr =  1.00E-05,  avg # of iterations = 21.6

[...]

     total energy              =   -2428.10295452 Ry
     estimated scf accuracy    <    5789.73846275 Ry

     iteration #  2     ecut=    29.40 Ry     beta= 0.05
     Davidson diagonalization with overlap
     ethr =  1.00E-02,  avg # of iterations = 22.0

[...]

     iteration # 77     ecut=    29.40 Ry     beta= 0.05
     Davidson diagonalization with overlap
     c_bands:  1 eigenvalues not converged
     ethr =  1.44E-10,  avg # of iterations = 13.7

[...]

     total energy              =   -2942.85973600 Ry
     estimated scf accuracy    <       0.00000010 Ry

     iteration # 79     ecut=    29.40 Ry     beta= 0.05
     Davidson diagonalization with overlap
     ethr =  2.63E-11,  avg # of iterations = 13.8

     negative rho (up, down):  1.464E-02 0.000E+00

     Adding external electric field

     Computed dipole along edir(3) :
        Dipole                1.2221 Ry au,          3.1062 Debye
        Dipole field          0.0023 Ry au,

        Potential amp.       -0.2138 Ry
        Total length         46.3494 bohr

     End of self-consistent calculation

          k = 0.0000 0.0000 0.0000 ( 18029 PWs)   bands (ev):

   -55.3490 -55.3121 -55.3012 -55.2702 -55.2670 -55.2328 -55.2256 -55.1903
   -55.1693 -55.1454 -55.1349 -55.1328 -55.0992 -55.0270 -54.3308 -54.2967
   -31.9175 -31.8018 -31.7936 -31.7142 -31.6647 -31.6587 -31.6519 -31.6385
   -31.5904 -31.5898 -31.5585 -31.5531 -31.5462 -31.5302 -31.5190 -31.5114
   -31.5043 -31.4889 -31.4865 -31.4666 -31.4537 -31.4457 -31.4190 -31.4150
   -31.4037 -31.4015 -31.4002 -31.3720 -31.3583 -31.3561 -31.3513 -31.3316
   -31.3285 -31.3203 -31.3193 -31.3172 -31.2830 -31.2689 -31.2611 -31.2441
   -31.2333 -31.2089 -30.7402 -30.6459 -30.6238 -30.5565 -30.4697 -30.3588
   -17.8004 -16.1852 -15.9176 -15.7776 -15.6678 -15.5489 -15.4303 -15.4107
   -15.2787 -15.1959 -15.0758 -15.0529 -15.0264 -15.0073 -14.9949 -14.9800
   -14.8944 -14.8885 -14.8710 -14.8438 -14.8374 -14.7947 -14.7873 -14.7475
   -14.7261 -14.7248 -14.5962 -14.5086 -14.4369 -14.2005 -13.1770 -12.8339
   -12.7164  -9.7237  -6.3724  -5.3942  -4.8797  -3.5325  -3.4833  -3.3690
    -3.2783  -3.2640  -3.2421  -3.1057  -2.9524  -2.7823  -2.7689  -2.7583
    -2.6390  -2.5613  -2.5550  -2.5302  -2.3789  -2.3573  -2.3063  -2.2408
    -2.2131  -2.1652  -2.1543  -2.1329  -2.1136  -2.0937  -2.0855  -1.9717
    -1.9207  -1.8280  -1.7721  -1.7447  -1.7091  -1.6812  -1.6661  -1.6388
    -1.6308  -1.5882  -1.5612  -1.5394  -1.4883  -1.3762  -1.2672  -1.2372
    -1.1397  -0.9874  -0.9549  -0.9415  -0.9301  -0.8535  -0.8364  -0.7884
    -0.7355  -0.7275  -0.6965  -0.5858  -0.5273  -0.4623  -0.3957  -0.3840
    -0.3372  -0.2754  -0.1631  -0.1389  -0.1164  -0.0913   0.0025   0.0419
     0.0869   0.1617   0.1810   0.1946   0.3014   0.3092   0.3892   0.4013
     0.4469   0.5334   0.5677   0.5901   0.5939   0.6073   0.6373   0.7044
     0.7287   0.7549   0.8301   0.9539   1.0220   1.1860   1.2490   1.2625
     1.5924   1.5964   1.6914   1.8754   2.2677   2.3160   3.7484   3.8179
     3.8929   3.8994   3.9115   3.9851   4.2224   4.2386   4.2510   4.2572
     4.2920

[...]

          k = 0.0380-0.0419 0.0000 ( 17876 PWs)   bands (ev):

[...]

          k =-0.0760-0.0000 0.0000 ( 17886 PWs)   bands (ev):

[...]

          k =-0.0760-0.0839 0.0000 ( 17948 PWs)   bands (ev):

   -55.3348 -55.3261 -55.2842 -55.2839 -55.2687 -55.2295 -55.2121 -55.2038
   -55.1538 -55.1500 -55.1487 -55.1162 -55.1159 -55.0283 -54.3137 -54.3136
   -31.7247 -31.7219 -31.7182 -31.6345 -31.6088 -31.6086 -31.6060 -31.5756
   -31.5756 -31.5573 -31.5500 -31.5476 -31.5416 -31.5116 -31.5047 -31.4867
   -31.4863 -31.4824 -31.4790 -31.4738 -31.4707 -31.4699 -31.4329 -31.4278
   -31.4255 -31.4209 -31.4167 -31.4053 -31.4038 -31.4036 -31.3967 -31.3873
   -31.3831 -31.3669 -31.3634 -31.3474 -31.3467 -31.3372 -31.2972 -31.2968
   -31.2867 -31.2381 -30.6365 -30.6364 -30.5527 -30.5526 -30.5132 -30.5131
   -17.7957 -15.7087 -15.5966 -15.5504 -15.3773 -15.3550 -15.3324 -15.3177
   -15.1897 -15.1712 -15.1433 -15.1169 -15.0918 -15.0643 -15.0531 -15.0481
   -14.9656 -14.9537 -14.9462 -14.9301 -14.8623 -14.8594 -14.8551 -14.8492
   -14.7985 -14.7959 -14.7153 -14.7020 -14.7005 -14.5027 -13.1780 -12.8179
   -12.8179  -9.7201  -6.3598  -5.3939  -4.8856  -3.4497  -2.8652  -2.8299
    -2.8062  -2.7876  -2.5928  -2.5547  -2.5178  -2.5054  -2.4062  -2.3640
    -2.3463  -2.3390  -2.2686  -2.2653  -2.2345  -2.2044  -2.1834  -2.1663
    -2.1525  -2.1306  -2.1058  -2.0765  -2.0705  -2.0551  -2.0013  -1.9987
    -1.9829  -1.9608  -1.9434  -1.9223  -1.9058  -1.8490  -1.7268  -1.7166
    -1.6625  -1.5562  -1.5516  -1.4714  -1.4662  -1.4224  -1.3944  -1.3824
    -1.3551  -1.1750  -1.1214  -1.0951  -1.0876  -1.0759  -0.9672  -0.9331
    -0.8751  -0.8593  -0.8333  -0.7354  -0.6849  -0.6805  -0.5991  -0.5673
    -0.5284  -0.4867  -0.3855  -0.3559  -0.3361  -0.3070  -0.3036  -0.2500
    -0.2446  -0.1679  -0.1201  -0.0841  -0.0697  -0.0386   0.1608   0.1705
     0.1888   0.3357   0.3585   0.4987   0.5426   0.5846   0.6453   0.6970
     0.7629   0.8035   0.9304   0.9582   0.9590   1.0292   1.0495   1.0532
     1.1075   1.1094   2.0480   2.0486   2.1358   2.1361   3.8914   3.9960
     4.0109   4.0563   4.1659   4.2398   4.2631   4.2899   4.3328   4.3355
     4.3999

     the Fermi energy is     3.8112 ev

!    total energy              =   -2942.85974428 Ry
     estimated scf accuracy    <       0.00000007 Ry
     smearing contrib. (-TS)   =      -0.03701647 Ry
     internal energy E=F+TS    =   -2942.82272780 Ry

     The total energy is F=E-TS. E is the sum of the following terms:
     one-electron contribution =  -23389.39932464 Ry
     hartree contribution      =   11787.22960522 Ry
     xc contribution           =    -487.75188970 Ry
     ewald contribution        =    9147.09606293 Ry
     electric field correction =       0.00281838 Ry

     convergence has been achieved in  79 iterations

     Forces acting on atoms (cartesian axes, Ry/au):

     atom    1 type  1   force =     0.00000219   -0.00025981    0.09308845
     atom    2 type  1   force =    -0.00014570   -0.00042911   -0.17826158
     atom    3 type  2   force =     0.00007447   -0.00009201   -0.02024474
     atom    4 type  2   force =     0.00001704   -0.00186874    0.05881456
     atom    5 type  2   force =    -0.01020587   -0.00054146    0.00773198
     atom    6 type  2   force =     0.01225783    0.00007546    0.00819241
     atom    7 type  1   force =     0.00038656    0.00328071   -0.01426580
     atom    8 type  1   force =    -0.00045689    0.00045592   -0.00456433
     atom    9 type  2   force =    -0.00002576   -0.00061796   -0.00036501
     atom   10 type  2   force =    -0.00059566    0.00090954   -0.00141887
     atom   11 type  2   force =    -0.00037842   -0.00011838    0.00023098
     atom   12 type  2   force =     0.00006793   -0.00006414    0.00003852
     atom   13 type  1   force =     0.00005524   -0.00031646    0.00017999
     atom   14 type  1   force =    -0.00036479    0.00013499    0.00042528
     atom   15 type  2   force =    -0.00015717    0.00080267    0.00022305
     atom   16 type  2   force =    -0.00008729   -0.00018654    0.00032707
     atom   17 type  2   force =    -0.00048974    0.00005940    0.00042731
     atom   18 type  2   force =     0.00017928   -0.00019772   -0.00007909
     atom   19 type  1   force =     0.00035038    0.00028346    0.00090451
     atom   20 type  1   force =    -0.00063288   -0.00071533    0.00031637
     atom   21 type  2   force =     0.00000212   -0.00010253    0.10392433
     atom   22 type  2   force =    -0.00019614    0.00002409   -0.00068082
     atom   23 type  2   force =    -0.07034662   -0.00022817   -0.02685921
     atom   24 type  2   force =     0.07024288    0.00019848   -0.02693873
     atom   25 type  1   force =     0.00001930   -0.00026833    0.09275332
     atom   26 type  1   force =    -0.00011752   -0.00045167   -0.17830074
     atom   27 type  2   force =     0.00013850   -0.00032639   -0.01926900
     atom   28 type  2   force =     0.00008287   -0.00155182    0.05820913
     atom   29 type  2   force =    -0.01020990   -0.00032975    0.00695322
     atom   30 type  2   force =     0.01215979   -0.00008774    0.00748827
     atom   31 type  1   force =     0.00039985    0.00495308   -0.01540759
     atom   32 type  1   force =    -0.00037592   -0.00033138   -0.00467045
     atom   33 type  2   force =    -0.00021866   -0.00047849    0.00016216
     atom   34 type  2   force =    -0.00014078    0.00364437   -0.00060399
     atom   35 type  2   force =     0.00003091   -0.00056622    0.00032166
     atom   36 type  2   force =    -0.00018887   -0.00053395   -0.00002835
     atom   37 type  1   force =    -0.00025827   -0.00049170    0.00049093
     atom   38 type  1   force =    -0.00019427   -0.00090231    0.00045988
     atom   39 type  2   force =    -0.00047705   -0.00051969    0.00050559
     atom   40 type  2   force =     0.00001392   -0.00048557   -0.00041006
     atom   41 type  2   force =    -0.00082116   -0.00012436   -0.00011754
     atom   42 type  2   force =     0.00032965   -0.00026505   -0.00030062
     atom   43 type  1   force =     0.00005803   -0.00031509   -0.00003745
     atom   44 type  1   force =    -0.00008023   -0.00063866    0.00070987
     atom   45 type  2   force =     0.00000947   -0.00014498    0.10390170
     atom   46 type  2   force =    -0.07039493   -0.00018031   -0.02687223
     atom   47 type  2   force =     0.07025740    0.00026043   -0.02694254
     atom   48 type  3   force =     0.00036219    0.00208501   -0.00022933
     atom   49 type  3   force =     0.00031809    0.00088597   -0.00023187
     atom   50 type  4   force =    -0.00709259    0.00381203   -0.00114042
     atom   51 type  5   force =     0.00512664   -0.00448276    0.00115154
     atom   52 type  5   force =     0.00060031   -0.00049404    0.00041655
     atom   53 type  5   force =     0.00044201    0.00098566    0.00071381
     atom   54 type  5   force =     0.00004282   -0.00048494   -0.00036858
     atom   55 type  5   force =     0.00052512   -0.00176712   -0.00031293
     atom   56 type  5   force =     0.00010029   -0.00089056   -0.00014056

     Total force =     0.366265     Total SCF correction =     0.000847
  @ DRIVER MODE: Message from server: STATUS
  @ DRIVER MODE: Message from server: GETFORCE
  @ DRIVER MODE: Returning v,forces,stress,ensemble

     Writing output data file ./calc.save/
  @ DRIVER MODE: Message from server: EXIT
  @ DRIVE MODE: Exiting

     General routines

     Parallel routines

   This run was terminated on:   4:38: 2   9Sep2021

   JOB DONE.