     Program PWSCF v.6.7GPU starts on 16Jul2021 at  8:13:45

     R & G space division:  proc/nbgrp/npool/nimage =      16
     Reading input from /storage/home/hcoda1/3/ntian30/research/carbon/15Jul_vib/ads_slab/CH3NNHHH_a/out_0019/pw.inp
Warning: card &CELL ignored
Warning: card   CELL_DYNAMICS='IPI', ignored
Warning: card / ignored

     Current dimensions of program PWSCF are:
     Max number of different atomic species (ntypx) = 10
     Max number of k-points (npk) =  40000
     Max angular momentum in pseudopotentials (lmaxx) =  3
     Presently no symmetry can be used with electric field

     Message from routine cell_base_init:
     DEPRECATED: use true lattice parameter, not A to a.u. conversion factor

     IMPORTANT: XC functional enforced from input :
     Exchange-correlation= BEEF-VDW
                           (   1   4  43  14   2   0   0)
     Any further DFT definition will be discarded
     Please, verify this is what you really want

  @ DRIVER MODE: Connecting to
 qe_1139763_2351652.sched-torque.pace.gatech.eduj1xh79rx_scratch
  using UNIX socket
  @ DRIVER MODE: Message from server: STATUS
  @ DRIVER MODE: Message from server: INIT
  @ DRIVER MODE: Receiving replica           0          -1
  @ DRIVER MODE: Receiving encoded integer          25
  @ DRIVER MODE:  SCF:  T  FORCE:  T  STRESS:  F  VC:  F  ENSEMBLE:  F
  @ DRIVER MODE:  SCF:  T  FORCE:  T  STRESS:  F  VC:  F  ENSEMBLE:  F

     Using Slab Decomposition

     bravais-lattice index     =            0
     lattice parameter (alat)  =       1.8897  a.u.
     unit-cell volume          =    6658.9804 (a.u.)^3
     number of atoms/cell      =           56
     number of atomic types    =            5
     number of electrons       =       398.00
     number of Kohn-Sham states=          209
     kinetic-energy cutoff     =      29.3995  Ry
     charge density cutoff     =     293.9946  Ry
     scf convergence threshold =      7.3E-08
     mixing beta               =       0.0500
     number of iterations used =            8  plain     mixing
     Exchange-correlation= BEEF-VDW
                           (   1   4  43  14   2   0   0)

     celldm(1)=   1.889726  celldm(2)=   0.000000  celldm(3)=   0.000000
     celldm(4)=   0.000000  celldm(5)=   0.000000  celldm(6)=   0.000000

     crystal axes: (cart. coord. in units of alat)
               a(1) = (   6.579727   0.000000   0.000000 )
               a(2) = (  -0.000775   5.961596   0.000000 )
               a(3) = (   0.000000   0.000000  25.155947 )

     reciprocal axes: (cart. coord. in units 2 pi/alat)
               b(1) = (  0.151982  0.000020  0.000000 )
               b(2) = (  0.000000  0.167740  0.000000 )
               b(3) = (  0.000000  0.000000  0.039752 )

     PseudoPot. # 1 for Ti read from file:
     /storage/coda1/p-amedford6/0/shared/rich_project_chbe-medford/medford-share/data/pseudos_module/espresso/nninc/pbe/van/Ti.UPF
     MD5 check sum: 8e4df49b7f0d34bbd5052bf3f5ea0213
     Pseudo is Ultrasoft, Zval = 12.0
     Generated by new atomic code, or converted to UPF format
     Using radial grid of  851 points,  6 beta functions with:
                l(1) =   0
                l(2) =   0
                l(3) =   1
                l(4) =   1
                l(5) =   2
                l(6) =   2
     Q(r) pseudized with  8 coefficients,  rinner =    1.000   1.000   1.000
                                                       1.000   1.000

     PseudoPot. # 2 for O  read from file:
     /storage/coda1/p-amedford6/0/shared/rich_project_chbe-medford/medford-share/data/pseudos_module/espresso/nninc/pbe/van/O.UPF
     MD5 check sum: 78c19812648e8988a0fe644b0f25305e
     Pseudo is Ultrasoft, Zval =  6.0
     Generated by new atomic code, or converted to UPF format
     Using radial grid of  737 points,  4 beta functions with:
                l(1) =   0
                l(2) =   0
                l(3) =   1
                l(4) =   1
     Q(r) pseudized with  8 coefficients,  rinner =    0.800   0.800   0.800

     PseudoPot. # 3 for N  read from file:
     /storage/coda1/p-amedford6/0/shared/rich_project_chbe-medford/medford-share/data/pseudos_module/espresso/nninc/pbe/van/N.UPF
     MD5 check sum: 90d10febe142ad51ac9d5be1deb811c4
     Pseudo is Ultrasoft, Zval =  5.0
     Generated by new atomic code, or converted to UPF format
     Using radial grid of  729 points,  4 beta functions with:
                l(1) =   0
                l(2) =   0
                l(3) =   1
                l(4) =   1
     Q(r) pseudized with  8 coefficients,  rinner =    0.800   0.800   0.800

     PseudoPot. # 4 for C  read from file:
     /storage/coda1/p-amedford6/0/shared/rich_project_chbe-medford/medford-share/data/pseudos_module/espresso/nninc/pbe/van/C.UPF
     MD5 check sum: 1a69bf6b8db32088f5b2163dbdb77a27
     Pseudo is Ultrasoft, Zval =  4.0
     Generated by new atomic code, or converted to UPF format
     Using radial grid of  721 points,  4 beta functions with:
                l(1) =   0
                l(2) =   0
                l(3) =   1
                l(4) =   1
     Q(r) pseudized with  8 coefficients,  rinner =    0.800   0.800   0.800

     PseudoPot. # 5 for H  read from file:
     /storage/coda1/p-amedford6/0/shared/rich_project_chbe-medford/medford-share/data/pseudos_module/espresso/nninc/pbe/van/H.UPF
     MD5 check sum: b5ee9d7bfd3a09ee7748110bda690ff7
     Pseudo is Ultrasoft, Zval =  1.0
     Generated by new atomic code, or converted to UPF format
     Using radial grid of  615 points,  1 beta functions with:
                l(1) =   0
     Q(r) pseudized with  8 coefficients,  rinner =    0.800

     atomic species   valence    mass     pseudopotential
        Ti1           12.00    47.86700     Ti( 1.00)
        O1             6.00    15.99900     O ( 1.00)
        N1             5.00    14.00700     N ( 1.00)
        C1             4.00    12.01100     C ( 1.00)
        H1             1.00     1.00800     H ( 1.00)

     Starting magnetic structure
     atomic species   magnetization
        Ti1          0.000
        O1           0.000
        N1           0.000
        C1           0.025
        H1           0.000

     No symmetry found

   Cartesian axes

     site n.     atom                  positions (alat units)
         1           Ti1 tau(   1) = (   0.0004258   2.9801865   6.0000000  )
         2           Ti1 tau(   2) = (   3.2906075   1.4906267   6.0002472  )
         3           O1  tau(   3) = (   0.0006271   0.0005054   7.9858123  )
         4           O1  tau(   4) = (   3.2906025   0.0005020   7.3038282  )
         5           O1  tau(   5) = (   4.5942328   1.4918067   9.2879030  )
         6           O1  tau(   6) = (   1.9868534   1.4903216   9.2879459  )
         7           Ti1 tau(   7) = (   3.2907910   2.8959150   9.1758416  )
         8           Ti1 tau(   8) = (   0.0015273   1.4827037   9.2680791  )
         9           O1  tau(   9) = (   3.2969863   5.9453513  11.3493076  )
        10           O1  tau(  10) = (   0.0116148   5.9584955  10.6183126  )
        11           O1  tau(  11) = (   1.3059050   1.4736943  12.6642453  )
        12           O1  tau(  12) = (   5.3003793   1.4775083  12.6459419  )
        13           Ti1 tau(  13) = (   0.0167275   2.9625105  12.5508078  )
        14           Ti1 tau(  14) = (   3.3131340   1.4712512  12.4909780  )
        15           O1  tau(  15) = (   6.5517612   5.9325698  14.7566896  )
        16           O1  tau(  16) = (   3.3302114   5.9429442  13.9823395  )
        17           O1  tau(  17) = (   4.5243935   1.5056208  16.2316672  )
        18           O1  tau(  18) = (   2.0170937   1.4633510  16.1378485  )
        19           Ti1 tau(  19) = (   3.2500237   2.9242626  15.6920970  )
        20           Ti1 tau(  20) = (   6.5441017   1.2779805  16.1516014  )
        21           O1  tau(  21) = (   3.2904802   0.0005063   4.7018136  )
        22           O1  tau(  22) = (   6.5540411   5.9581837  17.3465722  )
        23           O1  tau(  23) = (   1.3043587   1.4918075   6.0039043  )
        24           O1  tau(  24) = (   5.2767064   1.4903225   6.0039473  )
        25           Ti1 tau(  25) = (   0.0000382   5.9609847   6.0000000  )
        26           Ti1 tau(  26) = (   3.2902200   4.4714249   6.0002472  )
        27           O1  tau(  27) = (   0.0002396   2.9813036   7.9858123  )
        28           O1  tau(  28) = (   3.2902150   2.9813002   7.3038282  )
        29           O1  tau(  29) = (   4.5938453   4.4726049   9.2879030  )
        30           O1  tau(  30) = (   1.9864658   4.4711199   9.2879459  )
        31           Ti1 tau(  31) = (   3.2891106   5.8743827   9.1763621  )
        32           Ti1 tau(  32) = (   0.0006254   4.4649316   9.2693709  )
        33           O1  tau(  33) = (   3.2962403   2.9651072  11.3429128  )
        34           O1  tau(  34) = (   0.0092240   2.9805883  10.6323155  )
        35           O1  tau(  35) = (   1.3076126   4.4641214  12.6643835  )
        36           O1  tau(  36) = (   5.2981430   4.4591552  12.6429889  )
        37           Ti1 tau(  37) = (   0.0194730   5.9489450  12.5196332  )
        38           Ti1 tau(  38) = (   3.3150505   4.4522436  12.4946186  )
        39           O1  tau(  39) = (   6.5702761   2.9869041  14.8038460  )
        40           O1  tau(  40) = (   3.3119818   2.9576719  13.9204832  )
        41           O1  tau(  41) = (   4.5223198   4.3950437  16.2490866  )
        42           O1  tau(  42) = (   2.0356696   4.4339808  16.1311045  )
        43           Ti1 tau(  43) = (   3.3057863   5.9493229  15.7677403  )
        44           Ti1 tau(  44) = (   0.0958844   4.4293496  15.8701971  )
        45           O1  tau(  45) = (   3.2900926   2.9813045   4.7018136  )
        46           O1  tau(  46) = (   1.3039711   4.4726057   6.0039043  )
        47           O1  tau(  47) = (   5.2763189   4.4711207   6.0039473  )
        48           N1  tau(  48) = (   0.0620580   3.0375546  17.6897758  )
        49           C1  tau(  49) = (   1.1116374   2.9693208  18.6984743  )
        50           H1  tau(  50) = (   1.2951007   3.9532040  19.1583453  )
        51           H1  tau(  51) = (   0.8527774   2.2426413  19.4871689  )
        52           H1  tau(  52) = (   2.0263963   2.6228967  18.2308865  )
        53           N1  tau(  53) = (   5.4279256   3.3744730  18.4033390  )
        54           H1  tau(  54) = (   5.6103604   4.1199394  19.0852601  )
        55           H1  tau(  55) = (   4.7934260   3.8076565  17.6395878  )
        56           H1  tau(  56) = (   5.0090149   2.5598412  18.8678436  )

     number of k points=    10  Fermi-Dirac smearing, width (Ry)=  0.0073
                       cart. coord. in units 2pi/alat
        k(    1) = (   0.0000000   0.0000000   0.0000000), wk =   0.0625000
        k(    2) = (   0.0000000   0.0419351   0.0000000), wk =   0.1250000
        k(    3) = (   0.0000000  -0.0838702   0.0000000), wk =   0.0625000
        k(    4) = (   0.0379955   0.0000049   0.0000000), wk =   0.1250000
        k(    5) = (   0.0379955   0.0419400   0.0000000), wk =   0.1250000
[...]
     %   T. Thonhauser et al., PRL 115, 136402 (2015).                      %
     %   T. Thonhauser et al., PRB 76, 125112 (2007).                       %
     %   K. Berland et al., Rep. Prog. Phys. 78, 066501 (2015).             %
     %   D.C. Langreth et al., J. Phys.: Condens. Matter 21, 084203 (2009). %
     %                                                                      %
     %                                                                      %
     % If you are calculating the stress with vdW-DF, please also cite:     %
     %                                                                      %
     %   R. Sabatini et al., J. Phys.: Condens. Matter 24, 424209 (2012).   %
     %                                                                      %
     %%%%%%%%%%%%%%%%%%%%%%%%%%%%%%%%%%%%%%%%%%%%%%%%%%%%%%%%%%%%%%%%%%%%%%%%

     Adding external electric field

     Computed dipole along edir(3) :
        Dipole              -10.5729 Ry au,        -26.8736 Debye
        Dipole field         -0.0200 Ry au,

        Potential amp.        1.8496 Ry
        Total length         46.3494 bohr

[...]

     Starting wfcs are  302 atomic wfcs
  @ DRIVER MODE: Message from server: STATUS
  @ DRIVER MODE: Message from server: POSDATA
  @ DRIVER MODE: Reading and sharing cell
  @ DRIVER MODE: Reading and sharing positions
  @ DRIVER MODE: Received positions

     Self-consistent Calculation

     iteration #  1     ecut=    29.40 Ry     beta= 0.05
     Davidson diagonalization with overlap
     c_bands:  4 eigenvalues not converged
     c_bands:  3 eigenvalues not converged
     c_bands:  1 eigenvalues not converged
     c_bands:  4 eigenvalues not converged
     c_bands:  5 eigenvalues not converged
     c_bands:  5 eigenvalues not converged
     c_bands:  1 eigenvalues not converged
     c_bands:  5 eigenvalues not converged
     c_bands:  3 eigenvalues not converged
     c_bands:  3 eigenvalues not converged
     c_bands:  2 eigenvalues not converged
     c_bands:  1 eigenvalues not converged
     c_bands:  4 eigenvalues not converged
     c_bands:  5 eigenvalues not converged
     c_bands:  5 eigenvalues not converged
     c_bands:  5 eigenvalues not converged
     c_bands:  3 eigenvalues not converged
     ethr =  1.00E-05,  avg # of iterations = 20.0

[...]

     total energy              =   -2443.28448775 Ry
     estimated scf accuracy    <    5586.05473770 Ry

     total magnetization       =     0.00 Bohr mag/cell
     absolute magnetization    =     0.01 Bohr mag/cell

     iteration #  2     ecut=    29.40 Ry     beta= 0.05
     Davidson diagonalization with overlap
     ethr =  1.00E-02,  avg # of iterations = 24.9

[...]

     iteration #112     ecut=    29.40 Ry     beta= 0.05
     Davidson diagonalization with overlap
     ethr =  4.47E-11,  avg # of iterations =  2.4

[...]

     total energy              =   -2942.82553604 Ry
     estimated scf accuracy    <       0.00000013 Ry

[...]

     iteration #118     ecut=    29.40 Ry     beta= 0.05
     Davidson diagonalization with overlap
     c_bands:  2 eigenvalues not converged
     c_bands:  1 eigenvalues not converged
     c_bands:  3 eigenvalues not converged
     c_bands:  2 eigenvalues not converged
     c_bands:  3 eigenvalues not converged
     c_bands:  1 eigenvalues not converged
     c_bands:  1 eigenvalues not converged
     ethr =  1.94E-11,  avg # of iterations = 19.2

     negative rho (up, down):  7.270E-03 7.279E-03

[...]

     Adding external electric field

     Computed dipole along edir(3) :
        Dipole                1.6176 Ry au,          4.1116 Debye
        Dipole field          0.0031 Ry au,

        Potential amp.       -0.2830 Ry
        Total length         46.3494 bohr

     Magnetic moment per site  (integrated on atomic sphere of radius R)
     atom   1 (R=0.723)  charge=  7.9141  magn= -0.0239
     atom   2 (R=0.723)  charge=  7.8963  magn= -0.0010
     atom   3 (R=0.633)  charge=  4.2081  magn=  0.0025
     atom   4 (R=0.633)  charge=  4.2373  magn=  0.0003
     atom   5 (R=0.633)  charge=  4.2138  magn=  0.0005
     atom   6 (R=0.633)  charge=  4.2139  magn=  0.0005
     atom   7 (R=0.723)  charge=  7.8964  magn= -0.0015
     atom   8 (R=0.723)  charge=  7.8945  magn= -0.0164
     atom   9 (R=0.633)  charge=  4.2238  magn=  0.0003
     atom  10 (R=0.633)  charge=  4.2125  magn=  0.0012
     atom  11 (R=0.633)  charge=  4.2093  magn=  0.0005
     atom  12 (R=0.633)  charge=  4.2111  magn=  0.0005
     atom  13 (R=0.723)  charge=  7.8926  magn= -0.0047
     atom  14 (R=0.723)  charge=  7.9040  magn= -0.0026
     atom  15 (R=0.633)  charge=  4.2098  magn=  0.0001
     atom  16 (R=0.633)  charge=  4.2161  magn=  0.0000
     atom  17 (R=0.633)  charge=  4.2035  magn= -0.0001
     atom  18 (R=0.633)  charge=  4.2034  magn= -0.0001
     atom  19 (R=0.723)  charge=  7.9505  magn=  0.0003
     atom  20 (R=0.723)  charge=  7.9298  magn= -0.0000
     atom  21 (R=0.633)  charge=  4.1284  magn=  0.0008
     atom  22 (R=0.633)  charge=  4.1765  magn= -0.0001
     atom  23 (R=0.633)  charge=  4.2074  magn=  0.0023
     atom  24 (R=0.633)  charge=  4.2074  magn=  0.0023
     atom  25 (R=0.723)  charge=  7.9141  magn= -0.0239
     atom  26 (R=0.723)  charge=  7.8964  magn= -0.0010
     atom  27 (R=0.633)  charge=  4.2077  magn=  0.0025
     atom  28 (R=0.633)  charge=  4.2375  magn=  0.0003
     atom  29 (R=0.633)  charge=  4.2143  magn=  0.0005
     atom  30 (R=0.633)  charge=  4.2144  magn=  0.0005
     atom  31 (R=0.723)  charge=  7.8969  magn= -0.0015
     atom  32 (R=0.723)  charge=  7.8947  magn= -0.0164
     atom  33 (R=0.633)  charge=  4.2222  magn=  0.0004
     atom  34 (R=0.633)  charge=  4.2053  magn=  0.0012
     atom  35 (R=0.633)  charge=  4.2090  magn=  0.0005
     atom  36 (R=0.633)  charge=  4.2115  magn=  0.0005
     atom  37 (R=0.723)  charge=  7.8964  magn= -0.0046
     atom  38 (R=0.723)  charge=  7.9034  magn= -0.0025
     atom  39 (R=0.633)  charge=  4.1926  magn=  0.0001
     atom  40 (R=0.633)  charge=  4.2343  magn=  0.0000
     atom  41 (R=0.633)  charge=  4.2025  magn= -0.0001
     atom  42 (R=0.633)  charge=  4.2135  magn= -0.0001
     atom  43 (R=0.723)  charge=  7.9399  magn=  0.0005
     atom  44 (R=0.723)  charge=  7.9262  magn= -0.0004
     atom  45 (R=0.633)  charge=  4.1284  magn=  0.0008
     atom  46 (R=0.633)  charge=  4.2073  magn=  0.0023
     atom  47 (R=0.633)  charge=  4.2074  magn=  0.0023
     atom  48 (R=0.423)  charge=  1.3357  magn= -0.0000
     atom  49 (R=0.447)  charge=  0.8381  magn=  0.0000
     atom  50 (R=0.423)  charge=  0.4486  magn= -0.0000
     atom  51 (R=0.423)  charge=  0.4486  magn= -0.0000
     atom  52 (R=0.423)  charge=  0.4551  magn= -0.0000
     atom  53 (R=0.423)  charge=  1.3749  magn=  0.0000
     atom  54 (R=0.423)  charge=  0.4520  magn=  0.0000
     atom  55 (R=0.423)  charge=  0.3988  magn=  0.0000
     atom  56 (R=0.423)  charge=  0.4521  magn=  0.0000

     End of self-consistent calculation

 ------ SPIN UP ------------

          k = 0.0000 0.0000 0.0000 ( 18029 PWs)   bands (ev):

   -55.1331 -55.0965 -55.0736 -55.0394 -55.0138 -55.0032 -54.9757 -54.9349
   -54.9164 -54.9093 -54.9002 -54.8758 -54.8571 -54.7865 -54.1072 -54.0732
   -31.7140 -31.5762 -31.5017 -31.4718 -31.4261 -31.4244 -31.4101 -31.3947
   -31.3909 -31.3598 -31.3591 -31.3420 -31.3155 -31.3106 -31.2937 -31.2674
   -31.2478 -31.2351 -31.2346 -31.2219 -31.1974 -31.1972 -31.1911 -31.1665
   -31.1427 -31.1383 -31.1306 -31.1262 -31.1233 -31.1186 -31.1141 -31.1053
   -31.0894 -31.0845 -31.0818 -31.0500 -31.0405 -31.0369 -31.0289 -31.0179
   -31.0178 -30.9758 -30.5160 -30.4231 -30.4012 -30.3321 -30.2453 -30.1348
   -18.9395 -15.9999 -15.7456 -15.6100 -15.3752 -15.3232 -15.2666 -15.0613
   -15.0578 -14.9868 -14.9716 -14.9227 -14.9033 -14.8355 -14.7514 -14.7317
   -14.6627 -14.6603 -14.6313 -14.6209 -14.6189 -14.5563 -14.5467 -14.5167
   -14.5041 -14.4791 -14.3607 -14.2761 -14.2178 -13.9683 -13.5992 -12.6115
   -12.4944  -9.7446  -7.7238  -7.2142  -5.4573  -3.8182  -3.3367  -3.2861
    -3.1634  -3.1325  -3.0552  -3.0246  -2.8392  -2.8213  -2.4781  -2.4436
    -2.3930  -2.3744  -2.3547  -2.3360  -2.1695  -2.1426  -2.0695  -2.0368
    -2.0185  -1.9773  -1.9607  -1.9489  -1.9163  -1.9114  -1.9018  -1.6948
    -1.6381  -1.5424  -1.5211  -1.4989  -1.4616  -1.4261  -1.4150  -1.4133
    -1.4075  -1.3945  -1.3826  -1.3016  -1.2446  -1.1622  -1.1544  -1.1179
    -1.0140  -0.9695  -0.7673  -0.7526  -0.7070  -0.6644  -0.6018  -0.5819
    -0.5126  -0.4832  -0.4645  -0.3428  -0.3146  -0.2747  -0.2466  -0.1780
    -0.1490  -0.1027  -0.0201   0.0522   0.0879   0.1057   0.1649   0.2948
     0.3062   0.3355   0.3968   0.4608   0.5007   0.5209   0.5394   0.5763
     0.6263   0.7522   0.7970   0.8169   0.8206   0.8544   0.8774   0.9285
     0.9530   1.0140   1.0192   1.1371   1.2061   1.4340   1.4683   1.4940
     1.8267   1.8488   1.9144   2.0999   2.4875   2.5357   3.9840   4.0384
     4.0866   4.1295   4.1326   4.2206   4.2449   4.4339   4.4617   4.4697
     4.4785

[...]

          k =-0.0760-0.0000 0.0000 ( 17886 PWs)   bands (ev):

[...]

 ------ SPIN DOWN ----------

[...]

          k = 0.0380-0.0419 0.0000 ( 17876 PWs)   bands (ev):

[...]

          k =-0.0760-0.0839 0.0000 ( 17948 PWs)   bands (ev):

   -55.1224 -55.1166 -55.0999 -55.0998 -55.0118 -54.9984 -54.9949 -54.9238
   -54.9223 -54.9220 -54.9190 -54.9180 -54.8540 -54.7904 -54.0921 -54.0919
   -31.5203 -31.5174 -31.4397 -31.4183 -31.4093 -31.4092 -31.3957 -31.3954
   -31.3492 -31.3429 -31.3400 -31.3394 -31.3047 -31.2676 -31.2654 -31.2605
   -31.2596 -31.2578 -31.2542 -31.2538 -31.2230 -31.2229 -31.2192 -31.2164
   -31.2122 -31.2084 -31.1878 -31.1843 -31.1566 -31.1520 -31.1369 -31.1367
   -31.1362 -31.1327 -31.1282 -31.1189 -31.1057 -31.1045 -31.0934 -31.0664
   -31.0410 -31.0233 -30.4162 -30.4160 -30.3296 -30.3295 -30.2907 -30.2907
   -18.9347 -15.5069 -15.3970 -15.2897 -15.2236 -15.1810 -15.1292 -15.1115
   -15.0998 -15.0564 -15.0268 -14.9575 -14.8920 -14.8383 -14.8373 -14.8035
   -14.7254 -14.7116 -14.7036 -14.6937 -14.6365 -14.6298 -14.5981 -14.5762
   -14.5732 -14.5449 -14.4708 -14.4684 -14.3835 -14.1776 -13.6353 -12.5945
   -12.5943  -9.7139  -7.7205  -7.1597  -5.4605  -3.8402  -3.4423  -2.7556
    -2.6444  -2.4350  -2.4080  -2.3479  -2.3293  -2.2451  -2.1829  -2.1609
    -2.1372  -2.1030  -2.1000  -2.0770  -2.0543  -2.0012  -1.9717  -1.9598
    -1.9540  -1.9396  -1.9268  -1.9071  -1.8505  -1.8404  -1.8330  -1.7901
    -1.7791  -1.7472  -1.7411  -1.7019  -1.6852  -1.6108  -1.5170  -1.4927
    -1.4338  -1.3327  -1.3179  -1.3123  -1.2203  -1.2108  -1.1809  -1.1498
    -1.0958  -0.9971  -0.9420  -0.8649  -0.8616  -0.8329  -0.7452  -0.6817
    -0.6479  -0.6381  -0.5993  -0.5421  -0.5195  -0.4848  -0.4021  -0.3608
    -0.3334  -0.2998  -0.2054  -0.1437  -0.1202  -0.0870  -0.0835   0.0045
     0.0377   0.0740   0.0946   0.1338   0.1608   0.2239   0.2464   0.3570
     0.4252   0.4565   0.5756   0.6003   0.6635   0.7965   0.8677   0.9085
     0.9604   1.0192   1.0468   1.1790   1.1863   1.2047   1.3040   1.3439
     1.3508   1.3640   2.2734   2.2745   2.3561   2.3563   4.1005   4.1867
     4.2273   4.2645   4.3732   4.4742   4.4928   4.5390   4.5395   4.6109
     4.6161

     the Fermi energy is     4.0213 ev

!    total energy              =   -2942.82553640 Ry
     estimated scf accuracy    <       0.00000005 Ry
     smearing contrib. (-TS)   =      -0.03677432 Ry
     internal energy E=F+TS    =   -2942.78876209 Ry

     The total energy is F=E-TS. E is the sum of the following terms:
     one-electron contribution =  -23972.25640612 Ry
     hartree contribution      =   12081.70112897 Ry
     xc contribution           =    -487.77207081 Ry
     ewald contribution        =    9435.53364780 Ry
     electric field correction =       0.00493808 Ry

     total magnetization       =    -0.13 Bohr mag/cell
     absolute magnetization    =     0.20 Bohr mag/cell

     convergence has been achieved in 118 iterations

     Forces acting on atoms (cartesian axes, Ry/au):

     atom    1 type  1   force =     0.00015055   -0.00022149    0.09429101
     atom    2 type  1   force =    -0.00009569   -0.00033049   -0.17742105
     atom    3 type  2   force =     0.00005575   -0.00016241   -0.02130783
     atom    4 type  2   force =    -0.00001506   -0.00172662    0.05660893
     atom    5 type  2   force =    -0.01056271   -0.00127502    0.00624814
     atom    6 type  2   force =     0.01223031   -0.00074084    0.00571992
     atom    7 type  1   force =    -0.00032764    0.00171882   -0.01620968
     atom    8 type  1   force =    -0.00011143    0.00438599    0.00556068
     atom    9 type  2   force =     0.00001003   -0.00004466   -0.00004473
     atom   10 type  2   force =    -0.00074295   -0.00022056   -0.00041318
     atom   11 type  2   force =     0.00035087    0.00012754   -0.00018392
     atom   12 type  2   force =    -0.00052257    0.00000497   -0.00012152
     atom   13 type  1   force =     0.00004254   -0.00035316    0.00011304
     atom   14 type  1   force =     0.00055748    0.00011769   -0.00033468
     atom   15 type  2   force =    -0.00040152    0.00026796   -0.00018366
     atom   16 type  2   force =    -0.00033231    0.00019422   -0.00003811
     atom   17 type  2   force =    -0.00016887    0.00009990    0.00044762
     atom   18 type  2   force =     0.00008455    0.00036276   -0.00004451
     atom   19 type  1   force =     0.00019404    0.00004710   -0.00004082
     atom   20 type  1   force =     0.00008952    0.00053927   -0.00049877
     atom   21 type  2   force =     0.00003733    0.00004208    0.10363527
     atom   22 type  2   force =    -0.00004262   -0.00081537   -0.00026828
     atom   23 type  2   force =    -0.07081157   -0.00010180   -0.02718352
     atom   24 type  2   force =     0.07067561    0.00034102   -0.02721336
     atom   25 type  1   force =    -0.00009491   -0.00019462    0.09371146
     atom   26 type  1   force =    -0.00015266   -0.00032097   -0.17734805
     atom   27 type  2   force =     0.00008714   -0.00035197   -0.02040646
     atom   28 type  2   force =     0.00003084   -0.00144134    0.05591806
     atom   29 type  2   force =    -0.01092579   -0.00073335    0.00609713
     atom   30 type  2   force =     0.01247746   -0.00028821    0.00557596
     atom   31 type  1   force =    -0.00017493    0.00462129   -0.01723903
     atom   32 type  1   force =    -0.00003852   -0.00480308    0.00553873
     atom   33 type  2   force =     0.00005611    0.00012417    0.00027533
     atom   34 type  2   force =     0.00005774   -0.00085373   -0.00294216
     atom   35 type  2   force =     0.00023841    0.00002979    0.00008591
     atom   36 type  2   force =    -0.00043184    0.00015521   -0.00006083
     atom   37 type  1   force =    -0.00012764   -0.00010824   -0.00020226
     atom   38 type  1   force =     0.00043344   -0.00028499    0.00036125
     atom   39 type  2   force =    -0.00045130    0.00009909    0.00072417
     atom   40 type  2   force =    -0.00011861    0.00018703   -0.00020244
     atom   41 type  2   force =     0.00007691    0.00029601    0.00024375
     atom   42 type  2   force =    -0.00006500    0.00019093    0.00001404
     atom   43 type  1   force =    -0.00040793    0.00058323   -0.00008891
     atom   44 type  1   force =    -0.00022489    0.00027072   -0.00021282
     atom   45 type  2   force =     0.00002592    0.00001082    0.10363573
     atom   46 type  2   force =    -0.07081294   -0.00003673   -0.02718550
     atom   47 type  2   force =     0.07067899    0.00038150   -0.02719135
     atom   48 type  3   force =     0.00020287   -0.00017095   -0.00068872
     atom   49 type  4   force =    -0.00271456   -0.00134449    0.00112839
     atom   50 type  5   force =     0.00000357   -0.00004310    0.00017849
     atom   51 type  5   force =     0.00232156    0.00129472   -0.00146381
     atom   52 type  5   force =    -0.00057451   -0.00071764    0.00079124
     atom   53 type  3   force =     0.00054551    0.00086560    0.00110388
     atom   54 type  5   force =     0.00012079    0.00007287   -0.00023388
     atom   55 type  5   force =    -0.00008320    0.00016356   -0.00086512
     atom   56 type  5   force =    -0.00030164    0.00008995   -0.00016913

     Total force =     0.365619     Total SCF correction =     0.000354
  @ DRIVER MODE: Message from server: STATUS
  @ DRIVER MODE: Message from server: GETFORCE
  @ DRIVER MODE: Returning v,forces,stress,ensemble

     Writing output data file ./calc.save/
  @ DRIVER MODE: Message from server: EXIT
  @ DRIVE MODE: Exiting

     General routines

     Parallel routines

   This run was terminated on:   9:11:25  16Jul2021

   JOB DONE.