     Program PWSCF v.6.7GPU starts on 16Sep2021 at  6: 3: 9

     R & G space division:  proc/nbgrp/npool/nimage =      10
     Reading input from /storage/home/hcoda1/3/ntian30/research/carbon/CxH_vib/H2O_calc/ads_slab/CH2N2HH2O_a/out_0043/pw.inp
Warning: card &CELL ignored
Warning: card   CELL_DYNAMICS='IPI', ignored
Warning: card / ignored

     Current dimensions of program PWSCF are:
     Max number of different atomic species (ntypx) = 10
     Max number of k-points (npk) =  40000
     Max angular momentum in pseudopotentials (lmaxx) =  3
     Presently no symmetry can be used with electric field

     Message from routine cell_base_init:
     DEPRECATED: use true lattice parameter, not A to a.u. conversion factor

     IMPORTANT: XC functional enforced from input :
     Exchange-correlation= BEEF-VDW
                           (   1   4  43  14   2   0   0)
     Any further DFT definition will be discarded
     Please, verify this is what you really want

  @ DRIVER MODE: Connecting to
 qe_1139763_2852606.sched-torque.pace.gatech.edujaa6rf26_scratch
  using UNIX socket
  @ DRIVER MODE: Message from server: STATUS
  @ DRIVER MODE: Message from server: INIT
  @ DRIVER MODE: Receiving replica           0          -1
  @ DRIVER MODE: Receiving encoded integer          25
  @ DRIVER MODE:  SCF:  T  FORCE:  T  STRESS:  F  VC:  F  ENSEMBLE:  F
  @ DRIVER MODE:  SCF:  T  FORCE:  T  STRESS:  F  VC:  F  ENSEMBLE:  F

     Using Slab Decomposition

     bravais-lattice index     =            0
     lattice parameter (alat)  =       1.8897  a.u.
     unit-cell volume          =    6658.9804 (a.u.)^3
     number of atoms/cell      =           56
     number of atomic types    =            5
     number of electrons       =       403.00
     number of Kohn-Sham states=          211
     kinetic-energy cutoff     =      29.3995  Ry
     charge density cutoff     =     293.9946  Ry
     scf convergence threshold =      7.3E-08
     mixing beta               =       0.0500
     number of iterations used =            8  plain     mixing
     Exchange-correlation= BEEF-VDW
                           (   1   4  43  14   2   0   0)

     celldm(1)=   1.889726  celldm(2)=   0.000000  celldm(3)=   0.000000
     celldm(4)=   0.000000  celldm(5)=   0.000000  celldm(6)=   0.000000

     crystal axes: (cart. coord. in units of alat)
               a(1) = (   6.579727   0.000000   0.000000 )
               a(2) = (  -0.000775   5.961596   0.000000 )
               a(3) = (   0.000000   0.000000  25.155947 )

     reciprocal axes: (cart. coord. in units 2 pi/alat)
               b(1) = (  0.151982  0.000020  0.000000 )
               b(2) = (  0.000000  0.167740  0.000000 )
               b(3) = (  0.000000  0.000000  0.039752 )

     PseudoPot. # 1 for Ti read from file:
     /storage/coda1/p-amedford6/0/shared/rich_project_chbe-medford/medford-share/data/pseudos_module/espresso/nninc/pbe/van/Ti.UPF
     MD5 check sum: 8e4df49b7f0d34bbd5052bf3f5ea0213
     Pseudo is Ultrasoft, Zval = 12.0
     Generated by new atomic code, or converted to UPF format
     Using radial grid of  851 points,  6 beta functions with:
                l(1) =   0
                l(2) =   0
                l(3) =   1
                l(4) =   1
                l(5) =   2
                l(6) =   2
     Q(r) pseudized with  8 coefficients,  rinner =    1.000   1.000   1.000
                                                       1.000   1.000

     PseudoPot. # 2 for O  read from file:
     /storage/coda1/p-amedford6/0/shared/rich_project_chbe-medford/medford-share/data/pseudos_module/espresso/nninc/pbe/van/O.UPF
     MD5 check sum: 78c19812648e8988a0fe644b0f25305e
     Pseudo is Ultrasoft, Zval =  6.0
     Generated by new atomic code, or converted to UPF format
     Using radial grid of  737 points,  4 beta functions with:
                l(1) =   0
                l(2) =   0
                l(3) =   1
                l(4) =   1
     Q(r) pseudized with  8 coefficients,  rinner =    0.800   0.800   0.800

     PseudoPot. # 3 for N  read from file:
     /storage/coda1/p-amedford6/0/shared/rich_project_chbe-medford/medford-share/data/pseudos_module/espresso/nninc/pbe/van/N.UPF
     MD5 check sum: 90d10febe142ad51ac9d5be1deb811c4
     Pseudo is Ultrasoft, Zval =  5.0
     Generated by new atomic code, or converted to UPF format
     Using radial grid of  729 points,  4 beta functions with:
                l(1) =   0
                l(2) =   0
                l(3) =   1
                l(4) =   1
     Q(r) pseudized with  8 coefficients,  rinner =    0.800   0.800   0.800

     PseudoPot. # 4 for C  read from file:
     /storage/coda1/p-amedford6/0/shared/rich_project_chbe-medford/medford-share/data/pseudos_module/espresso/nninc/pbe/van/C.UPF
     MD5 check sum: 1a69bf6b8db32088f5b2163dbdb77a27
     Pseudo is Ultrasoft, Zval =  4.0
     Generated by new atomic code, or converted to UPF format
     Using radial grid of  721 points,  4 beta functions with:
                l(1) =   0
                l(2) =   0
                l(3) =   1
                l(4) =   1
     Q(r) pseudized with  8 coefficients,  rinner =    0.800   0.800   0.800

     PseudoPot. # 5 for H  read from file:
     /storage/coda1/p-amedford6/0/shared/rich_project_chbe-medford/medford-share/data/pseudos_module/espresso/nninc/pbe/van/H.UPF
     MD5 check sum: b5ee9d7bfd3a09ee7748110bda690ff7
     Pseudo is Ultrasoft, Zval =  1.0
     Generated by new atomic code, or converted to UPF format
     Using radial grid of  615 points,  1 beta functions with:
                l(1) =   0
     Q(r) pseudized with  8 coefficients,  rinner =    0.800

     atomic species   valence    mass     pseudopotential
        Ti1           12.00    47.86700     Ti( 1.00)
        O1             6.00    15.99900     O ( 1.00)
        N1             5.00    14.00700     N ( 1.00)
        C1             4.00    12.01100     C ( 1.00)
        H1             1.00     1.00800     H ( 1.00)

     No symmetry found

   Cartesian axes

     site n.     atom                  positions (alat units)
         1           Ti1 tau(   1) = (   0.0004258   2.9801865   6.0000000  )
         2           Ti1 tau(   2) = (   3.2906075   1.4906267   6.0002472  )
         3           O1  tau(   3) = (   0.0006271   0.0005054   7.9858123  )
         4           O1  tau(   4) = (   3.2906025   0.0005020   7.3038282  )
         5           O1  tau(   5) = (   4.5942328   1.4918067   9.2879030  )
         6           O1  tau(   6) = (   1.9868534   1.4903216   9.2879459  )
         7           Ti1 tau(   7) = (   3.2907910   2.8959150   9.1758416  )
         8           Ti1 tau(   8) = (   0.0015273   1.4827037   9.2680791  )
         9           O1  tau(   9) = (   3.2932810   5.9556063  11.3276769  )
        10           O1  tau(  10) = (   0.0116148   5.9584955  10.6183126  )
        11           O1  tau(  11) = (   1.2966828   1.5020869  12.6141357  )
        12           O1  tau(  12) = (   5.2995835   1.4923495  12.6341875  )
        13           Ti1 tau(  13) = (   6.5470072   2.9473109  12.5798724  )
        14           Ti1 tau(  14) = (   3.2302912   1.4573256  12.5082679  )
        15           O1  tau(  15) = (   0.0525813   0.0137714  14.6435187  )
        16           O1  tau(  16) = (   3.2708393   0.0302713  13.9228694  )
        17           O1  tau(  17) = (   4.5627544   1.5900677  16.0055000  )
        18           O1  tau(  18) = (   2.0437599   1.5040777  16.0764052  )
        19           Ti1 tau(  19) = (   3.3063064   2.9825517  15.6619520  )
        20           Ti1 tau(  20) = (   6.5607061   1.3194196  15.9785141  )
        21           O1  tau(  21) = (   3.2904802   0.0005063   4.7018136  )
        22           O1  tau(  22) = (   6.3855286   5.9589440  17.1610702  )
        23           O1  tau(  23) = (   1.3043587   1.4918075   6.0039043  )
        24           O1  tau(  24) = (   5.2767064   1.4903225   6.0039473  )
        25           Ti1 tau(  25) = (   0.0000382   5.9609847   6.0000000  )
        26           Ti1 tau(  26) = (   3.2902200   4.4714249   6.0002472  )
        27           O1  tau(  27) = (   0.0002396   2.9813036   7.9858123  )
        28           O1  tau(  28) = (   3.2902150   2.9813002   7.3038282  )
        29           O1  tau(  29) = (   4.5938453   4.4726049   9.2879030  )
        30           O1  tau(  30) = (   1.9864658   4.4711199   9.2879459  )
        31           Ti1 tau(  31) = (   3.2891106   5.8743827   9.1763621  )
        32           Ti1 tau(  32) = (   0.0006254   4.4649316   9.2693709  )
        33           O1  tau(  33) = (   3.2946552   2.9814125  11.3288906  )
        34           O1  tau(  34) = (   0.0092240   2.9805883  10.6323155  )
        35           O1  tau(  35) = (   1.2978438   4.4726441  12.6233041  )
        36           O1  tau(  36) = (   5.2969606   4.4732664  12.6435870  )
        37           Ti1 tau(  37) = (   6.5415350   5.9305516  12.5357152  )
        38           Ti1 tau(  38) = (   3.2303862   4.4559975  12.4807118  )
        39           O1  tau(  39) = (   0.0164246   2.9899045  14.7829194  )
        40           O1  tau(  40) = (   3.2688228   2.9752494  13.8698570  )
        41           O1  tau(  41) = (   4.5210259   4.4573316  15.9082071  )
        42           O1  tau(  42) = (   2.0412773   4.4882057  16.0214637  )
        43           Ti1 tau(  43) = (   3.2233344   5.9452837  15.7820064  )
        44           Ti1 tau(  44) = (   6.5355943   4.4735413  15.8975681  )
        45           O1  tau(  45) = (   3.2900926   2.9813045   4.7018136  )
        46           O1  tau(  46) = (   1.3039711   4.4726057   6.0039043  )
        47           O1  tau(  47) = (   5.2763189   4.4711207   6.0039473  )
        48           N1  tau(  48) = (   0.2167872   2.3688911  18.0161765  )
        49           C1  tau(  49) = (   0.4968348   1.8934616  19.1878903  )
        50           H1  tau(  50) = (   0.5617972   2.5522217  20.0513624  )
        51           H1  tau(  51) = (   0.6371857   0.8299532  19.2874115  )
        52           N1  tau(  52) = (   6.5661014   3.6386027  17.7750644  )
        53           H1  tau(  53) = (   0.0713089   4.2532688  18.5884219  )
        54           O1  tau(  54) = (   3.6608114   5.9026821  18.0962282  )
        55           H1  tau(  55) = (   4.6325638   0.0038819  18.0438526  )
        56           H1  tau(  56) = (   3.3558581   0.7595698  18.5153002  )

     number of k points=    10  Fermi-Dirac smearing, width (Ry)=  0.0073
                       cart. coord. in units 2pi/alat
        k(    1) = (   0.0000000   0.0000000   0.0000000), wk =   0.1250000
        k(    2) = (   0.0000000   0.0419351   0.0000000), wk =   0.2500000
        k(    3) = (   0.0000000  -0.0838702   0.0000000), wk =   0.1250000
        k(    4) = (   0.0379955   0.0000049   0.0000000), wk =   0.2500000
        k(    5) = (   0.0379955   0.0419400   0.0000000), wk =   0.2500000
        k(    6) = (   0.0379955  -0.0838652   0.0000000), wk =   0.2500000
        k(    7) = (   0.0379955  -0.0419301   0.0000000), wk =   0.2500000
        k(    8) = (  -0.0759910  -0.0000099   0.0000000), wk =   0.1250000
        k(    9) = (  -0.0759910   0.0419252   0.0000000), wk =   0.2500000
        k(   10) = (  -0.0759910  -0.0838800   0.0000000), wk =   0.1250000

     Initial potential from superposition of free atoms

     starting charge  386.99914, renormalised to  403.00000

     negative rho (up, down):  1.554E-02 0.000E+00

     %%%%%%%%%%%%%%%%%%%%%%%%%%%%%%%%%%%%%%%%%%%%%%%%%%%%%%%%%%%%%%%%%%%%%%%%
     %                                                                      %
     % You are using vdW-DF, which was implemented by the Thonhauser group. %
     % Please cite the following two papers that made this development      %
     % possible and the two reviews that describe the various versions:     %
     %                                                                      %
     %   T. Thonhauser et al., PRL 115, 136402 (2015).                      %
     %   T. Thonhauser et al., PRB 76, 125112 (2007).                       %
     %   K. Berland et al., Rep. Prog. Phys. 78, 066501 (2015).             %
     %   D.C. Langreth et al., J. Phys.: Condens. Matter 21, 084203 (2009). %
     %                                                                      %
     %                                                                      %
     % If you are calculating the stress with vdW-DF, please also cite:     %
     %                                                                      %
     %   R. Sabatini et al., J. Phys.: Condens. Matter 24, 424209 (2012).   %
     %                                                                      %
     %%%%%%%%%%%%%%%%%%%%%%%%%%%%%%%%%%%%%%%%%%%%%%%%%%%%%%%%%%%%%%%%%%%%%%%%

     Adding external electric field

     Computed dipole along edir(3) :
        Dipole              -12.7952 Ry au,        -32.5221 Debye
        Dipole field         -0.0241 Ry au,

        Potential amp.        2.2383 Ry
        Total length         46.3494 bohr

     Starting wfcs are  305 atomic wfcs
  @ DRIVER MODE: Message from server: STATUS
  @ DRIVER MODE: Message from server: POSDATA
  @ DRIVER MODE: Reading and sharing cell
  @ DRIVER MODE: Reading and sharing positions
  @ DRIVER MODE: Received positions

     Self-consistent Calculation

     iteration #  1     ecut=    29.40 Ry     beta= 0.05
     Davidson diagonalization with overlap
     c_bands:  3 eigenvalues not converged
     c_bands:  3 eigenvalues not converged
     c_bands:  4 eigenvalues not converged
     c_bands:  5 eigenvalues not converged
     c_bands:  1 eigenvalues not converged
     c_bands:  1 eigenvalues not converged
     c_bands:  4 eigenvalues not converged
     c_bands:  3 eigenvalues not converged
     ethr =  1.00E-05,  avg # of iterations = 27.5

[...]

     total energy              =   -2369.04701482 Ry
     estimated scf accuracy    <    6884.35622707 Ry

     iteration #  2     ecut=    29.40 Ry     beta= 0.05
     Davidson diagonalization with overlap
     ethr =  1.00E-02,  avg # of iterations = 24.9

[...]

     iteration # 47     ecut=    29.40 Ry     beta= 0.05
     Davidson diagonalization with overlap
     c_bands:  1 eigenvalues not converged
     c_bands:  1 eigenvalues not converged
     c_bands:  2 eigenvalues not converged
     ethr =  1.45E-06,  avg # of iterations = 15.2

[...]

     total energy              =   -2973.98313601 Ry
     estimated scf accuracy    <       0.00000017 Ry

     iteration # 70     ecut=    29.40 Ry     beta= 0.05
     Davidson diagonalization with overlap
     ethr =  4.12E-11,  avg # of iterations = 11.5

     negative rho (up, down):  1.541E-02 0.000E+00

     Adding external electric field

     Computed dipole along edir(3) :
        Dipole                0.9254 Ry au,          2.3520 Debye
        Dipole field          0.0017 Ry au,

        Potential amp.       -0.1619 Ry
        Total length         46.3494 bohr

     End of self-consistent calculation

          k = 0.0000 0.0000 0.0000 ( 18029 PWs)   bands (ev):

   -55.6125 -55.5843 -55.5784 -55.5463 -55.4936 -55.4834 -55.4519 -55.4299
   -55.3959 -55.3914 -55.3574 -55.3348 -55.0383 -54.9884 -54.5919 -54.5579
   -32.1284 -32.0966 -31.9844 -31.9297 -31.9170 -31.9043 -31.8827 -31.8699
   -31.8569 -31.8158 -31.7650 -31.7608 -31.7336 -31.7319 -31.7290 -31.7184
   -31.7137 -31.7105 -31.7079 -31.7050 -31.6744 -31.6699 -31.6603 -31.6330
   -31.6236 -31.6227 -31.6154 -31.6106 -31.5970 -31.5889 -31.5716 -31.5585
   -31.5461 -31.5398 -31.5351 -31.5048 -31.5029 -31.3019 -31.2630 -31.2401
   -31.1870 -31.1437 -30.9989 -30.9109 -30.8885 -30.8159 -30.7294 -30.6180
   -18.7335 -17.9041 -16.3322 -16.0900 -15.8505 -15.7732 -15.7407 -15.5272
   -15.4242 -15.3686 -15.2331 -15.1832 -15.1706 -15.1508 -15.1257 -15.0918
   -15.0653 -15.0507 -15.0447 -15.0284 -15.0022 -14.9765 -14.9558 -14.9520
   -14.9103 -14.8417 -14.7727 -14.7473 -14.6855 -14.6732 -14.2286 -13.0935
   -12.9770 -12.0727  -7.8459  -6.5093  -5.3034  -4.4972  -3.7062  -3.5679
    -3.5205  -3.4710  -3.4635  -3.2727  -3.1980  -3.0619  -2.8971  -2.8519
    -2.7788  -2.7415  -2.7022  -2.6408  -2.5974  -2.4923  -2.4545  -2.4252
    -2.4099  -2.3648  -2.3596  -2.3555  -2.2946  -2.2573  -2.1801  -2.1526
    -2.0735  -2.0030  -1.9751  -1.9487  -1.9266  -1.9100  -1.9052  -1.8567
    -1.8556  -1.8538  -1.7823  -1.7338  -1.6597  -1.6129  -1.5564  -1.4199
    -1.3770  -1.2677  -1.2205  -1.0990  -1.0947  -1.0762  -1.0478  -1.0089
    -1.0018  -0.8771  -0.7918  -0.7416  -0.7070  -0.6447  -0.5411  -0.5207
    -0.4333  -0.4269  -0.3726  -0.3595  -0.3455  -0.3147  -0.2368  -0.1242
    -0.1052  -0.0446   0.0048   0.0675   0.1110   0.1359   0.1744   0.2241
     0.2476   0.2891   0.3150   0.3263   0.3592   0.3969   0.4193   0.4977
     0.5714   0.6204   0.6696   0.7095   0.7144   0.8917   1.0050   1.0422
     1.1732   1.1980   1.3637   1.4313   1.5016   1.6231   2.0015   2.0471
     2.2176   3.4953   3.6090   3.6335   3.6434   3.7468   3.8793   3.9628
     4.0036   4.0283   4.0669

[...]

          k = 0.0380-0.0419 0.0000 ( 17876 PWs)   bands (ev):

[...]

          k =-0.0760-0.0000 0.0000 ( 17886 PWs)   bands (ev):

[...]

          k =-0.0760-0.0839 0.0000 ( 17948 PWs)   bands (ev):

   -55.5954 -55.5953 -55.5716 -55.5587 -55.4846 -55.4813 -55.4609 -55.4131
   -55.4121 -55.3771 -55.3719 -55.3368 -55.0313 -54.9954 -54.5750 -54.5747
   -31.9447 -31.9195 -31.9118 -31.9118 -31.8898 -31.8897 -31.8244 -31.8199
   -31.8117 -31.8064 -31.7887 -31.7378 -31.7339 -31.7309 -31.7227 -31.7201
   -31.7181 -31.7154 -31.7148 -31.7130 -31.7118 -31.6992 -31.6894 -31.6745
   -31.6720 -31.6673 -31.6465 -31.6172 -31.6162 -31.6066 -31.5978 -31.5937
   -31.5906 -31.5895 -31.5881 -31.5437 -31.5152 -31.2907 -31.2651 -31.2597
   -31.2441 -31.1881 -30.9013 -30.9010 -30.8118 -30.8114 -30.7727 -30.7726
   -18.7316 -17.8913 -15.7732 -15.6800 -15.5929 -15.5510 -15.4724 -15.4533
   -15.4001 -15.3348 -15.2967 -15.2782 -15.2364 -15.2083 -15.1636 -15.1512
   -15.1434 -15.1197 -15.0958 -15.0714 -15.0603 -15.0542 -15.0495 -15.0361
   -15.0022 -14.9702 -14.9338 -14.9300 -14.9014 -14.6573 -14.5769 -13.0789
   -13.0788 -12.0255  -7.7685  -6.5033  -5.3684  -4.5676  -3.2016  -3.0611
    -2.8907  -2.8501  -2.8069  -2.7501  -2.7413  -2.6871  -2.5626  -2.5534
    -2.5226  -2.4580  -2.4348  -2.4317  -2.4232  -2.4193  -2.3983  -2.3617
    -2.3606  -2.3064  -2.2979  -2.2861  -2.2803  -2.2616  -2.2450  -2.2420
    -2.2181  -2.1719  -2.1576  -2.1418  -2.0353  -1.9336  -1.8763  -1.8382
    -1.8075  -1.7610  -1.7561  -1.7360  -1.7210  -1.6822  -1.6661  -1.6100
    -1.4952  -1.4168  -1.3329  -1.3004  -1.2732  -1.2003  -1.1563  -1.0935
    -1.0511  -1.0457  -0.9630  -0.8468  -0.8360  -0.7983  -0.7693  -0.6929
    -0.6648  -0.6318  -0.5713  -0.5646  -0.5368  -0.5104  -0.4715  -0.3811
    -0.3631  -0.3569  -0.3268  -0.3187  -0.3072  -0.2661  -0.1949  -0.0941
    -0.0224  -0.0163   0.0903   0.2183   0.3147   0.4466   0.4744   0.5233
     0.5759   0.6105   0.6931   0.7009   0.7271   0.7909   0.8352   0.9020
     0.9259   0.9414   1.0272   1.0343   1.7952   1.7964   1.8671   1.8673
     2.1615   3.8596   3.8881   3.9084   3.9532   4.0309   4.0551   4.0558
     4.0614   4.1790   4.1850

     the Fermi energy is     3.5142 ev

!    total energy              =   -2973.98316974 Ry
     estimated scf accuracy    <       0.00000006 Ry
     smearing contrib. (-TS)   =      -0.02040813 Ry
     internal energy E=F+TS    =   -2973.96276160 Ry

     The total energy is F=E-TS. E is the sum of the following terms:
     one-electron contribution =  -24204.34751243 Ry
     hartree contribution      =   12196.80700839 Ry
     xc contribution           =    -494.26845433 Ry
     ewald contribution        =    9527.84458083 Ry
     electric field correction =       0.00161594 Ry

     convergence has been achieved in  70 iterations

     Forces acting on atoms (cartesian axes, Ry/au):

     atom    1 type  1   force =    -0.00005731   -0.00019414    0.09552082
     atom    2 type  1   force =     0.00002641   -0.00035650   -0.17556540
     atom    3 type  2   force =     0.00009605   -0.00012488   -0.02314397
     atom    4 type  2   force =     0.00000690   -0.00139022    0.05290387
     atom    5 type  2   force =    -0.00999669   -0.00075488    0.00324981
     atom    6 type  2   force =     0.01152893   -0.00009692    0.00282514
     atom    7 type  1   force =     0.00046221    0.00028210   -0.00661932
     atom    8 type  1   force =     0.00029741    0.00536726    0.01759027
     atom    9 type  2   force =    -0.00014771   -0.00015597   -0.00039103
     atom   10 type  2   force =    -0.00346112    0.00075426   -0.01267738
     atom   11 type  2   force =    -0.00079534   -0.00033101    0.00007808
     atom   12 type  2   force =     0.00031292   -0.00017471    0.00008563
     atom   13 type  1   force =    -0.00024896    0.00039353   -0.00017020
     atom   14 type  1   force =     0.00021367    0.00004602    0.00065412
     atom   15 type  2   force =    -0.00012835    0.00005151   -0.00051829
     atom   16 type  2   force =    -0.00004243   -0.00023580    0.00000669
     atom   17 type  2   force =     0.00036019   -0.00020757    0.00002994
     atom   18 type  2   force =    -0.00012940   -0.00039756   -0.00000349
     atom   19 type  1   force =    -0.00017701   -0.00013064    0.00023595
     atom   20 type  1   force =     0.00048705   -0.00042749   -0.00003953
     atom   21 type  2   force =     0.00007099    0.00003238    0.10318148
     atom   22 type  2   force =     0.00051602    0.00008127   -0.00061090
     atom   23 type  2   force =    -0.07160841   -0.00014030   -0.02754523
     atom   24 type  2   force =     0.07153838    0.00036209   -0.02758562
     atom   25 type  1   force =     0.00018704   -0.00009197    0.09519853
     atom   26 type  1   force =     0.00008414   -0.00039759   -0.17573523
     atom   27 type  2   force =     0.00011251   -0.00023862   -0.02205633
     atom   28 type  2   force =     0.00002879   -0.00098992    0.05230382
     atom   29 type  2   force =    -0.01014659    0.00036994    0.00285421
     atom   30 type  2   force =     0.01154981    0.00074716    0.00247568
     atom   31 type  1   force =     0.00028179    0.00393896   -0.01129791
     atom   32 type  1   force =     0.00046091   -0.00672568    0.01788978
     atom   33 type  2   force =    -0.00008059    0.00004794   -0.00020239
     atom   34 type  2   force =    -0.00395248    0.00073765   -0.01215596
     atom   35 type  2   force =    -0.00019759    0.00008647   -0.00018581
     atom   36 type  2   force =    -0.00001782    0.00003719   -0.00009417
     atom   37 type  1   force =    -0.00004221   -0.00041311    0.00043700
     atom   38 type  1   force =     0.00005664    0.00000573    0.00039201
     atom   39 type  2   force =     0.00036466   -0.00034603    0.00014587
     atom   40 type  2   force =    -0.00050115    0.00026835   -0.00007859
     atom   41 type  2   force =     0.00000923    0.00014156   -0.00008545
     atom   42 type  2   force =     0.00039111    0.00019247    0.00027278
     atom   43 type  1   force =    -0.00030394   -0.00031281   -0.00059010
     atom   44 type  1   force =    -0.00014021    0.00016616    0.00035187
     atom   45 type  2   force =     0.00007489   -0.00000390    0.10312856
     atom   46 type  2   force =    -0.07160784   -0.00003236   -0.02751878
     atom   47 type  2   force =     0.07154040    0.00035874   -0.02760430
     atom   48 type  3   force =     0.00009124    0.00015653   -0.00030398
     atom   49 type  4   force =     0.00086160   -0.00014947    0.00036469
     atom   50 type  5   force =     0.00027117   -0.00023959    0.00041770
     atom   51 type  5   force =     0.00046177   -0.00029325    0.00005234
     atom   52 type  3   force =    -0.00012905    0.00000961   -0.00033672
     atom   53 type  5   force =     0.00052861    0.00043600   -0.00009838
     atom   54 type  2   force =    -0.01740829   -0.00170974    0.00052432
     atom   55 type  5   force =     0.01878130    0.00066812   -0.00043232
     atom   56 type  5   force =    -0.00073421    0.00132364    0.00047584

     Total force =     0.365606     Total SCF correction =     0.000534
  @ DRIVER MODE: Message from server: STATUS
  @ DRIVER MODE: Message from server: GETFORCE
  @ DRIVER MODE: Returning v,forces,stress,ensemble

     Writing output data file ./calc.save/
  @ DRIVER MODE: Message from server: EXIT
  @ DRIVE MODE: Exiting

     General routines

     Parallel routines

   This run was terminated on:   6:23:10  16Sep2021

   JOB DONE.