     Program PWSCF v.6.7GPU starts on 12Oct2021 at 15:33:28

     R & G space division:  proc/nbgrp/npool/nimage =       8
     Reading input from /storage/home/hcoda1/3/ntian30/research/carbon/ACS_vib/ads_slab/N2H6/out_0017/pw.inp
Warning: card &CELL ignored
Warning: card   CELL_DYNAMICS='IPI', ignored
Warning: card / ignored

     Current dimensions of program PWSCF are:
     Max number of different atomic species (ntypx) = 10
     Max number of k-points (npk) =  40000
     Max angular momentum in pseudopotentials (lmaxx) =  3
     Presently no symmetry can be used with electric field

     Message from routine cell_base_init:
     DEPRECATED: use true lattice parameter, not A to a.u. conversion factor

     IMPORTANT: XC functional enforced from input :
     Exchange-correlation= BEEF-VDW
                           (   1   4  43  14   2   0   0)
     Any further DFT definition will be discarded
     Please, verify this is what you really want

  @ DRIVER MODE: Connecting to
 qe_1139763_3181315.sched-torque.pace.gatech.educli3vbyl_scratch
  using UNIX socket
  @ DRIVER MODE: Message from server: STATUS
  @ DRIVER MODE: Message from server: INIT
  @ DRIVER MODE: Receiving replica           0          -1
  @ DRIVER MODE: Receiving encoded integer          25
  @ DRIVER MODE:  SCF:  T  FORCE:  T  STRESS:  F  VC:  F  ENSEMBLE:  F
  @ DRIVER MODE:  SCF:  T  FORCE:  T  STRESS:  F  VC:  F  ENSEMBLE:  F

     Using Slab Decomposition

     bravais-lattice index     =            0
     lattice parameter (alat)  =       1.8897  a.u.
     unit-cell volume          =    6658.9804 (a.u.)^3
     number of atoms/cell      =           55
     number of atomic types    =            4
     number of electrons       =       394.00
     number of Kohn-Sham states=          207
     kinetic-energy cutoff     =      29.3995  Ry
     charge density cutoff     =     293.9946  Ry
     scf convergence threshold =      7.3E-08
     mixing beta               =       0.0500
     number of iterations used =            8  plain     mixing
     Exchange-correlation= BEEF-VDW
                           (   1   4  43  14   2   0   0)

     celldm(1)=   1.889726  celldm(2)=   0.000000  celldm(3)=   0.000000
     celldm(4)=   0.000000  celldm(5)=   0.000000  celldm(6)=   0.000000

     crystal axes: (cart. coord. in units of alat)
               a(1) = (   6.579727   0.000000   0.000000 )
               a(2) = (  -0.000775   5.961596   0.000000 )
               a(3) = (   0.000000   0.000000  25.155947 )

     reciprocal axes: (cart. coord. in units 2 pi/alat)
               b(1) = (  0.151982  0.000020  0.000000 )
               b(2) = (  0.000000  0.167740  0.000000 )
               b(3) = (  0.000000  0.000000  0.039752 )

     PseudoPot. # 1 for Ti read from file:
     /storage/coda1/p-amedford6/0/shared/rich_project_chbe-medford/medford-share/data/pseudos_module/espresso/nninc/pbe/van/Ti.UPF
     MD5 check sum: 8e4df49b7f0d34bbd5052bf3f5ea0213
     Pseudo is Ultrasoft, Zval = 12.0
     Generated by new atomic code, or converted to UPF format
     Using radial grid of  851 points,  6 beta functions with:
                l(1) =   0
                l(2) =   0
                l(3) =   1
                l(4) =   1
                l(5) =   2
                l(6) =   2
     Q(r) pseudized with  8 coefficients,  rinner =    1.000   1.000   1.000
                                                       1.000   1.000

     PseudoPot. # 2 for O  read from file:
     /storage/coda1/p-amedford6/0/shared/rich_project_chbe-medford/medford-share/data/pseudos_module/espresso/nninc/pbe/van/O.UPF
     MD5 check sum: 78c19812648e8988a0fe644b0f25305e
     Pseudo is Ultrasoft, Zval =  6.0
     Generated by new atomic code, or converted to UPF format
     Using radial grid of  737 points,  4 beta functions with:
                l(1) =   0
                l(2) =   0
                l(3) =   1
                l(4) =   1
     Q(r) pseudized with  8 coefficients,  rinner =    0.800   0.800   0.800

     PseudoPot. # 3 for N  read from file:
     /storage/coda1/p-amedford6/0/shared/rich_project_chbe-medford/medford-share/data/pseudos_module/espresso/nninc/pbe/van/N.UPF
     MD5 check sum: 90d10febe142ad51ac9d5be1deb811c4
     Pseudo is Ultrasoft, Zval =  5.0
     Generated by new atomic code, or converted to UPF format
     Using radial grid of  729 points,  4 beta functions with:
                l(1) =   0
                l(2) =   0
                l(3) =   1
                l(4) =   1
     Q(r) pseudized with  8 coefficients,  rinner =    0.800   0.800   0.800

     PseudoPot. # 4 for H  read from file:
     /storage/coda1/p-amedford6/0/shared/rich_project_chbe-medford/medford-share/data/pseudos_module/espresso/nninc/pbe/van/H.UPF
     MD5 check sum: b5ee9d7bfd3a09ee7748110bda690ff7
     Pseudo is Ultrasoft, Zval =  1.0
     Generated by new atomic code, or converted to UPF format
     Using radial grid of  615 points,  1 beta functions with:
                l(1) =   0
     Q(r) pseudized with  8 coefficients,  rinner =    0.800

     atomic species   valence    mass     pseudopotential
        Ti1           12.00    47.86700     Ti( 1.00)
        O1             6.00    15.99900     O ( 1.00)
        N1             5.00    14.00700     N ( 1.00)
        H1             1.00     1.00800     H ( 1.00)

     No symmetry found

   Cartesian axes

     site n.     atom                  positions (alat units)
         1           Ti1 tau(   1) = (   0.0004258   2.9801865   6.0000000  )
         2           Ti1 tau(   2) = (   3.2906075   1.4906267   6.0002472  )
         3           O1  tau(   3) = (   0.0006271   0.0005054   7.9858123  )
         4           O1  tau(   4) = (   3.2906025   0.0005020   7.3038282  )
         5           O1  tau(   5) = (   4.5942328   1.4918067   9.2879030  )
         6           O1  tau(   6) = (   1.9868534   1.4903216   9.2879459  )
         7           Ti1 tau(   7) = (   3.2905188   2.9817269   9.1608671  )
         8           Ti1 tau(   8) = (   0.0008727   1.4903491   9.2579811  )
         9           O1  tau(   9) = (   3.2897677   5.9391746  11.3820438  )
        10           O1  tau(  10) = (  -0.0000005   5.9544960  10.6146985  )
        11           O1  tau(  11) = (   1.2884133   1.4789655  12.6516217  )
        12           O1  tau(  12) = (   5.2921206   1.4788385  12.6515509  )
        13           Ti1 tau(  13) = (   0.0005720   2.9629092  12.4975245  )
        14           Ti1 tau(  14) = (   3.2903801   1.4745319  12.5205501  )
        15           O1  tau(  15) = (   0.0004407   0.0388239  14.7059933  )
        16           O1  tau(  16) = (   3.2897445   5.9465346  14.0037610  )
        17           O1  tau(  17) = (   4.5472543   1.4569283  16.2215039  )
        18           O1  tau(  18) = (   2.0329396   1.4568822  16.2213506  )
        19           Ti1 tau(  19) = (   3.2899346   2.9358424  15.7577366  )
        20           Ti1 tau(  20) = (   0.0004932   1.4309995  16.0137732  )
        21           O1  tau(  21) = (   3.2904802   0.0005063   4.7018136  )
        22           O1  tau(  22) = (  -0.0003511   5.7889056  17.2622344  )
        23           O1  tau(  23) = (   1.3043587   1.4918075   6.0039043  )
        24           O1  tau(  24) = (   5.2767064   1.4903225   6.0039473  )
        25           Ti1 tau(  25) = (   0.0000382   5.9609847   6.0000000  )
        26           Ti1 tau(  26) = (   3.2902200   4.4714249   6.0002472  )
        27           O1  tau(  27) = (   0.0002396   2.9813036   7.9858123  )
        28           O1  tau(  28) = (   3.2902150   2.9813002   7.3038282  )
        29           O1  tau(  29) = (   4.5938453   4.4726049   9.2879030  )
        30           O1  tau(  30) = (   1.9864658   4.4711199   9.2879459  )
        31           Ti1 tau(  31) = (   3.2908958   0.0009406   9.1591437  )
        32           Ti1 tau(  32) = (   0.0004876   4.4725358   9.2579169  )
        33           O1  tau(  33) = (   3.2901541   2.9707129  11.3740276  )
        34           O1  tau(  34) = (   0.0003862   2.9798045  10.6274311  )
        35           O1  tau(  35) = (   1.2860740   4.4511954  12.6821393  )
        36           O1  tau(  36) = (   5.2936768   4.4510845  12.6820400  )
        37           Ti1 tau(  37) = (   0.0001324   5.9497034  12.4914426  )
        38           Ti1 tau(  38) = (   3.2900283   4.4525324  12.5305491  )
        39           O1  tau(  39) = (   0.0000299   2.9046373  14.9484161  )
        40           O1  tau(  40) = (   3.2901113   2.9423191  13.9685580  )
        41           O1  tau(  41) = (   4.5465916   4.4073028  16.1601725  )
        42           O1  tau(  42) = (   2.0329218   4.4072560  16.1600144  )
        43           Ti1 tau(  43) = (   3.2897320   5.9176933  15.7983882  )
        44           Ti1 tau(  44) = (   0.0000796   4.6311109  15.9036278  )
        45           O1  tau(  45) = (   3.2900926   2.9813045   4.7018136  )
        46           O1  tau(  46) = (   1.3039711   4.4726057   6.0039043  )
        47           O1  tau(  47) = (   5.2763189   4.4711207   6.0039473  )
        48           N1  tau(  48) = (   6.5791966   2.5420708  18.0661808  )
        49           H1  tau(  49) = (   6.5785613   1.6509345  18.5577087  )
        50           H1  tau(  50) = (   0.8131443   3.0604954  18.3707411  )
        51           H1  tau(  51) = (   5.7641953   3.0602838  18.3787844  )
        52           N1  tau(  52) = (  -0.0000615   4.8677125  20.5088556  )
        53           H1  tau(  53) = (   6.5774456   5.1124690  21.4935560  )
        54           H1  tau(  54) = (   0.8078797   5.3121143  20.0844266  )
        55           H1  tau(  55) = (   5.7710899   5.3082688  20.0816402  )

     number of k points=    10  Fermi-Dirac smearing, width (Ry)=  0.0073
                       cart. coord. in units 2pi/alat
        k(    1) = (   0.0000000   0.0000000   0.0000000), wk =   0.1250000
        k(    2) = (   0.0000000   0.0419351   0.0000000), wk =   0.2500000
        k(    3) = (   0.0000000  -0.0838702   0.0000000), wk =   0.1250000
        k(    4) = (   0.0379955   0.0000049   0.0000000), wk =   0.2500000
        k(    5) = (   0.0379955   0.0419400   0.0000000), wk =   0.2500000
        k(    6) = (   0.0379955  -0.0838652   0.0000000), wk =   0.2500000
        k(    7) = (   0.0379955  -0.0419301   0.0000000), wk =   0.2500000
        k(    8) = (  -0.0759910  -0.0000099   0.0000000), wk =   0.1250000
        k(    9) = (  -0.0759910   0.0419252   0.0000000), wk =   0.2500000
        k(   10) = (  -0.0759910  -0.0838800   0.0000000), wk =   0.1250000

     Initial potential from superposition of free atoms

     starting charge  377.99918, renormalised to  394.00000

     negative rho (up, down):  1.302E-02 0.000E+00

     %%%%%%%%%%%%%%%%%%%%%%%%%%%%%%%%%%%%%%%%%%%%%%%%%%%%%%%%%%%%%%%%%%%%%%%%
     %                                                                      %
     % You are using vdW-DF, which was implemented by the Thonhauser group. %
     % Please cite the following two papers that made this development      %
     % possible and the two reviews that describe the various versions:     %
     %                                                                      %
     %   T. Thonhauser et al., PRL 115, 136402 (2015).                      %
     %   T. Thonhauser et al., PRB 76, 125112 (2007).                       %
     %   K. Berland et al., Rep. Prog. Phys. 78, 066501 (2015).             %
     %   D.C. Langreth et al., J. Phys.: Condens. Matter 21, 084203 (2009). %
     %                                                                      %
     %                                                                      %
     % If you are calculating the stress with vdW-DF, please also cite:     %
     %                                                                      %
     %   R. Sabatini et al., J. Phys.: Condens. Matter 24, 424209 (2012).   %
     %                                                                      %
     %%%%%%%%%%%%%%%%%%%%%%%%%%%%%%%%%%%%%%%%%%%%%%%%%%%%%%%%%%%%%%%%%%%%%%%%

     Adding external electric field

     Computed dipole along edir(3) :
        Dipole               -9.7168 Ry au,        -24.6976 Debye
        Dipole field         -0.0183 Ry au,

        Potential amp.        1.6998 Ry
        Total length         46.3494 bohr

     Starting wfcs are  298 atomic wfcs
  @ DRIVER MODE: Message from server: STATUS
  @ DRIVER MODE: Message from server: POSDATA
  @ DRIVER MODE: Reading and sharing cell
  @ DRIVER MODE: Reading and sharing positions
  @ DRIVER MODE: Received positions

     Self-consistent Calculation

     iteration #  1     ecut=    29.40 Ry     beta= 0.05
     Davidson diagonalization with overlap
     c_bands:  1 eigenvalues not converged
     c_bands:  1 eigenvalues not converged
     c_bands:  1 eigenvalues not converged
     c_bands:  1 eigenvalues not converged
     ethr =  1.00E-05,  avg # of iterations = 18.0

[...]

     total energy              =   -2597.77452132 Ry
     estimated scf accuracy    <    3724.38499149 Ry

     iteration #  2     ecut=    29.40 Ry     beta= 0.05
     Davidson diagonalization with overlap
     ethr =  1.00E-02,  avg # of iterations = 23.0

[...]

     iteration # 82     ecut=    29.40 Ry     beta= 0.05
     Davidson diagonalization with overlap
     ethr =  4.36E-11,  avg # of iterations =  3.8

[...]

     total energy              =   -2931.48031660 Ry
     estimated scf accuracy    <       0.00000007 Ry

     iteration # 84     ecut=    29.40 Ry     beta= 0.05
     Davidson diagonalization with overlap
     c_bands:  1 eigenvalues not converged
     ethr =  1.90E-11,  avg # of iterations = 12.0

     negative rho (up, down):  1.427E-02 0.000E+00

     Adding external electric field

     Computed dipole along edir(3) :
        Dipole                1.3594 Ry au,          3.4551 Debye
        Dipole field          0.0026 Ry au,

        Potential amp.       -0.2378 Ry
        Total length         46.3494 bohr

     End of self-consistent calculation

          k = 0.0000 0.0000 0.0000 ( 18029 PWs)   bands (ev):

   -55.2838 -55.2474 -55.2359 -55.2053 -55.2017 -55.1692 -55.1554 -55.1210
   -55.1139 -55.0849 -55.0796 -55.0625 -55.0283 -54.9531 -54.3263 -54.2922
   -31.8518 -31.7387 -31.7351 -31.6417 -31.6017 -31.5908 -31.5878 -31.5742
   -31.5281 -31.5260 -31.4906 -31.4905 -31.4809 -31.4759 -31.4566 -31.4420
   -31.4367 -31.4240 -31.4197 -31.3932 -31.3875 -31.3782 -31.3678 -31.3557
   -31.3529 -31.3395 -31.3347 -31.3218 -31.2918 -31.2866 -31.2699 -31.2654
   -31.2596 -31.2565 -31.2530 -31.2458 -31.2124 -31.2078 -31.1946 -31.1765
   -31.1561 -31.1553 -30.7383 -30.6365 -30.6149 -30.5543 -30.4679 -30.3570
   -16.1157 -15.8786 -15.7490 -15.5900 -15.5001 -15.4625 -15.3602 -15.3350
   -15.2263 -15.1506 -15.0177 -14.9838 -14.9425 -14.9350 -14.9272 -14.9076
   -14.9016 -14.8308 -14.8039 -14.8006 -14.7925 -14.7702 -14.7687 -14.7494
   -14.7201 -14.6669 -14.6472 -14.5177 -14.4363 -14.3783 -14.1287 -12.8277
   -12.7085  -5.6618  -5.5297  -4.9495  -4.8004  -3.4464  -3.2925  -3.2575
    -3.2071  -3.1958  -3.0424  -2.8818  -2.7320  -2.7131  -2.5636  -2.5346
    -2.4825  -2.4606  -2.3093  -2.2834  -2.2394  -2.2130  -2.1639  -2.1535
    -2.1453  -2.1344  -2.0556  -2.0442  -2.0288  -1.8925  -1.8731  -1.7618
    -1.7215  -1.6656  -1.6515  -1.6465  -1.6132  -1.5952  -1.5546  -1.5438
    -1.5270  -1.5005  -1.4921  -1.3270  -1.2984  -1.2024  -1.1401  -1.0512
    -1.0347  -0.8903  -0.8550  -0.7662  -0.7467  -0.7299  -0.7156  -0.6827
    -0.6344  -0.5266  -0.4371  -0.4157  -0.3549  -0.3302  -0.2919  -0.2041
    -0.1003  -0.0718  -0.0388  -0.0366   0.0798   0.1045   0.1495   0.2161
     0.2359   0.2452   0.2607   0.3512   0.3646   0.4627   0.4863   0.4938
     0.5422   0.6312   0.6355   0.6497   0.6596   0.6860   0.7567   0.7632
     0.8631   0.8859   1.0024   1.2134   1.2849   1.3111   1.5898   1.6501
     1.6990   1.8616   2.2820   2.3344   3.8143   3.8809   3.9140   3.9470
     3.9833   4.0242   4.3117   4.3196   4.3322   4.3365   4.3730

[...]

          k = 0.0380-0.0419 0.0000 ( 17876 PWs)   bands (ev):

[...]

          k =-0.0760-0.0000 0.0000 ( 17886 PWs)   bands (ev):

[...]

          k =-0.0760-0.0839 0.0000 ( 17948 PWs)   bands (ev):

   -55.2683 -55.2627 -55.2190 -55.2185 -55.2038 -55.1657 -55.1392 -55.1372
   -55.0980 -55.0951 -55.0884 -55.0478 -55.0431 -54.9544 -54.3092 -54.3091
   -31.6571 -31.6530 -31.6528 -31.5728 -31.5501 -31.5497 -31.5432 -31.5114
   -31.5113 -31.4851 -31.4849 -31.4813 -31.4776 -31.4589 -31.4386 -31.4192
   -31.4142 -31.4125 -31.4124 -31.4065 -31.4051 -31.4024 -31.3634 -31.3624
   -31.3588 -31.3557 -31.3531 -31.3522 -31.3499 -31.3374 -31.3370 -31.3325
   -31.3298 -31.2955 -31.2934 -31.2778 -31.2750 -31.2696 -31.2329 -31.2319
   -31.2275 -31.1600 -30.6275 -30.6274 -30.5509 -30.5508 -30.5112 -30.5111
   -15.6359 -15.5225 -15.5176 -15.4767 -15.3236 -15.3026 -15.2653 -15.2505
   -15.1321 -15.0964 -15.0769 -15.0608 -15.0287 -15.0244 -15.0173 -14.9808
   -14.8969 -14.8771 -14.8716 -14.8594 -14.8077 -14.7953 -14.7899 -14.7832
   -14.7823 -14.7471 -14.7436 -14.7021 -14.6985 -14.6932 -14.3775 -12.8096
   -12.8095  -5.6409  -5.5323  -4.9163  -4.8090  -2.7955  -2.7392  -2.7388
    -2.5485  -2.4775  -2.4591  -2.4434  -2.3601  -2.3206  -2.2910  -2.2681
    -2.2366  -2.1953  -2.1913  -2.1702  -2.1616  -2.1441  -2.1003  -2.0819
    -2.0564  -2.0028  -1.9779  -1.9697  -1.9576  -1.9489  -1.9442  -1.9209
    -1.9187  -1.8926  -1.8814  -1.8258  -1.6742  -1.6586  -1.5805  -1.5101
    -1.5069  -1.5052  -1.4219  -1.4018  -1.3472  -1.3383  -1.3319  -1.0889
    -1.0667  -1.0660  -1.0614  -1.0285  -0.9149  -0.9056  -0.8330  -0.8036
    -0.7850  -0.6758  -0.6677  -0.6077  -0.6038  -0.4966  -0.4947  -0.4363
    -0.3078  -0.3017  -0.2881  -0.2634  -0.2616  -0.2199  -0.2158  -0.1085
    -0.0724  -0.0215  -0.0101   0.0221   0.1846   0.2273   0.2488   0.2696
     0.4031   0.4245   0.5577   0.5653   0.6201   0.7297   0.7600   0.7989
     0.8269   0.9760   0.9868   1.0083   1.0998   1.1138   1.1516   1.1581
     2.0497   2.0512   2.1526   2.1529   3.9750   4.0565   4.0820   4.1215
     4.2267   4.3248   4.3402   4.3409   4.3748   4.3778   4.4759

     the Fermi energy is     3.8779 ev

!    total energy              =   -2931.48032123 Ry
     estimated scf accuracy    <       0.00000004 Ry
     smearing contrib. (-TS)   =      -0.03684676 Ry
     internal energy E=F+TS    =   -2931.44347447 Ry

     The total energy is F=E-TS. E is the sum of the following terms:
     one-electron contribution =  -23481.56685081 Ry
     hartree contribution      =   11831.46202664 Ry
     xc contribution           =    -484.17054756 Ry
     ewald contribution        =    9202.82841015 Ry
     electric field correction =       0.00348711 Ry

     convergence has been achieved in  84 iterations

     Forces acting on atoms (cartesian axes, Ry/au):

     atom    1 type  1   force =     0.00008439   -0.00009283    0.09071945
     atom    2 type  1   force =    -0.00005268    0.00053110   -0.18275601
     atom    3 type  2   force =     0.00005379   -0.00002859   -0.02347206
     atom    4 type  2   force =     0.00001836   -0.00005792    0.05277696
     atom    5 type  2   force =    -0.01300409   -0.00097357    0.00605503
     atom    6 type  2   force =     0.01295274   -0.00048229    0.00604461
     atom    7 type  1   force =    -0.00000056    0.00067840   -0.00328435
     atom    8 type  1   force =     0.00001885   -0.00015220    0.00140095
     atom    9 type  2   force =    -0.00003103   -0.00016316   -0.00050922
     atom   10 type  2   force =     0.00001800   -0.00005599   -0.00020558
     atom   11 type  2   force =     0.00015567    0.00017319    0.00018089
     atom   12 type  2   force =    -0.00007292    0.00016901    0.00015778
     atom   13 type  1   force =    -0.00019892   -0.00020034    0.00001238
     atom   14 type  1   force =     0.00014946    0.00045595   -0.00095845
     atom   15 type  2   force =     0.00002567   -0.00065225    0.00006852
     atom   16 type  2   force =    -0.00003310    0.00000555    0.00044493
     atom   17 type  2   force =     0.00036171   -0.00001725    0.00044074
     atom   18 type  2   force =    -0.00053587    0.00007114    0.00055752
     atom   19 type  1   force =     0.00017760    0.00000190    0.00029116
     atom   20 type  1   force =    -0.00023772   -0.00081727    0.00038822
     atom   21 type  2   force =     0.00005656    0.00012502    0.10489936
     atom   22 type  2   force =     0.00002476    0.00007546    0.00106163
     atom   23 type  2   force =    -0.06827694   -0.00021832   -0.02628516
     atom   24 type  2   force =     0.06818664    0.00021676   -0.02632960
     atom   25 type  1   force =     0.00009263    0.00004245    0.09034729
     atom   26 type  1   force =    -0.00005723   -0.00044068   -0.18293884
     atom   27 type  2   force =     0.00005005   -0.00093280   -0.02257563
     atom   28 type  2   force =     0.00001925   -0.00006556    0.05255288
     atom   29 type  2   force =    -0.01330286   -0.00072897    0.00528075
     atom   30 type  2   force =     0.01324031   -0.00023577    0.00526561
     atom   31 type  1   force =     0.00000738   -0.00072361   -0.00309022
     atom   32 type  1   force =     0.00001390   -0.00006835    0.00152583
     atom   33 type  2   force =    -0.00003064   -0.00015439    0.00015890
     atom   34 type  2   force =     0.00002071    0.00007620   -0.00046266
     atom   35 type  2   force =     0.00012233   -0.00013774    0.00024919
     atom   36 type  2   force =    -0.00004382   -0.00015102    0.00022324
     atom   37 type  1   force =    -0.00019342    0.00004706    0.00092006
     atom   38 type  1   force =     0.00014538   -0.00029031   -0.00094529
     atom   39 type  2   force =     0.00003390    0.00026628   -0.00014482
     atom   40 type  2   force =    -0.00003445   -0.00001057    0.00108531
     atom   41 type  2   force =     0.00057093   -0.00017149    0.00024547
     atom   42 type  2   force =    -0.00071218   -0.00024463    0.00034810
     atom   43 type  1   force =     0.00015260    0.00012717    0.00066653
     atom   44 type  1   force =    -0.00014596    0.00117010   -0.00122535
     atom   45 type  2   force =     0.00005671    0.00014245    0.10486613
     atom   46 type  2   force =    -0.06827846   -0.00009529   -0.02631872
     atom   47 type  2   force =     0.06818523    0.00034380   -0.02636290
     atom   48 type  3   force =    -0.00495201   -0.00276428   -0.00279937
     atom   49 type  4   force =     0.00070547    0.00034825    0.00092379
     atom   50 type  4   force =     0.00461933    0.00313727    0.00245395
     atom   51 type  4   force =    -0.00004693    0.00093646   -0.00012072
     atom   52 type  3   force =    -0.00003555    0.00076341    0.00044406
     atom   53 type  4   force =    -0.00002213    0.00124359   -0.00145129
     atom   54 type  4   force =     0.00009865   -0.00003631   -0.00042094
     atom   55 type  4   force =    -0.00011946    0.00001574   -0.00040005

     Total force =     0.366342     Total SCF correction =     0.000600
  @ DRIVER MODE: Message from server: STATUS
  @ DRIVER MODE: Message from server: GETFORCE
  @ DRIVER MODE: Returning v,forces,stress,ensemble

     Writing output data file ./calc.save/
  @ DRIVER MODE: Message from server: EXIT
  @ DRIVE MODE: Exiting

     General routines

     Parallel routines

   This run was terminated on:  16: 1:34  12Oct2021

   JOB DONE.