     Program PWSCF v.6.7GPU starts on 22Sep2021 at 21:58:11

     R & G space division:  proc/nbgrp/npool/nimage =       8
     Reading input from /storage/home/hcoda1/3/ntian30/research/carbon/CxH_vib/H2O_calc/ads_slab/CH3OHHO_e/out_0000/pw.inp
Warning: card &CELL ignored
Warning: card   CELL_DYNAMICS='IPI', ignored
Warning: card / ignored

     Current dimensions of program PWSCF are:
     Max number of different atomic species (ntypx) = 10
     Max number of k-points (npk) =  40000
     Max angular momentum in pseudopotentials (lmaxx) =  3
     Presently no symmetry can be used with electric field

     Message from routine cell_base_init:
     DEPRECATED: use true lattice parameter, not A to a.u. conversion factor

     IMPORTANT: XC functional enforced from input :
     Exchange-correlation= BEEF-VDW
                           (   1   4  43  14   2   0   0)
     Any further DFT definition will be discarded
     Please, verify this is what you really want

  @ DRIVER MODE: Connecting to
 qe_1139763_2941008.sched-torque.pace.gatech.edur5ubdqsn_scratch
  using UNIX socket
  @ DRIVER MODE: Message from server: STATUS
  @ DRIVER MODE: Message from server: INIT
  @ DRIVER MODE: Receiving replica           0          -1
  @ DRIVER MODE: Receiving encoded integer          25
  @ DRIVER MODE:  SCF:  T  FORCE:  T  STRESS:  F  VC:  F  ENSEMBLE:  F
  @ DRIVER MODE:  SCF:  T  FORCE:  T  STRESS:  F  VC:  F  ENSEMBLE:  F

     Using Slab Decomposition

     bravais-lattice index     =            0
     lattice parameter (alat)  =       1.8897  a.u.
     unit-cell volume          =    6658.9804 (a.u.)^3
     number of atoms/cell      =           55
     number of atomic types    =            4
     number of electrons       =       399.00
     number of Kohn-Sham states=          209
     kinetic-energy cutoff     =      29.3995  Ry
     charge density cutoff     =     293.9946  Ry
     scf convergence threshold =      7.3E-08
     mixing beta               =       0.0500
     number of iterations used =            8  plain     mixing
     Exchange-correlation= BEEF-VDW
                           (   1   4  43  14   2   0   0)

     celldm(1)=   1.889726  celldm(2)=   0.000000  celldm(3)=   0.000000
     celldm(4)=   0.000000  celldm(5)=   0.000000  celldm(6)=   0.000000

     crystal axes: (cart. coord. in units of alat)
               a(1) = (   6.579727   0.000000   0.000000 )
               a(2) = (  -0.000775   5.961596   0.000000 )
               a(3) = (   0.000000   0.000000  25.155947 )

     reciprocal axes: (cart. coord. in units 2 pi/alat)
               b(1) = (  0.151982  0.000020  0.000000 )
               b(2) = (  0.000000  0.167740  0.000000 )
               b(3) = (  0.000000  0.000000  0.039752 )

     PseudoPot. # 1 for Ti read from file:
     /storage/coda1/p-amedford6/0/shared/rich_project_chbe-medford/medford-share/data/pseudos_module/espresso/nninc/pbe/van/Ti.UPF
     MD5 check sum: 8e4df49b7f0d34bbd5052bf3f5ea0213
     Pseudo is Ultrasoft, Zval = 12.0
     Generated by new atomic code, or converted to UPF format
     Using radial grid of  851 points,  6 beta functions with:
                l(1) =   0
                l(2) =   0
                l(3) =   1
                l(4) =   1
                l(5) =   2
                l(6) =   2
     Q(r) pseudized with  8 coefficients,  rinner =    1.000   1.000   1.000
                                                       1.000   1.000

     PseudoPot. # 2 for O  read from file:
     /storage/coda1/p-amedford6/0/shared/rich_project_chbe-medford/medford-share/data/pseudos_module/espresso/nninc/pbe/van/O.UPF
     MD5 check sum: 78c19812648e8988a0fe644b0f25305e
     Pseudo is Ultrasoft, Zval =  6.0
     Generated by new atomic code, or converted to UPF format
     Using radial grid of  737 points,  4 beta functions with:
                l(1) =   0
                l(2) =   0
                l(3) =   1
                l(4) =   1
     Q(r) pseudized with  8 coefficients,  rinner =    0.800   0.800   0.800

     PseudoPot. # 3 for C  read from file:
     /storage/coda1/p-amedford6/0/shared/rich_project_chbe-medford/medford-share/data/pseudos_module/espresso/nninc/pbe/van/C.UPF
     MD5 check sum: 1a69bf6b8db32088f5b2163dbdb77a27
     Pseudo is Ultrasoft, Zval =  4.0
     Generated by new atomic code, or converted to UPF format
     Using radial grid of  721 points,  4 beta functions with:
                l(1) =   0
                l(2) =   0
                l(3) =   1
                l(4) =   1
     Q(r) pseudized with  8 coefficients,  rinner =    0.800   0.800   0.800

     PseudoPot. # 4 for H  read from file:
     /storage/coda1/p-amedford6/0/shared/rich_project_chbe-medford/medford-share/data/pseudos_module/espresso/nninc/pbe/van/H.UPF
     MD5 check sum: b5ee9d7bfd3a09ee7748110bda690ff7
     Pseudo is Ultrasoft, Zval =  1.0
     Generated by new atomic code, or converted to UPF format
     Using radial grid of  615 points,  1 beta functions with:
                l(1) =   0
     Q(r) pseudized with  8 coefficients,  rinner =    0.800

     atomic species   valence    mass     pseudopotential
        Ti1           12.00    47.86700     Ti( 1.00)
        O1             6.00    15.99900     O ( 1.00)
        C1             4.00    12.01100     C ( 1.00)
        H1             1.00     1.00800     H ( 1.00)

     No symmetry found

   Cartesian axes

     site n.     atom                  positions (alat units)
         1           Ti1 tau(   1) = (   0.0004258   2.9801865   6.0000000  )
         2           Ti1 tau(   2) = (   3.2906075   1.4906267   6.0002472  )
         3           O1  tau(   3) = (   0.0006271   0.0005054   7.9858123  )
         4           O1  tau(   4) = (   3.2906025   0.0005020   7.3038282  )
         5           O1  tau(   5) = (   4.5942328   1.4918067   9.2879030  )
         6           O1  tau(   6) = (   1.9868534   1.4903216   9.2879459  )
         7           Ti1 tau(   7) = (   3.3364693   3.0244086   9.1899460  )
         8           Ti1 tau(   8) = (   0.0614121   1.5180315   9.2736979  )
         9           O1  tau(   9) = (   3.3192415   0.0109611  11.3574448  )
        10           O1  tau(  10) = (   0.0135824   0.0030625  10.5923660  )
        11           O1  tau(  11) = (   1.3113730   1.4888140  12.6397483  )
        12           O1  tau(  12) = (   5.3365169   1.4868518  12.6422516  )
        13           Ti1 tau(  13) = (   0.0249591   3.0356721  12.5595363  )
        14           Ti1 tau(  14) = (   3.3216347   1.5719315  12.4302660  )
        15           O1  tau(  15) = (   0.0475996   5.9320359  14.6592625  )
        16           O1  tau(  16) = (   3.3253441   5.8716044  14.0084122  )
        17           O1  tau(  17) = (   4.6294077   1.4993822  16.1384749  )
        18           O1  tau(  18) = (   2.0712093   1.5368213  16.0656395  )
        19           Ti1 tau(  19) = (   3.3420502   2.9337026  15.6791356  )
        20           Ti1 tau(  20) = (   0.0819182   1.3209985  15.9439250  )
        21           O1  tau(  21) = (   3.2904802   0.0005063   4.7018136  )
        22           O1  tau(  22) = (   0.1121901   0.0005398  17.1797988  )
        23           O1  tau(  23) = (   1.3043587   1.4918075   6.0039043  )
        24           O1  tau(  24) = (   5.2767064   1.4903225   6.0039473  )
        25           Ti1 tau(  25) = (   0.0000382   5.9609847   6.0000000  )
        26           Ti1 tau(  26) = (   3.2902200   4.4714249   6.0002472  )
        27           O1  tau(  27) = (   0.0002396   2.9813036   7.9858123  )
        28           O1  tau(  28) = (   3.2902150   2.9813002   7.3038282  )
        29           O1  tau(  29) = (   4.5938453   4.4726049   9.2879030  )
        30           O1  tau(  30) = (   1.9864658   4.4711199   9.2879459  )
        31           Ti1 tau(  31) = (   3.3365859   0.0383882   9.1683042  )
        32           Ti1 tau(  32) = (   0.0607984   4.4756772   9.2727477  )
        33           O1  tau(  33) = (   3.3154497   2.9528697  11.3100477  )
        34           O1  tau(  34) = (   0.0130381   2.9821538  10.6068333  )
        35           O1  tau(  35) = (   1.3079814   4.4632751  12.6339740  )
        36           O1  tau(  36) = (   5.3374838   4.4678533  12.6371107  )
        37           Ti1 tau(  37) = (   0.0367351   0.0553833  12.4739561  )
        38           Ti1 tau(  38) = (   3.3178111   4.6524667  12.7070490  )
        39           O1  tau(  39) = (   0.0226182   2.9861015  14.7894940  )
        40           O1  tau(  40) = (   3.3464301   2.9603322  13.9061577  )
        41           O1  tau(  41) = (   4.6320376   4.4053937  16.1659747  )
        42           O1  tau(  42) = (   2.0651706   4.3480327  16.1155179  )
        43           Ti1 tau(  43) = (   3.4032537   5.9185344  16.2710929  )
        44           Ti1 tau(  44) = (   0.0646745   4.5145260  15.8553686  )
        45           O1  tau(  45) = (   3.2900926   2.9813045   4.7018136  )
        46           O1  tau(  46) = (   1.3039711   4.4726057   6.0039043  )
        47           O1  tau(  47) = (   5.2763189   4.4711207   6.0039473  )
        48           C1  tau(  48) = (   5.9353497   3.0583042  18.8699169  )
        49           O1  tau(  49) = (   0.1856485   3.0014673  17.6677584  )
        50           H1  tau(  50) = (   4.9577780   2.6849493  18.5881267  )
        51           H1  tau(  51) = (   1.1185258   3.1466834  17.9024234  )
        52           H1  tau(  52) = (   6.3707541   2.4080388  19.6265123  )
        53           H1  tau(  53) = (   5.8722695   4.0904670  19.2075282  )
        54           O1  tau(  54) = (   3.1419305   5.9539177  18.1124628  )
        55           H1  tau(  55) = (   2.2021640   0.0520986  18.3490109  )

     number of k points=    10  Fermi-Dirac smearing, width (Ry)=  0.0073
                       cart. coord. in units 2pi/alat
        k(    1) = (   0.0000000   0.0000000   0.0000000), wk =   0.1250000
        k(    2) = (   0.0000000   0.0419351   0.0000000), wk =   0.2500000
        k(    3) = (   0.0000000  -0.0838702   0.0000000), wk =   0.1250000
        k(    4) = (   0.0379955   0.0000049   0.0000000), wk =   0.2500000
        k(    5) = (   0.0379955   0.0419400   0.0000000), wk =   0.2500000
        k(    6) = (   0.0379955  -0.0838652   0.0000000), wk =   0.2500000
        k(    7) = (   0.0379955  -0.0419301   0.0000000), wk =   0.2500000
        k(    8) = (  -0.0759910  -0.0000099   0.0000000), wk =   0.1250000
        k(    9) = (  -0.0759910   0.0419252   0.0000000), wk =   0.2500000
        k(   10) = (  -0.0759910  -0.0838800   0.0000000), wk =   0.1250000

     Initial potential from superposition of free atoms

     starting charge  382.99916, renormalised to  399.00000

     negative rho (up, down):  1.653E-02 0.000E+00

     %%%%%%%%%%%%%%%%%%%%%%%%%%%%%%%%%%%%%%%%%%%%%%%%%%%%%%%%%%%%%%%%%%%%%%%%
     %                                                                      %
     % You are using vdW-DF, which was implemented by the Thonhauser group. %
     % Please cite the following two papers that made this development      %
     % possible and the two reviews that describe the various versions:     %
     %                                                                      %
     %   T. Thonhauser et al., PRL 115, 136402 (2015).                      %
     %   T. Thonhauser et al., PRB 76, 125112 (2007).                       %
     %   K. Berland et al., Rep. Prog. Phys. 78, 066501 (2015).             %
     %   D.C. Langreth et al., J. Phys.: Condens. Matter 21, 084203 (2009). %
     %                                                                      %
     %                                                                      %
     % If you are calculating the stress with vdW-DF, please also cite:     %
     %                                                                      %
     %   R. Sabatini et al., J. Phys.: Condens. Matter 24, 424209 (2012).   %
     %                                                                      %
     %%%%%%%%%%%%%%%%%%%%%%%%%%%%%%%%%%%%%%%%%%%%%%%%%%%%%%%%%%%%%%%%%%%%%%%%

     Adding external electric field

     Computed dipole along edir(3) :
        Dipole              -10.2322 Ry au,        -26.0076 Debye
        Dipole field         -0.0193 Ry au,

        Potential amp.        1.7900 Ry
        Total length         46.3494 bohr

     Starting wfcs are  301 atomic wfcs
  @ DRIVER MODE: Message from server: STATUS
  @ DRIVER MODE: Message from server: POSDATA
  @ DRIVER MODE: Reading and sharing cell
  @ DRIVER MODE: Reading and sharing positions
  @ DRIVER MODE: Received positions

     Self-consistent Calculation

     iteration #  1     ecut=    29.40 Ry     beta= 0.05
     Davidson diagonalization with overlap
     ethr =  1.00E-02,  avg # of iterations =  2.8

[...]

     total energy              =   -2478.48768791 Ry
     estimated scf accuracy    <    5441.71606538 Ry

[...]

     iteration #  5     ecut=    29.40 Ry     beta= 0.05
     Davidson diagonalization with overlap
     c_bands:  5 eigenvalues not converged
     ethr =  1.00E-02,  avg # of iterations = 10.4

[...]

     iteration # 68     ecut=    29.40 Ry     beta= 0.05
     Davidson diagonalization with overlap
     c_bands:  1 eigenvalues not converged
     c_bands:  1 eigenvalues not converged
     ethr =  5.23E-11,  avg # of iterations = 14.4

[...]

     total energy              =   -2966.27815261 Ry
     estimated scf accuracy    <       0.00000023 Ry

     iteration # 71     ecut=    29.40 Ry     beta= 0.05
     Davidson diagonalization with overlap
     ethr =  4.47E-11,  avg # of iterations =  7.3

     negative rho (up, down):  1.671E-02 0.000E+00

     Adding external electric field

     Computed dipole along edir(3) :
        Dipole                1.0457 Ry au,          2.6578 Debye
        Dipole field          0.0020 Ry au,

        Potential amp.       -0.1829 Ry
        Total length         46.3494 bohr

     End of self-consistent calculation

          k = 0.0000 0.0000 0.0000 ( 18029 PWs)   bands (ev):

   -55.7016 -55.6318 -55.5969 -55.5178 -55.4942 -55.4669 -55.4343 -55.4273
   -55.4234 -55.4101 -55.3979 -55.3704 -55.2848 -55.2127 -54.5899 -54.5558
   -32.1107 -32.0935 -32.0128 -32.0024 -31.9586 -31.9497 -31.9217 -31.9194
   -31.8920 -31.8754 -31.8665 -31.7942 -31.7914 -31.7853 -31.7583 -31.7405
   -31.7329 -31.7211 -31.7114 -31.6985 -31.6949 -31.6905 -31.6465 -31.6456
   -31.6441 -31.6364 -31.6318 -31.6245 -31.6128 -31.5968 -31.5914 -31.5815
   -31.5756 -31.5603 -31.5562 -31.5466 -31.5368 -31.5122 -31.4734 -31.4567
   -31.4245 -31.4172 -30.9960 -30.9101 -30.8875 -30.8130 -30.7266 -30.6151
   -20.0622 -16.5164 -16.2849 -16.1053 -15.9040 -15.8406 -15.7820 -15.5937
   -15.5183 -15.3775 -15.2328 -15.2205 -15.1662 -15.1655 -15.1567 -15.1335
   -15.1026 -15.0585 -15.0490 -15.0431 -15.0375 -14.9820 -14.9400 -14.9321
   -14.9253 -14.8844 -14.7562 -14.7159 -14.6596 -14.4890 -14.4463 -13.0896
   -12.9735 -10.9303  -6.7707  -4.9665  -4.7707  -4.0106  -3.6369  -3.5363
    -3.5184  -3.4561  -3.3998  -3.1874  -3.0677  -3.0156  -2.9031  -2.7764
    -2.7375  -2.6815  -2.6574  -2.5658  -2.5439  -2.5135  -2.4888  -2.4312
    -2.4016  -2.3934  -2.3812  -2.3092  -2.2995  -2.1694  -2.1653  -2.0926
    -2.0240  -2.0030  -1.9842  -1.9659  -1.9344  -1.9338  -1.8877  -1.8671
    -1.8454  -1.8127  -1.7419  -1.7210  -1.6605  -1.6203  -1.3862  -1.2252
    -1.2026  -1.1327  -1.1150  -1.0831  -1.0462  -1.0311  -1.0256  -0.9869
    -0.9705  -0.8622  -0.7658  -0.7537  -0.6932  -0.6540  -0.6526  -0.5189
    -0.4709  -0.3971  -0.3712  -0.3460  -0.3231  -0.2306  -0.1877  -0.1702
    -0.1070  -0.0769   0.0348   0.0744   0.0922   0.1309   0.1865   0.2547
     0.2847   0.3217   0.3295   0.3618   0.4108   0.4355   0.4684   0.4951
     0.5341   0.6389   0.6782   0.6937   0.8377   0.8387   0.9264   1.0540
     1.1019   1.3831   1.4352   1.4732   1.6281   2.0028   2.0489   3.4870
     3.6038   3.6146   3.6330   3.7034   3.7934   3.9492   3.9772   4.0485
     4.1622

[...]

          k = 0.0380-0.0419 0.0000 ( 17876 PWs)   bands (ev):

[...]

          k =-0.0760-0.0000 0.0000 ( 17886 PWs)   bands (ev):

[...]

          k =-0.0760-0.0839 0.0000 ( 17948 PWs)   bands (ev):

   -55.7008 -55.6183 -55.6103 -55.5110 -55.4895 -55.4735 -55.4282 -55.4277
   -55.4217 -55.4100 -55.4010 -55.3798 -55.2809 -55.2165 -54.5730 -54.5725
   -32.0129 -31.9536 -31.9446 -31.9300 -31.9222 -31.9185 -31.9144 -31.9004
   -31.8339 -31.8327 -31.7973 -31.7675 -31.7626 -31.7551 -31.7388 -31.7381
   -31.7332 -31.7300 -31.7279 -31.7173 -31.7151 -31.7127 -31.7006 -31.6989
   -31.6717 -31.6692 -31.6359 -31.6304 -31.6298 -31.6288 -31.6187 -31.6151
   -31.6084 -31.6063 -31.5994 -31.5982 -31.5962 -31.5599 -31.5402 -31.4777
   -31.4638 -31.4211 -30.9004 -30.9001 -30.8098 -30.8083 -30.7699 -30.7690
   -20.0585 -16.4916 -15.9006 -15.7567 -15.5938 -15.5756 -15.4980 -15.4025
   -15.3858 -15.3569 -15.3474 -15.3269 -15.3013 -15.2992 -15.2512 -15.1959
   -15.1542 -15.1312 -15.1268 -15.0808 -15.0714 -15.0678 -15.0121 -14.9995
   -14.9901 -14.9514 -14.8916 -14.8634 -14.7851 -14.7580 -14.6041 -13.0757
   -13.0751 -10.9324  -6.7719  -4.9477  -4.7633  -3.9734  -3.0504  -2.9772
    -2.9040  -2.8168  -2.7359  -2.6783  -2.6276  -2.6088  -2.5656  -2.5454
    -2.4749  -2.4411  -2.4337  -2.4121  -2.4098  -2.3833  -2.3675  -2.3551
    -2.3323  -2.3022  -2.2881  -2.2742  -2.2558  -2.2352  -2.2145  -2.1951
    -2.1822  -2.1715  -2.1519  -2.0445  -2.0207  -1.9843  -1.8305  -1.8190
    -1.7536  -1.7211  -1.6907  -1.6854  -1.6527  -1.6448  -1.6018  -1.4924
    -1.4642  -1.4169  -1.3604  -1.2689  -1.2641  -1.2169  -1.1645  -1.1250
    -1.0957  -1.0486  -1.0457  -1.0003  -0.8590  -0.8322  -0.7935  -0.6695
    -0.5973  -0.5819  -0.5679  -0.5509  -0.5248  -0.4778  -0.4723  -0.4158
    -0.3943  -0.3223  -0.3202  -0.2957  -0.2715  -0.1648  -0.0500   0.0412
     0.0757   0.1320   0.1720   0.2050   0.2879   0.3617   0.4452   0.5314
     0.5578   0.5684   0.6899   0.7167   0.7677   0.8205   0.8364   0.8963
     0.9292   0.9721   1.0003   1.7963   1.8096   1.8654   1.8702   3.6749
     3.9241   3.9761   3.9943   4.0071   4.0407   4.0605   4.1075   4.1251
     4.1512

     the Fermi energy is     3.5004 ev

!    total energy              =   -2966.27817693 Ry
     estimated scf accuracy    <       0.00000006 Ry
     smearing contrib. (-TS)   =      -0.02072878 Ry
     internal energy E=F+TS    =   -2966.25744815 Ry

     The total energy is F=E-TS. E is the sum of the following terms:
     one-electron contribution =  -24038.94702285 Ry
     hartree contribution      =   12111.98910520 Ry
     xc contribution           =    -490.94375441 Ry
     ewald contribution        =    9451.64216054 Ry
     electric field correction =       0.00206336 Ry

     convergence has been achieved in  71 iterations

     Forces acting on atoms (cartesian axes, Ry/au):

     atom    1 type  1   force =    -0.00039615    0.00004967    0.09457104
     atom    2 type  1   force =    -0.00032523    0.00499330   -0.17463800
     atom    3 type  2   force =     0.00082244   -0.00023720   -0.02594270
     atom    4 type  2   force =     0.00125389    0.00074887    0.05284178
     atom    5 type  2   force =    -0.01095990   -0.00285359    0.00049770
     atom    6 type  2   force =     0.01163409   -0.00410193    0.00187441
     atom    7 type  1   force =     0.00052377    0.00038591   -0.00015743
     atom    8 type  1   force =    -0.00044974    0.00019706    0.00076413
     atom    9 type  2   force =    -0.00044422    0.00027663   -0.00025113
     atom   10 type  2   force =     0.00031671   -0.00035604   -0.00044165
     atom   11 type  2   force =     0.00063085    0.00032246   -0.00021491
     atom   12 type  2   force =    -0.00039796   -0.00045962   -0.00036713
     atom   13 type  1   force =    -0.00130216   -0.00079661    0.00031351
     atom   14 type  1   force =     0.00028954    0.00009882    0.00056197
     atom   15 type  2   force =     0.00048680    0.00067623    0.00018269
     atom   16 type  2   force =    -0.00049017    0.00052834    0.00058282
     atom   17 type  2   force =     0.00005747    0.00033131    0.00005514
     atom   18 type  2   force =    -0.00029991   -0.00000987    0.00035584
     atom   19 type  1   force =    -0.00041097    0.00113310   -0.00023254
     atom   20 type  1   force =    -0.00016425   -0.00026808   -0.00071254
     atom   21 type  2   force =    -0.00001416    0.00005363    0.10307812
     atom   22 type  2   force =    -0.00037037   -0.00059131   -0.00047651
     atom   23 type  2   force =    -0.07203954    0.00005529   -0.02788907
     atom   24 type  2   force =     0.07189719    0.00054502   -0.02799471
     atom   25 type  1   force =    -0.00043836    0.00000026    0.10114908
     atom   26 type  1   force =    -0.00006402   -0.00461260   -0.17489601
     atom   27 type  2   force =     0.00089661    0.00114505   -0.02443767
     atom   28 type  2   force =     0.00113609    0.00015027    0.05240576
     atom   29 type  2   force =    -0.01184360    0.00306648    0.00196597
     atom   30 type  2   force =     0.01325188    0.00116429    0.00309985
     atom   31 type  1   force =     0.00058675    0.00002398   -0.00055594
     atom   32 type  1   force =    -0.00036325    0.00070239    0.00046922
     atom   33 type  2   force =    -0.00020203    0.00093846    0.00018701
     atom   34 type  2   force =     0.00013796   -0.00012700   -0.00094350
     atom   35 type  2   force =     0.00035740    0.00007528    0.00055386
     atom   36 type  2   force =     0.00007610    0.00016555    0.00049142
     atom   37 type  1   force =    -0.00146097   -0.00060676    0.00029051
     atom   38 type  1   force =     0.00078024   -0.00025539   -0.00012999
     atom   39 type  2   force =     0.00045216   -0.00021022    0.00122335
     atom   40 type  2   force =    -0.00011090    0.00034745    0.00053768
     atom   41 type  2   force =    -0.00050942    0.00001013   -0.00068480
     atom   42 type  2   force =    -0.00004153   -0.00019335   -0.00056665
     atom   43 type  1   force =    -0.00003956   -0.00028811   -0.00059775
     atom   44 type  1   force =    -0.00023693   -0.00048046   -0.00117642
     atom   45 type  2   force =    -0.00001333    0.00012960    0.10265554
     atom   46 type  2   force =    -0.07201132   -0.00057065   -0.02787075
     atom   47 type  2   force =     0.07186369   -0.00008080   -0.02795326
     atom   48 type  3   force =     0.00009211   -0.00094543   -0.00128627
     atom   49 type  2   force =    -0.00076371   -0.00041938   -0.00088078
     atom   50 type  4   force =     0.00012040   -0.00011727   -0.00004400
     atom   51 type  4   force =    -0.00008690   -0.00010857   -0.00030141
     atom   52 type  4   force =    -0.00006833    0.00000568   -0.00001719
     atom   53 type  4   force =    -0.00080672    0.00055227   -0.00005603
     atom   54 type  2   force =     0.00104901    0.00007452    0.00065943
     atom   55 type  4   force =    -0.00158757   -0.00025705    0.00034890

     Total force =     0.364381     Total SCF correction =     0.000526
  @ DRIVER MODE: Message from server: STATUS
  @ DRIVER MODE: Message from server: GETFORCE
  @ DRIVER MODE: Returning v,forces,stress,ensemble

     Writing output data file ./calc.save/
  @ DRIVER MODE: Message from server: EXIT
  @ DRIVE MODE: Exiting

     General routines

     Parallel routines

   This run was terminated on:  22:21:56  22Sep2021

   JOB DONE.