     Program PWSCF v.6.7GPU starts on 23Sep2021 at 21:46: 6

     R & G space division:  proc/nbgrp/npool/nimage =       8
     Reading input from /storage/home/hcoda1/3/ntian30/research/carbon/CxH_vib/H2O_calc/ads_slab/CH3NHNHHO_a/out_0060/pw.inp
Warning: card &CELL ignored
Warning: card   CELL_DYNAMICS='IPI', ignored
Warning: card / ignored

     Current dimensions of program PWSCF are:
     Max number of different atomic species (ntypx) = 10
     Max number of k-points (npk) =  40000
     Max angular momentum in pseudopotentials (lmaxx) =  3
     Presently no symmetry can be used with electric field

     Message from routine cell_base_init:
     DEPRECATED: use true lattice parameter, not A to a.u. conversion factor

     IMPORTANT: XC functional enforced from input :
     Exchange-correlation= BEEF-VDW
                           (   1   4  43  14   2   0   0)
     Any further DFT definition will be discarded
     Please, verify this is what you really want

  @ DRIVER MODE: Connecting to
 qe_1139763_2941006.sched-torque.pace.gatech.edu_v3ccf4i_scratch
  using UNIX socket
  @ DRIVER MODE: Message from server: STATUS
  @ DRIVER MODE: Message from server: INIT
  @ DRIVER MODE: Receiving replica           0          -1
  @ DRIVER MODE: Receiving encoded integer          25
  @ DRIVER MODE:  SCF:  T  FORCE:  T  STRESS:  F  VC:  F  ENSEMBLE:  F
  @ DRIVER MODE:  SCF:  T  FORCE:  T  STRESS:  F  VC:  F  ENSEMBLE:  F

     Using Slab Decomposition

     bravais-lattice index     =            0
     lattice parameter (alat)  =       1.8897  a.u.
     unit-cell volume          =    6658.9804 (a.u.)^3
     number of atoms/cell      =           57
     number of atomic types    =            5
     number of electrons       =       404.00
     number of Kohn-Sham states=          212
     kinetic-energy cutoff     =      29.3995  Ry
     charge density cutoff     =     293.9946  Ry
     scf convergence threshold =      7.3E-08
     mixing beta               =       0.0500
     number of iterations used =            8  plain     mixing
     Exchange-correlation= BEEF-VDW
                           (   1   4  43  14   2   0   0)

     celldm(1)=   1.889726  celldm(2)=   0.000000  celldm(3)=   0.000000
     celldm(4)=   0.000000  celldm(5)=   0.000000  celldm(6)=   0.000000

     crystal axes: (cart. coord. in units of alat)
               a(1) = (   6.579727   0.000000   0.000000 )
               a(2) = (  -0.000775   5.961596   0.000000 )
               a(3) = (   0.000000   0.000000  25.155947 )

     reciprocal axes: (cart. coord. in units 2 pi/alat)
               b(1) = (  0.151982  0.000020  0.000000 )
               b(2) = (  0.000000  0.167740  0.000000 )
               b(3) = (  0.000000  0.000000  0.039752 )

     PseudoPot. # 1 for Ti read from file:
     /storage/coda1/p-amedford6/0/shared/rich_project_chbe-medford/medford-share/data/pseudos_module/espresso/nninc/pbe/van/Ti.UPF
     MD5 check sum: 8e4df49b7f0d34bbd5052bf3f5ea0213
     Pseudo is Ultrasoft, Zval = 12.0
     Generated by new atomic code, or converted to UPF format
     Using radial grid of  851 points,  6 beta functions with:
                l(1) =   0
                l(2) =   0
                l(3) =   1
                l(4) =   1
                l(5) =   2
                l(6) =   2
     Q(r) pseudized with  8 coefficients,  rinner =    1.000   1.000   1.000
                                                       1.000   1.000

     PseudoPot. # 2 for O  read from file:
     /storage/coda1/p-amedford6/0/shared/rich_project_chbe-medford/medford-share/data/pseudos_module/espresso/nninc/pbe/van/O.UPF
     MD5 check sum: 78c19812648e8988a0fe644b0f25305e
     Pseudo is Ultrasoft, Zval =  6.0
     Generated by new atomic code, or converted to UPF format
     Using radial grid of  737 points,  4 beta functions with:
                l(1) =   0
                l(2) =   0
                l(3) =   1
                l(4) =   1
     Q(r) pseudized with  8 coefficients,  rinner =    0.800   0.800   0.800

     PseudoPot. # 3 for N  read from file:
     /storage/coda1/p-amedford6/0/shared/rich_project_chbe-medford/medford-share/data/pseudos_module/espresso/nninc/pbe/van/N.UPF
     MD5 check sum: 90d10febe142ad51ac9d5be1deb811c4
     Pseudo is Ultrasoft, Zval =  5.0
     Generated by new atomic code, or converted to UPF format
     Using radial grid of  729 points,  4 beta functions with:
                l(1) =   0
                l(2) =   0
                l(3) =   1
                l(4) =   1
     Q(r) pseudized with  8 coefficients,  rinner =    0.800   0.800   0.800

     PseudoPot. # 4 for C  read from file:
     /storage/coda1/p-amedford6/0/shared/rich_project_chbe-medford/medford-share/data/pseudos_module/espresso/nninc/pbe/van/C.UPF
     MD5 check sum: 1a69bf6b8db32088f5b2163dbdb77a27
     Pseudo is Ultrasoft, Zval =  4.0
     Generated by new atomic code, or converted to UPF format
     Using radial grid of  721 points,  4 beta functions with:
                l(1) =   0
                l(2) =   0
                l(3) =   1
                l(4) =   1
     Q(r) pseudized with  8 coefficients,  rinner =    0.800   0.800   0.800

     PseudoPot. # 5 for H  read from file:
     /storage/coda1/p-amedford6/0/shared/rich_project_chbe-medford/medford-share/data/pseudos_module/espresso/nninc/pbe/van/H.UPF
     MD5 check sum: b5ee9d7bfd3a09ee7748110bda690ff7
     Pseudo is Ultrasoft, Zval =  1.0
     Generated by new atomic code, or converted to UPF format
     Using radial grid of  615 points,  1 beta functions with:
                l(1) =   0
     Q(r) pseudized with  8 coefficients,  rinner =    0.800

     atomic species   valence    mass     pseudopotential
        Ti1           12.00    47.86700     Ti( 1.00)
        O1             6.00    15.99900     O ( 1.00)
        N1             5.00    14.00700     N ( 1.00)
        C1             4.00    12.01100     C ( 1.00)
        H1             1.00     1.00800     H ( 1.00)

     No symmetry found

   Cartesian axes

     site n.     atom                  positions (alat units)
         1           Ti1 tau(   1) = (   0.0004258   2.9801865   6.0000000  )
         2           Ti1 tau(   2) = (   3.2906075   1.4906267   6.0002472  )
         3           O1  tau(   3) = (   0.0006271   0.0005054   7.9858123  )
         4           O1  tau(   4) = (   3.2906025   0.0005020   7.3038282  )
         5           O1  tau(   5) = (   4.5942328   1.4918067   9.2879030  )
         6           O1  tau(   6) = (   1.9868534   1.4903216   9.2879459  )
         7           Ti1 tau(   7) = (   3.2907910   2.8959150   9.1758416  )
         8           Ti1 tau(   8) = (   0.0015273   1.4827037   9.2680791  )
         9           O1  tau(   9) = (   3.2953096   5.9421394  11.2884464  )
        10           O1  tau(  10) = (   0.0116148   5.9584955  10.6183126  )
        11           O1  tau(  11) = (   1.3041449   1.4755329  12.6321863  )
        12           O1  tau(  12) = (   5.3089623   1.4871430  12.6059879  )
        13           Ti1 tau(  13) = (   6.5683417   3.1096339  12.6902584  )
        14           Ti1 tau(  14) = (   3.3171551   1.3050273  12.6602886  )
        15           O1  tau(  15) = (   6.5441980   0.0188234  14.6400653  )
        16           O1  tau(  16) = (   3.3305379   0.0354930  13.9003223  )
        17           O1  tau(  17) = (   4.5569828   1.5958521  16.0354584  )
        18           O1  tau(  18) = (   2.0254723   1.5302355  15.9749146  )
        19           Ti1 tau(  19) = (   3.2479256   3.0467527  15.6517507  )
        20           Ti1 tau(  20) = (   6.4631478   1.5268535  15.8454044  )
        21           O1  tau(  21) = (   3.2904802   0.0005063   4.7018136  )
        22           O1  tau(  22) = (   6.5640117   0.0389496  17.1838934  )
        23           O1  tau(  23) = (   1.3043587   1.4918075   6.0039043  )
        24           O1  tau(  24) = (   5.2767064   1.4903225   6.0039473  )
        25           Ti1 tau(  25) = (   0.0000382   5.9609847   6.0000000  )
        26           Ti1 tau(  26) = (   3.2902200   4.4714249   6.0002472  )
        27           O1  tau(  27) = (   0.0002396   2.9813036   7.9858123  )
        28           O1  tau(  28) = (   3.2902150   2.9813002   7.3038282  )
        29           O1  tau(  29) = (   4.5938453   4.4726049   9.2879030  )
        30           O1  tau(  30) = (   1.9864658   4.4711199   9.2879459  )
        31           Ti1 tau(  31) = (   3.2891106   5.8743827   9.1763621  )
        32           Ti1 tau(  32) = (   0.0006254   4.4649316   9.2693709  )
        33           O1  tau(  33) = (   3.2909858   3.0116154  11.2527998  )
        34           O1  tau(  34) = (   0.0092240   2.9805883  10.6323155  )
        35           O1  tau(  35) = (   1.2990260   4.4726261  12.6330189  )
        36           O1  tau(  36) = (   5.2946483   4.4606482  12.6134978  )
        37           Ti1 tau(  37) = (   0.0333947   0.1262769  12.6104238  )
        38           Ti1 tau(  38) = (   3.2900473   4.3917186  12.4086616  )
        39           O1  tau(  39) = (   6.5591047   2.9728048  14.6463482  )
        40           O1  tau(  40) = (   3.3071982   2.9909887  13.8663713  )
        41           O1  tau(  41) = (   4.5374868   4.4330245  16.1128471  )
        42           O1  tau(  42) = (   2.0037144   4.4952966  15.9584979  )
        43           Ti1 tau(  43) = (   3.1911318   0.0573200  16.2061952  )
        44           Ti1 tau(  44) = (   6.5299348   4.6473693  16.0672121  )
        45           O1  tau(  45) = (   3.2900926   2.9813045   4.7018136  )
        46           O1  tau(  46) = (   1.3039711   4.4726057   6.0039043  )
        47           O1  tau(  47) = (   5.2763189   4.4711207   6.0039473  )
        48           N1  tau(  48) = (   1.2509970   2.8552009  18.3001485  )
        49           N1  tau(  49) = (   0.1090600   2.9410495  17.4585617  )
        50           C1  tau(  50) = (   1.1117997   3.5424446  19.5707766  )
        51           H1  tau(  51) = (   0.2696121   3.1616043  20.1716506  )
        52           H1  tau(  52) = (   2.0314425   3.4001925  20.1392599  )
        53           H1  tau(  53) = (   0.9679189   4.6079482  19.3970517  )
        54           H1  tau(  54) = (   1.5306055   1.8840965  18.4148701  )
        55           H1  tau(  55) = (   5.8389999   2.9001924  18.0325661  )
        56           O1  tau(  56) = (   3.2424369   0.1001929  18.0579484  )
        57           H1  tau(  57) = (   3.9792659   5.6040190  18.4997823  )

     number of k points=    10  Fermi-Dirac smearing, width (Ry)=  0.0073
                       cart. coord. in units 2pi/alat
        k(    1) = (   0.0000000   0.0000000   0.0000000), wk =   0.1250000
        k(    2) = (   0.0000000   0.0419351   0.0000000), wk =   0.2500000
        k(    3) = (   0.0000000  -0.0838702   0.0000000), wk =   0.1250000
        k(    4) = (   0.0379955   0.0000049   0.0000000), wk =   0.2500000
        k(    5) = (   0.0379955   0.0419400   0.0000000), wk =   0.2500000
        k(    6) = (   0.0379955  -0.0838652   0.0000000), wk =   0.2500000
        k(    7) = (   0.0379955  -0.0419301   0.0000000), wk =   0.2500000
        k(    8) = (  -0.0759910  -0.0000099   0.0000000), wk =   0.1250000
        k(    9) = (  -0.0759910   0.0419252   0.0000000), wk =   0.2500000
        k(   10) = (  -0.0759910  -0.0838800   0.0000000), wk =   0.1250000

     Initial potential from superposition of free atoms

     starting charge  387.99913, renormalised to  404.00000

     negative rho (up, down):  1.467E-02 0.000E+00

     %%%%%%%%%%%%%%%%%%%%%%%%%%%%%%%%%%%%%%%%%%%%%%%%%%%%%%%%%%%%%%%%%%%%%%%%
     %                                                                      %
     % You are using vdW-DF, which was implemented by the Thonhauser group. %
     % Please cite the following two papers that made this development      %
     % possible and the two reviews that describe the various versions:     %
     %                                                                      %
     %   T. Thonhauser et al., PRL 115, 136402 (2015).                      %
     %   T. Thonhauser et al., PRB 76, 125112 (2007).                       %
     %   K. Berland et al., Rep. Prog. Phys. 78, 066501 (2015).             %
     %   D.C. Langreth et al., J. Phys.: Condens. Matter 21, 084203 (2009). %
     %                                                                      %
     %                                                                      %
     % If you are calculating the stress with vdW-DF, please also cite:     %
     %                                                                      %
     %   R. Sabatini et al., J. Phys.: Condens. Matter 24, 424209 (2012).   %
     %                                                                      %
     %%%%%%%%%%%%%%%%%%%%%%%%%%%%%%%%%%%%%%%%%%%%%%%%%%%%%%%%%%%%%%%%%%%%%%%%

     Adding external electric field

     Computed dipole along edir(3) :
        Dipole              -12.7323 Ry au,        -32.3622 Debye
        Dipole field         -0.0240 Ry au,

        Potential amp.        2.2273 Ry
        Total length         46.3494 bohr

     Starting wfcs are  306 atomic wfcs
  @ DRIVER MODE: Message from server: STATUS
  @ DRIVER MODE: Message from server: POSDATA
  @ DRIVER MODE: Reading and sharing cell
  @ DRIVER MODE: Reading and sharing positions
  @ DRIVER MODE: Received positions

     Self-consistent Calculation

     iteration #  1     ecut=    29.40 Ry     beta= 0.05
     Davidson diagonalization with overlap
     c_bands:  4 eigenvalues not converged
     c_bands:  5 eigenvalues not converged
     c_bands:  5 eigenvalues not converged
     c_bands:  5 eigenvalues not converged
     c_bands:  1 eigenvalues not converged
     c_bands:  3 eigenvalues not converged
     c_bands:  4 eigenvalues not converged
     c_bands:  4 eigenvalues not converged
     ethr =  1.00E-05,  avg # of iterations = 24.4

[...]

     total energy              =   -2345.46381753 Ry
     estimated scf accuracy    <    7121.47843879 Ry

     iteration #  2     ecut=    29.40 Ry     beta= 0.05
     Davidson diagonalization with overlap
     ethr =  1.00E-02,  avg # of iterations = 23.8

[...]

     iteration # 44     ecut=    29.40 Ry     beta= 0.05
     Davidson diagonalization with overlap
     c_bands:  1 eigenvalues not converged
     c_bands:  1 eigenvalues not converged
     c_bands:  1 eigenvalues not converged
     ethr =  2.82E-06,  avg # of iterations = 12.9

[...]

     total energy              =   -2975.25033628 Ry
     estimated scf accuracy    <       0.00000045 Ry

     iteration # 71     ecut=    29.40 Ry     beta= 0.05
     Davidson diagonalization with overlap
     ethr =  3.38E-11,  avg # of iterations =  6.0

     negative rho (up, down):  1.542E-02 0.000E+00

     Adding external electric field

     Computed dipole along edir(3) :
        Dipole                0.5413 Ry au,          1.3760 Debye
        Dipole field          0.0010 Ry au,

        Potential amp.       -0.0947 Ry
        Total length         46.3494 bohr

     End of self-consistent calculation

          k = 0.0000 0.0000 0.0000 ( 18029 PWs)   bands (ev):

   -56.4258 -56.3922 -55.7697 -55.7349 -55.5380 -55.4770 -55.3639 -55.2079
   -55.2049 -55.1367 -55.1015 -55.0883 -55.0544 -55.0478 -54.9828 -54.8624
   -32.8588 -32.7102 -32.6822 -32.5935 -32.5021 -32.4844 -32.2498 -32.0162
   -31.9891 -31.9663 -31.9134 -31.9079 -31.8784 -31.7661 -31.7541 -31.7433
   -31.7030 -31.6937 -31.6792 -31.6389 -31.6318 -31.6219 -31.5726 -31.5520
   -31.5114 -31.4803 -31.4787 -31.4282 -31.4143 -31.4082 -31.4041 -31.3833
   -31.3644 -31.3640 -31.3272 -31.3090 -31.3029 -31.2986 -31.2799 -31.2348
   -31.2325 -31.2157 -31.2029 -31.1825 -31.1107 -31.1065 -31.1040 -31.0557
   -16.6154 -16.5678 -16.1792 -16.1508 -15.8626 -15.7996 -15.7737 -15.7393
   -15.6778 -15.5526 -15.4363 -15.3911 -15.3825 -15.3344 -15.1752 -15.0780
   -14.9821 -14.9103 -14.9031 -14.8562 -14.8482 -14.8174 -14.8072 -14.7995
   -14.7335 -14.6985 -14.5905 -14.5442 -14.4493 -14.2548 -14.1752 -13.5861
   -13.4763 -11.5356  -8.6612  -5.0343  -4.2557  -4.1662  -3.7742  -3.6911
    -3.5211  -3.4449  -3.2909  -3.2605  -3.1731  -3.0710  -3.0097  -2.9525
    -2.9414  -2.8364  -2.6877  -2.6359  -2.6310  -2.6083  -2.6016  -2.5113
    -2.4422  -2.4089  -2.3413  -2.2712  -2.2390  -2.1541  -2.1485  -2.1230
    -2.1019  -2.0725  -2.0251  -1.9769  -1.9527  -1.9339  -1.8208  -1.7794
    -1.7527  -1.7080  -1.6765  -1.6020  -1.5661  -1.5197  -1.4412  -1.3807
    -1.2582  -1.2319  -1.1659  -1.1520  -1.1226  -0.9984  -0.9591  -0.9252
    -0.8638  -0.8302  -0.7651  -0.7420  -0.7093  -0.6706  -0.6618  -0.6229
    -0.5161  -0.4861  -0.3602  -0.3433  -0.2899  -0.2186  -0.2103  -0.1553
    -0.1339  -0.0975  -0.0528  -0.0163   0.0272   0.0966   0.1333   0.2209
     0.2638   0.3275   0.4230   0.4524   0.4734   0.5364   0.5541   0.5875
     0.6333   0.7265   0.7355   0.7964   0.8725   0.9174   0.9345   0.9963
     1.0560   1.0755   1.1733   1.2014   1.2124   1.2679   1.4746   1.5149
     1.6930   2.4486   2.8387   2.9853   3.2712   3.3029   3.5632   3.7979
     3.8278   3.8299   3.9127   4.0171

[...]

          k = 0.0380-0.0419 0.0000 ( 17876 PWs)   bands (ev):

[...]

          k =-0.0760-0.0000 0.0000 ( 17886 PWs)   bands (ev):

[...]

          k =-0.0760-0.0839 0.0000 ( 17948 PWs)   bands (ev):

   -56.4091 -56.4087 -55.7570 -55.7474 -55.5329 -55.4820 -55.3625 -55.2092
   -55.2002 -55.1410 -55.0992 -55.0719 -55.0707 -55.0463 -54.9850 -54.8638
   -32.6960 -32.6956 -32.6758 -32.6751 -32.5463 -32.5461 -32.0749 -32.0665
   -31.9511 -31.9436 -31.9399 -31.9375 -31.8360 -31.7972 -31.7602 -31.7519
   -31.7076 -31.7023 -31.6618 -31.6129 -31.5799 -31.5613 -31.5375 -31.4967
   -31.4851 -31.4822 -31.4317 -31.4297 -31.4175 -31.4167 -31.4136 -31.3937
   -31.3804 -31.3544 -31.3328 -31.3208 -31.3070 -31.2964 -31.2951 -31.2945
   -31.2579 -31.2569 -31.2395 -31.2321 -31.1895 -31.1729 -31.1117 -31.0871
   -16.5432 -16.1439 -15.9962 -15.9922 -15.9128 -15.9101 -15.7020 -15.6963
   -15.5254 -15.4961 -15.4210 -15.3032 -15.2518 -15.1953 -15.1869 -15.1450
   -15.0900 -15.0709 -15.0275 -15.0109 -14.9478 -14.9036 -14.8561 -14.8105
   -14.7910 -14.7523 -14.6317 -14.5830 -14.5757 -14.3890 -14.3559 -13.5802
   -13.5796 -11.5422  -8.6678  -5.0425  -4.2534  -3.7462  -3.4030  -3.0981
    -3.0800  -3.0346  -3.0255  -2.8098  -2.7892  -2.7634  -2.6904  -2.6776
    -2.6277  -2.6204  -2.5285  -2.4877  -2.4457  -2.4313  -2.4168  -2.3614
    -2.3340  -2.2903  -2.2868  -2.2507  -2.2159  -2.1820  -2.1576  -2.1162
    -2.0908  -2.0774  -2.0384  -2.0070  -1.9803  -1.9305  -1.9100  -1.8790
    -1.8686  -1.8470  -1.6891  -1.6348  -1.5796  -1.5375  -1.5068  -1.4402
    -1.4305  -1.3751  -1.3162  -1.2827  -1.2545  -1.2359  -1.1490  -1.1184
    -1.1020  -1.0661  -1.0238  -0.9634  -0.9040  -0.8565  -0.7787  -0.6852
    -0.6567  -0.6393  -0.6120  -0.6041  -0.5629  -0.5110  -0.4223  -0.3702
    -0.3185  -0.3017  -0.2582  -0.2525  -0.2216  -0.1849  -0.1152   0.0070
     0.0726   0.1082   0.1638   0.2206   0.2767   0.3404   0.3858   0.4648
     0.5440   0.5654   0.6519   0.6852   0.8091   0.8513   0.9675   1.0089
     1.0461   1.0902   1.1598   1.2573   1.2822   1.3256   1.3274   1.3443
     1.3588   2.4740   3.4055   3.4084   3.4589   3.4663   3.7409   3.7490
     3.8825   3.8844   4.0091   4.0216

     the Fermi energy is     2.7198 ev

!    total energy              =   -2975.25035179 Ry
     estimated scf accuracy    <       0.00000006 Ry
     smearing contrib. (-TS)   =      -0.00754502 Ry
     internal energy E=F+TS    =   -2975.24280677 Ry

     The total energy is F=E-TS. E is the sum of the following terms:
     one-electron contribution =  -23773.08229186 Ry
     hartree contribution      =   11982.19971210 Ry
     xc contribution           =    -494.80472379 Ry
     ewald contribution        =    9310.44394373 Ry
     electric field correction =       0.00055304 Ry

     convergence has been achieved in  71 iterations

     Forces acting on atoms (cartesian axes, Ry/au):

     atom    1 type  1   force =     0.00002089   -0.00035033    0.11623159
     atom    2 type  1   force =    -0.00014413    0.00031609   -0.16021301
     atom    3 type  2   force =     0.00004554    0.00032674   -0.05319774
     atom    4 type  2   force =     0.00007129   -0.00041599    0.02649912
     atom    5 type  2   force =    -0.00501873   -0.00226066   -0.01002305
     atom    6 type  2   force =     0.00670175   -0.00183392   -0.01075490
     atom    7 type  1   force =    -0.00038684   -0.00639869    0.04569512
     atom    8 type  1   force =     0.00056979    0.01079198    0.08184203
     atom    9 type  2   force =    -0.00001693    0.00036150   -0.00015858
     atom   10 type  2   force =    -0.00140109    0.00154729   -0.05457166
     atom   11 type  2   force =     0.00074095    0.00028134   -0.00023293
     atom   12 type  2   force =    -0.00116037    0.00020671    0.00018847
     atom   13 type  1   force =    -0.00022926   -0.00091787    0.00043919
     atom   14 type  1   force =     0.00046978    0.00127624   -0.00024097
     atom   15 type  2   force =     0.00000492   -0.00050832    0.00039031
     atom   16 type  2   force =    -0.00030737    0.00060842    0.00101120
     atom   17 type  2   force =    -0.00072409   -0.00043687    0.00017871
     atom   18 type  2   force =     0.00070349   -0.00015579    0.00020087
     atom   19 type  1   force =    -0.00053282   -0.00049951   -0.00039413
     atom   20 type  1   force =     0.00038026   -0.00044151   -0.00029413
     atom   21 type  2   force =     0.00007537    0.00015139    0.09913982
     atom   22 type  2   force =     0.00032856   -0.00042287    0.00078171
     atom   23 type  2   force =    -0.07949518   -0.00002274   -0.03162237
     atom   24 type  2   force =     0.07941466    0.00040695   -0.03165693
     atom   25 type  1   force =     0.00017652   -0.00036577    0.11649576
     atom   26 type  1   force =    -0.00008974   -0.00141927   -0.16034892
     atom   27 type  2   force =     0.00013438   -0.00011750   -0.05158162
     atom   28 type  2   force =     0.00003093    0.00129744    0.02169030
     atom   29 type  2   force =    -0.00383627    0.00422900   -0.01242146
     atom   30 type  2   force =     0.00542007    0.00484149   -0.01301435
     atom   31 type  1   force =    -0.00015222    0.00313603    0.03066887
     atom   32 type  1   force =     0.00051477   -0.01302034    0.08271021
     atom   33 type  2   force =     0.00017895   -0.00052240    0.00022200
     atom   34 type  2   force =    -0.00049745    0.00168345   -0.06793560
     atom   35 type  2   force =    -0.00043885   -0.00063788   -0.00009396
     atom   36 type  2   force =     0.00006538   -0.00002312   -0.00001300
     atom   37 type  1   force =    -0.00012564   -0.00122510   -0.00011751
     atom   38 type  1   force =     0.00047903   -0.00035129    0.00018550
     atom   39 type  2   force =     0.00016395    0.00033446   -0.00005517
     atom   40 type  2   force =    -0.00012901   -0.00022935    0.00017184
     atom   41 type  2   force =     0.00116163   -0.00011476    0.00007725
     atom   42 type  2   force =    -0.00104432   -0.00036175    0.00023436
     atom   43 type  1   force =     0.00046424   -0.00103821    0.00053096
     atom   44 type  1   force =     0.00032347    0.00067065   -0.00043626
     atom   45 type  2   force =     0.00007517   -0.00002803    0.09896165
     atom   46 type  2   force =    -0.07950915   -0.00001361   -0.03163734
     atom   47 type  2   force =     0.07944673    0.00043179   -0.03165946
     atom   48 type  3   force =    -0.00079769    0.00038694   -0.00061621
     atom   49 type  3   force =    -0.00102973    0.00026964   -0.00006612
     atom   50 type  4   force =    -0.00050666    0.00076334   -0.00014124
     atom   51 type  5   force =    -0.00113591    0.00019601   -0.00018544
     atom   52 type  5   force =    -0.00001055   -0.00044110    0.00019979
     atom   53 type  5   force =     0.00050814    0.00021913   -0.00059360
     atom   54 type  5   force =    -0.00009417   -0.00164938    0.00009018
     atom   55 type  5   force =    -0.00051527    0.00011159    0.00031218
     atom   56 type  2   force =     0.00738627   -0.00409816    0.00424213
     atom   57 type  5   force =    -0.00672741    0.00547649   -0.00511349

     Total force =     0.399304     Total SCF correction =     0.000836
  @ DRIVER MODE: Message from server: STATUS
  @ DRIVER MODE: Message from server: GETFORCE
  @ DRIVER MODE: Returning v,forces,stress,ensemble

     Writing output data file ./calc.save/
  @ DRIVER MODE: Message from server: EXIT
  @ DRIVE MODE: Exiting

     General routines

     Parallel routines

   This run was terminated on:  22: 9:16  23Sep2021

   JOB DONE.