     Program PWSCF v.6.7GPU starts on 22Sep2021 at 21:58: 8

     R & G space division:  proc/nbgrp/npool/nimage =       8
     Reading input from /storage/home/hcoda1/3/ntian30/research/carbon/CxH_vib/H2O_calc/ads_slab/CH3N2HO_c/out_0000/pw.inp
Warning: card &CELL ignored
Warning: card   CELL_DYNAMICS='IPI', ignored
Warning: card / ignored

     Current dimensions of program PWSCF are:
     Max number of different atomic species (ntypx) = 10
     Max number of k-points (npk) =  40000
     Max angular momentum in pseudopotentials (lmaxx) =  3
     Presently no symmetry can be used with electric field

     Message from routine cell_base_init:
     DEPRECATED: use true lattice parameter, not A to a.u. conversion factor

     IMPORTANT: XC functional enforced from input :
     Exchange-correlation= BEEF-VDW
                           (   1   4  43  14   2   0   0)
     Any further DFT definition will be discarded
     Please, verify this is what you really want

  @ DRIVER MODE: Connecting to
 qe_1139763_2941007.sched-torque.pace.gatech.eduj33twg6l_scratch
  using UNIX socket
  @ DRIVER MODE: Message from server: STATUS
  @ DRIVER MODE: Message from server: INIT
  @ DRIVER MODE: Receiving replica           0          -1
  @ DRIVER MODE: Receiving encoded integer          25
  @ DRIVER MODE:  SCF:  T  FORCE:  T  STRESS:  F  VC:  F  ENSEMBLE:  F
  @ DRIVER MODE:  SCF:  T  FORCE:  T  STRESS:  F  VC:  F  ENSEMBLE:  F

     Using Slab Decomposition

     bravais-lattice index     =            0
     lattice parameter (alat)  =       1.8897  a.u.
     unit-cell volume          =    6658.9804 (a.u.)^3
     number of atoms/cell      =           55
     number of atomic types    =            5
     number of electrons       =       402.00
     number of Kohn-Sham states=          211
     kinetic-energy cutoff     =      29.3995  Ry
     charge density cutoff     =     293.9946  Ry
     scf convergence threshold =      7.3E-08
     mixing beta               =       0.0500
     number of iterations used =            8  plain     mixing
     Exchange-correlation= BEEF-VDW
                           (   1   4  43  14   2   0   0)

     celldm(1)=   1.889726  celldm(2)=   0.000000  celldm(3)=   0.000000
     celldm(4)=   0.000000  celldm(5)=   0.000000  celldm(6)=   0.000000

     crystal axes: (cart. coord. in units of alat)
               a(1) = (   6.579727   0.000000   0.000000 )
               a(2) = (  -0.000775   5.961596   0.000000 )
               a(3) = (   0.000000   0.000000  25.155947 )

     reciprocal axes: (cart. coord. in units 2 pi/alat)
               b(1) = (  0.151982  0.000020  0.000000 )
               b(2) = (  0.000000  0.167740  0.000000 )
               b(3) = (  0.000000  0.000000  0.039752 )

     PseudoPot. # 1 for Ti read from file:
     /storage/coda1/p-amedford6/0/shared/rich_project_chbe-medford/medford-share/data/pseudos_module/espresso/nninc/pbe/van/Ti.UPF
     MD5 check sum: 8e4df49b7f0d34bbd5052bf3f5ea0213
     Pseudo is Ultrasoft, Zval = 12.0
     Generated by new atomic code, or converted to UPF format
     Using radial grid of  851 points,  6 beta functions with:
                l(1) =   0
                l(2) =   0
                l(3) =   1
                l(4) =   1
                l(5) =   2
                l(6) =   2
     Q(r) pseudized with  8 coefficients,  rinner =    1.000   1.000   1.000
                                                       1.000   1.000

     PseudoPot. # 2 for O  read from file:
     /storage/coda1/p-amedford6/0/shared/rich_project_chbe-medford/medford-share/data/pseudos_module/espresso/nninc/pbe/van/O.UPF
     MD5 check sum: 78c19812648e8988a0fe644b0f25305e
     Pseudo is Ultrasoft, Zval =  6.0
     Generated by new atomic code, or converted to UPF format
     Using radial grid of  737 points,  4 beta functions with:
                l(1) =   0
                l(2) =   0
                l(3) =   1
                l(4) =   1
     Q(r) pseudized with  8 coefficients,  rinner =    0.800   0.800   0.800

     PseudoPot. # 3 for N  read from file:
     /storage/coda1/p-amedford6/0/shared/rich_project_chbe-medford/medford-share/data/pseudos_module/espresso/nninc/pbe/van/N.UPF
     MD5 check sum: 90d10febe142ad51ac9d5be1deb811c4
     Pseudo is Ultrasoft, Zval =  5.0
     Generated by new atomic code, or converted to UPF format
     Using radial grid of  729 points,  4 beta functions with:
                l(1) =   0
                l(2) =   0
                l(3) =   1
                l(4) =   1
     Q(r) pseudized with  8 coefficients,  rinner =    0.800   0.800   0.800

     PseudoPot. # 4 for C  read from file:
     /storage/coda1/p-amedford6/0/shared/rich_project_chbe-medford/medford-share/data/pseudos_module/espresso/nninc/pbe/van/C.UPF
     MD5 check sum: 1a69bf6b8db32088f5b2163dbdb77a27
     Pseudo is Ultrasoft, Zval =  4.0
     Generated by new atomic code, or converted to UPF format
     Using radial grid of  721 points,  4 beta functions with:
                l(1) =   0
                l(2) =   0
                l(3) =   1
                l(4) =   1
     Q(r) pseudized with  8 coefficients,  rinner =    0.800   0.800   0.800

     PseudoPot. # 5 for H  read from file:
     /storage/coda1/p-amedford6/0/shared/rich_project_chbe-medford/medford-share/data/pseudos_module/espresso/nninc/pbe/van/H.UPF
     MD5 check sum: b5ee9d7bfd3a09ee7748110bda690ff7
     Pseudo is Ultrasoft, Zval =  1.0
     Generated by new atomic code, or converted to UPF format
     Using radial grid of  615 points,  1 beta functions with:
                l(1) =   0
     Q(r) pseudized with  8 coefficients,  rinner =    0.800

     atomic species   valence    mass     pseudopotential
        Ti1           12.00    47.86700     Ti( 1.00)
        O1             6.00    15.99900     O ( 1.00)
        N1             5.00    14.00700     N ( 1.00)
        C1             4.00    12.01100     C ( 1.00)
        H1             1.00     1.00800     H ( 1.00)

     No symmetry found

   Cartesian axes

     site n.     atom                  positions (alat units)
         1           Ti1 tau(   1) = (   0.0004258   2.9801865   6.0000000  )
         2           Ti1 tau(   2) = (   3.2906075   1.4906267   6.0002472  )
         3           O1  tau(   3) = (   0.0006271   0.0005054   7.9858123  )
         4           O1  tau(   4) = (   3.2906025   0.0005020   7.3038282  )
         5           O1  tau(   5) = (   4.5942328   1.4918067   9.2879030  )
         6           O1  tau(   6) = (   1.9868534   1.4903216   9.2879459  )
         7           Ti1 tau(   7) = (   3.2907910   2.8959150   9.1758416  )
         8           Ti1 tau(   8) = (   0.0015273   1.4827037   9.2680791  )
         9           O1  tau(   9) = (   3.2989311   0.0219330  11.3020621  )
        10           O1  tau(  10) = (   0.0116148   5.9584955  10.6183126  )
        11           O1  tau(  11) = (   1.3029919   1.4976758  12.6257209  )
        12           O1  tau(  12) = (   5.3026591   1.4951023  12.6306759  )
        13           Ti1 tau(  13) = (   0.0286689   2.8598525  12.6759356  )
        14           Ti1 tau(  14) = (   3.3054201   1.5706400  12.4108957  )
        15           O1  tau(  15) = (   0.0066217   5.9386728  14.6456674  )
        16           O1  tau(  16) = (   3.2936494   5.9217248  13.9190535  )
        17           O1  tau(  17) = (   4.5783085   1.5227378  16.0725395  )
        18           O1  tau(  18) = (   2.0661487   1.5008106  16.0935948  )
        19           Ti1 tau(  19) = (   3.3004316   2.9577776  15.6622982  )
        20           Ti1 tau(  20) = (   6.5114840   1.4532315  15.8500040  )
        21           O1  tau(  21) = (   3.2904802   0.0005063   4.7018136  )
        22           O1  tau(  22) = (   0.0101108   5.9483577  17.1703567  )
        23           O1  tau(  23) = (   1.3043587   1.4918075   6.0039043  )
        24           O1  tau(  24) = (   5.2767064   1.4903225   6.0039473  )
        25           Ti1 tau(  25) = (   0.0000382   5.9609847   6.0000000  )
        26           Ti1 tau(  26) = (   3.2902200   4.4714249   6.0002472  )
        27           O1  tau(  27) = (   0.0002396   2.9813036   7.9858123  )
        28           O1  tau(  28) = (   3.2902150   2.9813002   7.3038282  )
        29           O1  tau(  29) = (   4.5938453   4.4726049   9.2879030  )
        30           O1  tau(  30) = (   1.9864658   4.4711199   9.2879459  )
        31           Ti1 tau(  31) = (   3.2891106   5.8743827   9.1763621  )
        32           Ti1 tau(  32) = (   0.0006254   4.4649316   9.2693709  )
        33           O1  tau(  33) = (   3.2985377   2.9527140  11.2683515  )
        34           O1  tau(  34) = (   0.0092240   2.9805883  10.6323155  )
        35           O1  tau(  35) = (   1.2869011   4.4751273  12.6337776  )
        36           O1  tau(  36) = (   5.3033013   4.4751711  12.6363117  )
        37           Ti1 tau(  37) = (   6.5677423   5.8343599  12.5653580  )
        38           Ti1 tau(  38) = (   3.2861748   4.6640272  12.6826305  )
        39           O1  tau(  39) = (   0.0268303   2.9326313  14.6927244  )
        40           O1  tau(  40) = (   3.2973518   2.9805258  13.8830516  )
        41           O1  tau(  41) = (   4.5656241   4.3944478  16.1024780  )
        42           O1  tau(  42) = (   2.0389263   4.3990843  16.1000718  )
        43           Ti1 tau(  43) = (   3.2183859   5.9292641  16.3327267  )
        44           Ti1 tau(  44) = (   6.5399727   4.6159235  16.0325440  )
        45           O1  tau(  45) = (   3.2900926   2.9813045   4.7018136  )
        46           O1  tau(  46) = (   1.3039711   4.4726057   6.0039043  )
        47           O1  tau(  47) = (   5.2763189   4.4711207   6.0039473  )
        48           N1  tau(  48) = (   0.1383159   2.7169024  18.7005470  )
        49           N1  tau(  49) = (   0.0454196   2.8879789  17.5111406  )
        50           C1  tau(  50) = (   0.1807782   3.8735959  19.6428767  )
        51           H1  tau(  51) = (   6.4938760   4.8136915  19.1652781  )
        52           H1  tau(  52) = (   6.0945921   3.6282151  20.4682347  )
        53           H1  tau(  53) = (   1.2016282   3.9139503  20.0277151  )
        54           O1  tau(  54) = (   3.2907091   5.9158944  18.1602194  )
        55           H1  tau(  55) = (   3.1351319   0.7410148  18.7017648  )

     number of k points=    10  Fermi-Dirac smearing, width (Ry)=  0.0073
                       cart. coord. in units 2pi/alat
        k(    1) = (   0.0000000   0.0000000   0.0000000), wk =   0.1250000
        k(    2) = (   0.0000000   0.0419351   0.0000000), wk =   0.2500000
        k(    3) = (   0.0000000  -0.0838702   0.0000000), wk =   0.1250000
        k(    4) = (   0.0379955   0.0000049   0.0000000), wk =   0.2500000
        k(    5) = (   0.0379955   0.0419400   0.0000000), wk =   0.2500000
        k(    6) = (   0.0379955  -0.0838652   0.0000000), wk =   0.2500000
        k(    7) = (   0.0379955  -0.0419301   0.0000000), wk =   0.2500000
        k(    8) = (  -0.0759910  -0.0000099   0.0000000), wk =   0.1250000
        k(    9) = (  -0.0759910   0.0419252   0.0000000), wk =   0.2500000
        k(   10) = (  -0.0759910  -0.0838800   0.0000000), wk =   0.1250000

     Initial potential from superposition of free atoms

     starting charge  385.99915, renormalised to  402.00000

     negative rho (up, down):  1.430E-02 0.000E+00

     %%%%%%%%%%%%%%%%%%%%%%%%%%%%%%%%%%%%%%%%%%%%%%%%%%%%%%%%%%%%%%%%%%%%%%%%
     %                                                                      %
     % You are using vdW-DF, which was implemented by the Thonhauser group. %
     % Please cite the following two papers that made this development      %
     % possible and the two reviews that describe the various versions:     %
     %                                                                      %
     %   T. Thonhauser et al., PRL 115, 136402 (2015).                      %
     %   T. Thonhauser et al., PRB 76, 125112 (2007).                       %
     %   K. Berland et al., Rep. Prog. Phys. 78, 066501 (2015).             %
     %   D.C. Langreth et al., J. Phys.: Condens. Matter 21, 084203 (2009). %
     %                                                                      %
     %                                                                      %
     % If you are calculating the stress with vdW-DF, please also cite:     %
     %                                                                      %
     %   R. Sabatini et al., J. Phys.: Condens. Matter 24, 424209 (2012).   %
     %                                                                      %
     %%%%%%%%%%%%%%%%%%%%%%%%%%%%%%%%%%%%%%%%%%%%%%%%%%%%%%%%%%%%%%%%%%%%%%%%

     Adding external electric field

     Computed dipole along edir(3) :
        Dipole              -12.0462 Ry au,        -30.6184 Debye
        Dipole field         -0.0227 Ry au,

        Potential amp.        2.1073 Ry
        Total length         46.3494 bohr

     Starting wfcs are  304 atomic wfcs
  @ DRIVER MODE: Message from server: STATUS
  @ DRIVER MODE: Message from server: POSDATA
  @ DRIVER MODE: Reading and sharing cell
  @ DRIVER MODE: Reading and sharing positions
  @ DRIVER MODE: Received positions

     Self-consistent Calculation

     iteration #  1     ecut=    29.40 Ry     beta= 0.05
     Davidson diagonalization with overlap
     ethr =  1.00E-02,  avg # of iterations =  3.4

[...]

     total energy              =   -2441.01790246 Ry
     estimated scf accuracy    <    6027.71706835 Ry

[...]

     iteration #  3     ecut=    29.40 Ry     beta= 0.05
     Davidson diagonalization with overlap
     c_bands:  1 eigenvalues not converged
     ethr =  1.00E-02,  avg # of iterations = 16.6

[...]

     iteration # 66     ecut=    29.40 Ry     beta= 0.05
     Davidson diagonalization with overlap
     c_bands:  1 eigenvalues not converged
     ethr =  6.30E-08,  avg # of iterations =  8.9

[...]

     total energy              =   -2972.75306315 Ry
     estimated scf accuracy    <       0.00000008 Ry

     iteration # 86     ecut=    29.40 Ry     beta= 0.05
     Davidson diagonalization with overlap
     ethr =  2.01E-11,  avg # of iterations =  3.9

     negative rho (up, down):  1.493E-02 0.000E+00

     Adding external electric field

     Computed dipole along edir(3) :
        Dipole                0.6522 Ry au,          1.6577 Debye
        Dipole field          0.0012 Ry au,

        Potential amp.       -0.1141 Ry
        Total length         46.3494 bohr

     End of self-consistent calculation

          k = 0.0000 0.0000 0.0000 ( 18029 PWs)   bands (ev):

   -56.2020 -56.1682 -55.7878 -55.7542 -55.5830 -55.5476 -55.4977 -55.3486
   -55.3142 -55.3130 -55.1686 -55.1550 -55.0283 -55.0045 -54.9735 -54.9396
   -32.6524 -32.4945 -32.4676 -32.3605 -32.2765 -32.2679 -32.2674 -32.0316
   -32.0066 -31.9870 -31.9350 -31.9297 -31.9260 -31.8949 -31.8462 -31.8200
   -31.7923 -31.7700 -31.7682 -31.7257 -31.7104 -31.6978 -31.6849 -31.6555
   -31.6378 -31.6248 -31.5544 -31.5331 -31.5245 -31.5210 -31.4989 -31.4652
   -31.4350 -31.4022 -31.3702 -31.3633 -31.3579 -31.3067 -31.2851 -31.2831
   -31.2575 -31.2403 -31.2403 -31.2366 -31.2158 -31.1888 -31.1043 -30.9924
   -18.8071 -16.4956 -16.4419 -16.1609 -15.9540 -15.7792 -15.6950 -15.6830
   -15.6335 -15.5124 -15.5006 -15.3888 -15.3012 -15.2256 -15.1984 -15.1954
   -15.1017 -15.0574 -15.0146 -14.9900 -14.9782 -14.9704 -14.9389 -14.8314
   -14.8238 -14.7953 -14.6972 -14.6857 -14.5820 -14.2860 -14.2702 -13.4713
   -13.3591 -11.4397  -6.8922  -4.3522  -4.1581  -4.0051  -3.9794  -3.9366
    -3.7090  -3.4965  -3.4109  -3.2484  -3.1946  -3.1154  -2.9180  -2.9082
    -2.8537  -2.7829  -2.7078  -2.6489  -2.6023  -2.5856  -2.4905  -2.4525
    -2.4317  -2.4287  -2.3951  -2.3796  -2.2550  -2.2526  -2.2215  -2.1717
    -2.1125  -2.0980  -2.0310  -2.0220  -2.0052  -1.9574  -1.9218  -1.8750
    -1.8030  -1.7881  -1.6541  -1.6294  -1.6220  -1.5414  -1.5160  -1.5072
    -1.4574  -1.2962  -1.2254  -1.1782  -1.1746  -1.0364  -1.0224  -0.9852
    -0.9045  -0.8691  -0.7802  -0.7694  -0.7592  -0.7503  -0.6671  -0.6312
    -0.6154  -0.5894  -0.4069  -0.3782  -0.3165  -0.2642  -0.1647  -0.1208
    -0.1141  -0.1054  -0.0661  -0.0099   0.0117   0.0264   0.1252   0.1498
     0.2043   0.2724   0.3076   0.3800   0.4001   0.4023   0.4138   0.4690
     0.5610   0.6532   0.6960   0.7115   0.7801   0.7943   0.9311   0.9446
     1.0507   1.0923   1.1009   1.1618   1.2818   1.5648   1.5991   1.6383
     2.7573   3.0243   3.1519   3.3087   3.4563   3.5526   3.8446   3.8900
     3.9288   3.9522   3.9945

[...]

          k = 0.0380-0.0419 0.0000 ( 17876 PWs)   bands (ev):

[...]

          k =-0.0760-0.0000 0.0000 ( 17886 PWs)   bands (ev):

[...]

          k =-0.0760-0.0839 0.0000 ( 17948 PWs)   bands (ev):

   -56.1852 -56.1849 -55.7717 -55.7702 -55.5823 -55.5409 -55.5042 -55.3359
   -55.3255 -55.3147 -55.1667 -55.1531 -55.0302 -55.0063 -54.9566 -54.9564
   -32.4801 -32.4799 -32.4685 -32.4683 -32.3127 -32.3122 -32.0920 -32.0884
   -31.9658 -31.9631 -31.9604 -31.9596 -31.8699 -31.8468 -31.8212 -31.8203
   -31.7829 -31.7630 -31.7624 -31.7290 -31.7209 -31.6909 -31.6697 -31.6580
   -31.6045 -31.5982 -31.5747 -31.5582 -31.5423 -31.5421 -31.5261 -31.5059
   -31.4272 -31.4068 -31.3730 -31.3692 -31.3559 -31.3010 -31.2960 -31.2959
   -31.2899 -31.2495 -31.2458 -31.2407 -31.1851 -31.1846 -31.1469 -31.1465
   -18.8043 -16.4329 -15.9043 -15.8951 -15.7687 -15.7637 -15.5893 -15.5754
   -15.5754 -15.4916 -15.4522 -15.4292 -15.2866 -15.2731 -15.2128 -15.1875
   -15.1706 -15.1478 -15.1382 -15.1054 -15.0950 -15.0426 -14.9857 -14.9787
   -14.9197 -14.9121 -14.7547 -14.6926 -14.6466 -14.4989 -14.4053 -13.4624
   -13.4618 -11.4376  -6.9059  -4.2927  -4.1789  -3.9673  -3.9312  -3.0695
    -3.0209  -2.9183  -2.8812  -2.8001  -2.7877  -2.6769  -2.6603  -2.6140
    -2.5977  -2.5892  -2.5439  -2.4977  -2.4878  -2.4654  -2.4391  -2.4236
    -2.4117  -2.3735  -2.3241  -2.3077  -2.3022  -2.2769  -2.1747  -2.1444
    -2.1327  -2.1243  -2.0969  -2.0727  -2.0299  -1.9587  -1.9259  -1.8876
    -1.8757  -1.8057  -1.7437  -1.6949  -1.6792  -1.6116  -1.5545  -1.5297
    -1.4520  -1.4053  -1.2914  -1.2787  -1.2607  -1.1979  -1.1751  -1.1207
    -1.1010  -1.0393  -0.9899  -0.9667  -0.9622  -0.9483  -0.8806  -0.8195
    -0.7104  -0.6637  -0.6478  -0.6136  -0.6089  -0.5801  -0.5455  -0.5086
    -0.4084  -0.3947  -0.3826  -0.3308  -0.3211  -0.2469  -0.1713  -0.0557
     0.0651   0.1420   0.1519   0.1719   0.2113   0.2935   0.3715   0.4122
     0.4577   0.5176   0.5602   0.5998   0.6655   0.8072   0.8590   0.8811
     0.9655   1.0026   1.0733   1.1606   1.4390   1.4498   1.4543   1.4552
     2.8092   3.5735   3.5759   3.6054   3.6163   3.7308   3.8111   3.8288
     3.9535   4.0113   4.1828

     the Fermi energy is     2.9607 ev

!    total energy              =   -2972.75307070 Ry
     estimated scf accuracy    <       0.00000005 Ry
     smearing contrib. (-TS)   =      -0.01283744 Ry
     internal energy E=F+TS    =   -2972.74023326 Ry

     The total energy is F=E-TS. E is the sum of the following terms:
     one-electron contribution =  -23538.59110545 Ry
     hartree contribution      =   11862.90809702 Ry
     xc contribution           =    -493.07020467 Ry
     ewald contribution        =    9196.01217712 Ry
     electric field correction =       0.00080272 Ry

     convergence has been achieved in  86 iterations

     Forces acting on atoms (cartesian axes, Ry/au):

     atom    1 type  1   force =     0.00008131   -0.00036410    0.10678282
     atom    2 type  1   force =    -0.00013097    0.00016917   -0.16546746
     atom    3 type  2   force =     0.00006795   -0.00044721   -0.03889935
     atom    4 type  2   force =     0.00000221    0.00016149    0.03537517
     atom    5 type  2   force =    -0.00262039   -0.00318232   -0.00912767
     atom    6 type  2   force =     0.00444056   -0.00251630   -0.00941305
     atom    7 type  1   force =    -0.00001220    0.00132610    0.03452313
     atom    8 type  1   force =     0.00023891    0.01555671    0.06082198
     atom    9 type  2   force =    -0.00018099   -0.00045887    0.00007126
     atom   10 type  2   force =    -0.00255720    0.00087932   -0.04253996
     atom   11 type  2   force =    -0.00100806    0.00036496    0.00038413
     atom   12 type  2   force =     0.00050201    0.00026302    0.00027982
     atom   13 type  1   force =     0.00045097    0.00067263   -0.00041504
     atom   14 type  1   force =     0.00026054   -0.00015536    0.00041008
     atom   15 type  2   force =     0.00022834    0.00064085    0.00007205
     atom   16 type  2   force =    -0.00009553   -0.00037547   -0.00076451
     atom   17 type  2   force =    -0.00014688    0.00021103    0.00006177
     atom   18 type  2   force =     0.00017197   -0.00002508   -0.00015347
     atom   19 type  1   force =     0.00020695   -0.00095259    0.00009969
     atom   20 type  1   force =     0.00016925    0.00018906   -0.00039443
     atom   21 type  2   force =     0.00003254    0.00013419    0.10041292
     atom   22 type  2   force =     0.00015253    0.00066965    0.00000293
     atom   23 type  2   force =    -0.07681649   -0.00000597   -0.03010480
     atom   24 type  2   force =     0.07668551    0.00046518   -0.03014964
     atom   25 type  1   force =    -0.00008694   -0.00045530    0.10716686
     atom   26 type  1   force =    -0.00020839   -0.00131478   -0.16552056
     atom   27 type  2   force =     0.00010044   -0.00031754   -0.03719044
     atom   28 type  2   force =     0.00004602   -0.00000358    0.03054162
     atom   29 type  2   force =    -0.00565766    0.00365822   -0.00699849
     atom   30 type  2   force =     0.00729237    0.00400706   -0.00727068
     atom   31 type  1   force =    -0.00011012   -0.00228776    0.02270710
     atom   32 type  1   force =     0.00032973   -0.01776012    0.06128628
     atom   33 type  2   force =    -0.00017182    0.00019974   -0.00015662
     atom   34 type  2   force =    -0.00143595    0.00001392   -0.05425351
     atom   35 type  2   force =    -0.00002683   -0.00017974   -0.00021044
     atom   36 type  2   force =    -0.00029318    0.00004796   -0.00005811
     atom   37 type  1   force =     0.00013211   -0.00005998    0.00055815
     atom   38 type  1   force =     0.00033781    0.00001298    0.00011106
     atom   39 type  2   force =    -0.00011815    0.00029365   -0.00036402
     atom   40 type  2   force =     0.00000941    0.00030843    0.00047193
     atom   41 type  2   force =    -0.00023983    0.00021735   -0.00011722
     atom   42 type  2   force =     0.00021947   -0.00000201   -0.00002640
     atom   43 type  1   force =     0.00021088    0.00047768    0.00036077
     atom   44 type  1   force =     0.00032359    0.00016639   -0.00040085
     atom   45 type  2   force =     0.00003487    0.00013403    0.10025015
     atom   46 type  2   force =    -0.07679202    0.00003477   -0.03009312
     atom   47 type  2   force =     0.07665205    0.00047255   -0.03011240
     atom   48 type  3   force =     0.00034043    0.00074499   -0.00121183
     atom   49 type  3   force =     0.00033300   -0.00044868   -0.00038119
     atom   50 type  4   force =     0.00011037   -0.00002594   -0.00019022
     atom   51 type  5   force =    -0.00019460   -0.00054788   -0.00061251
     atom   52 type  5   force =    -0.00020248   -0.00043103   -0.00018450
     atom   53 type  5   force =     0.00019646    0.00008981   -0.00048862
     atom   54 type  2   force =     0.00017637   -0.00018221    0.00166092
     atom   55 type  5   force =    -0.00143023   -0.00008305   -0.00114151

     Total force =     0.380790     Total SCF correction =     0.000522
  @ DRIVER MODE: Message from server: STATUS
  @ DRIVER MODE: Message from server: GETFORCE
  @ DRIVER MODE: Returning v,forces,stress,ensemble

     Writing output data file ./calc.save/
  @ DRIVER MODE: Message from server: EXIT
  @ DRIVE MODE: Exiting

     General routines

     Parallel routines

   This run was terminated on:  22:24:52  22Sep2021

   JOB DONE.