     Program PWSCF v.6.7GPU starts on 16Sep2021 at  4:28:37

     R & G space division:  proc/nbgrp/npool/nimage =      10
     Reading input from /storage/home/hcoda1/3/ntian30/research/carbon/CxH_vib/H2O_calc/ads_slab/CH2NH2O_a/out_0039/pw.inp
Warning: card &CELL ignored
Warning: card   CELL_DYNAMICS='IPI', ignored
Warning: card / ignored

     Current dimensions of program PWSCF are:
     Max number of different atomic species (ntypx) = 10
     Max number of k-points (npk) =  40000
     Max angular momentum in pseudopotentials (lmaxx) =  3
     Presently no symmetry can be used with electric field

     Message from routine cell_base_init:
     DEPRECATED: use true lattice parameter, not A to a.u. conversion factor

     IMPORTANT: XC functional enforced from input :
     Exchange-correlation= BEEF-VDW
                           (   1   4  43  14   2   0   0)
     Any further DFT definition will be discarded
     Please, verify this is what you really want

  @ DRIVER MODE: Connecting to
 qe_1139763_2852607.sched-torque.pace.gatech.edukyuxtyd0_scratch
  using UNIX socket
  @ DRIVER MODE: Message from server: STATUS
  @ DRIVER MODE: Message from server: INIT
  @ DRIVER MODE: Receiving replica           0          -1
  @ DRIVER MODE: Receiving encoded integer          25
  @ DRIVER MODE:  SCF:  T  FORCE:  T  STRESS:  F  VC:  F  ENSEMBLE:  F
  @ DRIVER MODE:  SCF:  T  FORCE:  T  STRESS:  F  VC:  F  ENSEMBLE:  F

     Using Slab Decomposition

     bravais-lattice index     =            0
     lattice parameter (alat)  =       1.8897  a.u.
     unit-cell volume          =    6658.9804 (a.u.)^3
     number of atoms/cell      =           54
     number of atomic types    =            5
     number of electrons       =       397.00
     number of Kohn-Sham states=          208
     kinetic-energy cutoff     =      29.3995  Ry
     charge density cutoff     =     293.9946  Ry
     scf convergence threshold =      7.3E-08
     mixing beta               =       0.0500
     number of iterations used =            8  plain     mixing
     Exchange-correlation= BEEF-VDW
                           (   1   4  43  14   2   0   0)

     celldm(1)=   1.889726  celldm(2)=   0.000000  celldm(3)=   0.000000
     celldm(4)=   0.000000  celldm(5)=   0.000000  celldm(6)=   0.000000

     crystal axes: (cart. coord. in units of alat)
               a(1) = (   6.579727   0.000000   0.000000 )
               a(2) = (  -0.000775   5.961596   0.000000 )
               a(3) = (   0.000000   0.000000  25.155947 )

     reciprocal axes: (cart. coord. in units 2 pi/alat)
               b(1) = (  0.151982  0.000020  0.000000 )
               b(2) = (  0.000000  0.167740  0.000000 )
               b(3) = (  0.000000  0.000000  0.039752 )

     PseudoPot. # 1 for Ti read from file:
     /storage/coda1/p-amedford6/0/shared/rich_project_chbe-medford/medford-share/data/pseudos_module/espresso/nninc/pbe/van/Ti.UPF
     MD5 check sum: 8e4df49b7f0d34bbd5052bf3f5ea0213
     Pseudo is Ultrasoft, Zval = 12.0
     Generated by new atomic code, or converted to UPF format
     Using radial grid of  851 points,  6 beta functions with:
                l(1) =   0
                l(2) =   0
                l(3) =   1
                l(4) =   1
                l(5) =   2
                l(6) =   2
     Q(r) pseudized with  8 coefficients,  rinner =    1.000   1.000   1.000
                                                       1.000   1.000

     PseudoPot. # 2 for O  read from file:
     /storage/coda1/p-amedford6/0/shared/rich_project_chbe-medford/medford-share/data/pseudos_module/espresso/nninc/pbe/van/O.UPF
     MD5 check sum: 78c19812648e8988a0fe644b0f25305e
     Pseudo is Ultrasoft, Zval =  6.0
     Generated by new atomic code, or converted to UPF format
     Using radial grid of  737 points,  4 beta functions with:
                l(1) =   0
                l(2) =   0
                l(3) =   1
                l(4) =   1
     Q(r) pseudized with  8 coefficients,  rinner =    0.800   0.800   0.800

     PseudoPot. # 3 for N  read from file:
     /storage/coda1/p-amedford6/0/shared/rich_project_chbe-medford/medford-share/data/pseudos_module/espresso/nninc/pbe/van/N.UPF
     MD5 check sum: 90d10febe142ad51ac9d5be1deb811c4
     Pseudo is Ultrasoft, Zval =  5.0
     Generated by new atomic code, or converted to UPF format
     Using radial grid of  729 points,  4 beta functions with:
                l(1) =   0
                l(2) =   0
                l(3) =   1
                l(4) =   1
     Q(r) pseudized with  8 coefficients,  rinner =    0.800   0.800   0.800

     PseudoPot. # 4 for C  read from file:
     /storage/coda1/p-amedford6/0/shared/rich_project_chbe-medford/medford-share/data/pseudos_module/espresso/nninc/pbe/van/C.UPF
     MD5 check sum: 1a69bf6b8db32088f5b2163dbdb77a27
     Pseudo is Ultrasoft, Zval =  4.0
     Generated by new atomic code, or converted to UPF format
     Using radial grid of  721 points,  4 beta functions with:
                l(1) =   0
                l(2) =   0
                l(3) =   1
                l(4) =   1
     Q(r) pseudized with  8 coefficients,  rinner =    0.800   0.800   0.800

     PseudoPot. # 5 for H  read from file:
     /storage/coda1/p-amedford6/0/shared/rich_project_chbe-medford/medford-share/data/pseudos_module/espresso/nninc/pbe/van/H.UPF
     MD5 check sum: b5ee9d7bfd3a09ee7748110bda690ff7
     Pseudo is Ultrasoft, Zval =  1.0
     Generated by new atomic code, or converted to UPF format
     Using radial grid of  615 points,  1 beta functions with:
                l(1) =   0
     Q(r) pseudized with  8 coefficients,  rinner =    0.800

     atomic species   valence    mass     pseudopotential
        Ti1           12.00    47.86700     Ti( 1.00)
        O1             6.00    15.99900     O ( 1.00)
        N1             5.00    14.00700     N ( 1.00)
        C1             4.00    12.01100     C ( 1.00)
        H1             1.00     1.00800     H ( 1.00)

     No symmetry found

   Cartesian axes

     site n.     atom                  positions (alat units)
         1           Ti1 tau(   1) = (   0.0004258   2.9801865   6.0000000  )
         2           Ti1 tau(   2) = (   3.2906075   1.4906267   6.0002472  )
         3           O1  tau(   3) = (   0.0006271   0.0005054   7.9858123  )
         4           O1  tau(   4) = (   3.2906025   0.0005020   7.3038282  )
         5           O1  tau(   5) = (   4.5942328   1.4918067   9.2879030  )
         6           O1  tau(   6) = (   1.9868534   1.4903216   9.2879459  )
         7           Ti1 tau(   7) = (   3.2907910   2.8959150   9.1758416  )
         8           Ti1 tau(   8) = (   0.0015273   1.4827037   9.2680791  )
         9           O1  tau(   9) = (   3.3024300   0.0156651  11.3362489  )
        10           O1  tau(  10) = (   0.0116148   5.9584955  10.6183126  )
        11           O1  tau(  11) = (   1.3202942   1.5021919  12.6211084  )
        12           O1  tau(  12) = (   5.3089492   1.4933221  12.6244093  )
        13           Ti1 tau(  13) = (   6.5318549   2.9554166  12.6004298  )
        14           Ti1 tau(  14) = (   3.2163550   1.4959796  12.4995714  )
        15           O1  tau(  15) = (   0.0198598   0.0281632  14.6562685  )
        16           O1  tau(  16) = (   3.3115091   0.0214956  13.9462002  )
        17           O1  tau(  17) = (   4.5768415   1.5604546  16.0171077  )
        18           O1  tau(  18) = (   2.0579415   1.5629007  16.0064375  )
        19           Ti1 tau(  19) = (   3.3180608   3.0267156  15.6839788  )
        20           Ti1 tau(  20) = (   0.0373526   1.5614015  15.8096867  )
        21           O1  tau(  21) = (   3.2904802   0.0005063   4.7018136  )
        22           O1  tau(  22) = (   0.0417102   0.0258274  17.2400240  )
        23           O1  tau(  23) = (   1.3043587   1.4918075   6.0039043  )
        24           O1  tau(  24) = (   5.2767064   1.4903225   6.0039473  )
        25           Ti1 tau(  25) = (   0.0000382   5.9609847   6.0000000  )
        26           Ti1 tau(  26) = (   3.2902200   4.4714249   6.0002472  )
        27           O1  tau(  27) = (   0.0002396   2.9813036   7.9858123  )
        28           O1  tau(  28) = (   3.2902150   2.9813002   7.3038282  )
        29           O1  tau(  29) = (   4.5938453   4.4726049   9.2879030  )
        30           O1  tau(  30) = (   1.9864658   4.4711199   9.2879459  )
        31           Ti1 tau(  31) = (   3.2891106   5.8743827   9.1763621  )
        32           Ti1 tau(  32) = (   0.0006254   4.4649316   9.2693709  )
        33           O1  tau(  33) = (   3.2972593   2.9937737  11.3378417  )
        34           O1  tau(  34) = (   0.0092240   2.9805883  10.6323155  )
        35           O1  tau(  35) = (   1.3143161   4.4928581  12.6237603  )
        36           O1  tau(  36) = (   5.3098643   4.4818631  12.6293382  )
        37           Ti1 tau(  37) = (   6.5333161   5.9285706  12.5502982  )
        38           Ti1 tau(  38) = (   3.2144982   4.4885123  12.4917375  )
        39           O1  tau(  39) = (   0.0198576   2.9709144  14.6477637  )
        40           O1  tau(  40) = (   3.3145585   3.0140958  13.8917140  )
        41           O1  tau(  41) = (   4.5688195   4.4932876  16.0791699  )
        42           O1  tau(  42) = (   2.0650477   4.4875755  16.0663885  )
        43           Ti1 tau(  43) = (   3.3331689   0.0560974  15.7812046  )
        44           Ti1 tau(  44) = (   0.0348837   4.6827776  16.0884590  )
        45           O1  tau(  45) = (   3.2900926   2.9813045   4.7018136  )
        46           O1  tau(  46) = (   1.3039711   4.4726057   6.0039043  )
        47           O1  tau(  47) = (   5.2763189   4.4711207   6.0039473  )
        48           N1  tau(  48) = (   0.0359943   2.9709886  17.3934402  )
        49           C1  tau(  49) = (   0.0487696   2.8543938  18.6443550  )
        50           H1  tau(  50) = (   0.0551173   3.7295775  19.3121947  )
        51           H1  tau(  51) = (   0.0550652   1.8705629  19.1311967  )
        52           O1  tau(  52) = (   3.2796845   0.1561466  18.1797653  )
        53           H1  tau(  53) = (   4.0301203   5.5808867  18.4795516  )
        54           H1  tau(  54) = (   2.4663764   5.6345902  18.4210942  )

     number of k points=    10  Fermi-Dirac smearing, width (Ry)=  0.0073
                       cart. coord. in units 2pi/alat
        k(    1) = (   0.0000000   0.0000000   0.0000000), wk =   0.1250000
        k(    2) = (   0.0000000   0.0419351   0.0000000), wk =   0.2500000
        k(    3) = (   0.0000000  -0.0838702   0.0000000), wk =   0.1250000
        k(    4) = (   0.0379955   0.0000049   0.0000000), wk =   0.2500000
        k(    5) = (   0.0379955   0.0419400   0.0000000), wk =   0.2500000
        k(    6) = (   0.0379955  -0.0838652   0.0000000), wk =   0.2500000
        k(    7) = (   0.0379955  -0.0419301   0.0000000), wk =   0.2500000
        k(    8) = (  -0.0759910  -0.0000099   0.0000000), wk =   0.1250000
        k(    9) = (  -0.0759910   0.0419252   0.0000000), wk =   0.2500000
        k(   10) = (  -0.0759910  -0.0838800   0.0000000), wk =   0.1250000

     Initial potential from superposition of free atoms

     starting charge  380.99916, renormalised to  397.00000

     negative rho (up, down):  1.694E-02 0.000E+00

     %%%%%%%%%%%%%%%%%%%%%%%%%%%%%%%%%%%%%%%%%%%%%%%%%%%%%%%%%%%%%%%%%%%%%%%%
     %                                                                      %
     % You are using vdW-DF, which was implemented by the Thonhauser group. %
     % Please cite the following two papers that made this development      %
     % possible and the two reviews that describe the various versions:     %
     %                                                                      %
     %   T. Thonhauser et al., PRL 115, 136402 (2015).                      %
     %   T. Thonhauser et al., PRB 76, 125112 (2007).                       %
     %   K. Berland et al., Rep. Prog. Phys. 78, 066501 (2015).             %
     %   D.C. Langreth et al., J. Phys.: Condens. Matter 21, 084203 (2009). %
     %                                                                      %
     %                                                                      %
     % If you are calculating the stress with vdW-DF, please also cite:     %
     %                                                                      %
     %   R. Sabatini et al., J. Phys.: Condens. Matter 24, 424209 (2012).   %
     %                                                                      %
     %%%%%%%%%%%%%%%%%%%%%%%%%%%%%%%%%%%%%%%%%%%%%%%%%%%%%%%%%%%%%%%%%%%%%%%%

     Adding external electric field

     Computed dipole along edir(3) :
        Dipole               -9.2265 Ry au,        -23.4513 Debye
        Dipole field         -0.0174 Ry au,

        Potential amp.        1.6140 Ry
        Total length         46.3494 bohr

     Starting wfcs are  300 atomic wfcs
  @ DRIVER MODE: Message from server: STATUS
  @ DRIVER MODE: Message from server: POSDATA
  @ DRIVER MODE: Reading and sharing cell
  @ DRIVER MODE: Reading and sharing positions
  @ DRIVER MODE: Received positions

     Self-consistent Calculation

     iteration #  1     ecut=    29.40 Ry     beta= 0.05
     Davidson diagonalization with overlap
     c_bands:  1 eigenvalues not converged
     c_bands:  1 eigenvalues not converged
     c_bands:  1 eigenvalues not converged
     c_bands:  1 eigenvalues not converged
     c_bands:  1 eigenvalues not converged
     c_bands:  1 eigenvalues not converged
     c_bands:  1 eigenvalues not converged
     ethr =  1.00E-05,  avg # of iterations = 19.0

[...]

     total energy              =   -2550.56470886 Ry
     estimated scf accuracy    <    4467.37996654 Ry

     iteration #  2     ecut=    29.40 Ry     beta= 0.05
     Davidson diagonalization with overlap
     ethr =  1.00E-02,  avg # of iterations = 25.0

[...]

     iteration # 59     ecut=    29.40 Ry     beta= 0.05
     Davidson diagonalization with overlap
     c_bands:  1 eigenvalues not converged
     ethr =  2.58E-09,  avg # of iterations = 11.0

[...]

     total energy              =   -2952.76141648 Ry
     estimated scf accuracy    <       0.00000011 Ry

     iteration # 69     ecut=    29.40 Ry     beta= 0.05
     Davidson diagonalization with overlap
     ethr =  2.83E-11,  avg # of iterations = 10.4

     negative rho (up, down):  1.681E-02 0.000E+00

     Adding external electric field

     Computed dipole along edir(3) :
        Dipole                1.0238 Ry au,          2.6023 Debye
        Dipole field          0.0019 Ry au,

        Potential amp.       -0.1791 Ry
        Total length         46.3494 bohr

     End of self-consistent calculation

          k = 0.0000 0.0000 0.0000 ( 18029 PWs)   bands (ev):

   -55.6877 -55.6564 -55.6536 -55.6278 -55.6205 -55.5354 -55.5018 -55.5004
   -55.4694 -55.4678 -55.4644 -55.4307 -55.2138 -54.9969 -54.6674 -54.6334
   -32.2005 -32.1709 -32.0421 -32.0386 -32.0002 -31.9804 -31.9608 -31.9547
   -31.9316 -31.8910 -31.8819 -31.8514 -31.8400 -31.8390 -31.8344 -31.8140
   -31.7927 -31.7857 -31.7831 -31.7500 -31.7449 -31.7374 -31.7033 -31.6926
   -31.6924 -31.6912 -31.6811 -31.6638 -31.6631 -31.6549 -31.6497 -31.6414
   -31.6325 -31.6316 -31.6180 -31.6100 -31.5768 -31.4624 -31.4097 -31.2697
   -31.2492 -31.2111 -31.0746 -30.9862 -30.9637 -30.8913 -30.8048 -30.6938
   -19.1266 -16.4042 -16.1618 -15.9438 -15.8446 -15.8074 -15.6095 -15.5073
   -15.4204 -15.3104 -15.2459 -15.2253 -15.2186 -15.1990 -15.1881 -15.1470
   -15.1342 -15.1296 -15.1102 -15.0927 -15.0401 -15.0299 -15.0221 -14.9327
   -14.8593 -14.8248 -14.8132 -14.8062 -14.7889 -14.7465 -14.2989 -13.1696
   -13.0531  -7.4983  -6.9125  -4.2717  -3.8242  -3.7477  -3.6436  -3.5951
    -3.5551  -3.4149  -3.3509  -3.2617  -3.1469  -2.9347  -2.8751  -2.8354
    -2.8075  -2.7469  -2.5965  -2.5520  -2.5004  -2.4904  -2.4790  -2.4657
    -2.4384  -2.4240  -2.3277  -2.2863  -2.2398  -2.2302  -2.0905  -2.0776
    -2.0508  -2.0013  -1.9670  -1.9530  -1.9475  -1.9356  -1.9220  -1.8988
    -1.8735  -1.7703  -1.6808  -1.6109  -1.4989  -1.4552  -1.4046  -1.3111
    -1.3028  -1.2319  -1.1542  -1.1419  -1.1180  -1.0880  -1.0801  -0.9653
    -0.8593  -0.8457  -0.7455  -0.6926  -0.6094  -0.5799  -0.5254  -0.4802
    -0.4510  -0.4475  -0.4312  -0.3802  -0.2366  -0.2112  -0.1733  -0.0938
    -0.0344  -0.0228   0.0212   0.0624   0.1161   0.1415   0.1961   0.2038
     0.2376   0.2818   0.2852   0.3041   0.3215   0.3469   0.5214   0.5624
     0.5737   0.6496   0.6592   0.8269   0.8402   0.9666   1.0773   1.2817
     1.3550   1.4413   1.5471   1.6486   1.9261   1.9718   3.4406   3.5323
     3.5748   3.6059   3.6849   3.6881   3.8986   3.9155   3.9370   4.0207

[...]

          k = 0.0380-0.0419 0.0000 ( 17876 PWs)   bands (ev):

[...]

          k =-0.0760-0.0000 0.0000 ( 17886 PWs)   bands (ev):

[...]

          k =-0.0760-0.0839 0.0000 ( 17948 PWs)   bands (ev):

   -55.6711 -55.6701 -55.6395 -55.6372 -55.6258 -55.5208 -55.5150 -55.4847
   -55.4843 -55.4712 -55.4489 -55.4464 -55.2126 -54.9980 -54.6505 -54.6502
   -32.0129 -31.9984 -31.9865 -31.9857 -31.9663 -31.9653 -31.9224 -31.9168
   -31.9045 -31.8820 -31.8736 -31.8520 -31.8347 -31.8206 -31.8064 -31.8031
   -31.7999 -31.7964 -31.7906 -31.7899 -31.7878 -31.7849 -31.7728 -31.7385
   -31.7312 -31.7194 -31.7089 -31.6856 -31.6843 -31.6792 -31.6743 -31.6709
   -31.6646 -31.6617 -31.6587 -31.6562 -31.5838 -31.4659 -31.4044 -31.3438
   -31.2509 -31.2326 -30.9765 -30.9764 -30.8875 -30.8873 -30.8481 -30.8480
   -19.1258 -15.8556 -15.7574 -15.6431 -15.6125 -15.5612 -15.4964 -15.4842
   -15.4174 -15.3728 -15.3697 -15.2995 -15.2924 -15.2591 -15.2496 -15.2151
   -15.2146 -15.2079 -15.1572 -15.1446 -15.1291 -15.1267 -15.1202 -15.0432
   -15.0080 -15.0031 -14.9945 -14.9112 -14.8289 -14.7697 -14.4579 -13.1549
   -13.1548  -7.4952  -6.9054  -4.2457  -3.5270  -3.4522  -3.1405  -2.9714
    -2.8848  -2.8185  -2.7933  -2.7684  -2.6179  -2.5964  -2.5432  -2.5394
    -2.5155  -2.5131  -2.5090  -2.4907  -2.4829  -2.4574  -2.4316  -2.3904
    -2.3651  -2.3589  -2.3466  -2.3337  -2.3098  -2.2968  -2.2876  -2.2396
    -2.2377  -2.2187  -2.1258  -2.0549  -1.9116  -1.8930  -1.8501  -1.8288
    -1.8159  -1.7818  -1.7557  -1.7381  -1.6854  -1.6057  -1.5132  -1.4213
    -1.3807  -1.3682  -1.3012  -1.2827  -1.1909  -1.1658  -1.0904  -1.0711
    -0.9936  -0.9737  -0.8846  -0.8414  -0.8210  -0.7863  -0.7528  -0.7412
    -0.7111  -0.6552  -0.6432  -0.5904  -0.5642  -0.5012  -0.4391  -0.4181
    -0.4062  -0.3697  -0.3501  -0.3240  -0.1847  -0.1533  -0.1370  -0.0991
     0.0385   0.0695   0.2789   0.3657   0.3865   0.4649   0.5158   0.5968
     0.6205   0.6289   0.6457   0.6816   0.7735   0.8441   0.8555   0.8882
     0.9887   1.4926   1.7185   1.7194   1.7917   1.7917   3.7307   3.7738
     3.8093   3.8315   3.9271   3.9586   3.9797   3.9816   4.0336   4.1142

     the Fermi energy is     3.4443 ev

!    total energy              =   -2952.76144125 Ry
     estimated scf accuracy    <       0.00000007 Ry
     smearing contrib. (-TS)   =      -0.02154568 Ry
     internal energy E=F+TS    =   -2952.73989557 Ry

     The total energy is F=E-TS. E is the sum of the following terms:
     one-electron contribution =  -24472.71461433 Ry
     hartree contribution      =   12327.47389020 Ry
     xc contribution           =    -488.06008182 Ry
     ewald contribution        =    9680.55893232 Ry
     electric field correction =       0.00197807 Ry

     convergence has been achieved in  69 iterations

     Forces acting on atoms (cartesian axes, Ry/au):

     atom    1 type  1   force =    -0.00001122   -0.00029134    0.09607850
     atom    2 type  1   force =     0.00007913   -0.00044578   -0.17561851
     atom    3 type  2   force =     0.00011185   -0.00005088   -0.02421308
     atom    4 type  2   force =     0.00000725   -0.00136825    0.05328113
     atom    5 type  2   force =    -0.01134341    0.00004781    0.00284223
     atom    6 type  2   force =     0.01309212    0.00039324    0.00284926
     atom    7 type  1   force =     0.00079621    0.00048115   -0.00789627
     atom    8 type  1   force =     0.00007712    0.00683727    0.02441460
     atom    9 type  2   force =    -0.00025197   -0.00079740    0.00031552
     atom   10 type  2   force =    -0.00265881    0.00235219   -0.01480416
     atom   11 type  2   force =    -0.00019808   -0.00011346   -0.00055393
     atom   12 type  2   force =     0.00053268   -0.00001528   -0.00062008
     atom   13 type  1   force =    -0.00055715   -0.00160019    0.00049122
     atom   14 type  1   force =     0.00044941   -0.00021798   -0.00027542
     atom   15 type  2   force =     0.00000180   -0.00077768   -0.00069187
     atom   16 type  2   force =    -0.00005626   -0.00043480   -0.00033103
     atom   17 type  2   force =    -0.00110662   -0.00071991    0.00007707
     atom   18 type  2   force =     0.00152423   -0.00043695    0.00005998
     atom   19 type  1   force =    -0.00038138    0.00053748    0.00007725
     atom   20 type  1   force =     0.00044883   -0.00079739   -0.00053685
     atom   21 type  2   force =     0.00005173   -0.00001621    0.10317574
     atom   22 type  2   force =    -0.00011916   -0.00039651    0.00088213
     atom   23 type  2   force =    -0.07150354   -0.00012771   -0.02770352
     atom   24 type  2   force =     0.07142228    0.00035289   -0.02777857
     atom   25 type  1   force =     0.00017916   -0.00025709    0.09581137
     atom   26 type  1   force =     0.00006451   -0.00033543   -0.17583378
     atom   27 type  2   force =     0.00014779   -0.00004062   -0.02329277
     atom   28 type  2   force =     0.00001014   -0.00106958    0.05288915
     atom   29 type  2   force =    -0.01168210    0.00074692    0.00298026
     atom   30 type  2   force =     0.01331151    0.00125740    0.00300739
     atom   31 type  1   force =     0.00071260    0.00395494   -0.01080487
     atom   32 type  1   force =     0.00010117   -0.00901924    0.02488914
     atom   33 type  2   force =    -0.00007071    0.00060620   -0.00013008
     atom   34 type  2   force =    -0.00202722    0.00169335   -0.02184659
     atom   35 type  2   force =     0.00005359   -0.00026131   -0.00026731
     atom   36 type  2   force =    -0.00007412   -0.00007408   -0.00060366
     atom   37 type  1   force =    -0.00029390    0.00156291    0.00008768
     atom   38 type  1   force =     0.00053350    0.00040678    0.00022195
     atom   39 type  2   force =    -0.00009497   -0.00010050   -0.00118960
     atom   40 type  2   force =     0.00012854    0.00012263    0.00033022
     atom   41 type  2   force =     0.00009782   -0.00024387    0.00004643
     atom   42 type  2   force =     0.00045903   -0.00031707    0.00017420
     atom   43 type  1   force =    -0.00105632   -0.00050846    0.00047499
     atom   44 type  1   force =     0.00034082    0.00018697    0.00008193
     atom   45 type  2   force =     0.00004459   -0.00005377    0.10316427
     atom   46 type  2   force =    -0.07152551   -0.00005642   -0.02772081
     atom   47 type  2   force =     0.07143933    0.00037473   -0.02777894
     atom   48 type  3   force =    -0.00033591   -0.00027087    0.00005687
     atom   49 type  4   force =    -0.00015397   -0.00021742    0.00071217
     atom   50 type  5   force =    -0.00014582    0.00036427    0.00022831
     atom   51 type  5   force =    -0.00015832   -0.00019357    0.00080918
     atom   52 type  2   force =    -0.00640432   -0.00506715    0.00249131
     atom   53 type  5   force =     0.00052361   -0.00011185   -0.00024834
     atom   54 type  5   force =     0.00546844    0.00452689   -0.00226144

     Total force =     0.367148     Total SCF correction =     0.000741
  @ DRIVER MODE: Message from server: STATUS
  @ DRIVER MODE: Message from server: GETFORCE
  @ DRIVER MODE: Returning v,forces,stress,ensemble

     Writing output data file ./calc.save/
  @ DRIVER MODE: Message from server: EXIT
  @ DRIVE MODE: Exiting

     General routines

     Parallel routines

   This run was terminated on:   4:48:34  16Sep2021

   JOB DONE.