     Program PWSCF v.6.7GPU starts on 10Sep2021 at 18:39:23

     R & G space division:  proc/nbgrp/npool/nimage =      10
     Reading input from /storage/home/hcoda1/3/ntian30/research/carbon/CxH_vib/CH2_calc/ads_slab/CH2OH_f/out_0003/pw.inp
Warning: card &CELL ignored
Warning: card   CELL_DYNAMICS='IPI', ignored
Warning: card / ignored

     Current dimensions of program PWSCF are:
     Max number of different atomic species (ntypx) = 10
     Max number of k-points (npk) =  40000
     Max angular momentum in pseudopotentials (lmaxx) =  3
     Presently no symmetry can be used with electric field

     Message from routine cell_base_init:
     DEPRECATED: use true lattice parameter, not A to a.u. conversion factor

     IMPORTANT: XC functional enforced from input :
     Exchange-correlation= BEEF-VDW
                           (   1   4  43  14   2   0   0)
     Any further DFT definition will be discarded
     Please, verify this is what you really want

  @ DRIVER MODE: Connecting to
 qe_1139763_2792042.sched-torque.pace.gatech.eduydehozl6_scratch
  using UNIX socket
  @ DRIVER MODE: Message from server: STATUS
  @ DRIVER MODE: Message from server: INIT
  @ DRIVER MODE: Receiving replica           0          -1
  @ DRIVER MODE: Receiving encoded integer          25
  @ DRIVER MODE:  SCF:  T  FORCE:  T  STRESS:  F  VC:  F  ENSEMBLE:  F
  @ DRIVER MODE:  SCF:  T  FORCE:  T  STRESS:  F  VC:  F  ENSEMBLE:  F

     Using Slab Decomposition

     bravais-lattice index     =            0
     lattice parameter (alat)  =       1.8897  a.u.
     unit-cell volume          =    6658.9804 (a.u.)^3
     number of atoms/cell      =           52
     number of atomic types    =            4
     number of electrons       =       391.00
     number of Kohn-Sham states=          205
     kinetic-energy cutoff     =      29.3995  Ry
     charge density cutoff     =     293.9946  Ry
     scf convergence threshold =      7.3E-08
     mixing beta               =       0.0500
     number of iterations used =            8  plain     mixing
     Exchange-correlation= BEEF-VDW
                           (   1   4  43  14   2   0   0)

     celldm(1)=   1.889726  celldm(2)=   0.000000  celldm(3)=   0.000000
     celldm(4)=   0.000000  celldm(5)=   0.000000  celldm(6)=   0.000000

     crystal axes: (cart. coord. in units of alat)
               a(1) = (   6.579727   0.000000   0.000000 )
               a(2) = (  -0.000775   5.961596   0.000000 )
               a(3) = (   0.000000   0.000000  25.155947 )

     reciprocal axes: (cart. coord. in units 2 pi/alat)
               b(1) = (  0.151982  0.000020  0.000000 )
               b(2) = (  0.000000  0.167740  0.000000 )
               b(3) = (  0.000000  0.000000  0.039752 )

     PseudoPot. # 1 for O  read from file:
     /storage/coda1/p-amedford6/0/shared/rich_project_chbe-medford/medford-share/data/pseudos_module/espresso/nninc/pbe/van/O.UPF
     MD5 check sum: 78c19812648e8988a0fe644b0f25305e
     Pseudo is Ultrasoft, Zval =  6.0
     Generated by new atomic code, or converted to UPF format
     Using radial grid of  737 points,  4 beta functions with:
                l(1) =   0
                l(2) =   0
                l(3) =   1
                l(4) =   1
     Q(r) pseudized with  8 coefficients,  rinner =    0.800   0.800   0.800

     PseudoPot. # 2 for Ti read from file:
     /storage/coda1/p-amedford6/0/shared/rich_project_chbe-medford/medford-share/data/pseudos_module/espresso/nninc/pbe/van/Ti.UPF
     MD5 check sum: 8e4df49b7f0d34bbd5052bf3f5ea0213
     Pseudo is Ultrasoft, Zval = 12.0
     Generated by new atomic code, or converted to UPF format
     Using radial grid of  851 points,  6 beta functions with:
                l(1) =   0
                l(2) =   0
                l(3) =   1
                l(4) =   1
                l(5) =   2
                l(6) =   2
     Q(r) pseudized with  8 coefficients,  rinner =    1.000   1.000   1.000
                                                       1.000   1.000

     PseudoPot. # 3 for H  read from file:
     /storage/coda1/p-amedford6/0/shared/rich_project_chbe-medford/medford-share/data/pseudos_module/espresso/nninc/pbe/van/H.UPF
     MD5 check sum: b5ee9d7bfd3a09ee7748110bda690ff7
     Pseudo is Ultrasoft, Zval =  1.0
     Generated by new atomic code, or converted to UPF format
     Using radial grid of  615 points,  1 beta functions with:
                l(1) =   0
     Q(r) pseudized with  8 coefficients,  rinner =    0.800

     PseudoPot. # 4 for C  read from file:
     /storage/coda1/p-amedford6/0/shared/rich_project_chbe-medford/medford-share/data/pseudos_module/espresso/nninc/pbe/van/C.UPF
     MD5 check sum: 1a69bf6b8db32088f5b2163dbdb77a27
     Pseudo is Ultrasoft, Zval =  4.0
     Generated by new atomic code, or converted to UPF format
     Using radial grid of  721 points,  4 beta functions with:
                l(1) =   0
                l(2) =   0
                l(3) =   1
                l(4) =   1
     Q(r) pseudized with  8 coefficients,  rinner =    0.800   0.800   0.800

     atomic species   valence    mass     pseudopotential
        O1             6.00    15.99900     O ( 1.00)
        Ti1           12.00    47.86700     Ti( 1.00)
        H1             1.00     1.00800     H ( 1.00)
        C1             4.00    12.01100     C ( 1.00)

     No symmetry found

   Cartesian axes

     site n.     atom                  positions (alat units)
         1           O1  tau(   1) = (   3.2904802   0.0005063   4.7018136  )
         2           O1  tau(   2) = (   3.2900926   2.9813045   4.7018136  )
         3           Ti1 tau(   3) = (   0.0004258   2.9801865   6.0000000  )
         4           Ti1 tau(   4) = (   0.0000382   5.9609847   6.0000000  )
         5           Ti1 tau(   5) = (   3.2906075   1.4906267   6.0002472  )
         6           Ti1 tau(   6) = (   3.2902200   4.4714249   6.0002472  )
         7           O1  tau(   7) = (   1.3043587   1.4918075   6.0039043  )
         8           O1  tau(   8) = (   1.3039711   4.4726057   6.0039043  )
         9           O1  tau(   9) = (   5.2767064   1.4903225   6.0039473  )
        10           O1  tau(  10) = (   5.2763189   4.4711207   6.0039473  )
        11           O1  tau(  11) = (   3.2906025   0.0005020   7.3038282  )
        12           O1  tau(  12) = (   3.2902150   2.9813002   7.3038282  )
        13           O1  tau(  13) = (   0.0006271   0.0005054   7.9858123  )
        14           O1  tau(  14) = (   0.0002396   2.9813036   7.9858123  )
        15           Ti1 tau(  15) = (   3.3208325   5.9232416   9.1783542  )
        16           Ti1 tau(  16) = (   3.3324863   2.9377666   9.1648094  )
        17           Ti1 tau(  17) = (   0.0524917   1.4788520   9.2606301  )
        18           Ti1 tau(  18) = (   0.0483789   4.4105323   9.3105966  )
        19           O1  tau(  19) = (   4.5942328   1.4918067   9.2879030  )
        20           O1  tau(  20) = (   4.5938453   4.4726049   9.2879030  )
        21           O1  tau(  21) = (   1.9868534   1.4903216   9.2879459  )
        22           O1  tau(  22) = (   1.9864658   4.4711199   9.2879459  )
        23           O1  tau(  23) = (   6.5712937   0.0017758  10.5841540  )
        24           O1  tau(  24) = (   0.0002036   2.9871675  10.5944109  )
        25           O1  tau(  25) = (   3.2216619   2.9970402  11.3379169  )
        26           O1  tau(  26) = (   3.2239595   0.0054171  11.3328765  )
        27           Ti1 tau(  27) = (   6.5319223   0.0329622  12.4533321  )
        28           Ti1 tau(  28) = (   3.1914638   1.6317768  12.6145244  )
        29           Ti1 tau(  29) = (   3.1843358   4.5420783  12.4476223  )
        30           Ti1 tau(  30) = (   6.4449355   3.0101977  12.6586491  )
        31           O1  tau(  31) = (   5.2440064   1.5124744  12.5792363  )
        32           O1  tau(  32) = (   5.2402295   4.4617308  12.5795526  )
        33           O1  tau(  33) = (   1.2196697   1.4730338  12.6667888  )
        34           O1  tau(  34) = (   1.2190574   4.4979232  12.6669875  )
        35           O1  tau(  35) = (   3.2067865   2.9341989  13.9395670  )
        36           O1  tau(  36) = (   3.3440650   5.9513154  13.9008253  )
        37           O1  tau(  37) = (   6.3267833   5.9539684  14.6370341  )
        38           O1  tau(  38) = (   6.3913104   2.9714873  14.7475579  )
        39           Ti1 tau(  39) = (   3.1260420   2.9476348  15.9752747  )
        40           Ti1 tau(  40) = (   3.1986908   5.9292636  15.6746755  )
        41           Ti1 tau(  41) = (   6.4744102   1.3498976  15.9078779  )
        42           Ti1 tau(  42) = (   6.4721656   4.5656371  15.8700466  )
        43           O1  tau(  43) = (   1.8677001   4.5604514  15.8157410  )
        44           O1  tau(  44) = (   1.8686447   1.3618557  15.8396546  )
        45           O1  tau(  45) = (   4.4008848   1.5192286  16.2292034  )
        46           O1  tau(  46) = (   4.3978686   4.4066597  16.2143399  )
        47           O1  tau(  47) = (   6.4830960   5.9408203  17.1431429  )
        48           O1  tau(  48) = (   0.4828407   2.9669521  17.4917737  )
        49           H1  tau(  49) = (   6.5026766   3.0145448  18.2851392  )
        50           C1  tau(  50) = (   1.9555054   2.9805414  17.9097346  )
        51           H1  tau(  51) = (   2.0761010   2.0893267  18.5304525  )
        52           H1  tau(  52) = (   2.0801140   3.8867162  18.5073456  )

     number of k points=    10  Fermi-Dirac smearing, width (Ry)=  0.0073
                       cart. coord. in units 2pi/alat
        k(    1) = (   0.0000000   0.0000000   0.0000000), wk =   0.1250000
        k(    2) = (   0.0000000   0.0419351   0.0000000), wk =   0.2500000
        k(    3) = (   0.0000000  -0.0838702   0.0000000), wk =   0.1250000
        k(    4) = (   0.0379955   0.0000049   0.0000000), wk =   0.2500000
        k(    5) = (   0.0379955   0.0419400   0.0000000), wk =   0.2500000
        k(    6) = (   0.0379955  -0.0838652   0.0000000), wk =   0.2500000
        k(    7) = (   0.0379955  -0.0419301   0.0000000), wk =   0.2500000
        k(    8) = (  -0.0759910  -0.0000099   0.0000000), wk =   0.1250000
        k(    9) = (  -0.0759910   0.0419252   0.0000000), wk =   0.2500000
        k(   10) = (  -0.0759910  -0.0838800   0.0000000), wk =   0.1250000

     Initial potential from superposition of free atoms

     starting charge  374.99918, renormalised to  391.00000

     negative rho (up, down):  1.928E-02 0.000E+00

     %%%%%%%%%%%%%%%%%%%%%%%%%%%%%%%%%%%%%%%%%%%%%%%%%%%%%%%%%%%%%%%%%%%%%%%%
     %                                                                      %
     % You are using vdW-DF, which was implemented by the Thonhauser group. %
     % Please cite the following two papers that made this development      %
     % possible and the two reviews that describe the various versions:     %
     %                                                                      %
     %   T. Thonhauser et al., PRL 115, 136402 (2015).                      %
     %   T. Thonhauser et al., PRB 76, 125112 (2007).                       %
     %   K. Berland et al., Rep. Prog. Phys. 78, 066501 (2015).             %
     %   D.C. Langreth et al., J. Phys.: Condens. Matter 21, 084203 (2009). %
     %                                                                      %
     %                                                                      %
     % If you are calculating the stress with vdW-DF, please also cite:     %
     %                                                                      %
     %   R. Sabatini et al., J. Phys.: Condens. Matter 24, 424209 (2012).   %
     %                                                                      %
     %%%%%%%%%%%%%%%%%%%%%%%%%%%%%%%%%%%%%%%%%%%%%%%%%%%%%%%%%%%%%%%%%%%%%%%%

     Adding external electric field

     Computed dipole along edir(3) :
        Dipole               -5.2494 Ry au,        -13.3426 Debye
        Dipole field         -0.0099 Ry au,

        Potential amp.        0.9183 Ry
        Total length         46.3494 bohr

     Starting wfcs are  295 atomic wfcs
  @ DRIVER MODE: Message from server: STATUS
  @ DRIVER MODE: Message from server: POSDATA
  @ DRIVER MODE: Reading and sharing cell
  @ DRIVER MODE: Reading and sharing positions
  @ DRIVER MODE: Received positions

     Self-consistent Calculation

     iteration #  1     ecut=    29.40 Ry     beta= 0.05
     Davidson diagonalization with overlap
     c_bands:  1 eigenvalues not converged
     c_bands:  4 eigenvalues not converged
     c_bands:  1 eigenvalues not converged
     c_bands:  2 eigenvalues not converged
     c_bands:  4 eigenvalues not converged
     c_bands:  1 eigenvalues not converged
     c_bands:  1 eigenvalues not converged
     c_bands:  3 eigenvalues not converged
     ethr =  1.00E-05,  avg # of iterations = 19.6

[...]

     total energy              =   -2799.55858369 Ry
     estimated scf accuracy    <    1448.01348003 Ry

     iteration #  2     ecut=    29.40 Ry     beta= 0.05
     Davidson diagonalization with overlap
     ethr =  1.00E-02,  avg # of iterations = 16.7

[...]

     iteration # 69     ecut=    29.40 Ry     beta= 0.05
     Davidson diagonalization with overlap
     c_bands:  1 eigenvalues not converged
     ethr =  2.34E-09,  avg # of iterations = 11.2

[...]

     total energy              =   -2931.32927552 Ry
     estimated scf accuracy    <       0.00000010 Ry

     iteration # 79     ecut=    29.40 Ry     beta= 0.05
     Davidson diagonalization with overlap
     ethr =  2.63E-11,  avg # of iterations =  5.9

     negative rho (up, down):  1.889E-02 0.000E+00

     Adding external electric field

     Computed dipole along edir(3) :
        Dipole                0.9537 Ry au,          2.4240 Debye
        Dipole field          0.0018 Ry au,

        Potential amp.       -0.1668 Ry
        Total length         46.3494 bohr

     End of self-consistent calculation

          k = 0.0000 0.0000 0.0000 ( 18029 PWs)   bands (ev):

   -55.8496 -55.8120 -55.7578 -55.7454 -55.6919 -55.6842 -55.6693 -55.6649
   -55.6345 -55.6156 -55.6138 -55.5881 -55.5814 -55.5644 -54.8246 -54.7905
   -32.3594 -32.3238 -32.2333 -32.2042 -32.1586 -32.1336 -32.1214 -32.0970
   -32.0882 -32.0608 -32.0348 -32.0127 -32.0043 -31.9914 -31.9644 -31.9568
   -31.9458 -31.9346 -31.9162 -31.9136 -31.9089 -31.9033 -31.8755 -31.8573
   -31.8520 -31.8490 -31.8475 -31.8376 -31.8311 -31.8215 -31.8132 -31.8107
   -31.8005 -31.7882 -31.7845 -31.7837 -31.7707 -31.7650 -31.7476 -31.7363
   -31.7172 -31.6438 -31.2318 -31.1423 -31.1198 -31.0488 -30.9626 -30.8510
   -19.5411 -16.5534 -16.3375 -16.1508 -16.0518 -16.0012 -15.8327 -15.7504
   -15.5403 -15.4878 -15.4762 -15.4499 -15.3938 -15.3774 -15.3709 -15.3522
   -15.3408 -15.3156 -15.2560 -15.2473 -15.2389 -15.2042 -15.1467 -15.1169
   -14.9895 -14.9806 -14.9649 -14.9461 -14.8626 -14.7328 -13.3247 -13.2078
    -9.6097  -6.4428  -4.1990  -4.0010  -3.8646  -3.7676  -3.7523  -3.7313
    -3.5697  -3.4954  -3.2707  -3.1386  -3.0875  -3.0204  -2.9797  -2.9182
    -2.8257  -2.7630  -2.7214  -2.6812  -2.6473  -2.6463  -2.6304  -2.5764
    -2.5465  -2.5028  -2.4005  -2.3980  -2.3459  -2.2893  -2.2492  -2.2072
    -2.1658  -2.1504  -2.1299  -2.0933  -2.0602  -2.0501  -2.0176  -1.9874
    -1.9305  -1.8496  -1.8206  -1.5581  -1.4662  -1.3807  -1.3674  -1.2998
    -1.2760  -1.2467  -1.2315  -1.1935  -1.1810  -1.0938  -1.0842  -1.0123
    -0.9710  -0.8900  -0.8296  -0.7528  -0.6896  -0.6311  -0.6089  -0.5799
    -0.5638  -0.5543  -0.3935  -0.3817  -0.3543  -0.2438  -0.2277  -0.1631
    -0.1395  -0.0772  -0.0540   0.0109   0.0690   0.0906   0.1125   0.1487
     0.1592   0.1711   0.2136   0.2954   0.3852   0.3991   0.4163   0.4795
     0.6452   0.7189   0.8226   0.8867   1.1247   1.2002   1.2376   1.2833
     1.3865   1.7741   1.8271   3.2983   3.3675   3.4156   3.4258   3.4647
     3.5467   3.7369   3.7449   3.8034   3.8921

[...]

          k = 0.0380-0.0419 0.0000 ( 17876 PWs)   bands (ev):

[...]

          k =-0.0760-0.0000 0.0000 ( 17886 PWs)   bands (ev):

[...]

          k =-0.0760-0.0839 0.0000 ( 17948 PWs)   bands (ev):

   -55.8387 -55.8227 -55.7534 -55.7388 -55.6983 -55.6881 -55.6658 -55.6594
   -55.6263 -55.6209 -55.5993 -55.5974 -55.5956 -55.5669 -54.8076 -54.8074
   -32.2823 -32.1474 -32.1361 -32.1318 -32.1084 -32.0841 -32.0796 -32.0521
   -32.0204 -32.0034 -31.9928 -31.9895 -31.9765 -31.9668 -31.9650 -31.9600
   -31.9590 -31.9513 -31.9485 -31.9329 -31.9309 -31.9231 -31.9000 -31.8966
   -31.8924 -31.8856 -31.8841 -31.8741 -31.8659 -31.8596 -31.8461 -31.8434
   -31.8338 -31.8250 -31.8229 -31.8133 -31.8102 -31.8081 -31.8062 -31.7942
   -31.7904 -31.6453 -31.1327 -31.1323 -31.0453 -31.0443 -31.0059 -31.0052
   -19.5352 -16.1426 -15.9584 -15.8044 -15.7907 -15.7848 -15.6331 -15.6295
   -15.6047 -15.5683 -15.5352 -15.5172 -15.4794 -15.4752 -15.4319 -15.3804
   -15.3740 -15.3619 -15.3354 -15.2844 -15.2720 -15.2571 -15.1802 -15.1694
   -15.1611 -15.1348 -15.1320 -15.1003 -15.0996 -15.0258 -13.3115 -13.3076
    -9.6102  -6.4261  -4.2053  -3.8661  -3.2829  -3.2096  -3.0169  -3.0021
    -2.9274  -2.8927  -2.8668  -2.8268  -2.7764  -2.7694  -2.7547  -2.6804
    -2.6564  -2.6520  -2.6073  -2.5943  -2.5840  -2.5676  -2.5539  -2.5165
    -2.4935  -2.4692  -2.4461  -2.4308  -2.4090  -2.4002  -2.3956  -2.3503
    -2.3298  -2.2092  -2.1182  -2.0555  -2.0095  -1.9682  -1.9420  -1.9236
    -1.9056  -1.8911  -1.8781  -1.8379  -1.7694  -1.6042  -1.5248  -1.5198
    -1.4570  -1.4356  -1.3862  -1.3650  -1.2904  -1.2622  -1.2127  -1.1989
    -1.1834  -1.0798  -1.0568  -0.9626  -0.9310  -0.8250  -0.8015  -0.7882
    -0.7691  -0.7276  -0.7052  -0.6419  -0.6186  -0.5812  -0.5537  -0.5029
    -0.4578  -0.4409  -0.3433  -0.3021  -0.2485  -0.2012  -0.1346  -0.0250
     0.1535   0.1757   0.2111   0.3154   0.3544   0.4258   0.4823   0.5008
     0.5648   0.6014   0.6454   0.6943   0.7575   0.7941   1.2460   1.5617
     1.5703   1.6349   1.6465   3.6005   3.6498   3.7693   3.7823   3.8122
     3.8227   3.8358   3.8512   3.9004   3.9547

     the Fermi energy is     3.2915 ev

!    total energy              =   -2931.32928304 Ry
     estimated scf accuracy    <       0.00000003 Ry
     smearing contrib. (-TS)   =      -0.02172939 Ry
     internal energy E=F+TS    =   -2931.30755366 Ry

     The total energy is F=E-TS. E is the sum of the following terms:
     one-electron contribution =  -24944.47661931 Ry
     hartree contribution      =   12558.64735446 Ry
     xc contribution           =    -482.04069251 Ry
     ewald contribution        =    9936.56068740 Ry
     electric field correction =       0.00171631 Ry

     convergence has been achieved in  79 iterations

     Forces acting on atoms (cartesian axes, Ry/au):

     atom    1 type  1   force =    -0.00001326    0.00010089    0.10311830
     atom    2 type  1   force =     0.00000505    0.00011286    0.10344746
     atom    3 type  2   force =    -0.00029324    0.00098670    0.09591372
     atom    4 type  2   force =    -0.00015218   -0.00100156    0.10944925
     atom    5 type  2   force =    -0.00014929   -0.00319100   -0.17644538
     atom    6 type  2   force =    -0.00014161    0.00267648   -0.17605454
     atom    7 type  1   force =    -0.07085155    0.00113889   -0.02853775
     atom    8 type  1   force =    -0.07119874   -0.00152430   -0.02856527
     atom    9 type  1   force =     0.07069681    0.00155265   -0.02856596
     atom   10 type  1   force =     0.07091856   -0.00114798   -0.02861021
     atom   11 type  1   force =     0.00048644   -0.00020686    0.05106761
     atom   12 type  1   force =     0.00072236   -0.00042040    0.05033796
     atom   13 type  1   force =     0.00061263    0.00264442   -0.02979893
     atom   14 type  1   force =     0.00055647   -0.00111774   -0.02627622
     atom   15 type  2   force =     0.00019460   -0.00145743   -0.00050105
     atom   16 type  2   force =    -0.00010731    0.00157108   -0.00009730
     atom   17 type  2   force =    -0.00007992   -0.00004164    0.00029681
     atom   18 type  2   force =     0.00008394    0.00060925    0.00040819
     atom   19 type  1   force =    -0.01648171    0.00013064    0.00405521
     atom   20 type  1   force =    -0.01693288   -0.00138112    0.00405456
     atom   21 type  1   force =     0.01272379    0.00185646    0.00029722
     atom   22 type  1   force =     0.01237163    0.00142495    0.00046545
     atom   23 type  1   force =     0.00020230   -0.00009583   -0.00057716
     atom   24 type  1   force =     0.00017408   -0.00040811   -0.00044102
     atom   25 type  1   force =     0.00035379   -0.00003620    0.00000067
     atom   26 type  1   force =     0.00006732   -0.00043989   -0.00066493
     atom   27 type  2   force =    -0.00001748   -0.00060784   -0.00026568
     atom   28 type  2   force =     0.00016281    0.00006880   -0.00030784
     atom   29 type  2   force =    -0.00012309   -0.00110831    0.00029772
     atom   30 type  2   force =     0.00035578    0.00035276    0.00018158
     atom   31 type  1   force =     0.00013702    0.00005492   -0.00006101
     atom   32 type  1   force =    -0.00010555   -0.00034783    0.00039231
     atom   33 type  1   force =     0.00023817   -0.00016798   -0.00012426
     atom   34 type  1   force =     0.00050843   -0.00037830    0.00025409
     atom   35 type  1   force =    -0.00011471    0.00015919    0.00176646
     atom   36 type  1   force =     0.00034715    0.00013347    0.00034855
     atom   37 type  1   force =     0.00014671   -0.00034681   -0.00008900
     atom   38 type  1   force =     0.00043320   -0.00040635    0.00012682
     atom   39 type  2   force =     0.00043321    0.00122702   -0.00083448
     atom   40 type  2   force =     0.00044699   -0.00016367    0.00004732
     atom   41 type  2   force =     0.00005629   -0.00063828    0.00064979
     atom   42 type  2   force =     0.00018204    0.00061706   -0.00033271
     atom   43 type  1   force =     0.00076357    0.00003181    0.00017458
     atom   44 type  1   force =     0.00081053   -0.00019888   -0.00011815
     atom   45 type  1   force =     0.00011044   -0.00003909   -0.00000727
     atom   46 type  1   force =     0.00043515   -0.00028463    0.00025351
     atom   47 type  1   force =     0.00053207   -0.00035733   -0.00039695
     atom   48 type  1   force =    -0.00028290    0.00317187    0.00079869
     atom   49 type  3   force =     0.00058124   -0.00093393   -0.00067524
     atom   50 type  4   force =    -0.00042296   -0.00260389    0.00021834
     atom   51 type  3   force =     0.00133147    0.00016713    0.00028348
     atom   52 type  3   force =    -0.00071368    0.00026388   -0.00035737

     Total force =     0.368424     Total SCF correction =     0.000473
  @ DRIVER MODE: Message from server: STATUS
  @ DRIVER MODE: Message from server: GETFORCE
  @ DRIVER MODE: Returning v,forces,stress,ensemble

     Writing output data file ./calc.save/
  @ DRIVER MODE: Message from server: EXIT
  @ DRIVE MODE: Exiting

     General routines

     Parallel routines

   This run was terminated on:  19: 0:22  10Sep2021

   JOB DONE.