     Program PWSCF v.6.7GPU starts on 19Aug2021 at  1:47:38

     R & G space division:  proc/nbgrp/npool/nimage =       6
     Reading input from /storage/home/hcoda1/3/ntian30/research/carbon/CH3_vib_side_on/ads_slab/CH3N2_c/out_0028/pw.inp
Warning: card &CELL ignored
Warning: card   CELL_DYNAMICS='IPI', ignored
Warning: card / ignored

     Current dimensions of program PWSCF are:
     Max number of different atomic species (ntypx) = 10
     Max number of k-points (npk) =  40000
     Max angular momentum in pseudopotentials (lmaxx) =  3
     Presently no symmetry can be used with electric field

     Message from routine cell_base_init:
     DEPRECATED: use true lattice parameter, not A to a.u. conversion factor

     IMPORTANT: XC functional enforced from input :
     Exchange-correlation= BEEF-VDW
                           (   1   4  43  14   2   0   0)
     Any further DFT definition will be discarded
     Please, verify this is what you really want

  @ DRIVER MODE: Connecting to
 qe_1139763_2594174.sched-torque.pace.gatech.eduwnentlxb_scratch
  using UNIX socket
  @ DRIVER MODE: Message from server: STATUS
  @ DRIVER MODE: Message from server: INIT
  @ DRIVER MODE: Receiving replica           0          -1
  @ DRIVER MODE: Receiving encoded integer          25
  @ DRIVER MODE:  SCF:  T  FORCE:  T  STRESS:  F  VC:  F  ENSEMBLE:  F
  @ DRIVER MODE:  SCF:  T  FORCE:  T  STRESS:  F  VC:  F  ENSEMBLE:  F

     Using Slab Decomposition

     bravais-lattice index     =            0
     lattice parameter (alat)  =       1.8897  a.u.
     unit-cell volume          =    6658.9804 (a.u.)^3
     number of atoms/cell      =           53
     number of atomic types    =            5
     number of electrons       =       395.00
     number of Kohn-Sham states=          207
     kinetic-energy cutoff     =      29.3995  Ry
     charge density cutoff     =     293.9946  Ry
     scf convergence threshold =      7.3E-08
     mixing beta               =       0.0500
     number of iterations used =            8  plain     mixing
     Exchange-correlation= BEEF-VDW
                           (   1   4  43  14   2   0   0)

     celldm(1)=   1.889726  celldm(2)=   0.000000  celldm(3)=   0.000000
     celldm(4)=   0.000000  celldm(5)=   0.000000  celldm(6)=   0.000000

     crystal axes: (cart. coord. in units of alat)
               a(1) = (   6.579727   0.000000   0.000000 )
               a(2) = (  -0.000775   5.961596   0.000000 )
               a(3) = (   0.000000   0.000000  25.155947 )

     reciprocal axes: (cart. coord. in units 2 pi/alat)
               b(1) = (  0.151982  0.000020  0.000000 )
               b(2) = (  0.000000  0.167740  0.000000 )
               b(3) = (  0.000000  0.000000  0.039752 )

     PseudoPot. # 1 for Ti read from file:
     /storage/coda1/p-amedford6/0/shared/rich_project_chbe-medford/medford-share/data/pseudos_module/espresso/nninc/pbe/van/Ti.UPF
     MD5 check sum: 8e4df49b7f0d34bbd5052bf3f5ea0213
     Pseudo is Ultrasoft, Zval = 12.0
     Generated by new atomic code, or converted to UPF format
     Using radial grid of  851 points,  6 beta functions with:
                l(1) =   0
                l(2) =   0
                l(3) =   1
                l(4) =   1
                l(5) =   2
                l(6) =   2
     Q(r) pseudized with  8 coefficients,  rinner =    1.000   1.000   1.000
                                                       1.000   1.000

     PseudoPot. # 2 for O  read from file:
     /storage/coda1/p-amedford6/0/shared/rich_project_chbe-medford/medford-share/data/pseudos_module/espresso/nninc/pbe/van/O.UPF
     MD5 check sum: 78c19812648e8988a0fe644b0f25305e
     Pseudo is Ultrasoft, Zval =  6.0
     Generated by new atomic code, or converted to UPF format
     Using radial grid of  737 points,  4 beta functions with:
                l(1) =   0
                l(2) =   0
                l(3) =   1
                l(4) =   1
     Q(r) pseudized with  8 coefficients,  rinner =    0.800   0.800   0.800

     PseudoPot. # 3 for N  read from file:
     /storage/coda1/p-amedford6/0/shared/rich_project_chbe-medford/medford-share/data/pseudos_module/espresso/nninc/pbe/van/N.UPF
     MD5 check sum: 90d10febe142ad51ac9d5be1deb811c4
     Pseudo is Ultrasoft, Zval =  5.0
     Generated by new atomic code, or converted to UPF format
     Using radial grid of  729 points,  4 beta functions with:
                l(1) =   0
                l(2) =   0
                l(3) =   1
                l(4) =   1
     Q(r) pseudized with  8 coefficients,  rinner =    0.800   0.800   0.800

     PseudoPot. # 4 for C  read from file:
     /storage/coda1/p-amedford6/0/shared/rich_project_chbe-medford/medford-share/data/pseudos_module/espresso/nninc/pbe/van/C.UPF
     MD5 check sum: 1a69bf6b8db32088f5b2163dbdb77a27
     Pseudo is Ultrasoft, Zval =  4.0
     Generated by new atomic code, or converted to UPF format
     Using radial grid of  721 points,  4 beta functions with:
                l(1) =   0
                l(2) =   0
                l(3) =   1
                l(4) =   1
     Q(r) pseudized with  8 coefficients,  rinner =    0.800   0.800   0.800

     PseudoPot. # 5 for H  read from file:
     /storage/coda1/p-amedford6/0/shared/rich_project_chbe-medford/medford-share/data/pseudos_module/espresso/nninc/pbe/van/H.UPF
     MD5 check sum: b5ee9d7bfd3a09ee7748110bda690ff7
     Pseudo is Ultrasoft, Zval =  1.0
     Generated by new atomic code, or converted to UPF format
     Using radial grid of  615 points,  1 beta functions with:
                l(1) =   0
     Q(r) pseudized with  8 coefficients,  rinner =    0.800

     atomic species   valence    mass     pseudopotential
        Ti1           12.00    47.86700     Ti( 1.00)
        O1             6.00    15.99900     O ( 1.00)
        N1             5.00    14.00700     N ( 1.00)
        C1             4.00    12.01100     C ( 1.00)
        H1             1.00     1.00800     H ( 1.00)

     No symmetry found

   Cartesian axes

     site n.     atom                  positions (alat units)
         1           Ti1 tau(   1) = (   0.0004258   2.9801865   6.0000000  )
         2           Ti1 tau(   2) = (   3.2906075   1.4906267   6.0002472  )
         3           O1  tau(   3) = (   0.0006271   0.0005054   7.9858123  )
         4           O1  tau(   4) = (   3.2906025   0.0005020   7.3038282  )
         5           O1  tau(   5) = (   4.5942328   1.4918067   9.2879030  )
         6           O1  tau(   6) = (   1.9868534   1.4903216   9.2879459  )
         7           Ti1 tau(   7) = (   3.2907910   2.8959150   9.1758416  )
         8           Ti1 tau(   8) = (   0.0015273   1.4827037   9.2680791  )
         9           O1  tau(   9) = (   3.2868105   5.9447858  11.3346005  )
        10           O1  tau(  10) = (   0.0116148   5.9584955  10.6183126  )
        11           O1  tau(  11) = (   1.2897616   1.4699164  12.6258314  )
        12           O1  tau(  12) = (   5.2713851   1.4716199  12.6109895  )
        13           Ti1 tau(  13) = (   0.0629619   2.9460495  12.6207869  )
        14           Ti1 tau(  14) = (   3.3778125   1.4702366  12.4807322  )
        15           O1  tau(  15) = (   6.5741670   5.9392046  14.6271830  )
        16           O1  tau(  16) = (   3.2925211   5.9405975  13.9303826  )
        17           O1  tau(  17) = (   4.5331425   1.4971777  16.0590535  )
        18           O1  tau(  18) = (   2.0416154   1.4974824  16.0477615  )
        19           Ti1 tau(  19) = (   3.2901388   2.9722967  15.7036181  )
        20           Ti1 tau(  20) = (   6.5714728   1.5019933  15.8140906  )
        21           O1  tau(  21) = (   3.2904802   0.0005063   4.7018136  )
        22           O1  tau(  22) = (   6.5775371   0.0159386  17.1814867  )
        23           O1  tau(  23) = (   1.3043587   1.4918075   6.0039043  )
        24           O1  tau(  24) = (   5.2767064   1.4903225   6.0039473  )
        25           Ti1 tau(  25) = (   0.0000382   5.9609847   6.0000000  )
        26           Ti1 tau(  26) = (   3.2902200   4.4714249   6.0002472  )
        27           O1  tau(  27) = (   0.0002396   2.9813036   7.9858123  )
        28           O1  tau(  28) = (   3.2902150   2.9813002   7.3038282  )
        29           O1  tau(  29) = (   4.5938453   4.4726049   9.2879030  )
        30           O1  tau(  30) = (   1.9864658   4.4711199   9.2879459  )
        31           Ti1 tau(  31) = (   3.2891106   5.8743827   9.1763621  )
        32           Ti1 tau(  32) = (   0.0006254   4.4649316   9.2693709  )
        33           O1  tau(  33) = (   3.2909631   2.9655588  11.3316111  )
        34           O1  tau(  34) = (   0.0092240   2.9805883  10.6323155  )
        35           O1  tau(  35) = (   1.2884032   4.4536117  12.6269208  )
        36           O1  tau(  36) = (   5.2752684   4.4605011  12.6109535  )
        37           Ti1 tau(  37) = (   0.0626277   5.9200555  12.5524633  )
        38           Ti1 tau(  38) = (   3.3797810   4.4486816  12.4846537  )
        39           O1  tau(  39) = (   6.5720240   2.9440667  14.6479771  )
        40           O1  tau(  40) = (   3.2941106   2.9728877  13.9057494  )
        41           O1  tau(  41) = (   4.5311790   4.4530262  16.1020043  )
        42           O1  tau(  42) = (   2.0427069   4.4534008  16.0946336  )
        43           Ti1 tau(  43) = (   3.2818950   5.9508925  15.7274921  )
        44           Ti1 tau(  44) = (   6.5750914   4.6476268  16.0792144  )
        45           O1  tau(  45) = (   3.2900926   2.9813045   4.7018136  )
        46           O1  tau(  46) = (   1.3039711   4.4726057   6.0039043  )
        47           O1  tau(  47) = (   5.2763189   4.4711207   6.0039473  )
        48           N1  tau(  48) = (   0.0795740   2.6614725  18.6386781  )
        49           N1  tau(  49) = (   0.0132033   2.8794178  17.4383708  )
        50           C1  tau(  50) = (   0.1510961   3.8031638  19.5808395  )
        51           H1  tau(  51) = (   6.4701351   4.7592986  19.1328852  )
        52           H1  tau(  52) = (   6.0910372   3.5704803  20.4266230  )
        53           H1  tau(  53) = (   1.1812797   3.8285794  19.9476819  )

     number of k points=    10  Fermi-Dirac smearing, width (Ry)=  0.0073
                       cart. coord. in units 2pi/alat
        k(    1) = (   0.0000000   0.0000000   0.0000000), wk =   0.1250000
        k(    2) = (   0.0000000   0.0419351   0.0000000), wk =   0.2500000
        k(    3) = (   0.0000000  -0.0838702   0.0000000), wk =   0.1250000
        k(    4) = (   0.0379955   0.0000049   0.0000000), wk =   0.2500000
        k(    5) = (   0.0379955   0.0419400   0.0000000), wk =   0.2500000
        k(    6) = (   0.0379955  -0.0838652   0.0000000), wk =   0.2500000
        k(    7) = (   0.0379955  -0.0419301   0.0000000), wk =   0.2500000
        k(    8) = (  -0.0759910  -0.0000099   0.0000000), wk =   0.1250000
        k(    9) = (  -0.0759910   0.0419252   0.0000000), wk =   0.2500000
        k(   10) = (  -0.0759910  -0.0838800   0.0000000), wk =   0.1250000

     Initial potential from superposition of free atoms

     starting charge  378.99916, renormalised to  395.00000

     negative rho (up, down):  1.506E-02 0.000E+00

     %%%%%%%%%%%%%%%%%%%%%%%%%%%%%%%%%%%%%%%%%%%%%%%%%%%%%%%%%%%%%%%%%%%%%%%%
     %                                                                      %
     % You are using vdW-DF, which was implemented by the Thonhauser group. %
     % Please cite the following two papers that made this development      %
     % possible and the two reviews that describe the various versions:     %
     %                                                                      %
     %   T. Thonhauser et al., PRL 115, 136402 (2015).                      %
     %   T. Thonhauser et al., PRB 76, 125112 (2007).                       %
     %   K. Berland et al., Rep. Prog. Phys. 78, 066501 (2015).             %
     %   D.C. Langreth et al., J. Phys.: Condens. Matter 21, 084203 (2009). %
     %                                                                      %
     %                                                                      %
     % If you are calculating the stress with vdW-DF, please also cite:     %
     %                                                                      %
     %   R. Sabatini et al., J. Phys.: Condens. Matter 24, 424209 (2012).   %
     %                                                                      %
     %%%%%%%%%%%%%%%%%%%%%%%%%%%%%%%%%%%%%%%%%%%%%%%%%%%%%%%%%%%%%%%%%%%%%%%%

     Adding external electric field

     Computed dipole along edir(3) :
        Dipole               -8.8495 Ry au,        -22.4931 Debye
        Dipole field         -0.0167 Ry au,

        Potential amp.        1.5481 Ry
        Total length         46.3494 bohr

     Starting wfcs are  299 atomic wfcs
  @ DRIVER MODE: Message from server: STATUS
  @ DRIVER MODE: Message from server: POSDATA
  @ DRIVER MODE: Reading and sharing cell
  @ DRIVER MODE: Reading and sharing positions
  @ DRIVER MODE: Received positions

     Self-consistent Calculation

     iteration #  1     ecut=    29.40 Ry     beta= 0.05
     Davidson diagonalization with overlap
     c_bands:  1 eigenvalues not converged
     c_bands:  2 eigenvalues not converged
     c_bands:  1 eigenvalues not converged
     c_bands:  3 eigenvalues not converged
     c_bands:  3 eigenvalues not converged
     c_bands:  1 eigenvalues not converged
     ethr =  1.00E-05,  avg # of iterations = 19.1

[...]

     total energy              =   -2605.57122126 Ry
     estimated scf accuracy    <    3700.15066980 Ry

     iteration #  2     ecut=    29.40 Ry     beta= 0.05
     Davidson diagonalization with overlap
     ethr =  1.00E-02,  avg # of iterations = 22.5

[...]

     iteration # 55     ecut=    29.40 Ry     beta= 0.05
     Davidson diagonalization with overlap
     c_bands:  1 eigenvalues not converged
     ethr =  7.93E-09,  avg # of iterations = 11.0

[...]

     total energy              =   -2939.15474595 Ry
     estimated scf accuracy    <       0.00000011 Ry

     iteration # 67     ecut=    29.40 Ry     beta= 0.05
     Davidson diagonalization with overlap
     ethr =  2.85E-11,  avg # of iterations =  7.0

     negative rho (up, down):  1.566E-02 0.000E+00

     Adding external electric field

     Computed dipole along edir(3) :
        Dipole                0.7080 Ry au,          1.7995 Debye
        Dipole field          0.0013 Ry au,

        Potential amp.       -0.1238 Ry
        Total length         46.3494 bohr

     End of self-consistent calculation

          k = 0.0000 0.0000 0.0000 ( 18029 PWs)   bands (ev):

   -55.8957 -55.8805 -55.8616 -55.8445 -55.7960 -55.7303 -55.7045 -55.7039
   -55.6937 -55.6699 -55.6687 -55.6351 -55.2864 -55.0952 -54.8726 -54.8386
   -32.4346 -32.3780 -32.2303 -32.2280 -32.2027 -32.1993 -32.1888 -32.1592
   -32.1381 -32.1246 -32.1027 -32.0670 -32.0611 -32.0478 -32.0338 -32.0202
   -32.0180 -31.9999 -31.9851 -31.9528 -31.9444 -31.9399 -31.8988 -31.8941
   -31.8917 -31.8881 -31.8801 -31.8753 -31.8708 -31.8442 -31.8436 -31.8348
   -31.8335 -31.8216 -31.8104 -31.7809 -31.7780 -31.5665 -31.4597 -31.3574
   -31.3554 -31.3110 -31.2797 -31.1914 -31.1690 -31.0965 -31.0100 -30.8989
   -18.4511 -16.6331 -16.3683 -16.1395 -16.0457 -16.0134 -15.8954 -15.7330
   -15.6156 -15.5606 -15.4631 -15.4437 -15.4309 -15.3987 -15.3805 -15.3749
   -15.3412 -15.3369 -15.3186 -15.3034 -15.2550 -15.2312 -15.2095 -15.1102
   -15.0640 -15.0303 -15.0150 -14.9518 -14.9467 -14.4416 -13.3752 -13.2588
   -11.3617  -6.9377  -4.3515  -4.0029  -3.8941  -3.8600  -3.8476  -3.8010
    -3.7440  -3.6242  -3.4993  -3.4370  -3.1263  -3.0784  -3.0625  -3.0452
    -3.0075  -2.8000  -2.7485  -2.7087  -2.6841  -2.6768  -2.6657  -2.6581
    -2.6464  -2.6079  -2.5057  -2.4364  -2.4297  -2.3437  -2.2937  -2.2703
    -2.2075  -2.1873  -2.1657  -2.1426  -2.1310  -2.1102  -2.0902  -2.0791
    -1.9744  -1.8831  -1.7499  -1.6945  -1.6740  -1.6602  -1.6425  -1.5028
    -1.3697  -1.3381  -1.3289  -1.3203  -1.2869  -1.2748  -1.1919  -1.0630
    -1.0523  -1.0121  -0.9604  -0.9023  -0.8771  -0.7753  -0.7384  -0.6615
    -0.6565  -0.6395  -0.5863  -0.5353  -0.3766  -0.3347  -0.3086  -0.2865
    -0.2620  -0.1912  -0.1697  -0.0530  -0.0359  -0.0184   0.0418   0.0651
     0.0780   0.0879   0.1057   0.1238   0.1413   0.3084   0.3809   0.4335
     0.4567   0.5147   0.6396   0.7086   0.7635   0.8639   1.0751   1.1493
     1.2420   1.3414   1.7206   1.7662   2.6486   3.2438   3.3247   3.3737
     3.3886   3.4855   3.5192   3.6955   3.6968   3.7256   3.7955

[...]

          k = 0.0380-0.0419 0.0000 ( 17876 PWs)   bands (ev):

[...]

          k =-0.0760-0.0000 0.0000 ( 17886 PWs)   bands (ev):

[...]

          k =-0.0760-0.0839 0.0000 ( 17948 PWs)   bands (ev):

   -55.8792 -55.8780 -55.8626 -55.8621 -55.7925 -55.7182 -55.7078 -55.7057
   -55.6880 -55.6853 -55.6526 -55.6513 -55.2849 -55.0965 -54.8557 -54.8553
   -32.2392 -32.2373 -32.1937 -32.1928 -32.1746 -32.1736 -32.1698 -32.1344
   -32.0888 -32.0858 -32.0798 -32.0792 -32.0426 -32.0131 -32.0054 -32.0048
   -31.9986 -31.9984 -31.9978 -31.9975 -31.9935 -31.9914 -31.9890 -31.9379
   -31.9241 -31.9123 -31.9111 -31.8999 -31.8868 -31.8862 -31.8837 -31.8826
   -31.8671 -31.8664 -31.8575 -31.8547 -31.6949 -31.5683 -31.4678 -31.4146
   -31.3572 -31.3365 -31.1819 -31.1815 -31.0927 -31.0923 -31.0534 -31.0531
   -18.4469 -16.0688 -16.0429 -15.8429 -15.8099 -15.8057 -15.7912 -15.6825
   -15.5976 -15.5906 -15.5879 -15.5214 -15.4914 -15.4755 -15.4349 -15.4222
   -15.4150 -15.4033 -15.3930 -15.3558 -15.3485 -15.3313 -15.3239 -15.2397
   -15.2118 -15.2077 -15.1819 -15.0640 -14.9327 -14.6177 -13.3607 -13.3605
   -11.3594  -6.9494  -4.2610  -3.9036  -3.8326  -3.3582  -3.3295  -3.0892
    -3.0504  -3.0367  -2.9836  -2.8219  -2.7916  -2.7658  -2.7542  -2.7226
    -2.7174  -2.7052  -2.7002  -2.6802  -2.6389  -2.6180  -2.6002  -2.5821
    -2.5626  -2.5487  -2.5330  -2.5162  -2.5067  -2.4674  -2.4439  -2.4322
    -2.4136  -2.4019  -2.2451  -2.1224  -2.0879  -2.0333  -2.0230  -2.0017
    -1.9618  -1.9580  -1.9463  -1.8818  -1.8102  -1.6518  -1.6149  -1.5944
    -1.5764  -1.5551  -1.5005  -1.4603  -1.3730  -1.2990  -1.2752  -1.2705
    -1.2021  -1.1150  -1.1077  -1.0602  -1.0172  -1.0081  -0.9531  -0.8883
    -0.8578  -0.8536  -0.8005  -0.7310  -0.7137  -0.6637  -0.6568  -0.6124
    -0.5575  -0.5497  -0.5284  -0.4872  -0.4052  -0.3816  -0.2431  -0.1633
    -0.0405   0.0736   0.1678   0.1822   0.2620   0.3142   0.3978   0.4153
     0.4258   0.4350   0.4782   0.5616   0.6370   0.6518   0.6976   0.8185
     1.5130   1.5138   1.5858   1.5861   2.7056   3.4911   3.5358   3.5780
     3.6102   3.7166   3.7490   3.7726   3.7739   3.8021   3.9154

     the Fermi energy is     3.2392 ev

!    total energy              =   -2939.15476635 Ry
     estimated scf accuracy    <       0.00000005 Ry
     smearing contrib. (-TS)   =      -0.02244588 Ry
     internal energy E=F+TS    =   -2939.13232047 Ry

     The total energy is F=E-TS. E is the sum of the following terms:
     one-electron contribution =  -24176.18891800 Ry
     hartree contribution      =   12175.34354666 Ry
     xc contribution           =    -485.18595876 Ry
     ewald contribution        =    9546.89806379 Ry
     electric field correction =       0.00094584 Ry

     convergence has been achieved in  67 iterations

     Forces acting on atoms (cartesian axes, Ry/au):

     atom    1 type  1   force =     0.00012131   -0.00024447    0.09663878
     atom    2 type  1   force =    -0.00012345   -0.00049845   -0.17523742
     atom    3 type  2   force =     0.00000142   -0.00010141   -0.02500753
     atom    4 type  2   force =     0.00005293   -0.00150585    0.05298495
     atom    5 type  2   force =    -0.01214818   -0.00108880    0.00361693
     atom    6 type  2   force =     0.01369997   -0.00027934    0.00229287
     atom    7 type  1   force =    -0.00117507    0.00037110   -0.01148178
     atom    8 type  1   force =     0.00056382    0.00939505    0.02852958
     atom    9 type  2   force =     0.00019514    0.00053315   -0.00016022
     atom   10 type  2   force =    -0.00114635    0.00028831   -0.01822968
     atom   11 type  2   force =    -0.00012790   -0.00000061   -0.00013154
     atom   12 type  2   force =     0.00013633    0.00021709    0.00018505
     atom   13 type  1   force =     0.00009767   -0.00029034    0.00015848
     atom   14 type  1   force =     0.00021984    0.00017022    0.00020771
     atom   15 type  2   force =     0.00022281   -0.00005568   -0.00012706
     atom   16 type  2   force =    -0.00033164    0.00033914    0.00038418
     atom   17 type  2   force =    -0.00013925    0.00042491   -0.00012748
     atom   18 type  2   force =     0.00013367    0.00016489    0.00023829
     atom   19 type  1   force =    -0.00008320    0.00016383    0.00006996
     atom   20 type  1   force =    -0.00058047   -0.00028918    0.00020783
     atom   21 type  2   force =     0.00008547    0.00001312    0.10323060
     atom   22 type  2   force =    -0.00020231    0.00026930    0.00072729
     atom   23 type  2   force =    -0.07146637   -0.00007258   -0.02772395
     atom   24 type  2   force =     0.07143017    0.00034845   -0.02773261
     atom   25 type  1   force =     0.00007335   -0.00022840    0.09638486
     atom   26 type  1   force =    -0.00022440   -0.00026299   -0.17563258
     atom   27 type  2   force =     0.00007087   -0.00025270   -0.02400602
     atom   28 type  2   force =     0.00009591   -0.00125551    0.05285474
     atom   29 type  2   force =    -0.01239585    0.00004025    0.00352577
     atom   30 type  2   force =     0.01386313    0.00033486    0.00217151
     atom   31 type  1   force =    -0.00113771    0.00333199   -0.01189280
     atom   32 type  1   force =     0.00065585   -0.01116039    0.02913530
     atom   33 type  2   force =     0.00010789   -0.00020235   -0.00041355
     atom   34 type  2   force =    -0.00089796   -0.00093936   -0.02482765
     atom   35 type  2   force =    -0.00040253    0.00027229    0.00002626
     atom   36 type  2   force =     0.00072977    0.00029400    0.00034620
     atom   37 type  1   force =    -0.00000722   -0.00022985    0.00005590
     atom   38 type  1   force =    -0.00001504    0.00010326    0.00000010
     atom   39 type  2   force =     0.00032879    0.00034215   -0.00045142
     atom   40 type  2   force =    -0.00030652    0.00010430    0.00016521
     atom   41 type  2   force =    -0.00044070    0.00052395    0.00013855
     atom   42 type  2   force =     0.00003154    0.00045041    0.00043592
     atom   43 type  1   force =    -0.00006157    0.00037296    0.00042125
     atom   44 type  1   force =    -0.00041416    0.00027696    0.00076900
     atom   45 type  2   force =     0.00008272   -0.00002723    0.10323640
     atom   46 type  2   force =    -0.07148339   -0.00003513   -0.02773743
     atom   47 type  2   force =     0.07144915    0.00039086   -0.02776379
     atom   48 type  3   force =    -0.00029457   -0.00111817    0.00047288
     atom   49 type  3   force =     0.00066298    0.00032975   -0.00005439
     atom   50 type  4   force =     0.00319577    0.00291219   -0.00245211
     atom   51 type  5   force =     0.00081233    0.00076395   -0.00112322
     atom   52 type  5   force =    -0.00270692   -0.00327701    0.00278699
     atom   53 type  5   force =    -0.00080788   -0.00012692   -0.00008514

     Total force =     0.368380     Total SCF correction =     0.000570
  @ DRIVER MODE: Message from server: STATUS
  @ DRIVER MODE: Message from server: GETFORCE
  @ DRIVER MODE: Returning v,forces,stress,ensemble

     Writing output data file ./calc.save/
  @ DRIVER MODE: Message from server: EXIT
  @ DRIVE MODE: Exiting

     General routines

     Parallel routines

   This run was terminated on:   2:16:48  19Aug2021

   JOB DONE.