     Program PWSCF v.6.7GPU starts on 20Sep2021 at 17:59: 3

     R & G space division:  proc/nbgrp/npool/nimage =      10
     Reading input from /storage/home/hcoda1/3/ntian30/research/carbon/CxH_vib/H2O_calc/ads_slab/CH3H2O_a/out_0007/pw.inp
Warning: card &CELL ignored
Warning: card   CELL_DYNAMICS='IPI', ignored
Warning: card / ignored

     Current dimensions of program PWSCF are:
     Max number of different atomic species (ntypx) = 10
     Max number of k-points (npk) =  40000
     Max angular momentum in pseudopotentials (lmaxx) =  3
     Presently no symmetry can be used with electric field

     Message from routine cell_base_init:
     DEPRECATED: use true lattice parameter, not A to a.u. conversion factor

     IMPORTANT: XC functional enforced from input :
     Exchange-correlation= BEEF-VDW
                           (   1   4  43  14   2   0   0)
     Any further DFT definition will be discarded
     Please, verify this is what you really want

  @ DRIVER MODE: Connecting to
 qe_1139763_2911776.sched-torque.pace.gatech.edup2y2o0m9_scratch
  using UNIX socket
  @ DRIVER MODE: Message from server: STATUS
  @ DRIVER MODE: Message from server: INIT
  @ DRIVER MODE: Receiving replica           0          -1
  @ DRIVER MODE: Receiving encoded integer          25
  @ DRIVER MODE:  SCF:  T  FORCE:  T  STRESS:  F  VC:  F  ENSEMBLE:  F
  @ DRIVER MODE:  SCF:  T  FORCE:  T  STRESS:  F  VC:  F  ENSEMBLE:  F

     Using Slab Decomposition

     bravais-lattice index     =            0
     lattice parameter (alat)  =       1.8897  a.u.
     unit-cell volume          =    6658.9804 (a.u.)^3
     number of atoms/cell      =           54
     number of atomic types    =            4
     number of electrons       =       393.00
     number of Kohn-Sham states=          206
     kinetic-energy cutoff     =      29.3995  Ry
     charge density cutoff     =     293.9946  Ry
     scf convergence threshold =      7.3E-08
     mixing beta               =       0.0500
     number of iterations used =            8  plain     mixing
     Exchange-correlation= BEEF-VDW
                           (   1   4  43  14   2   0   0)

     celldm(1)=   1.889726  celldm(2)=   0.000000  celldm(3)=   0.000000
     celldm(4)=   0.000000  celldm(5)=   0.000000  celldm(6)=   0.000000

     crystal axes: (cart. coord. in units of alat)
               a(1) = (   6.579727   0.000000   0.000000 )
               a(2) = (  -0.000775   5.961596   0.000000 )
               a(3) = (   0.000000   0.000000  25.155947 )

     reciprocal axes: (cart. coord. in units 2 pi/alat)
               b(1) = (  0.151982  0.000020  0.000000 )
               b(2) = (  0.000000  0.167740  0.000000 )
               b(3) = (  0.000000  0.000000  0.039752 )

     PseudoPot. # 1 for Ti read from file:
     /storage/coda1/p-amedford6/0/shared/rich_project_chbe-medford/medford-share/data/pseudos_module/espresso/nninc/pbe/van/Ti.UPF
     MD5 check sum: 8e4df49b7f0d34bbd5052bf3f5ea0213
     Pseudo is Ultrasoft, Zval = 12.0
     Generated by new atomic code, or converted to UPF format
     Using radial grid of  851 points,  6 beta functions with:
                l(1) =   0
                l(2) =   0
                l(3) =   1
                l(4) =   1
                l(5) =   2
                l(6) =   2
     Q(r) pseudized with  8 coefficients,  rinner =    1.000   1.000   1.000
                                                       1.000   1.000

     PseudoPot. # 2 for O  read from file:
     /storage/coda1/p-amedford6/0/shared/rich_project_chbe-medford/medford-share/data/pseudos_module/espresso/nninc/pbe/van/O.UPF
     MD5 check sum: 78c19812648e8988a0fe644b0f25305e
     Pseudo is Ultrasoft, Zval =  6.0
     Generated by new atomic code, or converted to UPF format
     Using radial grid of  737 points,  4 beta functions with:
                l(1) =   0
                l(2) =   0
                l(3) =   1
                l(4) =   1
     Q(r) pseudized with  8 coefficients,  rinner =    0.800   0.800   0.800

     PseudoPot. # 3 for C  read from file:
     /storage/coda1/p-amedford6/0/shared/rich_project_chbe-medford/medford-share/data/pseudos_module/espresso/nninc/pbe/van/C.UPF
     MD5 check sum: 1a69bf6b8db32088f5b2163dbdb77a27
     Pseudo is Ultrasoft, Zval =  4.0
     Generated by new atomic code, or converted to UPF format
     Using radial grid of  721 points,  4 beta functions with:
                l(1) =   0
                l(2) =   0
                l(3) =   1
                l(4) =   1
     Q(r) pseudized with  8 coefficients,  rinner =    0.800   0.800   0.800

     PseudoPot. # 4 for H  read from file:
     /storage/coda1/p-amedford6/0/shared/rich_project_chbe-medford/medford-share/data/pseudos_module/espresso/nninc/pbe/van/H.UPF
     MD5 check sum: b5ee9d7bfd3a09ee7748110bda690ff7
     Pseudo is Ultrasoft, Zval =  1.0
     Generated by new atomic code, or converted to UPF format
     Using radial grid of  615 points,  1 beta functions with:
                l(1) =   0
     Q(r) pseudized with  8 coefficients,  rinner =    0.800

     atomic species   valence    mass     pseudopotential
        Ti1           12.00    47.86700     Ti( 1.00)
        O1             6.00    15.99900     O ( 1.00)
        C1             4.00    12.01100     C ( 1.00)
        H1             1.00     1.00800     H ( 1.00)

     No symmetry found

   Cartesian axes

     site n.     atom                  positions (alat units)
         1           Ti1 tau(   1) = (   0.0004258   2.9801865   6.0000000  )
         2           Ti1 tau(   2) = (   3.2906075   1.4906267   6.0002472  )
         3           O1  tau(   3) = (   0.0006271   0.0005054   7.9858123  )
         4           O1  tau(   4) = (   3.2906025   0.0005020   7.3038282  )
         5           O1  tau(   5) = (   4.5942328   1.4918067   9.2879030  )
         6           O1  tau(   6) = (   1.9868534   1.4903216   9.2879459  )
         7           Ti1 tau(   7) = (   3.3154911   2.9426235   9.1630835  )
         8           Ti1 tau(   8) = (   0.0285409   1.6075342   9.3657832  )
         9           O1  tau(   9) = (   3.2815087   0.0160907  11.3545821  )
        10           O1  tau(  10) = (   0.0024802   0.0106306  10.6007539  )
        11           O1  tau(  11) = (   1.2725489   1.5064038  12.6453836  )
        12           O1  tau(  12) = (   5.2753141   1.5150378  12.6350139  )
        13           Ti1 tau(  13) = (   0.0284581   2.9538459  12.7835337  )
        14           Ti1 tau(  14) = (   3.3388075   1.4895305  12.5082680  )
        15           O1  tau(  15) = (   6.5535251   0.0144872  14.6406477  )
        16           O1  tau(  16) = (   3.2781334   0.0285334  13.9682696  )
        17           O1  tau(  17) = (   4.5366274   1.5703088  16.0558364  )
        18           O1  tau(  18) = (   2.0012422   1.5648880  16.0484572  )
        19           Ti1 tau(  19) = (   3.2604835   3.0254881  15.6976271  )
        20           Ti1 tau(  20) = (   6.5333720   1.5229778  16.1593769  )
        21           O1  tau(  21) = (   3.2904802   0.0005063   4.7018136  )
        22           O1  tau(  22) = (   6.5574971   0.0350135  17.1872057  )
        23           O1  tau(  23) = (   1.3043587   1.4918075   6.0039043  )
        24           O1  tau(  24) = (   5.2767064   1.4903225   6.0039473  )
        25           Ti1 tau(  25) = (   0.0000382   5.9609847   6.0000000  )
        26           Ti1 tau(  26) = (   3.2902200   4.4714249   6.0002472  )
        27           O1  tau(  27) = (   0.0002396   2.9813036   7.9858123  )
        28           O1  tau(  28) = (   3.2902150   2.9813002   7.3038282  )
        29           O1  tau(  29) = (   4.5938453   4.4726049   9.2879030  )
        30           O1  tau(  30) = (   1.9864658   4.4711199   9.2879459  )
        31           Ti1 tau(  31) = (   3.3083403   5.9269411   9.1538128  )
        32           Ti1 tau(  32) = (   0.0303829   4.5362093   9.2612125  )
        33           O1  tau(  33) = (   3.2841341   2.9899418  11.3555480  )
        34           O1  tau(  34) = (   0.0038936   2.9924975  10.5838058  )
        35           O1  tau(  35) = (   1.2726398   4.4822405  12.6394144  )
        36           O1  tau(  36) = (   5.2736595   4.4864409  12.6303220  )
        37           Ti1 tau(  37) = (   0.0300145   5.9360250  12.5182071  )
        38           Ti1 tau(  38) = (   3.3377519   4.4811756  12.4937589  )
        39           O1  tau(  39) = (   6.5654514   3.0136449  14.7225067  )
        40           O1  tau(  40) = (   3.2707049   3.0114760  13.9116621  )
        41           O1  tau(  41) = (   4.5328936   4.4881537  16.0752462  )
        42           O1  tau(  42) = (   1.9999049   4.4921254  16.0707699  )
        43           Ti1 tau(  43) = (   3.2502456   0.0519323  15.7983500  )
        44           Ti1 tau(  44) = (   6.5407796   4.6451211  15.8442649  )
        45           O1  tau(  45) = (   3.2900926   2.9813045   4.7018136  )
        46           O1  tau(  46) = (   1.3039711   4.4726057   6.0039043  )
        47           O1  tau(  47) = (   5.2763189   4.4711207   6.0039473  )
        48           C1  tau(  48) = (   6.5619928   2.8946514  17.8930439  )
        49           H1  tau(  49) = (   6.5452299   3.9601472  18.1196503  )
        50           H1  tau(  50) = (   0.8760557   2.4850835  18.3732843  )
        51           H1  tau(  51) = (   5.6817198   2.4733575  18.3891814  )
        52           O1  tau(  52) = (   3.2572702   0.1178616  18.1992317  )
        53           H1  tau(  53) = (   4.0330629   5.5870706  18.5079137  )
        54           H1  tau(  54) = (   2.4710694   5.5989049  18.5058656  )

     number of k points=    10  Fermi-Dirac smearing, width (Ry)=  0.0073
                       cart. coord. in units 2pi/alat
        k(    1) = (   0.0000000   0.0000000   0.0000000), wk =   0.1250000
        k(    2) = (   0.0000000   0.0419351   0.0000000), wk =   0.2500000
        k(    3) = (   0.0000000  -0.0838702   0.0000000), wk =   0.1250000
        k(    4) = (   0.0379955   0.0000049   0.0000000), wk =   0.2500000
        k(    5) = (   0.0379955   0.0419400   0.0000000), wk =   0.2500000
        k(    6) = (   0.0379955  -0.0838652   0.0000000), wk =   0.2500000
        k(    7) = (   0.0379955  -0.0419301   0.0000000), wk =   0.2500000
        k(    8) = (  -0.0759910  -0.0000099   0.0000000), wk =   0.1250000
        k(    9) = (  -0.0759910   0.0419252   0.0000000), wk =   0.2500000
        k(   10) = (  -0.0759910  -0.0838800   0.0000000), wk =   0.1250000

     Initial potential from superposition of free atoms

     starting charge  376.99916, renormalised to  393.00000

     negative rho (up, down):  1.843E-02 0.000E+00

     %%%%%%%%%%%%%%%%%%%%%%%%%%%%%%%%%%%%%%%%%%%%%%%%%%%%%%%%%%%%%%%%%%%%%%%%
     %                                                                      %
     % You are using vdW-DF, which was implemented by the Thonhauser group. %
     % Please cite the following two papers that made this development      %
     % possible and the two reviews that describe the various versions:     %
     %                                                                      %
     %   T. Thonhauser et al., PRL 115, 136402 (2015).                      %
     %   T. Thonhauser et al., PRB 76, 125112 (2007).                       %
     %   K. Berland et al., Rep. Prog. Phys. 78, 066501 (2015).             %
     %   D.C. Langreth et al., J. Phys.: Condens. Matter 21, 084203 (2009). %
     %                                                                      %
     %                                                                      %
     % If you are calculating the stress with vdW-DF, please also cite:     %
     %                                                                      %
     %   R. Sabatini et al., J. Phys.: Condens. Matter 24, 424209 (2012).   %
     %                                                                      %
     %%%%%%%%%%%%%%%%%%%%%%%%%%%%%%%%%%%%%%%%%%%%%%%%%%%%%%%%%%%%%%%%%%%%%%%%

     Adding external electric field

     Computed dipole along edir(3) :
        Dipole               -6.6597 Ry au,        -16.9273 Debye
        Dipole field         -0.0126 Ry au,

        Potential amp.        1.1650 Ry
        Total length         46.3494 bohr

     Starting wfcs are  297 atomic wfcs
  @ DRIVER MODE: Message from server: STATUS
  @ DRIVER MODE: Message from server: POSDATA
  @ DRIVER MODE: Reading and sharing cell
  @ DRIVER MODE: Reading and sharing positions
  @ DRIVER MODE: Received positions

     Self-consistent Calculation

     iteration #  1     ecut=    29.40 Ry     beta= 0.05
     Davidson diagonalization with overlap
     c_bands:  2 eigenvalues not converged
     c_bands:  2 eigenvalues not converged
     c_bands:  2 eigenvalues not converged
     c_bands:  1 eigenvalues not converged
     c_bands:  1 eigenvalues not converged
     ethr =  1.00E-05,  avg # of iterations = 18.0

[...]

     total energy              =   -2713.81334166 Ry
     estimated scf accuracy    <    2414.33653084 Ry

[...]

     iteration #  3     ecut=    29.40 Ry     beta= 0.05
     Davidson diagonalization with overlap
     ethr =  1.00E-02,  avg # of iterations = 16.6

[...]

     iteration # 62     ecut=    29.40 Ry     beta= 0.05
     Davidson diagonalization with overlap
     c_bands:  1 eigenvalues not converged
     c_bands:  1 eigenvalues not converged
     ethr =  1.20E-10,  avg # of iterations = 15.3

[...]

     total energy              =   -2933.86694247 Ry
     estimated scf accuracy    <       0.00000019 Ry

     iteration # 65     ecut=    29.40 Ry     beta= 0.05
     Davidson diagonalization with overlap
     ethr =  3.11E-11,  avg # of iterations = 12.1

     negative rho (up, down):  1.750E-02 0.000E+00

     Adding external electric field

     Computed dipole along edir(3) :
        Dipole                0.8204 Ry au,          2.0851 Debye
        Dipole field          0.0015 Ry au,

        Potential amp.       -0.1435 Ry
        Total length         46.3494 bohr

     End of self-consistent calculation

          k = 0.0000 0.0000 0.0000 ( 18029 PWs)   bands (ev):

   -55.8889 -55.8529 -55.8463 -55.8204 -55.8098 -55.7783 -55.7453 -55.6895
   -55.6593 -55.6501 -55.6170 -55.6097 -55.5509 -55.5501 -54.8983 -54.8643
   -32.4038 -32.3578 -32.2615 -32.2405 -32.1806 -32.1608 -32.1602 -32.1266
   -32.1161 -32.1067 -32.0875 -32.0828 -32.0641 -32.0489 -32.0474 -32.0298
   -31.9979 -31.9920 -31.9799 -31.9790 -31.9538 -31.9508 -31.9454 -31.9302
   -31.9270 -31.9046 -31.9009 -31.8874 -31.8820 -31.8740 -31.8715 -31.8458
   -31.8213 -31.8052 -31.7937 -31.7913 -31.7691 -31.7546 -31.7525 -31.7366
   -31.7357 -31.6581 -31.3081 -31.2115 -31.1891 -31.1244 -31.0383 -30.9274
   -19.3372 -16.6141 -16.3379 -16.1893 -16.0506 -16.0144 -15.8147 -15.7026
   -15.5826 -15.5457 -15.4863 -15.4657 -15.4341 -15.4139 -15.4111 -15.3972
   -15.3896 -15.3370 -15.3281 -15.2928 -15.2913 -15.2647 -15.2092 -15.1640
   -15.1095 -15.0561 -15.0076 -14.9416 -14.8846 -14.8744 -13.3992 -13.2812
    -9.3004  -7.1389  -3.9852  -3.8334  -3.8156  -3.7804  -3.7186  -3.6263
    -3.4764  -3.3649  -3.2283  -3.0749  -3.0250  -3.0119  -3.0083  -2.9817
    -2.8832  -2.7586  -2.7332  -2.7057  -2.7005  -2.6825  -2.6803  -2.6447
    -2.5998  -2.5877  -2.5523  -2.5390  -2.3877  -2.3190  -2.3019  -2.2610
    -2.2003  -2.1904  -2.1559  -2.1421  -2.1347  -2.0965  -2.0788  -2.0320
    -1.9829  -1.9106  -1.8275  -1.7718  -1.6717  -1.5814  -1.5210  -1.4656
    -1.4326  -1.3328  -1.3157  -1.2886  -1.2168  -1.1898  -1.1218  -1.0720
    -0.9805  -0.9054  -0.8868  -0.8358  -0.7870  -0.6725  -0.6486  -0.6209
    -0.6161  -0.6018  -0.5793  -0.4230  -0.3947  -0.3305  -0.3220  -0.2097
    -0.2061  -0.1756  -0.1576  -0.0995  -0.0704   0.0003   0.0366   0.0782
     0.0878   0.1114   0.1217   0.1345   0.2261   0.3162   0.3408   0.4122
     0.4490   0.5651   0.6431   0.7605   0.8523   1.0328   1.0745   1.1257
     1.2023   1.2978   1.7126   1.7714   3.2962   3.3425   3.3624   3.3835
     3.4113   3.5425   3.6636   3.7484   3.7732   3.8053

[...]

          k = 0.0380-0.0419 0.0000 ( 17876 PWs)   bands (ev):

[...]

          k =-0.0760-0.0000 0.0000 ( 17886 PWs)   bands (ev):

[...]

          k =-0.0760-0.0839 0.0000 ( 17948 PWs)   bands (ev):

   -55.8768 -55.8649 -55.8305 -55.8253 -55.8180 -55.7638 -55.7598 -55.6917
   -55.6556 -55.6350 -55.6328 -55.6054 -55.5543 -55.5536 -54.8817 -54.8807
   -32.2162 -32.1997 -32.1809 -32.1690 -32.1672 -32.1505 -32.1225 -32.1187
   -32.1004 -32.0979 -32.0961 -32.0444 -32.0353 -32.0343 -32.0146 -32.0027
   -31.9976 -31.9968 -31.9952 -31.9940 -31.9910 -31.9774 -31.9723 -31.9647
   -31.9550 -31.9538 -31.9495 -31.9099 -31.8896 -31.8890 -31.8815 -31.8805
   -31.8599 -31.8395 -31.8377 -31.8297 -31.8159 -31.7980 -31.7950 -31.7788
   -31.7465 -31.7039 -31.2024 -31.2011 -31.1214 -31.1206 -31.0818 -31.0809
   -19.3364 -16.0768 -15.9644 -15.8466 -15.7696 -15.7475 -15.7131 -15.6642
   -15.6585 -15.5969 -15.5911 -15.5432 -15.5330 -15.5056 -15.4801 -15.4361
   -15.4148 -15.3942 -15.3733 -15.3376 -15.3168 -15.3065 -15.2682 -15.2564
   -15.2439 -15.2161 -15.2045 -15.1421 -15.0991 -15.0542 -13.3833 -13.3817
    -9.3161  -7.1321  -3.7137  -3.3631  -3.1705  -3.1134  -3.0144  -2.9665
    -2.9555  -2.8918  -2.8307  -2.8184  -2.7826  -2.7714  -2.7611  -2.7226
    -2.7199  -2.7066  -2.6748  -2.6714  -2.6611  -2.6296  -2.5830  -2.5687
    -2.5530  -2.5155  -2.4990  -2.4956  -2.4559  -2.4392  -2.4329  -2.4254
    -2.3868  -2.3738  -2.2084  -2.1487  -2.1192  -2.0406  -2.0217  -1.9894
    -1.9799  -1.9514  -1.9284  -1.8922  -1.7524  -1.7134  -1.7100  -1.6285
    -1.6027  -1.5759  -1.4689  -1.4048  -1.3779  -1.3690  -1.3024  -1.2646
    -1.2300  -1.1256  -1.0939  -1.0439  -0.9879  -0.9742  -0.9307  -0.8501
    -0.8440  -0.8096  -0.7936  -0.7707  -0.6527  -0.6092  -0.5992  -0.5513
    -0.5266  -0.5079  -0.4423  -0.4030  -0.4003  -0.3391  -0.2784  -0.2251
     0.0227   0.1248   0.1398   0.1601   0.2294   0.2782   0.4199   0.4332
     0.4417   0.5025   0.5592   0.6374   0.6627   0.6660   0.7445   1.1768
     1.4863   1.4875   1.5758   1.5852   3.5221   3.5259   3.5915   3.6322
     3.7585   3.7637   3.7840   3.7877   3.9037   3.9328

     the Fermi energy is     3.2648 ev

!    total energy              =   -2933.86697080 Ry
     estimated scf accuracy    <       0.00000004 Ry
     smearing contrib. (-TS)   =      -0.02305651 Ry
     internal energy E=F+TS    =   -2933.84391429 Ry

     The total energy is F=E-TS. E is the sum of the following terms:
     one-electron contribution =  -24504.12054095 Ry
     hartree contribution      =   12338.98516505 Ry
     xc contribution           =    -483.57594217 Ry
     ewald contribution        =    9714.86613375 Ry
     electric field correction =       0.00127002 Ry

     convergence has been achieved in  65 iterations

     Forces acting on atoms (cartesian axes, Ry/au):

     atom    1 type  1   force =    -0.00011062   -0.00195827    0.10544434
     atom    2 type  1   force =    -0.00038826    0.00132467   -0.17935005
     atom    3 type  2   force =     0.00026049   -0.00510465   -0.03367968
     atom    4 type  2   force =     0.00051719   -0.00077969    0.04637046
     atom    5 type  2   force =    -0.01892484   -0.00017429    0.00449713
     atom    6 type  2   force =     0.01982165    0.00140256    0.00400752
     atom    7 type  1   force =    -0.00040816   -0.00014314   -0.00042015
     atom    8 type  1   force =     0.00015604    0.00074792    0.00130263
     atom    9 type  2   force =     0.00011997   -0.00045517   -0.00099305
     atom   10 type  2   force =     0.00008548    0.00006431   -0.00007938
     atom   11 type  2   force =    -0.00055307   -0.00010799    0.00016667
     atom   12 type  2   force =     0.00099089   -0.00002615    0.00021610
     atom   13 type  1   force =    -0.00047392   -0.00077441    0.00048133
     atom   14 type  1   force =    -0.00029363   -0.00002657    0.00074405
     atom   15 type  2   force =     0.00003156   -0.00045129    0.00114510
     atom   16 type  2   force =    -0.00011531   -0.00003985   -0.00007915
     atom   17 type  2   force =    -0.00041977   -0.00042824    0.00006640
     atom   18 type  2   force =     0.00053488   -0.00013722    0.00007879
     atom   19 type  1   force =    -0.00103530    0.00018477    0.00084078
     atom   20 type  1   force =     0.00053077   -0.00043696   -0.00022027
     atom   21 type  2   force =    -0.00001292   -0.00000558    0.10409822
     atom   22 type  2   force =    -0.00024736   -0.00017173    0.00009310
     atom   23 type  2   force =    -0.06930160    0.00064196   -0.02952091
     atom   24 type  2   force =     0.06901885    0.00107645   -0.02958339
     atom   25 type  1   force =    -0.00014224    0.00132204    0.11500183
     atom   26 type  1   force =    -0.00023400   -0.00149487   -0.17964599
     atom   27 type  2   force =     0.00036136    0.00379574   -0.02632923
     atom   28 type  2   force =     0.00059836   -0.00051713    0.04863724
     atom   29 type  2   force =    -0.01842051    0.00191009    0.00402244
     atom   30 type  2   force =     0.01788892    0.00352122    0.00329500
     atom   31 type  1   force =    -0.00050589    0.00058472    0.00006175
     atom   32 type  1   force =     0.00013550   -0.00150693    0.00085455
     atom   33 type  2   force =    -0.00015464    0.00046843   -0.00158548
     atom   34 type  2   force =     0.00001891   -0.00083308   -0.00159560
     atom   35 type  2   force =     0.00012064    0.00020545   -0.00029658
     atom   36 type  2   force =     0.00030933    0.00018771   -0.00027324
     atom   37 type  1   force =     0.00009777    0.00043396   -0.00062625
     atom   38 type  1   force =    -0.00011425    0.00075481    0.00042063
     atom   39 type  2   force =    -0.00010067    0.00014371    0.00002170
     atom   40 type  2   force =     0.00040425    0.00042859    0.00025715
     atom   41 type  2   force =    -0.00068163   -0.00057781   -0.00032735
     atom   42 type  2   force =     0.00091867   -0.00056788   -0.00047546
     atom   43 type  1   force =    -0.00068440    0.00010269    0.00053265
     atom   44 type  1   force =     0.00069708   -0.00013411   -0.00077183
     atom   45 type  2   force =    -0.00002666   -0.00001729    0.10408124
     atom   46 type  2   force =    -0.06885523   -0.00085603   -0.02955051
     atom   47 type  2   force =     0.06866047   -0.00047300   -0.02961331
     atom   48 type  3   force =    -0.00159183   -0.00043438   -0.00104786
     atom   49 type  4   force =     0.00146332    0.00029797   -0.00136842
     atom   50 type  4   force =     0.00058576    0.00093468    0.00056941
     atom   51 type  4   force =    -0.00051701   -0.00102693    0.00021659
     atom   52 type  2   force =    -0.00052851    0.00072832   -0.00139191
     atom   53 type  4   force =     0.00087793   -0.00107870    0.00081570
     atom   54 type  4   force =    -0.00036385   -0.00052343    0.00048453

     Total force =     0.375373     Total SCF correction =     0.000547
  @ DRIVER MODE: Message from server: STATUS
  @ DRIVER MODE: Message from server: GETFORCE
  @ DRIVER MODE: Returning v,forces,stress,ensemble

     Writing output data file ./calc.save/
  @ DRIVER MODE: Message from server: EXIT
  @ DRIVE MODE: Exiting

     General routines

     Parallel routines

   This run was terminated on:  18:20:11  20Sep2021

   JOB DONE.