     Program PWSCF v.6.7GPU starts on 15Sep2021 at 16:39:27

     R & G space division:  proc/nbgrp/npool/nimage =      10
     Reading input from /storage/home/hcoda1/3/ntian30/research/carbon/CxH_vib/H2O_calc/ads_slab/CH2H2O_a/out_0004/pw.inp
Warning: card &CELL ignored
Warning: card   CELL_DYNAMICS='IPI', ignored
Warning: card / ignored

     Current dimensions of program PWSCF are:
     Max number of different atomic species (ntypx) = 10
     Max number of k-points (npk) =  40000
     Max angular momentum in pseudopotentials (lmaxx) =  3
     Presently no symmetry can be used with electric field

     Message from routine cell_base_init:
     DEPRECATED: use true lattice parameter, not A to a.u. conversion factor

     IMPORTANT: XC functional enforced from input :
     Exchange-correlation= BEEF-VDW
                           (   1   4  43  14   2   0   0)
     Any further DFT definition will be discarded
     Please, verify this is what you really want

  @ DRIVER MODE: Connecting to
 qe_1139763_2852604.sched-torque.pace.gatech.edurppldtcx_scratch
  using UNIX socket
  @ DRIVER MODE: Message from server: STATUS
  @ DRIVER MODE: Message from server: INIT
  @ DRIVER MODE: Receiving replica           0          -1
  @ DRIVER MODE: Receiving encoded integer          25
  @ DRIVER MODE:  SCF:  T  FORCE:  T  STRESS:  F  VC:  F  ENSEMBLE:  F
  @ DRIVER MODE:  SCF:  T  FORCE:  T  STRESS:  F  VC:  F  ENSEMBLE:  F

     Using Slab Decomposition

     bravais-lattice index     =            0
     lattice parameter (alat)  =       1.8897  a.u.
     unit-cell volume          =    6658.9804 (a.u.)^3
     number of atoms/cell      =           53
     number of atomic types    =            4
     number of electrons       =       392.00
     number of Kohn-Sham states=          206
     kinetic-energy cutoff     =      29.3995  Ry
     charge density cutoff     =     293.9946  Ry
     scf convergence threshold =      7.3E-08
     mixing beta               =       0.0500
     number of iterations used =            8  plain     mixing
     Exchange-correlation= BEEF-VDW
                           (   1   4  43  14   2   0   0)

     celldm(1)=   1.889726  celldm(2)=   0.000000  celldm(3)=   0.000000
     celldm(4)=   0.000000  celldm(5)=   0.000000  celldm(6)=   0.000000

     crystal axes: (cart. coord. in units of alat)
               a(1) = (   6.579727   0.000000   0.000000 )
               a(2) = (  -0.000775   5.961596   0.000000 )
               a(3) = (   0.000000   0.000000  25.155947 )

     reciprocal axes: (cart. coord. in units 2 pi/alat)
               b(1) = (  0.151982  0.000020  0.000000 )
               b(2) = (  0.000000  0.167740  0.000000 )
               b(3) = (  0.000000  0.000000  0.039752 )

     PseudoPot. # 1 for Ti read from file:
     /storage/coda1/p-amedford6/0/shared/rich_project_chbe-medford/medford-share/data/pseudos_module/espresso/nninc/pbe/van/Ti.UPF
     MD5 check sum: 8e4df49b7f0d34bbd5052bf3f5ea0213
     Pseudo is Ultrasoft, Zval = 12.0
     Generated by new atomic code, or converted to UPF format
     Using radial grid of  851 points,  6 beta functions with:
                l(1) =   0
                l(2) =   0
                l(3) =   1
                l(4) =   1
                l(5) =   2
                l(6) =   2
     Q(r) pseudized with  8 coefficients,  rinner =    1.000   1.000   1.000
                                                       1.000   1.000

     PseudoPot. # 2 for O  read from file:
     /storage/coda1/p-amedford6/0/shared/rich_project_chbe-medford/medford-share/data/pseudos_module/espresso/nninc/pbe/van/O.UPF
     MD5 check sum: 78c19812648e8988a0fe644b0f25305e
     Pseudo is Ultrasoft, Zval =  6.0
     Generated by new atomic code, or converted to UPF format
     Using radial grid of  737 points,  4 beta functions with:
                l(1) =   0
                l(2) =   0
                l(3) =   1
                l(4) =   1
     Q(r) pseudized with  8 coefficients,  rinner =    0.800   0.800   0.800

     PseudoPot. # 3 for C  read from file:
     /storage/coda1/p-amedford6/0/shared/rich_project_chbe-medford/medford-share/data/pseudos_module/espresso/nninc/pbe/van/C.UPF
     MD5 check sum: 1a69bf6b8db32088f5b2163dbdb77a27
     Pseudo is Ultrasoft, Zval =  4.0
     Generated by new atomic code, or converted to UPF format
     Using radial grid of  721 points,  4 beta functions with:
                l(1) =   0
                l(2) =   0
                l(3) =   1
                l(4) =   1
     Q(r) pseudized with  8 coefficients,  rinner =    0.800   0.800   0.800

     PseudoPot. # 4 for H  read from file:
     /storage/coda1/p-amedford6/0/shared/rich_project_chbe-medford/medford-share/data/pseudos_module/espresso/nninc/pbe/van/H.UPF
     MD5 check sum: b5ee9d7bfd3a09ee7748110bda690ff7
     Pseudo is Ultrasoft, Zval =  1.0
     Generated by new atomic code, or converted to UPF format
     Using radial grid of  615 points,  1 beta functions with:
                l(1) =   0
     Q(r) pseudized with  8 coefficients,  rinner =    0.800

     atomic species   valence    mass     pseudopotential
        Ti1           12.00    47.86700     Ti( 1.00)
        O1             6.00    15.99900     O ( 1.00)
        C1             4.00    12.01100     C ( 1.00)
        H1             1.00     1.00800     H ( 1.00)

     No symmetry found

   Cartesian axes

     site n.     atom                  positions (alat units)
         1           Ti1 tau(   1) = (   0.0004258   2.9801865   6.0000000  )
         2           Ti1 tau(   2) = (   3.2906075   1.4906267   6.0002472  )
         3           O1  tau(   3) = (   0.0006271   0.0005054   7.9858123  )
         4           O1  tau(   4) = (   3.2906025   0.0005020   7.3038282  )
         5           O1  tau(   5) = (   4.5942328   1.4918067   9.2879030  )
         6           O1  tau(   6) = (   1.9868534   1.4903216   9.2879459  )
         7           Ti1 tau(   7) = (   3.2791254   2.8632543   9.1696858  )
         8           Ti1 tau(   8) = (   6.5716288   1.4291880   9.3745659  )
         9           O1  tau(   9) = (   3.2719631   5.9564768  11.3413791  )
        10           O1  tau(  10) = (   6.5766582   5.9454684  10.5603319  )
        11           O1  tau(  11) = (   1.2606928   1.4857163  12.6338655  )
        12           O1  tau(  12) = (   5.2561023   1.4877827  12.6114660  )
        13           Ti1 tau(  13) = (   0.0646731   2.9540699  12.8218634  )
        14           Ti1 tau(  14) = (   3.3836270   1.4660460  12.4955168  )
        15           O1  tau(  15) = (   6.5457659   5.9184216  14.5915085  )
        16           O1  tau(  16) = (   3.2744135   0.0171945  13.9516778  )
        17           O1  tau(  17) = (   4.5159629   1.5536209  16.0418326  )
        18           O1  tau(  18) = (   1.9981799   1.5541948  16.0447984  )
        19           Ti1 tau(  19) = (   3.2528476   3.0136947  15.6822407  )
        20           Ti1 tau(  20) = (   6.5571992   1.6159626  16.1493948  )
        21           O1  tau(  21) = (   3.2904802   0.0005063   4.7018136  )
        22           O1  tau(  22) = (   6.5499432   0.0285508  17.2403840  )
        23           O1  tau(  23) = (   1.3043587   1.4918075   6.0039043  )
        24           O1  tau(  24) = (   5.2767064   1.4903225   6.0039473  )
        25           Ti1 tau(  25) = (   0.0000382   5.9609847   6.0000000  )
        26           Ti1 tau(  26) = (   3.2902200   4.4714249   6.0002472  )
        27           O1  tau(  27) = (   0.0002396   2.9813036   7.9858123  )
        28           O1  tau(  28) = (   3.2902150   2.9813002   7.3038282  )
        29           O1  tau(  29) = (   4.5938453   4.4726049   9.2879030  )
        30           O1  tau(  30) = (   1.9864658   4.4711199   9.2879459  )
        31           Ti1 tau(  31) = (   3.2865685   5.8444178   9.1628351  )
        32           Ti1 tau(  32) = (   6.5743218   4.4049426   9.3738558  )
        33           O1  tau(  33) = (   3.2769956   2.9705820  11.3381082  )
        34           O1  tau(  34) = (   6.5775985   2.9640992  10.5572898  )
        35           O1  tau(  35) = (   1.2629977   4.4457513  12.6272354  )
        36           O1  tau(  36) = (   5.2537740   4.4534837  12.6036699  )
        37           Ti1 tau(  37) = (   0.0534783   5.9329931  12.7718795  )
        38           Ti1 tau(  38) = (   3.3808541   4.4548706  12.4760825  )
        39           O1  tau(  39) = (   6.5578179   2.9671967  14.6759119  )
        40           O1  tau(  40) = (   3.2646438   2.9894133  13.8927730  )
        41           O1  tau(  41) = (   4.5094683   4.4833613  16.0328582  )
        42           O1  tau(  42) = (   2.0033084   4.4836886  16.0339364  )
        43           Ti1 tau(  43) = (   3.2772676   0.0291193  15.7865657  )
        44           Ti1 tau(  44) = (   6.5620481   4.6241259  16.1080240  )
        45           O1  tau(  45) = (   3.2900926   2.9813045   4.7018136  )
        46           O1  tau(  46) = (   1.3039711   4.4726057   6.0039043  )
        47           O1  tau(  47) = (   5.2763189   4.4711207   6.0039473  )
        48           C1  tau(  48) = (   6.5362552   3.0089010  17.5868729  )
        49           H1  tau(  49) = (   0.8535040   3.1223538  18.1993289  )
        50           H1  tau(  50) = (   5.6240823   3.1149880  18.1772116  )
        51           O1  tau(  51) = (   3.2614802   0.0224742  18.1496266  )
        52           H1  tau(  52) = (   4.0528939   5.9570843  18.7024920  )
        53           H1  tau(  53) = (   2.4635753   0.0005096  18.6943540  )

     number of k points=    10  Fermi-Dirac smearing, width (Ry)=  0.0073
                       cart. coord. in units 2pi/alat
        k(    1) = (   0.0000000   0.0000000   0.0000000), wk =   0.1250000
        k(    2) = (   0.0000000   0.0419351   0.0000000), wk =   0.2500000
        k(    3) = (   0.0000000  -0.0838702   0.0000000), wk =   0.1250000
        k(    4) = (   0.0379955   0.0000049   0.0000000), wk =   0.2500000
        k(    5) = (   0.0379955   0.0419400   0.0000000), wk =   0.2500000
        k(    6) = (   0.0379955  -0.0838652   0.0000000), wk =   0.2500000
        k(    7) = (   0.0379955  -0.0419301   0.0000000), wk =   0.2500000
        k(    8) = (  -0.0759910  -0.0000099   0.0000000), wk =   0.1250000
        k(    9) = (  -0.0759910   0.0419252   0.0000000), wk =   0.2500000
        k(   10) = (  -0.0759910  -0.0838800   0.0000000), wk =   0.1250000

     Initial potential from superposition of free atoms

     starting charge  375.99917, renormalised to  392.00000

     negative rho (up, down):  1.851E-02 0.000E+00

     %%%%%%%%%%%%%%%%%%%%%%%%%%%%%%%%%%%%%%%%%%%%%%%%%%%%%%%%%%%%%%%%%%%%%%%%
     %                                                                      %
     % You are using vdW-DF, which was implemented by the Thonhauser group. %
     % Please cite the following two papers that made this development      %
     % possible and the two reviews that describe the various versions:     %
     %                                                                      %
     %   T. Thonhauser et al., PRL 115, 136402 (2015).                      %
     %   T. Thonhauser et al., PRB 76, 125112 (2007).                       %
     %   K. Berland et al., Rep. Prog. Phys. 78, 066501 (2015).             %
     %   D.C. Langreth et al., J. Phys.: Condens. Matter 21, 084203 (2009). %
     %                                                                      %
     %                                                                      %
     % If you are calculating the stress with vdW-DF, please also cite:     %
     %                                                                      %
     %   R. Sabatini et al., J. Phys.: Condens. Matter 24, 424209 (2012).   %
     %                                                                      %
     %%%%%%%%%%%%%%%%%%%%%%%%%%%%%%%%%%%%%%%%%%%%%%%%%%%%%%%%%%%%%%%%%%%%%%%%

     Adding external electric field

     Computed dipole along edir(3) :
        Dipole               -5.1805 Ry au,        -13.1674 Debye
        Dipole field         -0.0098 Ry au,

        Potential amp.        0.9062 Ry
        Total length         46.3494 bohr

     Starting wfcs are  296 atomic wfcs
  @ DRIVER MODE: Message from server: STATUS
  @ DRIVER MODE: Message from server: POSDATA
  @ DRIVER MODE: Reading and sharing cell
  @ DRIVER MODE: Reading and sharing positions
  @ DRIVER MODE: Received positions

     Self-consistent Calculation

     iteration #  1     ecut=    29.40 Ry     beta= 0.05
     Davidson diagonalization with overlap
     c_bands:  5 eigenvalues not converged
     c_bands:  3 eigenvalues not converged
     c_bands:  4 eigenvalues not converged
     c_bands:  1 eigenvalues not converged
     c_bands:  2 eigenvalues not converged
     c_bands:  1 eigenvalues not converged
     c_bands:  3 eigenvalues not converged
     c_bands:  1 eigenvalues not converged
     ethr =  1.00E-05,  avg # of iterations = 19.5

[...]

     total energy              =   -2834.23601199 Ry
     estimated scf accuracy    <    1087.91954767 Ry

     iteration #  2     ecut=    29.40 Ry     beta= 0.05
     Davidson diagonalization with overlap
     ethr =  1.00E-02,  avg # of iterations = 16.1

[...]

     iteration # 46     ecut=    29.40 Ry     beta= 0.05
     Davidson diagonalization with overlap
     c_bands:  1 eigenvalues not converged
     c_bands:  2 eigenvalues not converged
     c_bands:  2 eigenvalues not converged
     c_bands:  1 eigenvalues not converged
     ethr =  2.37E-07,  avg # of iterations = 15.2

[...]

     total energy              =   -2932.56453050 Ry
     estimated scf accuracy    <       0.00000010 Ry

     iteration # 73     ecut=    29.40 Ry     beta= 0.05
     Davidson diagonalization with overlap
     ethr =  2.53E-11,  avg # of iterations =  5.0

     negative rho (up, down):  1.822E-02 0.000E+00

     Adding external electric field

     Computed dipole along edir(3) :
        Dipole                0.9000 Ry au,          2.2875 Debye
        Dipole field          0.0017 Ry au,

        Potential amp.       -0.1574 Ry
        Total length         46.3494 bohr

     End of self-consistent calculation

          k = 0.0000 0.0000 0.0000 ( 18029 PWs)   bands (ev):

   -56.1835 -56.1493 -55.8920 -55.8418 -55.8039 -55.7001 -55.5917 -55.5615
   -55.5274 -55.5076 -55.4912 -55.4555 -55.1192 -55.0092 -54.9685 -54.9346
   -32.6114 -32.4347 -32.4058 -32.3823 -32.3726 -32.2919 -32.2812 -32.2380
   -32.1779 -32.1111 -32.1051 -32.0691 -32.0583 -32.0539 -32.0486 -32.0232
   -31.9988 -31.9961 -31.9665 -31.8961 -31.8723 -31.8386 -31.8234 -31.8099
   -31.8078 -31.7779 -31.7482 -31.7316 -31.7235 -31.7204 -31.6784 -31.6716
   -31.6701 -31.6636 -31.6491 -31.5949 -31.5755 -31.4172 -31.3848 -31.3684
   -31.3178 -31.2949 -31.2711 -31.1867 -31.1777 -31.1018 -31.0515 -30.9899
   -19.2299 -16.5195 -16.3487 -16.1144 -15.9789 -15.8979 -15.7377 -15.5551
   -15.5472 -15.4591 -15.4344 -15.3609 -15.3501 -15.3170 -15.3047 -15.2972
   -15.2828 -15.2586 -15.2122 -15.1996 -15.1992 -15.1498 -15.0957 -15.0030
   -14.9928 -14.9442 -14.8247 -14.8175 -14.7830 -14.6412 -13.4624 -13.3487
    -8.0690  -7.2718  -3.9977  -3.9282  -3.8123  -3.7208  -3.6950  -3.5794
    -3.3407  -3.2696  -3.0128  -2.9816  -2.9387  -2.8925  -2.8781  -2.7970
    -2.7067  -2.6906  -2.6624  -2.6369  -2.6019  -2.5943  -2.5313  -2.5232
    -2.5000  -2.4950  -2.4305  -2.4143  -2.3712  -2.2360  -2.1864  -2.1609
    -2.1501  -2.1103  -2.0755  -2.0126  -1.9885  -1.9620  -1.9045  -1.7546
    -1.7301  -1.6505  -1.6212  -1.5490  -1.4606  -1.4453  -1.3002  -1.2821
    -1.2474  -1.2344  -1.2066  -1.1547  -1.1355  -1.0277  -0.8980  -0.8191
    -0.7862  -0.7641  -0.7515  -0.7049  -0.6678  -0.6142  -0.6073  -0.5634
    -0.4878  -0.4794  -0.4037  -0.2182  -0.2038  -0.1938  -0.1762  -0.1344
    -0.1049  -0.0819  -0.0398   0.0062   0.0316   0.0905   0.0998   0.1304
     0.1483   0.2242   0.2741   0.3292   0.3364   0.4472   0.5605   0.6229
     0.6395   0.6705   0.7723   0.7836   0.9891   1.0085   1.0591   1.2708
     1.3152   1.6447   1.7164   2.1776   3.0855   3.2605   3.4606   3.5609
     3.5813   3.6768   3.6877   3.8202   3.8774   3.9258

[...]

          k = 0.0380-0.0419 0.0000 ( 17876 PWs)   bands (ev):

[...]

          k =-0.0760-0.0000 0.0000 ( 17886 PWs)   bands (ev):

[...]

          k =-0.0760-0.0839 0.0000 ( 17948 PWs)   bands (ev):

   -56.1694 -56.1633 -55.8904 -55.8292 -55.8163 -55.7015 -55.5880 -55.5454
   -55.5432 -55.5113 -55.4771 -55.4697 -55.1165 -55.0117 -54.9515 -54.9515
   -32.4314 -32.4263 -32.4235 -32.4160 -32.3277 -32.3226 -32.1967 -32.1844
   -32.1704 -32.1593 -32.1070 -32.0930 -32.0530 -32.0331 -32.0293 -32.0172
   -31.9999 -31.9039 -31.9037 -31.8756 -31.8750 -31.8398 -31.8174 -31.8071
   -31.8050 -31.7966 -31.7915 -31.7868 -31.7578 -31.7560 -31.7540 -31.7380
   -31.6925 -31.6854 -31.6822 -31.6754 -31.4812 -31.4142 -31.3903 -31.3021
   -31.2840 -31.2840 -31.2790 -31.1828 -31.1824 -31.1444 -31.1443 -31.0665
   -19.2292 -16.0095 -15.8988 -15.7453 -15.7050 -15.6613 -15.6608 -15.6311
   -15.5984 -15.5624 -15.5570 -15.4672 -15.4351 -15.4225 -15.4104 -15.3441
   -15.3383 -15.3332 -15.3296 -15.2692 -15.2628 -15.1474 -15.1395 -15.0600
   -15.0513 -15.0215 -14.9976 -14.9551 -14.9481 -14.7910 -13.4511 -13.4510
    -8.0736  -7.2649  -3.9185  -3.3098  -3.0912  -2.9698  -2.9308  -2.8047
    -2.7940  -2.7881  -2.7794  -2.7695  -2.7287  -2.6735  -2.6537  -2.6421
    -2.6166  -2.6038  -2.5753  -2.5667  -2.5396  -2.5377  -2.5326  -2.5283
    -2.5112  -2.4938  -2.4364  -2.4270  -2.4109  -2.3817  -2.3033  -2.2901
    -2.1977  -2.1127  -2.0771  -2.0757  -2.0169  -1.9818  -1.8986  -1.8901
    -1.8742  -1.8685  -1.8062  -1.6130  -1.5565  -1.5513  -1.5149  -1.4798
    -1.3191  -1.2809  -1.2198  -1.1791  -1.1464  -1.1343  -1.0603  -1.0482
    -1.0219  -0.9674  -0.9628  -0.9559  -0.9400  -0.8598  -0.8433  -0.8164
    -0.7421  -0.7007  -0.6844  -0.6589  -0.6283  -0.5748  -0.4897  -0.4672
    -0.4553  -0.4398  -0.3118  -0.2746  -0.2465  -0.2058  -0.1579   0.1079
     0.1175   0.1994   0.2993   0.3929   0.4324   0.5353   0.5538   0.5595
     0.6860   0.6999   0.7056   0.7144   0.8149   0.8214   0.8585   1.4442
     1.4465   1.4991   1.5004   2.4470   3.6072   3.6131   3.6267   3.6322
     3.6536   3.6846   3.7038   3.7343   4.0254   4.0423

     the Fermi energy is     2.7947 ev

!    total energy              =   -2932.56454436 Ry
     estimated scf accuracy    <       0.00000004 Ry
     smearing contrib. (-TS)   =      -0.00170360 Ry
     internal energy E=F+TS    =   -2932.56284076 Ry

     The total energy is F=E-TS. E is the sum of the following terms:
     one-electron contribution =  -24523.05979120 Ry
     hartree contribution      =   12349.10881816 Ry
     xc contribution           =    -482.74457166 Ry
     ewald contribution        =    9724.13117544 Ry
     electric field correction =       0.00152850 Ry

     convergence has been achieved in  73 iterations

     Forces acting on atoms (cartesian axes, Ry/au):

     atom    1 type  1   force =     0.00030316   -0.00016443    0.14549074
     atom    2 type  1   force =     0.00005421    0.00070567   -0.16927009
     atom    3 type  2   force =     0.00003616    0.00235403   -0.06017406
     atom    4 type  2   force =    -0.00017029   -0.00142086    0.03909795
     atom    5 type  2   force =    -0.02196233   -0.00032006    0.00361767
     atom    6 type  2   force =     0.01965534   -0.00080954    0.00222718
     atom    7 type  1   force =     0.00012434   -0.00001494    0.00035817
     atom    8 type  1   force =     0.00007025    0.00007689    0.00102747
     atom    9 type  2   force =    -0.00007379   -0.00028662    0.00036753
     atom   10 type  2   force =     0.00010612    0.00015337   -0.00059159
     atom   11 type  2   force =     0.00005628    0.00012240    0.00103897
     atom   12 type  2   force =     0.00073497    0.00015505    0.00108124
     atom   13 type  1   force =    -0.00067894   -0.00016507   -0.00082639
     atom   14 type  1   force =     0.00037860   -0.00105296   -0.00005214
     atom   15 type  2   force =     0.00017022    0.00058961    0.00043551
     atom   16 type  2   force =    -0.00005845   -0.00025379    0.00149903
     atom   17 type  2   force =     0.00044538   -0.00049282    0.00032952
     atom   18 type  2   force =    -0.00044442   -0.00064277    0.00034664
     atom   19 type  1   force =     0.00080769   -0.00028838   -0.00028890
     atom   20 type  1   force =    -0.00031579    0.00109978    0.00133002
     atom   21 type  2   force =     0.00012961   -0.00007735    0.10215056
     atom   22 type  2   force =     0.00015999    0.00216568   -0.00014446
     atom   23 type  2   force =    -0.07474978    0.00031960   -0.03448308
     atom   24 type  2   force =     0.07482600    0.00076725   -0.03455301
     atom   25 type  1   force =     0.00009678   -0.00006904    0.14709086
     atom   26 type  1   force =     0.00001344   -0.00209530   -0.16946012
     atom   27 type  2   force =     0.00001543    0.00193936   -0.05932709
     atom   28 type  2   force =    -0.00028676   -0.00140075    0.03998533
     atom   29 type  2   force =    -0.02160359    0.00107537    0.00384074
     atom   30 type  2   force =     0.02035435   -0.00010962    0.00245259
     atom   31 type  1   force =     0.00013116    0.00016765    0.00125626
     atom   32 type  1   force =     0.00006811   -0.00019990    0.00111158
     atom   33 type  2   force =    -0.00010142   -0.00006250   -0.00053046
     atom   34 type  2   force =     0.00011172    0.00010179   -0.00058549
     atom   35 type  2   force =     0.00026041   -0.00048841    0.00079815
     atom   36 type  2   force =     0.00036100   -0.00050325    0.00086824
     atom   37 type  1   force =    -0.00063905   -0.00014612   -0.00045233
     atom   38 type  1   force =     0.00048760    0.00060412   -0.00039623
     atom   39 type  2   force =     0.00028440   -0.00036344    0.00036277
     atom   40 type  2   force =    -0.00009930   -0.00015487    0.00183774
     atom   41 type  2   force =    -0.00010321    0.00051692    0.00019562
     atom   42 type  2   force =     0.00006493    0.00055818    0.00025653
     atom   43 type  1   force =     0.00041976    0.00019569   -0.00023710
     atom   44 type  1   force =    -0.00032046    0.00006770   -0.00014090
     atom   45 type  2   force =     0.00012161   -0.00010424    0.10207875
     atom   46 type  2   force =    -0.07473955   -0.00002144   -0.03445249
     atom   47 type  2   force =     0.07482758    0.00043710   -0.03455207
     atom   48 type  3   force =    -0.00006808   -0.00431904   -0.00255590
     atom   49 type  4   force =     0.00099107    0.00019726    0.00035994
     atom   50 type  4   force =    -0.00046160    0.00030579    0.00037247
     atom   51 type  2   force =     0.00022804    0.00104018   -0.00100008
     atom   52 type  4   force =     0.00058097    0.00014588    0.00037673
     atom   53 type  4   force =    -0.00059984    0.00016522    0.00043148

     Total force =     0.400378     Total SCF correction =     0.000563
  @ DRIVER MODE: Message from server: STATUS
  @ DRIVER MODE: Message from server: GETFORCE
  @ DRIVER MODE: Returning v,forces,stress,ensemble

     Writing output data file ./calc.save/
  @ DRIVER MODE: Message from server: EXIT
  @ DRIVE MODE: Exiting

     General routines

     Parallel routines

   This run was terminated on:  16:58:43  15Sep2021

   JOB DONE.