     Program PWSCF v.6.7GPU starts on 11Sep2021 at  3:29:58

     R & G space division:  proc/nbgrp/npool/nimage =      10
     Reading input from /storage/home/hcoda1/3/ntian30/research/carbon/CxH_vib/CH2_calc/ads_slab/CH2OH_f/out_0030/pw.inp
Warning: card &CELL ignored
Warning: card   CELL_DYNAMICS='IPI', ignored
Warning: card / ignored

     Current dimensions of program PWSCF are:
     Max number of different atomic species (ntypx) = 10
     Max number of k-points (npk) =  40000
     Max angular momentum in pseudopotentials (lmaxx) =  3
     Presently no symmetry can be used with electric field

     Message from routine cell_base_init:
     DEPRECATED: use true lattice parameter, not A to a.u. conversion factor

     IMPORTANT: XC functional enforced from input :
     Exchange-correlation= BEEF-VDW
                           (   1   4  43  14   2   0   0)
     Any further DFT definition will be discarded
     Please, verify this is what you really want

  @ DRIVER MODE: Connecting to
 qe_1139763_2792042.sched-torque.pace.gatech.eduqqsf327o_scratch
  using UNIX socket
  @ DRIVER MODE: Message from server: STATUS
  @ DRIVER MODE: Message from server: INIT
  @ DRIVER MODE: Receiving replica           0          -1
  @ DRIVER MODE: Receiving encoded integer          25
  @ DRIVER MODE:  SCF:  T  FORCE:  T  STRESS:  F  VC:  F  ENSEMBLE:  F
  @ DRIVER MODE:  SCF:  T  FORCE:  T  STRESS:  F  VC:  F  ENSEMBLE:  F

     Using Slab Decomposition

     bravais-lattice index     =            0
     lattice parameter (alat)  =       1.8897  a.u.
     unit-cell volume          =    6658.9804 (a.u.)^3
     number of atoms/cell      =           52
     number of atomic types    =            4
     number of electrons       =       391.00
     number of Kohn-Sham states=          205
     kinetic-energy cutoff     =      29.3995  Ry
     charge density cutoff     =     293.9946  Ry
     scf convergence threshold =      7.3E-08
     mixing beta               =       0.0500
     number of iterations used =            8  plain     mixing
     Exchange-correlation= BEEF-VDW
                           (   1   4  43  14   2   0   0)

     celldm(1)=   1.889726  celldm(2)=   0.000000  celldm(3)=   0.000000
     celldm(4)=   0.000000  celldm(5)=   0.000000  celldm(6)=   0.000000

     crystal axes: (cart. coord. in units of alat)
               a(1) = (   6.579727   0.000000   0.000000 )
               a(2) = (  -0.000775   5.961596   0.000000 )
               a(3) = (   0.000000   0.000000  25.155947 )

     reciprocal axes: (cart. coord. in units 2 pi/alat)
               b(1) = (  0.151982  0.000020  0.000000 )
               b(2) = (  0.000000  0.167740  0.000000 )
               b(3) = (  0.000000  0.000000  0.039752 )

     PseudoPot. # 1 for O  read from file:
     /storage/coda1/p-amedford6/0/shared/rich_project_chbe-medford/medford-share/data/pseudos_module/espresso/nninc/pbe/van/O.UPF
     MD5 check sum: 78c19812648e8988a0fe644b0f25305e
     Pseudo is Ultrasoft, Zval =  6.0
     Generated by new atomic code, or converted to UPF format
     Using radial grid of  737 points,  4 beta functions with:
                l(1) =   0
                l(2) =   0
                l(3) =   1
                l(4) =   1
     Q(r) pseudized with  8 coefficients,  rinner =    0.800   0.800   0.800

     PseudoPot. # 2 for Ti read from file:
     /storage/coda1/p-amedford6/0/shared/rich_project_chbe-medford/medford-share/data/pseudos_module/espresso/nninc/pbe/van/Ti.UPF
     MD5 check sum: 8e4df49b7f0d34bbd5052bf3f5ea0213
     Pseudo is Ultrasoft, Zval = 12.0
     Generated by new atomic code, or converted to UPF format
     Using radial grid of  851 points,  6 beta functions with:
                l(1) =   0
                l(2) =   0
                l(3) =   1
                l(4) =   1
                l(5) =   2
                l(6) =   2
     Q(r) pseudized with  8 coefficients,  rinner =    1.000   1.000   1.000
                                                       1.000   1.000

     PseudoPot. # 3 for H  read from file:
     /storage/coda1/p-amedford6/0/shared/rich_project_chbe-medford/medford-share/data/pseudos_module/espresso/nninc/pbe/van/H.UPF
     MD5 check sum: b5ee9d7bfd3a09ee7748110bda690ff7
     Pseudo is Ultrasoft, Zval =  1.0
     Generated by new atomic code, or converted to UPF format
     Using radial grid of  615 points,  1 beta functions with:
                l(1) =   0
     Q(r) pseudized with  8 coefficients,  rinner =    0.800

     PseudoPot. # 4 for C  read from file:
     /storage/coda1/p-amedford6/0/shared/rich_project_chbe-medford/medford-share/data/pseudos_module/espresso/nninc/pbe/van/C.UPF
     MD5 check sum: 1a69bf6b8db32088f5b2163dbdb77a27
     Pseudo is Ultrasoft, Zval =  4.0
     Generated by new atomic code, or converted to UPF format
     Using radial grid of  721 points,  4 beta functions with:
                l(1) =   0
                l(2) =   0
                l(3) =   1
                l(4) =   1
     Q(r) pseudized with  8 coefficients,  rinner =    0.800   0.800   0.800

     atomic species   valence    mass     pseudopotential
        O1             6.00    15.99900     O ( 1.00)
        Ti1           12.00    47.86700     Ti( 1.00)
        H1             1.00     1.00800     H ( 1.00)
        C1             4.00    12.01100     C ( 1.00)

     No symmetry found

   Cartesian axes

     site n.     atom                  positions (alat units)
         1           O1  tau(   1) = (   3.2904802   0.0005063   4.7018136  )
         2           O1  tau(   2) = (   3.2900926   2.9813045   4.7018136  )
         3           Ti1 tau(   3) = (   0.0004258   2.9801865   6.0000000  )
         4           Ti1 tau(   4) = (   0.0000382   5.9609847   6.0000000  )
         5           Ti1 tau(   5) = (   3.2906075   1.4906267   6.0002472  )
         6           Ti1 tau(   6) = (   3.2902200   4.4714249   6.0002472  )
         7           O1  tau(   7) = (   1.3043587   1.4918075   6.0039043  )
         8           O1  tau(   8) = (   1.3039711   4.4726057   6.0039043  )
         9           O1  tau(   9) = (   5.2767064   1.4903225   6.0039473  )
        10           O1  tau(  10) = (   5.2763189   4.4711207   6.0039473  )
        11           O1  tau(  11) = (   3.2906025   0.0005020   7.3038282  )
        12           O1  tau(  12) = (   3.2902150   2.9813002   7.3038282  )
        13           O1  tau(  13) = (   0.0006271   0.0005054   7.9858123  )
        14           O1  tau(  14) = (   0.0002396   2.9813036   7.9858123  )
        15           Ti1 tau(  15) = (   3.3208325   5.9232416   9.1783542  )
        16           Ti1 tau(  16) = (   3.3324863   2.9377666   9.1648094  )
        17           Ti1 tau(  17) = (   0.0524917   1.4788520   9.2606301  )
        18           Ti1 tau(  18) = (   0.0483789   4.4105323   9.3105966  )
        19           O1  tau(  19) = (   4.5942328   1.4918067   9.2879030  )
        20           O1  tau(  20) = (   4.5938453   4.4726049   9.2879030  )
        21           O1  tau(  21) = (   1.9868534   1.4903216   9.2879459  )
        22           O1  tau(  22) = (   1.9864658   4.4711199   9.2879459  )
        23           O1  tau(  23) = (   6.5712937   0.0017758  10.5841540  )
        24           O1  tau(  24) = (   0.0002036   2.9871675  10.5944109  )
        25           O1  tau(  25) = (   3.2216619   2.9970402  11.3379169  )
        26           O1  tau(  26) = (   3.2239595   0.0054171  11.3328765  )
        27           Ti1 tau(  27) = (   6.5319223   0.0329622  12.4533321  )
        28           Ti1 tau(  28) = (   3.1914638   1.6317768  12.6145244  )
        29           Ti1 tau(  29) = (   3.1843358   4.5420783  12.4476223  )
        30           Ti1 tau(  30) = (   6.4449355   3.0101977  12.6586491  )
        31           O1  tau(  31) = (   5.2440064   1.5124744  12.5792363  )
        32           O1  tau(  32) = (   5.2402295   4.4617308  12.5795526  )
        33           O1  tau(  33) = (   1.2196697   1.4730338  12.6667888  )
        34           O1  tau(  34) = (   1.2190574   4.4979232  12.6669875  )
        35           O1  tau(  35) = (   3.2067865   2.9341989  13.9395670  )
        36           O1  tau(  36) = (   3.3440650   5.9513154  13.9008253  )
        37           O1  tau(  37) = (   6.3267833   5.9539684  14.6370341  )
        38           O1  tau(  38) = (   6.3913104   2.9714873  14.7475579  )
        39           Ti1 tau(  39) = (   3.1260420   2.9476348  15.9752747  )
        40           Ti1 tau(  40) = (   3.1986908   5.9292636  15.6746755  )
        41           Ti1 tau(  41) = (   6.4744102   1.3498976  15.9078779  )
        42           Ti1 tau(  42) = (   6.4721656   4.5656371  15.8700466  )
        43           O1  tau(  43) = (   1.8677001   4.5604514  15.8157410  )
        44           O1  tau(  44) = (   1.8686447   1.3618557  15.8396546  )
        45           O1  tau(  45) = (   4.4008848   1.5192286  16.2292034  )
        46           O1  tau(  46) = (   4.3978686   4.4066597  16.2143399  )
        47           O1  tau(  47) = (   6.4830960   5.9408203  17.1431429  )
        48           O1  tau(  48) = (   0.4828407   2.9769521  17.4917737  )
        49           H1  tau(  49) = (   6.5026766   3.0145448  18.2851392  )
        50           C1  tau(  50) = (   1.9555054   2.9805414  17.9097346  )
        51           H1  tau(  51) = (   2.0761010   2.0893267  18.5304525  )
        52           H1  tau(  52) = (   2.0801140   3.8867162  18.5173456  )

     number of k points=    10  Fermi-Dirac smearing, width (Ry)=  0.0073
                       cart. coord. in units 2pi/alat
        k(    1) = (   0.0000000   0.0000000   0.0000000), wk =   0.1250000
        k(    2) = (   0.0000000   0.0419351   0.0000000), wk =   0.2500000
        k(    3) = (   0.0000000  -0.0838702   0.0000000), wk =   0.1250000
        k(    4) = (   0.0379955   0.0000049   0.0000000), wk =   0.2500000
        k(    5) = (   0.0379955   0.0419400   0.0000000), wk =   0.2500000
        k(    6) = (   0.0379955  -0.0838652   0.0000000), wk =   0.2500000
        k(    7) = (   0.0379955  -0.0419301   0.0000000), wk =   0.2500000
        k(    8) = (  -0.0759910  -0.0000099   0.0000000), wk =   0.1250000
        k(    9) = (  -0.0759910   0.0419252   0.0000000), wk =   0.2500000
        k(   10) = (  -0.0759910  -0.0838800   0.0000000), wk =   0.1250000

     Initial potential from superposition of free atoms

     starting charge  374.99918, renormalised to  391.00000

     negative rho (up, down):  1.928E-02 0.000E+00

     %%%%%%%%%%%%%%%%%%%%%%%%%%%%%%%%%%%%%%%%%%%%%%%%%%%%%%%%%%%%%%%%%%%%%%%%
     %                                                                      %
     % You are using vdW-DF, which was implemented by the Thonhauser group. %
     % Please cite the following two papers that made this development      %
     % possible and the two reviews that describe the various versions:     %
     %                                                                      %
     %   T. Thonhauser et al., PRL 115, 136402 (2015).                      %
     %   T. Thonhauser et al., PRB 76, 125112 (2007).                       %
     %   K. Berland et al., Rep. Prog. Phys. 78, 066501 (2015).             %
     %   D.C. Langreth et al., J. Phys.: Condens. Matter 21, 084203 (2009). %
     %                                                                      %
     %                                                                      %
     % If you are calculating the stress with vdW-DF, please also cite:     %
     %                                                                      %
     %   R. Sabatini et al., J. Phys.: Condens. Matter 24, 424209 (2012).   %
     %                                                                      %
     %%%%%%%%%%%%%%%%%%%%%%%%%%%%%%%%%%%%%%%%%%%%%%%%%%%%%%%%%%%%%%%%%%%%%%%%

     Adding external electric field

     Computed dipole along edir(3) :
        Dipole               -5.2502 Ry au,        -13.3446 Debye
        Dipole field         -0.0099 Ry au,

        Potential amp.        0.9184 Ry
        Total length         46.3494 bohr

     Starting wfcs are  295 atomic wfcs
  @ DRIVER MODE: Message from server: STATUS
  @ DRIVER MODE: Message from server: POSDATA
  @ DRIVER MODE: Reading and sharing cell
  @ DRIVER MODE: Reading and sharing positions
  @ DRIVER MODE: Received positions

     Self-consistent Calculation

     iteration #  1     ecut=    29.40 Ry     beta= 0.05
     Davidson diagonalization with overlap
     c_bands:  1 eigenvalues not converged
     c_bands:  4 eigenvalues not converged
     c_bands:  1 eigenvalues not converged
     c_bands:  2 eigenvalues not converged
     c_bands:  4 eigenvalues not converged
     c_bands:  1 eigenvalues not converged
     c_bands:  1 eigenvalues not converged
     c_bands:  3 eigenvalues not converged
     ethr =  1.00E-05,  avg # of iterations = 19.6

[...]

     total energy              =   -2799.43727395 Ry
     estimated scf accuracy    <    1449.33509968 Ry

     iteration #  2     ecut=    29.40 Ry     beta= 0.05
     Davidson diagonalization with overlap
     ethr =  1.00E-02,  avg # of iterations = 16.9

[...]

     iteration # 68     ecut=    29.40 Ry     beta= 0.05
     Davidson diagonalization with overlap
     c_bands:  2 eigenvalues not converged
     ethr =  6.30E-11,  avg # of iterations = 12.9

[...]

     total energy              =   -2931.32925281 Ry
     estimated scf accuracy    <       0.00000009 Ry

     iteration # 70     ecut=    29.40 Ry     beta= 0.05
     Davidson diagonalization with overlap
     ethr =  2.27E-11,  avg # of iterations = 11.9

     negative rho (up, down):  1.889E-02 0.000E+00

     Adding external electric field

     Computed dipole along edir(3) :
        Dipole                0.9518 Ry au,          2.4193 Debye
        Dipole field          0.0018 Ry au,

        Potential amp.       -0.1665 Ry
        Total length         46.3494 bohr

     End of self-consistent calculation

          k = 0.0000 0.0000 0.0000 ( 18029 PWs)   bands (ev):

   -55.8506 -55.8130 -55.7587 -55.7460 -55.6926 -55.6852 -55.6700 -55.6657
   -55.6354 -55.6165 -55.6148 -55.5890 -55.5823 -55.5665 -54.8255 -54.7915
   -32.3601 -32.3249 -32.2342 -32.2050 -32.1596 -32.1346 -32.1225 -32.0979
   -32.0892 -32.0614 -32.0353 -32.0136 -32.0054 -31.9921 -31.9650 -31.9578
   -31.9468 -31.9355 -31.9171 -31.9145 -31.9099 -31.9039 -31.8765 -31.8584
   -31.8529 -31.8499 -31.8484 -31.8386 -31.8320 -31.8229 -31.8142 -31.8116
   -31.8014 -31.7891 -31.7854 -31.7843 -31.7716 -31.7659 -31.7489 -31.7372
   -31.7181 -31.6462 -31.2328 -31.1433 -31.1208 -31.0497 -30.9634 -30.8520
   -19.5435 -16.5543 -16.3384 -16.1515 -16.0526 -16.0021 -15.8335 -15.7513
   -15.5411 -15.4886 -15.4767 -15.4508 -15.3947 -15.3783 -15.3720 -15.3531
   -15.3413 -15.3165 -15.2570 -15.2482 -15.2399 -15.2051 -15.1476 -15.1173
   -14.9905 -14.9816 -14.9660 -14.9471 -14.8635 -14.7331 -13.3258 -13.2088
    -9.5999  -6.4432  -4.1826  -3.9995  -3.8652  -3.7685  -3.7528  -3.7323
    -3.5704  -3.4962  -3.2716  -3.1392  -3.0882  -3.0210  -2.9808  -2.9191
    -2.8265  -2.7633  -2.7221  -2.6818  -2.6482  -2.6468  -2.6314  -2.5774
    -2.5474  -2.5028  -2.4014  -2.3987  -2.3466  -2.2901  -2.2500  -2.2081
    -2.1667  -2.1514  -2.1307  -2.0941  -2.0610  -2.0510  -2.0182  -1.9883
    -1.9313  -1.8495  -1.8205  -1.5581  -1.4671  -1.3816  -1.3680  -1.3007
    -1.2769  -1.2478  -1.2325  -1.1906  -1.1760  -1.0943  -1.0853  -1.0132
    -0.9720  -0.8908  -0.8305  -0.7537  -0.6904  -0.6313  -0.6101  -0.5806
    -0.5647  -0.5549  -0.3935  -0.3824  -0.3553  -0.2445  -0.2284  -0.1640
    -0.1402  -0.0779  -0.0545   0.0100   0.0681   0.0899   0.1116   0.1477
     0.1582   0.1704   0.2128   0.2945   0.3845   0.3983   0.4154   0.4787
     0.6443   0.7183   0.8216   0.8858   1.1235   1.1992   1.2358   1.2785
     1.3855   1.7731   1.8261   3.2972   3.3666   3.4146   3.4249   3.4638
     3.5457   3.7359   3.7439   3.8025   3.8907

[...]

          k = 0.0380-0.0419 0.0000 ( 17876 PWs)   bands (ev):

[...]

          k =-0.0760-0.0000 0.0000 ( 17886 PWs)   bands (ev):

[...]

          k =-0.0760-0.0839 0.0000 ( 17948 PWs)   bands (ev):

   -55.8398 -55.8237 -55.7544 -55.7393 -55.6990 -55.6891 -55.6664 -55.6603
   -55.6272 -55.6219 -55.6002 -55.5983 -55.5965 -55.5691 -54.8086 -54.8083
   -32.2829 -32.1484 -32.1370 -32.1329 -32.1094 -32.0850 -32.0802 -32.0529
   -32.0213 -32.0036 -31.9938 -31.9901 -31.9775 -31.9678 -31.9659 -31.9611
   -31.9600 -31.9521 -31.9496 -31.9338 -31.9318 -31.9240 -31.9010 -31.8976
   -31.8930 -31.8867 -31.8854 -31.8751 -31.8668 -31.8605 -31.8475 -31.8444
   -31.8348 -31.8259 -31.8238 -31.8142 -31.8111 -31.8090 -31.8071 -31.7951
   -31.7913 -31.6477 -31.1337 -31.1333 -31.0463 -31.0453 -31.0068 -31.0060
   -19.5375 -16.1434 -15.9591 -15.8053 -15.7916 -15.7858 -15.6337 -15.6305
   -15.6055 -15.5688 -15.5360 -15.5181 -15.4801 -15.4759 -15.4328 -15.3814
   -15.3749 -15.3629 -15.3364 -15.2853 -15.2730 -15.2581 -15.1810 -15.1703
   -15.1620 -15.1357 -15.1329 -15.1012 -15.1006 -15.0260 -13.3126 -13.3086
    -9.6004  -6.4266  -4.1880  -3.8640  -3.2835  -3.2103  -3.0179  -3.0031
    -2.9284  -2.8935  -2.8676  -2.8273  -2.7773  -2.7703  -2.7556  -2.6811
    -2.6574  -2.6528  -2.6081  -2.5951  -2.5849  -2.5684  -2.5548  -2.5172
    -2.4944  -2.4701  -2.4470  -2.4317  -2.4099  -2.4012  -2.3965  -2.3506
    -2.3303  -2.2092  -2.1192  -2.0564  -2.0090  -1.9691  -1.9429  -1.9242
    -1.9066  -1.8921  -1.8790  -1.8386  -1.7698  -1.6042  -1.5257  -1.5208
    -1.4570  -1.4373  -1.3854  -1.3669  -1.2911  -1.2596  -1.2081  -1.1994
    -1.1836  -1.0809  -1.0569  -0.9640  -0.9312  -0.8258  -0.8024  -0.7892
    -0.7700  -0.7281  -0.7061  -0.6429  -0.6197  -0.5822  -0.5546  -0.5038
    -0.4587  -0.4420  -0.3438  -0.3029  -0.2491  -0.2021  -0.1347  -0.0258
     0.1527   0.1752   0.2101   0.3146   0.3537   0.4250   0.4815   0.5002
     0.5640   0.6004   0.6445   0.6934   0.7566   0.7931   1.2398   1.5607
     1.5693   1.6338   1.6454   3.5997   3.6488   3.7682   3.7812   3.8109
     3.8216   3.8348   3.8499   3.8994   3.9536

     the Fermi energy is     3.2906 ev

!    total energy              =   -2931.32926978 Ry
     estimated scf accuracy    <       0.00000004 Ry
     smearing contrib. (-TS)   =      -0.02173025 Ry
     internal energy E=F+TS    =   -2931.30753952 Ry

     The total energy is F=E-TS. E is the sum of the following terms:
     one-electron contribution =  -24943.92975593 Ry
     hartree contribution      =   12558.36975844 Ry
     xc contribution           =    -482.03700137 Ry
     ewald contribution        =    9936.28774961 Ry
     electric field correction =       0.00170972 Ry

     convergence has been achieved in  70 iterations

     Forces acting on atoms (cartesian axes, Ry/au):

     atom    1 type  1   force =    -0.00001257    0.00010010    0.10309202
     atom    2 type  1   force =     0.00000582    0.00011159    0.10343008
     atom    3 type  2   force =    -0.00029273    0.00098978    0.09591765
     atom    4 type  2   force =    -0.00015155   -0.00100172    0.10944828
     atom    5 type  2   force =    -0.00014906   -0.00319240   -0.17641762
     atom    6 type  2   force =    -0.00014383    0.00267478   -0.17601816
     atom    7 type  1   force =    -0.07086066    0.00113534   -0.02853665
     atom    8 type  1   force =    -0.07120693   -0.00152306   -0.02856374
     atom    9 type  1   force =     0.07070635    0.00154943   -0.02856602
     atom   10 type  1   force =     0.07092723   -0.00114735   -0.02860905
     atom   11 type  1   force =     0.00048543   -0.00020851    0.05104608
     atom   12 type  1   force =     0.00072113   -0.00042077    0.05031844
     atom   13 type  1   force =     0.00061312    0.00264500   -0.02980455
     atom   14 type  1   force =     0.00055700   -0.00112236   -0.02628143
     atom   15 type  2   force =     0.00019145   -0.00146198   -0.00050616
     atom   16 type  2   force =    -0.00010696    0.00157334   -0.00009710
     atom   17 type  2   force =    -0.00007731   -0.00003853    0.00029869
     atom   18 type  2   force =     0.00008642    0.00060695    0.00041098
     atom   19 type  1   force =    -0.01647693    0.00013025    0.00404968
     atom   20 type  1   force =    -0.01692972   -0.00138466    0.00404914
     atom   21 type  1   force =     0.01271693    0.00185632    0.00029532
     atom   22 type  1   force =     0.01236657    0.00142204    0.00046103
     atom   23 type  1   force =     0.00020351   -0.00009714   -0.00059792
     atom   24 type  1   force =     0.00017549   -0.00041084   -0.00045687
     atom   25 type  1   force =     0.00035217   -0.00004198   -0.00002006
     atom   26 type  1   force =     0.00006725   -0.00043063   -0.00068766
     atom   27 type  2   force =    -0.00001703   -0.00060289   -0.00025340
     atom   28 type  2   force =     0.00016182    0.00003906   -0.00031443
     atom   29 type  2   force =    -0.00012270   -0.00109706    0.00031445
     atom   30 type  2   force =     0.00036178    0.00034903    0.00019970
     atom   31 type  1   force =     0.00012643    0.00005661   -0.00006942
     atom   32 type  1   force =    -0.00011348   -0.00034637    0.00039220
     atom   33 type  1   force =     0.00024869   -0.00016559   -0.00012993
     atom   34 type  1   force =     0.00051169   -0.00038125    0.00025084
     atom   35 type  1   force =    -0.00009357    0.00016464    0.00184053
     atom   36 type  1   force =     0.00034859    0.00015051    0.00032232
     atom   37 type  1   force =     0.00014351    0.00002003   -0.00009169
     atom   38 type  1   force =     0.00042890   -0.00039079    0.00012184
     atom   39 type  2   force =     0.00042087    0.00155105   -0.00072897
     atom   40 type  2   force =     0.00043376   -0.00037493    0.00015791
     atom   41 type  2   force =     0.00004955   -0.00079640    0.00043158
     atom   42 type  2   force =     0.00024050    0.00051386    0.00002069
     atom   43 type  1   force =     0.00094183    0.00013490   -0.00007197
     atom   44 type  1   force =     0.00064537   -0.00000791    0.00008419
     atom   45 type  1   force =     0.00012803    0.00000459    0.00002580
     atom   46 type  1   force =     0.00042159   -0.00029679    0.00015401
     atom   47 type  1   force =     0.00050482    0.00044732   -0.00043982
     atom   48 type  1   force =     0.00026778    0.00014572    0.00023603
     atom   49 type  3   force =     0.00016320   -0.00049334    0.00001894
     atom   50 type  4   force =     0.00043821    0.00415529    0.00459894
     atom   51 type  3   force =     0.00025653   -0.00060299   -0.00027912
     atom   52 type  3   force =    -0.00066429   -0.00448927   -0.00444558

     Total force =     0.368463     Total SCF correction =     0.000438
  @ DRIVER MODE: Message from server: STATUS
  @ DRIVER MODE: Message from server: GETFORCE
  @ DRIVER MODE: Returning v,forces,stress,ensemble

     Writing output data file ./calc.save/
  @ DRIVER MODE: Message from server: EXIT
  @ DRIVE MODE: Exiting

     General routines

     Parallel routines

   This run was terminated on:   3:48:21  11Sep2021

   JOB DONE.