     Program PWSCF v.6.7GPU starts on 18Oct2021 at 23:36:44

     R & G space division:  proc/nbgrp/npool/nimage =       8
     Reading input from /storage/home/hcoda1/3/ntian30/research/carbon/CxH_vib/Thiel_calc/ads_slab/NH3NH3_perslab/out_0026/pw.inp
Warning: card &CELL ignored
Warning: card   CELL_DYNAMICS='IPI', ignored
Warning: card / ignored

     Current dimensions of program PWSCF are:
     Max number of different atomic species (ntypx) = 10
     Max number of k-points (npk) =  40000
     Max angular momentum in pseudopotentials (lmaxx) =  3
     Presently no symmetry can be used with electric field

     Message from routine cell_base_init:
     DEPRECATED: use true lattice parameter, not A to a.u. conversion factor

     IMPORTANT: XC functional enforced from input :
     Exchange-correlation= BEEF-VDW
                           (   1   4  43  14   2   0   0)
     Any further DFT definition will be discarded
     Please, verify this is what you really want

  @ DRIVER MODE: Connecting to
 qe_1139763_3255140.sched-torque.pace.gatech.eduhih_yk29_scratch
  using UNIX socket
  @ DRIVER MODE: Message from server: STATUS
  @ DRIVER MODE: Message from server: INIT
  @ DRIVER MODE: Receiving replica           0          -1
  @ DRIVER MODE: Receiving encoded integer          25
  @ DRIVER MODE:  SCF:  T  FORCE:  T  STRESS:  F  VC:  F  ENSEMBLE:  F
  @ DRIVER MODE:  SCF:  T  FORCE:  T  STRESS:  F  VC:  F  ENSEMBLE:  F

     Using Slab Decomposition

     bravais-lattice index     =            0
     lattice parameter (alat)  =       1.8897  a.u.
     unit-cell volume          =    9988.4706 (a.u.)^3
     number of atoms/cell      =           61
     number of atomic types    =            4
     number of electrons       =       442.00
     number of Kohn-Sham states=          231
     kinetic-energy cutoff     =      29.3995  Ry
     charge density cutoff     =     293.9946  Ry
     scf convergence threshold =      7.3E-08
     mixing beta               =       0.0500
     number of iterations used =            8  plain     mixing
     Exchange-correlation= BEEF-VDW
                           (   1   4  43  14   2   0   0)

     celldm(1)=   1.889726  celldm(2)=   0.000000  celldm(3)=   0.000000
     celldm(4)=   0.000000  celldm(5)=   0.000000  celldm(6)=   0.000000

     crystal axes: (cart. coord. in units of alat)
               a(1) = (   6.579727   0.000000   0.000000 )
               a(2) = (  -0.001163   8.942395   0.000000 )
               a(3) = (   0.000000   0.000000  25.155947 )

     reciprocal axes: (cart. coord. in units 2 pi/alat)
               b(1) = (  0.151982  0.000020  0.000000 )
               b(2) = (  0.000000  0.111827  0.000000 )
               b(3) = (  0.000000  0.000000  0.039752 )

     PseudoPot. # 1 for O  read from file:
     /storage/coda1/p-amedford6/0/shared/rich_project_chbe-medford/medford-share/data/pseudos_module/espresso/nninc/pbe/van/O.UPF
     MD5 check sum: 78c19812648e8988a0fe644b0f25305e
     Pseudo is Ultrasoft, Zval =  6.0
     Generated by new atomic code, or converted to UPF format
     Using radial grid of  737 points,  4 beta functions with:
                l(1) =   0
                l(2) =   0
                l(3) =   1
                l(4) =   1
     Q(r) pseudized with  8 coefficients,  rinner =    0.800   0.800   0.800

     PseudoPot. # 2 for Ti read from file:
     /storage/coda1/p-amedford6/0/shared/rich_project_chbe-medford/medford-share/data/pseudos_module/espresso/nninc/pbe/van/Ti.UPF
     MD5 check sum: 8e4df49b7f0d34bbd5052bf3f5ea0213
     Pseudo is Ultrasoft, Zval = 12.0
     Generated by new atomic code, or converted to UPF format
     Using radial grid of  851 points,  6 beta functions with:
                l(1) =   0
                l(2) =   0
                l(3) =   1
                l(4) =   1
                l(5) =   2
                l(6) =   2
     Q(r) pseudized with  8 coefficients,  rinner =    1.000   1.000   1.000
                                                       1.000   1.000

     PseudoPot. # 3 for N  read from file:
     /storage/coda1/p-amedford6/0/shared/rich_project_chbe-medford/medford-share/data/pseudos_module/espresso/nninc/pbe/van/N.UPF
     MD5 check sum: 90d10febe142ad51ac9d5be1deb811c4
     Pseudo is Ultrasoft, Zval =  5.0
     Generated by new atomic code, or converted to UPF format
     Using radial grid of  729 points,  4 beta functions with:
                l(1) =   0
                l(2) =   0
                l(3) =   1
                l(4) =   1
     Q(r) pseudized with  8 coefficients,  rinner =    0.800   0.800   0.800

     PseudoPot. # 4 for H  read from file:
     /storage/coda1/p-amedford6/0/shared/rich_project_chbe-medford/medford-share/data/pseudos_module/espresso/nninc/pbe/van/H.UPF
     MD5 check sum: b5ee9d7bfd3a09ee7748110bda690ff7
     Pseudo is Ultrasoft, Zval =  1.0
     Generated by new atomic code, or converted to UPF format
     Using radial grid of  615 points,  1 beta functions with:
                l(1) =   0
     Q(r) pseudized with  8 coefficients,  rinner =    0.800

     atomic species   valence    mass     pseudopotential
        O1             6.00    15.99900     O ( 1.00)
        Ti1           12.00    47.86700     Ti( 1.00)
        N1             5.00    14.00700     N ( 1.00)
        H1             1.00     1.00800     H ( 1.00)

     No symmetry found

   Cartesian axes

     site n.     atom                  positions (alat units)
         1           O1  tau(   1) = (   0.0007354   0.0005023  10.5931620  )
         2           O1  tau(   2) = (   3.2905679   0.0262843  13.8966672  )
         3           O1  tau(   3) = (   0.0007290   0.0579300  17.2579193  )
         4           O1  tau(   4) = (   0.0006271   0.0005054   7.9858123  )
         5           O1  tau(   5) = (   3.2893100   8.9214726  11.1892856  )
         6           O1  tau(   6) = (   0.0005199   0.0455907  14.6396817  )
         7           O1  tau(   7) = (   1.9868534   1.4903216   9.2879459  )
         8           O1  tau(   8) = (   5.2380180   1.6024468  12.5713634  )
         9           O1  tau(   9) = (   2.0277759   1.4975965  16.1012153  )
        10           Ti1 tau(  10) = (   0.0007404   1.4906270   9.2895810  )
        11           Ti1 tau(  11) = (   3.2903786   1.3551844  12.4711573  )
        12           Ti1 tau(  12) = (   0.0003174   1.4440192  15.7330511  )
        13           O1  tau(  13) = (   4.5942328   1.4918067   9.2879030  )
        14           O1  tau(  14) = (   1.3426987   1.6023923  12.5713351  )
        15           O1  tau(  15) = (   4.5529958   1.4977110  16.1013444  )
        16           Ti1 tau(  16) = (   3.2902859   2.9801868   9.2893338  )
        17           Ti1 tau(  17) = (   0.0005333   2.8255407  12.4640987  )
        18           Ti1 tau(  18) = (   3.2895849   3.0341113  15.6952405  )
        19           O1  tau(  19) = (   0.0003479   2.9813005  10.5931620  )
        20           O1  tau(  20) = (   3.2900438   2.9627632  13.8881152  )
        21           O1  tau(  21) = (   0.0002396   2.9813036   7.9858123  )
        22           O1  tau(  22) = (   3.2902621   2.9759438  11.1922459  )
        23           O1  tau(  23) = (   0.0002943   2.9805036  14.7119039  )
        24           O1  tau(  24) = (   1.9864658   4.4711199   9.2879459  )
        25           O1  tau(  25) = (   5.2407125   4.5787950  12.5855407  )
        26           O1  tau(  26) = (   1.9842138   4.3634165  16.0604883  )
        27           Ti1 tau(  27) = (   0.0003529   4.4714252   9.2895810  )
        28           Ti1 tau(  28) = (   3.2904166   4.3402611  12.5252975  )
        29           Ti1 tau(  29) = (  -0.0003584   4.7219071  15.7914592  )
        30           O1  tau(  30) = (   4.5938453   4.4726049   9.2879030  )
        31           O1  tau(  31) = (   1.3394863   4.5787101  12.5854501  )
        32           O1  tau(  32) = (   4.5953883   4.3633133  16.0606172  )
        33           Ti1 tau(  33) = (   3.2898983   5.9609850   9.2893338  )
        34           Ti1 tau(  34) = (   0.0004309   5.8055675  12.4642027  )
        35           Ti1 tau(  35) = (   3.2895961   6.0676247  15.8182862  )
        36           O1  tau(  36) = (  -0.0000397   5.9620987  10.5931620  )
        37           O1  tau(  37) = (   3.2897974   5.9491097  13.9522666  )
        38           O1  tau(  38) = (  -0.0001005   5.9419674  17.2168411  )
        39           O1  tau(  39) = (  -0.0001480   5.9621018   7.9858123  )
        40           O1  tau(  40) = (   3.2898294   5.9516608  11.2068290  )
        41           O1  tau(  41) = (  -0.0002620   6.0093330  14.6024556  )
        42           O1  tau(  42) = (   1.9860782   7.4519181   9.2879459  )
        43           O1  tau(  43) = (   5.2335766   7.5615516  12.5803788  )
        44           O1  tau(  44) = (   2.0229086   7.4656171  16.0362607  )
        45           Ti1 tau(  45) = (  -0.0000347   7.4522234   9.2895810  )
        46           Ti1 tau(  46) = (   3.2895523   7.2794780  12.5477951  )
        47           Ti1 tau(  47) = (  -0.0001499   7.5569733  16.2601047  )
        48           O1  tau(  48) = (   4.5934577   7.4534031   9.2879030  )
        49           O1  tau(  49) = (   1.3453152   7.5613653  12.5804751  )
        50           O1  tau(  50) = (   4.5562564   7.4656138  16.0364310  )
        51           Ti1 tau(  51) = (   3.2895107   8.9417832   9.2893338  )
        52           Ti1 tau(  52) = (  -0.0004710   8.7769229  12.4586551  )
        53           Ti1 tau(  53) = (   3.2909234   0.0582169  15.6986445  )
        54           N1  tau(  54) = (   3.2892347   5.9685454  18.1810142  )
        55           H1  tau(  55) = (   3.2893406   5.0219839  18.5418895  )
        56           H1  tau(  56) = (   2.4590131   6.4368771  18.5304692  )
        57           H1  tau(  57) = (   4.1190552   6.4372901  18.5310312  )
        58           N1  tau(  58) = (   0.0096564   2.9015831  17.9177722  )
        59           H1  tau(  59) = (   6.5794260   1.9611702  18.3102355  )
        60           H1  tau(  60) = (   5.7593157   3.3919262  18.2600543  )
        61           H1  tau(  61) = (   0.8192290   3.3923488  18.2608005  )

     number of k points=    10  Fermi-Dirac smearing, width (Ry)=  0.0073
                       cart. coord. in units 2pi/alat
        k(    1) = (   0.0000000   0.0000000   0.0000000), wk =   0.1250000
        k(    2) = (   0.0000000   0.0279567   0.0000000), wk =   0.2500000
        k(    3) = (   0.0000000  -0.0559134   0.0000000), wk =   0.1250000
        k(    4) = (   0.0379955   0.0000049   0.0000000), wk =   0.2500000
        k(    5) = (   0.0379955   0.0279617   0.0000000), wk =   0.2500000
        k(    6) = (   0.0379955  -0.0559085   0.0000000), wk =   0.2500000
        k(    7) = (   0.0379955  -0.0279518   0.0000000), wk =   0.2500000
        k(    8) = (  -0.0759910  -0.0000099   0.0000000), wk =   0.1250000
        k(    9) = (  -0.0759910   0.0279468   0.0000000), wk =   0.2500000
        k(   10) = (  -0.0759910  -0.0559233   0.0000000), wk =   0.1250000

     Initial potential from superposition of free atoms

     starting charge  423.99908, renormalised to  442.00000

     negative rho (up, down):  3.646E-02 0.000E+00

     %%%%%%%%%%%%%%%%%%%%%%%%%%%%%%%%%%%%%%%%%%%%%%%%%%%%%%%%%%%%%%%%%%%%%%%%
     %                                                                      %
     % You are using vdW-DF, which was implemented by the Thonhauser group. %
     % Please cite the following two papers that made this development      %
     % possible and the two reviews that describe the various versions:     %
     %                                                                      %
     %   T. Thonhauser et al., PRL 115, 136402 (2015).                      %
     %   T. Thonhauser et al., PRB 76, 125112 (2007).                       %
     %   K. Berland et al., Rep. Prog. Phys. 78, 066501 (2015).             %
     %   D.C. Langreth et al., J. Phys.: Condens. Matter 21, 084203 (2009). %
     %                                                                      %
     %                                                                      %
     % If you are calculating the stress with vdW-DF, please also cite:     %
     %                                                                      %
     %   R. Sabatini et al., J. Phys.: Condens. Matter 24, 424209 (2012).   %
     %                                                                      %
     %%%%%%%%%%%%%%%%%%%%%%%%%%%%%%%%%%%%%%%%%%%%%%%%%%%%%%%%%%%%%%%%%%%%%%%%

     Adding external electric field

     Computed dipole along edir(3) :
        Dipole               -6.4271 Ry au,        -16.3360 Debye
        Dipole field         -0.0081 Ry au,

        Potential amp.        0.7495 Ry
        Total length         46.3494 bohr

     Starting wfcs are  334 atomic wfcs
  @ DRIVER MODE: Message from server: STATUS
  @ DRIVER MODE: Message from server: POSDATA
  @ DRIVER MODE: Reading and sharing cell
  @ DRIVER MODE: Reading and sharing positions
  @ DRIVER MODE: Received positions

     Self-consistent Calculation

     iteration #  1     ecut=    29.40 Ry     beta= 0.05
     Davidson diagonalization with overlap
     c_bands:  1 eigenvalues not converged
     c_bands:  2 eigenvalues not converged
     c_bands:  2 eigenvalues not converged
     c_bands:  2 eigenvalues not converged
     c_bands:  3 eigenvalues not converged
     c_bands:  5 eigenvalues not converged
     c_bands:  3 eigenvalues not converged
     c_bands:  2 eigenvalues not converged
     c_bands:  3 eigenvalues not converged
     ethr =  1.00E-05,  avg # of iterations = 19.8

[...]

     total energy              =   -3273.09712969 Ry
     estimated scf accuracy    <     292.49060020 Ry

     iteration #  2     ecut=    29.40 Ry     beta= 0.05
     Davidson diagonalization with overlap
     ethr =  1.00E-02,  avg # of iterations = 16.4

[...]

     iteration # 26     ecut=    29.40 Ry     beta= 0.05
     Davidson diagonalization with overlap
     c_bands:  2 eigenvalues not converged
     c_bands:  2 eigenvalues not converged
     ethr =  9.60E-07,  avg # of iterations = 16.0

[...]

     total energy              =   -3295.91259101 Ry
     estimated scf accuracy    <       0.00000008 Ry

     iteration # 57     ecut=    29.40 Ry     beta= 0.05
     Davidson diagonalization with overlap
     ethr =  1.79E-11,  avg # of iterations = 11.0

     negative rho (up, down):  3.470E-02 0.000E+00

     Adding external electric field

     Computed dipole along edir(3) :
        Dipole                1.8688 Ry au,          4.7501 Debye
        Dipole field          0.0024 Ry au,

        Potential amp.       -0.2179 Ry
        Total length         46.3494 bohr

     End of self-consistent calculation

          k = 0.0000 0.0000 0.0000 ( 26871 PWs)   bands (ev):

   -57.5941 -57.5540 -57.5304 -57.5244 -57.4942 -57.3949 -57.3874 -57.3665
   -57.3519 -57.3267 -57.3004 -57.2814 -57.2181 -57.1587 -57.0617 -56.5660
   -56.5409 -56.5399 -33.9750 -33.9355 -33.9310 -33.9049 -33.8868 -33.8682
   -33.8661 -33.8566 -33.8300 -33.8196 -33.8089 -33.7936 -33.7771 -33.7592
   -33.7491 -33.7353 -33.7210 -33.6882 -33.6804 -33.6772 -33.6673 -33.6525
   -33.6473 -33.6445 -33.6386 -33.6072 -33.5885 -33.5851 -33.5749 -33.5607
   -33.5576 -33.5517 -33.5378 -33.5362 -33.5331 -33.5189 -33.5147 -33.5011
   -33.4992 -33.4708 -33.4121 -33.3666 -33.3385 -33.3328 -33.2391 -32.8813
   -32.8790 -32.8775 -32.8647 -32.8637 -32.7918 -32.7278 -32.7268 -32.5917
   -18.3896 -18.0515 -17.8388 -17.7845 -17.7615 -17.6886 -17.6390 -17.6219
   -17.5545 -17.4899 -17.3654 -17.3272 -17.3218 -17.3085 -17.2991 -17.2368
   -17.2229 -17.2058 -17.2032 -17.1865 -17.1823 -17.1391 -17.0664 -17.0571
   -17.0162 -17.0021 -16.9816 -16.9790 -16.9310 -16.8785 -16.8683 -16.6743
   -16.6351 -16.4817 -15.0331 -14.9760 -14.9737  -7.7461  -7.7263  -7.5526
    -7.4122  -5.7133  -5.5309  -5.4659  -5.3713  -4.9990  -4.9414  -4.9271
    -4.9010  -4.8593  -4.8181  -4.8031  -4.7781  -4.7770  -4.7334  -4.6897
    -4.6643  -4.6449  -4.5453  -4.5082  -4.4700  -4.4398  -4.4335  -4.3821
    -4.3664  -4.3266  -4.3262  -4.2778  -4.2375  -4.2268  -4.2059  -4.1387
    -4.1200  -4.0161  -3.9279  -3.8703  -3.8631  -3.8223  -3.8090  -3.7633
    -3.7405  -3.7030  -3.6813  -3.6349  -3.6110  -3.5428  -3.4908  -3.3903
    -3.2943  -3.2676  -3.2413  -3.2192  -3.1743  -3.1212  -3.0016  -2.9610
    -2.9289  -2.9070  -2.8181  -2.8154  -2.7268  -2.7106  -2.6962  -2.6522
    -2.6009  -2.5862  -2.5523  -2.4356  -2.4147  -2.3222  -2.3130  -2.3110
    -2.2814  -2.2198  -2.2082  -2.1841  -2.1623  -2.1348  -2.1204  -2.0816
    -2.0784  -1.9796  -1.9582  -1.9018  -1.8792  -1.8789  -1.7804  -1.7630
    -1.7375  -1.7250  -1.6574  -1.5736  -1.4634  -1.4126  -1.3876  -1.3846
    -1.2851  -1.2568  -1.2137  -1.1334  -0.7975  -0.6011  -0.3140  -0.2699
    -0.2695  -0.0070  -0.0053   0.1233   1.4462   1.6614   1.6827   1.8748
     1.8970   1.9410   2.0275   2.0354   2.0974   2.1970   2.2129

[...]

          k = 0.0380-0.0280 0.0000 ( 26873 PWs)   bands (ev):

[...]

          k =-0.0760-0.0000 0.0000 ( 26902 PWs)   bands (ev):

[...]

          k =-0.0760-0.0559 0.0000 ( 26868 PWs)   bands (ev):

   -57.5939 -57.5478 -57.5424 -57.5185 -57.4944 -57.3926 -57.3873 -57.3714
   -57.3490 -57.3246 -57.3048 -57.2792 -57.2179 -57.1590 -57.0616 -56.5579
   -56.5569 -56.5319 -34.0265 -34.0144 -33.9180 -33.8928 -33.8828 -33.8782
   -33.8766 -33.8550 -33.8264 -33.8132 -33.7783 -33.7440 -33.7386 -33.7355
   -33.7243 -33.6967 -33.6931 -33.6883 -33.6829 -33.6799 -33.6424 -33.6363
   -33.6334 -33.6263 -33.6079 -33.6076 -33.6050 -33.6028 -33.5991 -33.5864
   -33.5790 -33.5710 -33.5695 -33.5603 -33.5396 -33.5276 -33.5233 -33.5155
   -33.4995 -33.4251 -33.4185 -33.3721 -33.3390 -33.3345 -33.2720 -32.9699
   -32.8805 -32.8794 -32.8556 -32.7709 -32.7699 -32.7057 -32.6893 -32.6879
   -18.0794 -18.0161 -17.7603 -17.7059 -17.6894 -17.6533 -17.6384 -17.5610
   -17.5410 -17.5257 -17.5044 -17.4409 -17.3861 -17.3371 -17.3351 -17.3284
   -17.2582 -17.2531 -17.2456 -17.2410 -17.1950 -17.1807 -17.1585 -17.1145
   -17.0370 -16.9673 -16.9545 -16.9476 -16.9087 -16.8938 -16.8427 -16.7082
   -16.6997 -16.4089 -15.0316 -15.0291 -14.9125  -7.7561  -7.7103  -7.5573
    -7.4155  -5.3362  -5.3060  -5.2764  -5.2121  -5.0214  -4.8614  -4.8308
    -4.8242  -4.7867  -4.7371  -4.7099  -4.7032  -4.6943  -4.6769  -4.6622
    -4.6141  -4.6101  -4.5844  -4.5117  -4.4707  -4.4659  -4.4469  -4.4328
    -4.4268  -4.3588  -4.2841  -4.2169  -4.1708  -4.1561  -4.1397  -4.0919
    -4.0553  -4.0255  -3.9825  -3.9721  -3.9036  -3.7950  -3.7120  -3.6720
    -3.6716  -3.6309  -3.5819  -3.5810  -3.4799  -3.4182  -3.3431  -3.2114
    -3.2054  -3.1928  -3.1681  -3.1540  -3.1146  -3.1043  -3.0799  -3.0287
    -3.0186  -2.9970  -2.9363  -2.8702  -2.7848  -2.7568  -2.7234  -2.7174
    -2.6923  -2.6816  -2.6540  -2.6509  -2.6169  -2.6079  -2.5540  -2.5268
    -2.4756  -2.4483  -2.4046  -2.3192  -2.3033  -2.2812  -2.1898  -2.1272
    -2.1103  -2.1054  -2.0762  -2.0290  -1.9321  -1.8383  -1.8026  -1.7582
    -1.6465  -1.6459  -1.6424  -1.6264  -1.5528  -1.5383  -1.3348  -1.3227
    -1.2634  -1.1880  -1.1484  -1.1129  -1.1105  -0.8932  -0.4828  -0.1994
    -0.1863  -0.1627  -0.0100  -0.0049   1.5923   1.6742   1.7091   1.7588
     1.7945   1.7978   1.8037   1.8674   1.9311   1.9410   2.1609

     the Fermi energy is     1.5304 ev

!    total energy              =   -3295.91264494 Ry
     estimated scf accuracy    <       0.00000005 Ry
     smearing contrib. (-TS)   =      -0.03397556 Ry
     internal energy E=F+TS    =   -3295.87866938 Ry

     The total energy is F=E-TS. E is the sum of the following terms:
     one-electron contribution =  -34427.47140141 Ry
     hartree contribution      =   17282.24366261 Ry
     xc contribution           =    -543.75715366 Ry
     ewald contribution        =   14393.10182918 Ry
     electric field correction =       0.00439390 Ry

     convergence has been achieved in  57 iterations

     Forces acting on atoms (cartesian axes, Ry/au):

     atom    1 type  1   force =     0.00001889    0.00450468    0.05615886
     atom    2 type  1   force =     0.00000780   -0.00094823   -0.00073828
     atom    3 type  1   force =    -0.00010081    0.00150215   -0.00020076
     atom    4 type  1   force =     0.00006014    0.00031088    0.10696223
     atom    5 type  1   force =     0.00000518    0.00081334    0.00979967
     atom    6 type  1   force =     0.00001932   -0.00264531    0.00105505
     atom    7 type  1   force =     0.06729406   -0.00023076   -0.02909821
     atom    8 type  1   force =     0.00475944   -0.02827771    0.00256826
     atom    9 type  1   force =     0.00753679   -0.00170724   -0.00318049
     atom   10 type  2   force =    -0.00005592   -0.00148698   -0.18421250
     atom   11 type  2   force =     0.00003886    0.02164588   -0.00778980
     atom   12 type  2   force =     0.00026976   -0.00243474    0.01226403
     atom   13 type  1   force =    -0.06738989   -0.00069263   -0.02906363
     atom   14 type  1   force =    -0.00478171   -0.02827637    0.00256912
     atom   15 type  1   force =    -0.00716968   -0.00148006   -0.00289902
     atom   16 type  2   force =     0.00009519    0.00013174    0.06631921
     atom   17 type  2   force =    -0.00001140    0.03587051    0.00370180
     atom   18 type  2   force =    -0.00019032   -0.01055224   -0.00432914
     atom   19 type  1   force =     0.00002233    0.00444048    0.05987870
     atom   20 type  1   force =     0.00000387    0.00083133   -0.00596433
     atom   21 type  1   force =     0.00005854    0.00018672    0.10719936
     atom   22 type  1   force =     0.00000109   -0.00066225    0.00885620
     atom   23 type  1   force =    -0.00004098    0.00497841    0.00313630
     atom   24 type  1   force =     0.06804460    0.00051436   -0.02899688
     atom   25 type  1   force =     0.00342880   -0.02996753    0.00208187
     atom   26 type  1   force =     0.01023777    0.02037535    0.00195556
     atom   27 type  2   force =    -0.00004288    0.00002328   -0.18363194
     atom   28 type  2   force =     0.00003205    0.02158029   -0.00596961
     atom   29 type  2   force =     0.00010898   -0.02174828   -0.00594077
     atom   30 type  1   force =    -0.06814053    0.00006583   -0.02896583
     atom   31 type  1   force =    -0.00345573   -0.02995290    0.00208924
     atom   32 type  1   force =    -0.01002565    0.02024497    0.00211855
     atom   33 type  2   force =     0.00009845   -0.00026232    0.06933965
     atom   34 type  2   force =    -0.00000766    0.03687027    0.00371193
     atom   35 type  2   force =     0.00000016   -0.02930091    0.01039129
     atom   36 type  1   force =     0.00002705    0.00482006    0.05628966
     atom   37 type  1   force =    -0.00000284    0.00205686   -0.00519312
     atom   38 type  1   force =     0.00000977    0.00425872   -0.00009209
     atom   39 type  1   force =     0.00005833    0.00002653    0.10679495
     atom   40 type  1   force =    -0.00000309   -0.00060561    0.00812336
     atom   41 type  1   force =     0.00000379    0.00070732    0.00247821
     atom   42 type  1   force =     0.06806711   -0.00120996   -0.02959241
     atom   43 type  1   force =     0.00353937   -0.02805054    0.00204945
     atom   44 type  1   force =     0.01054699    0.01133360    0.00281811
     atom   45 type  2   force =    -0.00006085   -0.00196668   -0.18350577
     atom   46 type  2   force =     0.00003980    0.01958393   -0.00654153
     atom   47 type  2   force =    -0.00001965   -0.01032833   -0.01267389
     atom   48 type  1   force =    -0.06815739   -0.00165047   -0.02955558
     atom   49 type  1   force =    -0.00354881   -0.02805252    0.00204426
     atom   50 type  1   force =    -0.01054129    0.01133332    0.00281173
     atom   51 type  2   force =     0.00010951   -0.00308233    0.06761791
     atom   52 type  2   force =    -0.00000882    0.03494274    0.00627084
     atom   53 type  2   force =    -0.00009135    0.00511348    0.00132204
     atom   54 type  3   force =     0.00007093    0.00064526   -0.00247745
     atom   55 type  4   force =    -0.00000335   -0.00142154   -0.00039700
     atom   56 type  4   force =    -0.00129027    0.00056787    0.00021837
     atom   57 type  4   force =     0.00119877    0.00052418    0.00018347
     atom   58 type  3   force =    -0.02452067   -0.00231026    0.00093544
     atom   59 type  4   force =     0.00226600   -0.00000642    0.00015069
     atom   60 type  4   force =     0.01131163   -0.00595453   -0.00541655
     atom   61 type  4   force =     0.01027039    0.00446132    0.00416120

     Total force =     0.455770     Total SCF correction =     0.000805
  @ DRIVER MODE: Message from server: STATUS
  @ DRIVER MODE: Message from server: GETFORCE
  @ DRIVER MODE: Returning v,forces,stress,ensemble

     Writing output data file ./calc.save/
  @ DRIVER MODE: Message from server: EXIT
  @ DRIVE MODE: Exiting

     General routines

     Parallel routines

   This run was terminated on:   0: 5:23  19Oct2021

   JOB DONE.