     Program PWSCF v.6.7GPU starts on 28Sep2021 at 16: 3:21

     R & G space division:  proc/nbgrp/npool/nimage =       8
     Reading input from /storage/home/hcoda1/3/ntian30/research/carbon/CxH_vib/H2O_calc/ads_slab/CHHO_a/out_0007/pw.inp
Warning: card &CELL ignored
Warning: card   CELL_DYNAMICS='IPI', ignored
Warning: card / ignored

     Current dimensions of program PWSCF are:
     Max number of different atomic species (ntypx) = 10
     Max number of k-points (npk) =  40000
     Max angular momentum in pseudopotentials (lmaxx) =  3
     Presently no symmetry can be used with electric field

     Message from routine cell_base_init:
     DEPRECATED: use true lattice parameter, not A to a.u. conversion factor

     IMPORTANT: XC functional enforced from input :
     Exchange-correlation= BEEF-VDW
                           (   1   4  43  14   2   0   0)
     Any further DFT definition will be discarded
     Please, verify this is what you really want

  @ DRIVER MODE: Connecting to
 qe_1139763_3011330.sched-torque.pace.gatech.edu1q889b0g_scratch
  using UNIX socket
  @ DRIVER MODE: Message from server: STATUS
  @ DRIVER MODE: Message from server: INIT
  @ DRIVER MODE: Receiving replica           0          -1
  @ DRIVER MODE: Receiving encoded integer          25
  @ DRIVER MODE:  SCF:  T  FORCE:  T  STRESS:  F  VC:  F  ENSEMBLE:  F
  @ DRIVER MODE:  SCF:  T  FORCE:  T  STRESS:  F  VC:  F  ENSEMBLE:  F

     Using Slab Decomposition

     bravais-lattice index     =            0
     lattice parameter (alat)  =       1.8897  a.u.
     unit-cell volume          =    6658.9804 (a.u.)^3
     number of atoms/cell      =           51
     number of atomic types    =            4
     number of electrons       =       390.00
     number of Kohn-Sham states=          205
     kinetic-energy cutoff     =      29.3995  Ry
     charge density cutoff     =     293.9946  Ry
     scf convergence threshold =      7.3E-08
     mixing beta               =       0.0500
     number of iterations used =            8  plain     mixing
     Exchange-correlation= BEEF-VDW
                           (   1   4  43  14   2   0   0)

     celldm(1)=   1.889726  celldm(2)=   0.000000  celldm(3)=   0.000000
     celldm(4)=   0.000000  celldm(5)=   0.000000  celldm(6)=   0.000000

     crystal axes: (cart. coord. in units of alat)
               a(1) = (   6.579727   0.000000   0.000000 )
               a(2) = (  -0.000775   5.961596   0.000000 )
               a(3) = (   0.000000   0.000000  25.155947 )

     reciprocal axes: (cart. coord. in units 2 pi/alat)
               b(1) = (  0.151982  0.000020  0.000000 )
               b(2) = (  0.000000  0.167740  0.000000 )
               b(3) = (  0.000000  0.000000  0.039752 )

     PseudoPot. # 1 for Ti read from file:
     /storage/coda1/p-amedford6/0/shared/rich_project_chbe-medford/medford-share/data/pseudos_module/espresso/nninc/pbe/van/Ti.UPF
     MD5 check sum: 8e4df49b7f0d34bbd5052bf3f5ea0213
     Pseudo is Ultrasoft, Zval = 12.0
     Generated by new atomic code, or converted to UPF format
     Using radial grid of  851 points,  6 beta functions with:
                l(1) =   0
                l(2) =   0
                l(3) =   1
                l(4) =   1
                l(5) =   2
                l(6) =   2
     Q(r) pseudized with  8 coefficients,  rinner =    1.000   1.000   1.000
                                                       1.000   1.000

     PseudoPot. # 2 for O  read from file:
     /storage/coda1/p-amedford6/0/shared/rich_project_chbe-medford/medford-share/data/pseudos_module/espresso/nninc/pbe/van/O.UPF
     MD5 check sum: 78c19812648e8988a0fe644b0f25305e
     Pseudo is Ultrasoft, Zval =  6.0
     Generated by new atomic code, or converted to UPF format
     Using radial grid of  737 points,  4 beta functions with:
                l(1) =   0
                l(2) =   0
                l(3) =   1
                l(4) =   1
     Q(r) pseudized with  8 coefficients,  rinner =    0.800   0.800   0.800

     PseudoPot. # 3 for C  read from file:
     /storage/coda1/p-amedford6/0/shared/rich_project_chbe-medford/medford-share/data/pseudos_module/espresso/nninc/pbe/van/C.UPF
     MD5 check sum: 1a69bf6b8db32088f5b2163dbdb77a27
     Pseudo is Ultrasoft, Zval =  4.0
     Generated by new atomic code, or converted to UPF format
     Using radial grid of  721 points,  4 beta functions with:
                l(1) =   0
                l(2) =   0
                l(3) =   1
                l(4) =   1
     Q(r) pseudized with  8 coefficients,  rinner =    0.800   0.800   0.800

     PseudoPot. # 4 for H  read from file:
     /storage/coda1/p-amedford6/0/shared/rich_project_chbe-medford/medford-share/data/pseudos_module/espresso/nninc/pbe/van/H.UPF
     MD5 check sum: b5ee9d7bfd3a09ee7748110bda690ff7
     Pseudo is Ultrasoft, Zval =  1.0
     Generated by new atomic code, or converted to UPF format
     Using radial grid of  615 points,  1 beta functions with:
                l(1) =   0
     Q(r) pseudized with  8 coefficients,  rinner =    0.800

     atomic species   valence    mass     pseudopotential
        Ti1           12.00    47.86700     Ti( 1.00)
        O1             6.00    15.99900     O ( 1.00)
        C1             4.00    12.01100     C ( 1.00)
        H1             1.00     1.00800     H ( 1.00)

     No symmetry found

   Cartesian axes

     site n.     atom                  positions (alat units)
         1           Ti1 tau(   1) = (   0.0004258   2.9801865   6.0000000  )
         2           Ti1 tau(   2) = (   3.2906075   1.4906267   6.0002472  )
         3           O1  tau(   3) = (   0.0006271   0.0005054   7.9858123  )
         4           O1  tau(   4) = (   3.2906025   0.0005020   7.3038282  )
         5           O1  tau(   5) = (   4.5942328   1.4918067   9.2879030  )
         6           O1  tau(   6) = (   1.9868534   1.4903216   9.2879459  )
         7           Ti1 tau(   7) = (   3.2576716   2.8711746   9.2039182  )
         8           Ti1 tau(   8) = (   6.5366639   1.4374725   9.3495247  )
         9           O1  tau(   9) = (   3.2654967   5.9220709  11.3209648  )
        10           O1  tau(  10) = (   0.0059489   5.9503157  10.5690854  )
        11           O1  tau(  11) = (   1.2710110   1.4830968  12.6026389  )
        12           O1  tau(  12) = (   5.2956248   1.4563849  12.6219738  )
        13           Ti1 tau(  13) = (   6.4707115   3.0232854  12.7046045  )
        14           Ti1 tau(  14) = (   3.3012427   1.2792539  12.6712786  )
        15           O1  tau(  15) = (   0.1208522   5.9439793  14.6184240  )
        16           O1  tau(  16) = (   3.2955454   0.0555021  13.9474554  )
        17           O1  tau(  17) = (   4.3710900   1.5417649  16.0729971  )
        18           O1  tau(  18) = (   1.7386421   2.0841158  16.4311239  )
        19           Ti1 tau(  19) = (   3.2301957   3.0269898  15.6570758  )
        20           Ti1 tau(  20) = (   6.3022331   1.4673853  15.8568112  )
        21           O1  tau(  21) = (   3.2904802   0.0005063   4.7018136  )
        22           O1  tau(  22) = (   6.3638003   5.9514110  17.1305022  )
        23           O1  tau(  23) = (   1.3043587   1.4918075   6.0039043  )
        24           O1  tau(  24) = (   5.2767064   1.4903225   6.0039473  )
        25           Ti1 tau(  25) = (   0.0000382   5.9609847   6.0000000  )
        26           Ti1 tau(  26) = (   3.2902200   4.4714249   6.0002472  )
        27           O1  tau(  27) = (   0.0002396   2.9813036   7.9858123  )
        28           O1  tau(  28) = (   3.2902150   2.9813002   7.3038282  )
        29           O1  tau(  29) = (   4.5938453   4.4726049   9.2879030  )
        30           O1  tau(  30) = (   1.9864658   4.4711199   9.2879459  )
        31           Ti1 tau(  31) = (   3.2576593   5.8570409   9.1743550  )
        32           Ti1 tau(  32) = (   6.5358986   4.4093296   9.3482377  )
        33           O1  tau(  33) = (   3.2940825   2.9875588  11.2901943  )
        34           O1  tau(  34) = (   6.5570357   2.9690702  10.5578446  )
        35           O1  tau(  35) = (   1.2556184   4.4285683  12.6007990  )
        36           O1  tau(  36) = (   5.2653856   4.4527926  12.6146307  )
        37           Ti1 tau(  37) = (   0.0986422   0.0400065  12.6561080  )
        38           Ti1 tau(  38) = (   3.2648468   4.3768915  12.4074939  )
        39           O1  tau(  39) = (   6.4357771   2.9845043  14.6319670  )
        40           O1  tau(  40) = (   3.2191030   2.9668167  13.8952198  )
        41           O1  tau(  41) = (   4.5664177   4.3244647  16.1555655  )
        42           O1  tau(  42) = (   2.0966903   4.6357478  16.0503417  )
        43           Ti1 tau(  43) = (   3.4732119   5.7943257  16.4097380  )
        44           Ti1 tau(  44) = (   0.0705528   4.5403211  16.0661977  )
        45           O1  tau(  45) = (   3.2900926   2.9813045   4.7018136  )
        46           O1  tau(  46) = (   1.3039711   4.4726057   6.0039043  )
        47           O1  tau(  47) = (   5.2763189   4.4711207   6.0039473  )
        48           C1  tau(  48) = (   0.6899253   2.7405959  17.1512775  )
        49           H1  tau(  49) = (   0.7931679   2.6269330  18.2321311  )
        50           O1  tau(  50) = (   3.3389373   5.9192928  18.2161996  )
        51           H1  tau(  51) = (   4.0498012   0.2866715  18.7870949  )

     number of k points=    10  Fermi-Dirac smearing, width (Ry)=  0.0073
                       cart. coord. in units 2pi/alat
        k(    1) = (   0.0000000   0.0000000   0.0000000), wk =   0.1250000
        k(    2) = (   0.0000000   0.0419351   0.0000000), wk =   0.2500000
        k(    3) = (   0.0000000  -0.0838702   0.0000000), wk =   0.1250000
        k(    4) = (   0.0379955   0.0000049   0.0000000), wk =   0.2500000
        k(    5) = (   0.0379955   0.0419400   0.0000000), wk =   0.2500000
        k(    6) = (   0.0379955  -0.0838652   0.0000000), wk =   0.2500000
        k(    7) = (   0.0379955  -0.0419301   0.0000000), wk =   0.2500000
        k(    8) = (  -0.0759910  -0.0000099   0.0000000), wk =   0.1250000
        k(    9) = (  -0.0759910   0.0419252   0.0000000), wk =   0.2500000
        k(   10) = (  -0.0759910  -0.0838800   0.0000000), wk =   0.1250000

     Initial potential from superposition of free atoms

     starting charge  373.99919, renormalised to  390.00000

     negative rho (up, down):  1.956E-02 0.000E+00

     %%%%%%%%%%%%%%%%%%%%%%%%%%%%%%%%%%%%%%%%%%%%%%%%%%%%%%%%%%%%%%%%%%%%%%%%
     %                                                                      %
     % You are using vdW-DF, which was implemented by the Thonhauser group. %
     % Please cite the following two papers that made this development      %
     % possible and the two reviews that describe the various versions:     %
     %                                                                      %
     %   T. Thonhauser et al., PRL 115, 136402 (2015).                      %
     %   T. Thonhauser et al., PRB 76, 125112 (2007).                       %
     %   K. Berland et al., Rep. Prog. Phys. 78, 066501 (2015).             %
     %   D.C. Langreth et al., J. Phys.: Condens. Matter 21, 084203 (2009). %
     %                                                                      %
     %                                                                      %
     % If you are calculating the stress with vdW-DF, please also cite:     %
     %                                                                      %
     %   R. Sabatini et al., J. Phys.: Condens. Matter 24, 424209 (2012).   %
     %                                                                      %
     %%%%%%%%%%%%%%%%%%%%%%%%%%%%%%%%%%%%%%%%%%%%%%%%%%%%%%%%%%%%%%%%%%%%%%%%

     Adding external electric field

     Computed dipole along edir(3) :
        Dipole               -3.9292 Ry au,         -9.9870 Debye
        Dipole field         -0.0074 Ry au,

        Potential amp.        0.6874 Ry
        Total length         46.3494 bohr

     Starting wfcs are  294 atomic wfcs
  @ DRIVER MODE: Message from server: STATUS
  @ DRIVER MODE: Message from server: POSDATA
  @ DRIVER MODE: Reading and sharing cell
  @ DRIVER MODE: Reading and sharing positions
  @ DRIVER MODE: Received positions

     Self-consistent Calculation

     iteration #  1     ecut=    29.40 Ry     beta= 0.05
     Davidson diagonalization with overlap
     c_bands:  5 eigenvalues not converged
     c_bands:  2 eigenvalues not converged
     c_bands:  4 eigenvalues not converged
     c_bands:  4 eigenvalues not converged
     c_bands:  1 eigenvalues not converged
     c_bands:  4 eigenvalues not converged
     c_bands:  1 eigenvalues not converged
     c_bands:  1 eigenvalues not converged
     c_bands:  3 eigenvalues not converged
     ethr =  1.00E-05,  avg # of iterations = 20.8

[...]

     total energy              =   -2904.76066805 Ry
     estimated scf accuracy    <     308.07202004 Ry

     iteration #  2     ecut=    29.40 Ry     beta= 0.05
     Davidson diagonalization with overlap
     ethr =  1.00E-02,  avg # of iterations = 12.2

[...]

     iteration # 36     ecut=    29.40 Ry     beta= 0.05
     Davidson diagonalization with overlap
     c_bands:  1 eigenvalues not converged
     ethr =  3.25E-07,  avg # of iterations =  5.8

[...]

     total energy              =   -2930.00842968 Ry
     estimated scf accuracy    <       0.00000032 Ry

     iteration # 57     ecut=    29.40 Ry     beta= 0.05
     Davidson diagonalization with overlap
     ethr =  5.12E-11,  avg # of iterations =  5.3

     negative rho (up, down):  1.952E-02 0.000E+00

     Adding external electric field

     Computed dipole along edir(3) :
        Dipole                0.5449 Ry au,          1.3850 Debye
        Dipole field          0.0010 Ry au,

        Potential amp.       -0.0953 Ry
        Total length         46.3494 bohr

     End of self-consistent calculation

          k = 0.0000 0.0000 0.0000 ( 18029 PWs)   bands (ev):

   -56.4315 -56.3964 -56.1678 -55.9777 -55.8969 -55.8731 -55.8588 -55.8300
   -55.7725 -55.7293 -55.7279 -55.5614 -55.4820 -55.4353 -55.1231 -55.0892
   -32.8564 -32.6962 -32.6658 -32.6393 -32.6120 -32.5389 -32.5207 -32.4830
   -32.3950 -32.3830 -32.3815 -32.3775 -32.2642 -32.2448 -32.2247 -32.2016
   -32.1685 -32.1381 -32.1143 -32.0809 -32.0718 -32.0624 -32.0334 -32.0325
   -32.0245 -32.0032 -31.9881 -31.9847 -31.9840 -31.9667 -31.9321 -31.9285
   -31.9181 -31.8869 -31.8306 -31.8182 -31.8008 -31.7931 -31.7712 -31.7137
   -31.6124 -31.5202 -31.4956 -31.4581 -31.4340 -31.3376 -31.2524 -31.1410
   -18.1622 -17.1006 -16.7808 -16.6477 -16.5109 -16.3171 -16.2626 -16.1352
   -15.9513 -15.8528 -15.7852 -15.7441 -15.6659 -15.6639 -15.5827 -15.5309
   -15.5149 -15.4813 -15.4609 -15.4310 -15.3819 -15.3786 -15.3196 -15.2828
   -15.2385 -15.1851 -15.1319 -15.0496 -15.0062 -14.8165 -13.6227 -13.5118
    -8.0292  -4.8187  -4.5582  -4.1562  -4.0508  -4.0137  -3.8918  -3.7554
    -3.7022  -3.6360  -3.4230  -3.4035  -3.3035  -3.2403  -3.2225  -3.1373
    -3.0865  -3.0300  -3.0241  -2.9592  -2.9156  -2.8820  -2.8347  -2.7842
    -2.6961  -2.6890  -2.6654  -2.6017  -2.5890  -2.4853  -2.4763  -2.3775
    -2.3606  -2.3533  -2.3332  -2.3015  -2.2726  -2.1732  -2.1585  -2.1168
    -2.0196  -2.0005  -1.8986  -1.7823  -1.6788  -1.6703  -1.6431  -1.5503
    -1.5055  -1.4933  -1.4563  -1.4104  -1.3849  -1.3269  -1.2793  -1.2223
    -1.1778  -1.0626  -1.0107  -0.9630  -0.8796  -0.8594  -0.7923  -0.7737
    -0.6731  -0.6429  -0.5877  -0.5748  -0.5368  -0.4641  -0.3838  -0.3512
    -0.3242  -0.2723  -0.2368  -0.1794  -0.1617  -0.1525  -0.1128  -0.0754
    -0.0424   0.0405   0.0515   0.1195   0.2054   0.2974   0.3263   0.4278
     0.4601   0.5945   0.6305   0.8732   0.8978   0.9075   1.0921   1.1377
     1.4585   1.5092   2.1975   2.8481   2.9973   3.2805   3.2866   3.3538
     3.4004   3.4940   3.5430   3.6327   3.7400

[...]

          k = 0.0380-0.0419 0.0000 ( 17876 PWs)   bands (ev):

[...]

          k =-0.0760-0.0000 0.0000 ( 17886 PWs)   bands (ev):

[...]

          k =-0.0760-0.0839 0.0000 ( 17948 PWs)   bands (ev):

   -56.4190 -56.4087 -56.1669 -55.9785 -55.8867 -55.8689 -55.8641 -55.8387
   -55.7646 -55.7365 -55.7269 -55.5630 -55.4761 -55.4410 -55.1064 -55.1058
   -32.6868 -32.6781 -32.6743 -32.6689 -32.5922 -32.5688 -32.5607 -32.5236
   -32.4114 -32.3642 -32.3033 -32.2108 -32.2054 -32.2008 -32.1930 -32.1784
   -32.1345 -32.1136 -32.1110 -32.0991 -32.0981 -32.0951 -32.0850 -32.0605
   -32.0479 -32.0306 -32.0184 -32.0097 -31.9854 -31.9827 -31.9649 -31.9409
   -31.9244 -31.9119 -31.8945 -31.8262 -31.8199 -31.8081 -31.7758 -31.7691
   -31.5991 -31.5464 -31.4471 -31.4468 -31.3353 -31.3337 -31.2949 -31.2941
   -18.1236 -17.0880 -16.4807 -16.4502 -16.2407 -16.1381 -15.9677 -15.9446
   -15.9402 -15.9075 -15.8523 -15.8386 -15.8217 -15.6733 -15.6499 -15.6336
   -15.5712 -15.5039 -15.4620 -15.4357 -15.4112 -15.3751 -15.3597 -15.3483
   -15.3466 -15.3312 -15.2773 -15.1985 -15.1835 -14.9367 -13.6154 -13.6146
    -8.0281  -4.8129  -4.3800  -3.7411  -3.5410  -3.4739  -3.4361  -3.2766
    -3.1848  -3.1748  -3.1044  -3.0928  -3.0433  -3.0056  -2.9673  -2.9363
    -2.9182  -2.8680  -2.8572  -2.8210  -2.7947  -2.7728  -2.7643  -2.7530
    -2.7275  -2.7216  -2.7037  -2.6907  -2.6709  -2.6494  -2.6145  -2.5709
    -2.5060  -2.4351  -2.3024  -2.2870  -2.2624  -2.1915  -2.1723  -2.1207
    -2.1052  -2.0851  -2.0660  -2.0180  -1.9839  -1.9550  -1.7034  -1.6817
    -1.6282  -1.5760  -1.5221  -1.4891  -1.4600  -1.4452  -1.3830  -1.2763
    -1.2378  -1.2013  -1.1828  -1.1617  -1.1571  -1.0800  -1.0542  -0.9931
    -0.9457  -0.9149  -0.8382  -0.8021  -0.7720  -0.7516  -0.6952  -0.6307
    -0.6152  -0.5379  -0.4906  -0.4706  -0.4133  -0.2764  -0.2442  -0.1431
    -0.0923  -0.0539   0.0533   0.1750   0.2402   0.2459   0.3575   0.3848
     0.4028   0.5013   0.5538   0.5736   0.6115   0.7639   1.2844   1.2990
     1.3089   1.3104   2.3446   3.3853   3.3982   3.4042   3.4138   3.4333
     3.5454   3.6136   3.6778   3.7536   3.7673

     the Fermi energy is     2.6309 ev

!    total energy              =   -2930.00848183 Ry
     estimated scf accuracy    <       0.00000006 Ry
     smearing contrib. (-TS)   =      -0.00364590 Ry
     internal energy E=F+TS    =   -2930.00483594 Ry

     The total energy is F=E-TS. E is the sum of the following terms:
     one-electron contribution =  -24473.06240460 Ry
     hartree contribution      =   12320.20906843 Ry
     xc contribution           =    -481.34044004 Ry
     ewald contribution        =    9704.18837992 Ry
     electric field correction =       0.00056035 Ry

     convergence has been achieved in  57 iterations

     Forces acting on atoms (cartesian axes, Ry/au):

     atom    1 type  1   force =     0.00045165   -0.00032656    0.13416283
     atom    2 type  1   force =     0.00011961    0.00528343   -0.16225158
     atom    3 type  2   force =    -0.00070652    0.00272763   -0.05109091
     atom    4 type  2   force =    -0.00084194   -0.00120677    0.04167717
     atom    5 type  2   force =    -0.01387481   -0.00296163    0.00211249
     atom    6 type  2   force =     0.01180231   -0.00438957    0.00138717
     atom    7 type  1   force =     0.00052941   -0.00030219   -0.00021860
     atom    8 type  1   force =    -0.00007103   -0.00037954    0.00023453
     atom    9 type  2   force =     0.00018147   -0.00023958   -0.00008847
     atom   10 type  2   force =    -0.00025882    0.00015595   -0.00040995
     atom   11 type  2   force =     0.00016702   -0.00095345    0.00006601
     atom   12 type  2   force =    -0.00073288    0.00012527    0.00013036
     atom   13 type  1   force =     0.00064178    0.00020936    0.00012252
     atom   14 type  1   force =    -0.00003632   -0.00013449    0.00044827
     atom   15 type  2   force =     0.00041549   -0.00012327   -0.00032450
     atom   16 type  2   force =     0.00082863    0.00012893   -0.00027294
     atom   17 type  2   force =     0.00077091   -0.00032024    0.00040935
     atom   18 type  2   force =     0.00026083   -0.00014205    0.00120898
     atom   19 type  1   force =    -0.00002203    0.00081749    0.00005219
     atom   20 type  1   force =    -0.00001420    0.00015795    0.00066261
     atom   21 type  2   force =     0.00019841    0.00006037    0.10034833
     atom   22 type  2   force =     0.00005043   -0.00033059   -0.00008143
     atom   23 type  2   force =    -0.07800044    0.00019839   -0.03357118
     atom   24 type  2   force =     0.07804583    0.00070978   -0.03358696
     atom   25 type  1   force =     0.00017119   -0.00022336    0.13673531
     atom   26 type  1   force =     0.00017356   -0.00663272   -0.16248876
     atom   27 type  2   force =     0.00014509    0.00093312   -0.05026342
     atom   28 type  2   force =    -0.00050716   -0.00055404    0.04260552
     atom   29 type  2   force =    -0.01248121    0.00585878    0.00018109
     atom   30 type  2   force =     0.01102688   -0.00026868   -0.00035511
     atom   31 type  1   force =     0.00030125   -0.00026784   -0.00020211
     atom   32 type  1   force =    -0.00023715    0.00015446    0.00017907
     atom   33 type  2   force =    -0.00027395    0.00009431    0.00004084
     atom   34 type  2   force =     0.00037137   -0.00021242   -0.00037164
     atom   35 type  2   force =     0.00136056    0.00037507   -0.00013470
     atom   36 type  2   force =    -0.00057832   -0.00013141   -0.00033518
     atom   37 type  1   force =    -0.00049939    0.00078882   -0.00034466
     atom   38 type  1   force =    -0.00028012    0.00036167   -0.00035630
     atom   39 type  2   force =     0.00060703   -0.00022625   -0.00009858
     atom   40 type  2   force =    -0.00006069    0.00016643   -0.00060614
     atom   41 type  2   force =     0.00104426   -0.00051132    0.00039181
     atom   42 type  2   force =    -0.00019007    0.00041418   -0.00011088
     atom   43 type  1   force =     0.00067879   -0.00059588    0.00178580
     atom   44 type  1   force =     0.00042823    0.00056414    0.00068219
     atom   45 type  2   force =     0.00016286   -0.00002193    0.09985907
     atom   46 type  2   force =    -0.07801886    0.00000705   -0.03358244
     atom   47 type  2   force =     0.07806914    0.00053502   -0.03361772
     atom   48 type  3   force =    -0.00122227    0.00080302   -0.00064601
     atom   49 type  4   force =     0.00034421   -0.00027616    0.00018366
     atom   50 type  2   force =    -0.00158349   -0.00058085    0.00089490
     atom   51 type  4   force =     0.00114345    0.00068218   -0.00115188

     Total force =     0.384470     Total SCF correction =     0.000736
  @ DRIVER MODE: Message from server: STATUS
  @ DRIVER MODE: Message from server: GETFORCE
  @ DRIVER MODE: Returning v,forces,stress,ensemble

     Writing output data file ./calc.save/
  @ DRIVER MODE: Message from server: EXIT
  @ DRIVE MODE: Exiting

     General routines

     Parallel routines

   This run was terminated on:  16:21:24  28Sep2021

   JOB DONE.