     Program PWSCF v.6.7GPU starts on 16Jul2021 at 11:58:30

     R & G space division:  proc/nbgrp/npool/nimage =      16
     Reading input from /storage/home/hcoda1/3/ntian30/research/carbon/15Jul_vib/ads_slab/CH3NNH3_a/out_0037/pw.inp
Warning: card &CELL ignored
Warning: card   CELL_DYNAMICS='IPI', ignored
Warning: card / ignored

     Current dimensions of program PWSCF are:
     Max number of different atomic species (ntypx) = 10
     Max number of k-points (npk) =  40000
     Max angular momentum in pseudopotentials (lmaxx) =  3
     Presently no symmetry can be used with electric field

     Message from routine cell_base_init:
     DEPRECATED: use true lattice parameter, not A to a.u. conversion factor

     IMPORTANT: XC functional enforced from input :
     Exchange-correlation= BEEF-VDW
                           (   1   4  43  14   2   0   0)
     Any further DFT definition will be discarded
     Please, verify this is what you really want

  @ DRIVER MODE: Connecting to
 qe_1139763_2351650.sched-torque.pace.gatech.edu3gpzngqm_scratch
  using UNIX socket
  @ DRIVER MODE: Message from server: STATUS
  @ DRIVER MODE: Message from server: INIT
  @ DRIVER MODE: Receiving replica           0          -1
  @ DRIVER MODE: Receiving encoded integer          25
  @ DRIVER MODE:  SCF:  T  FORCE:  T  STRESS:  F  VC:  F  ENSEMBLE:  F
  @ DRIVER MODE:  SCF:  T  FORCE:  T  STRESS:  F  VC:  F  ENSEMBLE:  F

     Using Slab Decomposition

     bravais-lattice index     =            0
     lattice parameter (alat)  =       1.8897  a.u.
     unit-cell volume          =    6658.9804 (a.u.)^3
     number of atoms/cell      =           56
     number of atomic types    =            5
     number of electrons       =       398.00
     number of Kohn-Sham states=          209
     kinetic-energy cutoff     =      29.3995  Ry
     charge density cutoff     =     293.9946  Ry
     scf convergence threshold =      7.3E-08
     mixing beta               =       0.0500
     number of iterations used =            8  plain     mixing
     Exchange-correlation= BEEF-VDW
                           (   1   4  43  14   2   0   0)

     celldm(1)=   1.889726  celldm(2)=   0.000000  celldm(3)=   0.000000
     celldm(4)=   0.000000  celldm(5)=   0.000000  celldm(6)=   0.000000

     crystal axes: (cart. coord. in units of alat)
               a(1) = (   6.579727   0.000000   0.000000 )
               a(2) = (  -0.000775   5.961596   0.000000 )
               a(3) = (   0.000000   0.000000  25.155947 )

     reciprocal axes: (cart. coord. in units 2 pi/alat)
               b(1) = (  0.151982  0.000020  0.000000 )
               b(2) = (  0.000000  0.167740  0.000000 )
               b(3) = (  0.000000  0.000000  0.039752 )

     PseudoPot. # 1 for Ti read from file:
     /storage/coda1/p-amedford6/0/shared/rich_project_chbe-medford/medford-share/data/pseudos_module/espresso/nninc/pbe/van/Ti.UPF
     MD5 check sum: 8e4df49b7f0d34bbd5052bf3f5ea0213
     Pseudo is Ultrasoft, Zval = 12.0
     Generated by new atomic code, or converted to UPF format
     Using radial grid of  851 points,  6 beta functions with:
                l(1) =   0
                l(2) =   0
                l(3) =   1
                l(4) =   1
                l(5) =   2
                l(6) =   2
     Q(r) pseudized with  8 coefficients,  rinner =    1.000   1.000   1.000
                                                       1.000   1.000

     PseudoPot. # 2 for O  read from file:
     /storage/coda1/p-amedford6/0/shared/rich_project_chbe-medford/medford-share/data/pseudos_module/espresso/nninc/pbe/van/O.UPF
     MD5 check sum: 78c19812648e8988a0fe644b0f25305e
     Pseudo is Ultrasoft, Zval =  6.0
     Generated by new atomic code, or converted to UPF format
     Using radial grid of  737 points,  4 beta functions with:
                l(1) =   0
                l(2) =   0
                l(3) =   1
                l(4) =   1
     Q(r) pseudized with  8 coefficients,  rinner =    0.800   0.800   0.800

     PseudoPot. # 3 for N  read from file:
     /storage/coda1/p-amedford6/0/shared/rich_project_chbe-medford/medford-share/data/pseudos_module/espresso/nninc/pbe/van/N.UPF
     MD5 check sum: 90d10febe142ad51ac9d5be1deb811c4
     Pseudo is Ultrasoft, Zval =  5.0
     Generated by new atomic code, or converted to UPF format
     Using radial grid of  729 points,  4 beta functions with:
                l(1) =   0
                l(2) =   0
                l(3) =   1
                l(4) =   1
     Q(r) pseudized with  8 coefficients,  rinner =    0.800   0.800   0.800

     PseudoPot. # 4 for C  read from file:
     /storage/coda1/p-amedford6/0/shared/rich_project_chbe-medford/medford-share/data/pseudos_module/espresso/nninc/pbe/van/C.UPF
     MD5 check sum: 1a69bf6b8db32088f5b2163dbdb77a27
     Pseudo is Ultrasoft, Zval =  4.0
     Generated by new atomic code, or converted to UPF format
     Using radial grid of  721 points,  4 beta functions with:
                l(1) =   0
                l(2) =   0
                l(3) =   1
                l(4) =   1
     Q(r) pseudized with  8 coefficients,  rinner =    0.800   0.800   0.800

     PseudoPot. # 5 for H  read from file:
     /storage/coda1/p-amedford6/0/shared/rich_project_chbe-medford/medford-share/data/pseudos_module/espresso/nninc/pbe/van/H.UPF
     MD5 check sum: b5ee9d7bfd3a09ee7748110bda690ff7
     Pseudo is Ultrasoft, Zval =  1.0
     Generated by new atomic code, or converted to UPF format
     Using radial grid of  615 points,  1 beta functions with:
                l(1) =   0
     Q(r) pseudized with  8 coefficients,  rinner =    0.800

     atomic species   valence    mass     pseudopotential
        Ti1           12.00    47.86700     Ti( 1.00)
        O1             6.00    15.99900     O ( 1.00)
        N1             5.00    14.00700     N ( 1.00)
        C1             4.00    12.01100     C ( 1.00)
        H1             1.00     1.00800     H ( 1.00)

     Starting magnetic structure
     atomic species   magnetization
        Ti1          0.000
        O1           0.000
        N1           0.000
        C1           0.025
        H1           0.000

     No symmetry found

   Cartesian axes

     site n.     atom                  positions (alat units)
         1           Ti1 tau(   1) = (   0.0004258   2.9801865   6.0000000  )
         2           Ti1 tau(   2) = (   3.2906075   1.4906267   6.0002472  )
         3           O1  tau(   3) = (   0.0006271   0.0005054   7.9858123  )
         4           O1  tau(   4) = (   3.2906025   0.0005020   7.3038282  )
         5           O1  tau(   5) = (   4.5942328   1.4918067   9.2879030  )
         6           O1  tau(   6) = (   1.9868534   1.4903216   9.2879459  )
         7           Ti1 tau(   7) = (   3.2907910   2.8959150   9.1758416  )
         8           Ti1 tau(   8) = (   0.0015273   1.4827037   9.2680791  )
         9           O1  tau(   9) = (   3.3019049   5.9598586  11.2958584  )
        10           O1  tau(  10) = (   0.0116148   5.9584955  10.6183126  )
        11           O1  tau(  11) = (   1.3346742   1.4914638  12.6145280  )
        12           O1  tau(  12) = (   5.3113054   1.4894223  12.6320738  )
        13           Ti1 tau(  13) = (   6.4919192   2.9607050  12.7581921  )
        14           Ti1 tau(  14) = (   3.1808934   1.4809541  12.4628303  )
        15           O1  tau(  15) = (   0.0259758   5.9327586  14.5948705  )
        16           O1  tau(  16) = (   3.3179433   0.0111293  13.8771559  )
        17           O1  tau(  17) = (   4.5450242   1.5254396  16.0425357  )
        18           O1  tau(  18) = (   2.0945915   1.5254857  16.0466093  )
        19           Ti1 tau(  19) = (   3.3175380   3.0118254  15.6854273  )
        20           Ti1 tau(  20) = (   0.0287691   1.6153805  16.0968480  )
        21           O1  tau(  21) = (   3.2904802   0.0005063   4.7018136  )
        22           O1  tau(  22) = (   0.0272082   0.0527987  17.2096484  )
        23           O1  tau(  23) = (   1.3043587   1.4918075   6.0039043  )
        24           O1  tau(  24) = (   5.2767064   1.4903225   6.0039473  )
        25           Ti1 tau(  25) = (   0.0000382   5.9609847   6.0000000  )
        26           Ti1 tau(  26) = (   3.2902200   4.4714249   6.0002472  )
        27           O1  tau(  27) = (   0.0002396   2.9813036   7.9858123  )
        28           O1  tau(  28) = (   3.2902150   2.9813002   7.3038282  )
        29           O1  tau(  29) = (   4.5938453   4.4726049   9.2879030  )
        30           O1  tau(  30) = (   1.9864658   4.4711199   9.2879459  )
        31           Ti1 tau(  31) = (   3.2891106   5.8743827   9.1763621  )
        32           Ti1 tau(  32) = (   0.0006254   4.4649316   9.2693709  )
        33           O1  tau(  33) = (   3.3007599   2.9794320  11.2948048  )
        34           O1  tau(  34) = (   0.0092240   2.9805883  10.6323155  )
        35           O1  tau(  35) = (   1.3367187   4.4652043  12.6121808  )
        36           O1  tau(  36) = (   5.3110114   4.4536366  12.6300246  )
        37           Ti1 tau(  37) = (   6.5175235   5.9394146  12.7678677  )
        38           Ti1 tau(  38) = (   3.1810223   4.4618757  12.4682998  )
        39           O1  tau(  39) = (   0.0141956   2.9656780  14.6533049  )
        40           O1  tau(  40) = (   3.3125561   2.9946134  13.8784269  )
        41           O1  tau(  41) = (   4.5469694   4.5079638  16.0550352  )
        42           O1  tau(  42) = (   2.0896055   4.5089645  16.0567747  )
        43           Ti1 tau(  43) = (   3.3249511   0.0336637  15.6879192  )
        44           Ti1 tau(  44) = (   0.0309337   4.5948497  16.1324869  )
        45           O1  tau(  45) = (   3.2900926   2.9813045   4.7018136  )
        46           O1  tau(  46) = (   1.3039711   4.4726057   6.0039043  )
        47           O1  tau(  47) = (   5.2763189   4.4711207   6.0039473  )
        48           N1  tau(  48) = (   0.0510883   3.0100077  17.3315927  )
        49           C1  tau(  49) = (   0.2149723   3.0659314  18.7643681  )
        50           H1  tau(  50) = (   6.1109748   3.7957518  19.2115106  )
        51           H1  tau(  51) = (   0.0391147   2.0919789  19.2277120  )
        52           H1  tau(  52) = (   1.2341903   3.3897193  19.0223879  )
        53           N1  tau(  53) = (   4.7717085   1.8344328  21.5424420  )
        54           H1  tau(  54) = (   4.4611387   2.7986659  21.4441960  )
        55           H1  tau(  55) = (   4.1840297   1.2822813  20.9257432  )
        56           H1  tau(  56) = (   4.5427024   1.5537098  22.4892962  )

     number of k points=    10  Fermi-Dirac smearing, width (Ry)=  0.0073
                       cart. coord. in units 2pi/alat
        k(    1) = (   0.0000000   0.0000000   0.0000000), wk =   0.0625000
        k(    2) = (   0.0000000   0.0419351   0.0000000), wk =   0.1250000
        k(    3) = (   0.0000000  -0.0838702   0.0000000), wk =   0.0625000
        k(    4) = (   0.0379955   0.0000049   0.0000000), wk =   0.1250000
        k(    5) = (   0.0379955   0.0419400   0.0000000), wk =   0.1250000
[...]
     % You are using vdW-DF, which was implemented by the Thonhauser group. %
     % Please cite the following two papers that made this development      %
     % possible and the two reviews that describe the various versions:     %
     %                                                                      %
     %   T. Thonhauser et al., PRL 115, 136402 (2015).                      %
     %   T. Thonhauser et al., PRB 76, 125112 (2007).                       %
     %   K. Berland et al., Rep. Prog. Phys. 78, 066501 (2015).             %
     %   D.C. Langreth et al., J. Phys.: Condens. Matter 21, 084203 (2009). %
     %                                                                      %
     %                                                                      %
     % If you are calculating the stress with vdW-DF, please also cite:     %
     %                                                                      %
     %   R. Sabatini et al., J. Phys.: Condens. Matter 24, 424209 (2012).   %
     %                                                                      %
     %%%%%%%%%%%%%%%%%%%%%%%%%%%%%%%%%%%%%%%%%%%%%%%%%%%%%%%%%%%%%%%%%%%%%%%%

     Adding external electric field

     Computed dipole along edir(3) :
        Dipole              -11.2917 Ry au,        -28.7007 Debye
        Dipole field         -0.0213 Ry au,

        Potential amp.        1.9753 Ry
        Total length         46.3494 bohr

[...]

     Starting wfcs are  302 atomic wfcs
  @ DRIVER MODE: Message from server: STATUS
  @ DRIVER MODE: Message from server: POSDATA
  @ DRIVER MODE: Reading and sharing cell
  @ DRIVER MODE: Reading and sharing positions
  @ DRIVER MODE: Received positions

     Self-consistent Calculation

     iteration #  1     ecut=    29.40 Ry     beta= 0.05
     Davidson diagonalization with overlap
     c_bands:  1 eigenvalues not converged
     c_bands:  1 eigenvalues not converged
     c_bands:  2 eigenvalues not converged
     c_bands:  1 eigenvalues not converged
     c_bands:  1 eigenvalues not converged
     c_bands:  1 eigenvalues not converged
     c_bands:  2 eigenvalues not converged
     c_bands:  2 eigenvalues not converged
     c_bands:  1 eigenvalues not converged
     c_bands:  1 eigenvalues not converged
     c_bands:  2 eigenvalues not converged
     c_bands:  1 eigenvalues not converged
     c_bands:  1 eigenvalues not converged
     c_bands:  1 eigenvalues not converged
     c_bands:  2 eigenvalues not converged
     c_bands:  2 eigenvalues not converged
     ethr =  1.00E-05,  avg # of iterations = 19.6

[...]

     total energy              =   -2520.83492577 Ry
     estimated scf accuracy    <    4704.40960373 Ry

     total magnetization       =     0.00 Bohr mag/cell
     absolute magnetization    =     0.01 Bohr mag/cell

     iteration #  2     ecut=    29.40 Ry     beta= 0.05
     Davidson diagonalization with overlap
     ethr =  1.00E-02,  avg # of iterations = 22.1

[...]

     iteration # 52     ecut=    29.40 Ry     beta= 0.05
     Davidson diagonalization with overlap
     c_bands:  1 eigenvalues not converged
     ethr =  1.87E-06,  avg # of iterations =  3.7

[...]

     total energy              =   -2942.90779019 Ry
     estimated scf accuracy    <       0.00000013 Ry

[...]

     iteration # 89     ecut=    29.40 Ry     beta= 0.05
     Davidson diagonalization with overlap
     ethr =  2.54E-11,  avg # of iterations =  6.5

     negative rho (up, down):  5.679E-03 5.679E-03

[...]

     Adding external electric field

     Computed dipole along edir(3) :
        Dipole                0.4190 Ry au,          1.0649 Debye
        Dipole field          0.0008 Ry au,

        Potential amp.       -0.0733 Ry
        Total length         46.3494 bohr

     Magnetic moment per site  (integrated on atomic sphere of radius R)
     atom   1 (R=0.735)  charge=  8.0053  magn=  0.0003
     atom   2 (R=0.735)  charge=  8.0011  magn=  0.0003
     atom   3 (R=0.735)  charge=  4.9958  magn= -0.0000
     atom   4 (R=0.735)  charge=  5.0345  magn= -0.0001
     atom   5 (R=0.735)  charge=  4.9982  magn=  0.0000
     atom   6 (R=0.735)  charge=  4.9994  magn=  0.0000
     atom   7 (R=0.735)  charge=  7.9947  magn=  0.0000
     atom   8 (R=0.735)  charge=  7.9823  magn=  0.0000
     atom   9 (R=0.735)  charge=  5.0127  magn= -0.0000
     atom  10 (R=0.735)  charge=  4.9434  magn= -0.0000
     atom  11 (R=0.735)  charge=  4.9999  magn= -0.0000
     atom  12 (R=0.735)  charge=  5.0035  magn= -0.0000
     atom  13 (R=0.735)  charge=  7.9933  magn=  0.0000
     atom  14 (R=0.735)  charge=  8.0007  magn=  0.0000
     atom  15 (R=0.735)  charge=  4.9894  magn= -0.0000
     atom  16 (R=0.735)  charge=  5.0146  magn= -0.0000
     atom  17 (R=0.735)  charge=  4.9900  magn= -0.0000
     atom  18 (R=0.735)  charge=  4.9888  magn= -0.0000
     atom  19 (R=0.735)  charge=  8.0209  magn=  0.0000
     atom  20 (R=0.735)  charge=  8.0242  magn=  0.0001
     atom  21 (R=0.735)  charge=  4.8827  magn= -0.0006
     atom  22 (R=0.735)  charge=  4.9720  magn= -0.0000
     atom  23 (R=0.735)  charge=  4.9884  magn= -0.0001
     atom  24 (R=0.735)  charge=  4.9885  magn= -0.0001
     atom  25 (R=0.735)  charge=  8.0053  magn=  0.0003
     atom  26 (R=0.735)  charge=  8.0011  magn=  0.0003
     atom  27 (R=0.735)  charge=  4.9957  magn= -0.0001
     atom  28 (R=0.735)  charge=  5.0347  magn= -0.0001
     atom  29 (R=0.735)  charge=  4.9989  magn=  0.0000
     atom  30 (R=0.735)  charge=  5.0001  magn=  0.0000
     atom  31 (R=0.735)  charge=  7.9948  magn=  0.0000
     atom  32 (R=0.735)  charge=  7.9826  magn=  0.0000
     atom  33 (R=0.735)  charge=  5.0125  magn= -0.0000
     atom  34 (R=0.735)  charge=  4.9424  magn= -0.0000
     atom  35 (R=0.735)  charge=  5.0005  magn= -0.0000
     atom  36 (R=0.735)  charge=  5.0043  magn= -0.0000
     atom  37 (R=0.735)  charge=  7.9990  magn=  0.0000
     atom  38 (R=0.735)  charge=  8.0004  magn=  0.0000
     atom  39 (R=0.735)  charge=  4.9853  magn= -0.0000
     atom  40 (R=0.735)  charge=  5.0160  magn=  0.0000
     atom  41 (R=0.735)  charge=  4.9884  magn= -0.0000
     atom  42 (R=0.735)  charge=  4.9879  magn= -0.0000
     atom  43 (R=0.735)  charge=  8.0214  magn=  0.0000
     atom  44 (R=0.735)  charge=  8.0217  magn=  0.0000
     atom  45 (R=0.735)  charge=  4.8827  magn= -0.0006
     atom  46 (R=0.735)  charge=  4.9884  magn= -0.0002
     atom  47 (R=0.735)  charge=  4.9885  magn= -0.0002
     atom  48 (R=0.418)  charge=  1.3137  magn= -0.0001
     atom  49 (R=0.451)  charge=  0.8534  magn=  0.0000
     atom  50 (R=0.418)  charge=  0.4371  magn= -0.0000
     atom  51 (R=0.418)  charge=  0.4391  magn= -0.0000
     atom  52 (R=0.418)  charge=  0.4339  magn= -0.0000
     atom  53 (R=0.418)  charge=  1.3291  magn= -0.0000
     atom  54 (R=0.418)  charge=  0.4498  magn=  0.0000
     atom  55 (R=0.418)  charge=  0.4512  magn=  0.0000
     atom  56 (R=0.418)  charge=  0.4538  magn=  0.0000

     End of self-consistent calculation

 ------ SPIN UP ------------

          k = 0.0000 0.0000 0.0000 ( 18029 PWs)   bands (ev):

   -56.6309 -56.5973 -55.7550 -55.7432 -55.7201 -55.7103 -55.6097 -55.5744
   -55.3920 -55.3562 -55.2967 -55.2902 -55.2628 -55.1925 -54.7272 -54.6154
   -33.0587 -32.9056 -32.8775 -32.8067 -32.7156 -32.6847 -32.2258 -32.2195
   -32.1524 -32.0391 -31.9930 -31.9686 -31.9503 -31.9290 -31.8954 -31.8909
   -31.8897 -31.8840 -31.8584 -31.8558 -31.8444 -31.8172 -31.7924 -31.7773
   -31.7643 -31.7460 -31.7364 -31.7117 -31.6889 -31.6349 -31.6227 -31.6108
   -31.5331 -31.5302 -31.5074 -31.4660 -31.4580 -31.4239 -31.4205 -31.3962
   -31.3737 -31.3131 -31.2328 -30.9730 -30.9576 -30.8746 -30.8372 -30.7473
   -16.7952 -16.3632 -16.1326 -15.9931 -15.9276 -15.8713 -15.8286 -15.7030
   -15.6350 -15.6269 -15.5851 -15.5573 -15.4859 -15.3462 -15.2476 -15.1949
   -15.1504 -15.0298 -14.9689 -14.9364 -14.9261 -14.8833 -14.8737 -14.6796
   -14.6567 -14.5630 -14.5418 -14.4210 -14.1863 -13.7934 -13.7011 -13.6832
   -12.7993  -7.4969  -4.3606  -3.8591  -3.7689  -3.7190  -3.6205  -3.5341
    -3.4269  -3.4129  -3.3264  -3.2119  -3.1677  -3.1200  -3.0036  -3.0022
    -2.8541  -2.8091  -2.8064  -2.8039  -2.7548  -2.6956  -2.6719  -2.6404
    -2.6313  -2.6016  -2.4752  -2.3791  -2.3072  -2.2842  -2.2784  -2.2426
    -2.1674  -2.1379  -2.1294  -2.1258  -2.0183  -1.8731  -1.8667  -1.8434
    -1.8016  -1.7964  -1.7536  -1.7405  -1.6227  -1.5322  -1.4296  -1.4135
    -1.3695  -1.3131  -1.3053  -1.2154  -1.1373  -1.0465  -1.0453  -0.9356
    -0.8882  -0.8712  -0.7812  -0.7214  -0.6820  -0.6559  -0.6434  -0.5433
    -0.5206  -0.5106  -0.4265  -0.4147  -0.3656  -0.2766  -0.2539  -0.2450
    -0.1627  -0.1601  -0.0648  -0.0230   0.0171   0.0523   0.1683   0.1855
     0.2839   0.3126   0.3402   0.4529   0.4690   0.5343   0.6089   0.6716
     0.6993   0.7263   0.7551   0.7745   0.8490   0.9609   0.9703   1.0722
     1.1044   1.2795   1.3183   1.3793   1.6033   1.6351   2.3062   2.6437
     2.8031   3.1015   3.2895   3.4026   3.6183   3.6342   3.6398   3.8086
     3.8614

[...]

          k =-0.0760-0.0000 0.0000 ( 17886 PWs)   bands (ev):

[...]

 ------ SPIN DOWN ----------

[...]

          k = 0.0380-0.0419 0.0000 ( 17876 PWs)   bands (ev):

[...]

          k =-0.0760-0.0839 0.0000 ( 17948 PWs)   bands (ev):

   -56.6132 -56.6129 -55.7399 -55.7340 -55.7274 -55.7269 -55.5923 -55.5915
   -55.3783 -55.3698 -55.2870 -55.2786 -55.2784 -55.1955 -54.7242 -54.6180
   -32.8904 -32.8902 -32.8748 -32.8747 -32.7587 -32.7584 -32.0556 -32.0533
   -32.0441 -32.0374 -31.9844 -31.9834 -31.9407 -31.9404 -31.9383 -31.9372
   -31.9293 -31.9264 -31.9242 -31.9226 -31.8448 -31.8428 -31.7938 -31.7910
   -31.7290 -31.7186 -31.6599 -31.6519 -31.6228 -31.6226 -31.6162 -31.5766
   -31.5724 -31.5444 -31.5102 -31.5041 -31.5039 -31.4649 -31.4648 -31.4612
   -31.4379 -31.3984 -31.1129 -30.9925 -30.9570 -30.9265 -30.8396 -30.8024
   -16.1443 -16.1422 -16.1093 -16.1091 -15.8406 -15.8370 -15.7943 -15.7918
   -15.6181 -15.6119 -15.4052 -15.3966 -15.3900 -15.3886 -15.2605 -15.2547
   -15.1891 -15.1787 -15.0896 -15.0805 -15.0238 -15.0174 -14.9750 -14.9540
   -14.6437 -14.6344 -14.5137 -14.4963 -14.3301 -13.7889 -13.7886 -13.7003
   -12.8160  -7.4873  -3.7697  -3.7339  -3.2431  -3.2428  -3.1790  -3.1780
    -3.0567  -3.0526  -2.9737  -2.9730  -2.8750  -2.8737  -2.7596  -2.7311
    -2.7281  -2.7270  -2.7102  -2.6622  -2.5745  -2.5713  -2.5610  -2.5465
    -2.4882  -2.4863  -2.4639  -2.3981  -2.3843  -2.3528  -2.3151  -2.2010
    -2.1907  -2.1788  -2.1469  -2.0836  -2.0765  -2.0635  -2.0211  -1.9885
    -1.9118  -1.8393  -1.8010  -1.6877  -1.6831  -1.6711  -1.6593  -1.5058
    -1.4655  -1.4350  -1.4279  -1.4217  -1.3739  -1.2790  -1.2715  -1.1395
    -1.1378  -1.0637  -0.9821  -0.9610  -0.9325  -0.8039  -0.7599  -0.7254
    -0.7176  -0.6896  -0.6694  -0.6477  -0.6041  -0.4684  -0.4567  -0.4179
    -0.3834  -0.3612  -0.3269  -0.2692  -0.1833  -0.1052  -0.1047  -0.0497
     0.0188   0.0795   0.1666   0.1766   0.1820   0.4631   0.5418   0.6314
     0.7072   0.7733   0.8368   0.8678   0.9231   0.9678   1.1036   1.1069
     1.1257   1.1261   1.1862   1.1899   1.3624   1.6409   2.1953   3.2171
     3.2175   3.2844   3.2849   3.6084   3.6142   3.7223   3.7316   3.8385
     3.8434

     the Fermi energy is     2.4845 ev

!    total energy              =   -2942.90779317 Ry
     estimated scf accuracy    <       0.00000006 Ry
     smearing contrib. (-TS)   =      -0.00487619 Ry
     internal energy E=F+TS    =   -2942.90291698 Ry

     The total energy is F=E-TS. E is the sum of the following terms:
     one-electron contribution =  -23242.37004860 Ry
     hartree contribution      =   11711.39412307 Ry
     xc contribution           =    -487.46984756 Ry
     ewald contribution        =    9075.54252488 Ry
     electric field correction =       0.00033123 Ry

     total magnetization       =     0.00 Bohr mag/cell
     absolute magnetization    =     0.01 Bohr mag/cell

     convergence has been achieved in  89 iterations

     Forces acting on atoms (cartesian axes, Ry/au):

     atom    1 type  1   force =     0.00003820   -0.00040585    0.12406808
     atom    2 type  1   force =    -0.00010524   -0.00057705   -0.16066543
     atom    3 type  2   force =     0.00023442   -0.00026836   -0.06799382
     atom    4 type  2   force =     0.00001242   -0.00029503    0.02758627
     atom    5 type  2   force =    -0.01616075    0.00175641   -0.00936581
     atom    6 type  2   force =     0.01819214    0.00219424   -0.00898699
     atom    7 type  1   force =     0.00115254   -0.00378497    0.02171941
     atom    8 type  1   force =    -0.00057778   -0.00290700    0.11108930
     atom    9 type  2   force =    -0.00018287    0.00030894   -0.00045737
     atom   10 type  2   force =    -0.00195844    0.00129260   -0.07322800
     atom   11 type  2   force =     0.00021816   -0.00010797    0.00017239
     atom   12 type  2   force =    -0.00024475    0.00022304    0.00020648
     atom   13 type  1   force =    -0.00008847    0.00008533   -0.00043183
     atom   14 type  1   force =    -0.00058723    0.00044846    0.00040969
     atom   15 type  2   force =     0.00027656    0.00000572    0.00014258
     atom   16 type  2   force =    -0.00049258   -0.00036682    0.00057746
     atom   17 type  2   force =    -0.00061501    0.00024128    0.00009065
     atom   18 type  2   force =     0.00004092    0.00024391    0.00009524
     atom   19 type  1   force =     0.00038416   -0.00056341   -0.00001285
     atom   20 type  1   force =    -0.00011003    0.00008643    0.00016552
     atom   21 type  2   force =     0.00004801   -0.00000533    0.09973039
     atom   22 type  2   force =     0.00027290   -0.00003873   -0.00038491
     atom   23 type  2   force =    -0.07915398   -0.00000046   -0.03243341
     atom   24 type  2   force =     0.07903864    0.00043693   -0.03245797
     atom   25 type  1   force =     0.00001707   -0.00041118    0.12357951
     atom   26 type  1   force =    -0.00010128   -0.00046247   -0.16080068
     atom   27 type  2   force =     0.00032888   -0.00048231   -0.06704374
     atom   28 type  2   force =     0.00002734   -0.00011976    0.02731488
     atom   29 type  2   force =    -0.01663595    0.00128070   -0.00947180
     atom   30 type  2   force =     0.01856475    0.00165853   -0.00910549
     atom   31 type  1   force =     0.00116623   -0.00138967    0.02114504
     atom   32 type  1   force =    -0.00053272    0.00034795    0.11173410
     atom   33 type  2   force =    -0.00016296   -0.00024849    0.00006739
     atom   34 type  2   force =    -0.00132529    0.00066970   -0.07267672
     atom   35 type  2   force =    -0.00079050   -0.00043049   -0.00002323
     atom   36 type  2   force =     0.00012189   -0.00001980    0.00010870
     atom   37 type  1   force =     0.00007348    0.00063424    0.00021220
     atom   38 type  1   force =    -0.00021974    0.00003006   -0.00016500
     atom   39 type  2   force =     0.00013252   -0.00019122    0.00088440
     atom   40 type  2   force =    -0.00018427   -0.00046562    0.00033590
     atom   41 type  2   force =     0.00005816   -0.00008874    0.00006217
     atom   42 type  2   force =     0.00042241    0.00002064    0.00002566
     atom   43 type  1   force =    -0.00022987   -0.00011817    0.00006274
     atom   44 type  1   force =    -0.00026711    0.00050211    0.00009231
     atom   45 type  2   force =     0.00002434   -0.00002911    0.09975183
     atom   46 type  2   force =    -0.07915922    0.00005677   -0.03243483
     atom   47 type  2   force =     0.07903796    0.00048027   -0.03244870
     atom   48 type  3   force =     0.00091130    0.00074121   -0.00136725
     atom   49 type  4   force =     0.00007508   -0.00048736    0.00006452
     atom   50 type  5   force =    -0.00007580    0.00073504    0.00081952
     atom   51 type  5   force =     0.00024880    0.00051510   -0.00011642
     atom   52 type  5   force =    -0.00025721   -0.00023796   -0.00000262
     atom   53 type  3   force =    -0.00185923    0.00437096   -0.00107559
     atom   54 type  5   force =     0.00189751   -0.00369907    0.00019181
     atom   55 type  5   force =     0.00021117   -0.00064361   -0.00075734
     atom   56 type  5   force =    -0.00114965   -0.00052058    0.00140164

     Total force =     0.424433     Total SCF correction =     0.000469
  @ DRIVER MODE: Message from server: STATUS
  @ DRIVER MODE: Message from server: GETFORCE
  @ DRIVER MODE: Returning v,forces,stress,ensemble

     Writing output data file ./calc.save/
  @ DRIVER MODE: Message from server: EXIT
  @ DRIVE MODE: Exiting

     General routines

     Parallel routines

   This run was terminated on:  12:33:45  16Jul2021

   JOB DONE.