     Program PWSCF v.6.7GPU starts on 24Aug2021 at  1: 0:50

     R & G space division:  proc/nbgrp/npool/nimage =       6
     Reading input from /storage/home/hcoda1/3/ntian30/research/carbon/CH2_vib/ads_slab/CH2NNHHH_a/out_0023/pw.inp
Warning: card &CELL ignored
Warning: card   CELL_DYNAMICS='IPI', ignored
Warning: card / ignored

     Current dimensions of program PWSCF are:
     Max number of different atomic species (ntypx) = 10
     Max number of k-points (npk) =  40000
     Max angular momentum in pseudopotentials (lmaxx) =  3
     Presently no symmetry can be used with electric field

     Message from routine cell_base_init:
     DEPRECATED: use true lattice parameter, not A to a.u. conversion factor

     IMPORTANT: XC functional enforced from input :
     Exchange-correlation= BEEF-VDW
                           (   1   4  43  14   2   0   0)
     Any further DFT definition will be discarded
     Please, verify this is what you really want

  @ DRIVER MODE: Connecting to
 qe_1139763_2632806.sched-torque.pace.gatech.eduqjsyzsye_scratch
  using UNIX socket
  @ DRIVER MODE: Message from server: STATUS
  @ DRIVER MODE: Message from server: INIT
  @ DRIVER MODE: Receiving replica           0          -1
  @ DRIVER MODE: Receiving encoded integer          25
  @ DRIVER MODE:  SCF:  T  FORCE:  T  STRESS:  F  VC:  F  ENSEMBLE:  F
  @ DRIVER MODE:  SCF:  T  FORCE:  T  STRESS:  F  VC:  F  ENSEMBLE:  F

     Using Slab Decomposition

     bravais-lattice index     =            0
     lattice parameter (alat)  =       1.8897  a.u.
     unit-cell volume          =    6658.9804 (a.u.)^3
     number of atoms/cell      =           55
     number of atomic types    =            5
     number of electrons       =       397.00
     number of Kohn-Sham states=          208
     kinetic-energy cutoff     =      29.3995  Ry
     charge density cutoff     =     293.9946  Ry
     scf convergence threshold =      7.3E-08
     mixing beta               =       0.0500
     number of iterations used =            8  plain     mixing
     Exchange-correlation= BEEF-VDW
                           (   1   4  43  14   2   0   0)

     celldm(1)=   1.889726  celldm(2)=   0.000000  celldm(3)=   0.000000
     celldm(4)=   0.000000  celldm(5)=   0.000000  celldm(6)=   0.000000

     crystal axes: (cart. coord. in units of alat)
               a(1) = (   6.579727   0.000000   0.000000 )
               a(2) = (  -0.000775   5.961596   0.000000 )
               a(3) = (   0.000000   0.000000  25.155947 )

     reciprocal axes: (cart. coord. in units 2 pi/alat)
               b(1) = (  0.151982  0.000020  0.000000 )
               b(2) = (  0.000000  0.167740  0.000000 )
               b(3) = (  0.000000  0.000000  0.039752 )

     PseudoPot. # 1 for Ti read from file:
     /storage/coda1/p-amedford6/0/shared/rich_project_chbe-medford/medford-share/data/pseudos_module/espresso/nninc/pbe/van/Ti.UPF
     MD5 check sum: 8e4df49b7f0d34bbd5052bf3f5ea0213
     Pseudo is Ultrasoft, Zval = 12.0
     Generated by new atomic code, or converted to UPF format
     Using radial grid of  851 points,  6 beta functions with:
                l(1) =   0
                l(2) =   0
                l(3) =   1
                l(4) =   1
                l(5) =   2
                l(6) =   2
     Q(r) pseudized with  8 coefficients,  rinner =    1.000   1.000   1.000
                                                       1.000   1.000

     PseudoPot. # 2 for O  read from file:
     /storage/coda1/p-amedford6/0/shared/rich_project_chbe-medford/medford-share/data/pseudos_module/espresso/nninc/pbe/van/O.UPF
     MD5 check sum: 78c19812648e8988a0fe644b0f25305e
     Pseudo is Ultrasoft, Zval =  6.0
     Generated by new atomic code, or converted to UPF format
     Using radial grid of  737 points,  4 beta functions with:
                l(1) =   0
                l(2) =   0
                l(3) =   1
                l(4) =   1
     Q(r) pseudized with  8 coefficients,  rinner =    0.800   0.800   0.800

     PseudoPot. # 3 for N  read from file:
     /storage/coda1/p-amedford6/0/shared/rich_project_chbe-medford/medford-share/data/pseudos_module/espresso/nninc/pbe/van/N.UPF
     MD5 check sum: 90d10febe142ad51ac9d5be1deb811c4
     Pseudo is Ultrasoft, Zval =  5.0
     Generated by new atomic code, or converted to UPF format
     Using radial grid of  729 points,  4 beta functions with:
                l(1) =   0
                l(2) =   0
                l(3) =   1
                l(4) =   1
     Q(r) pseudized with  8 coefficients,  rinner =    0.800   0.800   0.800

     PseudoPot. # 4 for C  read from file:
     /storage/coda1/p-amedford6/0/shared/rich_project_chbe-medford/medford-share/data/pseudos_module/espresso/nninc/pbe/van/C.UPF
     MD5 check sum: 1a69bf6b8db32088f5b2163dbdb77a27
     Pseudo is Ultrasoft, Zval =  4.0
     Generated by new atomic code, or converted to UPF format
     Using radial grid of  721 points,  4 beta functions with:
                l(1) =   0
                l(2) =   0
                l(3) =   1
                l(4) =   1
     Q(r) pseudized with  8 coefficients,  rinner =    0.800   0.800   0.800

     PseudoPot. # 5 for H  read from file:
     /storage/coda1/p-amedford6/0/shared/rich_project_chbe-medford/medford-share/data/pseudos_module/espresso/nninc/pbe/van/H.UPF
     MD5 check sum: b5ee9d7bfd3a09ee7748110bda690ff7
     Pseudo is Ultrasoft, Zval =  1.0
     Generated by new atomic code, or converted to UPF format
     Using radial grid of  615 points,  1 beta functions with:
                l(1) =   0
     Q(r) pseudized with  8 coefficients,  rinner =    0.800

     atomic species   valence    mass     pseudopotential
        Ti1           12.00    47.86700     Ti( 1.00)
        O1             6.00    15.99900     O ( 1.00)
        N1             5.00    14.00700     N ( 1.00)
        C1             4.00    12.01100     C ( 1.00)
        H1             1.00     1.00800     H ( 1.00)

     No symmetry found

   Cartesian axes

     site n.     atom                  positions (alat units)
         1           Ti1 tau(   1) = (   0.0004258   2.9801865   6.0000000  )
         2           Ti1 tau(   2) = (   3.2906075   1.4906267   6.0002472  )
         3           O1  tau(   3) = (   0.0006271   0.0005054   7.9858123  )
         4           O1  tau(   4) = (   3.2906025   0.0005020   7.3038282  )
         5           O1  tau(   5) = (   4.5942328   1.4918067   9.2879030  )
         6           O1  tau(   6) = (   1.9868534   1.4903216   9.2879459  )
         7           Ti1 tau(   7) = (   3.2907910   2.8959150   9.1758416  )
         8           Ti1 tau(   8) = (   0.0015273   1.4827037   9.2680791  )
         9           O1  tau(   9) = (   3.2797308   5.9473376  11.3602069  )
        10           O1  tau(  10) = (   0.0116148   5.9584955  10.6183126  )
        11           O1  tau(  11) = (   1.2902197   1.4970218  12.6485984  )
        12           O1  tau(  12) = (   5.2825647   1.4998509  12.6204812  )
        13           Ti1 tau(  13) = (   6.5707130   2.9731531  12.5352273  )
        14           Ti1 tau(  14) = (   3.2824754   1.4851695  12.4964603  )
        15           O1  tau(  15) = (   6.5335774   0.0914421  14.6722524  )
        16           O1  tau(  16) = (   3.3157438   0.0180770  13.9903400  )
        17           O1  tau(  17) = (   4.5084513   1.5196572  16.2619966  )
        18           O1  tau(  18) = (   2.0062152   1.4815140  16.1839734  )
        19           Ti1 tau(  19) = (   3.2259906   2.9465836  15.7211513  )
        20           Ti1 tau(  20) = (   6.5090593   1.4075841  16.1508600  )
        21           O1  tau(  21) = (   3.2904802   0.0005063   4.7018136  )
        22           O1  tau(  22) = (   6.5630310   5.8123487  17.2302531  )
        23           O1  tau(  23) = (   1.3043587   1.4918075   6.0039043  )
        24           O1  tau(  24) = (   5.2767064   1.4903225   6.0039473  )
        25           Ti1 tau(  25) = (   0.0000382   5.9609847   6.0000000  )
        26           Ti1 tau(  26) = (   3.2902200   4.4714249   6.0002472  )
        27           O1  tau(  27) = (   0.0002396   2.9813036   7.9858123  )
        28           O1  tau(  28) = (   3.2902150   2.9813002   7.3038282  )
        29           O1  tau(  29) = (   4.5938453   4.4726049   9.2879030  )
        30           O1  tau(  30) = (   1.9864658   4.4711199   9.2879459  )
        31           Ti1 tau(  31) = (   3.2891106   5.8743827   9.1763621  )
        32           Ti1 tau(  32) = (   0.0006254   4.4649316   9.2693709  )
        33           O1  tau(  33) = (   3.2783824   2.9878764  11.3535400  )
        34           O1  tau(  34) = (   0.0092240   2.9805883  10.6323155  )
        35           O1  tau(  35) = (   1.2857266   4.4729298  12.7006550  )
        36           O1  tau(  36) = (   5.2845514   4.4687958  12.6640455  )
        37           Ti1 tau(  37) = (   6.5734551   0.0101047  12.5124135  )
        38           Ti1 tau(  38) = (   3.2852174   4.4611384  12.5175569  )
        39           O1  tau(  39) = (   6.5279837   2.9480221  14.9030702  )
        40           O1  tau(  40) = (   3.2956390   2.9588503  13.9390168  )
        41           O1  tau(  41) = (   4.4992944   4.4159585  16.2207858  )
        42           O1  tau(  42) = (   2.0104883   4.4624356  16.0673450  )
        43           Ti1 tau(  43) = (   3.2790961   0.0058003  15.7788240  )
        44           Ti1 tau(  44) = (   0.0606790   4.6093333  15.7554573  )
        45           O1  tau(  45) = (   3.2900926   2.9813045   4.7018136  )
        46           O1  tau(  46) = (   1.3039711   4.4726057   6.0039043  )
        47           O1  tau(  47) = (   5.2763189   4.4711207   6.0039473  )
        48           N1  tau(  48) = (   0.0403274   2.7191540  18.0026804  )
        49           C1  tau(  49) = (   0.9398849   2.4944932  18.9664025  )
        50           H1  tau(  50) = (   0.9073005   3.0183022  19.9142263  )
        51           H1  tau(  51) = (   1.7098349   1.7704235  18.7515287  )
        52           N1  tau(  52) = (   5.5765855   3.6054979  18.4816711  )
        53           H1  tau(  53) = (   5.9881759   4.5320851  18.7147717  )
        54           H1  tau(  54) = (   4.9344470   3.8465857  17.6610935  )
        55           H1  tau(  55) = (   5.0674124   3.1947177  19.2767304  )

     number of k points=    10  Fermi-Dirac smearing, width (Ry)=  0.0073
                       cart. coord. in units 2pi/alat
        k(    1) = (   0.0000000   0.0000000   0.0000000), wk =   0.1250000
        k(    2) = (   0.0000000   0.0419351   0.0000000), wk =   0.2500000
        k(    3) = (   0.0000000  -0.0838702   0.0000000), wk =   0.1250000
        k(    4) = (   0.0379955   0.0000049   0.0000000), wk =   0.2500000
        k(    5) = (   0.0379955   0.0419400   0.0000000), wk =   0.2500000
        k(    6) = (   0.0379955  -0.0838652   0.0000000), wk =   0.2500000
        k(    7) = (   0.0379955  -0.0419301   0.0000000), wk =   0.2500000
        k(    8) = (  -0.0759910  -0.0000099   0.0000000), wk =   0.1250000
        k(    9) = (  -0.0759910   0.0419252   0.0000000), wk =   0.2500000
        k(   10) = (  -0.0759910  -0.0838800   0.0000000), wk =   0.1250000

     Initial potential from superposition of free atoms

     starting charge  380.99914, renormalised to  397.00000

     negative rho (up, down):  1.589E-02 0.000E+00

     %%%%%%%%%%%%%%%%%%%%%%%%%%%%%%%%%%%%%%%%%%%%%%%%%%%%%%%%%%%%%%%%%%%%%%%%
     %                                                                      %
     % You are using vdW-DF, which was implemented by the Thonhauser group. %
     % Please cite the following two papers that made this development      %
     % possible and the two reviews that describe the various versions:     %
     %                                                                      %
     %   T. Thonhauser et al., PRL 115, 136402 (2015).                      %
     %   T. Thonhauser et al., PRB 76, 125112 (2007).                       %
     %   K. Berland et al., Rep. Prog. Phys. 78, 066501 (2015).             %
     %   D.C. Langreth et al., J. Phys.: Condens. Matter 21, 084203 (2009). %
     %                                                                      %
     %                                                                      %
     % If you are calculating the stress with vdW-DF, please also cite:     %
     %                                                                      %
     %   R. Sabatini et al., J. Phys.: Condens. Matter 24, 424209 (2012).   %
     %                                                                      %
     %%%%%%%%%%%%%%%%%%%%%%%%%%%%%%%%%%%%%%%%%%%%%%%%%%%%%%%%%%%%%%%%%%%%%%%%

     Adding external electric field

     Computed dipole along edir(3) :
        Dipole              -10.3114 Ry au,        -26.2091 Debye
        Dipole field         -0.0195 Ry au,

        Potential amp.        1.8038 Ry
        Total length         46.3494 bohr

     Starting wfcs are  301 atomic wfcs
  @ DRIVER MODE: Message from server: STATUS
  @ DRIVER MODE: Message from server: POSDATA
  @ DRIVER MODE: Reading and sharing cell
  @ DRIVER MODE: Reading and sharing positions
  @ DRIVER MODE: Received positions

     Self-consistent Calculation

     iteration #  1     ecut=    29.40 Ry     beta= 0.05
     Davidson diagonalization with overlap
     c_bands:  3 eigenvalues not converged
     c_bands:  2 eigenvalues not converged
     c_bands:  3 eigenvalues not converged
     c_bands:  2 eigenvalues not converged
     c_bands:  3 eigenvalues not converged
     c_bands:  2 eigenvalues not converged
     c_bands:  3 eigenvalues not converged
     c_bands:  2 eigenvalues not converged
     c_bands:  2 eigenvalues not converged
     c_bands:  3 eigenvalues not converged
     ethr =  1.00E-05,  avg # of iterations = 20.0

[...]

     total energy              =   -2480.07205337 Ry
     estimated scf accuracy    <    5159.10917783 Ry

     iteration #  2     ecut=    29.40 Ry     beta= 0.05
     Davidson diagonalization with overlap
     ethr =  1.00E-02,  avg # of iterations = 22.2

[...]

     iteration # 83     ecut=    29.40 Ry     beta= 0.05
     Davidson diagonalization with overlap
     c_bands:  2 eigenvalues not converged
     ethr =  1.19E-10,  avg # of iterations = 14.7

[...]

     total energy              =   -2941.49088332 Ry
     estimated scf accuracy    <       0.00000021 Ry

     iteration # 84     ecut=    29.40 Ry     beta= 0.05
     Davidson diagonalization with overlap
     ethr =  5.28E-11,  avg # of iterations =  9.3

     negative rho (up, down):  1.344E-02 0.000E+00

     Adding external electric field

     Computed dipole along edir(3) :
        Dipole                1.3634 Ry au,          3.4653 Debye
        Dipole field          0.0026 Ry au,

        Potential amp.       -0.2385 Ry
        Total length         46.3494 bohr

     End of self-consistent calculation

          k = 0.0000 0.0000 0.0000 ( 18029 PWs)   bands (ev):

   -55.2837 -55.2447 -55.2447 -55.2106 -55.1594 -55.1574 -55.1208 -55.0939
   -55.0769 -55.0755 -55.0592 -55.0422 -54.9563 -54.7906 -54.2628 -54.2287
   -31.8559 -31.7355 -31.6458 -31.6107 -31.5837 -31.5814 -31.5786 -31.5343
   -31.5318 -31.4916 -31.4897 -31.4894 -31.4571 -31.4541 -31.4401 -31.4186
   -31.4034 -31.3984 -31.3941 -31.3931 -31.3570 -31.3517 -31.3381 -31.3245
   -31.3015 -31.2965 -31.2902 -31.2861 -31.2737 -31.2707 -31.2608 -31.2507
   -31.2440 -31.2390 -31.2089 -31.2044 -31.1978 -31.1852 -31.1478 -31.1052
   -31.0614 -30.9321 -30.6716 -30.5788 -30.5567 -30.4881 -30.4013 -30.2904
   -19.2263 -16.1254 -15.8634 -15.7354 -15.5437 -15.4775 -15.3820 -15.2443
   -15.1929 -15.1319 -15.0823 -15.0426 -15.0289 -14.9633 -14.9062 -14.8177
   -14.8161 -14.7997 -14.7891 -14.7773 -14.7739 -14.7116 -14.7089 -14.6817
   -14.6671 -14.6568 -14.5162 -14.4322 -14.3707 -14.2783 -14.0255 -12.7655
   -12.6483  -9.1422  -7.7999  -7.0624  -5.9992  -3.8169  -3.4631  -3.2902
    -3.2440  -3.2033  -3.1783  -3.0099  -2.9282  -2.6608  -2.5936  -2.5531
    -2.5057  -2.4945  -2.4689  -2.2970  -2.2664  -2.2269  -2.1902  -2.1662
    -2.1263  -2.0985  -2.0826  -2.0534  -2.0403  -2.0382  -1.8561  -1.7859
    -1.7646  -1.7025  -1.6848  -1.6685  -1.6109  -1.5819  -1.5688  -1.5665
    -1.5439  -1.5266  -1.5042  -1.4609  -1.3745  -1.2825  -1.2382  -1.2167
    -1.1035  -1.0395  -0.9150  -0.8730  -0.8586  -0.8312  -0.7595  -0.6932
    -0.6652  -0.6295  -0.4896  -0.4849  -0.4005  -0.3909  -0.3177  -0.3010
    -0.2609  -0.2153  -0.1035  -0.0702  -0.0487   0.0031   0.0662   0.0883
     0.1702   0.2243   0.2811   0.2951   0.3746   0.4145   0.4519   0.4739
     0.5609   0.6027   0.6622   0.6685   0.7056   0.7090   0.7341   0.8205
     0.8339   0.8535   0.8944   1.0638   1.2642   1.3162   1.3369   1.6696
     1.6889   1.7597   1.9451   2.3345   2.3821   3.8175   3.8830   3.9535
     3.9679   3.9782   4.0499   4.0950   4.2849   4.3140   4.3170   4.3384

[...]

          k = 0.0380-0.0419 0.0000 ( 17876 PWs)   bands (ev):

[...]

          k =-0.0760-0.0000 0.0000 ( 17886 PWs)   bands (ev):

[...]

          k =-0.0760-0.0839 0.0000 ( 17948 PWs)   bands (ev):

   -55.2716 -55.2566 -55.2277 -55.2275 -55.1557 -55.1455 -55.1326 -55.0805
   -55.0776 -55.0746 -55.0592 -55.0589 -54.9547 -54.7921 -54.2458 -54.2457
   -31.6654 -31.6524 -31.5786 -31.5507 -31.5505 -31.5470 -31.5197 -31.5196
   -31.4923 -31.4839 -31.4793 -31.4756 -31.4212 -31.4122 -31.4122 -31.4086
   -31.4067 -31.4025 -31.3958 -31.3808 -31.3687 -31.3579 -31.3537 -31.3469
   -31.3468 -31.3450 -31.3436 -31.3278 -31.3111 -31.3080 -31.2917 -31.2890
   -31.2844 -31.2825 -31.2823 -31.2514 -31.2395 -31.2386 -31.1652 -31.0920
   -31.0623 -31.0097 -30.5694 -30.5693 -30.4842 -30.4841 -30.4448 -30.4447
   -19.2225 -15.5906 -15.5141 -15.4584 -15.3683 -15.2903 -15.2703 -15.2604
   -15.2271 -15.1604 -15.1371 -15.0721 -15.0372 -14.9911 -14.9883 -14.9733
   -14.8885 -14.8693 -14.8542 -14.8500 -14.7889 -14.7876 -14.7606 -14.7382
   -14.7315 -14.7278 -14.6280 -14.6270 -14.4629 -14.4321 -14.1987 -12.7498
   -12.7498  -9.1293  -7.8098  -7.0464  -6.0095  -3.8403  -2.8518  -2.7652
    -2.6760  -2.5194  -2.4820  -2.4719  -2.4180  -2.3262  -2.3002  -2.2869
    -2.2666  -2.2593  -2.1865  -2.1813  -2.1372  -2.1156  -2.1047  -2.0988
    -2.0651  -2.0520  -2.0382  -2.0014  -1.9929  -1.9772  -1.9425  -1.9228
    -1.8984  -1.8706  -1.8565  -1.8271  -1.7040  -1.6750  -1.6307  -1.5700
    -1.5436  -1.4766  -1.4713  -1.3699  -1.3571  -1.3462  -1.3051  -1.2910
    -1.2720  -1.1083  -1.0638  -1.0283  -1.0166  -1.0108  -0.8549  -0.8384
    -0.7704  -0.7545  -0.7397  -0.6634  -0.6220  -0.6060  -0.5257  -0.4860
    -0.4561  -0.4354  -0.2930  -0.2805  -0.2550  -0.2403  -0.2337  -0.1412
    -0.1207  -0.0848  -0.0506  -0.0126   0.0038   0.0629   0.2164   0.2427
     0.2795   0.4239   0.4391   0.5244   0.5715   0.6990   0.7637   0.7659
     0.8472   0.9172   1.0192   1.0316   1.0510   1.1369   1.1830   1.1880
     1.1892   2.1178   2.1186   2.2020   2.2023   3.6944   3.9570   4.0793
     4.0856   4.1280   4.2507   4.3343   4.3580   4.3960   4.3978   4.4724

     the Fermi energy is     3.8725 ev

!    total energy              =   -2941.49089276 Ry
     estimated scf accuracy    <       0.00000007 Ry
     smearing contrib. (-TS)   =      -0.04233123 Ry
     internal energy E=F+TS    =   -2941.44856153 Ry

     The total energy is F=E-TS. E is the sum of the following terms:
     one-electron contribution =  -23922.46746984 Ry
     hartree contribution      =   12054.41472928 Ry
     xc contribution           =    -486.85913123 Ry
     ewald contribution        =    9413.45980259 Ry
     electric field correction =       0.00350768 Ry

     convergence has been achieved in  84 iterations

     Forces acting on atoms (cartesian axes, Ry/au):

     atom    1 type  1   force =     0.00017133   -0.00017042    0.09405603
     atom    2 type  1   force =    -0.00004681   -0.00042840   -0.17752749
     atom    3 type  2   force =     0.00006402   -0.00005458   -0.02099745
     atom    4 type  2   force =     0.00001741   -0.00180346    0.05733143
     atom    5 type  2   force =    -0.01087612   -0.00090853    0.00782435
     atom    6 type  2   force =     0.01208757   -0.00034013    0.00621847
     atom    7 type  1   force =    -0.00065252    0.00289626   -0.01529000
     atom    8 type  1   force =     0.00059636    0.00232933    0.00235521
     atom    9 type  2   force =    -0.00010403    0.00013197    0.00092006
     atom   10 type  2   force =    -0.00165445   -0.00050717   -0.00379979
     atom   11 type  2   force =    -0.00004410   -0.00023743    0.00019946
     atom   12 type  2   force =    -0.00019543   -0.00039888    0.00026661
     atom   13 type  1   force =     0.00042035    0.00109215    0.00059598
     atom   14 type  1   force =     0.00020487   -0.00061629    0.00034835
     atom   15 type  2   force =    -0.00018315    0.00036073    0.00053368
     atom   16 type  2   force =    -0.00016701   -0.00024479   -0.00117303
     atom   17 type  2   force =     0.00008454   -0.00025342    0.00016649
     atom   18 type  2   force =    -0.00081035   -0.00033477    0.00011881
     atom   19 type  1   force =    -0.00049054    0.00111173   -0.00051010
     atom   20 type  1   force =    -0.00043104    0.00125215   -0.00123181
     atom   21 type  2   force =     0.00010858   -0.00003998    0.10379557
     atom   22 type  2   force =     0.00009185    0.00024341    0.00055225
     atom   23 type  2   force =    -0.07063674   -0.00018827   -0.02706184
     atom   24 type  2   force =     0.07057584    0.00028457   -0.02709523
     atom   25 type  1   force =     0.00015021   -0.00023965    0.09337984
     atom   26 type  1   force =    -0.00000489   -0.00037542   -0.17775985
     atom   27 type  2   force =     0.00010942   -0.00039041   -0.02000397
     atom   28 type  2   force =     0.00003373   -0.00146581    0.05681237
     atom   29 type  2   force =    -0.01077045   -0.00066190    0.00674154
     atom   30 type  2   force =     0.01188802   -0.00016783    0.00509773
     atom   31 type  1   force =    -0.00063021    0.00410338   -0.01560103
     atom   32 type  1   force =     0.00067470   -0.00277782    0.00213244
     atom   33 type  2   force =     0.00015513   -0.00021932   -0.00058501
     atom   34 type  2   force =    -0.00109389    0.00273550   -0.00202665
     atom   35 type  2   force =     0.00009319    0.00020172    0.00008768
     atom   36 type  2   force =    -0.00033364    0.00034131   -0.00008044
     atom   37 type  1   force =     0.00046672   -0.00008681    0.00029096
     atom   38 type  1   force =     0.00009255    0.00089393    0.00013647
     atom   39 type  2   force =    -0.00003779   -0.00098217    0.00043215
     atom   40 type  2   force =    -0.00023961   -0.00043533    0.00064633
     atom   41 type  2   force =    -0.00028456   -0.00007397   -0.00018547
     atom   42 type  2   force =     0.00013593    0.00000021    0.00024840
     atom   43 type  1   force =     0.00003434   -0.00149273    0.00086408
     atom   44 type  1   force =    -0.00008323   -0.00085936   -0.00137486
     atom   45 type  2   force =     0.00009627   -0.00007871    0.10377471
     atom   46 type  2   force =    -0.07065504   -0.00008247   -0.02706961
     atom   47 type  2   force =     0.07060515    0.00030035   -0.02710543
     atom   48 type  3   force =    -0.00131277    0.00021566    0.00031757
     atom   49 type  4   force =     0.00174661   -0.00274645   -0.00110550
     atom   50 type  5   force =     0.00141066   -0.00043241   -0.00105144
     atom   51 type  5   force =    -0.00141688    0.00252468    0.00205232
     atom   52 type  3   force =    -0.00036033    0.00051792    0.00032500
     atom   53 type  5   force =     0.00033055   -0.00150906   -0.00069214
     atom   54 type  5   force =     0.00043866   -0.00020436    0.00107379
     atom   55 type  5   force =     0.00063099    0.00027154   -0.00036800

     Total force =     0.365753     Total SCF correction =     0.000502
  @ DRIVER MODE: Message from server: STATUS
  @ DRIVER MODE: Message from server: GETFORCE
  @ DRIVER MODE: Returning v,forces,stress,ensemble

     Writing output data file ./calc.save/
  @ DRIVER MODE: Message from server: EXIT
  @ DRIVE MODE: Exiting

     General routines

     Parallel routines

   This run was terminated on:   1:33: 5  24Aug2021

   JOB DONE.