     Program PWSCF v.6.7GPU starts on 16Jul2021 at  2: 2:57

     R & G space division:  proc/nbgrp/npool/nimage =      16
     Reading input from /storage/home/hcoda1/3/ntian30/research/carbon/15Jul_vib/ads_slab/CH3NH_b/out_0019/pw.inp
Warning: card &CELL ignored
Warning: card   CELL_DYNAMICS='IPI', ignored
Warning: card / ignored

     Current dimensions of program PWSCF are:
     Max number of different atomic species (ntypx) = 10
     Max number of k-points (npk) =  40000
     Max angular momentum in pseudopotentials (lmaxx) =  3
     Presently no symmetry can be used with electric field

     Message from routine cell_base_init:
     DEPRECATED: use true lattice parameter, not A to a.u. conversion factor

     IMPORTANT: XC functional enforced from input :
     Exchange-correlation= BEEF-VDW
                           (   1   4  43  14   2   0   0)
     Any further DFT definition will be discarded
     Please, verify this is what you really want

  @ DRIVER MODE: Connecting to
 qe_1139763_2351649.sched-torque.pace.gatech.eduljimeldp_scratch
  using UNIX socket
  @ DRIVER MODE: Message from server: STATUS
  @ DRIVER MODE: Message from server: INIT
  @ DRIVER MODE: Receiving replica           0          -1
  @ DRIVER MODE: Receiving encoded integer          25
  @ DRIVER MODE:  SCF:  T  FORCE:  T  STRESS:  F  VC:  F  ENSEMBLE:  F
  @ DRIVER MODE:  SCF:  T  FORCE:  T  STRESS:  F  VC:  F  ENSEMBLE:  F

     Using Slab Decomposition

     bravais-lattice index     =            0
     lattice parameter (alat)  =       1.8897  a.u.
     unit-cell volume          =    6658.9804 (a.u.)^3
     number of atoms/cell      =           53
     number of atomic types    =            5
     number of electrons       =       391.00
     number of Kohn-Sham states=          205
     kinetic-energy cutoff     =      29.3995  Ry
     charge density cutoff     =     293.9946  Ry
     scf convergence threshold =      7.3E-08
     mixing beta               =       0.0500
     number of iterations used =            8  plain     mixing
     Exchange-correlation= BEEF-VDW
                           (   1   4  43  14   2   0   0)

     celldm(1)=   1.889726  celldm(2)=   0.000000  celldm(3)=   0.000000
     celldm(4)=   0.000000  celldm(5)=   0.000000  celldm(6)=   0.000000

     crystal axes: (cart. coord. in units of alat)
               a(1) = (   6.579727   0.000000   0.000000 )
               a(2) = (  -0.000775   5.961596   0.000000 )
               a(3) = (   0.000000   0.000000  25.155947 )

     reciprocal axes: (cart. coord. in units 2 pi/alat)
               b(1) = (  0.151982  0.000020  0.000000 )
               b(2) = (  0.000000  0.167740  0.000000 )
               b(3) = (  0.000000  0.000000  0.039752 )

     PseudoPot. # 1 for Ti read from file:
     /storage/coda1/p-amedford6/0/shared/rich_project_chbe-medford/medford-share/data/pseudos_module/espresso/nninc/pbe/van/Ti.UPF
     MD5 check sum: 8e4df49b7f0d34bbd5052bf3f5ea0213
     Pseudo is Ultrasoft, Zval = 12.0
     Generated by new atomic code, or converted to UPF format
     Using radial grid of  851 points,  6 beta functions with:
                l(1) =   0
                l(2) =   0
                l(3) =   1
                l(4) =   1
                l(5) =   2
                l(6) =   2
     Q(r) pseudized with  8 coefficients,  rinner =    1.000   1.000   1.000
                                                       1.000   1.000

     PseudoPot. # 2 for O  read from file:
     /storage/coda1/p-amedford6/0/shared/rich_project_chbe-medford/medford-share/data/pseudos_module/espresso/nninc/pbe/van/O.UPF
     MD5 check sum: 78c19812648e8988a0fe644b0f25305e
     Pseudo is Ultrasoft, Zval =  6.0
     Generated by new atomic code, or converted to UPF format
     Using radial grid of  737 points,  4 beta functions with:
                l(1) =   0
                l(2) =   0
                l(3) =   1
                l(4) =   1
     Q(r) pseudized with  8 coefficients,  rinner =    0.800   0.800   0.800

     PseudoPot. # 3 for H  read from file:
     /storage/coda1/p-amedford6/0/shared/rich_project_chbe-medford/medford-share/data/pseudos_module/espresso/nninc/pbe/van/H.UPF
     MD5 check sum: b5ee9d7bfd3a09ee7748110bda690ff7
     Pseudo is Ultrasoft, Zval =  1.0
     Generated by new atomic code, or converted to UPF format
     Using radial grid of  615 points,  1 beta functions with:
                l(1) =   0
     Q(r) pseudized with  8 coefficients,  rinner =    0.800

     PseudoPot. # 4 for N  read from file:
     /storage/coda1/p-amedford6/0/shared/rich_project_chbe-medford/medford-share/data/pseudos_module/espresso/nninc/pbe/van/N.UPF
     MD5 check sum: 90d10febe142ad51ac9d5be1deb811c4
     Pseudo is Ultrasoft, Zval =  5.0
     Generated by new atomic code, or converted to UPF format
     Using radial grid of  729 points,  4 beta functions with:
                l(1) =   0
                l(2) =   0
                l(3) =   1
                l(4) =   1
     Q(r) pseudized with  8 coefficients,  rinner =    0.800   0.800   0.800

     PseudoPot. # 5 for C  read from file:
     /storage/coda1/p-amedford6/0/shared/rich_project_chbe-medford/medford-share/data/pseudos_module/espresso/nninc/pbe/van/C.UPF
     MD5 check sum: 1a69bf6b8db32088f5b2163dbdb77a27
     Pseudo is Ultrasoft, Zval =  4.0
     Generated by new atomic code, or converted to UPF format
     Using radial grid of  721 points,  4 beta functions with:
                l(1) =   0
                l(2) =   0
                l(3) =   1
                l(4) =   1
     Q(r) pseudized with  8 coefficients,  rinner =    0.800   0.800   0.800

     atomic species   valence    mass     pseudopotential
        Ti1           12.00    47.86700     Ti( 1.00)
        O1             6.00    15.99900     O ( 1.00)
        H1             1.00     1.00800     H ( 1.00)
        N1             5.00    14.00700     N ( 1.00)
        C1             4.00    12.01100     C ( 1.00)

     Starting magnetic structure
     atomic species   magnetization
        Ti1          0.000
        O1           0.000
        H1           0.000
        N1           0.000
        C1           0.025

     No symmetry found

   Cartesian axes

     site n.     atom                  positions (alat units)
         1           Ti1 tau(   1) = (   0.0004258   2.9801865   6.0000000  )
         2           Ti1 tau(   2) = (   3.2906075   1.4906267   6.0002472  )
         3           O1  tau(   3) = (   0.0006271   0.0005054   7.9858123  )
         4           O1  tau(   4) = (   3.2906025   0.0005020   7.3038282  )
         5           O1  tau(   5) = (   4.5942328   1.4918067   9.2879030  )
         6           O1  tau(   6) = (   1.9868534   1.4903216   9.2879459  )
         7           Ti1 tau(   7) = (   3.2907910   2.8959150   9.1758416  )
         8           Ti1 tau(   8) = (   0.0015273   1.4827037   9.2680791  )
         9           O1  tau(   9) = (   3.2906183   5.9580730  11.3246990  )
        10           O1  tau(  10) = (   0.0116148   5.9584955  10.6183126  )
        11           O1  tau(  11) = (   1.3160896   1.4863360  12.6200149  )
        12           O1  tau(  12) = (   5.2947061   1.4800608  12.6053981  )
        13           Ti1 tau(  13) = (   6.5224157   2.9421717  12.6196007  )
        14           Ti1 tau(  14) = (   3.2076970   1.4879367  12.4696142  )
        15           O1  tau(  15) = (   6.5517659   0.0158556  14.6493665  )
        16           O1  tau(  16) = (   3.3109316   0.0069331  13.9179417  )
        17           O1  tau(  17) = (   4.5083530   1.5297238  16.0872293  )
        18           O1  tau(  18) = (   2.0274073   1.5273405  16.0409094  )
        19           Ti1 tau(  19) = (   3.2920608   3.0081397  15.6838061  )
        20           Ti1 tau(  20) = (   0.0536170   1.5416865  15.8648894  )
        21           O1  tau(  21) = (   3.2904802   0.0005063   4.7018136  )
        22           O1  tau(  22) = (   0.0122827   0.0301012  17.2134340  )
        23           O1  tau(  23) = (   1.3043587   1.4918075   6.0039043  )
        24           O1  tau(  24) = (   5.2767064   1.4903225   6.0039473  )
        25           Ti1 tau(  25) = (   0.0000382   5.9609847   6.0000000  )
        26           Ti1 tau(  26) = (   3.2902200   4.4714249   6.0002472  )
        27           O1  tau(  27) = (   0.0002396   2.9813036   7.9858123  )
        28           O1  tau(  28) = (   3.2902150   2.9813002   7.3038282  )
        29           O1  tau(  29) = (   4.5938453   4.4726049   9.2879030  )
        30           O1  tau(  30) = (   1.9864658   4.4711199   9.2879459  )
        31           Ti1 tau(  31) = (   3.2891106   5.8743827   9.1763621  )
        32           Ti1 tau(  32) = (   0.0006254   4.4649316   9.2693709  )
        33           O1  tau(  33) = (   3.2866862   2.9837957  11.3234553  )
        34           O1  tau(  34) = (   0.0092240   2.9805883  10.6323155  )
        35           O1  tau(  35) = (   1.3095649   4.4762946  12.6335636  )
        36           O1  tau(  36) = (   5.2963019   4.4650584  12.6194355  )
        37           Ti1 tau(  37) = (   6.5192018   5.9199268  12.5733442  )
        38           Ti1 tau(  38) = (   3.2055211   4.4685508  12.4747853  )
        39           O1  tau(  39) = (   6.5624772   2.9349094  14.6472044  )
        40           O1  tau(  40) = (   3.3065106   2.9879112  13.8942307  )
        41           O1  tau(  41) = (   4.5199725   4.4841037  16.0899424  )
        42           O1  tau(  42) = (   2.0389375   4.4882992  16.0664246  )
        43           Ti1 tau(  43) = (   3.3279474   0.0221627  15.7114356  )
        44           Ti1 tau(  44) = (   0.0314192   4.6578676  16.1055029  )
        45           O1  tau(  45) = (   3.2900926   2.9813045   4.7018136  )
        46           O1  tau(  46) = (   1.3039711   4.4726057   6.0039043  )
        47           O1  tau(  47) = (   5.2763189   4.4711207   6.0039473  )
        48           H1  tau(  48) = (   5.5751926   2.9245997  17.7795037  )
        49           N1  tau(  49) = (   6.5345126   2.9709300  17.4463781  )
        50           C1  tau(  50) = (   0.8205834   2.9192471  18.6315588  )
        51           H1  tau(  51) = (   0.6279014   3.7726647  19.2931901  )
        52           H1  tau(  52) = (   0.6616828   1.9903841  19.1881566  )
        53           H1  tau(  53) = (   1.8691752   2.9530840  18.3388921  )

     number of k points=    10  Fermi-Dirac smearing, width (Ry)=  0.0073
                       cart. coord. in units 2pi/alat
        k(    1) = (   0.0000000   0.0000000   0.0000000), wk =   0.0625000
        k(    2) = (   0.0000000   0.0419351   0.0000000), wk =   0.1250000
        k(    3) = (   0.0000000  -0.0838702   0.0000000), wk =   0.0625000
        k(    4) = (   0.0379955   0.0000049   0.0000000), wk =   0.1250000
        k(    5) = (   0.0379955   0.0419400   0.0000000), wk =   0.1250000
        k(    6) = (   0.0379955  -0.0838652   0.0000000), wk =   0.1250000
        k(    7) = (   0.0379955  -0.0419301   0.0000000), wk =   0.1250000
        k(    8) = (  -0.0759910  -0.0000099   0.0000000), wk =   0.0625000
[...]

     Initial potential from superposition of free atoms

     starting charge  374.99916, renormalised to  391.00000

     negative rho (up, down):  8.889E-03 8.896E-03

     %%%%%%%%%%%%%%%%%%%%%%%%%%%%%%%%%%%%%%%%%%%%%%%%%%%%%%%%%%%%%%%%%%%%%%%%
     %                                                                      %
     % You are using vdW-DF, which was implemented by the Thonhauser group. %
     % Please cite the following two papers that made this development      %
     % possible and the two reviews that describe the various versions:     %
     %                                                                      %
     %   T. Thonhauser et al., PRL 115, 136402 (2015).                      %
     %   T. Thonhauser et al., PRB 76, 125112 (2007).                       %
     %   K. Berland et al., Rep. Prog. Phys. 78, 066501 (2015).             %
     %   D.C. Langreth et al., J. Phys.: Condens. Matter 21, 084203 (2009). %
     %                                                                      %
     %                                                                      %
     % If you are calculating the stress with vdW-DF, please also cite:     %
     %                                                                      %
     %   R. Sabatini et al., J. Phys.: Condens. Matter 24, 424209 (2012).   %
     %                                                                      %
     %%%%%%%%%%%%%%%%%%%%%%%%%%%%%%%%%%%%%%%%%%%%%%%%%%%%%%%%%%%%%%%%%%%%%%%%

     Adding external electric field

     Computed dipole along edir(3) :
        Dipole               -5.8162 Ry au,        -14.7834 Debye
        Dipole field         -0.0110 Ry au,

        Potential amp.        1.0175 Ry
        Total length         46.3494 bohr

[...]

     Starting wfcs are  296 atomic wfcs
  @ DRIVER MODE: Message from server: STATUS
  @ DRIVER MODE: Message from server: POSDATA
  @ DRIVER MODE: Reading and sharing cell
  @ DRIVER MODE: Reading and sharing positions
  @ DRIVER MODE: Received positions

     Self-consistent Calculation

     iteration #  1     ecut=    29.40 Ry     beta= 0.05
     Davidson diagonalization with overlap
     c_bands:  2 eigenvalues not converged
     c_bands:  1 eigenvalues not converged
     c_bands:  1 eigenvalues not converged
     c_bands:  3 eigenvalues not converged
     c_bands:  4 eigenvalues not converged
     c_bands:  2 eigenvalues not converged
     c_bands:  1 eigenvalues not converged
     c_bands:  1 eigenvalues not converged
     c_bands:  2 eigenvalues not converged
     c_bands:  3 eigenvalues not converged
     c_bands:  1 eigenvalues not converged
     c_bands:  1 eigenvalues not converged
     c_bands:  3 eigenvalues not converged
     c_bands:  4 eigenvalues not converged
     c_bands:  3 eigenvalues not converged
     c_bands:  1 eigenvalues not converged
     c_bands:  1 eigenvalues not converged
     c_bands:  2 eigenvalues not converged
     ethr =  1.00E-05,  avg # of iterations = 19.6

[...]

     total energy              =   -2770.79787985 Ry
     estimated scf accuracy    <    1640.10243794 Ry

     total magnetization       =     0.01 Bohr mag/cell
     absolute magnetization    =     0.02 Bohr mag/cell

[...]

     iteration #  3     ecut=    29.40 Ry     beta= 0.05
     Davidson diagonalization with overlap
     ethr =  1.00E-02,  avg # of iterations = 15.3

[...]

     iteration # 83     ecut=    29.40 Ry     beta= 0.05
     Davidson diagonalization with overlap
     c_bands:  1 eigenvalues not converged
     c_bands:  1 eigenvalues not converged
     ethr =  2.78E-11,  avg # of iterations = 13.6

[...]

     total energy              =   -2920.42464046 Ry
     estimated scf accuracy    <       0.00000027 Ry

[...]

     iteration # 84     ecut=    29.40 Ry     beta= 0.05
     Davidson diagonalization with overlap
     ethr =  2.78E-11,  avg # of iterations = 11.4

     negative rho (up, down):  9.093E-03 9.091E-03

[...]

     Adding external electric field

     Computed dipole along edir(3) :
        Dipole                0.6847 Ry au,          1.7403 Debye
        Dipole field          0.0013 Ry au,

        Potential amp.       -0.1198 Ry
        Total length         46.3494 bohr

     Magnetic moment per site  (integrated on atomic sphere of radius R)
     atom   1 (R=0.715)  charge=  7.8451  magn= -0.0096
     atom   2 (R=0.715)  charge=  7.8287  magn= -0.0004
     atom   3 (R=0.715)  charge=  4.8552  magn=  0.0008
     atom   4 (R=0.715)  charge=  4.8904  magn=  0.0001
     atom   5 (R=0.715)  charge=  4.8609  magn=  0.0002
     atom   6 (R=0.715)  charge=  4.8616  magn=  0.0002
     atom   7 (R=0.715)  charge=  7.8276  magn= -0.0005
     atom   8 (R=0.715)  charge=  7.8194  magn= -0.0031
     atom   9 (R=0.715)  charge=  4.8766  magn=  0.0001
     atom  10 (R=0.715)  charge=  4.8485  magn=  0.0004
     atom  11 (R=0.715)  charge=  4.8624  magn=  0.0001
     atom  12 (R=0.715)  charge=  4.8618  magn=  0.0002
     atom  13 (R=0.715)  charge=  7.8170  magn= -0.0007
     atom  14 (R=0.715)  charge=  7.8304  magn= -0.0003
     atom  15 (R=0.715)  charge=  4.8497  magn=  0.0001
     atom  16 (R=0.715)  charge=  4.8722  magn=  0.0002
     atom  17 (R=0.715)  charge=  4.8476  magn=  0.0001
     atom  18 (R=0.715)  charge=  4.8546  magn=  0.0001
     atom  19 (R=0.715)  charge=  7.8557  magn= -0.0003
     atom  20 (R=0.715)  charge=  7.8308  magn= -0.0001
     atom  21 (R=0.715)  charge=  4.7478  magn=  0.0003
     atom  22 (R=0.715)  charge=  4.8259  magn= -0.0001
     atom  23 (R=0.715)  charge=  4.8532  magn=  0.0011
     atom  24 (R=0.715)  charge=  4.8532  magn=  0.0011
     atom  25 (R=0.715)  charge=  7.8452  magn= -0.0096
     atom  26 (R=0.715)  charge=  7.8287  magn= -0.0004
     atom  27 (R=0.715)  charge=  4.8545  magn=  0.0008
     atom  28 (R=0.715)  charge=  4.8906  magn=  0.0001
     atom  29 (R=0.715)  charge=  4.8616  magn=  0.0002
     atom  30 (R=0.715)  charge=  4.8623  magn=  0.0002
     atom  31 (R=0.715)  charge=  7.8277  magn= -0.0005
     atom  32 (R=0.715)  charge=  7.8194  magn= -0.0030
     atom  33 (R=0.715)  charge=  4.8755  magn=  0.0001
     atom  34 (R=0.715)  charge=  4.8372  magn=  0.0004
     atom  35 (R=0.715)  charge=  4.8620  magn=  0.0001
     atom  36 (R=0.715)  charge=  4.8623  magn=  0.0002
     atom  37 (R=0.715)  charge=  7.8196  magn= -0.0008
     atom  38 (R=0.715)  charge=  7.8304  magn= -0.0004
     atom  39 (R=0.715)  charge=  4.8445  magn=  0.0001
     atom  40 (R=0.715)  charge=  4.8783  magn=  0.0001
     atom  41 (R=0.715)  charge=  4.8509  magn=  0.0001
     atom  42 (R=0.715)  charge=  4.8519  magn=  0.0001
     atom  43 (R=0.715)  charge=  7.8536  magn= -0.0003
     atom  44 (R=0.715)  charge=  7.8554  magn=  0.0000
     atom  45 (R=0.715)  charge=  4.7479  magn=  0.0003
     atom  46 (R=0.715)  charge=  4.8532  magn=  0.0011
     atom  47 (R=0.715)  charge=  4.8532  magn=  0.0011
     atom  48 (R=0.419)  charge=  0.4545  magn=  0.0000
     atom  49 (R=0.419)  charge=  1.3288  magn= -0.0000
     atom  50 (R=0.449)  charge=  0.8456  magn=  0.0000
     atom  51 (R=0.419)  charge=  0.4410  magn= -0.0000
     atom  52 (R=0.419)  charge=  0.4412  magn= -0.0000
     atom  53 (R=0.419)  charge=  0.4477  magn= -0.0000

     End of self-consistent calculation

 ------ SPIN UP ------------

          k = 0.0000 0.0000 0.0000 ( 18029 PWs)   bands (ev):

   -55.9872 -55.9858 -55.9517 -55.9511 -55.9020 -55.8375 -55.8367 -55.8023
   -55.7956 -55.7617 -55.7583 -55.7247 -55.5381 -55.2716 -54.9668 -54.9327
   -32.5462 -32.4723 -32.3493 -32.3388 -32.3146 -32.2928 -32.2775 -32.2494
   -32.2350 -32.2273 -32.2108 -32.2035 -32.1697 -32.1391 -32.1359 -32.1333
   -32.1296 -32.0942 -32.0754 -32.0472 -32.0407 -32.0384 -32.0249 -31.9971
   -31.9900 -31.9895 -31.9825 -31.9751 -31.9615 -31.9567 -31.9527 -31.9425
   -31.9338 -31.9254 -31.9113 -31.9027 -31.8708 -31.8075 -31.7091 -31.5462
   -31.5414 -31.4663 -31.3736 -31.2856 -31.2632 -31.1901 -31.1036 -30.9928
   -16.7555 -16.4724 -16.2929 -16.1498 -16.1175 -16.0321 -15.8312 -15.7046
   -15.6923 -15.5885 -15.5555 -15.5297 -15.5228 -15.4963 -15.4910 -15.4301
   -15.4281 -15.4147 -15.4055 -15.3482 -15.3238 -15.2704 -15.1912 -15.1581
   -15.1527 -15.1254 -15.0431 -15.0380 -14.5840 -14.1769 -13.4698 -13.3535
    -8.9229  -4.3634  -4.1264  -3.9519  -3.9126  -3.8967  -3.8471  -3.5925
    -3.5783  -3.3248  -3.2302  -3.1915  -3.1775  -3.1680  -3.1483  -3.1373
    -2.8908  -2.8239  -2.8086  -2.7869  -2.7792  -2.7731  -2.7610  -2.7602
    -2.7208  -2.6588  -2.5325  -2.4997  -2.4194  -2.3822  -2.3521  -2.3035
    -2.2605  -2.2531  -2.2423  -2.2237  -2.2110  -2.1872  -2.1705  -2.0367
    -1.9706  -1.8356  -1.8006  -1.7810  -1.5951  -1.5367  -1.4721  -1.4333
    -1.4200  -1.4127  -1.3808  -1.2994  -1.2078  -1.1518  -1.1420  -1.0852
    -1.0081  -0.9966  -0.8893  -0.8840  -0.8573  -0.7659  -0.7558  -0.7444
    -0.7252  -0.6580  -0.5563  -0.4800  -0.4348  -0.4048  -0.3740  -0.3043
    -0.2741  -0.1722  -0.1564  -0.1079  -0.1030  -0.0614  -0.0166  -0.0070
     0.0021   0.0098   0.0351   0.1775   0.2885   0.3437   0.3838   0.3897
     0.5440   0.5717   0.6688   0.7569   0.9821   1.0548   1.1477   1.2477
     1.3261   1.6254   1.6711   3.1543   3.2379   3.2845   3.2905   3.3945
     3.3984   3.6039   3.6089   3.6225   3.6886

[...]

          k =-0.0760-0.0000 0.0000 ( 17886 PWs)   bands (ev):

[...]

 ------ SPIN DOWN ----------

[...]

          k = 0.0380-0.0419 0.0000 ( 17876 PWs)   bands (ev):

[...]

          k =-0.0760-0.0839 0.0000 ( 17948 PWs)   bands (ev):

   -55.9872 -55.9866 -55.9713 -55.9686 -55.8980 -55.8433 -55.8219 -55.8204
   -55.7855 -55.7836 -55.7433 -55.7422 -55.5375 -55.2722 -54.9505 -54.9504
   -32.3518 -32.3481 -32.2956 -32.2951 -32.2836 -32.2829 -32.2814 -32.2604
   -32.1986 -32.1975 -32.1925 -32.1881 -32.1648 -32.1337 -32.1188 -32.1146
   -32.1083 -32.1077 -32.1022 -32.1015 -32.0967 -32.0831 -32.0808 -32.0492
   -32.0415 -32.0404 -32.0115 -32.0004 -31.9812 -31.9807 -31.9759 -31.9750
   -31.9581 -31.9578 -31.9575 -31.9546 -31.8769 -31.8103 -31.7048 -31.6105
   -31.5431 -31.4909 -31.2769 -31.2768 -31.1868 -31.1867 -31.1477 -31.1477
   -16.2090 -16.1738 -15.9370 -15.9253 -15.9190 -15.9029 -15.7575 -15.7108
   -15.6990 -15.6917 -15.6691 -15.6462 -15.5886 -15.5598 -15.5306 -15.5217
   -15.5156 -15.5137 -15.4518 -15.4466 -15.4233 -15.4165 -15.3030 -15.2992
   -15.2899 -15.2139 -15.1593 -15.0197 -14.7462 -14.2004 -13.4550 -13.4547
    -8.9277  -4.3750  -3.5032  -3.4630  -3.2842  -3.2374  -3.1779  -3.1614
    -3.1375  -3.0689  -2.9047  -2.8878  -2.8765  -2.8612  -2.8191  -2.8129
    -2.8026  -2.7903  -2.7833  -2.7643  -2.7309  -2.6984  -2.6594  -2.6521
    -2.6435  -2.6186  -2.6075  -2.5863  -2.5743  -2.5433  -2.5342  -2.5166
    -2.4871  -2.2253  -2.2055  -2.1947  -2.1234  -2.1168  -2.0833  -2.0656
    -2.0557  -2.0425  -1.9856  -1.8820  -1.7247  -1.6932  -1.6854  -1.6681
    -1.5851  -1.5760  -1.4221  -1.4007  -1.3806  -1.3438  -1.2896  -1.2670
    -1.2263  -1.1675  -1.1503  -1.0864  -1.0692  -1.0105  -0.9549  -0.9530
    -0.9323  -0.8569  -0.7759  -0.7602  -0.7468  -0.7071  -0.6972  -0.6105
    -0.5867  -0.4935  -0.4793  -0.4221  -0.3958  -0.2942  -0.1358  -0.0106
     0.0431   0.0691   0.1265   0.2251   0.2695   0.2813   0.3258   0.3321
     0.3934   0.4333   0.5470   0.5529   0.6277   0.7189   1.2629   1.4193
     1.4200   1.4908   1.4910   3.4108   3.4160   3.4633   3.4926   3.6428
     3.6473   3.6713   3.6726   3.7982   3.8142

     the Fermi energy is     3.1414 ev

!    total energy              =   -2920.42464448 Ry
     estimated scf accuracy    <       0.00000005 Ry
     smearing contrib. (-TS)   =      -0.02202439 Ry
     internal energy E=F+TS    =   -2920.40262009 Ry

     The total energy is F=E-TS. E is the sum of the following terms:
     one-electron contribution =  -24701.76640201 Ry
     hartree contribution      =   12435.49605093 Ry
     xc contribution           =    -480.87109373 Ry
     ewald contribution        =    9826.73794004 Ry
     electric field correction =       0.00088469 Ry

     total magnetization       =    -0.04 Bohr mag/cell
     absolute magnetization    =     0.06 Bohr mag/cell

     convergence has been achieved in  84 iterations

     Forces acting on atoms (cartesian axes, Ry/au):

     atom    1 type  1   force =     0.00010700   -0.00026117    0.09688015
     atom    2 type  1   force =     0.00001538   -0.00055798   -0.17507986
     atom    3 type  2   force =     0.00013435   -0.00007707   -0.02543923
     atom    4 type  2   force =    -0.00000603   -0.00137218    0.05231984
     atom    5 type  2   force =    -0.01236193   -0.00013308    0.00302022
     atom    6 type  2   force =     0.01378114    0.00023378    0.00238386
     atom    7 type  1   force =     0.00059791    0.00032601   -0.01267433
     atom    8 type  1   force =     0.00047011    0.00593923    0.03105616
     atom    9 type  2   force =    -0.00033349    0.00024122    0.00040797
     atom   10 type  2   force =    -0.00269626    0.00069396   -0.01625779
     atom   11 type  2   force =    -0.00040256    0.00012551    0.00016802
     atom   12 type  2   force =     0.00013208    0.00013687    0.00019424
     atom   13 type  1   force =    -0.00013368    0.00022479    0.00024910
     atom   14 type  1   force =    -0.00002147   -0.00020885   -0.00014484
     atom   15 type  2   force =     0.00019630    0.00006232    0.00032165
     atom   16 type  2   force =    -0.00006329    0.00027646    0.00024317
     atom   17 type  2   force =    -0.00009001   -0.00021131   -0.00024231
     atom   18 type  2   force =     0.00035148   -0.00008086    0.00027794
     atom   19 type  1   force =    -0.00002296    0.00022167   -0.00009533
     atom   20 type  1   force =    -0.00005482    0.00004010   -0.00036778
     atom   21 type  2   force =     0.00006656   -0.00005630    0.10310079
     atom   22 type  2   force =    -0.00012971    0.00000099    0.00029944
     atom   23 type  2   force =    -0.07162322   -0.00015953   -0.02782768
     atom   24 type  2   force =     0.07154865    0.00032380   -0.02789004
     atom   25 type  1   force =     0.00011422   -0.00024332    0.09666197
     atom   26 type  1   force =     0.00012157   -0.00031789   -0.17524661
     atom   27 type  2   force =     0.00013398   -0.00023348   -0.02451535
     atom   28 type  2   force =     0.00002810   -0.00113110    0.05223765
     atom   29 type  2   force =    -0.01248409    0.00014855    0.00267402
     atom   30 type  2   force =     0.01379185    0.00069434    0.00202047
     atom   31 type  1   force =     0.00050177    0.00288963   -0.01339062
     atom   32 type  1   force =     0.00030269   -0.00821469    0.03146683
     atom   33 type  2   force =    -0.00005637   -0.00006503   -0.00010299
     atom   34 type  2   force =    -0.00183979    0.00055764   -0.02457717
     atom   35 type  2   force =    -0.00013347    0.00010102    0.00004853
     atom   36 type  2   force =    -0.00025050    0.00020179    0.00011985
     atom   37 type  1   force =    -0.00007573    0.00027534    0.00024753
     atom   38 type  1   force =    -0.00022989   -0.00003574   -0.00015957
     atom   39 type  2   force =     0.00006038    0.00021935   -0.00015592
     atom   40 type  2   force =    -0.00016479    0.00027059   -0.00013464
     atom   41 type  2   force =     0.00005247    0.00005975    0.00023508
     atom   42 type  2   force =    -0.00009223   -0.00003056    0.00038819
     atom   43 type  1   force =    -0.00018714   -0.00019218    0.00047431
     atom   44 type  1   force =     0.00032055   -0.00026258    0.00010962
     atom   45 type  2   force =     0.00004961   -0.00006482    0.10310907
     atom   46 type  2   force =    -0.07163222   -0.00008657   -0.02782536
     atom   47 type  2   force =     0.07156557    0.00033686   -0.02790161
     atom   48 type  3   force =    -0.00047130    0.00018087    0.00001166
     atom   49 type  4   force =     0.00041661   -0.00103723   -0.00110457
     atom   50 type  5   force =    -0.00074201    0.00179547    0.00100075
     atom   51 type  3   force =     0.00170045   -0.00275306   -0.00131668
     atom   52 type  3   force =     0.00034728    0.00046057   -0.00019176
     atom   53 type  3   force =    -0.00060913    0.00074809    0.00091398

     Total force =     0.368384     Total SCF correction =     0.000288
  @ DRIVER MODE: Message from server: STATUS
  @ DRIVER MODE: Message from server: GETFORCE
  @ DRIVER MODE: Returning v,forces,stress,ensemble

     Writing output data file ./calc.save/
  @ DRIVER MODE: Message from server: EXIT
  @ DRIVE MODE: Exiting

     General routines

     Parallel routines

   This run was terminated on:   2:36:43  16Jul2021

   JOB DONE.