     Program PWSCF v.6.7GPU starts on 24Aug2021 at  0: 8:32

     R & G space division:  proc/nbgrp/npool/nimage =       6
     Reading input from /storage/home/hcoda1/3/ntian30/research/carbon/CH_vib/ads_slab/CHN2_b/out_0023/pw.inp
Warning: card &CELL ignored
Warning: card   CELL_DYNAMICS='IPI', ignored
Warning: card / ignored

     Current dimensions of program PWSCF are:
     Max number of different atomic species (ntypx) = 10
     Max number of k-points (npk) =  40000
     Max angular momentum in pseudopotentials (lmaxx) =  3
     Presently no symmetry can be used with electric field

     Message from routine cell_base_init:
     DEPRECATED: use true lattice parameter, not A to a.u. conversion factor

     IMPORTANT: XC functional enforced from input :
     Exchange-correlation= BEEF-VDW
                           (   1   4  43  14   2   0   0)
     Any further DFT definition will be discarded
     Please, verify this is what you really want

  @ DRIVER MODE: Connecting to
 qe_1139763_2632794.sched-torque.pace.gatech.edupe6azm_6_scratch
  using UNIX socket
  @ DRIVER MODE: Message from server: STATUS
  @ DRIVER MODE: Message from server: INIT
  @ DRIVER MODE: Receiving replica           0          -1
  @ DRIVER MODE: Receiving encoded integer          25
  @ DRIVER MODE:  SCF:  T  FORCE:  T  STRESS:  F  VC:  F  ENSEMBLE:  F
  @ DRIVER MODE:  SCF:  T  FORCE:  T  STRESS:  F  VC:  F  ENSEMBLE:  F

     Using Slab Decomposition

     bravais-lattice index     =            0
     lattice parameter (alat)  =       1.8897  a.u.
     unit-cell volume          =    6658.9804 (a.u.)^3
     number of atoms/cell      =           51
     number of atomic types    =            5
     number of electrons       =       393.00
     number of Kohn-Sham states=          206
     kinetic-energy cutoff     =      29.3995  Ry
     charge density cutoff     =     293.9946  Ry
     scf convergence threshold =      7.3E-08
     mixing beta               =       0.0500
     number of iterations used =            8  plain     mixing
     Exchange-correlation= BEEF-VDW
                           (   1   4  43  14   2   0   0)

     celldm(1)=   1.889726  celldm(2)=   0.000000  celldm(3)=   0.000000
     celldm(4)=   0.000000  celldm(5)=   0.000000  celldm(6)=   0.000000

     crystal axes: (cart. coord. in units of alat)
               a(1) = (   6.579727   0.000000   0.000000 )
               a(2) = (  -0.000775   5.961596   0.000000 )
               a(3) = (   0.000000   0.000000  25.155947 )

     reciprocal axes: (cart. coord. in units 2 pi/alat)
               b(1) = (  0.151982  0.000020  0.000000 )
               b(2) = (  0.000000  0.167740  0.000000 )
               b(3) = (  0.000000  0.000000  0.039752 )

     PseudoPot. # 1 for Ti read from file:
     /storage/coda1/p-amedford6/0/shared/rich_project_chbe-medford/medford-share/data/pseudos_module/espresso/nninc/pbe/van/Ti.UPF
     MD5 check sum: 8e4df49b7f0d34bbd5052bf3f5ea0213
     Pseudo is Ultrasoft, Zval = 12.0
     Generated by new atomic code, or converted to UPF format
     Using radial grid of  851 points,  6 beta functions with:
                l(1) =   0
                l(2) =   0
                l(3) =   1
                l(4) =   1
                l(5) =   2
                l(6) =   2
     Q(r) pseudized with  8 coefficients,  rinner =    1.000   1.000   1.000
                                                       1.000   1.000

     PseudoPot. # 2 for O  read from file:
     /storage/coda1/p-amedford6/0/shared/rich_project_chbe-medford/medford-share/data/pseudos_module/espresso/nninc/pbe/van/O.UPF
     MD5 check sum: 78c19812648e8988a0fe644b0f25305e
     Pseudo is Ultrasoft, Zval =  6.0
     Generated by new atomic code, or converted to UPF format
     Using radial grid of  737 points,  4 beta functions with:
                l(1) =   0
                l(2) =   0
                l(3) =   1
                l(4) =   1
     Q(r) pseudized with  8 coefficients,  rinner =    0.800   0.800   0.800

     PseudoPot. # 3 for N  read from file:
     /storage/coda1/p-amedford6/0/shared/rich_project_chbe-medford/medford-share/data/pseudos_module/espresso/nninc/pbe/van/N.UPF
     MD5 check sum: 90d10febe142ad51ac9d5be1deb811c4
     Pseudo is Ultrasoft, Zval =  5.0
     Generated by new atomic code, or converted to UPF format
     Using radial grid of  729 points,  4 beta functions with:
                l(1) =   0
                l(2) =   0
                l(3) =   1
                l(4) =   1
     Q(r) pseudized with  8 coefficients,  rinner =    0.800   0.800   0.800

     PseudoPot. # 4 for C  read from file:
     /storage/coda1/p-amedford6/0/shared/rich_project_chbe-medford/medford-share/data/pseudos_module/espresso/nninc/pbe/van/C.UPF
     MD5 check sum: 1a69bf6b8db32088f5b2163dbdb77a27
     Pseudo is Ultrasoft, Zval =  4.0
     Generated by new atomic code, or converted to UPF format
     Using radial grid of  721 points,  4 beta functions with:
                l(1) =   0
                l(2) =   0
                l(3) =   1
                l(4) =   1
     Q(r) pseudized with  8 coefficients,  rinner =    0.800   0.800   0.800

     PseudoPot. # 5 for H  read from file:
     /storage/coda1/p-amedford6/0/shared/rich_project_chbe-medford/medford-share/data/pseudos_module/espresso/nninc/pbe/van/H.UPF
     MD5 check sum: b5ee9d7bfd3a09ee7748110bda690ff7
     Pseudo is Ultrasoft, Zval =  1.0
     Generated by new atomic code, or converted to UPF format
     Using radial grid of  615 points,  1 beta functions with:
                l(1) =   0
     Q(r) pseudized with  8 coefficients,  rinner =    0.800

     atomic species   valence    mass     pseudopotential
        Ti1           12.00    47.86700     Ti( 1.00)
        O1             6.00    15.99900     O ( 1.00)
        N1             5.00    14.00700     N ( 1.00)
        C1             4.00    12.01100     C ( 1.00)
        H1             1.00     1.00800     H ( 1.00)

     No symmetry found

   Cartesian axes

     site n.     atom                  positions (alat units)
         1           Ti1 tau(   1) = (   0.0004258   2.9801865   6.0000000  )
         2           Ti1 tau(   2) = (   3.2906075   1.4906267   6.0002472  )
         3           O1  tau(   3) = (   0.0006271   0.0005054   7.9858123  )
         4           O1  tau(   4) = (   3.2906025   0.0005020   7.3038282  )
         5           O1  tau(   5) = (   4.5942328   1.4918067   9.2879030  )
         6           O1  tau(   6) = (   1.9868534   1.4903216   9.2879459  )
         7           Ti1 tau(   7) = (   3.2907910   2.8959150   9.1758416  )
         8           Ti1 tau(   8) = (   0.0015273   1.4827037   9.2680791  )
         9           O1  tau(   9) = (   3.2950996   0.0139504  11.3317891  )
        10           O1  tau(  10) = (   0.0116148   5.9584955  10.6183126  )
        11           O1  tau(  11) = (   1.2919129   1.4990403  12.6236220  )
        12           O1  tau(  12) = (   5.2764399   1.5074276  12.6212280  )
        13           Ti1 tau(  13) = (   0.0528816   2.9532107  12.6238214  )
        14           Ti1 tau(  14) = (   3.3640876   1.5054642  12.4823551  )
        15           O1  tau(  15) = (   0.0126464   0.0517330  14.6735668  )
        16           O1  tau(  16) = (   3.2893787   0.0313947  13.9162352  )
        17           O1  tau(  17) = (   4.5455072   1.5470193  16.0571763  )
        18           O1  tau(  18) = (   2.0683839   1.5479149  16.0688871  )
        19           Ti1 tau(  19) = (   3.3004933   3.0285056  15.7062229  )
        20           Ti1 tau(  20) = (   6.5748692   1.5544668  15.8636821  )
        21           O1  tau(  21) = (   3.2904802   0.0005063   4.7018136  )
        22           O1  tau(  22) = (   0.0156978   0.0568370  17.2307755  )
        23           O1  tau(  23) = (   1.3043587   1.4918075   6.0039043  )
        24           O1  tau(  24) = (   5.2767064   1.4903225   6.0039473  )
        25           Ti1 tau(  25) = (   0.0000382   5.9609847   6.0000000  )
        26           Ti1 tau(  26) = (   3.2902200   4.4714249   6.0002472  )
        27           O1  tau(  27) = (   0.0002396   2.9813036   7.9858123  )
        28           O1  tau(  28) = (   3.2902150   2.9813002   7.3038282  )
        29           O1  tau(  29) = (   4.5938453   4.4726049   9.2879030  )
        30           O1  tau(  30) = (   1.9864658   4.4711199   9.2879459  )
        31           Ti1 tau(  31) = (   3.2891106   5.8743827   9.1763621  )
        32           Ti1 tau(  32) = (   0.0006254   4.4649316   9.2693709  )
        33           O1  tau(  33) = (   3.2930415   3.0011583  11.3325650  )
        34           O1  tau(  34) = (   0.0092240   2.9805883  10.6323155  )
        35           O1  tau(  35) = (   1.2898468   4.4882246  12.6384491  )
        36           O1  tau(  36) = (   5.2806636   4.4975927  12.6358184  )
        37           Ti1 tau(  37) = (   0.0525728   5.9296047  12.5528222  )
        38           Ti1 tau(  38) = (   3.3636738   4.4864912  12.4891182  )
        39           O1  tau(  39) = (   0.0107234   2.9627607  14.6747216  )
        40           O1  tau(  40) = (   3.2927234   3.0099296  13.9079960  )
        41           O1  tau(  41) = (   4.5395255   4.5218754  16.0742521  )
        42           O1  tau(  42) = (   2.0629885   4.5199598  16.0715304  )
        43           Ti1 tau(  43) = (   3.2878121   0.0461507  15.7166771  )
        44           Ti1 tau(  44) = (   0.0020781   4.6962996  16.1098215  )
        45           O1  tau(  45) = (   3.2900926   2.9813045   4.7018136  )
        46           O1  tau(  46) = (   1.3039711   4.4726057   6.0039043  )
        47           O1  tau(  47) = (   5.2763189   4.4711207   6.0039473  )
        48           N1  tau(  48) = (   0.1203982   2.9607606  18.6152809  )
        49           N1  tau(  49) = (   0.0157770   3.0106383  17.4001577  )
        50           C1  tau(  50) = (   0.0651646   2.9076078  19.8026698  )
        51           H1  tau(  51) = (   0.7310076   2.8879977  20.6280856  )

     number of k points=    10  Fermi-Dirac smearing, width (Ry)=  0.0073
                       cart. coord. in units 2pi/alat
        k(    1) = (   0.0000000   0.0000000   0.0000000), wk =   0.1250000
        k(    2) = (   0.0000000   0.0419351   0.0000000), wk =   0.2500000
        k(    3) = (   0.0000000  -0.0838702   0.0000000), wk =   0.1250000
        k(    4) = (   0.0379955   0.0000049   0.0000000), wk =   0.2500000
        k(    5) = (   0.0379955   0.0419400   0.0000000), wk =   0.2500000
        k(    6) = (   0.0379955  -0.0838652   0.0000000), wk =   0.2500000
        k(    7) = (   0.0379955  -0.0419301   0.0000000), wk =   0.2500000
        k(    8) = (  -0.0759910  -0.0000099   0.0000000), wk =   0.1250000
        k(    9) = (  -0.0759910   0.0419252   0.0000000), wk =   0.2500000
        k(   10) = (  -0.0759910  -0.0838800   0.0000000), wk =   0.1250000

     Initial potential from superposition of free atoms

     starting charge  376.99918, renormalised to  393.00000

     negative rho (up, down):  1.566E-02 0.000E+00

     %%%%%%%%%%%%%%%%%%%%%%%%%%%%%%%%%%%%%%%%%%%%%%%%%%%%%%%%%%%%%%%%%%%%%%%%
     %                                                                      %
     % You are using vdW-DF, which was implemented by the Thonhauser group. %
     % Please cite the following two papers that made this development      %
     % possible and the two reviews that describe the various versions:     %
     %                                                                      %
     %   T. Thonhauser et al., PRL 115, 136402 (2015).                      %
     %   T. Thonhauser et al., PRB 76, 125112 (2007).                       %
     %   K. Berland et al., Rep. Prog. Phys. 78, 066501 (2015).             %
     %   D.C. Langreth et al., J. Phys.: Condens. Matter 21, 084203 (2009). %
     %                                                                      %
     %                                                                      %
     % If you are calculating the stress with vdW-DF, please also cite:     %
     %                                                                      %
     %   R. Sabatini et al., J. Phys.: Condens. Matter 24, 424209 (2012).   %
     %                                                                      %
     %%%%%%%%%%%%%%%%%%%%%%%%%%%%%%%%%%%%%%%%%%%%%%%%%%%%%%%%%%%%%%%%%%%%%%%%

     Adding external electric field

     Computed dipole along edir(3) :
        Dipole               -7.5493 Ry au,        -19.1883 Debye
        Dipole field         -0.0142 Ry au,

        Potential amp.        1.3206 Ry
        Total length         46.3494 bohr

     Starting wfcs are  297 atomic wfcs
  @ DRIVER MODE: Message from server: STATUS
  @ DRIVER MODE: Message from server: POSDATA
  @ DRIVER MODE: Reading and sharing cell
  @ DRIVER MODE: Reading and sharing positions
  @ DRIVER MODE: Received positions

     Self-consistent Calculation

     iteration #  1     ecut=    29.40 Ry     beta= 0.05
     Davidson diagonalization with overlap
     c_bands:  1 eigenvalues not converged
     c_bands:  1 eigenvalues not converged
     c_bands:  1 eigenvalues not converged
     ethr =  1.00E-05,  avg # of iterations = 18.4

[...]

     total energy              =   -2707.49390279 Ry
     estimated scf accuracy    <    2541.57338372 Ry

[...]

     iteration #  3     ecut=    29.40 Ry     beta= 0.05
     Davidson diagonalization with overlap
     ethr =  1.00E-02,  avg # of iterations = 16.7

[...]

     iteration # 57     ecut=    29.40 Ry     beta= 0.05
     Davidson diagonalization with overlap
     c_bands:  1 eigenvalues not converged
     ethr =  8.58E-11,  avg # of iterations = 16.0

[...]

     total energy              =   -2936.63943349 Ry
     estimated scf accuracy    <       0.00000010 Ry

     iteration # 62     ecut=    29.40 Ry     beta= 0.05
     Davidson diagonalization with overlap
     ethr =  2.57E-11,  avg # of iterations =  2.0

     negative rho (up, down):  1.609E-02 0.000E+00

     Adding external electric field

     Computed dipole along edir(3) :
        Dipole                0.7436 Ry au,          1.8901 Debye
        Dipole field          0.0014 Ry au,

        Potential amp.       -0.1301 Ry
        Total length         46.3494 bohr

     End of self-consistent calculation

          k = 0.0000 0.0000 0.0000 ( 18029 PWs)   bands (ev):

   -55.9131 -55.9116 -55.8791 -55.8750 -55.7720 -55.7588 -55.7368 -55.7221
   -55.7212 -55.6881 -55.6879 -55.6542 -55.4714 -55.2270 -54.8914 -54.8574
   -32.4656 -32.3957 -32.2692 -32.2214 -32.2192 -32.2127 -32.2059 -32.1784
   -32.1558 -32.1303 -32.0997 -32.0900 -32.0852 -32.0655 -32.0578 -32.0514
   -32.0176 -32.0046 -31.9973 -31.9760 -31.9737 -31.9704 -31.9512 -31.9259
   -31.9189 -31.9112 -31.9084 -31.8995 -31.8977 -31.8898 -31.8847 -31.8630
   -31.8531 -31.8411 -31.8288 -31.8263 -31.7999 -31.6926 -31.6852 -31.5047
   -31.4569 -31.4560 -31.2986 -31.2102 -31.1878 -31.1153 -31.0288 -30.9178
   -19.2718 -16.6527 -16.3875 -16.1421 -16.0607 -16.0316 -15.9160 -15.7539
   -15.6368 -15.5759 -15.4756 -15.4698 -15.4496 -15.4165 -15.3867 -15.3618
   -15.3568 -15.3470 -15.3304 -15.2984 -15.2740 -15.2526 -15.2289 -15.1398
   -15.0827 -15.0474 -14.9875 -14.9796 -14.9699 -14.5087 -13.9355 -13.3940
   -13.2775  -6.6972  -5.3238  -4.2247  -4.0270  -3.9227  -3.8681  -3.8195
    -3.7644  -3.6606  -3.5234  -3.4542  -3.1407  -3.0885  -3.0764  -3.0519
    -3.0274  -2.8140  -2.7487  -2.7257  -2.6921  -2.6870  -2.6842  -2.6756
    -2.6589  -2.6262  -2.5050  -2.4486  -2.3768  -2.3367  -2.3076  -2.3001
    -2.2254  -2.1863  -2.1749  -2.1502  -2.1486  -2.1250  -2.1156  -2.0984
    -1.9610  -1.8942  -1.7721  -1.7072  -1.6734  -1.5217  -1.4948  -1.3909
    -1.3653  -1.3418  -1.3057  -1.2747  -1.2157  -1.0820  -1.0739  -1.0633
    -1.0311  -0.9325  -0.8799  -0.8068  -0.7511  -0.7321  -0.6819  -0.6701
    -0.6664  -0.6224  -0.4631  -0.3877  -0.3283  -0.3188  -0.2741  -0.2133
    -0.1835  -0.1052  -0.0629  -0.0330  -0.0192   0.0239   0.0609   0.0847
     0.0950   0.1047   0.1184   0.3039   0.3463   0.3645   0.4225   0.4400
     0.6123   0.6577   0.7426   0.8376   1.0561   1.1306   1.2142   1.3227
     1.3324   1.5780   1.7019   1.7476   3.2183   3.3080   3.3446   3.3534
     3.4606   3.5324   3.6750   3.6872   3.7075   3.7505

[...]

          k = 0.0380-0.0419 0.0000 ( 17876 PWs)   bands (ev):

[...]

          k =-0.0760-0.0000 0.0000 ( 17886 PWs)   bands (ev):

[...]

          k =-0.0760-0.0839 0.0000 ( 17948 PWs)   bands (ev):

   -55.8969 -55.8965 -55.8955 -55.8895 -55.7586 -55.7501 -55.7474 -55.7325
   -55.7060 -55.7037 -55.6727 -55.6696 -55.4703 -55.2280 -54.8744 -54.8743
   -32.2717 -32.2648 -32.2113 -32.2107 -32.1917 -32.1908 -32.1630 -32.1585
   -32.1186 -32.1111 -32.0852 -32.0830 -32.0436 -32.0363 -32.0281 -32.0256
   -32.0184 -32.0181 -32.0162 -32.0152 -32.0109 -32.0079 -31.9748 -31.9638
   -31.9552 -31.9491 -31.9350 -31.9317 -31.9063 -31.9055 -31.9037 -31.9011
   -31.8872 -31.8854 -31.8819 -31.8797 -31.8485 -31.6954 -31.6808 -31.5749
   -31.4781 -31.4587 -31.2005 -31.2004 -31.1114 -31.1113 -31.0721 -31.0721
   -19.2693 -16.0807 -16.0673 -15.8633 -15.8296 -15.8172 -15.8098 -15.6937
   -15.6145 -15.6061 -15.6049 -15.5036 -15.4916 -15.4831 -15.4510 -15.4413
   -15.4218 -15.4203 -15.3819 -15.3748 -15.3688 -15.3516 -15.3439 -15.2582
   -15.2316 -15.2275 -15.1965 -15.0829 -14.9482 -14.6889 -13.9413 -13.3794
   -13.3793  -6.6963  -5.2921  -4.1877  -3.9228  -3.3702  -3.3538  -3.0988
    -3.0673  -3.0583  -3.0030  -2.8308  -2.8135  -2.7898  -2.7678  -2.7372
    -2.7307  -2.7232  -2.7162  -2.6974  -2.6533  -2.6289  -2.5985  -2.5839
    -2.5696  -2.5692  -2.5385  -2.5256  -2.4843  -2.4700  -2.4595  -2.4369
    -2.4123  -2.4022  -2.2493  -2.1561  -2.1248  -2.0521  -2.0454  -2.0043
    -1.9780  -1.9630  -1.9397  -1.9042  -1.7624  -1.6476  -1.6117  -1.5969
    -1.5171  -1.4733  -1.3967  -1.3376  -1.2935  -1.2871  -1.2307  -1.1812
    -1.1205  -1.1094  -1.0460  -1.0130  -0.9751  -0.9427  -0.9023  -0.8719
    -0.8666  -0.7809  -0.7304  -0.7226  -0.6711  -0.6672  -0.6372  -0.5803
    -0.5612  -0.5331  -0.4104  -0.3904  -0.2830  -0.2010  -0.1396   0.0547
     0.1358   0.1608   0.2143   0.2847   0.3745   0.3884   0.4036   0.4093
     0.4577   0.5094   0.6160   0.6271   0.6652   0.7956   1.2524   1.4613
     1.4942   1.4949   1.5673   1.5675   3.5317   3.5412   3.5594   3.5757
     3.7314   3.7342   3.7539   3.7553   3.8893   3.9020

     the Fermi energy is     3.2199 ev

!    total energy              =   -2936.63947816 Ry
     estimated scf accuracy    <       0.00000006 Ry
     smearing contrib. (-TS)   =      -0.02146419 Ry
     internal energy E=F+TS    =   -2936.61801396 Ry

     The total energy is F=E-TS. E is the sum of the following terms:
     one-electron contribution =  -24292.14552632 Ry
     hartree contribution      =   12231.61913352 Ry
     xc contribution           =    -483.57214624 Ry
     ewald contribution        =    9607.47948157 Ry
     electric field correction =       0.00104352 Ry

     convergence has been achieved in  62 iterations

     Forces acting on atoms (cartesian axes, Ry/au):

     atom    1 type  1   force =     0.00010018   -0.00015015    0.09654251
     atom    2 type  1   force =    -0.00015462   -0.00057731   -0.17551137
     atom    3 type  2   force =    -0.00000222    0.00006100   -0.02461197
     atom    4 type  2   force =     0.00005250   -0.00130269    0.05296514
     atom    5 type  2   force =    -0.01197769    0.00009628    0.00365970
     atom    6 type  2   force =     0.01362566    0.00068571    0.00266856
     atom    7 type  1   force =    -0.00091284    0.00091034   -0.01121256
     atom    8 type  1   force =     0.00035720    0.00992655    0.02719544
     atom    9 type  2   force =    -0.00018727   -0.00023466    0.00015137
     atom   10 type  2   force =    -0.00143112    0.00227455   -0.01251110
     atom   11 type  2   force =    -0.00012240    0.00025240   -0.00025836
     atom   12 type  2   force =     0.00034008    0.00000099   -0.00056754
     atom   13 type  1   force =     0.00035173   -0.00123447   -0.00058687
     atom   14 type  1   force =     0.00042373    0.00001108   -0.00000609
     atom   15 type  2   force =    -0.00002823   -0.00080404   -0.00040505
     atom   16 type  2   force =     0.00009594   -0.00047980    0.00005480
     atom   17 type  2   force =    -0.00045978   -0.00055225    0.00007206
     atom   18 type  2   force =    -0.00029898   -0.00067886   -0.00017670
     atom   19 type  1   force =     0.00002743   -0.00031412    0.00005166
     atom   20 type  1   force =     0.00013153   -0.00014086   -0.00011612
     atom   21 type  2   force =     0.00003596   -0.00004122    0.10326342
     atom   22 type  2   force =    -0.00033415   -0.00083054   -0.00097848
     atom   23 type  2   force =    -0.07149729   -0.00010533   -0.02767851
     atom   24 type  2   force =     0.07141245    0.00031947   -0.02768476
     atom   25 type  1   force =     0.00006708   -0.00012758    0.09604912
     atom   26 type  1   force =    -0.00022394   -0.00022163   -0.17568274
     atom   27 type  2   force =     0.00006035   -0.00012725   -0.02363478
     atom   28 type  2   force =     0.00005649   -0.00109328    0.05314886
     atom   29 type  2   force =    -0.01210185    0.00086882    0.00326989
     atom   30 type  2   force =     0.01365922    0.00133760    0.00232485
     atom   31 type  1   force =    -0.00082427    0.00333612   -0.01192827
     atom   32 type  1   force =     0.00043149   -0.01207845    0.02751547
     atom   33 type  2   force =     0.00021976    0.00015422    0.00010446
     atom   34 type  2   force =    -0.00107182    0.00252839   -0.02033913
     atom   35 type  2   force =     0.00016471   -0.00087310   -0.00029025
     atom   36 type  2   force =     0.00039805   -0.00059387   -0.00058451
     atom   37 type  1   force =     0.00004582    0.00117002   -0.00031476
     atom   38 type  1   force =     0.00032923    0.00031458   -0.00012744
     atom   39 type  2   force =    -0.00003724    0.00040037   -0.00080141
     atom   40 type  2   force =    -0.00001585    0.00005495   -0.00054565
     atom   41 type  2   force =     0.00045571   -0.00007198   -0.00010757
     atom   42 type  2   force =    -0.00053279    0.00011222    0.00083922
     atom   43 type  1   force =    -0.00009930   -0.00035697    0.00025449
     atom   44 type  1   force =    -0.00010084   -0.00017304   -0.00001756
     atom   45 type  2   force =     0.00004720   -0.00005605    0.10325992
     atom   46 type  2   force =    -0.07149329   -0.00006682   -0.02767823
     atom   47 type  2   force =     0.07142200    0.00034412   -0.02768890
     atom   48 type  3   force =    -0.00032401   -0.00062759   -0.00254872
     atom   49 type  3   force =     0.00005991   -0.00047074    0.00059539
     atom   50 type  4   force =    -0.00754213   -0.00011411   -0.00884526
     atom   51 type  5   force =     0.00740252   -0.00066103    0.00945437

     Total force =     0.368019     Total SCF correction =     0.000788
  @ DRIVER MODE: Message from server: STATUS
  @ DRIVER MODE: Message from server: GETFORCE
  @ DRIVER MODE: Returning v,forces,stress,ensemble

     Writing output data file ./calc.save/
  @ DRIVER MODE: Message from server: EXIT
  @ DRIVE MODE: Exiting

     General routines

     Parallel routines

   This run was terminated on:   0:37:31  24Aug2021

   JOB DONE.