     Program PWSCF v.6.7GPU starts on  2Aug2021 at 12:51:25

     R & G space division:  proc/nbgrp/npool/nimage =      16
     Reading input from /storage/home/hcoda1/3/ntian30/research/carbon/02Aug_vib_paired/ads_slab/CH3N2H_a/out_0003/pw.inp
Warning: card &CELL ignored
Warning: card   CELL_DYNAMICS='IPI', ignored
Warning: card / ignored

     Current dimensions of program PWSCF are:
     Max number of different atomic species (ntypx) = 10
     Max number of k-points (npk) =  40000
     Max angular momentum in pseudopotentials (lmaxx) =  3
     Presently no symmetry can be used with electric field

     Message from routine cell_base_init:
     DEPRECATED: use true lattice parameter, not A to a.u. conversion factor

     IMPORTANT: XC functional enforced from input :
     Exchange-correlation= BEEF-VDW
                           (   1   4  43  14   2   0   0)
     Any further DFT definition will be discarded
     Please, verify this is what you really want

  @ DRIVER MODE: Connecting to
 qe_1139763_2482535.sched-torque.pace.gatech.edunh29cf5b_scratch
  using UNIX socket
  @ DRIVER MODE: Message from server: STATUS
  @ DRIVER MODE: Message from server: INIT
  @ DRIVER MODE: Receiving replica           0          -1
  @ DRIVER MODE: Receiving encoded integer          25
  @ DRIVER MODE:  SCF:  T  FORCE:  T  STRESS:  F  VC:  F  ENSEMBLE:  F
  @ DRIVER MODE:  SCF:  T  FORCE:  T  STRESS:  F  VC:  F  ENSEMBLE:  F

     Using Slab Decomposition

     bravais-lattice index     =            0
     lattice parameter (alat)  =       1.8897  a.u.
     unit-cell volume          =    6658.9804 (a.u.)^3
     number of atoms/cell      =           54
     number of atomic types    =            5
     number of electrons       =       396.00
     number of Kohn-Sham states=          208
     kinetic-energy cutoff     =      29.3995  Ry
     charge density cutoff     =     293.9946  Ry
     scf convergence threshold =      7.3E-08
     mixing beta               =       0.0500
     number of iterations used =            8  plain     mixing
     Exchange-correlation= BEEF-VDW
                           (   1   4  43  14   2   0   0)

     celldm(1)=   1.889726  celldm(2)=   0.000000  celldm(3)=   0.000000
     celldm(4)=   0.000000  celldm(5)=   0.000000  celldm(6)=   0.000000

     crystal axes: (cart. coord. in units of alat)
               a(1) = (   6.579727   0.000000   0.000000 )
               a(2) = (  -0.000775   5.961596   0.000000 )
               a(3) = (   0.000000   0.000000  25.155947 )

     reciprocal axes: (cart. coord. in units 2 pi/alat)
               b(1) = (  0.151982  0.000020  0.000000 )
               b(2) = (  0.000000  0.167740  0.000000 )
               b(3) = (  0.000000  0.000000  0.039752 )

     PseudoPot. # 1 for Ti read from file:
     /storage/coda1/p-amedford6/0/shared/rich_project_chbe-medford/medford-share/data/pseudos_module/espresso/nninc/pbe/van/Ti.UPF
     MD5 check sum: 8e4df49b7f0d34bbd5052bf3f5ea0213
     Pseudo is Ultrasoft, Zval = 12.0
     Generated by new atomic code, or converted to UPF format
     Using radial grid of  851 points,  6 beta functions with:
                l(1) =   0
                l(2) =   0
                l(3) =   1
                l(4) =   1
                l(5) =   2
                l(6) =   2
     Q(r) pseudized with  8 coefficients,  rinner =    1.000   1.000   1.000
                                                       1.000   1.000

     PseudoPot. # 2 for O  read from file:
     /storage/coda1/p-amedford6/0/shared/rich_project_chbe-medford/medford-share/data/pseudos_module/espresso/nninc/pbe/van/O.UPF
     MD5 check sum: 78c19812648e8988a0fe644b0f25305e
     Pseudo is Ultrasoft, Zval =  6.0
     Generated by new atomic code, or converted to UPF format
     Using radial grid of  737 points,  4 beta functions with:
                l(1) =   0
                l(2) =   0
                l(3) =   1
                l(4) =   1
     Q(r) pseudized with  8 coefficients,  rinner =    0.800   0.800   0.800

     PseudoPot. # 3 for N  read from file:
     /storage/coda1/p-amedford6/0/shared/rich_project_chbe-medford/medford-share/data/pseudos_module/espresso/nninc/pbe/van/N.UPF
     MD5 check sum: 90d10febe142ad51ac9d5be1deb811c4
     Pseudo is Ultrasoft, Zval =  5.0
     Generated by new atomic code, or converted to UPF format
     Using radial grid of  729 points,  4 beta functions with:
                l(1) =   0
                l(2) =   0
                l(3) =   1
                l(4) =   1
     Q(r) pseudized with  8 coefficients,  rinner =    0.800   0.800   0.800

     PseudoPot. # 4 for C  read from file:
     /storage/coda1/p-amedford6/0/shared/rich_project_chbe-medford/medford-share/data/pseudos_module/espresso/nninc/pbe/van/C.UPF
     MD5 check sum: 1a69bf6b8db32088f5b2163dbdb77a27
     Pseudo is Ultrasoft, Zval =  4.0
     Generated by new atomic code, or converted to UPF format
     Using radial grid of  721 points,  4 beta functions with:
                l(1) =   0
                l(2) =   0
                l(3) =   1
                l(4) =   1
     Q(r) pseudized with  8 coefficients,  rinner =    0.800   0.800   0.800

     PseudoPot. # 5 for H  read from file:
     /storage/coda1/p-amedford6/0/shared/rich_project_chbe-medford/medford-share/data/pseudos_module/espresso/nninc/pbe/van/H.UPF
     MD5 check sum: b5ee9d7bfd3a09ee7748110bda690ff7
     Pseudo is Ultrasoft, Zval =  1.0
     Generated by new atomic code, or converted to UPF format
     Using radial grid of  615 points,  1 beta functions with:
                l(1) =   0
     Q(r) pseudized with  8 coefficients,  rinner =    0.800

     atomic species   valence    mass     pseudopotential
        Ti1           12.00    47.86700     Ti( 1.00)
        O1             6.00    15.99900     O ( 1.00)
        N1             5.00    14.00700     N ( 1.00)
        C1             4.00    12.01100     C ( 1.00)
        H1             1.00     1.00800     H ( 1.00)

     No symmetry found

   Cartesian axes

     site n.     atom                  positions (alat units)
         1           Ti1 tau(   1) = (   0.0004258   2.9801865   6.0000000  )
         2           Ti1 tau(   2) = (   3.2906075   1.4906267   6.0002472  )
         3           O1  tau(   3) = (   0.0006271   0.0005054   7.9858123  )
         4           O1  tau(   4) = (   3.2906025   0.0005020   7.3038282  )
         5           O1  tau(   5) = (   4.5942328   1.4918067   9.2879030  )
         6           O1  tau(   6) = (   1.9868534   1.4903216   9.2879459  )
         7           Ti1 tau(   7) = (   3.2907910   2.8959150   9.1758416  )
         8           Ti1 tau(   8) = (   0.0015273   1.4827037   9.2680791  )
         9           O1  tau(   9) = (   3.3106937   0.0084137  11.2927479  )
        10           O1  tau(  10) = (   0.0116148   5.9584955  10.6183126  )
        11           O1  tau(  11) = (   1.3255326   1.5151957  12.5859258  )
        12           O1  tau(  12) = (   5.3246634   1.4871208  12.6441624  )
        13           Ti1 tau(  13) = (   6.5358624   2.9940264  12.7507449  )
        14           Ti1 tau(  14) = (   3.1828407   1.5032771  12.4528579  )
        15           O1  tau(  15) = (   0.1336207   0.0073438  14.6266748  )
        16           O1  tau(  16) = (   3.2550344   0.0288700  13.8306396  )
        17           O1  tau(  17) = (   4.6334483   1.5013943  15.9792279  )
        18           O1  tau(  18) = (   2.1409664   1.5470880  15.9954950  )
        19           Ti1 tau(  19) = (   3.4798582   3.0305884  15.6593850  )
        20           Ti1 tau(  20) = (   0.1386493   1.3724552  15.8613965  )
        21           O1  tau(  21) = (   3.2904802   0.0005063   4.7018136  )
        22           O1  tau(  22) = (   0.1429122   0.0333940  17.1908172  )
        23           O1  tau(  23) = (   1.3043587   1.4918075   6.0039043  )
        24           O1  tau(  24) = (   5.2767064   1.4903225   6.0039473  )
        25           Ti1 tau(  25) = (   0.0000382   5.9609847   6.0000000  )
        26           Ti1 tau(  26) = (   3.2902200   4.4714249   6.0002472  )
        27           O1  tau(  27) = (   0.0002396   2.9813036   7.9858123  )
        28           O1  tau(  28) = (   3.2902150   2.9813002   7.3038282  )
        29           O1  tau(  29) = (   4.5938453   4.4726049   9.2879030  )
        30           O1  tau(  30) = (   1.9864658   4.4711199   9.2879459  )
        31           Ti1 tau(  31) = (   3.2891106   5.8743827   9.1763621  )
        32           Ti1 tau(  32) = (   0.0006254   4.4649316   9.2693709  )
        33           O1  tau(  33) = (   3.3137399   2.9960163  11.2943833  )
        34           O1  tau(  34) = (   0.0092240   2.9805883  10.6323155  )
        35           O1  tau(  35) = (   1.3234708   4.4688006  12.5930975  )
        36           O1  tau(  36) = (   5.3222282   4.4932535  12.6449723  )
        37           Ti1 tau(  37) = (   6.5041614   0.0053836  12.5833808  )
        38           Ti1 tau(  38) = (   3.1843229   4.4812189  12.4522442  )
        39           O1  tau(  39) = (   0.0584892   2.9792810  14.6723703  )
        40           O1  tau(  40) = (   3.3232524   2.9928384  13.8523860  )
        41           O1  tau(  41) = (   4.6237859   4.5837569  15.7472905  )
        42           O1  tau(  42) = (   2.1882403   4.4693611  16.1038286  )
        43           Ti1 tau(  43) = (   3.3015484   0.0242660  15.6383815  )
        44           Ti1 tau(  44) = (   0.0181797   4.4930750  16.1931172  )
        45           O1  tau(  45) = (   3.2900926   2.9813045   4.7018136  )
        46           O1  tau(  46) = (   1.3039711   4.4726057   6.0039043  )
        47           O1  tau(  47) = (   5.2763189   4.4711207   6.0039473  )
        48           N1  tau(  48) = (   0.2677213   2.8660844  17.5655548  )
        49           C1  tau(  49) = (   1.2271684   2.7639891  18.6598760  )
        50           H1  tau(  50) = (   1.2930054   3.7106696  19.2072709  )
        51           H1  tau(  51) = (   0.8976878   1.9730418  19.3402421  )
        52           H1  tau(  52) = (   2.2102292   2.4972526  18.2850250  )
        53           N1  tau(  53) = (   5.6732178   3.4927010  17.8452151  )
        54           H1  tau(  54) = (   5.7345573   4.0058295  18.7343860  )

     number of k points=    10  Fermi-Dirac smearing, width (Ry)=  0.0073
                       cart. coord. in units 2pi/alat
        k(    1) = (   0.0000000   0.0000000   0.0000000), wk =   0.1250000
        k(    2) = (   0.0000000   0.0419351   0.0000000), wk =   0.2500000
        k(    3) = (   0.0000000  -0.0838702   0.0000000), wk =   0.1250000
        k(    4) = (   0.0379955   0.0000049   0.0000000), wk =   0.2500000
        k(    5) = (   0.0379955   0.0419400   0.0000000), wk =   0.2500000
        k(    6) = (   0.0379955  -0.0838652   0.0000000), wk =   0.2500000
        k(    7) = (   0.0379955  -0.0419301   0.0000000), wk =   0.2500000
        k(    8) = (  -0.0759910  -0.0000099   0.0000000), wk =   0.1250000
        k(    9) = (  -0.0759910   0.0419252   0.0000000), wk =   0.2500000
        k(   10) = (  -0.0759910  -0.0838800   0.0000000), wk =   0.1250000

     Initial potential from superposition of free atoms

     starting charge  379.99915, renormalised to  396.00000

     negative rho (up, down):  1.686E-02 0.000E+00

     %%%%%%%%%%%%%%%%%%%%%%%%%%%%%%%%%%%%%%%%%%%%%%%%%%%%%%%%%%%%%%%%%%%%%%%%
     %                                                                      %
     % You are using vdW-DF, which was implemented by the Thonhauser group. %
     % Please cite the following two papers that made this development      %
     % possible and the two reviews that describe the various versions:     %
     %                                                                      %
     %   T. Thonhauser et al., PRL 115, 136402 (2015).                      %
     %   T. Thonhauser et al., PRB 76, 125112 (2007).                       %
     %   K. Berland et al., Rep. Prog. Phys. 78, 066501 (2015).             %
     %   D.C. Langreth et al., J. Phys.: Condens. Matter 21, 084203 (2009). %
     %                                                                      %
     %                                                                      %
     % If you are calculating the stress with vdW-DF, please also cite:     %
     %                                                                      %
     %   R. Sabatini et al., J. Phys.: Condens. Matter 24, 424209 (2012).   %
     %                                                                      %
     %%%%%%%%%%%%%%%%%%%%%%%%%%%%%%%%%%%%%%%%%%%%%%%%%%%%%%%%%%%%%%%%%%%%%%%%

     Adding external electric field

     Computed dipole along edir(3) :
        Dipole               -8.2222 Ry au,        -20.8988 Debye
        Dipole field         -0.0155 Ry au,

        Potential amp.        1.4384 Ry
        Total length         46.3494 bohr

     Starting wfcs are  300 atomic wfcs
  @ DRIVER MODE: Message from server: STATUS
  @ DRIVER MODE: Message from server: POSDATA
  @ DRIVER MODE: Reading and sharing cell
  @ DRIVER MODE: Reading and sharing positions
  @ DRIVER MODE: Received positions

     Self-consistent Calculation

     iteration #  1     ecut=    29.40 Ry     beta= 0.05
     Davidson diagonalization with overlap
     c_bands:  1 eigenvalues not converged
     c_bands:  1 eigenvalues not converged
     c_bands:  1 eigenvalues not converged
     c_bands:  1 eigenvalues not converged
     c_bands:  4 eigenvalues not converged
     c_bands:  1 eigenvalues not converged
     c_bands:  4 eigenvalues not converged
     c_bands:  2 eigenvalues not converged
     c_bands:  1 eigenvalues not converged
     ethr =  1.00E-05,  avg # of iterations = 20.0

[...]

     total energy              =   -2607.34747573 Ry
     estimated scf accuracy    <    3677.85801952 Ry

     iteration #  2     ecut=    29.40 Ry     beta= 0.05
     Davidson diagonalization with overlap
     ethr =  1.00E-02,  avg # of iterations = 22.0

[...]

     iteration # 58     ecut=    29.40 Ry     beta= 0.05
     Davidson diagonalization with overlap
     c_bands:  1 eigenvalues not converged
     ethr =  7.17E-07,  avg # of iterations = 10.1

[...]

     total energy              =   -2940.35214116 Ry
     estimated scf accuracy    <       0.00000013 Ry

     iteration # 81     ecut=    29.40 Ry     beta= 0.05
     Davidson diagonalization with overlap
     ethr =  3.20E-11,  avg # of iterations =  6.7

     negative rho (up, down):  1.747E-02 0.000E+00

     Adding external electric field

     Computed dipole along edir(3) :
        Dipole                0.7362 Ry au,          1.8712 Debye
        Dipole field          0.0014 Ry au,

        Potential amp.       -0.1288 Ry
        Total length         46.3494 bohr

     End of self-consistent calculation

          k = 0.0000 0.0000 0.0000 ( 18029 PWs)   bands (ev):

   -56.0266 -55.9926 -55.8063 -55.7674 -55.7282 -55.6937 -55.6647 -55.6423
   -55.6304 -55.6076 -55.5768 -55.4963 -55.2354 -54.9229 -54.8889 -54.7923
   -32.4933 -32.3484 -32.3207 -32.2973 -32.1952 -32.1816 -32.1673 -32.1318
   -32.1161 -32.1010 -32.0876 -32.0470 -32.0224 -31.9838 -31.9788 -31.9751
   -31.9449 -31.9330 -31.9212 -31.8994 -31.8884 -31.8718 -31.8671 -31.8601
   -31.8426 -31.8386 -31.8324 -31.8263 -31.8226 -31.8024 -31.7964 -31.7947
   -31.7772 -31.7550 -31.6926 -31.6609 -31.6172 -31.4632 -31.4587 -31.3264
   -31.2471 -31.2242 -31.2071 -31.1437 -31.0577 -30.9952 -30.9464 -30.9169
   -17.2551 -16.5610 -16.3712 -16.0811 -15.9292 -15.9072 -15.7901 -15.6940
   -15.6171 -15.5179 -15.4629 -15.4098 -15.3982 -15.3702 -15.3119 -15.2912
   -15.2484 -15.2325 -15.1883 -15.1759 -15.1298 -15.1118 -15.0865 -15.0512
   -14.9880 -14.9155 -14.9058 -14.7468 -14.6092 -14.4526 -13.4239 -13.3091
   -11.5449  -8.3344  -4.9916  -4.0039  -3.9480  -3.8792  -3.8302  -3.7758
    -3.6953  -3.4441  -3.4186  -3.3590  -3.0737  -3.0252  -3.0013  -2.9967
    -2.8986  -2.7608  -2.7293  -2.6693  -2.6629  -2.6433  -2.6217  -2.6056
    -2.5482  -2.4886  -2.4747  -2.4329  -2.3017  -2.2729  -2.2689  -2.2468
    -2.1764  -2.1681  -2.1024  -2.0868  -2.0634  -2.0458  -2.0072  -1.8740
    -1.8398  -1.7745  -1.6913  -1.6062  -1.5272  -1.4895  -1.4018  -1.3903
    -1.3296  -1.2637  -1.2465  -1.1796  -1.1484  -1.0656  -1.0443  -1.0082
    -0.9012  -0.8726  -0.8122  -0.7582  -0.7130  -0.7004  -0.6584  -0.6341
    -0.6271  -0.6106  -0.5993  -0.4010  -0.3759  -0.2327  -0.1875  -0.1622
    -0.1221  -0.0975  -0.0400  -0.0182  -0.0108   0.0269   0.0449   0.0884
     0.1451   0.1623   0.1858   0.2810   0.3133   0.3675   0.4941   0.5060
     0.5962   0.6606   0.7686   0.7785   0.8301   0.9627   1.0564   1.0803
     1.0994   1.3049   1.4119   1.6635   1.7060   3.0194   3.1669   3.2624
     3.3714   3.4919   3.5686   3.6047   3.7816   3.8209   3.8618   3.9208

[...]

          k = 0.0380-0.0419 0.0000 ( 17876 PWs)   bands (ev):

[...]

          k =-0.0760-0.0000 0.0000 ( 17886 PWs)   bands (ev):

[...]

          k =-0.0760-0.0839 0.0000 ( 17948 PWs)   bands (ev):

   -56.0106 -56.0086 -55.7941 -55.7794 -55.7146 -55.7071 -55.6496 -55.6454
   -55.6290 -55.6209 -55.5729 -55.5000 -55.2348 -54.9060 -54.9057 -54.7928
   -32.3097 -32.3087 -32.3065 -32.3048 -32.1558 -32.1437 -32.1336 -32.1314
   -32.0522 -32.0395 -32.0291 -32.0267 -32.0196 -32.0157 -31.9738 -31.9682
   -31.9572 -31.9449 -31.9143 -31.9056 -31.8935 -31.8890 -31.8840 -31.8822
   -31.8762 -31.8725 -31.8587 -31.8526 -31.8452 -31.8436 -31.8385 -31.8184
   -31.7978 -31.7949 -31.7656 -31.7064 -31.6020 -31.4656 -31.4583 -31.2572
   -31.2371 -31.2368 -31.1398 -31.1394 -31.1009 -31.1006 -31.0078 -30.9209
   -17.2349 -15.9778 -15.9496 -15.8439 -15.8246 -15.7350 -15.7218 -15.6074
   -15.5994 -15.5856 -15.5195 -15.4750 -15.4642 -15.3803 -15.3539 -15.3424
   -15.3189 -15.3092 -15.3024 -15.2912 -15.2762 -15.2002 -15.1949 -15.1884
   -15.1141 -15.0934 -14.9039 -14.8614 -14.6603 -14.6205 -13.4115 -13.4111
   -11.5483  -8.3143  -4.9980  -3.9023  -3.8251  -3.2799  -3.2440  -3.0295
    -3.0028  -2.9824  -2.9542  -2.7686  -2.7547  -2.7492  -2.7311  -2.7178
    -2.6804  -2.6614  -2.6482  -2.5829  -2.5726  -2.5538  -2.5491  -2.5378
    -2.5195  -2.5041  -2.4963  -2.4769  -2.4603  -2.4150  -2.3610  -2.3388
    -2.2867  -2.1936  -2.0890  -2.0458  -2.0332  -2.0247  -2.0014  -1.9924
    -1.9498  -1.9375  -1.8517  -1.6639  -1.6180  -1.5602  -1.5539  -1.5408
    -1.4838  -1.4288  -1.3813  -1.3066  -1.2421  -1.1924  -1.1627  -1.1402
    -1.1049  -1.0390  -0.9722  -0.9515  -0.9384  -0.9127  -0.9101  -0.8891
    -0.8095  -0.7246  -0.6855  -0.6572  -0.6348  -0.6219  -0.6060  -0.5823
    -0.4721  -0.4073  -0.3595  -0.3140  -0.2707  -0.2290  -0.1105  -0.0958
     0.1051   0.1651   0.1881   0.2690   0.3656   0.3899   0.3995   0.4675
     0.5427   0.6043   0.6404   0.6941   0.7072   0.7301   0.7967   1.0107
     1.0664   1.4736   1.4752   1.5241   1.5251   2.9851   3.6687   3.6755
     3.6787   3.6887   3.7103   3.7341   3.7868   3.8215   3.9215   3.9426

     the Fermi energy is     3.1313 ev

!    total energy              =   -2940.35214860 Ry
     estimated scf accuracy    <       0.00000005 Ry
     smearing contrib. (-TS)   =      -0.01863958 Ry
     internal energy E=F+TS    =   -2940.33350902 Ry

     The total energy is F=E-TS. E is the sum of the following terms:
     one-electron contribution =  -24661.51944565 Ry
     hartree contribution      =   12419.87857641 Ry
     xc contribution           =    -486.04528870 Ry
     ewald contribution        =    9787.35162618 Ry
     electric field correction =       0.00102273 Ry

     convergence has been achieved in  81 iterations

     Forces acting on atoms (cartesian axes, Ry/au):

     atom    1 type  1   force =     0.00026585   -0.00035868    0.10154575
     atom    2 type  1   force =     0.00002899   -0.00086928   -0.17135877
     atom    3 type  2   force =     0.00029101    0.00021544   -0.03328290
     atom    4 type  2   force =     0.00003241   -0.00078839    0.04480177
     atom    5 type  2   force =    -0.01194808   -0.00021113   -0.00234096
     atom    6 type  2   force =     0.01438388    0.00038382   -0.00114324
     atom    7 type  1   force =     0.00139894   -0.00129901   -0.00422681
     atom    8 type  1   force =    -0.00078900    0.02220066    0.05629454
     atom    9 type  2   force =     0.00002770   -0.00032460    0.00040965
     atom   10 type  2   force =    -0.00266014    0.00206801   -0.02606030
     atom   11 type  2   force =     0.00006494    0.00023182   -0.00009576
     atom   12 type  2   force =     0.00007870    0.00072572   -0.00002670
     atom   13 type  1   force =    -0.00003171    0.00013523    0.00054004
     atom   14 type  1   force =     0.00026516    0.00026881    0.00005602
     atom   15 type  2   force =     0.00008043   -0.00078116   -0.00029932
     atom   16 type  2   force =    -0.00002062   -0.00014573    0.00068579
     atom   17 type  2   force =    -0.00029441   -0.00080878   -0.00011916
     atom   18 type  2   force =     0.00078671   -0.00083055    0.00011632
     atom   19 type  1   force =    -0.00000737   -0.00070652    0.00037745
     atom   20 type  1   force =    -0.00003636    0.00059890    0.00041175
     atom   21 type  2   force =     0.00006610   -0.00001278    0.10207482
     atom   22 type  2   force =     0.00011047   -0.00123703    0.00015501
     atom   23 type  2   force =    -0.07329071   -0.00015711   -0.02887436
     atom   24 type  2   force =     0.07324363    0.00033386   -0.02892252
     atom   25 type  1   force =    -0.00029235   -0.00032529    0.10197344
     atom   26 type  1   force =     0.00002284   -0.00016823   -0.17134302
     atom   27 type  2   force =     0.00036493   -0.00022935   -0.03200825
     atom   28 type  2   force =     0.00009156   -0.00056522    0.04541473
     atom   29 type  2   force =    -0.01209880    0.00213550   -0.00289780
     atom   30 type  2   force =     0.01441257    0.00229506   -0.00164347
     atom   31 type  1   force =     0.00159947    0.00092501   -0.00555734
     atom   32 type  1   force =    -0.00059263   -0.02475379    0.05734941
     atom   33 type  2   force =     0.00015273    0.00035172    0.00057221
     atom   34 type  2   force =    -0.00420325    0.00212307   -0.04845773
     atom   35 type  2   force =     0.00066962   -0.00058543   -0.00004418
     atom   36 type  2   force =    -0.00040882   -0.00073298    0.00010044
     atom   37 type  1   force =     0.00005864    0.00059755    0.00023385
     atom   38 type  1   force =    -0.00000618   -0.00012903   -0.00004738
     atom   39 type  2   force =     0.00016856    0.00009320   -0.00105558
     atom   40 type  2   force =    -0.00009170   -0.00002871   -0.00039011
     atom   41 type  2   force =     0.00016933    0.00052355   -0.00007605
     atom   42 type  2   force =    -0.00018656    0.00031649    0.00081421
     atom   43 type  1   force =    -0.00024662    0.00009501    0.00022616
     atom   44 type  1   force =    -0.00005542   -0.00059736    0.00111125
     atom   45 type  2   force =     0.00004712   -0.00004767    0.10213821
     atom   46 type  2   force =    -0.07330064   -0.00009568   -0.02884954
     atom   47 type  2   force =     0.07325209    0.00028286   -0.02888612
     atom   48 type  3   force =    -0.00580908    0.00789899    0.00217351
     atom   49 type  4   force =     0.00010803   -0.00264596    0.00002893
     atom   50 type  5   force =    -0.00059477   -0.00006707   -0.00086571
     atom   51 type  5   force =     0.00015327   -0.00049489    0.00123194
     atom   52 type  5   force =     0.00009605   -0.00056769    0.00045045
     atom   53 type  3   force =     0.00350657   -0.00336498   -0.00165441
     atom   54 type  5   force =     0.00096694   -0.00087022   -0.00076016

     Total force =     0.377978     Total SCF correction =     0.000864
  @ DRIVER MODE: Message from server: STATUS
  @ DRIVER MODE: Message from server: GETFORCE
  @ DRIVER MODE: Returning v,forces,stress,ensemble

     Writing output data file ./calc.save/
  @ DRIVER MODE: Message from server: EXIT
  @ DRIVE MODE: Exiting

     General routines

     Parallel routines

   This run was terminated on:  13: 8:37   2Aug2021

   JOB DONE.