     Program PWSCF v.6.7GPU starts on 17Jul2021 at  0:31:36

     R & G space division:  proc/nbgrp/npool/nimage =      16
     Reading input from /storage/home/hcoda1/3/ntian30/research/carbon/15Jul_vib/ads_slab/CH3NNHHH_a/out_0039/pw.inp
Warning: card &CELL ignored
Warning: card   CELL_DYNAMICS='IPI', ignored
Warning: card / ignored

     Current dimensions of program PWSCF are:
     Max number of different atomic species (ntypx) = 10
     Max number of k-points (npk) =  40000
     Max angular momentum in pseudopotentials (lmaxx) =  3
     Presently no symmetry can be used with electric field

     Message from routine cell_base_init:
     DEPRECATED: use true lattice parameter, not A to a.u. conversion factor

     IMPORTANT: XC functional enforced from input :
     Exchange-correlation= BEEF-VDW
                           (   1   4  43  14   2   0   0)
     Any further DFT definition will be discarded
     Please, verify this is what you really want

  @ DRIVER MODE: Connecting to
 qe_1139763_2351652.sched-torque.pace.gatech.edu4zj7ygx1_scratch
  using UNIX socket
  @ DRIVER MODE: Message from server: STATUS
  @ DRIVER MODE: Message from server: INIT
  @ DRIVER MODE: Receiving replica           0          -1
  @ DRIVER MODE: Receiving encoded integer          25
  @ DRIVER MODE:  SCF:  T  FORCE:  T  STRESS:  F  VC:  F  ENSEMBLE:  F
  @ DRIVER MODE:  SCF:  T  FORCE:  T  STRESS:  F  VC:  F  ENSEMBLE:  F

     Using Slab Decomposition

     bravais-lattice index     =            0
     lattice parameter (alat)  =       1.8897  a.u.
     unit-cell volume          =    6658.9804 (a.u.)^3
     number of atoms/cell      =           56
     number of atomic types    =            5
     number of electrons       =       398.00
     number of Kohn-Sham states=          209
     kinetic-energy cutoff     =      29.3995  Ry
     charge density cutoff     =     293.9946  Ry
     scf convergence threshold =      7.3E-08
     mixing beta               =       0.0500
     number of iterations used =            8  plain     mixing
     Exchange-correlation= BEEF-VDW
                           (   1   4  43  14   2   0   0)

     celldm(1)=   1.889726  celldm(2)=   0.000000  celldm(3)=   0.000000
     celldm(4)=   0.000000  celldm(5)=   0.000000  celldm(6)=   0.000000

     crystal axes: (cart. coord. in units of alat)
               a(1) = (   6.579727   0.000000   0.000000 )
               a(2) = (  -0.000775   5.961596   0.000000 )
               a(3) = (   0.000000   0.000000  25.155947 )

     reciprocal axes: (cart. coord. in units 2 pi/alat)
               b(1) = (  0.151982  0.000020  0.000000 )
               b(2) = (  0.000000  0.167740  0.000000 )
               b(3) = (  0.000000  0.000000  0.039752 )

     PseudoPot. # 1 for Ti read from file:
     /storage/coda1/p-amedford6/0/shared/rich_project_chbe-medford/medford-share/data/pseudos_module/espresso/nninc/pbe/van/Ti.UPF
     MD5 check sum: 8e4df49b7f0d34bbd5052bf3f5ea0213
     Pseudo is Ultrasoft, Zval = 12.0
     Generated by new atomic code, or converted to UPF format
     Using radial grid of  851 points,  6 beta functions with:
                l(1) =   0
                l(2) =   0
                l(3) =   1
                l(4) =   1
                l(5) =   2
                l(6) =   2
     Q(r) pseudized with  8 coefficients,  rinner =    1.000   1.000   1.000
                                                       1.000   1.000

     PseudoPot. # 2 for O  read from file:
     /storage/coda1/p-amedford6/0/shared/rich_project_chbe-medford/medford-share/data/pseudos_module/espresso/nninc/pbe/van/O.UPF
     MD5 check sum: 78c19812648e8988a0fe644b0f25305e
     Pseudo is Ultrasoft, Zval =  6.0
     Generated by new atomic code, or converted to UPF format
     Using radial grid of  737 points,  4 beta functions with:
                l(1) =   0
                l(2) =   0
                l(3) =   1
                l(4) =   1
     Q(r) pseudized with  8 coefficients,  rinner =    0.800   0.800   0.800

     PseudoPot. # 3 for N  read from file:
     /storage/coda1/p-amedford6/0/shared/rich_project_chbe-medford/medford-share/data/pseudos_module/espresso/nninc/pbe/van/N.UPF
     MD5 check sum: 90d10febe142ad51ac9d5be1deb811c4
     Pseudo is Ultrasoft, Zval =  5.0
     Generated by new atomic code, or converted to UPF format
     Using radial grid of  729 points,  4 beta functions with:
                l(1) =   0
                l(2) =   0
                l(3) =   1
                l(4) =   1
     Q(r) pseudized with  8 coefficients,  rinner =    0.800   0.800   0.800

     PseudoPot. # 4 for C  read from file:
     /storage/coda1/p-amedford6/0/shared/rich_project_chbe-medford/medford-share/data/pseudos_module/espresso/nninc/pbe/van/C.UPF
     MD5 check sum: 1a69bf6b8db32088f5b2163dbdb77a27
     Pseudo is Ultrasoft, Zval =  4.0
     Generated by new atomic code, or converted to UPF format
     Using radial grid of  721 points,  4 beta functions with:
                l(1) =   0
                l(2) =   0
                l(3) =   1
                l(4) =   1
     Q(r) pseudized with  8 coefficients,  rinner =    0.800   0.800   0.800

     PseudoPot. # 5 for H  read from file:
     /storage/coda1/p-amedford6/0/shared/rich_project_chbe-medford/medford-share/data/pseudos_module/espresso/nninc/pbe/van/H.UPF
     MD5 check sum: b5ee9d7bfd3a09ee7748110bda690ff7
     Pseudo is Ultrasoft, Zval =  1.0
     Generated by new atomic code, or converted to UPF format
     Using radial grid of  615 points,  1 beta functions with:
                l(1) =   0
     Q(r) pseudized with  8 coefficients,  rinner =    0.800

     atomic species   valence    mass     pseudopotential
        Ti1           12.00    47.86700     Ti( 1.00)
        O1             6.00    15.99900     O ( 1.00)
        N1             5.00    14.00700     N ( 1.00)
        C1             4.00    12.01100     C ( 1.00)
        H1             1.00     1.00800     H ( 1.00)

     Starting magnetic structure
     atomic species   magnetization
        Ti1          0.000
        O1           0.000
        N1           0.000
        C1           0.025
        H1           0.000

     No symmetry found

   Cartesian axes

     site n.     atom                  positions (alat units)
         1           Ti1 tau(   1) = (   0.0004258   2.9801865   6.0000000  )
         2           Ti1 tau(   2) = (   3.2906075   1.4906267   6.0002472  )
         3           O1  tau(   3) = (   0.0006271   0.0005054   7.9858123  )
         4           O1  tau(   4) = (   3.2906025   0.0005020   7.3038282  )
         5           O1  tau(   5) = (   4.5942328   1.4918067   9.2879030  )
         6           O1  tau(   6) = (   1.9868534   1.4903216   9.2879459  )
         7           Ti1 tau(   7) = (   3.2907910   2.8959150   9.1758416  )
         8           Ti1 tau(   8) = (   0.0015273   1.4827037   9.2680791  )
         9           O1  tau(   9) = (   3.2969863   5.9453513  11.3493076  )
        10           O1  tau(  10) = (   0.0116148   5.9584955  10.6183126  )
        11           O1  tau(  11) = (   1.3059050   1.4736943  12.6642453  )
        12           O1  tau(  12) = (   5.3003793   1.4775083  12.6459419  )
        13           Ti1 tau(  13) = (   0.0167275   2.9625105  12.5508078  )
        14           Ti1 tau(  14) = (   3.3131340   1.4712512  12.4909780  )
        15           O1  tau(  15) = (   6.5517612   5.9325698  14.7566896  )
        16           O1  tau(  16) = (   3.3302114   5.9429442  13.9823395  )
        17           O1  tau(  17) = (   4.5243935   1.5056208  16.2316672  )
        18           O1  tau(  18) = (   2.0170937   1.4633510  16.1378485  )
        19           Ti1 tau(  19) = (   3.2500237   2.9242626  15.6920970  )
        20           Ti1 tau(  20) = (   6.5441017   1.2779805  16.1516014  )
        21           O1  tau(  21) = (   3.2904802   0.0005063   4.7018136  )
        22           O1  tau(  22) = (   6.5540411   5.9581837  17.3465722  )
        23           O1  tau(  23) = (   1.3043587   1.4918075   6.0039043  )
        24           O1  tau(  24) = (   5.2767064   1.4903225   6.0039473  )
        25           Ti1 tau(  25) = (   0.0000382   5.9609847   6.0000000  )
        26           Ti1 tau(  26) = (   3.2902200   4.4714249   6.0002472  )
        27           O1  tau(  27) = (   0.0002396   2.9813036   7.9858123  )
        28           O1  tau(  28) = (   3.2902150   2.9813002   7.3038282  )
        29           O1  tau(  29) = (   4.5938453   4.4726049   9.2879030  )
        30           O1  tau(  30) = (   1.9864658   4.4711199   9.2879459  )
        31           Ti1 tau(  31) = (   3.2891106   5.8743827   9.1763621  )
        32           Ti1 tau(  32) = (   0.0006254   4.4649316   9.2693709  )
        33           O1  tau(  33) = (   3.2962403   2.9651072  11.3429128  )
        34           O1  tau(  34) = (   0.0092240   2.9805883  10.6323155  )
        35           O1  tau(  35) = (   1.3076126   4.4641214  12.6643835  )
        36           O1  tau(  36) = (   5.2981430   4.4591552  12.6429889  )
        37           Ti1 tau(  37) = (   0.0194730   5.9489450  12.5196332  )
        38           Ti1 tau(  38) = (   3.3150505   4.4522436  12.4946186  )
        39           O1  tau(  39) = (   6.5702761   2.9869041  14.8038460  )
        40           O1  tau(  40) = (   3.3119818   2.9576719  13.9204832  )
        41           O1  tau(  41) = (   4.5223198   4.3950437  16.2490866  )
        42           O1  tau(  42) = (   2.0356696   4.4339808  16.1311045  )
        43           Ti1 tau(  43) = (   3.3057863   5.9493229  15.7677403  )
        44           Ti1 tau(  44) = (   0.0958844   4.4293496  15.8701971  )
        45           O1  tau(  45) = (   3.2900926   2.9813045   4.7018136  )
        46           O1  tau(  46) = (   1.3039711   4.4726057   6.0039043  )
        47           O1  tau(  47) = (   5.2763189   4.4711207   6.0039473  )
        48           N1  tau(  48) = (   0.0620580   3.0375546  17.6897758  )
        49           C1  tau(  49) = (   1.1116374   2.9693208  18.6984743  )
        50           H1  tau(  50) = (   1.2951007   3.9532040  19.1583453  )
        51           H1  tau(  51) = (   0.8627774   2.2426413  19.4871689  )
        52           H1  tau(  52) = (   2.0263963   2.6228967  18.2308865  )
        53           N1  tau(  53) = (   5.4279256   3.3744730  18.4033390  )
        54           H1  tau(  54) = (   5.6103604   4.1099394  19.0852601  )
        55           H1  tau(  55) = (   4.7934260   3.8076565  17.6395878  )
        56           H1  tau(  56) = (   5.0090149   2.5598412  18.8678436  )

     number of k points=    10  Fermi-Dirac smearing, width (Ry)=  0.0073
                       cart. coord. in units 2pi/alat
        k(    1) = (   0.0000000   0.0000000   0.0000000), wk =   0.0625000
        k(    2) = (   0.0000000   0.0419351   0.0000000), wk =   0.1250000
        k(    3) = (   0.0000000  -0.0838702   0.0000000), wk =   0.0625000
        k(    4) = (   0.0379955   0.0000049   0.0000000), wk =   0.1250000
        k(    5) = (   0.0379955   0.0419400   0.0000000), wk =   0.1250000
[...]
     % possible and the two reviews that describe the various versions:     %
     %                                                                      %
     %   T. Thonhauser et al., PRL 115, 136402 (2015).                      %
     %   T. Thonhauser et al., PRB 76, 125112 (2007).                       %
     %   K. Berland et al., Rep. Prog. Phys. 78, 066501 (2015).             %
     %   D.C. Langreth et al., J. Phys.: Condens. Matter 21, 084203 (2009). %
     %                                                                      %
     %                                                                      %
     % If you are calculating the stress with vdW-DF, please also cite:     %
     %                                                                      %
     %   R. Sabatini et al., J. Phys.: Condens. Matter 24, 424209 (2012).   %
     %                                                                      %
     %%%%%%%%%%%%%%%%%%%%%%%%%%%%%%%%%%%%%%%%%%%%%%%%%%%%%%%%%%%%%%%%%%%%%%%%

     Adding external electric field

     Computed dipole along edir(3) :
        Dipole              -10.5729 Ry au,        -26.8736 Debye
        Dipole field         -0.0200 Ry au,

        Potential amp.        1.8496 Ry
        Total length         46.3494 bohr

[...]

     Starting wfcs are  302 atomic wfcs
  @ DRIVER MODE: Message from server: STATUS
  @ DRIVER MODE: Message from server: POSDATA
  @ DRIVER MODE: Reading and sharing cell
  @ DRIVER MODE: Reading and sharing positions
  @ DRIVER MODE: Received positions

     Self-consistent Calculation

     iteration #  1     ecut=    29.40 Ry     beta= 0.05
     Davidson diagonalization with overlap
     c_bands:  4 eigenvalues not converged
     c_bands:  2 eigenvalues not converged
     c_bands:  1 eigenvalues not converged
     c_bands:  4 eigenvalues not converged
     c_bands:  5 eigenvalues not converged
     c_bands:  5 eigenvalues not converged
     c_bands:  1 eigenvalues not converged
     c_bands:  5 eigenvalues not converged
     c_bands:  3 eigenvalues not converged
     c_bands:  3 eigenvalues not converged
     c_bands:  3 eigenvalues not converged
     c_bands:  1 eigenvalues not converged
     c_bands:  4 eigenvalues not converged
     c_bands:  5 eigenvalues not converged
     c_bands:  5 eigenvalues not converged
     c_bands:  5 eigenvalues not converged
     c_bands:  3 eigenvalues not converged
     ethr =  1.00E-05,  avg # of iterations = 20.0

[...]

     total energy              =   -2443.26267983 Ry
     estimated scf accuracy    <    5586.04665537 Ry

     total magnetization       =     0.00 Bohr mag/cell
     absolute magnetization    =     0.01 Bohr mag/cell

     iteration #  2     ecut=    29.40 Ry     beta= 0.05
     Davidson diagonalization with overlap
     ethr =  1.00E-02,  avg # of iterations = 24.1

[...]

     iteration #124     ecut=    29.40 Ry     beta= 0.05
     Davidson diagonalization with overlap
     ethr =  2.28E-10,  avg # of iterations =  1.3

[...]

     total energy              =   -2942.82547384 Ry
     estimated scf accuracy    <       0.00000011 Ry

[...]

     iteration #134     ecut=    29.40 Ry     beta= 0.05
     Davidson diagonalization with overlap
     c_bands:  1 eigenvalues not converged
     c_bands:  1 eigenvalues not converged
     c_bands:  1 eigenvalues not converged
     c_bands:  1 eigenvalues not converged
     ethr =  2.83E-11,  avg # of iterations = 16.9

     negative rho (up, down):  7.272E-03 7.271E-03

[...]

     Adding external electric field

     Computed dipole along edir(3) :
        Dipole                1.6202 Ry au,          4.1180 Debye
        Dipole field          0.0031 Ry au,

        Potential amp.       -0.2834 Ry
        Total length         46.3494 bohr

     Magnetic moment per site  (integrated on atomic sphere of radius R)
     atom   1 (R=0.723)  charge=  7.9140  magn= -0.0050
     atom   2 (R=0.723)  charge=  7.8963  magn= -0.0003
     atom   3 (R=0.633)  charge=  4.2081  magn=  0.0004
     atom   4 (R=0.633)  charge=  4.2373  magn=  0.0001
     atom   5 (R=0.633)  charge=  4.2138  magn=  0.0001
     atom   6 (R=0.633)  charge=  4.2139  magn=  0.0001
     atom   7 (R=0.723)  charge=  7.8964  magn= -0.0002
     atom   8 (R=0.723)  charge=  7.8945  magn= -0.0021
     atom   9 (R=0.633)  charge=  4.2238  magn= -0.0001
     atom  10 (R=0.633)  charge=  4.2125  magn=  0.0001
     atom  11 (R=0.633)  charge=  4.2093  magn= -0.0001
     atom  12 (R=0.633)  charge=  4.2112  magn= -0.0001
     atom  13 (R=0.723)  charge=  7.8927  magn=  0.0000
     atom  14 (R=0.723)  charge=  7.9040  magn=  0.0008
     atom  15 (R=0.633)  charge=  4.2098  magn= -0.0000
     atom  16 (R=0.633)  charge=  4.2161  magn= -0.0002
     atom  17 (R=0.633)  charge=  4.2035  magn= -0.0001
     atom  18 (R=0.633)  charge=  4.2034  magn= -0.0001
     atom  19 (R=0.723)  charge=  7.9504  magn=  0.0005
     atom  20 (R=0.723)  charge=  7.9298  magn=  0.0001
     atom  21 (R=0.633)  charge=  4.1284  magn=  0.0002
     atom  22 (R=0.633)  charge=  4.1764  magn= -0.0001
     atom  23 (R=0.633)  charge=  4.2073  magn=  0.0005
     atom  24 (R=0.633)  charge=  4.2074  magn=  0.0005
     atom  25 (R=0.723)  charge=  7.9141  magn= -0.0050
     atom  26 (R=0.723)  charge=  7.8964  magn= -0.0003
     atom  27 (R=0.633)  charge=  4.2077  magn=  0.0004
     atom  28 (R=0.633)  charge=  4.2375  magn=  0.0001
     atom  29 (R=0.633)  charge=  4.2143  magn=  0.0001
     atom  30 (R=0.633)  charge=  4.2144  magn=  0.0001
     atom  31 (R=0.723)  charge=  7.8969  magn= -0.0002
     atom  32 (R=0.723)  charge=  7.8947  magn= -0.0021
     atom  33 (R=0.633)  charge=  4.2222  magn= -0.0001
     atom  34 (R=0.633)  charge=  4.2053  magn=  0.0001
     atom  35 (R=0.633)  charge=  4.2090  magn= -0.0001
     atom  36 (R=0.633)  charge=  4.2115  magn= -0.0001
     atom  37 (R=0.723)  charge=  7.8964  magn=  0.0000
     atom  38 (R=0.723)  charge=  7.9034  magn=  0.0007
     atom  39 (R=0.633)  charge=  4.1926  magn= -0.0000
     atom  40 (R=0.633)  charge=  4.2343  magn= -0.0001
     atom  41 (R=0.633)  charge=  4.2025  magn= -0.0001
     atom  42 (R=0.633)  charge=  4.2135  magn= -0.0001
     atom  43 (R=0.723)  charge=  7.9399  magn=  0.0007
     atom  44 (R=0.723)  charge=  7.9262  magn=  0.0000
     atom  45 (R=0.633)  charge=  4.1284  magn=  0.0002
     atom  46 (R=0.633)  charge=  4.2073  magn=  0.0005
     atom  47 (R=0.633)  charge=  4.2074  magn=  0.0005
     atom  48 (R=0.421)  charge=  1.3129  magn= -0.0000
     atom  49 (R=0.447)  charge=  0.8385  magn= -0.0000
     atom  50 (R=0.421)  charge=  0.4422  magn=  0.0000
     atom  51 (R=0.421)  charge=  0.4435  magn=  0.0000
     atom  52 (R=0.421)  charge=  0.4487  magn=  0.0000
     atom  53 (R=0.421)  charge=  1.3534  magn=  0.0000
     atom  54 (R=0.421)  charge=  0.4511  magn=  0.0000
     atom  55 (R=0.421)  charge=  0.3923  magn=  0.0000
     atom  56 (R=0.421)  charge=  0.4454  magn=  0.0000

     End of self-consistent calculation

 ------ SPIN UP ------------

          k = 0.0000 0.0000 0.0000 ( 18029 PWs)   bands (ev):

   -55.1348 -55.0982 -55.0907 -55.0566 -55.0166 -55.0016 -54.9785 -54.9350
   -54.9211 -54.9146 -54.8999 -54.8881 -54.8559 -54.7846 -54.1070 -54.0729
   -31.7142 -31.5830 -31.5030 -31.4715 -31.4255 -31.4234 -31.4231 -31.3937
   -31.3900 -31.3798 -31.3589 -31.3443 -31.3350 -31.3123 -31.2942 -31.2695
   -31.2518 -31.2428 -31.2366 -31.2330 -31.2045 -31.2005 -31.1939 -31.1664
   -31.1465 -31.1457 -31.1380 -31.1316 -31.1294 -31.1200 -31.1169 -31.1118
   -31.0933 -31.0850 -31.0803 -31.0519 -31.0498 -31.0386 -31.0299 -31.0272
   -31.0159 -30.9742 -30.5154 -30.4232 -30.4011 -30.3319 -30.2452 -30.1342
   -18.9580 -15.9981 -15.7440 -15.6082 -15.3732 -15.3214 -15.2646 -15.0598
   -15.0558 -14.9848 -14.9696 -14.9207 -14.9011 -14.8336 -14.7491 -14.7298
   -14.6607 -14.6589 -14.6291 -14.6188 -14.6170 -14.5544 -14.5448 -14.5151
   -14.5022 -14.4770 -14.3586 -14.2744 -14.2160 -13.9658 -13.6082 -12.6101
   -12.4930  -9.7611  -7.7301  -7.2421  -5.4633  -3.8202  -3.3354  -3.2820
    -3.1616  -3.1315  -3.0547  -3.0248  -2.8402  -2.8198  -2.4778  -2.4433
    -2.3919  -2.3738  -2.3533  -2.3349  -2.1679  -2.1415  -2.0683  -2.0355
    -2.0174  -1.9764  -1.9594  -1.9489  -1.9155  -1.9105  -1.9007  -1.6937
    -1.6370  -1.5420  -1.5197  -1.4993  -1.4607  -1.4252  -1.4157  -1.4128
    -1.4070  -1.3935  -1.3815  -1.3007  -1.2431  -1.1615  -1.1526  -1.1169
    -1.0129  -0.9682  -0.7660  -0.7515  -0.7055  -0.6633  -0.6004  -0.5801
    -0.5125  -0.4818  -0.4630  -0.3415  -0.3128  -0.2731  -0.2450  -0.1773
    -0.1475  -0.1016  -0.0182   0.0530   0.0892   0.1074   0.1664   0.2963
     0.3078   0.3372   0.3984   0.4623   0.5025   0.5226   0.5413   0.5780
     0.6283   0.7537   0.7984   0.8183   0.8226   0.8563   0.8792   0.9302
     0.9550   1.0154   1.0208   1.1389   1.2080   1.4355   1.4698   1.4952
     1.8276   1.8509   1.9152   2.1012   2.4890   2.5365   3.9724   4.0317
     4.0878   4.1104   4.1255   4.2140   4.2469   4.4331   4.4603   4.4662
     4.4689

[...]

          k =-0.0760-0.0000 0.0000 ( 17886 PWs)   bands (ev):

[...]

 ------ SPIN DOWN ----------

[...]

          k = 0.0380-0.0419 0.0000 ( 17876 PWs)   bands (ev):

[...]

          k =-0.0760-0.0839 0.0000 ( 17948 PWs)   bands (ev):

   -55.1175 -55.1117 -55.0829 -55.0827 -55.0056 -54.9968 -54.9887 -54.9194
   -54.9172 -54.9153 -54.9094 -54.9079 -54.8522 -54.7882 -54.0907 -54.0906
   -31.5169 -31.5140 -31.4368 -31.4151 -31.4020 -31.4018 -31.3758 -31.3755
   -31.3442 -31.3382 -31.3354 -31.3351 -31.3024 -31.2660 -31.2595 -31.2550
   -31.2547 -31.2506 -31.2494 -31.2431 -31.2106 -31.2084 -31.2060 -31.2030
   -31.2028 -31.2020 -31.1830 -31.1814 -31.1540 -31.1492 -31.1339 -31.1298
   -31.1286 -31.1280 -31.1261 -31.1171 -31.0934 -31.0901 -31.0872 -31.0642
   -31.0388 -31.0212 -30.4146 -30.4145 -30.3286 -30.3284 -30.2893 -30.2893
   -18.9533 -15.5054 -15.3956 -15.2884 -15.2221 -15.1795 -15.1281 -15.1104
   -15.0995 -15.0551 -15.0254 -14.9562 -14.8913 -14.8381 -14.8371 -14.8028
   -14.7244 -14.7105 -14.7032 -14.6928 -14.6360 -14.6294 -14.5978 -14.5768
   -14.5737 -14.5442 -14.4703 -14.4678 -14.3819 -14.1745 -13.6444 -12.5941
   -12.5940  -9.7311  -7.7255  -7.1891  -5.4659  -3.8421  -3.4368  -2.7538
    -2.6426  -2.4323  -2.4062  -2.3461  -2.3270  -2.2448  -2.1812  -2.1586
    -2.1352  -2.1013  -2.0983  -2.0752  -2.0524  -1.9997  -1.9704  -1.9584
    -1.9527  -1.9379  -1.9250  -1.9053  -1.8488  -1.8385  -1.8311  -1.7885
    -1.7776  -1.7457  -1.7396  -1.7006  -1.6839  -1.6094  -1.5151  -1.4909
    -1.4324  -1.3307  -1.3163  -1.3107  -1.2185  -1.2092  -1.1796  -1.1487
    -1.0941  -0.9953  -0.9402  -0.8635  -0.8602  -0.8311  -0.7437  -0.6800
    -0.6462  -0.6365  -0.5975  -0.5404  -0.5177  -0.4833  -0.4006  -0.3592
    -0.3322  -0.2985  -0.2036  -0.1424  -0.1185  -0.0866  -0.0831   0.0056
     0.0390   0.0756   0.0964   0.1348   0.1616   0.2251   0.2481   0.3585
     0.4265   0.4583   0.5771   0.6016   0.6652   0.7977   0.8692   0.9098
     0.9624   1.0205   1.0479   1.1788   1.1860   1.2062   1.3043   1.3447
     1.3516   1.3645   2.2742   2.2753   2.3568   2.3570   4.1027   4.1896
     4.2334   4.2709   4.3769   4.4850   4.5036   4.5469   4.5474   4.6226
     4.6286

     the Fermi energy is     4.0230 ev

!    total energy              =   -2942.82547416 Ry
     estimated scf accuracy    <       0.00000006 Ry
     smearing contrib. (-TS)   =      -0.03684338 Ry
     internal energy E=F+TS    =   -2942.78863078 Ry

     The total energy is F=E-TS. E is the sum of the following terms:
     one-electron contribution =  -23972.34435568 Ry
     hartree contribution      =   12081.75314925 Ry
     xc contribution           =    -487.77947945 Ry
     ewald contribution        =    9435.57710154 Ry
     electric field correction =       0.00495356 Ry

     total magnetization       =    -0.02 Bohr mag/cell
     absolute magnetization    =     0.04 Bohr mag/cell

     convergence has been achieved in 134 iterations

     Forces acting on atoms (cartesian axes, Ry/au):

     atom    1 type  1   force =     0.00015038   -0.00022401    0.09431048
     atom    2 type  1   force =    -0.00009643   -0.00033276   -0.17740217
     atom    3 type  2   force =     0.00005588   -0.00016561   -0.02136069
     atom    4 type  2   force =    -0.00001513   -0.00172448    0.05658731
     atom    5 type  2   force =    -0.01054798   -0.00127558    0.00623952
     atom    6 type  2   force =     0.01221531   -0.00074245    0.00571150
     atom    7 type  1   force =    -0.00032685    0.00172148   -0.01617591
     atom    8 type  1   force =    -0.00011150    0.00438657    0.00561157
     atom    9 type  2   force =     0.00001015   -0.00004473   -0.00004006
     atom   10 type  2   force =    -0.00074261   -0.00022088   -0.00044422
     atom   11 type  2   force =     0.00034392    0.00012871   -0.00018631
     atom   12 type  2   force =    -0.00051645    0.00000558   -0.00012444
     atom   13 type  1   force =     0.00004405   -0.00035261    0.00014375
     atom   14 type  1   force =     0.00055778    0.00012016   -0.00033478
     atom   15 type  2   force =    -0.00039899    0.00020714   -0.00018096
     atom   16 type  2   force =    -0.00033044    0.00019146   -0.00002749
     atom   17 type  2   force =    -0.00018415    0.00011031    0.00044633
     atom   18 type  2   force =     0.00011833    0.00034106   -0.00006066
     atom   19 type  1   force =     0.00014240    0.00003375   -0.00002206
     atom   20 type  1   force =     0.00010609    0.00047213   -0.00042011
     atom   21 type  2   force =     0.00003700    0.00004285    0.10360333
     atom   22 type  2   force =    -0.00002612   -0.00074626   -0.00037827
     atom   23 type  2   force =    -0.07081902   -0.00009630   -0.02718729
     atom   24 type  2   force =     0.07068369    0.00034466   -0.02721774
     atom   25 type  1   force =    -0.00009475   -0.00019279    0.09372851
     atom   26 type  1   force =    -0.00015209   -0.00031965   -0.17733398
     atom   27 type  2   force =     0.00008699   -0.00035125   -0.02045978
     atom   28 type  2   force =     0.00003076   -0.00144030    0.05589530
     atom   29 type  2   force =    -0.01091052   -0.00073515    0.00608923
     atom   30 type  2   force =     0.01246266   -0.00028987    0.00556818
     atom   31 type  1   force =    -0.00017515    0.00462503   -0.01721012
     atom   32 type  1   force =    -0.00003744   -0.00480367    0.00558997
     atom   33 type  2   force =     0.00005619    0.00012382    0.00027671
     atom   34 type  2   force =     0.00005729   -0.00085215   -0.00297381
     atom   35 type  2   force =     0.00023200    0.00002922    0.00008213
     atom   36 type  2   force =    -0.00042702    0.00015372   -0.00006413
     atom   37 type  1   force =    -0.00012723   -0.00010914   -0.00017258
     atom   38 type  1   force =     0.00043263   -0.00028655    0.00036358
     atom   39 type  2   force =    -0.00045179    0.00012239    0.00074428
     atom   40 type  2   force =    -0.00011749    0.00018845   -0.00019187
     atom   41 type  2   force =     0.00012542    0.00019368    0.00035677
     atom   42 type  2   force =    -0.00006201    0.00020390   -0.00002456
     atom   43 type  1   force =    -0.00043891    0.00060652   -0.00007517
     atom   44 type  1   force =    -0.00017676    0.00037986   -0.00022589
     atom   45 type  2   force =     0.00002591    0.00001228    0.10360782
     atom   46 type  2   force =    -0.07082142   -0.00003977   -0.02718509
     atom   47 type  2   force =     0.07068654    0.00037613   -0.02719060
     atom   48 type  3   force =     0.00061841   -0.00101786   -0.00014845
     atom   49 type  4   force =    -0.00036480    0.00029377   -0.00053010
     atom   50 type  5   force =     0.00008730    0.00001401    0.00005960
     atom   51 type  5   force =    -0.00025193   -0.00036488    0.00003511
     atom   52 type  5   force =    -0.00037513   -0.00001626    0.00011950
     atom   53 type  3   force =    -0.00170977   -0.00750887   -0.00428053
     atom   54 type  5   force =     0.00211342    0.00874916    0.00614847
     atom   55 type  5   force =    -0.00011055    0.00065551   -0.00071333
     atom   56 type  5   force =    -0.00056006   -0.00057946   -0.00097580

     Total force =     0.365839     Total SCF correction =     0.000347
  @ DRIVER MODE: Message from server: STATUS
  @ DRIVER MODE: Message from server: GETFORCE
  @ DRIVER MODE: Returning v,forces,stress,ensemble

     Writing output data file ./calc.save/
  @ DRIVER MODE: Message from server: EXIT
  @ DRIVE MODE: Exiting

     General routines

     Parallel routines

   This run was terminated on:   1:23:44  17Jul2021

   JOB DONE.