     Program PWSCF v.6.7GPU starts on  2Aug2021 at 23:55:35

     R & G space division:  proc/nbgrp/npool/nimage =      16
     Reading input from /storage/home/hcoda1/3/ntian30/research/carbon/02Aug_vib_paired/ads_slab/CH3NNHH_a/out_0041/pw.inp
Warning: card &CELL ignored
Warning: card   CELL_DYNAMICS='IPI', ignored
Warning: card / ignored

     Current dimensions of program PWSCF are:
     Max number of different atomic species (ntypx) = 10
     Max number of k-points (npk) =  40000
     Max angular momentum in pseudopotentials (lmaxx) =  3
     Presently no symmetry can be used with electric field

     Message from routine cell_base_init:
     DEPRECATED: use true lattice parameter, not A to a.u. conversion factor

     IMPORTANT: XC functional enforced from input :
     Exchange-correlation= BEEF-VDW
                           (   1   4  43  14   2   0   0)
     Any further DFT definition will be discarded
     Please, verify this is what you really want

  @ DRIVER MODE: Connecting to
 qe_1139763_2482543.sched-torque.pace.gatech.educf710e0n_scratch
  using UNIX socket
  @ DRIVER MODE: Message from server: STATUS
  @ DRIVER MODE: Message from server: INIT
  @ DRIVER MODE: Receiving replica           0          -1
  @ DRIVER MODE: Receiving encoded integer          25
  @ DRIVER MODE:  SCF:  T  FORCE:  T  STRESS:  F  VC:  F  ENSEMBLE:  F
  @ DRIVER MODE:  SCF:  T  FORCE:  T  STRESS:  F  VC:  F  ENSEMBLE:  F

     Using Slab Decomposition

     bravais-lattice index     =            0
     lattice parameter (alat)  =       1.8897  a.u.
     unit-cell volume          =    6658.9804 (a.u.)^3
     number of atoms/cell      =           55
     number of atomic types    =            5
     number of electrons       =       397.00
     number of Kohn-Sham states=          208
     kinetic-energy cutoff     =      29.3995  Ry
     charge density cutoff     =     293.9946  Ry
     scf convergence threshold =      7.3E-08
     mixing beta               =       0.0500
     number of iterations used =            8  plain     mixing
     Exchange-correlation= BEEF-VDW
                           (   1   4  43  14   2   0   0)

     celldm(1)=   1.889726  celldm(2)=   0.000000  celldm(3)=   0.000000
     celldm(4)=   0.000000  celldm(5)=   0.000000  celldm(6)=   0.000000

     crystal axes: (cart. coord. in units of alat)
               a(1) = (   6.579727   0.000000   0.000000 )
               a(2) = (  -0.000775   5.961596   0.000000 )
               a(3) = (   0.000000   0.000000  25.155947 )

     reciprocal axes: (cart. coord. in units 2 pi/alat)
               b(1) = (  0.151982  0.000020  0.000000 )
               b(2) = (  0.000000  0.167740  0.000000 )
               b(3) = (  0.000000  0.000000  0.039752 )

     PseudoPot. # 1 for Ti read from file:
     /storage/coda1/p-amedford6/0/shared/rich_project_chbe-medford/medford-share/data/pseudos_module/espresso/nninc/pbe/van/Ti.UPF
     MD5 check sum: 8e4df49b7f0d34bbd5052bf3f5ea0213
     Pseudo is Ultrasoft, Zval = 12.0
     Generated by new atomic code, or converted to UPF format
     Using radial grid of  851 points,  6 beta functions with:
                l(1) =   0
                l(2) =   0
                l(3) =   1
                l(4) =   1
                l(5) =   2
                l(6) =   2
     Q(r) pseudized with  8 coefficients,  rinner =    1.000   1.000   1.000
                                                       1.000   1.000

     PseudoPot. # 2 for O  read from file:
     /storage/coda1/p-amedford6/0/shared/rich_project_chbe-medford/medford-share/data/pseudos_module/espresso/nninc/pbe/van/O.UPF
     MD5 check sum: 78c19812648e8988a0fe644b0f25305e
     Pseudo is Ultrasoft, Zval =  6.0
     Generated by new atomic code, or converted to UPF format
     Using radial grid of  737 points,  4 beta functions with:
                l(1) =   0
                l(2) =   0
                l(3) =   1
                l(4) =   1
     Q(r) pseudized with  8 coefficients,  rinner =    0.800   0.800   0.800

     PseudoPot. # 3 for N  read from file:
     /storage/coda1/p-amedford6/0/shared/rich_project_chbe-medford/medford-share/data/pseudos_module/espresso/nninc/pbe/van/N.UPF
     MD5 check sum: 90d10febe142ad51ac9d5be1deb811c4
     Pseudo is Ultrasoft, Zval =  5.0
     Generated by new atomic code, or converted to UPF format
     Using radial grid of  729 points,  4 beta functions with:
                l(1) =   0
                l(2) =   0
                l(3) =   1
                l(4) =   1
     Q(r) pseudized with  8 coefficients,  rinner =    0.800   0.800   0.800

     PseudoPot. # 4 for C  read from file:
     /storage/coda1/p-amedford6/0/shared/rich_project_chbe-medford/medford-share/data/pseudos_module/espresso/nninc/pbe/van/C.UPF
     MD5 check sum: 1a69bf6b8db32088f5b2163dbdb77a27
     Pseudo is Ultrasoft, Zval =  4.0
     Generated by new atomic code, or converted to UPF format
     Using radial grid of  721 points,  4 beta functions with:
                l(1) =   0
                l(2) =   0
                l(3) =   1
                l(4) =   1
     Q(r) pseudized with  8 coefficients,  rinner =    0.800   0.800   0.800

     PseudoPot. # 5 for H  read from file:
     /storage/coda1/p-amedford6/0/shared/rich_project_chbe-medford/medford-share/data/pseudos_module/espresso/nninc/pbe/van/H.UPF
     MD5 check sum: b5ee9d7bfd3a09ee7748110bda690ff7
     Pseudo is Ultrasoft, Zval =  1.0
     Generated by new atomic code, or converted to UPF format
     Using radial grid of  615 points,  1 beta functions with:
                l(1) =   0
     Q(r) pseudized with  8 coefficients,  rinner =    0.800

     atomic species   valence    mass     pseudopotential
        Ti1           12.00    47.86700     Ti( 1.00)
        O1             6.00    15.99900     O ( 1.00)
        N1             5.00    14.00700     N ( 1.00)
        C1             4.00    12.01100     C ( 1.00)
        H1             1.00     1.00800     H ( 1.00)

     No symmetry found

   Cartesian axes

     site n.     atom                  positions (alat units)
         1           Ti1 tau(   1) = (   0.0004258   2.9801865   6.0000000  )
         2           Ti1 tau(   2) = (   3.2906075   1.4906267   6.0002472  )
         3           O1  tau(   3) = (   0.0006271   0.0005054   7.9858123  )
         4           O1  tau(   4) = (   3.2906025   0.0005020   7.3038282  )
         5           O1  tau(   5) = (   4.5942328   1.4918067   9.2879030  )
         6           O1  tau(   6) = (   1.9868534   1.4903216   9.2879459  )
         7           Ti1 tau(   7) = (   3.2907910   2.8959150   9.1758416  )
         8           Ti1 tau(   8) = (   0.0015273   1.4827037   9.2680791  )
         9           O1  tau(   9) = (   3.3049802   0.0007868  11.3057318  )
        10           O1  tau(  10) = (   0.0116148   5.9584955  10.6183126  )
        11           O1  tau(  11) = (   1.3244024   1.4905818  12.6109357  )
        12           O1  tau(  12) = (   5.3168099   1.4893704  12.6271843  )
        13           Ti1 tau(  13) = (   6.5373159   3.0114403  12.6515439  )
        14           Ti1 tau(  14) = (   3.2156784   1.4952808  12.4541107  )
        15           O1  tau(  15) = (   0.0550716   5.9579553  14.6769760  )
        16           O1  tau(  16) = (   3.3119233   0.0240268  13.8744051  )
        17           O1  tau(  17) = (   4.5754650   1.5399768  16.1198157  )
        18           O1  tau(  18) = (   2.0928293   1.5118261  15.9950610  )
        19           Ti1 tau(  19) = (   3.3312717   3.0210965  15.6459898  )
        20           Ti1 tau(  20) = (   0.0837956   1.4057146  15.8023643  )
        21           O1  tau(  21) = (   3.2904802   0.0005063   4.7018136  )
        22           O1  tau(  22) = (   0.0662678   0.0194342  17.2484716  )
        23           O1  tau(  23) = (   1.3043587   1.4918075   6.0039043  )
        24           O1  tau(  24) = (   5.2767064   1.4903225   6.0039473  )
        25           Ti1 tau(  25) = (   0.0000382   5.9609847   6.0000000  )
        26           Ti1 tau(  26) = (   3.2902200   4.4714249   6.0002472  )
        27           O1  tau(  27) = (   0.0002396   2.9813036   7.9858123  )
        28           O1  tau(  28) = (   3.2902150   2.9813002   7.3038282  )
        29           O1  tau(  29) = (   4.5938453   4.4726049   9.2879030  )
        30           O1  tau(  30) = (   1.9864658   4.4711199   9.2879459  )
        31           Ti1 tau(  31) = (   3.2891106   5.8743827   9.1763621  )
        32           Ti1 tau(  32) = (   0.0006254   4.4649316   9.2693709  )
        33           O1  tau(  33) = (   3.3066024   2.9928613  11.3071500  )
        34           O1  tau(  34) = (   0.0092240   2.9805883  10.6323155  )
        35           O1  tau(  35) = (   1.3207996   4.4694119  12.6241097  )
        36           O1  tau(  36) = (   5.3140488   4.4801720  12.6365454  )
        37           Ti1 tau(  37) = (   6.5381296   0.0208815  12.5444857  )
        38           Ti1 tau(  38) = (   3.2183512   4.4801350  12.4586296  )
        39           O1  tau(  39) = (   0.0202472   2.9427232  14.7250097  )
        40           O1  tau(  40) = (   3.3152672   2.9848540  13.8607131  )
        41           O1  tau(  41) = (   4.5737023   4.5140360  15.9163038  )
        42           O1  tau(  42) = (   2.1295162   4.4918226  16.0779194  )
        43           Ti1 tau(  43) = (   3.3279662   0.0229233  15.6733299  )
        44           Ti1 tau(  44) = (   6.5520288   4.5036137  16.2892914  )
        45           O1  tau(  45) = (   3.2900926   2.9813045   4.7018136  )
        46           O1  tau(  46) = (   1.3039711   4.4726057   6.0039043  )
        47           O1  tau(  47) = (   5.2763189   4.4711207   6.0039473  )
        48           N1  tau(  48) = (   0.3708600   2.9881754  17.6030774  )
        49           C1  tau(  49) = (   1.3543844   2.7351176  18.6431602  )
        50           H1  tau(  50) = (   1.5086739   3.6319226  19.2591966  )
        51           H1  tau(  51) = (   1.0320479   1.9069190  19.2840631  )
        52           H1  tau(  52) = (   2.3019873   2.4496563  18.1994378  )
        53           N1  tau(  53) = (   5.7269228   3.4566738  18.1314761  )
        54           H1  tau(  54) = (   5.8315057   4.0292447  18.9562490  )
        55           H1  tau(  55) = (   5.0361168   2.7172796  18.2515220  )

     number of k points=    10  Fermi-Dirac smearing, width (Ry)=  0.0073
                       cart. coord. in units 2pi/alat
        k(    1) = (   0.0000000   0.0000000   0.0000000), wk =   0.1250000
        k(    2) = (   0.0000000   0.0419351   0.0000000), wk =   0.2500000
        k(    3) = (   0.0000000  -0.0838702   0.0000000), wk =   0.1250000
        k(    4) = (   0.0379955   0.0000049   0.0000000), wk =   0.2500000
        k(    5) = (   0.0379955   0.0419400   0.0000000), wk =   0.2500000
        k(    6) = (   0.0379955  -0.0838652   0.0000000), wk =   0.2500000
        k(    7) = (   0.0379955  -0.0419301   0.0000000), wk =   0.2500000
        k(    8) = (  -0.0759910  -0.0000099   0.0000000), wk =   0.1250000
        k(    9) = (  -0.0759910   0.0419252   0.0000000), wk =   0.2500000
        k(   10) = (  -0.0759910  -0.0838800   0.0000000), wk =   0.1250000

     Initial potential from superposition of free atoms

     starting charge  380.99914, renormalised to  397.00000

     negative rho (up, down):  1.666E-02 0.000E+00

     %%%%%%%%%%%%%%%%%%%%%%%%%%%%%%%%%%%%%%%%%%%%%%%%%%%%%%%%%%%%%%%%%%%%%%%%
     %                                                                      %
     % You are using vdW-DF, which was implemented by the Thonhauser group. %
     % Please cite the following two papers that made this development      %
     % possible and the two reviews that describe the various versions:     %
     %                                                                      %
     %   T. Thonhauser et al., PRL 115, 136402 (2015).                      %
     %   T. Thonhauser et al., PRB 76, 125112 (2007).                       %
     %   K. Berland et al., Rep. Prog. Phys. 78, 066501 (2015).             %
     %   D.C. Langreth et al., J. Phys.: Condens. Matter 21, 084203 (2009). %
     %                                                                      %
     %                                                                      %
     % If you are calculating the stress with vdW-DF, please also cite:     %
     %                                                                      %
     %   R. Sabatini et al., J. Phys.: Condens. Matter 24, 424209 (2012).   %
     %                                                                      %
     %%%%%%%%%%%%%%%%%%%%%%%%%%%%%%%%%%%%%%%%%%%%%%%%%%%%%%%%%%%%%%%%%%%%%%%%

     Adding external electric field

     Computed dipole along edir(3) :
        Dipole               -9.2532 Ry au,        -23.5193 Debye
        Dipole field         -0.0175 Ry au,

        Potential amp.        1.6187 Ry
        Total length         46.3494 bohr

     Starting wfcs are  301 atomic wfcs
  @ DRIVER MODE: Message from server: STATUS
  @ DRIVER MODE: Message from server: POSDATA
  @ DRIVER MODE: Reading and sharing cell
  @ DRIVER MODE: Reading and sharing positions
  @ DRIVER MODE: Received positions

     Self-consistent Calculation

     iteration #  1     ecut=    29.40 Ry     beta= 0.05
     Davidson diagonalization with overlap
     c_bands:  1 eigenvalues not converged
     c_bands:  2 eigenvalues not converged
     c_bands:  1 eigenvalues not converged
     c_bands:  2 eigenvalues not converged
     c_bands:  2 eigenvalues not converged
     c_bands:  1 eigenvalues not converged
     c_bands:  2 eigenvalues not converged
     c_bands:  2 eigenvalues not converged
     c_bands:  4 eigenvalues not converged
     ethr =  1.00E-05,  avg # of iterations = 19.7

[...]

     total energy              =   -2525.57116604 Ry
     estimated scf accuracy    <    4612.70567870 Ry

     iteration #  2     ecut=    29.40 Ry     beta= 0.05
     Davidson diagonalization with overlap
     ethr =  1.00E-02,  avg # of iterations = 22.6

[...]

     iteration # 68     ecut=    29.40 Ry     beta= 0.05
     Davidson diagonalization with overlap
     c_bands:  1 eigenvalues not converged
     ethr =  7.54E-11,  avg # of iterations = 12.9

[...]

     total energy              =   -2941.63739771 Ry
     estimated scf accuracy    <       0.00000012 Ry

     iteration # 71     ecut=    29.40 Ry     beta= 0.05
     Davidson diagonalization with overlap
     ethr =  3.13E-11,  avg # of iterations = 10.3

     negative rho (up, down):  1.676E-02 0.000E+00

     Adding external electric field

     Computed dipole along edir(3) :
        Dipole                1.1487 Ry au,          2.9196 Debye
        Dipole field          0.0022 Ry au,

        Potential amp.       -0.2009 Ry
        Total length         46.3494 bohr

     End of self-consistent calculation

          k = 0.0000 0.0000 0.0000 ( 18029 PWs)   bands (ev):

   -55.5728 -55.5697 -55.5360 -55.5357 -55.4592 -55.4230 -55.4212 -55.3879
   -55.3704 -55.3363 -55.3253 -55.2915 -55.0323 -54.8881 -54.5362 -54.5022
   -32.1356 -32.0508 -31.9564 -31.8923 -31.8873 -31.8724 -31.8624 -31.8179
   -31.8104 -31.8041 -31.7839 -31.7588 -31.7548 -31.7253 -31.7221 -31.7147
   -31.6728 -31.6599 -31.6570 -31.6480 -31.6472 -31.6272 -31.6109 -31.5954
   -31.5685 -31.5677 -31.5660 -31.5580 -31.5557 -31.5292 -31.5055 -31.5045
   -31.4989 -31.4922 -31.4799 -31.4738 -31.4390 -31.3086 -31.2573 -31.1591
   -31.1409 -31.0487 -30.9427 -30.8560 -30.8335 -30.7597 -30.6732 -30.5619
   -17.6057 -16.3616 -16.0483 -15.8374 -15.7260 -15.7215 -15.6377 -15.4166
   -15.2966 -15.2810 -15.1649 -15.1599 -15.1010 -15.0607 -15.0543 -15.0486
   -15.0138 -15.0016 -14.9830 -14.9531 -14.9144 -14.8968 -14.8770 -14.7707
   -14.7090 -14.6987 -14.6832 -14.6162 -14.5724 -14.2087 -13.0383 -12.9221
   -12.5573  -9.2157  -6.3852  -5.0984  -4.2021  -3.7398  -3.5488  -3.4730
    -3.4383  -3.3743  -3.3626  -3.1824  -3.1747  -2.7968  -2.7759  -2.7568
    -2.7352  -2.7326  -2.4646  -2.4111  -2.3953  -2.3928  -2.3753  -2.3575
    -2.3362  -2.3254  -2.2972  -2.2904  -2.1555  -2.1107  -2.0320  -2.0015
    -1.9915  -1.8780  -1.8548  -1.8333  -1.8223  -1.8080  -1.7797  -1.7718
    -1.7515  -1.6427  -1.5341  -1.4609  -1.4147  -1.3611  -1.3439  -1.1620
    -1.1114  -1.0525  -1.0274  -1.0024  -0.9873  -0.9536  -0.8794  -0.8554
    -0.7136  -0.6753  -0.6225  -0.5963  -0.5657  -0.5091  -0.4747  -0.4469
    -0.3506  -0.3377  -0.3260  -0.3132  -0.2541  -0.0652  -0.0179   0.0003
     0.0158   0.1160   0.1556   0.1791   0.2151   0.2711   0.2970   0.3637
     0.3939   0.4135   0.4232   0.4472   0.4696   0.6013   0.6300   0.6587
     0.7178   0.7717   0.8484   0.9610   1.0465   1.0995   1.2007   1.4191
     1.4862   1.5700   1.6800   1.7003   2.0558   2.1008   3.5653   3.6557
     3.6940   3.7078   3.8148   3.8664   4.0143   4.0241   4.0668   4.0959

[...]

          k = 0.0380-0.0419 0.0000 ( 17876 PWs)   bands (ev):

[...]

          k =-0.0760-0.0000 0.0000 ( 17886 PWs)   bands (ev):

[...]

          k =-0.0760-0.0839 0.0000 ( 17948 PWs)   bands (ev):

   -55.5575 -55.5533 -55.5520 -55.5510 -55.4484 -55.4320 -55.4080 -55.4027
   -55.3548 -55.3515 -55.3100 -55.3069 -55.0309 -54.8894 -54.5192 -54.5191
   -31.9405 -31.9318 -31.8666 -31.8658 -31.8483 -31.8472 -31.8428 -31.8275
   -31.8006 -31.7869 -31.7676 -31.7488 -31.7205 -31.7120 -31.7070 -31.6820
   -31.6796 -31.6730 -31.6716 -31.6673 -31.6642 -31.6514 -31.6483 -31.6442
   -31.6251 -31.6131 -31.6029 -31.6010 -31.5521 -31.5500 -31.5429 -31.5412
   -31.5341 -31.5306 -31.5254 -31.5238 -31.4140 -31.3209 -31.2591 -31.2201
   -31.1466 -31.0607 -30.8462 -30.8462 -30.7555 -30.7554 -30.7165 -30.7165
   -17.5940 -15.8193 -15.7837 -15.5259 -15.5184 -15.5167 -15.4749 -15.3524
   -15.3039 -15.2772 -15.2656 -15.2467 -15.2403 -15.1355 -15.1229 -15.1056
   -15.0957 -15.0700 -15.0262 -15.0204 -15.0133 -15.0029 -14.9911 -14.9267
   -14.8717 -14.8679 -14.7595 -14.6649 -14.5225 -14.4393 -13.0241 -13.0238
   -12.5765  -9.1772  -6.3448  -5.1276  -4.1350  -3.4324  -3.1205  -3.0765
    -2.7879  -2.7686  -2.7548  -2.6384  -2.5183  -2.5095  -2.4847  -2.4615
    -2.4287  -2.4145  -2.4060  -2.3977  -2.3794  -2.3605  -2.3495  -2.3111
    -2.2418  -2.2344  -2.2258  -2.2168  -2.2002  -2.1763  -2.1664  -2.1383
    -2.1141  -2.0809  -2.0215  -1.9908  -1.8401  -1.7937  -1.7402  -1.6953
    -1.6870  -1.6578  -1.6240  -1.6165  -1.5090  -1.4949  -1.4591  -1.3294
    -1.2677  -1.2598  -1.2271  -1.1418  -1.1021  -0.9727  -0.9598  -0.9239
    -0.8697  -0.8588  -0.8221  -0.7845  -0.7320  -0.6804  -0.6363  -0.6122
    -0.5959  -0.5235  -0.5228  -0.4766  -0.4195  -0.3507  -0.3260  -0.3183
    -0.2870  -0.2428  -0.1971  -0.1321  -0.0573  -0.0365  -0.0216   0.0762
     0.1523   0.3688   0.4139   0.5161   0.5355   0.5615   0.6236   0.6725
     0.7419   0.7562   0.7852   0.8594   0.8817   0.9723   0.9828   0.9993
     1.1778   1.6317   1.8517   1.8526   1.9205   1.9209   3.8594   3.8729
     3.8991   3.9230   4.0846   4.0884   4.1006   4.1033   4.2235   4.2539

     the Fermi energy is     3.5641 ev

!    total energy              =   -2941.63741216 Ry
     estimated scf accuracy    <       0.00000005 Ry
     smearing contrib. (-TS)   =      -0.02170826 Ry
     internal energy E=F+TS    =   -2941.61570390 Ry

     The total energy is F=E-TS. E is the sum of the following terms:
     one-electron contribution =  -24405.84313968 Ry
     hartree contribution      =   12294.86743789 Ry
     xc contribution           =    -486.95201178 Ry
     ewald contribution        =    9656.30951976 Ry
     electric field correction =       0.00248991 Ry

     convergence has been achieved in  71 iterations

     Forces acting on atoms (cartesian axes, Ry/au):

     atom    1 type  1   force =     0.00002170   -0.00018444    0.09682000
     atom    2 type  1   force =     0.00010433   -0.00067209   -0.17457684
     atom    3 type  2   force =     0.00020053   -0.00005173   -0.02507323
     atom    4 type  2   force =     0.00001507   -0.00122225    0.05108697
     atom    5 type  2   force =    -0.01108143   -0.00078642    0.00213509
     atom    6 type  2   force =     0.01303103   -0.00028816    0.00281282
     atom    7 type  1   force =     0.00114178    0.00019822   -0.01337238
     atom    8 type  1   force =    -0.00018208    0.01541310    0.02795400
     atom    9 type  2   force =    -0.00011471    0.00045539    0.00002213
     atom   10 type  2   force =    -0.00221724    0.00097703   -0.01126063
     atom   11 type  2   force =     0.00029362   -0.00011459    0.00016806
     atom   12 type  2   force =    -0.00025919   -0.00012232    0.00039470
     atom   13 type  1   force =    -0.00008305   -0.00027354    0.00010079
     atom   14 type  1   force =     0.00012006    0.00012617   -0.00006346
     atom   15 type  2   force =     0.00011010   -0.00055889   -0.00035257
     atom   16 type  2   force =    -0.00044071    0.00016897    0.00028977
     atom   17 type  2   force =    -0.00018508   -0.00004365   -0.00006662
     atom   18 type  2   force =    -0.00036617   -0.00002945    0.00017264
     atom   19 type  1   force =    -0.00003686    0.00035852   -0.00027636
     atom   20 type  1   force =    -0.00030088    0.00014731    0.00026029
     atom   21 type  2   force =     0.00004906   -0.00009579    0.10296878
     atom   22 type  2   force =    -0.00079217   -0.00046322    0.00048941
     atom   23 type  2   force =    -0.07179108   -0.00021870   -0.02778427
     atom   24 type  2   force =     0.07176126    0.00023688   -0.02784274
     atom   25 type  1   force =     0.00004549   -0.00022695    0.09635961
     atom   26 type  1   force =    -0.00001103   -0.00030565   -0.17484382
     atom   27 type  2   force =     0.00020186   -0.00025545   -0.02391514
     atom   28 type  2   force =     0.00007558   -0.00096443    0.05131354
     atom   29 type  2   force =    -0.01108066    0.00095748    0.00149811
     atom   30 type  2   force =     0.01288422    0.00120018    0.00212873
     atom   31 type  1   force =     0.00115315    0.00257123   -0.01568238
     atom   32 type  1   force =    -0.00001835   -0.01667848    0.02887170
     atom   33 type  2   force =    -0.00017792   -0.00045472    0.00044621
     atom   34 type  2   force =    -0.00258368    0.00114285   -0.01890070
     atom   35 type  2   force =    -0.00011259   -0.00011262    0.00003599
     atom   36 type  2   force =    -0.00002978   -0.00018965    0.00022470
     atom   37 type  1   force =    -0.00024780   -0.00016327    0.00048705
     atom   38 type  1   force =     0.00010318   -0.00053529    0.00034173
     atom   39 type  2   force =     0.00004650    0.00046207    0.00018892
     atom   40 type  2   force =    -0.00031963   -0.00013135   -0.00068724
     atom   41 type  2   force =     0.00018056    0.00004408    0.00005654
     atom   42 type  2   force =    -0.00016157    0.00020669    0.00020478
     atom   43 type  1   force =     0.00003786   -0.00045161   -0.00081313
     atom   44 type  1   force =    -0.00048050    0.00106484   -0.00049409
     atom   45 type  2   force =     0.00006122   -0.00011439    0.10296613
     atom   46 type  2   force =    -0.07181013   -0.00017065   -0.02780001
     atom   47 type  2   force =     0.07176843    0.00021579   -0.02784462
     atom   48 type  3   force =    -0.00012996   -0.00134436   -0.00062752
     atom   49 type  4   force =     0.00007599    0.00108393    0.00061164
     atom   50 type  5   force =     0.00013671   -0.00014847    0.00038579
     atom   51 type  5   force =    -0.00086071   -0.00065398   -0.00005914
     atom   52 type  5   force =     0.00136809   -0.00029708   -0.00000516
     atom   53 type  3   force =    -0.00080128   -0.00686658   -0.00996027
     atom   54 type  5   force =     0.00162141    0.00693391    0.01213402
     atom   55 type  5   force =     0.00006743    0.00122558   -0.00162828

     Total force =     0.367553     Total SCF correction =     0.000384
  @ DRIVER MODE: Message from server: STATUS
  @ DRIVER MODE: Message from server: GETFORCE
  @ DRIVER MODE: Returning v,forces,stress,ensemble

     Writing output data file ./calc.save/
  @ DRIVER MODE: Message from server: EXIT
  @ DRIVE MODE: Exiting

     General routines

     Parallel routines

   This run was terminated on:   0:10:50   3Aug2021

   JOB DONE.