     Program PWSCF v.6.7GPU starts on  9Sep2021 at  6:41:36

     R & G space division:  proc/nbgrp/npool/nimage =      10
     Reading input from /storage/home/hcoda1/3/ntian30/research/carbon/CxH_vib/CH_calc/ads_slab/CHOH_a/out_0023/pw.inp
Warning: card &CELL ignored
Warning: card   CELL_DYNAMICS='IPI', ignored
Warning: card / ignored

     Current dimensions of program PWSCF are:
     Max number of different atomic species (ntypx) = 10
     Max number of k-points (npk) =  40000
     Max angular momentum in pseudopotentials (lmaxx) =  3
     Presently no symmetry can be used with electric field

     Message from routine cell_base_init:
     DEPRECATED: use true lattice parameter, not A to a.u. conversion factor

     IMPORTANT: XC functional enforced from input :
     Exchange-correlation= BEEF-VDW
                           (   1   4  43  14   2   0   0)
     Any further DFT definition will be discarded
     Please, verify this is what you really want

  @ DRIVER MODE: Connecting to
 qe_1139763_2767384.sched-torque.pace.gatech.edugw6p0cng_scratch
  using UNIX socket
  @ DRIVER MODE: Message from server: STATUS
  @ DRIVER MODE: Message from server: INIT
  @ DRIVER MODE: Receiving replica           0          -1
  @ DRIVER MODE: Receiving encoded integer          25
  @ DRIVER MODE:  SCF:  T  FORCE:  T  STRESS:  F  VC:  F  ENSEMBLE:  F
  @ DRIVER MODE:  SCF:  T  FORCE:  T  STRESS:  F  VC:  F  ENSEMBLE:  F

     Using Slab Decomposition

     bravais-lattice index     =            0
     lattice parameter (alat)  =       1.8897  a.u.
     unit-cell volume          =    6658.9804 (a.u.)^3
     number of atoms/cell      =           51
     number of atomic types    =            4
     number of electrons       =       390.00
     number of Kohn-Sham states=          205
     kinetic-energy cutoff     =      29.3995  Ry
     charge density cutoff     =     293.9946  Ry
     scf convergence threshold =      7.3E-08
     mixing beta               =       0.0500
     number of iterations used =            8  plain     mixing
     Exchange-correlation= BEEF-VDW
                           (   1   4  43  14   2   0   0)

     celldm(1)=   1.889726  celldm(2)=   0.000000  celldm(3)=   0.000000
     celldm(4)=   0.000000  celldm(5)=   0.000000  celldm(6)=   0.000000

     crystal axes: (cart. coord. in units of alat)
               a(1) = (   6.579727   0.000000   0.000000 )
               a(2) = (  -0.000775   5.961596   0.000000 )
               a(3) = (   0.000000   0.000000  25.155947 )

     reciprocal axes: (cart. coord. in units 2 pi/alat)
               b(1) = (  0.151982  0.000020  0.000000 )
               b(2) = (  0.000000  0.167740  0.000000 )
               b(3) = (  0.000000  0.000000  0.039752 )

     PseudoPot. # 1 for Ti read from file:
     /storage/coda1/p-amedford6/0/shared/rich_project_chbe-medford/medford-share/data/pseudos_module/espresso/nninc/pbe/van/Ti.UPF
     MD5 check sum: 8e4df49b7f0d34bbd5052bf3f5ea0213
     Pseudo is Ultrasoft, Zval = 12.0
     Generated by new atomic code, or converted to UPF format
     Using radial grid of  851 points,  6 beta functions with:
                l(1) =   0
                l(2) =   0
                l(3) =   1
                l(4) =   1
                l(5) =   2
                l(6) =   2
     Q(r) pseudized with  8 coefficients,  rinner =    1.000   1.000   1.000
                                                       1.000   1.000

     PseudoPot. # 2 for O  read from file:
     /storage/coda1/p-amedford6/0/shared/rich_project_chbe-medford/medford-share/data/pseudos_module/espresso/nninc/pbe/van/O.UPF
     MD5 check sum: 78c19812648e8988a0fe644b0f25305e
     Pseudo is Ultrasoft, Zval =  6.0
     Generated by new atomic code, or converted to UPF format
     Using radial grid of  737 points,  4 beta functions with:
                l(1) =   0
                l(2) =   0
                l(3) =   1
                l(4) =   1
     Q(r) pseudized with  8 coefficients,  rinner =    0.800   0.800   0.800

     PseudoPot. # 3 for C  read from file:
     /storage/coda1/p-amedford6/0/shared/rich_project_chbe-medford/medford-share/data/pseudos_module/espresso/nninc/pbe/van/C.UPF
     MD5 check sum: 1a69bf6b8db32088f5b2163dbdb77a27
     Pseudo is Ultrasoft, Zval =  4.0
     Generated by new atomic code, or converted to UPF format
     Using radial grid of  721 points,  4 beta functions with:
                l(1) =   0
                l(2) =   0
                l(3) =   1
                l(4) =   1
     Q(r) pseudized with  8 coefficients,  rinner =    0.800   0.800   0.800

     PseudoPot. # 4 for H  read from file:
     /storage/coda1/p-amedford6/0/shared/rich_project_chbe-medford/medford-share/data/pseudos_module/espresso/nninc/pbe/van/H.UPF
     MD5 check sum: b5ee9d7bfd3a09ee7748110bda690ff7
     Pseudo is Ultrasoft, Zval =  1.0
     Generated by new atomic code, or converted to UPF format
     Using radial grid of  615 points,  1 beta functions with:
                l(1) =   0
     Q(r) pseudized with  8 coefficients,  rinner =    0.800

     atomic species   valence    mass     pseudopotential
        Ti1           12.00    47.86700     Ti( 1.00)
        O1             6.00    15.99900     O ( 1.00)
        C1             4.00    12.01100     C ( 1.00)
        H1             1.00     1.00800     H ( 1.00)

     No symmetry found

   Cartesian axes

     site n.     atom                  positions (alat units)
         1           Ti1 tau(   1) = (   0.0004258   2.9801865   6.0000000  )
         2           Ti1 tau(   2) = (   3.2906075   1.4906267   6.0002472  )
         3           O1  tau(   3) = (   0.0006271   0.0005054   7.9858123  )
         4           O1  tau(   4) = (   3.2906025   0.0005020   7.3038282  )
         5           O1  tau(   5) = (   4.5942328   1.4918067   9.2879030  )
         6           O1  tau(   6) = (   1.9868534   1.4903216   9.2879459  )
         7           Ti1 tau(   7) = (   3.3189338   3.0017716   9.1565052  )
         8           Ti1 tau(   8) = (   0.0346667   1.4969860   9.2640968  )
         9           O1  tau(   9) = (   3.3073125   0.0088267  11.3792119  )
        10           O1  tau(  10) = (   0.0062670   0.0029933  10.6068016  )
        11           O1  tau(  11) = (   1.3062705   1.5014067  12.6543524  )
        12           O1  tau(  12) = (   5.3087205   1.4988994  12.6673500  )
        13           Ti1 tau(  13) = (   0.0213988   2.9921491  12.5260324  )
        14           Ti1 tau(  14) = (   3.3097092   1.5009918  12.5223738  )
        15           O1  tau(  15) = (   0.0424616   0.0075488  14.6717754  )
        16           O1  tau(  16) = (   3.3005110   0.0073529  14.0105724  )
        17           O1  tau(  17) = (   4.5952227   1.5195780  16.1612446  )
        18           O1  tau(  18) = (   2.0693493   1.5297702  16.1935428  )
        19           Ti1 tau(  19) = (   3.3356741   2.9939547  15.7500326  )
        20           Ti1 tau(  20) = (   0.0335386   1.3679084  15.9371528  )
        21           O1  tau(  21) = (   3.2904802   0.0005063   4.7018136  )
        22           O1  tau(  22) = (   0.0353059   0.0153350  17.1923242  )
        23           O1  tau(  23) = (   1.3043587   1.4918075   6.0039043  )
        24           O1  tau(  24) = (   5.2767064   1.4903225   6.0039473  )
        25           Ti1 tau(  25) = (   0.0000382   5.9609847   6.0000000  )
        26           Ti1 tau(  26) = (   3.2902200   4.4714249   6.0002472  )
        27           O1  tau(  27) = (   0.0002396   2.9813036   7.9858123  )
        28           O1  tau(  28) = (   3.2902150   2.9813002   7.3038282  )
        29           O1  tau(  29) = (   4.5938453   4.4726049   9.2879030  )
        30           O1  tau(  30) = (   1.9864658   4.4711199   9.2879459  )
        31           Ti1 tau(  31) = (   3.3154861   0.0215470   9.1550440  )
        32           Ti1 tau(  32) = (   0.0344056   4.4691587   9.2644328  )
        33           O1  tau(  33) = (   3.3078462   2.9871797  11.3713074  )
        34           O1  tau(  34) = (   0.0058747   2.9832696  10.6292865  )
        35           O1  tau(  35) = (   1.3058732   4.4754499  12.6504552  )
        36           O1  tau(  36) = (   5.3084772   4.4777640  12.6640448  )
        37           Ti1 tau(  37) = (   0.0171148   0.0128214  12.4806662  )
        38           Ti1 tau(  38) = (   3.3088916   4.4784539  12.5193958  )
        39           O1  tau(  39) = (   0.0434956   2.9958159  14.9132474  )
        40           O1  tau(  40) = (   3.3089563   2.9921379  13.9620076  )
        41           O1  tau(  41) = (   4.5951427   4.4669482  16.1652122  )
        42           O1  tau(  42) = (   2.0688924   4.4538916  16.2081353  )
        43           Ti1 tau(  43) = (   3.3160161   0.0142155  15.8078792  )
        44           Ti1 tau(  44) = (   0.0219142   4.6036306  15.9252304  )
        45           O1  tau(  45) = (   3.2900926   2.9813045   4.7018136  )
        46           O1  tau(  46) = (   1.3039711   4.4726057   6.0039043  )
        47           O1  tau(  47) = (   5.2763189   4.4711207   6.0039473  )
        48           C1  tau(  48) = (   6.0523360   2.9466228  19.1488008  )
        49           O1  tau(  49) = (   0.1918362   3.0047394  18.0201065  )
        50           H1  tau(  50) = (   5.0152694   2.8496317  18.7632286  )
        51           H1  tau(  51) = (   1.1393832   3.0938607  18.2282470  )

     number of k points=    10  Fermi-Dirac smearing, width (Ry)=  0.0073
                       cart. coord. in units 2pi/alat
        k(    1) = (   0.0000000   0.0000000   0.0000000), wk =   0.1250000
        k(    2) = (   0.0000000   0.0419351   0.0000000), wk =   0.2500000
        k(    3) = (   0.0000000  -0.0838702   0.0000000), wk =   0.1250000
        k(    4) = (   0.0379955   0.0000049   0.0000000), wk =   0.2500000
        k(    5) = (   0.0379955   0.0419400   0.0000000), wk =   0.2500000
        k(    6) = (   0.0379955  -0.0838652   0.0000000), wk =   0.2500000
        k(    7) = (   0.0379955  -0.0419301   0.0000000), wk =   0.2500000
        k(    8) = (  -0.0759910  -0.0000099   0.0000000), wk =   0.1250000
        k(    9) = (  -0.0759910   0.0419252   0.0000000), wk =   0.2500000
        k(   10) = (  -0.0759910  -0.0838800   0.0000000), wk =   0.1250000

     Initial potential from superposition of free atoms

     starting charge  373.99919, renormalised to  390.00000

     negative rho (up, down):  1.784E-02 0.000E+00

     %%%%%%%%%%%%%%%%%%%%%%%%%%%%%%%%%%%%%%%%%%%%%%%%%%%%%%%%%%%%%%%%%%%%%%%%
     %                                                                      %
     % You are using vdW-DF, which was implemented by the Thonhauser group. %
     % Please cite the following two papers that made this development      %
     % possible and the two reviews that describe the various versions:     %
     %                                                                      %
     %   T. Thonhauser et al., PRL 115, 136402 (2015).                      %
     %   T. Thonhauser et al., PRB 76, 125112 (2007).                       %
     %   K. Berland et al., Rep. Prog. Phys. 78, 066501 (2015).             %
     %   D.C. Langreth et al., J. Phys.: Condens. Matter 21, 084203 (2009). %
     %                                                                      %
     %                                                                      %
     % If you are calculating the stress with vdW-DF, please also cite:     %
     %                                                                      %
     %   R. Sabatini et al., J. Phys.: Condens. Matter 24, 424209 (2012).   %
     %                                                                      %
     %%%%%%%%%%%%%%%%%%%%%%%%%%%%%%%%%%%%%%%%%%%%%%%%%%%%%%%%%%%%%%%%%%%%%%%%

     Adding external electric field

     Computed dipole along edir(3) :
        Dipole               -6.1546 Ry au,        -15.6434 Debye
        Dipole field         -0.0116 Ry au,

        Potential amp.        1.0766 Ry
        Total length         46.3494 bohr

     Starting wfcs are  294 atomic wfcs
  @ DRIVER MODE: Message from server: STATUS
  @ DRIVER MODE: Message from server: POSDATA
  @ DRIVER MODE: Reading and sharing cell
  @ DRIVER MODE: Reading and sharing positions
  @ DRIVER MODE: Received positions

     Self-consistent Calculation

     iteration #  1     ecut=    29.40 Ry     beta= 0.05
     Davidson diagonalization with overlap
     c_bands:  1 eigenvalues not converged
     c_bands:  1 eigenvalues not converged
     c_bands:  1 eigenvalues not converged
     ethr =  1.00E-05,  avg # of iterations = 16.7

[...]

     total energy              =   -2756.82023849 Ry
     estimated scf accuracy    <    1910.38764728 Ry

     iteration #  2     ecut=    29.40 Ry     beta= 0.05
     Davidson diagonalization with overlap
     ethr =  1.00E-02,  avg # of iterations = 19.4

[...]

     iteration # 69     ecut=    29.40 Ry     beta= 0.05
     Davidson diagonalization with overlap
     c_bands:  1 eigenvalues not converged
     ethr =  6.06E-11,  avg # of iterations = 15.0

[...]

     total energy              =   -2929.94100708 Ry
     estimated scf accuracy    <       0.00000011 Ry

     iteration # 71     ecut=    29.40 Ry     beta= 0.05
     Davidson diagonalization with overlap
     ethr =  2.82E-11,  avg # of iterations = 13.6

     negative rho (up, down):  1.676E-02 0.000E+00

     Adding external electric field

     Computed dipole along edir(3) :
        Dipole                0.3811 Ry au,          0.9687 Debye
        Dipole field          0.0007 Ry au,

        Potential amp.       -0.0667 Ry
        Total length         46.3494 bohr

     End of self-consistent calculation

          k = 0.0000 0.0000 0.0000 ( 18029 PWs)   bands (ev):

   -56.0198 -55.9838 -55.9828 -55.9485 -55.9113 -55.9007 -55.8663 -55.8595
   -55.8569 -55.8225 -55.8089 -55.8077 -55.8018 -55.7679 -55.0799 -55.0459
   -32.5889 -32.5173 -32.4804 -32.3856 -32.3359 -32.3326 -32.3219 -32.3127
   -32.2720 -32.2657 -32.2283 -32.2267 -32.2183 -32.1944 -32.1887 -32.1730
   -32.1560 -32.1549 -32.1471 -32.1375 -32.1335 -32.1268 -32.1135 -32.1093
   -32.1011 -32.0852 -32.0778 -32.0392 -32.0341 -32.0262 -32.0228 -32.0102
   -32.0057 -32.0008 -31.9968 -31.9874 -31.9735 -31.9563 -31.9387 -31.9360
   -31.9145 -31.8857 -31.4923 -31.3892 -31.3677 -31.3085 -31.2222 -31.1111
   -21.6103 -16.8522 -16.6011 -16.4641 -16.3599 -16.2414 -16.1243 -16.0622
   -15.9639 -15.8585 -15.7446 -15.6970 -15.6732 -15.6713 -15.6527 -15.6424
   -15.6351 -15.5758 -15.5483 -15.5262 -15.5120 -15.5100 -15.4645 -15.4442
   -15.4111 -15.3772 -15.2515 -15.1812 -15.1233 -14.7902 -13.5806 -13.4611
   -10.7604  -5.9705  -5.0559  -4.3331  -4.1801  -4.0302  -3.9547  -3.9449
    -3.8990  -3.7811  -3.6058  -3.4504  -3.4431  -3.3161  -3.2729  -3.2267
    -3.1839  -3.0552  -3.0009  -2.9884  -2.9141  -2.9096  -2.8953  -2.8847
    -2.7976  -2.7867  -2.7702  -2.7567  -2.6495  -2.6080  -2.4881  -2.4557
    -2.4084  -2.3686  -2.3603  -2.3464  -2.3412  -2.2971  -2.2852  -2.2616
    -2.2075  -2.1502  -2.0549  -1.9247  -1.9156  -1.7980  -1.7655  -1.5988
    -1.5835  -1.5469  -1.5213  -1.4705  -1.4267  -1.4205  -1.3764  -1.2718
    -1.1931  -1.1410  -1.0641  -1.0287  -0.9610  -0.9205  -0.8456  -0.8132
    -0.8091  -0.7798  -0.6823  -0.6128  -0.5536  -0.5123  -0.4946  -0.4708
    -0.3866  -0.3605  -0.2642  -0.2520  -0.2116  -0.2026  -0.0910  -0.0827
    -0.0753  -0.0584  -0.0504   0.0374   0.1115   0.1252   0.1532   0.3079
     0.5247   0.5366   0.5766   0.8327   0.9207   0.9461   1.1053   1.2885
     1.5322   1.5866   3.0764   3.1441   3.1820   3.2037   3.2269   3.2847
     3.5665   3.5817   3.5884   3.6047   3.6316

[...]

          k = 0.0380-0.0419 0.0000 ( 17876 PWs)   bands (ev):

[...]

          k =-0.0760-0.0000 0.0000 ( 17886 PWs)   bands (ev):

[...]

          k =-0.0760-0.0839 0.0000 ( 17948 PWs)   bands (ev):

   -56.0028 -56.0006 -55.9666 -55.9646 -55.9082 -55.8914 -55.8688 -55.8597
   -55.8414 -55.8377 -55.8154 -55.8105 -55.7854 -55.7843 -55.0628 -55.0628
   -32.4422 -32.3935 -32.3907 -32.3089 -32.2961 -32.2944 -32.2752 -32.2595
   -32.2551 -32.2301 -32.2209 -32.2181 -32.2107 -32.1689 -32.1584 -32.1575
   -32.1560 -32.1517 -32.1470 -32.1444 -32.1393 -32.1322 -32.1126 -32.1014
   -32.1011 -32.0995 -32.0952 -32.0915 -32.0874 -32.0853 -32.0839 -32.0600
   -32.0397 -32.0394 -32.0382 -32.0213 -32.0126 -32.0115 -32.0018 -31.9795
   -31.9709 -31.9700 -31.3803 -31.3803 -31.3050 -31.3048 -31.2654 -31.2654
   -21.6094 -16.4723 -16.2570 -16.1944 -16.0400 -16.0352 -16.0049 -15.9771
   -15.8477 -15.8255 -15.8114 -15.7912 -15.7671 -15.7502 -15.7425 -15.7284
   -15.6217 -15.6146 -15.6038 -15.5978 -15.5385 -15.5350 -15.5250 -15.5119
   -15.4792 -15.4765 -15.4494 -15.4460 -15.2990 -15.1614 -13.5623 -13.5618
   -10.7636  -5.9733  -5.0331  -4.2826  -3.5335  -3.5318  -3.4533  -3.2592
    -3.2213  -3.1873  -3.1753  -3.0998  -3.0244  -3.0168  -3.0098  -2.9277
    -2.9212  -2.9183  -2.9159  -2.8543  -2.8473  -2.8104  -2.8056  -2.7557
    -2.7253  -2.7203  -2.7116  -2.6877  -2.6848  -2.6693  -2.6510  -2.6310
    -2.6186  -2.5365  -2.4905  -2.3904  -2.3591  -2.3278  -2.2514  -2.2425
    -2.1586  -2.1291  -2.1086  -2.0707  -2.0261  -2.0092  -1.8500  -1.8167
    -1.8120  -1.7494  -1.6798  -1.6553  -1.6239  -1.5685  -1.5052  -1.4964
    -1.4073  -1.3513  -1.3482  -1.2236  -1.2130  -1.1612  -1.0548  -1.0229
    -1.0144  -1.0103  -1.0018  -0.9387  -0.9279  -0.8631  -0.8131  -0.7654
    -0.7477  -0.7353  -0.5402  -0.4983  -0.4440  -0.3434  -0.3032  -0.1121
    -0.0978  -0.0830   0.0001   0.0377   0.0533   0.1263   0.2463   0.2508
     0.3025   0.3588   0.4013   0.4084   0.4255   1.2968   1.2971   1.2981
     1.4020   1.4040   3.2359   3.2938   3.3213   3.3990   3.4753   3.4976
     3.5851   3.6033   3.6314   3.6362   3.7161

     the Fermi energy is     3.1356 ev

!    total energy              =   -2929.94103208 Ry
     estimated scf accuracy    <       0.00000005 Ry
     smearing contrib. (-TS)   =      -0.03723742 Ry
     internal energy E=F+TS    =   -2929.90379466 Ry

     The total energy is F=E-TS. E is the sum of the following terms:
     one-electron contribution =  -24335.11981886 Ry
     hartree contribution      =   12250.14367018 Ry
     xc contribution           =    -481.18196875 Ry
     ewald contribution        =    9636.25404868 Ry
     electric field correction =       0.00027410 Ry

     convergence has been achieved in  71 iterations

     Forces acting on atoms (cartesian axes, Ry/au):

     atom    1 type  1   force =    -0.00041082   -0.00001833    0.09183994
     atom    2 type  1   force =    -0.00029246    0.00032238   -0.18373075
     atom    3 type  2   force =     0.00041085    0.00007868   -0.02347872
     atom    4 type  2   force =     0.00072218    0.00037740    0.05119757
     atom    5 type  2   force =    -0.01350068    0.00019142    0.00469119
     atom    6 type  2   force =     0.01514307   -0.00002169    0.00541795
     atom    7 type  1   force =    -0.00054548    0.00015544   -0.00021462
     atom    8 type  1   force =     0.00026507    0.00019370    0.00005791
     atom    9 type  2   force =     0.00003689   -0.00004008   -0.00014249
     atom   10 type  2   force =    -0.00021330    0.00004727    0.00039620
     atom   11 type  2   force =     0.00003467   -0.00015091   -0.00013461
     atom   12 type  2   force =     0.00011592   -0.00001913   -0.00008045
     atom   13 type  1   force =    -0.00024109    0.00083623   -0.00045912
     atom   14 type  1   force =     0.00016784   -0.00000498    0.00015043
     atom   15 type  2   force =     0.00001745    0.00032925    0.00035660
     atom   16 type  2   force =    -0.00000999    0.00009243    0.00058108
     atom   17 type  2   force =    -0.00031849   -0.00028474    0.00011326
     atom   18 type  2   force =    -0.00037852   -0.00027625    0.00040515
     atom   19 type  1   force =     0.00006895    0.00010033    0.00012796
     atom   20 type  1   force =    -0.00051997    0.00033417    0.00018383
     atom   21 type  2   force =    -0.00007988    0.00001600    0.10506745
     atom   22 type  2   force =    -0.00004907   -0.00037691   -0.00013085
     atom   23 type  2   force =    -0.06789343   -0.00016449   -0.02656128
     atom   24 type  2   force =     0.06761226    0.00028130   -0.02663939
     atom   25 type  1   force =    -0.00035224   -0.00000320    0.09419620
     atom   26 type  1   force =    -0.00029280   -0.00041944   -0.18374502
     atom   27 type  2   force =     0.00036109    0.00014035   -0.02224537
     atom   28 type  2   force =     0.00077549    0.00030664    0.05091481
     atom   29 type  2   force =    -0.01349042    0.00044137    0.00481455
     atom   30 type  2   force =     0.01515317    0.00023010    0.00552122
     atom   31 type  1   force =    -0.00060945   -0.00030617   -0.00029691
     atom   32 type  1   force =     0.00027399   -0.00007454    0.00003440
     atom   33 type  2   force =     0.00000740    0.00002987   -0.00003500
     atom   34 type  2   force =    -0.00007489   -0.00005387    0.00008995
     atom   35 type  2   force =     0.00007580    0.00008579    0.00010811
     atom   36 type  2   force =     0.00006833   -0.00005123    0.00014033
     atom   37 type  1   force =    -0.00025536   -0.00076628   -0.00022025
     atom   38 type  1   force =     0.00021792    0.00008183    0.00068984
     atom   39 type  2   force =    -0.00004324   -0.00064596    0.00048566
     atom   40 type  2   force =    -0.00038127   -0.00017858   -0.00013237
     atom   41 type  2   force =    -0.00020479    0.00012909   -0.00014648
     atom   42 type  2   force =    -0.00044813   -0.00008587    0.00028957
     atom   43 type  1   force =     0.00023315   -0.00017341   -0.00040921
     atom   44 type  1   force =    -0.00061420   -0.00012566   -0.00001033
     atom   45 type  2   force =    -0.00004791    0.00002372    0.10505276
     atom   46 type  2   force =    -0.06790272   -0.00048996   -0.02657649
     atom   47 type  2   force =     0.06762001   -0.00004185   -0.02665355
     atom   48 type  3   force =     0.00185583    0.00012216    0.00042266
     atom   49 type  2   force =    -0.00633728   -0.00058738   -0.00381313
     atom   50 type  4   force =    -0.00010502    0.00002677   -0.00093435
     atom   51 type  4   force =     0.00437555    0.00038723    0.00344417

     Total force =     0.367950     Total SCF correction =     0.000436
  @ DRIVER MODE: Message from server: STATUS
  @ DRIVER MODE: Message from server: GETFORCE
  @ DRIVER MODE: Returning v,forces,stress,ensemble

     Writing output data file ./calc.save/
  @ DRIVER MODE: Message from server: EXIT
  @ DRIVE MODE: Exiting

     General routines

     Parallel routines

   This run was terminated on:   7: 9:55   9Sep2021

   JOB DONE.